     Program PWSCF v.6.8 starts on 20Sep2021 at 20:25:30

     R & G space division:  proc/nbgrp/npool/nimage =      10

     Reading input from /storage/home/hcoda1/3/ntian30/research/carbon/CH3_end_on/ads_slab/CH3ON2_a/CH3_end_on.log/pw.inp
Warning: card &CELL ignored
Warning: card   CELL_DYNAMICS='IPI', ignored
Warning: card / ignored

     Current dimensions of program PWSCF are:
     Max number of different atomic species (ntypx) = 10
     Max number of k-points (npk) =  40000
     Max angular momentum in pseudopotentials (lmaxx) =  4
     Presently no symmetry can be used with electric field

     Message from routine cell_base_init:
     DEPRECATED: use true lattice parameter, not A to a.u. conversion factor

     IMPORTANT: XC functional enforced from input :
     Exchange-correlation= BEEF-VDW
                           (   1   4  43  14   2   0   0)
     Any further DFT definition will be discarded
     Please, verify this is what you really want

  @ DRIVER MODE: Connecting to
 qe_1139763_2915009.sched-torque.pace.gatech.edum3u9bmcg_scratch
  using UNIX socket
  @ DRIVER MODE: Message from server: STATUS
  @ DRIVER MODE: Message from server: INIT
  @ DRIVER MODE: Receiving replica           0          -1
  @ DRIVER MODE: Receiving encoded integer          25
  @ DRIVER MODE:  SCF:  T  FORCE:  T  STRESS:  F  VC:  F  ENSEMBLE:  F
  @ DRIVER MODE:  SCF:  T  FORCE:  T  STRESS:  F  VC:  F  ENSEMBLE:  F

     Using Slab Decomposition

     bravais-lattice index     =            0
     lattice parameter (alat)  =       1.8897  a.u.
     unit-cell volume          =    6658.9804 (a.u.)^3
     number of atoms/cell      =           54
     number of atomic types    =            5
     number of electrons       =       401.00
     number of Kohn-Sham states=          210
     kinetic-energy cutoff     =      29.3995  Ry
     charge density cutoff     =     293.9946  Ry
     scf convergence threshold =      7.3E-08
     mixing beta               =       0.0500
     number of iterations used =            8  plain     mixing
     Exchange-correlation= BEEF-VDW
                           (   1   4  43  14   2   0   0)

     celldm(1)=   1.889726  celldm(2)=   0.000000  celldm(3)=   0.000000
     celldm(4)=   0.000000  celldm(5)=   0.000000  celldm(6)=   0.000000

     crystal axes: (cart. coord. in units of alat)
               a(1) = (   6.579727   0.000000   0.000000 )
               a(2) = (  -0.000775   5.961596   0.000000 )
               a(3) = (   0.000000   0.000000  25.155947 )

     reciprocal axes: (cart. coord. in units 2 pi/alat)
               b(1) = (  0.151982  0.000020  0.000000 )
               b(2) = (  0.000000  0.167740  0.000000 )
               b(3) = (  0.000000  0.000000  0.039752 )

     PseudoPot. # 1 for Ti read from file:
     /storage/coda1/p-amedford6/0/shared/rich_project_chbe-medford/medford-share/data/pseudos_module/espresso/nninc/pbe/van/Ti.UPF
     MD5 check sum: 8e4df49b7f0d34bbd5052bf3f5ea0213
     Pseudo is Ultrasoft, Zval = 12.0
     Generated by new atomic code, or converted to UPF format
     Using radial grid of  851 points,  6 beta functions with:
                l(1) =   0
                l(2) =   0
                l(3) =   1
                l(4) =   1
                l(5) =   2
                l(6) =   2
     Q(r) pseudized with  8 coefficients,  rinner =    1.000   1.000   1.000
                                                       1.000   1.000

     PseudoPot. # 2 for O  read from file:
     /storage/coda1/p-amedford6/0/shared/rich_project_chbe-medford/medford-share/data/pseudos_module/espresso/nninc/pbe/van/O.UPF
     MD5 check sum: 78c19812648e8988a0fe644b0f25305e
     Pseudo is Ultrasoft, Zval =  6.0
     Generated by new atomic code, or converted to UPF format
     Using radial grid of  737 points,  4 beta functions with:
                l(1) =   0
                l(2) =   0
                l(3) =   1
                l(4) =   1
     Q(r) pseudized with  8 coefficients,  rinner =    0.800   0.800   0.800

     PseudoPot. # 3 for C  read from file:
     /storage/coda1/p-amedford6/0/shared/rich_project_chbe-medford/medford-share/data/pseudos_module/espresso/nninc/pbe/van/C.UPF
     MD5 check sum: 1a69bf6b8db32088f5b2163dbdb77a27
     Pseudo is Ultrasoft, Zval =  4.0
     Generated by new atomic code, or converted to UPF format
     Using radial grid of  721 points,  4 beta functions with:
                l(1) =   0
                l(2) =   0
                l(3) =   1
                l(4) =   1
     Q(r) pseudized with  8 coefficients,  rinner =    0.800   0.800   0.800

     PseudoPot. # 4 for H  read from file:
     /storage/coda1/p-amedford6/0/shared/rich_project_chbe-medford/medford-share/data/pseudos_module/espresso/nninc/pbe/van/H.UPF
     MD5 check sum: b5ee9d7bfd3a09ee7748110bda690ff7
     Pseudo is Ultrasoft, Zval =  1.0
     Generated by new atomic code, or converted to UPF format
     Using radial grid of  615 points,  1 beta functions with:
                l(1) =   0
     Q(r) pseudized with  8 coefficients,  rinner =    0.800

     PseudoPot. # 5 for N  read from file:
     /storage/coda1/p-amedford6/0/shared/rich_project_chbe-medford/medford-share/data/pseudos_module/espresso/nninc/pbe/van/N.UPF
     MD5 check sum: 90d10febe142ad51ac9d5be1deb811c4
     Pseudo is Ultrasoft, Zval =  5.0
     Generated by new atomic code, or converted to UPF format
     Using radial grid of  729 points,  4 beta functions with:
                l(1) =   0
                l(2) =   0
                l(3) =   1
                l(4) =   1
     Q(r) pseudized with  8 coefficients,  rinner =    0.800   0.800   0.800

     atomic species   valence    mass     pseudopotential
        Ti1           12.00    47.86700     Ti( 1.00)
        O1             6.00    15.99900     O ( 1.00)
        C1             4.00    12.01100     C ( 1.00)
        H1             1.00     1.00800     H ( 1.00)
        N1             5.00    14.00700     N ( 1.00)

     No symmetry found

   Cartesian axes

     site n.     atom                  positions (alat units)
         1           Ti1 tau(   1) = (   0.0004258   2.9801865   6.0000000  )
         2           Ti1 tau(   2) = (   3.2906075   1.4906267   6.0002472  )
         3           O1  tau(   3) = (   0.0006271   0.0005054   7.9858123  )
         4           O1  tau(   4) = (   3.2906025   0.0005020   7.3038282  )
         5           O1  tau(   5) = (   4.5942328   1.4918067   9.2879030  )
         6           O1  tau(   6) = (   1.9868534   1.4903216   9.2879459  )
         7           Ti1 tau(   7) = (   3.3187032   3.0312427   9.1575206  )
         8           Ti1 tau(   8) = (   0.0282419   1.6147502   9.3704053  )
         9           O1  tau(   9) = (   3.3236385   0.0141534  11.3532293  )
        10           O1  tau(  10) = (   0.0104197   0.0125229  10.6127740  )
        11           O1  tau(  11) = (   1.3245732   1.5021988  12.6430083  )
        12           O1  tau(  12) = (   5.3244981   1.5061434  12.6562219  )
        13           Ti1 tau(  13) = (   0.0403031   3.0097444  12.8244759  )
        14           Ti1 tau(  14) = (   3.3296682   1.5108177  12.4986020  )
        15           O1  tau(  15) = (   0.0398480   0.0117783  14.7343716  )
        16           O1  tau(  16) = (   3.3300567   0.0146708  13.9469669  )
        17           O1  tau(  17) = (   4.5805658   1.5026465  16.1145873  )
        18           O1  tau(  18) = (   2.0880061   1.5021997  16.1152651  )
        19           Ti1 tau(  19) = (   3.3307167   2.9906167  15.7324548  )
        20           Ti1 tau(  20) = (   0.0579274   1.3843852  16.1188819  )
        21           O1  tau(  21) = (   3.2904802   0.0005063   4.7018136  )
        22           O1  tau(  22) = (   0.0436517   5.9586681  17.2572535  )
        23           O1  tau(  23) = (   1.3043587   1.4918075   6.0039043  )
        24           O1  tau(  24) = (   5.2767064   1.4903225   6.0039473  )
        25           Ti1 tau(  25) = (   0.0000382   5.9609847   6.0000000  )
        26           Ti1 tau(  26) = (   3.2902200   4.4714249   6.0002472  )
        27           O1  tau(  27) = (   0.0002396   2.9813036   7.9858123  )
        28           O1  tau(  28) = (   3.2902150   2.9813002   7.3038282  )
        29           O1  tau(  29) = (   4.5938453   4.4726049   9.2879030  )
        30           O1  tau(  30) = (   1.9864658   4.4711199   9.2879459  )
        31           Ti1 tau(  31) = (   3.3083866   0.0539517   9.1541167  )
        32           Ti1 tau(  32) = (   0.0315341   4.5377404   9.2709708  )
        33           O1  tau(  33) = (   3.3215087   2.9954721  11.3555336  )
        34           O1  tau(  34) = (   0.0112336   2.9957203  10.5730616  )
        35           O1  tau(  35) = (   1.3257220   4.4896437  12.6447561  )
        36           O1  tau(  36) = (   5.3225596   4.4851362  12.6583724  )
        37           Ti1 tau(  37) = (   0.0354833   0.0274604  12.5282598  )
        38           Ti1 tau(  38) = (   3.3297026   4.4921445  12.4963722  )
        39           O1  tau(  39) = (   0.0599690   3.0154325  14.7102929  )
        40           O1  tau(  40) = (   3.3251099   2.9889739  13.9402376  )
        41           O1  tau(  41) = (   4.5781535   4.4756942  16.0984728  )
        42           O1  tau(  42) = (   2.0867977   4.4764083  16.0997756  )
        43           Ti1 tau(  43) = (   3.3478802   0.0108728  15.7387323  )
        44           Ti1 tau(  44) = (   0.0598937   4.5429110  15.9843511  )
        45           O1  tau(  45) = (   3.2900926   2.9813045   4.7018136  )
        46           O1  tau(  46) = (   1.3039711   4.4726057   6.0039043  )
        47           O1  tau(  47) = (   5.2763189   4.4711207   6.0039473  )
        48           C1  tau(  48) = (   6.0696523   3.0631652  18.6664891  )
        49           O1  tau(  49) = (   0.0149881   2.9985468  17.3426271  )
        50           H1  tau(  50) = (   4.9903245   2.8753800  18.6581135  )
        51           H1  tau(  51) = (   6.5502243   2.3063723  19.2898855  )
        52           H1  tau(  52) = (   6.2508803   4.0560215  19.0798806  )
        53           N1  tau(  53) = (   6.0696523   3.0631652  21.2664891  )
        54           N1  tau(  54) = (   6.0696523   3.0631652  20.1365091  )

     number of k points=    10  Fermi-Dirac smearing, width (Ry)=  0.0073
                       cart. coord. in units 2pi/alat
        k(    1) = (   0.0000000   0.0000000   0.0000000), wk =   0.1250000
        k(    2) = (   0.0000000   0.0419351   0.0000000), wk =   0.2500000
        k(    3) = (   0.0000000  -0.0838702   0.0000000), wk =   0.1250000
        k(    4) = (   0.0379955   0.0000049   0.0000000), wk =   0.2500000
        k(    5) = (   0.0379955   0.0419400   0.0000000), wk =   0.2500000
        k(    6) = (   0.0379955  -0.0838652   0.0000000), wk =   0.2500000
        k(    7) = (   0.0379955  -0.0419301   0.0000000), wk =   0.2500000
        k(    8) = (  -0.0759910  -0.0000099   0.0000000), wk =   0.1250000
        k(    9) = (  -0.0759910   0.0419252   0.0000000), wk =   0.2500000
        k(   10) = (  -0.0759910  -0.0838800   0.0000000), wk =   0.1250000

[...]
        41           O1  tau(  41) = (   4.5981013   4.4718544  16.0145737  )
        42           O1  tau(  42) = (   2.1167730   4.4781335  16.0143771  )
        43           Ti1 tau(  43) = (   3.3536091   0.0096180  15.6641817  )
        44           Ti1 tau(  44) = (   0.0468267   4.5065591  15.8750818  )
        45           O1  tau(  45) = (   3.2900926   2.9813045   4.7018136  )
        46           O1  tau(  46) = (   1.3039711   4.4726057   6.0039043  )
        47           O1  tau(  47) = (   5.2763189   4.4711207   6.0039473  )
        48           C1  tau(  48) = (   6.1067413   3.0346512  18.5493023  )
        49           O1  tau(  49) = (   0.0475337   2.9951717  17.2309933  )
        50           H1  tau(  50) = (   5.0258195   2.8631362  18.5336683  )
        51           H1  tau(  51) = (   6.5724904   2.2553909  19.1574648  )
        52           H1  tau(  52) = (   6.2994173   4.0140048  18.9898017  )
        53           N1  tau(  53) = (   6.1018586   3.0661610  22.6051171  )
        54           N1  tau(  54) = (   5.3887891   3.1417695  21.7626478  )

     number of k points=    10  Fermi-Dirac smearing, width (Ry)=  0.0073
                       cart. coord. in units 2pi/alat
        k(    1) = (   0.0000000   0.0000000   0.0000000), wk =   0.1250000
        k(    2) = (   0.0000000   0.0419351   0.0000000), wk =   0.2500000
        k(    3) = (   0.0000000  -0.0838702   0.0000000), wk =   0.1250000
        k(    4) = (   0.0379955   0.0000049   0.0000000), wk =   0.2500000
        k(    5) = (   0.0379955   0.0419400   0.0000000), wk =   0.2500000
        k(    6) = (   0.0379955  -0.0838652   0.0000000), wk =   0.2500000
        k(    7) = (   0.0379955  -0.0419301   0.0000000), wk =   0.2500000
        k(    8) = (  -0.0759910  -0.0000099   0.0000000), wk =   0.1250000
        k(    9) = (  -0.0759910   0.0419252   0.0000000), wk =   0.2500000
        k(   10) = (  -0.0759910  -0.0838800   0.0000000), wk =   0.1250000

     Initial potential from superposition of free atoms

     starting charge  384.99916, renormalised to  401.00000

[...]

     %%%%%%%%%%%%%%%%%%%%%%%%%%%%%%%%%%%%%%%%%%%%%%%%%%%%%%%%%%%%%%%%%%%%%%%%
     %                                                                      %
     % You are using vdW-DF, which was implemented by the Thonhauser group. %
     % Please cite the following two papers that made this development      %
     % possible and the two reviews that describe the various versions:     %
     %                                                                      %
     %   T. Thonhauser et al., PRL 115, 136402 (2015).                      %
     %   T. Thonhauser et al., PRB 76, 125112 (2007).                       %
     %   K. Berland et al., Rep. Prog. Phys. 78, 066501 (2015).             %
     %   D.C. Langreth et al., J. Phys.: Condens. Matter 21, 084203 (2009). %
     %                                                                      %
     %                                                                      %
     % If you are calculating the stress with vdW-DF, please also cite:     %
     %                                                                      %
     %   R. Sabatini et al., J. Phys.: Condens. Matter 24, 424209 (2012).   %
     %                                                                      %
     %%%%%%%%%%%%%%%%%%%%%%%%%%%%%%%%%%%%%%%%%%%%%%%%%%%%%%%%%%%%%%%%%%%%%%%%

[...]

     Starting wfcs are  303 atomic wfcs
  @ DRIVER MODE: Message from server: STATUS
  @ DRIVER MODE: Message from server: POSDATA
  @ DRIVER MODE: Reading and sharing cell
  @ DRIVER MODE: Reading and sharing positions
  @ DRIVER MODE: Received positions

[...]

     Self-consistent Calculation

[...]

     iteration # 14     ecut=    29.40 Ry     beta= 0.05
     Davidson diagonalization with overlap
     c_bands:  1 eigenvalues not converged
     ethr =  4.83E-11,  avg # of iterations = 13.9

[...]

     total energy              =   -2971.68373870 Ry
     estimated scf accuracy    <       0.00000009 Ry

     iteration # 17     ecut=    29.40 Ry     beta= 0.05
     Davidson diagonalization with overlap
     ethr =  2.30E-11,  avg # of iterations =  3.3

[...]

     End of self-consistent calculation

[...]

          k = 0.0380-0.0419 0.0000 ( 17876 PWs)   bands (ev):

[...]

          k =-0.0760-0.0839 0.0000 ( 17948 PWs)   bands (ev):

   -55.6056 -55.5919 -55.5850 -55.5831 -55.5091 -55.4955 -55.4612 -55.4600
   -55.4555 -55.3865 -55.3828 -55.3589 -55.3545 -55.2631 -54.6143 -54.6132
   -31.9726 -31.9671 -31.9208 -31.9086 -31.8976 -31.8940 -31.8761 -31.8716
   -31.8682 -31.8266 -31.8038 -31.7981 -31.7968 -31.7584 -31.7479 -31.7422
   -31.7323 -31.7318 -31.7280 -31.7228 -31.7194 -31.7022 -31.6974 -31.6920
   -31.6874 -31.6810 -31.6744 -31.6636 -31.6635 -31.6588 -31.6352 -31.6113
   -31.6105 -31.6080 -31.6029 -31.5858 -31.5812 -31.5698 -31.5635 -31.5530
   -31.4931 -31.4574 -30.9345 -30.9332 -30.8541 -30.8533 -30.8148 -30.8139
   -21.1977 -17.3219 -15.7918 -15.7808 -15.5369 -15.5348 -15.5324 -15.4638
   -15.3725 -15.3554 -15.3369 -15.3324 -15.2747 -15.2674 -15.2527 -15.1928
   -15.1529 -15.1338 -15.1217 -15.1193 -15.0664 -15.0622 -15.0097 -14.9874
   -14.9723 -14.9654 -14.9476 -14.9410 -14.8516 -14.8482 -14.7760 -13.1159
   -13.1136  -9.1860  -6.3650  -4.3370  -4.3274  -3.9469  -3.7963  -3.5441
    -3.0841  -3.0700  -3.0500  -2.7784  -2.7538  -2.7520  -2.6582  -2.5711
    -2.5322  -2.4949  -2.4570  -2.4539  -2.4524  -2.4335  -2.4143  -2.4023
    -2.3804  -2.3661  -2.3546  -2.2950  -2.2587  -2.2503  -2.2457  -2.2372
    -2.2098  -2.1899  -2.1684  -2.1623  -2.1522  -2.1322  -2.0392  -1.8998
    -1.8658  -1.7564  -1.7463  -1.7163  -1.7020  -1.6704  -1.6632  -1.6439
    -1.5373  -1.4679  -1.3461  -1.3336  -1.3156  -1.2639  -1.1943  -1.1211
    -1.0638  -1.0326  -1.0143  -0.9242  -0.9119  -0.8335  -0.8216  -0.7693
    -0.7328  -0.7150  -0.6229  -0.5843  -0.5712  -0.5577  -0.4884  -0.4722
    -0.4464  -0.4137  -0.3546  -0.3450  -0.2705  -0.2390  -0.1907  -0.1299
    -0.1083  -0.0561   0.0318   0.2001   0.2937   0.3935   0.4293   0.4879
     0.5006   0.5968   0.6405   0.6588   0.6640   0.7482   0.8148   0.8417
     0.9087   0.9232   0.9457   1.0089   1.7531   1.7546   1.8448   1.8550
     3.7758   3.8040   3.8240   3.8706   4.0298   4.0344   4.0535   4.0570
     4.1322   4.1941

     the Fermi energy is     3.5381 ev

!    total energy              =   -2971.68373087 Ry
     estimated scf accuracy    <       0.00000006 Ry
     smearing contrib. (-TS)   =      -0.02321038 Ry
     internal energy E=F+TS    =   -2971.66052049 Ry

     The total energy is F=E-TS. E is the sum of the following terms:
     one-electron contribution =  -22785.47709158 Ry
     hartree contribution      =   11484.71461218 Ry
     xc contribution           =    -492.26914293 Ry
     ewald contribution        =    8821.37001481 Ry
     electric field correction =       0.00108703 Ry

     convergence has been achieved in  17 iterations

     Forces acting on atoms (cartesian axes, Ry/au):

     atom    1 type  1   force =    -0.00020677   -0.00155210    0.10615170
     atom    2 type  1   force =    -0.00046684    0.00048256   -0.17983310
     atom    3 type  2   force =     0.00026570   -0.00689503   -0.03317885
     atom    4 type  2   force =     0.00053984    0.00050653    0.04565666
     atom    5 type  2   force =    -0.01839654    0.00015378    0.00401210
     atom    6 type  2   force =     0.02061133   -0.00128024    0.00460716
     atom    7 type  1   force =    -0.00035648   -0.00017384    0.00006413
     atom    8 type  1   force =    -0.00018000   -0.00125761    0.00019974
     atom    9 type  2   force =     0.00000867    0.00011763   -0.00077732
     atom   10 type  2   force =    -0.00005969    0.00003217   -0.00041552
     atom   11 type  2   force =     0.00006442    0.00008256    0.00043024
     atom   12 type  2   force =    -0.00074018    0.00015804    0.00038784
     atom   13 type  1   force =     0.00000260    0.00043929    0.00054306
     atom   14 type  1   force =    -0.00014321    0.00088647    0.00019858
     atom   15 type  2   force =    -0.00046778   -0.00029867    0.00004143
     atom   16 type  2   force =    -0.00019091    0.00013004   -0.00070648
     atom   17 type  2   force =    -0.00040741    0.00006718    0.00015867
     atom   18 type  2   force =     0.00038586   -0.00009792   -0.00044088
     atom   19 type  1   force =    -0.00004626    0.00072477   -0.00054045
     atom   20 type  1   force =    -0.00031089    0.00009540   -0.00041327
     atom   21 type  2   force =    -0.00007205    0.00009967    0.10417358
     atom   22 type  2   force =    -0.00009142   -0.00043472   -0.00074761
     atom   23 type  2   force =    -0.06901210    0.00067751   -0.02953189
     atom   24 type  2   force =     0.06866971    0.00115243   -0.02959418
     atom   25 type  1   force =    -0.00011339    0.00146827    0.11711050
     atom   26 type  1   force =    -0.00022119   -0.00000748   -0.17988702
     atom   27 type  2   force =     0.00042355    0.00389509   -0.02757683
     atom   28 type  2   force =     0.00072451    0.00077651    0.04710553
     atom   29 type  2   force =    -0.01717656    0.00151554    0.00339804
     atom   30 type  2   force =     0.01882460    0.00099199    0.00381779
     atom   31 type  1   force =    -0.00041332    0.00042921   -0.00030906
     atom   32 type  1   force =    -0.00023294    0.00075520    0.00041620
     atom   33 type  2   force =    -0.00029030   -0.00010932   -0.00018106
     atom   34 type  2   force =    -0.00003353    0.00048784    0.00031535
     atom   35 type  2   force =    -0.00004316    0.00005533    0.00055497
     atom   36 type  2   force =    -0.00069928   -0.00006702    0.00043495
     atom   37 type  1   force =    -0.00005059   -0.00017871    0.00007361
     atom   38 type  1   force =    -0.00007861   -0.00117552    0.00008285
     atom   39 type  2   force =    -0.00022273    0.00002080    0.00050250
     atom   40 type  2   force =    -0.00022879    0.00020198    0.00072892
     atom   41 type  2   force =    -0.00093511   -0.00040713   -0.00018510
     atom   42 type  2   force =     0.00080994   -0.00016289   -0.00000753
     atom   43 type  1   force =     0.00022204   -0.00088151    0.00024544
     atom   44 type  1   force =    -0.00000807    0.00116305   -0.00016925
     atom   45 type  2   force =    -0.00006601    0.00007058    0.10423724
     atom   46 type  2   force =    -0.06859797   -0.00128364   -0.02957719
     atom   47 type  2   force =     0.06835430   -0.00086115   -0.02966160
     atom   48 type  3   force =     0.00013297   -0.00066659   -0.00029662
     atom   49 type  2   force =    -0.00013281    0.00042435    0.00014322
     atom   50 type  4   force =     0.00016894    0.00003472   -0.00034163
     atom   51 type  4   force =    -0.00000942   -0.00006551   -0.00027685
     atom   52 type  4   force =     0.00040120   -0.00013047   -0.00026902
     atom   53 type  5   force =     0.00064904   -0.00000305    0.00049298
     atom   54 type  5   force =    -0.00055696   -0.00010638   -0.00136667

     Total force =     0.376165     Total SCF correction =     0.000987
  @ DRIVER MODE: Message from server: STATUS
  @ DRIVER MODE: Message from server: GETFORCE
  @ DRIVER MODE: Returning v,forces,stress,ensemble

     Writing config to output data dir ./calc.save/
  @ DRIVER MODE: Message from server: STATUS
  @ DRIVER MODE: Message from server: INIT
  @ DRIVER MODE: Receiving replica           0           0
  @ DRIVER MODE: Receiving encoded integer           2
  @ DRIVER MODE:  SCF:  T  FORCE:  T  STRESS:  F  VC:  F  ENSEMBLE:  F
  @ DRIVER MODE:  SCF:  F  FORCE:  F  STRESS:  F  VC:  F  ENSEMBLE:  T
  @ DRIVER MODE: Message from server: STATUS
  @ DRIVER MODE: Message from server: POSDATA
  @ DRIVER MODE: Reading and sharing positions
  @ DRIVER MODE: Received positions
     NEW-OLD atomic charge density approx. for the potential

[...]

     Adding external electric field

     Computed dipole along edir(3) :
        Dipole                0.7590 Ry au,          1.9291 Debye
        Dipole field          0.0014 Ry au,

        Potential amp.       -0.1328 Ry
        Total length         46.3494 bohr

  @ DRIVER MODE: BEEF-vdw

[...]

     negative rho (up, down):  1.204E-02 0.000E+00

     negative rho (up, down):  1.204E-02 0.000E+00
 BEEFens 2000 ensemble energies
             -0.353454920412508E+02
             -0.204197993416483E+01
             -0.728221479746368E+01
              0.245163449105881E+02
             -0.121464081791281E+02
             -0.938088257619000E+01
             -0.245295425792740E+02
             -0.513046522304766E+02
             -0.218753506285354E+02
             -0.230503631997615E+02
             -0.213657056757512E+02
              0.429321196837008E+01
              0.202499414708774E+01
             -0.107945128879858E+01
              0.176655449601627E+01
              0.270128439989296E+02
             -0.104265047400077E+02
             -0.735247868241784E+01
              0.119934322627888E+02
             -0.631049942250579E+02
              0.316195554113222E+02
             -0.135679276539018E+02
             -0.246885682333473E+01
             -0.570482298719223E+01
             -0.975584135151792E+00
             -0.220969015842515E+01
              0.489754558727151E+02
             -0.152702283869817E+02
             -0.409978370552369E+01
             -0.309614504252819E+02
              0.400385605559579E+02
             -0.443103722684819E+01
             -0.217980340188465E+02
              0.114279499024402E+02
             -0.209088418407407E+01
              0.132798145961768E+02
             -0.560121579148330E+00
              0.275952910699638E+01
              0.192947233552925E+02
             -0.557252568243922E+02
              0.310463599953978E+02
              0.825995990531241E+01
             -0.638064463179055E+01
             -0.177998159525046E+02
              0.704465004579839E+01
             -0.111129144496840E+02
              0.254068637664494E+02
              0.202742064346729E+02
             -0.130724294528006E+02
             -0.167158166028292E+02
             -0.176322513305501E+02
             -0.212038196900871E+02
              0.107723684500108E+02
             -0.276210162551720E+02
              0.845311241955403E+01
              0.352514763475710E+02
              0.406518500136181E+02
              0.189337736122309E+02
              0.849033893141035E+01
              0.176687391085973E+02
[...]
             -0.415945647760831E+02
              0.283116985808766E+01
             -0.145062479300858E+01
             -0.578977357130663E+01
              0.629562429642760E-01
             -0.370462103830256E+02
             -0.716664206288111E+01
              0.504138517159534E+01
              0.754042048293033E+01
              0.277407335220595E+02
             -0.242381696186974E+02
              0.316661571569293E+02
             -0.226607993754528E+02
              0.145574826902618E+02
              0.229580705407412E+02

 BEEF-vdW xc energy contributions
           1 :   -416.998433503526
           2 :    363.065223497472
           3 :   -276.290499803260
           4 :    185.927283865948
           5 :   -115.020001631946
           6 :    72.5986144076651
           7 :   -54.8128184768175
           8 :    51.4657715912892
           9 :   -53.0093213207221
          10 :    54.1863527417395
          11 :   -53.7876701621996
          12 :    52.3360051597953
          13 :   -50.1770396077181
          14 :    47.0033560890939
          15 :   -42.4576399990623
          16 :    36.7791816915981
          17 :   -30.9235195547370
          18 :    26.1139937798807
          19 :   -23.2285363361517
          20 :    22.4249211135127
          21 :   -23.2152332881718
          22 :    24.8278321958910
          23 :   -26.5467717522037
          24 :    27.8144080053173
          25 :   -28.2187106771333
          26 :    27.5205078156225
          27 :   -25.7177550204111
          28 :    23.0699325058534
          29 :   -20.0739968457216
          30 :    17.3608465950585
          31 :   -49.0590121897034
          32 :   -33.2699684533709
  @ DRIVER MODE: Message from server: STATUS
  @ DRIVER MODE: Message from server: GETFORCE
  @ DRIVER MODE: Returning v,forces,stress,ensemble
  @ DRIVE MODE: Returning Ensemble Energies

     Writing config to output data dir ./calc.save/
  @ DRIVER MODE: Message from server: EXIT
  @ DRIVE MODE: Exiting

     General routines

     Parallel routines

   This run was terminated on:  11:33:19  21Sep2021

   JOB DONE.