     Program PWSCF v.6.7GPU starts on 15Sep2021 at 20:58:40

     R & G space division:  proc/nbgrp/npool/nimage =      10
     Reading input from /storage/home/hcoda1/3/ntian30/research/carbon/CxH_vib/H2O_calc/ads_slab/CH2NHH2O_a/out_0016/pw.inp
Warning: card &CELL ignored
Warning: card   CELL_DYNAMICS='IPI', ignored
Warning: card / ignored

     Current dimensions of program PWSCF are:
     Max number of different atomic species (ntypx) = 10
     Max number of k-points (npk) =  40000
     Max angular momentum in pseudopotentials (lmaxx) =  3
     Presently no symmetry can be used with electric field

     Message from routine cell_base_init:
     DEPRECATED: use true lattice parameter, not A to a.u. conversion factor

     IMPORTANT: XC functional enforced from input :
     Exchange-correlation= BEEF-VDW
                           (   1   4  43  14   2   0   0)
     Any further DFT definition will be discarded
     Please, verify this is what you really want

  @ DRIVER MODE: Connecting to
 qe_1139763_2852608.sched-torque.pace.gatech.eduvfwa3bic_scratch
  using UNIX socket
  @ DRIVER MODE: Message from server: STATUS
  @ DRIVER MODE: Message from server: INIT
  @ DRIVER MODE: Receiving replica           0          -1
  @ DRIVER MODE: Receiving encoded integer          25
  @ DRIVER MODE:  SCF:  T  FORCE:  T  STRESS:  F  VC:  F  ENSEMBLE:  F
  @ DRIVER MODE:  SCF:  T  FORCE:  T  STRESS:  F  VC:  F  ENSEMBLE:  F

     Using Slab Decomposition

     bravais-lattice index     =            0
     lattice parameter (alat)  =       1.8897  a.u.
     unit-cell volume          =    6658.9804 (a.u.)^3
     number of atoms/cell      =           55
     number of atomic types    =            5
     number of electrons       =       398.00
     number of Kohn-Sham states=          209
     kinetic-energy cutoff     =      29.3995  Ry
     charge density cutoff     =     293.9946  Ry
     scf convergence threshold =      7.3E-08
     mixing beta               =       0.0500
     number of iterations used =            8  plain     mixing
     Exchange-correlation= BEEF-VDW
                           (   1   4  43  14   2   0   0)

     celldm(1)=   1.889726  celldm(2)=   0.000000  celldm(3)=   0.000000
     celldm(4)=   0.000000  celldm(5)=   0.000000  celldm(6)=   0.000000

     crystal axes: (cart. coord. in units of alat)
               a(1) = (   6.579727   0.000000   0.000000 )
               a(2) = (  -0.000775   5.961596   0.000000 )
               a(3) = (   0.000000   0.000000  25.155947 )

     reciprocal axes: (cart. coord. in units 2 pi/alat)
               b(1) = (  0.151982  0.000020  0.000000 )
               b(2) = (  0.000000  0.167740  0.000000 )
               b(3) = (  0.000000  0.000000  0.039752 )

     PseudoPot. # 1 for Ti read from file:
     /storage/coda1/p-amedford6/0/shared/rich_project_chbe-medford/medford-share/data/pseudos_module/espresso/nninc/pbe/van/Ti.UPF
     MD5 check sum: 8e4df49b7f0d34bbd5052bf3f5ea0213
     Pseudo is Ultrasoft, Zval = 12.0
     Generated by new atomic code, or converted to UPF format
     Using radial grid of  851 points,  6 beta functions with:
                l(1) =   0
                l(2) =   0
                l(3) =   1
                l(4) =   1
                l(5) =   2
                l(6) =   2
     Q(r) pseudized with  8 coefficients,  rinner =    1.000   1.000   1.000
                                                       1.000   1.000

     PseudoPot. # 2 for O  read from file:
     /storage/coda1/p-amedford6/0/shared/rich_project_chbe-medford/medford-share/data/pseudos_module/espresso/nninc/pbe/van/O.UPF
     MD5 check sum: 78c19812648e8988a0fe644b0f25305e
     Pseudo is Ultrasoft, Zval =  6.0
     Generated by new atomic code, or converted to UPF format
     Using radial grid of  737 points,  4 beta functions with:
                l(1) =   0
                l(2) =   0
                l(3) =   1
                l(4) =   1
     Q(r) pseudized with  8 coefficients,  rinner =    0.800   0.800   0.800

     PseudoPot. # 3 for N  read from file:
     /storage/coda1/p-amedford6/0/shared/rich_project_chbe-medford/medford-share/data/pseudos_module/espresso/nninc/pbe/van/N.UPF
     MD5 check sum: 90d10febe142ad51ac9d5be1deb811c4
     Pseudo is Ultrasoft, Zval =  5.0
     Generated by new atomic code, or converted to UPF format
     Using radial grid of  729 points,  4 beta functions with:
                l(1) =   0
                l(2) =   0
                l(3) =   1
                l(4) =   1
     Q(r) pseudized with  8 coefficients,  rinner =    0.800   0.800   0.800

     PseudoPot. # 4 for C  read from file:
     /storage/coda1/p-amedford6/0/shared/rich_project_chbe-medford/medford-share/data/pseudos_module/espresso/nninc/pbe/van/C.UPF
     MD5 check sum: 1a69bf6b8db32088f5b2163dbdb77a27
     Pseudo is Ultrasoft, Zval =  4.0
     Generated by new atomic code, or converted to UPF format
     Using radial grid of  721 points,  4 beta functions with:
                l(1) =   0
                l(2) =   0
                l(3) =   1
                l(4) =   1
     Q(r) pseudized with  8 coefficients,  rinner =    0.800   0.800   0.800

     PseudoPot. # 5 for H  read from file:
     /storage/coda1/p-amedford6/0/shared/rich_project_chbe-medford/medford-share/data/pseudos_module/espresso/nninc/pbe/van/H.UPF
     MD5 check sum: b5ee9d7bfd3a09ee7748110bda690ff7
     Pseudo is Ultrasoft, Zval =  1.0
     Generated by new atomic code, or converted to UPF format
     Using radial grid of  615 points,  1 beta functions with:
                l(1) =   0
     Q(r) pseudized with  8 coefficients,  rinner =    0.800

     atomic species   valence    mass     pseudopotential
        Ti1           12.00    47.86700     Ti( 1.00)
        O1             6.00    15.99900     O ( 1.00)
        N1             5.00    14.00700     N ( 1.00)
        C1             4.00    12.01100     C ( 1.00)
        H1             1.00     1.00800     H ( 1.00)

     No symmetry found

   Cartesian axes

     site n.     atom                  positions (alat units)
         1           Ti1 tau(   1) = (   0.0004258   2.9801865   6.0000000  )
         2           Ti1 tau(   2) = (   3.2906075   1.4906267   6.0002472  )
         3           O1  tau(   3) = (   0.0006271   0.0005054   7.9858123  )
         4           O1  tau(   4) = (   3.2906025   0.0005020   7.3038282  )
         5           O1  tau(   5) = (   4.5942328   1.4918067   9.2879030  )
         6           O1  tau(   6) = (   1.9868534   1.4903216   9.2879459  )
         7           Ti1 tau(   7) = (   3.2907910   2.8959150   9.1758416  )
         8           Ti1 tau(   8) = (   0.0015273   1.4827037   9.2680791  )
         9           O1  tau(   9) = (   3.2898722   0.0008919  11.3582996  )
        10           O1  tau(  10) = (   0.0116148   5.9584955  10.6183126  )
        11           O1  tau(  11) = (   1.2941175   1.4997011  12.6415926  )
        12           O1  tau(  12) = (   5.2900041   1.4988670  12.6311679  )
        13           Ti1 tau(  13) = (   0.0286627   2.9677426  12.5549903  )
        14           Ti1 tau(  14) = (   3.3305619   1.4761135  12.5169476  )
        15           O1  tau(  15) = (   0.0011522   0.0488603  14.6479508  )
        16           O1  tau(  16) = (   3.3026717   0.0283160  13.9913086  )
        17           O1  tau(  17) = (   4.5493611   1.5432082  16.1208237  )
        18           O1  tau(  18) = (   2.0202358   1.5417912  16.1150647  )
        19           Ti1 tau(  19) = (   3.2887705   3.0075965  15.7001020  )
        20           Ti1 tau(  20) = (   0.0091052   1.4341126  16.0176487  )
        21           O1  tau(  21) = (   3.2904802   0.0005063   4.7018136  )
        22           O1  tau(  22) = (   6.5755782   5.8726442  17.1894482  )
        23           O1  tau(  23) = (   1.3043587   1.4918075   6.0039043  )
        24           O1  tau(  24) = (   5.2767064   1.4903225   6.0039473  )
        25           Ti1 tau(  25) = (   0.0000382   5.9609847   6.0000000  )
        26           Ti1 tau(  26) = (   3.2902200   4.4714249   6.0002472  )
        27           O1  tau(  27) = (   0.0002396   2.9813036   7.9858123  )
        28           O1  tau(  28) = (   3.2902150   2.9813002   7.3038282  )
        29           O1  tau(  29) = (   4.5938453   4.4726049   9.2879030  )
        30           O1  tau(  30) = (   1.9864658   4.4711199   9.2879459  )
        31           Ti1 tau(  31) = (   3.2891106   5.8743827   9.1763621  )
        32           Ti1 tau(  32) = (   0.0006254   4.4649316   9.2693709  )
        33           O1  tau(  33) = (   3.2934734   2.9861727  11.3537610  )
        34           O1  tau(  34) = (   0.0092240   2.9805883  10.6323155  )
        35           O1  tau(  35) = (   1.2909626   4.4766429  12.6619247  )
        36           O1  tau(  36) = (   5.2900193   4.4803912  12.6490267  )
        37           Ti1 tau(  37) = (   0.0281377   5.9553508  12.5047683  )
        38           Ti1 tau(  38) = (   3.3302429   4.4653876  12.5079491  )
        39           O1  tau(  39) = (   6.5693844   2.9599090  14.8264494  )
        40           O1  tau(  40) = (   3.2969629   2.9925989  13.9157470  )
        41           O1  tau(  41) = (   4.5484520   4.4472025  16.1223275  )
        42           O1  tau(  42) = (   2.0280084   4.4594140  16.0867804  )
        43           Ti1 tau(  43) = (   3.2969344   0.0408593  15.8189202  )
        44           Ti1 tau(  44) = (   0.0203989   4.6198729  15.8219907  )
        45           O1  tau(  45) = (   3.2900926   2.9813045   4.7018136  )
        46           O1  tau(  46) = (   1.3039711   4.4726057   6.0039043  )
        47           O1  tau(  47) = (   5.2763189   4.4711207   6.0039473  )
        48           N1  tau(  48) = (   6.4956655   2.7544209  17.8339637  )
        49           C1  tau(  49) = (   0.7364952   2.7663736  18.8366375  )
        50           H1  tau(  50) = (   0.4484493   3.1483336  19.8159577  )
        51           H1  tau(  51) = (   1.7396475   2.3816028  18.7013769  )
        52           H1  tau(  52) = (   5.5670006   3.0916272  18.0761613  )
        53           O1  tau(  53) = (   3.3072362   0.1002980  18.2711691  )
        54           H1  tau(  54) = (   4.1501014   5.6086691  18.4387546  )
        55           H1  tau(  55) = (   2.5909652   5.4478326  18.5068232  )

     number of k points=    10  Fermi-Dirac smearing, width (Ry)=  0.0073
                       cart. coord. in units 2pi/alat
        k(    1) = (   0.0000000   0.0000000   0.0000000), wk =   0.1250000
        k(    2) = (   0.0000000   0.0419351   0.0000000), wk =   0.2500000
        k(    3) = (   0.0000000  -0.0838702   0.0000000), wk =   0.1250000
        k(    4) = (   0.0379955   0.0000049   0.0000000), wk =   0.2500000
        k(    5) = (   0.0379955   0.0419400   0.0000000), wk =   0.2500000
        k(    6) = (   0.0379955  -0.0838652   0.0000000), wk =   0.2500000
        k(    7) = (   0.0379955  -0.0419301   0.0000000), wk =   0.2500000
        k(    8) = (  -0.0759910  -0.0000099   0.0000000), wk =   0.1250000
        k(    9) = (  -0.0759910   0.0419252   0.0000000), wk =   0.2500000
        k(   10) = (  -0.0759910  -0.0838800   0.0000000), wk =   0.1250000

     Initial potential from superposition of free atoms

     starting charge  381.99915, renormalised to  398.00000

     negative rho (up, down):  1.643E-02 0.000E+00

     %%%%%%%%%%%%%%%%%%%%%%%%%%%%%%%%%%%%%%%%%%%%%%%%%%%%%%%%%%%%%%%%%%%%%%%%
     %                                                                      %
     % You are using vdW-DF, which was implemented by the Thonhauser group. %
     % Please cite the following two papers that made this development      %
     % possible and the two reviews that describe the various versions:     %
     %                                                                      %
     %   T. Thonhauser et al., PRL 115, 136402 (2015).                      %
     %   T. Thonhauser et al., PRB 76, 125112 (2007).                       %
     %   K. Berland et al., Rep. Prog. Phys. 78, 066501 (2015).             %
     %   D.C. Langreth et al., J. Phys.: Condens. Matter 21, 084203 (2009). %
     %                                                                      %
     %                                                                      %
     % If you are calculating the stress with vdW-DF, please also cite:     %
     %                                                                      %
     %   R. Sabatini et al., J. Phys.: Condens. Matter 24, 424209 (2012).   %
     %                                                                      %
     %%%%%%%%%%%%%%%%%%%%%%%%%%%%%%%%%%%%%%%%%%%%%%%%%%%%%%%%%%%%%%%%%%%%%%%%

     Adding external electric field

     Computed dipole along edir(3) :
        Dipole              -10.4007 Ry au,        -26.4360 Debye
        Dipole field         -0.0196 Ry au,

        Potential amp.        1.8194 Ry
        Total length         46.3494 bohr

     Starting wfcs are  301 atomic wfcs
  @ DRIVER MODE: Message from server: STATUS
  @ DRIVER MODE: Message from server: POSDATA
  @ DRIVER MODE: Reading and sharing cell
  @ DRIVER MODE: Reading and sharing positions
  @ DRIVER MODE: Received positions

     Self-consistent Calculation

     iteration #  1     ecut=    29.40 Ry     beta= 0.05
     Davidson diagonalization with overlap
     c_bands:  3 eigenvalues not converged
     c_bands:  3 eigenvalues not converged
     c_bands:  1 eigenvalues not converged
     c_bands:  4 eigenvalues not converged
     c_bands:  4 eigenvalues not converged
     c_bands:  4 eigenvalues not converged
     c_bands:  2 eigenvalues not converged
     c_bands:  3 eigenvalues not converged
     c_bands:  2 eigenvalues not converged
     ethr =  1.00E-05,  avg # of iterations = 19.9

[...]

     total energy              =   -2485.33029558 Ry
     estimated scf accuracy    <    5245.66808726 Ry

     iteration #  2     ecut=    29.40 Ry     beta= 0.05
     Davidson diagonalization with overlap
     ethr =  1.00E-02,  avg # of iterations = 24.3

[...]

     iteration # 59     ecut=    29.40 Ry     beta= 0.05
     Davidson diagonalization with overlap
     c_bands:  1 eigenvalues not converged
     ethr =  5.88E-11,  avg # of iterations = 14.8

[...]

     total energy              =   -2953.94956770 Ry
     estimated scf accuracy    <       0.00000014 Ry

     iteration # 61     ecut=    29.40 Ry     beta= 0.05
     Davidson diagonalization with overlap
     ethr =  3.48E-11,  avg # of iterations =  7.0

     negative rho (up, down):  1.568E-02 0.000E+00

     Adding external electric field

     Computed dipole along edir(3) :
        Dipole                1.2800 Ry au,          3.2535 Debye
        Dipole field          0.0024 Ry au,

        Potential amp.       -0.2239 Ry
        Total length         46.3494 bohr

     End of self-consistent calculation

          k = 0.0000 0.0000 0.0000 ( 18029 PWs)   bands (ev):

   -55.3924 -55.3727 -55.3563 -55.3396 -55.3386 -55.2723 -55.2277 -55.2076
   -55.1978 -55.1891 -55.1720 -55.1652 -55.1228 -54.9947 -54.3826 -54.3485
   -31.9527 -31.8619 -31.7601 -31.7460 -31.7005 -31.6978 -31.6961 -31.6628
   -31.6563 -31.6230 -31.6173 -31.6061 -31.5865 -31.5694 -31.5687 -31.5344
   -31.5318 -31.5254 -31.5108 -31.5078 -31.4835 -31.4558 -31.4527 -31.4356
   -31.4297 -31.4066 -31.4055 -31.4022 -31.4008 -31.3940 -31.3743 -31.3679
   -31.3621 -31.3574 -31.3481 -31.3315 -31.3288 -31.3223 -31.3050 -31.2945
   -31.2213 -31.1084 -30.7909 -30.6992 -30.6770 -30.6076 -30.5209 -30.4098
   -19.1653 -16.2526 -16.1582 -15.9147 -15.7339 -15.6451 -15.5831 -15.3939
   -15.3526 -15.2617 -15.1788 -15.0872 -15.0329 -14.9891 -14.9793 -14.9583
   -14.9324 -14.9224 -14.8846 -14.8701 -14.8684 -14.8215 -14.8193 -14.7805
   -14.7716 -14.7277 -14.7058 -14.5969 -14.5409 -14.4867 -14.0595 -12.8848
   -12.7678  -9.0883  -6.9816  -5.9711  -4.4659  -3.5506  -3.4019  -3.3892
    -3.3025  -3.2961  -3.2284  -3.1179  -2.9285  -2.7744  -2.6887  -2.6449
    -2.5935  -2.5692  -2.5106  -2.4562  -2.3618  -2.2905  -2.2600  -2.2273
    -2.2097  -2.1908  -2.1669  -2.1427  -2.1032  -2.0786  -2.0419  -1.9400
    -1.8539  -1.8004  -1.7855  -1.7151  -1.6923  -1.6864  -1.6781  -1.6684
    -1.6641  -1.6558  -1.6021  -1.5787  -1.5378  -1.4102  -1.3417  -1.2360
    -1.1214  -1.0715  -1.0307  -1.0119  -0.9253  -0.9196  -0.8647  -0.7881
    -0.7553  -0.7145  -0.7016  -0.5745  -0.4925  -0.4814  -0.4306  -0.3568
    -0.2988  -0.2581  -0.2018  -0.1773  -0.1548  -0.1380   0.0026   0.0347
     0.0783   0.1064   0.1349   0.2099   0.2467   0.3088   0.3565   0.3639
     0.4116   0.4982   0.5120   0.5617   0.5659   0.6106   0.6295   0.7253
     0.7601   0.7688   0.8346   0.8685   1.0111   1.2273   1.2346   1.2821
     1.5551   1.6167   1.6403   1.8271   2.2142   2.2615   3.7012   3.7922
     3.8312   3.8496   3.8625   3.9369   4.0760   4.1917   4.1960   4.2258
     4.2392

[...]

          k = 0.0380-0.0419 0.0000 ( 17876 PWs)   bands (ev):

[...]

          k =-0.0760-0.0000 0.0000 ( 17886 PWs)   bands (ev):

[...]

          k =-0.0760-0.0839 0.0000 ( 17948 PWs)   bands (ev):

   -55.3762 -55.3723 -55.3557 -55.3555 -55.3376 -55.2643 -55.2357 -55.1916
   -55.1909 -55.1864 -55.1825 -55.1817 -55.1204 -54.9970 -54.3655 -54.3654
   -31.7625 -31.7515 -31.6771 -31.6770 -31.6599 -31.6492 -31.6482 -31.6480
   -31.6205 -31.6088 -31.5904 -31.5864 -31.5792 -31.5603 -31.5407 -31.5261
   -31.5247 -31.5217 -31.5172 -31.5124 -31.5067 -31.4944 -31.4752 -31.4748
   -31.4683 -31.4668 -31.4650 -31.4347 -31.4239 -31.4163 -31.4060 -31.4020
   -31.4013 -31.4009 -31.3896 -31.3841 -31.3619 -31.3601 -31.3398 -31.2905
   -31.2247 -31.1942 -30.6897 -30.6896 -30.6036 -30.6034 -30.5643 -30.5642
   -19.1645 -16.1952 -15.6514 -15.5923 -15.5218 -15.3671 -15.3610 -15.3359
   -15.2741 -15.1757 -15.1623 -15.1301 -15.1224 -15.0877 -15.0763 -15.0560
   -15.0347 -14.9621 -14.9540 -14.9493 -14.9266 -14.8952 -14.8805 -14.8716
   -14.8496 -14.8450 -14.7896 -14.7425 -14.7395 -14.5486 -14.3547 -12.8695
   -12.8693  -9.0936  -6.9799  -5.9694  -4.4479  -3.3317  -2.9268  -2.7963
    -2.7447  -2.5948  -2.5677  -2.5203  -2.4632  -2.4027  -2.3762  -2.3566
    -2.3097  -2.3031  -2.2551  -2.2416  -2.2208  -2.2196  -2.2106  -2.1642
    -2.1474  -2.1396  -2.1207  -2.1058  -2.0948  -2.0759  -2.0477  -2.0380
    -2.0039  -1.9735  -1.9598  -1.9377  -1.8806  -1.7674  -1.7374  -1.6945
    -1.5834  -1.5755  -1.5678  -1.5281  -1.4815  -1.4754  -1.4478  -1.4181
    -1.3495  -1.3225  -1.1304  -1.1181  -1.1045  -1.0391  -1.0125  -0.9150
    -0.8963  -0.8291  -0.8120  -0.7968  -0.7104  -0.6789  -0.5741  -0.5658
    -0.5492  -0.5145  -0.4074  -0.3601  -0.3520  -0.3473  -0.3260  -0.2429
    -0.2278  -0.2100  -0.1758  -0.1478  -0.1144  -0.1010  -0.0174   0.1526
     0.1625   0.2499   0.3498   0.4445   0.5650   0.6356   0.6446   0.6994
     0.7426   0.8240   0.8675   0.9054   0.9247   1.0358   1.0680   1.0841
     1.0906   1.1460   1.9994   2.0008   2.0814   2.0816   3.7824   3.9312
     4.0005   4.0178   4.0578   4.1835   4.2227   4.2746   4.2762   4.2812
     4.3681

     the Fermi energy is     3.7470 ev

!    total energy              =   -2953.94961597 Ry
     estimated scf accuracy    <       0.00000005 Ry
     smearing contrib. (-TS)   =      -0.03632434 Ry
     internal energy E=F+TS    =   -2953.91329163 Ry

     The total energy is F=E-TS. E is the sum of the following terms:
     one-electron contribution =  -24165.69520389 Ry
     hartree contribution      =   12176.23092494 Ry
     xc contribution           =    -488.89184318 Ry
     ewald contribution        =    9524.43973844 Ry
     electric field correction =       0.00309207 Ry

     convergence has been achieved in  61 iterations

     Forces acting on atoms (cartesian axes, Ry/au):

     atom    1 type  1   force =     0.00005889   -0.00021053    0.09432636
     atom    2 type  1   force =    -0.00029308   -0.00033354   -0.17716645
     atom    3 type  2   force =     0.00001638   -0.00013540   -0.02176679
     atom    4 type  2   force =    -0.00002179   -0.00175403    0.05662052
     atom    5 type  2   force =    -0.01066165   -0.00110594    0.00625443
     atom    6 type  2   force =     0.01216248   -0.00036054    0.00530035
     atom    7 type  1   force =    -0.00069376    0.00165391   -0.01076299
     atom    8 type  1   force =     0.00018890    0.00660098    0.00669915
     atom    9 type  2   force =     0.00025359   -0.00039827   -0.00053903
     atom   10 type  2   force =    -0.00109554    0.00064686   -0.01013593
     atom   11 type  2   force =    -0.00026788   -0.00016441   -0.00021699
     atom   12 type  2   force =     0.00038618   -0.00023761    0.00001860
     atom   13 type  1   force =     0.00018295   -0.00050042    0.00119997
     atom   14 type  1   force =    -0.00007493    0.00039201    0.00043273
     atom   15 type  2   force =     0.00009112    0.00016925    0.00116289
     atom   16 type  2   force =    -0.00018187   -0.00066460    0.00024162
     atom   17 type  2   force =    -0.00006386   -0.00009057   -0.00021032
     atom   18 type  2   force =    -0.00104996    0.00000576    0.00052447
     atom   19 type  1   force =     0.00112106   -0.00038051   -0.00053675
     atom   20 type  1   force =    -0.00141983    0.00067660   -0.00049133
     atom   21 type  2   force =     0.00000540   -0.00004801    0.10368914
     atom   22 type  2   force =    -0.00002452    0.00047945    0.00071656
     atom   23 type  2   force =    -0.07088301   -0.00014740   -0.02717093
     atom   24 type  2   force =     0.07072978    0.00029331   -0.02723870
     atom   25 type  1   force =     0.00000820   -0.00014412    0.09408656
     atom   26 type  1   force =    -0.00022644   -0.00036397   -0.17732325
     atom   27 type  2   force =     0.00005510   -0.00032081   -0.02068508
     atom   28 type  2   force =     0.00005114   -0.00136268    0.05586519
     atom   29 type  2   force =    -0.01088784    0.00029201    0.00603669
     atom   30 type  2   force =     0.01229143    0.00055245    0.00507437
     atom   31 type  1   force =    -0.00057292    0.00496220   -0.01402718
     atom   32 type  1   force =     0.00031105   -0.00743279    0.00636339
     atom   33 type  2   force =     0.00025269    0.00013046   -0.00020295
     atom   34 type  2   force =    -0.00066644    0.00182396   -0.00597203
     atom   35 type  2   force =    -0.00002528   -0.00024849    0.00003030
     atom   36 type  2   force =     0.00025706   -0.00032142    0.00019150
     atom   37 type  1   force =     0.00021245    0.00091613    0.00051896
     atom   38 type  1   force =    -0.00008938    0.00005377    0.00068568
     atom   39 type  2   force =     0.00034356    0.00028182    0.00007274
     atom   40 type  2   force =    -0.00012194   -0.00037319    0.00058049
     atom   41 type  2   force =    -0.00057331   -0.00028255   -0.00037771
     atom   42 type  2   force =    -0.00027679    0.00008982    0.00038456
     atom   43 type  1   force =     0.00077673   -0.00144605   -0.00064949
     atom   44 type  1   force =    -0.00106492    0.00043370   -0.00159911
     atom   45 type  2   force =     0.00000391   -0.00009738    0.10366714
     atom   46 type  2   force =    -0.07090642   -0.00009676   -0.02717338
     atom   47 type  2   force =     0.07075102    0.00033126   -0.02722505
     atom   48 type  3   force =     0.00121741   -0.00104829    0.00032221
     atom   49 type  4   force =    -0.00124772    0.00226521    0.00324128
     atom   50 type  5   force =     0.00134345   -0.00235914   -0.00377610
     atom   51 type  5   force =     0.00030089   -0.00041843    0.00020273
     atom   52 type  5   force =    -0.00117276    0.00128282    0.00038813
     atom   53 type  2   force =     0.00086418   -0.00121204    0.00077216
     atom   54 type  5   force =    -0.00036722    0.00047830   -0.00002339
     atom   55 type  5   force =     0.00069407   -0.00075214   -0.00039996

     Total force =     0.365700     Total SCF correction =     0.000457
  @ DRIVER MODE: Message from server: STATUS
  @ DRIVER MODE: Message from server: GETFORCE
  @ DRIVER MODE: Returning v,forces,stress,ensemble

     Writing output data file ./calc.save/
  @ DRIVER MODE: Message from server: EXIT
  @ DRIVE MODE: Exiting

     General routines

     Parallel routines

   This run was terminated on:  21:15:21  15Sep2021

   JOB DONE.