     Program PWSCF v.6.7GPU starts on 19Oct2021 at  3:37:36

     R & G space division:  proc/nbgrp/npool/nimage =       8
     Reading input from /storage/home/hcoda1/3/ntian30/research/carbon/CxH_vib/Thiel_calc/ads_slab/NNH2HH_perslab/out_0033/pw.inp
Warning: card &CELL ignored
Warning: card   CELL_DYNAMICS='IPI', ignored
Warning: card / ignored

     Current dimensions of program PWSCF are:
     Max number of different atomic species (ntypx) = 10
     Max number of k-points (npk) =  40000
     Max angular momentum in pseudopotentials (lmaxx) =  3
     Presently no symmetry can be used with electric field

     Message from routine cell_base_init:
     DEPRECATED: use true lattice parameter, not A to a.u. conversion factor

     IMPORTANT: XC functional enforced from input :
     Exchange-correlation= BEEF-VDW
                           (   1   4  43  14   2   0   0)
     Any further DFT definition will be discarded
     Please, verify this is what you really want

  @ DRIVER MODE: Connecting to
 qe_1139763_3255133.sched-torque.pace.gatech.edu4nu4ehye_scratch
  using UNIX socket
  @ DRIVER MODE: Message from server: STATUS
  @ DRIVER MODE: Message from server: INIT
  @ DRIVER MODE: Receiving replica           0          -1
  @ DRIVER MODE: Receiving encoded integer          25
  @ DRIVER MODE:  SCF:  T  FORCE:  T  STRESS:  F  VC:  F  ENSEMBLE:  F
  @ DRIVER MODE:  SCF:  T  FORCE:  T  STRESS:  F  VC:  F  ENSEMBLE:  F

     Using Slab Decomposition

     bravais-lattice index     =            0
     lattice parameter (alat)  =       1.8897  a.u.
     unit-cell volume          =    9988.4706 (a.u.)^3
     number of atoms/cell      =           59
     number of atomic types    =            4
     number of electrons       =       440.00
     number of Kohn-Sham states=          230
     kinetic-energy cutoff     =      29.3995  Ry
     charge density cutoff     =     293.9946  Ry
     scf convergence threshold =      7.3E-08
     mixing beta               =       0.0500
     number of iterations used =            8  plain     mixing
     Exchange-correlation= BEEF-VDW
                           (   1   4  43  14   2   0   0)

     celldm(1)=   1.889726  celldm(2)=   0.000000  celldm(3)=   0.000000
     celldm(4)=   0.000000  celldm(5)=   0.000000  celldm(6)=   0.000000

     crystal axes: (cart. coord. in units of alat)
               a(1) = (   6.579727   0.000000   0.000000 )
               a(2) = (  -0.001163   8.942395   0.000000 )
               a(3) = (   0.000000   0.000000  25.155947 )

     reciprocal axes: (cart. coord. in units 2 pi/alat)
               b(1) = (  0.151982  0.000020  0.000000 )
               b(2) = (  0.000000  0.111827  0.000000 )
               b(3) = (  0.000000  0.000000  0.039752 )

     PseudoPot. # 1 for O  read from file:
     /storage/coda1/p-amedford6/0/shared/rich_project_chbe-medford/medford-share/data/pseudos_module/espresso/nninc/pbe/van/O.UPF
     MD5 check sum: 78c19812648e8988a0fe644b0f25305e
     Pseudo is Ultrasoft, Zval =  6.0
     Generated by new atomic code, or converted to UPF format
     Using radial grid of  737 points,  4 beta functions with:
                l(1) =   0
                l(2) =   0
                l(3) =   1
                l(4) =   1
     Q(r) pseudized with  8 coefficients,  rinner =    0.800   0.800   0.800

     PseudoPot. # 2 for Ti read from file:
     /storage/coda1/p-amedford6/0/shared/rich_project_chbe-medford/medford-share/data/pseudos_module/espresso/nninc/pbe/van/Ti.UPF
     MD5 check sum: 8e4df49b7f0d34bbd5052bf3f5ea0213
     Pseudo is Ultrasoft, Zval = 12.0
     Generated by new atomic code, or converted to UPF format
     Using radial grid of  851 points,  6 beta functions with:
                l(1) =   0
                l(2) =   0
                l(3) =   1
                l(4) =   1
                l(5) =   2
                l(6) =   2
     Q(r) pseudized with  8 coefficients,  rinner =    1.000   1.000   1.000
                                                       1.000   1.000

     PseudoPot. # 3 for H  read from file:
     /storage/coda1/p-amedford6/0/shared/rich_project_chbe-medford/medford-share/data/pseudos_module/espresso/nninc/pbe/van/H.UPF
     MD5 check sum: b5ee9d7bfd3a09ee7748110bda690ff7
     Pseudo is Ultrasoft, Zval =  1.0
     Generated by new atomic code, or converted to UPF format
     Using radial grid of  615 points,  1 beta functions with:
                l(1) =   0
     Q(r) pseudized with  8 coefficients,  rinner =    0.800

     PseudoPot. # 4 for N  read from file:
     /storage/coda1/p-amedford6/0/shared/rich_project_chbe-medford/medford-share/data/pseudos_module/espresso/nninc/pbe/van/N.UPF
     MD5 check sum: 90d10febe142ad51ac9d5be1deb811c4
     Pseudo is Ultrasoft, Zval =  5.0
     Generated by new atomic code, or converted to UPF format
     Using radial grid of  729 points,  4 beta functions with:
                l(1) =   0
                l(2) =   0
                l(3) =   1
                l(4) =   1
     Q(r) pseudized with  8 coefficients,  rinner =    0.800   0.800   0.800

     atomic species   valence    mass     pseudopotential
        O1             6.00    15.99900     O ( 1.00)
        Ti1           12.00    47.86700     Ti( 1.00)
        H1             1.00     1.00800     H ( 1.00)
        N1             5.00    14.00700     N ( 1.00)

     No symmetry found

   Cartesian axes

     site n.     atom                  positions (alat units)
         1           O1  tau(   1) = (   0.0007354   0.0005023  10.5931620  )
         2           O1  tau(   2) = (   3.3122003   8.9411730  13.9078397  )
         3           O1  tau(   3) = (   0.0119464   0.1585559  17.3480684  )
         4           O1  tau(   4) = (   0.0006271   0.0005054   7.9858123  )
         5           O1  tau(   5) = (   3.2844644   8.9346379  11.1901754  )
         6           O1  tau(   6) = (   6.5618141   0.0157575  14.6617184  )
         7           O1  tau(   7) = (   1.9868534   1.4903216   9.2879459  )
         8           O1  tau(   8) = (   5.2413352   1.5994427  12.5710249  )
         9           O1  tau(   9) = (   2.0249271   1.5994163  16.0383581  )
        10           Ti1 tau(  10) = (   0.0007404   1.4906270   9.2895810  )
        11           Ti1 tau(  11) = (   3.2875257   1.3541315  12.5031546  )
        12           Ti1 tau(  12) = (   0.1037617   1.4803996  15.8781706  )
        13           O1  tau(  13) = (   4.5942328   1.4918067   9.2879030  )
        14           O1  tau(  14) = (   1.3445879   1.6225681  12.6047105  )
        15           O1  tau(  15) = (   4.5270247   1.5277052  16.0690704  )
        16           Ti1 tau(  16) = (   3.2902859   2.9801868   9.2893338  )
        17           Ti1 tau(  17) = (   6.5717848   2.8351652  12.4611715  )
        18           Ti1 tau(  18) = (   3.3615503   2.9380122  15.7113248  )
        19           O1  tau(  19) = (   0.0003479   2.9813005  10.5931620  )
        20           O1  tau(  20) = (   3.3257229   2.9884659  13.9122956  )
        21           O1  tau(  21) = (   0.0002396   2.9813036   7.9858123  )
        22           O1  tau(  22) = (   3.2846765   2.9682620  11.1924388  )
        23           O1  tau(  23) = (   6.5193973   3.0012958  14.6893217  )
        24           O1  tau(  24) = (   1.9864658   4.4711199   9.2879459  )
        25           O1  tau(  25) = (   5.2358842   4.5821056  12.5715879  )
        26           O1  tau(  26) = (   1.9668816   4.5963109  15.9958849  )
        27           Ti1 tau(  27) = (   0.0003529   4.4714252   9.2895810  )
        28           Ti1 tau(  28) = (   3.2817300   4.3379106  12.5030846  )
        29           Ti1 tau(  29) = (   6.5286400   4.3105241  16.0387364  )
        30           O1  tau(  30) = (   4.5938453   4.4726049   9.2879030  )
        31           O1  tau(  31) = (   1.3350840   4.5883300  12.6034823  )
        32           O1  tau(  32) = (   4.4768606   4.5746599  16.1328061  )
        33           Ti1 tau(  33) = (   3.2898983   5.9609850   9.2893338  )
        34           Ti1 tau(  34) = (   6.5687693   5.8095266  12.4696282  )
        35           Ti1 tau(  35) = (   3.1936624   5.9077503  15.7132784  )
        36           O1  tau(  36) = (  -0.0000397   5.9620987  10.5931620  )
        37           O1  tau(  37) = (   3.2950800   5.9615338  13.9080848  )
        38           O1  tau(  38) = (   6.5705097   6.0321180  17.3127682  )
        39           O1  tau(  39) = (  -0.0001480   5.9621018   7.9858123  )
        40           O1  tau(  40) = (   3.2829949   5.9473389  11.1919414  )
        41           O1  tau(  41) = (   6.5313079   6.0695169  14.6234680  )
        42           O1  tau(  42) = (   1.9860782   7.4519181   9.2879459  )
        43           O1  tau(  43) = (   5.2305909   7.5696458  12.5615615  )
        44           O1  tau(  44) = (   1.9930026   7.5537276  16.0441964  )
        45           Ti1 tau(  45) = (  -0.0000347   7.4522234   9.2895810  )
        46           Ti1 tau(  46) = (   3.2809715   7.3153274  12.5063831  )
        47           Ti1 tau(  47) = (  -0.0000777   7.3827053  15.8005402  )
        48           O1  tau(  48) = (   4.5934577   7.4534031   9.2879030  )
        49           O1  tau(  49) = (   1.3440923   7.5800077  12.5804573  )
        50           O1  tau(  50) = (   4.5564015   7.5743432  16.1458831  )
        51           Ti1 tau(  51) = (   3.2895107   8.9417832   9.2893338  )
        52           Ti1 tau(  52) = (   6.5681474   8.7932977  12.4619754  )
        53           Ti1 tau(  53) = (   3.3227810   8.9003220  15.7121742  )
        54           H1  tau(  54) = (   5.8375475   6.1301351  17.9339333  )
        55           H1  tau(  55) = (   5.7673184   0.1799947  17.8523786  )
        56           H1  tau(  56) = (   0.0490247   3.6154164  19.2291769  )
        57           N1  tau(  57) = (   6.4107751   2.7916545  18.6713363  )
        58           N1  tau(  58) = (   6.5444414   3.0434393  17.3342366  )
        59           H1  tau(  59) = (   0.3957958   1.9871216  18.9670883  )

     number of k points=    10  Fermi-Dirac smearing, width (Ry)=  0.0073
                       cart. coord. in units 2pi/alat
        k(    1) = (   0.0000000   0.0000000   0.0000000), wk =   0.1250000
        k(    2) = (   0.0000000   0.0279567   0.0000000), wk =   0.2500000
        k(    3) = (   0.0000000  -0.0559134   0.0000000), wk =   0.1250000
        k(    4) = (   0.0379955   0.0000049   0.0000000), wk =   0.2500000
        k(    5) = (   0.0379955   0.0279617   0.0000000), wk =   0.2500000
        k(    6) = (   0.0379955  -0.0559085   0.0000000), wk =   0.2500000
        k(    7) = (   0.0379955  -0.0279518   0.0000000), wk =   0.2500000
        k(    8) = (  -0.0759910  -0.0000099   0.0000000), wk =   0.1250000
        k(    9) = (  -0.0759910   0.0279468   0.0000000), wk =   0.2500000
        k(   10) = (  -0.0759910  -0.0559233   0.0000000), wk =   0.1250000

     Initial potential from superposition of free atoms

     starting charge  421.99910, renormalised to  440.00000

     negative rho (up, down):  3.725E-02 0.000E+00

     %%%%%%%%%%%%%%%%%%%%%%%%%%%%%%%%%%%%%%%%%%%%%%%%%%%%%%%%%%%%%%%%%%%%%%%%
     %                                                                      %
     % You are using vdW-DF, which was implemented by the Thonhauser group. %
     % Please cite the following two papers that made this development      %
     % possible and the two reviews that describe the various versions:     %
     %                                                                      %
     %   T. Thonhauser et al., PRL 115, 136402 (2015).                      %
     %   T. Thonhauser et al., PRB 76, 125112 (2007).                       %
     %   K. Berland et al., Rep. Prog. Phys. 78, 066501 (2015).             %
     %   D.C. Langreth et al., J. Phys.: Condens. Matter 21, 084203 (2009). %
     %                                                                      %
     %                                                                      %
     % If you are calculating the stress with vdW-DF, please also cite:     %
     %                                                                      %
     %   R. Sabatini et al., J. Phys.: Condens. Matter 24, 424209 (2012).   %
     %                                                                      %
     %%%%%%%%%%%%%%%%%%%%%%%%%%%%%%%%%%%%%%%%%%%%%%%%%%%%%%%%%%%%%%%%%%%%%%%%

     Adding external electric field

     Computed dipole along edir(3) :
        Dipole               -5.7841 Ry au,        -14.7017 Debye
        Dipole field         -0.0073 Ry au,

        Potential amp.        0.6746 Ry
        Total length         46.3494 bohr

     Starting wfcs are  332 atomic wfcs
  @ DRIVER MODE: Message from server: STATUS
  @ DRIVER MODE: Message from server: POSDATA
  @ DRIVER MODE: Reading and sharing cell
  @ DRIVER MODE: Reading and sharing positions
  @ DRIVER MODE: Received positions

     Self-consistent Calculation

     iteration #  1     ecut=    29.40 Ry     beta= 0.05
     Davidson diagonalization with overlap
     c_bands:  1 eigenvalues not converged
     c_bands:  2 eigenvalues not converged
     c_bands:  4 eigenvalues not converged
     c_bands:  1 eigenvalues not converged
     c_bands:  1 eigenvalues not converged
     c_bands:  5 eigenvalues not converged
     c_bands:  1 eigenvalues not converged
     c_bands:  4 eigenvalues not converged
     c_bands:  4 eigenvalues not converged
     c_bands:  4 eigenvalues not converged
     ethr =  1.00E-05,  avg # of iterations = 20.0

[...]

     total energy              =   -3276.44664247 Ry
     estimated scf accuracy    <     229.16515762 Ry

     iteration #  2     ecut=    29.40 Ry     beta= 0.05
     Davidson diagonalization with overlap
     ethr =  1.00E-02,  avg # of iterations = 16.2

[...]

     iteration # 38     ecut=    29.40 Ry     beta= 0.05
     Davidson diagonalization with overlap
     c_bands:  1 eigenvalues not converged
     ethr =  2.55E-08,  avg # of iterations = 15.8

[...]

     total energy              =   -3293.24431010 Ry
     estimated scf accuracy    <       0.00000008 Ry

     iteration # 57     ecut=    29.40 Ry     beta= 0.05
     Davidson diagonalization with overlap
     ethr =  1.85E-11,  avg # of iterations =  4.7

     negative rho (up, down):  3.571E-02 0.000E+00

     Adding external electric field

     Computed dipole along edir(3) :
        Dipole                1.5614 Ry au,          3.9686 Debye
        Dipole field          0.0020 Ry au,

        Potential amp.       -0.1821 Ry
        Total length         46.3494 bohr

     End of self-consistent calculation

          k = 0.0000 0.0000 0.0000 ( 26871 PWs)   bands (ev):

   -57.7042 -57.6972 -57.6793 -57.6775 -57.6539 -57.6123 -57.5655 -57.5270
   -57.5031 -57.4994 -57.4992 -57.4945 -57.4662 -57.4561 -56.7843 -56.7253
   -56.7011 -56.6975 -34.1014 -34.0867 -34.0848 -34.0831 -34.0591 -34.0408
   -34.0352 -34.0210 -34.0162 -33.9975 -33.9648 -33.9614 -33.9514 -33.9457
   -33.9007 -33.8979 -33.8915 -33.8845 -33.8713 -33.8486 -33.8423 -33.8305
   -33.8268 -33.8215 -33.8009 -33.7996 -33.7973 -33.7806 -33.7653 -33.7431
   -33.7387 -33.7344 -33.7230 -33.7153 -33.7068 -33.6922 -33.6876 -33.6863
   -33.6831 -33.6777 -33.6716 -33.6430 -33.2406 -33.0400 -33.0398 -33.0356
   -33.0241 -33.0209 -32.9935 -32.9788 -32.9514 -32.8887 -32.8846 -32.7510
   -19.1738 -19.0076 -18.8547 -18.5625 -18.1593 -17.9919 -17.9692 -17.9514
   -17.9114 -17.8119 -17.8107 -17.6316 -17.5733 -17.5406 -17.5113 -17.5052
   -17.4341 -17.3963 -17.3809 -17.3626 -17.3564 -17.3502 -17.3331 -17.2891
   -17.2529 -17.1980 -17.1829 -17.1472 -17.1359 -17.1342 -17.1330 -17.0642
   -16.8291 -15.1917 -15.1340 -15.1324 -12.0884  -7.8814  -6.7945  -6.5438
    -6.3304  -5.8911  -5.6742  -5.6219  -5.5406  -5.1844  -5.1704  -5.1024
    -5.0905  -5.0638  -4.9971  -4.9830  -4.9792  -4.9644  -4.8828  -4.8468
    -4.8346  -4.7868  -4.7686  -4.7104  -4.6458  -4.6359  -4.5759  -4.5396
    -4.5042  -4.4986  -4.4932  -4.4846  -4.4686  -4.4348  -4.3607  -4.3103
    -4.1758  -4.1693  -4.1171  -4.0515  -4.0237  -4.0154  -3.9547  -3.8798
    -3.8375  -3.8296  -3.7881  -3.7587  -3.7231  -3.7014  -3.6767  -3.5850
    -3.4920  -3.4580  -3.4533  -3.4119  -3.3990  -3.3460  -3.2310  -3.1777
    -3.1106  -3.0483  -2.9866  -2.9632  -2.9226  -2.8687  -2.8456  -2.7955
    -2.7747  -2.7221  -2.6772  -2.6262  -2.5343  -2.4762  -2.4708  -2.4590
    -2.4028  -2.3869  -2.3727  -2.3500  -2.3249  -2.2699  -2.2375  -2.2060
    -2.1726  -2.1418  -2.0970  -2.0617  -2.0507  -1.9426  -1.9085  -1.8804
    -1.7553  -1.7293  -1.6849  -1.6539  -1.5609  -1.5456  -1.5446  -1.4299
    -1.4142  -1.0973  -1.0005  -0.7460  -0.4749  -0.4296  -0.4288  -0.1650
    -0.1623  -0.0329   0.5290   1.2670   1.5223   1.6683   1.7266   1.7440
     1.7910   1.8757   1.8924   1.9228   1.9409   1.9760

[...]

          k = 0.0380-0.0280 0.0000 ( 26873 PWs)   bands (ev):

[...]

          k =-0.0760-0.0000 0.0000 ( 26902 PWs)   bands (ev):

[...]

          k =-0.0760-0.0559 0.0000 ( 26868 PWs)   bands (ev):

   -57.6965 -57.6963 -57.6947 -57.6699 -57.6552 -57.6116 -57.5655 -57.5204
   -57.5157 -57.4993 -57.4926 -57.4925 -57.4724 -57.4524 -56.7843 -56.7182
   -56.7148 -56.6907 -34.1792 -34.1718 -34.0863 -34.0601 -34.0508 -34.0359
   -34.0305 -34.0284 -33.9969 -33.9870 -33.9533 -33.9303 -33.9035 -33.8954
   -33.8933 -33.8799 -33.8734 -33.8455 -33.8446 -33.8403 -33.8363 -33.8346
   -33.8232 -33.8127 -33.7883 -33.7867 -33.7785 -33.7767 -33.7738 -33.7647
   -33.7554 -33.7491 -33.7343 -33.7327 -33.7205 -33.7182 -33.7150 -33.7095
   -33.6928 -33.6752 -33.6689 -33.6671 -33.2471 -33.1294 -33.0400 -33.0369
   -33.0138 -32.9946 -32.9800 -32.9320 -32.9278 -32.8651 -32.8498 -32.8460
   -19.0975 -19.0793 -18.8410 -18.2561 -18.2392 -17.9259 -17.8839 -17.8353
   -17.8311 -17.8070 -17.7367 -17.7199 -17.6863 -17.6224 -17.5391 -17.5098
   -17.4831 -17.4507 -17.4368 -17.4298 -17.4201 -17.3974 -17.3559 -17.3522
   -17.3017 -17.2552 -17.2201 -17.1701 -17.1396 -17.0896 -17.0641 -17.0368
   -16.8628 -15.1899 -15.1877 -15.0710 -12.0869  -7.8846  -6.7872  -6.5675
    -6.2874  -5.5041  -5.4949  -5.4869  -5.4383  -5.1481  -5.0391  -4.9917
    -4.9874  -4.9610  -4.9034  -4.8886  -4.8759  -4.8602  -4.8488  -4.8128
    -4.8080  -4.7641  -4.7520  -4.7383  -4.6884  -4.6305  -4.6250  -4.6006
    -4.5915  -4.5176  -4.5100  -4.4594  -4.3650  -4.3210  -4.3021  -4.2970
    -4.2588  -4.2259  -4.2181  -4.1467  -3.8986  -3.8898  -3.8669  -3.8487
    -3.8103  -3.7634  -3.7328  -3.7134  -3.6547  -3.5511  -3.4267  -3.3930
    -3.3799  -3.3631  -3.3380  -3.2985  -3.2867  -3.2763  -3.2320  -3.2007
    -3.1984  -3.1554  -3.1131  -3.0238  -2.9893  -2.9323  -2.8871  -2.8445
    -2.8321  -2.8208  -2.8143  -2.7974  -2.7682  -2.7531  -2.7395  -2.7011
    -2.6845  -2.6201  -2.5676  -2.5056  -2.4838  -2.4285  -2.3574  -2.2764
    -2.2530  -2.1907  -2.0980  -2.0408  -2.0005  -1.9676  -1.9487  -1.9279
    -1.8483  -1.8236  -1.7960  -1.7822  -1.5192  -1.5161  -1.3712  -1.3378
    -1.2869  -1.2786  -1.2118  -1.0521  -0.6412  -0.3556  -0.3486  -0.3203
    -0.1647  -0.1644   0.4791   1.4383   1.5031   1.5157   1.6071   1.6139
     1.6285   1.7253   1.7663   1.7699   1.9053   1.9795

     the Fermi energy is     1.3770 ev

!    total energy              =   -3293.24436297 Ry
     estimated scf accuracy    <       0.00000006 Ry
     smearing contrib. (-TS)   =      -0.03194876 Ry
     internal energy E=F+TS    =   -3293.21241421 Ry

     The total energy is F=E-TS. E is the sum of the following terms:
     one-electron contribution =  -34434.92225603 Ry
     hartree contribution      =   17282.62528524 Ry
     xc contribution           =    -542.28775872 Ry
     ewald contribution        =   14401.36924817 Ry
     electric field correction =       0.00306712 Ry

     convergence has been achieved in  57 iterations

     Forces acting on atoms (cartesian axes, Ry/au):

     atom    1 type  1   force =     0.00085040    0.00631903    0.05755739
     atom    2 type  1   force =    -0.00003684   -0.00070933   -0.00476511
     atom    3 type  1   force =    -0.00000091   -0.00167574   -0.00114445
     atom    4 type  1   force =     0.00006892    0.00076902    0.10713783
     atom    5 type  1   force =    -0.00015376   -0.00059430    0.00932134
     atom    6 type  1   force =     0.00135132   -0.00278569    0.00349648
     atom    7 type  1   force =     0.06706470   -0.00000202   -0.02954192
     atom    8 type  1   force =     0.00334774   -0.02853602    0.00245569
     atom    9 type  1   force =     0.01223274   -0.01756249    0.00144450
     atom   10 type  2   force =     0.00007007   -0.00241613   -0.18534041
     atom   11 type  2   force =     0.00015093    0.02112883   -0.00708930
     atom   12 type  2   force =    -0.00549839    0.01509215   -0.00322219
     atom   13 type  1   force =    -0.06727821   -0.00039328   -0.02894045
     atom   14 type  1   force =    -0.00360954   -0.02912523    0.00251193
     atom   15 type  1   force =    -0.00686854   -0.01135344    0.00263563
     atom   16 type  2   force =    -0.00021595   -0.00127597    0.06488501
     atom   17 type  2   force =     0.00030044    0.03525827    0.00391732
     atom   18 type  2   force =    -0.00264702    0.02265619    0.00150858
     atom   19 type  1   force =     0.00074926    0.00408626    0.06082612
     atom   20 type  1   force =     0.00002890   -0.00007854   -0.00396791
     atom   21 type  1   force =     0.00005783   -0.00004657    0.10731485
     atom   22 type  1   force =     0.00002988   -0.00085417    0.00936800
     atom   23 type  1   force =    -0.00004491   -0.00357325    0.00456684
     atom   24 type  1   force =     0.06733955   -0.00051574   -0.02945577
     atom   25 type  1   force =     0.00348069   -0.02947531    0.00312355
     atom   26 type  1   force =     0.00654763   -0.02211810    0.00388586
     atom   27 type  2   force =    -0.00000863    0.00172587   -0.18403303
     atom   28 type  2   force =    -0.00039098    0.02140436   -0.00706954
     atom   29 type  2   force =    -0.00113871    0.02341642   -0.00336956
     atom   30 type  1   force =    -0.06753730   -0.00097861   -0.02876705
     atom   31 type  1   force =    -0.00416226   -0.02931545    0.00228620
     atom   32 type  1   force =    -0.00648940   -0.01861555   -0.00038317
     atom   33 type  2   force =    -0.00033302   -0.00091935    0.06450564
     atom   34 type  2   force =     0.00044056    0.03629341    0.00380819
     atom   35 type  2   force =     0.00231545    0.02406911    0.00260229
     atom   36 type  1   force =     0.00068483    0.00483740    0.05917966
     atom   37 type  1   force =    -0.00015009    0.00147431   -0.00766589
     atom   38 type  1   force =    -0.00036818   -0.00304176    0.00074607
     atom   39 type  1   force =     0.00010797   -0.00015816    0.10690293
     atom   40 type  1   force =     0.00007677   -0.00089339    0.00975093
     atom   41 type  1   force =     0.00078282   -0.00212063    0.00139326
     atom   42 type  1   force =     0.06758683   -0.00029004   -0.02941054
     atom   43 type  1   force =     0.00370319   -0.02888429    0.00186974
     atom   44 type  1   force =     0.00873281   -0.01706073    0.00063911
     atom   45 type  2   force =     0.00023265   -0.00246594   -0.18293315
     atom   46 type  2   force =     0.00024246    0.01986640   -0.00665469
     atom   47 type  2   force =    -0.00010659    0.02225237    0.00167859
     atom   48 type  1   force =    -0.06773357   -0.00078717   -0.02867017
     atom   49 type  1   force =    -0.00361471   -0.02860468    0.00243763
     atom   50 type  1   force =    -0.00820638   -0.01838290   -0.00139114
     atom   51 type  2   force =    -0.00036051   -0.00109960    0.06450198
     atom   52 type  2   force =    -0.00016390    0.03594957    0.00435255
     atom   53 type  2   force =    -0.00167353    0.01466122   -0.00205542
     atom   54 type  3   force =    -0.00069698   -0.00022588    0.00052251
     atom   55 type  3   force =    -0.00093307   -0.00085876    0.00168798
     atom   56 type  3   force =     0.00198386   -0.00214348   -0.00000132
     atom   57 type  4   force =     0.00605046   -0.00769831    0.00345612
     atom   58 type  4   force =     0.00036269   -0.00328401   -0.00013731
     atom   59 type  3   force =    -0.00655246    0.00965984   -0.00226879

     Total force =     0.455929     Total SCF correction =     0.000384
  @ DRIVER MODE: Message from server: STATUS
  @ DRIVER MODE: Message from server: GETFORCE
  @ DRIVER MODE: Returning v,forces,stress,ensemble

     Writing output data file ./calc.save/
  @ DRIVER MODE: Message from server: EXIT
  @ DRIVE MODE: Exiting

     General routines

     Parallel routines

   This run was terminated on:   4: 7:39  19Oct2021

   JOB DONE.