     Program PWSCF v.6.7GPU starts on  2Aug2021 at 14:11:50

     R & G space division:  proc/nbgrp/npool/nimage =      16
     Reading input from /storage/home/hcoda1/3/ntian30/research/carbon/02Aug_vib_paired/ads_slab/CH3N_a/out_0010/pw.inp
Warning: card &CELL ignored
Warning: card   CELL_DYNAMICS='IPI', ignored
Warning: card / ignored

     Current dimensions of program PWSCF are:
     Max number of different atomic species (ntypx) = 10
     Max number of k-points (npk) =  40000
     Max angular momentum in pseudopotentials (lmaxx) =  3
     Presently no symmetry can be used with electric field

     Message from routine cell_base_init:
     DEPRECATED: use true lattice parameter, not A to a.u. conversion factor

     IMPORTANT: XC functional enforced from input :
     Exchange-correlation= BEEF-VDW
                           (   1   4  43  14   2   0   0)
     Any further DFT definition will be discarded
     Please, verify this is what you really want

  @ DRIVER MODE: Connecting to
 qe_1139763_2482542.sched-torque.pace.gatech.eduowkyqw5b_scratch
  using UNIX socket
  @ DRIVER MODE: Message from server: STATUS
  @ DRIVER MODE: Message from server: INIT
  @ DRIVER MODE: Receiving replica           0          -1
  @ DRIVER MODE: Receiving encoded integer          25
  @ DRIVER MODE:  SCF:  T  FORCE:  T  STRESS:  F  VC:  F  ENSEMBLE:  F
  @ DRIVER MODE:  SCF:  T  FORCE:  T  STRESS:  F  VC:  F  ENSEMBLE:  F

     Using Slab Decomposition

     bravais-lattice index     =            0
     lattice parameter (alat)  =       1.8897  a.u.
     unit-cell volume          =    6658.9804 (a.u.)^3
     number of atoms/cell      =           52
     number of atomic types    =            5
     number of electrons       =       390.00
     number of Kohn-Sham states=          205
     kinetic-energy cutoff     =      29.3995  Ry
     charge density cutoff     =     293.9946  Ry
     scf convergence threshold =      7.3E-08
     mixing beta               =       0.0500
     number of iterations used =            8  plain     mixing
     Exchange-correlation= BEEF-VDW
                           (   1   4  43  14   2   0   0)

     celldm(1)=   1.889726  celldm(2)=   0.000000  celldm(3)=   0.000000
     celldm(4)=   0.000000  celldm(5)=   0.000000  celldm(6)=   0.000000

     crystal axes: (cart. coord. in units of alat)
               a(1) = (   6.579727   0.000000   0.000000 )
               a(2) = (  -0.000775   5.961596   0.000000 )
               a(3) = (   0.000000   0.000000  25.155947 )

     reciprocal axes: (cart. coord. in units 2 pi/alat)
               b(1) = (  0.151982  0.000020  0.000000 )
               b(2) = (  0.000000  0.167740  0.000000 )
               b(3) = (  0.000000  0.000000  0.039752 )

     PseudoPot. # 1 for Ti read from file:
     /storage/coda1/p-amedford6/0/shared/rich_project_chbe-medford/medford-share/data/pseudos_module/espresso/nninc/pbe/van/Ti.UPF
     MD5 check sum: 8e4df49b7f0d34bbd5052bf3f5ea0213
     Pseudo is Ultrasoft, Zval = 12.0
     Generated by new atomic code, or converted to UPF format
     Using radial grid of  851 points,  6 beta functions with:
                l(1) =   0
                l(2) =   0
                l(3) =   1
                l(4) =   1
                l(5) =   2
                l(6) =   2
     Q(r) pseudized with  8 coefficients,  rinner =    1.000   1.000   1.000
                                                       1.000   1.000

     PseudoPot. # 2 for O  read from file:
     /storage/coda1/p-amedford6/0/shared/rich_project_chbe-medford/medford-share/data/pseudos_module/espresso/nninc/pbe/van/O.UPF
     MD5 check sum: 78c19812648e8988a0fe644b0f25305e
     Pseudo is Ultrasoft, Zval =  6.0
     Generated by new atomic code, or converted to UPF format
     Using radial grid of  737 points,  4 beta functions with:
                l(1) =   0
                l(2) =   0
                l(3) =   1
                l(4) =   1
     Q(r) pseudized with  8 coefficients,  rinner =    0.800   0.800   0.800

     PseudoPot. # 3 for N  read from file:
     /storage/coda1/p-amedford6/0/shared/rich_project_chbe-medford/medford-share/data/pseudos_module/espresso/nninc/pbe/van/N.UPF
     MD5 check sum: 90d10febe142ad51ac9d5be1deb811c4
     Pseudo is Ultrasoft, Zval =  5.0
     Generated by new atomic code, or converted to UPF format
     Using radial grid of  729 points,  4 beta functions with:
                l(1) =   0
                l(2) =   0
                l(3) =   1
                l(4) =   1
     Q(r) pseudized with  8 coefficients,  rinner =    0.800   0.800   0.800

     PseudoPot. # 4 for C  read from file:
     /storage/coda1/p-amedford6/0/shared/rich_project_chbe-medford/medford-share/data/pseudos_module/espresso/nninc/pbe/van/C.UPF
     MD5 check sum: 1a69bf6b8db32088f5b2163dbdb77a27
     Pseudo is Ultrasoft, Zval =  4.0
     Generated by new atomic code, or converted to UPF format
     Using radial grid of  721 points,  4 beta functions with:
                l(1) =   0
                l(2) =   0
                l(3) =   1
                l(4) =   1
     Q(r) pseudized with  8 coefficients,  rinner =    0.800   0.800   0.800

     PseudoPot. # 5 for H  read from file:
     /storage/coda1/p-amedford6/0/shared/rich_project_chbe-medford/medford-share/data/pseudos_module/espresso/nninc/pbe/van/H.UPF
     MD5 check sum: b5ee9d7bfd3a09ee7748110bda690ff7
     Pseudo is Ultrasoft, Zval =  1.0
     Generated by new atomic code, or converted to UPF format
     Using radial grid of  615 points,  1 beta functions with:
                l(1) =   0
     Q(r) pseudized with  8 coefficients,  rinner =    0.800

     atomic species   valence    mass     pseudopotential
        Ti1           12.00    47.86700     Ti( 1.00)
        O1             6.00    15.99900     O ( 1.00)
        N1             5.00    14.00700     N ( 1.00)
        C1             4.00    12.01100     C ( 1.00)
        H1             1.00     1.00800     H ( 1.00)

     No symmetry found

   Cartesian axes

     site n.     atom                  positions (alat units)
         1           Ti1 tau(   1) = (   0.0004258   2.9801865   6.0000000  )
         2           Ti1 tau(   2) = (   3.2906075   1.4906267   6.0002472  )
         3           O1  tau(   3) = (   0.0006271   0.0005054   7.9858123  )
         4           O1  tau(   4) = (   3.2906025   0.0005020   7.3038282  )
         5           O1  tau(   5) = (   4.5942328   1.4918067   9.2879030  )
         6           O1  tau(   6) = (   1.9868534   1.4903216   9.2879459  )
         7           Ti1 tau(   7) = (   3.2907910   2.8959150   9.1758416  )
         8           Ti1 tau(   8) = (   0.0015273   1.4827037   9.2680791  )
         9           O1  tau(   9) = (   3.2848820   0.0184509  11.2968037  )
        10           O1  tau(  10) = (   0.0116148   5.9584955  10.6183126  )
        11           O1  tau(  11) = (   1.3164307   1.5202202  12.6152053  )
        12           O1  tau(  12) = (   5.2938533   1.5248534  12.6363518  )
        13           Ti1 tau(  13) = (   6.4693392   3.0155455  12.7604093  )
        14           Ti1 tau(  14) = (   3.1621140   1.5165027  12.4659144  )
        15           O1  tau(  15) = (   0.0250032   0.0426882  14.5925537  )
        16           O1  tau(  16) = (   3.2896737   0.0171256  13.8799622  )
        17           O1  tau(  17) = (   4.5365032   1.4993634  16.0438468  )
        18           O1  tau(  18) = (   2.0814567   1.5015292  16.0591106  )
        19           Ti1 tau(  19) = (   3.3082904   2.9956922  15.6854367  )
        20           Ti1 tau(  20) = (   0.0032501   1.4479889  16.1249605  )
        21           O1  tau(  21) = (   3.2904802   0.0005063   4.7018136  )
        22           O1  tau(  22) = (   0.0161699   0.0004382  17.1970091  )
        23           O1  tau(  23) = (   1.3043587   1.4918075   6.0039043  )
        24           O1  tau(  24) = (   5.2767064   1.4903225   6.0039473  )
        25           Ti1 tau(  25) = (   0.0000382   5.9609847   6.0000000  )
        26           Ti1 tau(  26) = (   3.2902200   4.4714249   6.0002472  )
        27           O1  tau(  27) = (   0.0002396   2.9813036   7.9858123  )
        28           O1  tau(  28) = (   3.2902150   2.9813002   7.3038282  )
        29           O1  tau(  29) = (   4.5938453   4.4726049   9.2879030  )
        30           O1  tau(  30) = (   1.9864658   4.4711199   9.2879459  )
        31           Ti1 tau(  31) = (   3.2891106   5.8743827   9.1763621  )
        32           Ti1 tau(  32) = (   0.0006254   4.4649316   9.2693709  )
        33           O1  tau(  33) = (   3.2855107   2.9994495  11.2959752  )
        34           O1  tau(  34) = (   0.0092240   2.9805883  10.6323155  )
        35           O1  tau(  35) = (   1.3179678   4.4860142  12.6155112  )
        36           O1  tau(  36) = (   5.2920789   4.4901865  12.6316709  )
        37           Ti1 tau(  37) = (   6.5050993   0.0355131  12.7707974  )
        38           Ti1 tau(  38) = (   3.1594757   4.4963870  12.4672366  )
        39           O1  tau(  39) = (   6.5726527   3.0227966  14.6583025  )
        40           O1  tau(  40) = (   3.2932321   2.9979836  13.8792693  )
        41           O1  tau(  41) = (   4.5322310   4.4839795  16.0418810  )
        42           O1  tau(  42) = (   2.0800586   4.4799519  16.0553745  )
        43           Ti1 tau(  43) = (   3.2910362   0.0127607  15.6894215  )
        44           Ti1 tau(  44) = (   0.0049462   4.4269923  16.0943486  )
        45           O1  tau(  45) = (   3.2900926   2.9813045   4.7018136  )
        46           O1  tau(  46) = (   1.3039711   4.4726057   6.0039043  )
        47           O1  tau(  47) = (   5.2763189   4.4711207   6.0039473  )
        48           N1  tau(  48) = (   0.0596666   2.9942962  17.3216073  )
        49           C1  tau(  49) = (   0.3918855   2.9874893  18.7266025  )
        50           H1  tau(  50) = (   0.0017595   3.8652167  19.2343835  )
        51           H1  tau(  51) = (   0.0043965   2.0815098  19.2200810  )
        52           H1  tau(  52) = (   1.4843755   2.9788857  18.8581259  )

     number of k points=    10  Fermi-Dirac smearing, width (Ry)=  0.0073
                       cart. coord. in units 2pi/alat
        k(    1) = (   0.0000000   0.0000000   0.0000000), wk =   0.1250000
        k(    2) = (   0.0000000   0.0419351   0.0000000), wk =   0.2500000
        k(    3) = (   0.0000000  -0.0838702   0.0000000), wk =   0.1250000
        k(    4) = (   0.0379955   0.0000049   0.0000000), wk =   0.2500000
        k(    5) = (   0.0379955   0.0419400   0.0000000), wk =   0.2500000
        k(    6) = (   0.0379955  -0.0838652   0.0000000), wk =   0.2500000
        k(    7) = (   0.0379955  -0.0419301   0.0000000), wk =   0.2500000
        k(    8) = (  -0.0759910  -0.0000099   0.0000000), wk =   0.1250000
        k(    9) = (  -0.0759910   0.0419252   0.0000000), wk =   0.2500000
        k(   10) = (  -0.0759910  -0.0838800   0.0000000), wk =   0.1250000

     Initial potential from superposition of free atoms

     starting charge  373.99917, renormalised to  390.00000

     negative rho (up, down):  1.730E-02 0.000E+00

     %%%%%%%%%%%%%%%%%%%%%%%%%%%%%%%%%%%%%%%%%%%%%%%%%%%%%%%%%%%%%%%%%%%%%%%%
     %                                                                      %
     % You are using vdW-DF, which was implemented by the Thonhauser group. %
     % Please cite the following two papers that made this development      %
     % possible and the two reviews that describe the various versions:     %
     %                                                                      %
     %   T. Thonhauser et al., PRL 115, 136402 (2015).                      %
     %   T. Thonhauser et al., PRB 76, 125112 (2007).                       %
     %   K. Berland et al., Rep. Prog. Phys. 78, 066501 (2015).             %
     %   D.C. Langreth et al., J. Phys.: Condens. Matter 21, 084203 (2009). %
     %                                                                      %
     %                                                                      %
     % If you are calculating the stress with vdW-DF, please also cite:     %
     %                                                                      %
     %   R. Sabatini et al., J. Phys.: Condens. Matter 24, 424209 (2012).   %
     %                                                                      %
     %%%%%%%%%%%%%%%%%%%%%%%%%%%%%%%%%%%%%%%%%%%%%%%%%%%%%%%%%%%%%%%%%%%%%%%%

     Adding external electric field

     Computed dipole along edir(3) :
        Dipole               -4.6263 Ry au,        -11.7589 Debye
        Dipole field         -0.0087 Ry au,

        Potential amp.        0.8093 Ry
        Total length         46.3494 bohr

     Starting wfcs are  295 atomic wfcs
  @ DRIVER MODE: Message from server: STATUS
  @ DRIVER MODE: Message from server: POSDATA
  @ DRIVER MODE: Reading and sharing cell
  @ DRIVER MODE: Reading and sharing positions
  @ DRIVER MODE: Received positions

     Self-consistent Calculation

     iteration #  1     ecut=    29.40 Ry     beta= 0.05
     Davidson diagonalization with overlap
     c_bands:  4 eigenvalues not converged
     c_bands:  3 eigenvalues not converged
     c_bands:  2 eigenvalues not converged
     c_bands:  4 eigenvalues not converged
     c_bands:  4 eigenvalues not converged
     c_bands:  2 eigenvalues not converged
     c_bands:  2 eigenvalues not converged
     c_bands:  2 eigenvalues not converged
     ethr =  1.00E-05,  avg # of iterations = 19.7

[...]

     total energy              =   -2877.22776707 Ry
     estimated scf accuracy    <     483.18967167 Ry

     iteration #  2     ecut=    29.40 Ry     beta= 0.05
     Davidson diagonalization with overlap
     ethr =  1.00E-02,  avg # of iterations = 13.7

[...]

     iteration # 40     ecut=    29.40 Ry     beta= 0.05
     Davidson diagonalization with overlap
     c_bands:  1 eigenvalues not converged
     ethr =  3.65E-07,  avg # of iterations =  7.2

[...]

     total energy              =   -2919.13266890 Ry
     estimated scf accuracy    <       0.00000022 Ry

     iteration # 68     ecut=    29.40 Ry     beta= 0.05
     Davidson diagonalization with overlap
     ethr =  3.48E-11,  avg # of iterations =  4.2

     negative rho (up, down):  1.773E-02 0.000E+00

     Adding external electric field

     Computed dipole along edir(3) :
        Dipole                0.2506 Ry au,          0.6370 Debye
        Dipole field          0.0005 Ry au,

        Potential amp.       -0.0438 Ry
        Total length         46.3494 bohr

     End of self-consistent calculation

          k = 0.0000 0.0000 0.0000 ( 18029 PWs)   bands (ev):

   -56.8989 -56.8653 -56.0117 -56.0024 -55.9766 -55.9699 -55.8621 -55.8263
   -55.6448 -55.6096 -55.5607 -55.5389 -55.5268 -55.4408 -54.9972 -54.9422
   -33.3265 -33.1732 -33.1451 -33.0754 -32.9843 -32.9526 -32.4852 -32.4760
   -32.4050 -32.2977 -32.2522 -32.2253 -32.2102 -32.1862 -32.1534 -32.1503
   -32.1429 -32.1407 -32.1165 -32.1090 -32.1021 -32.0705 -32.0444 -32.0293
   -32.0155 -31.9984 -31.9900 -31.9665 -31.9529 -31.8994 -31.8764 -31.8753
   -31.7837 -31.7826 -31.7716 -31.7144 -31.7111 -31.6881 -31.6688 -31.6471
   -31.6229 -31.5773 -31.5189 -31.2396 -31.2218 -31.1928 -31.1637 -31.0460
   -17.0609 -16.6212 -16.3904 -16.2601 -16.1886 -16.1382 -16.0905 -15.9638
   -15.8925 -15.8891 -15.8520 -15.8127 -15.7447 -15.6051 -15.5078 -15.4483
   -15.4051 -15.2854 -15.2281 -15.1915 -15.1838 -15.1533 -15.1330 -14.9351
   -14.9126 -14.8168 -14.8000 -14.6760 -14.4494 -14.0594 -13.9494 -13.0890
    -7.8058  -4.6272  -4.1174  -3.8747  -3.7922  -3.6817  -3.6744  -3.5927
    -3.4783  -3.4274  -3.3818  -3.2662  -3.2620  -3.1166  -3.1055  -3.0736
    -3.0670  -3.0311  -2.9897  -2.9513  -2.8985  -2.8969  -2.8849  -2.7377
    -2.6378  -2.5680  -2.5455  -2.5284  -2.5008  -2.4079  -2.4033  -2.3884
    -2.3849  -2.2898  -2.1401  -2.1306  -2.0960  -2.0597  -2.0560  -2.0125
    -2.0024  -1.8461  -1.8020  -1.6859  -1.6735  -1.6382  -1.5725  -1.5689
    -1.4515  -1.3974  -1.3525  -1.3064  -1.1993  -1.1543  -1.1255  -1.0369
    -0.9762  -0.9391  -0.9204  -0.9011  -0.7939  -0.7862  -0.7703  -0.6791
    -0.6732  -0.6228  -0.5335  -0.5111  -0.5082  -0.4180  -0.4100  -0.3115
    -0.2772  -0.2247  -0.1945  -0.1148  -0.0839   0.0203   0.0590   0.0745
     0.2043   0.2195   0.2777   0.3446   0.4013   0.4445   0.4607   0.4953
     0.5043   0.5973   0.7053   0.7073   0.8187   0.8562   1.0136   1.0525
     1.3508   1.3602   2.0235   2.3763   2.5370   2.8351   3.0299   3.1426
     3.3529   3.3667   3.3725   3.5531   3.6009

[...]

          k = 0.0380-0.0419 0.0000 ( 17876 PWs)   bands (ev):

[...]

          k =-0.0760-0.0000 0.0000 ( 17886 PWs)   bands (ev):

[...]

          k =-0.0760-0.0839 0.0000 ( 17948 PWs)   bands (ev):

   -56.8822 -56.8818 -55.9956 -55.9912 -55.9870 -55.9866 -55.8471 -55.8412
   -55.6298 -55.6244 -55.5437 -55.5436 -55.5357 -55.4439 -54.9907 -54.9486
   -33.1591 -33.1588 -33.1435 -33.1433 -33.0284 -33.0281 -32.3149 -32.3125
   -32.2999 -32.2946 -32.2421 -32.2406 -32.1979 -32.1975 -32.1969 -32.1933
   -32.1854 -32.1829 -32.1818 -32.1799 -32.0990 -32.0939 -32.0477 -32.0439
   -31.9815 -31.9737 -31.9122 -31.9064 -31.8883 -31.8882 -31.8667 -31.8286
   -31.8272 -31.7931 -31.7692 -31.7691 -31.7603 -31.7301 -31.7300 -31.7093
   -31.6858 -31.6492 -31.3848 -31.3029 -31.2186 -31.1870 -31.1699 -31.1294
   -16.4089 -16.4069 -16.3752 -16.3749 -16.1039 -16.1003 -16.0511 -16.0489
   -15.8772 -15.8694 -15.6648 -15.6556 -15.6493 -15.6456 -15.5179 -15.5109
   -15.4472 -15.4343 -15.3460 -15.3393 -15.2780 -15.2717 -15.2354 -15.2141
   -14.8969 -14.8908 -14.7684 -14.7553 -14.6049 -14.0529 -14.0529 -13.1056
    -7.7965  -3.5079  -3.5071  -3.4409  -3.4399  -3.3151  -3.3083  -3.2395
    -3.2388  -3.1325  -3.1288  -3.0825  -2.9996  -2.9912  -2.9880  -2.9761
    -2.9614  -2.8354  -2.8334  -2.8203  -2.8055  -2.7539  -2.7514  -2.7358
    -2.6567  -2.6410  -2.6097  -2.5656  -2.4654  -2.4490  -2.4330  -2.4057
    -2.3482  -2.3364  -2.3223  -2.2768  -2.2573  -2.1541  -2.1073  -2.0632
    -1.9436  -1.9410  -1.9313  -1.9141  -1.7666  -1.7294  -1.6985  -1.6917
    -1.6830  -1.6336  -1.5417  -1.5335  -1.3989  -1.3942  -1.3225  -1.2394
    -1.2205  -1.1917  -1.0596  -1.0121  -0.9797  -0.9734  -0.9538  -0.9245
    -0.8967  -0.8690  -0.7243  -0.7053  -0.6809  -0.6433  -0.6307  -0.5769
    -0.5274  -0.4477  -0.3681  -0.3671  -0.2848  -0.2434  -0.1786  -0.0961
    -0.0844  -0.0782   0.2022   0.2800   0.3724   0.4569   0.5197   0.5833
     0.6070   0.6722   0.7044   0.8418   0.8450   0.8614   0.8617   0.9289
     0.9336   1.3320   1.9174   2.9501   2.9505   3.0179   3.0183   3.3419
     3.3474   3.4568   3.4662   3.5823   3.5843

     the Fermi energy is     2.2109 ev

!    total energy              =   -2919.13268622 Ry
     estimated scf accuracy    <       0.00000007 Ry
     smearing contrib. (-TS)   =      -0.00465031 Ry
     internal energy E=F+TS    =   -2919.12803592 Ry

     The total energy is F=E-TS. E is the sum of the following terms:
     one-electron contribution =  -24579.09392383 Ry
     hartree contribution      =   12373.72630042 Ry
     xc contribution           =    -479.90014378 Ry
     ewald contribution        =    9766.13961275 Ry
     electric field correction =       0.00011853 Ry

     convergence has been achieved in  68 iterations

     Forces acting on atoms (cartesian axes, Ry/au):

     atom    1 type  1   force =    -0.00003153   -0.00045151    0.12461656
     atom    2 type  1   force =    -0.00012295   -0.00052722   -0.16053321
     atom    3 type  2   force =     0.00015970   -0.00014240   -0.06866490
     atom    4 type  2   force =    -0.00004166   -0.00017664    0.02745702
     atom    5 type  2   force =    -0.01663569    0.00229219   -0.00876909
     atom    6 type  2   force =     0.01809357    0.00295683   -0.00972017
     atom    7 type  1   force =     0.00058275   -0.00361066    0.02218590
     atom    8 type  1   force =    -0.00014833   -0.00291957    0.11214600
     atom    9 type  2   force =     0.00048171   -0.00002576   -0.00027776
     atom   10 type  2   force =    -0.00265839    0.00369307   -0.07362295
     atom   11 type  2   force =     0.00130721   -0.00057952   -0.00043722
     atom   12 type  2   force =    -0.00058419   -0.00105195   -0.00079212
     atom   13 type  1   force =     0.00030141   -0.00067928    0.00065717
     atom   14 type  1   force =    -0.00081634   -0.00057033    0.00003002
     atom   15 type  2   force =    -0.00028800   -0.00005245   -0.00002243
     atom   16 type  2   force =     0.00028762    0.00011929   -0.00054524
     atom   17 type  2   force =     0.00025761   -0.00018893   -0.00016296
     atom   18 type  2   force =    -0.00042855   -0.00036119   -0.00048851
     atom   19 type  1   force =     0.00061732   -0.00037247   -0.00015877
     atom   20 type  1   force =    -0.00002753   -0.00003443    0.00006078
     atom   21 type  2   force =     0.00006131   -0.00006210    0.09971742
     atom   22 type  2   force =     0.00007105   -0.00027964    0.00054690
     atom   23 type  2   force =    -0.07925991   -0.00009283   -0.03246168
     atom   24 type  2   force =     0.07913369    0.00035494   -0.03248280
     atom   25 type  1   force =     0.00001911   -0.00047781    0.12410003
     atom   26 type  1   force =    -0.00015132   -0.00045555   -0.16060916
     atom   27 type  2   force =     0.00029226   -0.00031842   -0.06767713
     atom   28 type  2   force =    -0.00002477   -0.00001479    0.02722168
     atom   29 type  2   force =    -0.01709866    0.00187210   -0.00887700
     atom   30 type  2   force =     0.01843537    0.00225596   -0.00977367
     atom   31 type  1   force =     0.00059282   -0.00091936    0.02173652
     atom   32 type  1   force =    -0.00010571    0.00053078    0.11258219
     atom   33 type  2   force =     0.00026522   -0.00063820   -0.00046349
     atom   34 type  2   force =    -0.00273172    0.00315847   -0.07278430
     atom   35 type  2   force =    -0.00110122    0.00023248    0.00016038
     atom   36 type  2   force =     0.00082413    0.00008075    0.00027727
     atom   37 type  1   force =    -0.00008839   -0.00004678   -0.00016311
     atom   38 type  1   force =     0.00089231   -0.00028766   -0.00017299
     atom   39 type  2   force =    -0.00008901   -0.00052102    0.00014208
     atom   40 type  2   force =     0.00007816   -0.00012405   -0.00012348
     atom   41 type  2   force =     0.00017946   -0.00044898   -0.00011051
     atom   42 type  2   force =    -0.00001930   -0.00013254   -0.00058719
     atom   43 type  1   force =     0.00015092    0.00065692    0.00062328
     atom   44 type  1   force =    -0.00069850   -0.00019829   -0.00056280
     atom   45 type  2   force =     0.00004521   -0.00006605    0.09973977
     atom   46 type  2   force =    -0.07926384   -0.00004666   -0.03245236
     atom   47 type  2   force =     0.07914072    0.00039630   -0.03246960
     atom   48 type  3   force =     0.00068783    0.00109978    0.00087697
     atom   49 type  4   force =     0.00010650   -0.01974158    0.00004774
     atom   50 type  5   force =    -0.00263172    0.00807175    0.00327342
     atom   51 type  5   force =     0.00278572    0.00752313   -0.00257438
     atom   52 type  5   force =    -0.00080345    0.00132188    0.00034186

     Total force =     0.426204     Total SCF correction =     0.000724
  @ DRIVER MODE: Message from server: STATUS
  @ DRIVER MODE: Message from server: GETFORCE
  @ DRIVER MODE: Returning v,forces,stress,ensemble

     Writing output data file ./calc.save/
  @ DRIVER MODE: Message from server: EXIT
  @ DRIVE MODE: Exiting

     General routines

     Parallel routines

   This run was terminated on:  14:25: 6   2Aug2021

   JOB DONE.