     Program PWSCF v.6.7GPU starts on  2Aug2021 at 19:45: 7

     R & G space division:  proc/nbgrp/npool/nimage =      16
     Reading input from /storage/home/hcoda1/3/ntian30/research/carbon/02Aug_vib_paired/ads_slab/CH3NN_a/out_0023/pw.inp
Warning: card &CELL ignored
Warning: card   CELL_DYNAMICS='IPI', ignored
Warning: card / ignored

     Current dimensions of program PWSCF are:
     Max number of different atomic species (ntypx) = 10
     Max number of k-points (npk) =  40000
     Max angular momentum in pseudopotentials (lmaxx) =  3
     Presently no symmetry can be used with electric field

     Message from routine cell_base_init:
     DEPRECATED: use true lattice parameter, not A to a.u. conversion factor

     IMPORTANT: XC functional enforced from input :
     Exchange-correlation= BEEF-VDW
                           (   1   4  43  14   2   0   0)
     Any further DFT definition will be discarded
     Please, verify this is what you really want

  @ DRIVER MODE: Connecting to
 qe_1139763_2482546.sched-torque.pace.gatech.edufipi8e5o_scratch
  using UNIX socket
  @ DRIVER MODE: Message from server: STATUS
  @ DRIVER MODE: Message from server: INIT
  @ DRIVER MODE: Receiving replica           0          -1
  @ DRIVER MODE: Receiving encoded integer          25
  @ DRIVER MODE:  SCF:  T  FORCE:  T  STRESS:  F  VC:  F  ENSEMBLE:  F
  @ DRIVER MODE:  SCF:  T  FORCE:  T  STRESS:  F  VC:  F  ENSEMBLE:  F

     Using Slab Decomposition

     bravais-lattice index     =            0
     lattice parameter (alat)  =       1.8897  a.u.
     unit-cell volume          =    6658.9804 (a.u.)^3
     number of atoms/cell      =           53
     number of atomic types    =            5
     number of electrons       =       395.00
     number of Kohn-Sham states=          207
     kinetic-energy cutoff     =      29.3995  Ry
     charge density cutoff     =     293.9946  Ry
     scf convergence threshold =      7.3E-08
     mixing beta               =       0.0500
     number of iterations used =            8  plain     mixing
     Exchange-correlation= BEEF-VDW
                           (   1   4  43  14   2   0   0)

     celldm(1)=   1.889726  celldm(2)=   0.000000  celldm(3)=   0.000000
     celldm(4)=   0.000000  celldm(5)=   0.000000  celldm(6)=   0.000000

     crystal axes: (cart. coord. in units of alat)
               a(1) = (   6.579727   0.000000   0.000000 )
               a(2) = (  -0.000775   5.961596   0.000000 )
               a(3) = (   0.000000   0.000000  25.155947 )

     reciprocal axes: (cart. coord. in units 2 pi/alat)
               b(1) = (  0.151982  0.000020  0.000000 )
               b(2) = (  0.000000  0.167740  0.000000 )
               b(3) = (  0.000000  0.000000  0.039752 )

     PseudoPot. # 1 for Ti read from file:
     /storage/coda1/p-amedford6/0/shared/rich_project_chbe-medford/medford-share/data/pseudos_module/espresso/nninc/pbe/van/Ti.UPF
     MD5 check sum: 8e4df49b7f0d34bbd5052bf3f5ea0213
     Pseudo is Ultrasoft, Zval = 12.0
     Generated by new atomic code, or converted to UPF format
     Using radial grid of  851 points,  6 beta functions with:
                l(1) =   0
                l(2) =   0
                l(3) =   1
                l(4) =   1
                l(5) =   2
                l(6) =   2
     Q(r) pseudized with  8 coefficients,  rinner =    1.000   1.000   1.000
                                                       1.000   1.000

     PseudoPot. # 2 for O  read from file:
     /storage/coda1/p-amedford6/0/shared/rich_project_chbe-medford/medford-share/data/pseudos_module/espresso/nninc/pbe/van/O.UPF
     MD5 check sum: 78c19812648e8988a0fe644b0f25305e
     Pseudo is Ultrasoft, Zval =  6.0
     Generated by new atomic code, or converted to UPF format
     Using radial grid of  737 points,  4 beta functions with:
                l(1) =   0
                l(2) =   0
                l(3) =   1
                l(4) =   1
     Q(r) pseudized with  8 coefficients,  rinner =    0.800   0.800   0.800

     PseudoPot. # 3 for N  read from file:
     /storage/coda1/p-amedford6/0/shared/rich_project_chbe-medford/medford-share/data/pseudos_module/espresso/nninc/pbe/van/N.UPF
     MD5 check sum: 90d10febe142ad51ac9d5be1deb811c4
     Pseudo is Ultrasoft, Zval =  5.0
     Generated by new atomic code, or converted to UPF format
     Using radial grid of  729 points,  4 beta functions with:
                l(1) =   0
                l(2) =   0
                l(3) =   1
                l(4) =   1
     Q(r) pseudized with  8 coefficients,  rinner =    0.800   0.800   0.800

     PseudoPot. # 4 for C  read from file:
     /storage/coda1/p-amedford6/0/shared/rich_project_chbe-medford/medford-share/data/pseudos_module/espresso/nninc/pbe/van/C.UPF
     MD5 check sum: 1a69bf6b8db32088f5b2163dbdb77a27
     Pseudo is Ultrasoft, Zval =  4.0
     Generated by new atomic code, or converted to UPF format
     Using radial grid of  721 points,  4 beta functions with:
                l(1) =   0
                l(2) =   0
                l(3) =   1
                l(4) =   1
     Q(r) pseudized with  8 coefficients,  rinner =    0.800   0.800   0.800

     PseudoPot. # 5 for H  read from file:
     /storage/coda1/p-amedford6/0/shared/rich_project_chbe-medford/medford-share/data/pseudos_module/espresso/nninc/pbe/van/H.UPF
     MD5 check sum: b5ee9d7bfd3a09ee7748110bda690ff7
     Pseudo is Ultrasoft, Zval =  1.0
     Generated by new atomic code, or converted to UPF format
     Using radial grid of  615 points,  1 beta functions with:
                l(1) =   0
     Q(r) pseudized with  8 coefficients,  rinner =    0.800

     atomic species   valence    mass     pseudopotential
        Ti1           12.00    47.86700     Ti( 1.00)
        O1             6.00    15.99900     O ( 1.00)
        N1             5.00    14.00700     N ( 1.00)
        C1             4.00    12.01100     C ( 1.00)
        H1             1.00     1.00800     H ( 1.00)

     No symmetry found

   Cartesian axes

     site n.     atom                  positions (alat units)
         1           Ti1 tau(   1) = (   0.0004258   2.9801865   6.0000000  )
         2           Ti1 tau(   2) = (   3.2906075   1.4906267   6.0002472  )
         3           O1  tau(   3) = (   0.0006271   0.0005054   7.9858123  )
         4           O1  tau(   4) = (   3.2906025   0.0005020   7.3038282  )
         5           O1  tau(   5) = (   4.5942328   1.4918067   9.2879030  )
         6           O1  tau(   6) = (   1.9868534   1.4903216   9.2879459  )
         7           Ti1 tau(   7) = (   3.2907910   2.8959150   9.1758416  )
         8           Ti1 tau(   8) = (   0.0015273   1.4827037   9.2680791  )
         9           O1  tau(   9) = (   3.2935944   5.9504131  11.3331737  )
        10           O1  tau(  10) = (   0.0116148   5.9584955  10.6183126  )
        11           O1  tau(  11) = (   1.3139784   1.4900993  12.6222913  )
        12           O1  tau(  12) = (   5.2991156   1.4868386  12.6236412  )
        13           Ti1 tau(  13) = (   6.5257823   2.9641578  12.6501544  )
        14           Ti1 tau(  14) = (   3.2087869   1.4768241  12.4812772  )
        15           O1  tau(  15) = (   0.0069532   0.0155221  14.6013729  )
        16           O1  tau(  16) = (   3.2989757   5.9447163  13.9218705  )
        17           O1  tau(  17) = (   4.5399408   1.4684032  16.0509043  )
        18           O1  tau(  18) = (   2.0534050   1.4785924  16.0487376  )
        19           Ti1 tau(  19) = (   3.3071538   2.9600697  15.7031993  )
        20           Ti1 tau(  20) = (   0.0179100   1.3679571  15.8029155  )
        21           O1  tau(  21) = (   3.2904802   0.0005063   4.7018136  )
        22           O1  tau(  22) = (   0.0297737   0.0076327  17.1327444  )
        23           O1  tau(  23) = (   1.3043587   1.4918075   6.0039043  )
        24           O1  tau(  24) = (   5.2767064   1.4903225   6.0039473  )
        25           Ti1 tau(  25) = (   0.0000382   5.9609847   6.0000000  )
        26           Ti1 tau(  26) = (   3.2902200   4.4714249   6.0002472  )
        27           O1  tau(  27) = (   0.0002396   2.9813036   7.9858123  )
        28           O1  tau(  28) = (   3.2902150   2.9813002   7.3038282  )
        29           O1  tau(  29) = (   4.5938453   4.4726049   9.2879030  )
        30           O1  tau(  30) = (   1.9864658   4.4711199   9.2879459  )
        31           Ti1 tau(  31) = (   3.2891106   5.8743827   9.1763621  )
        32           Ti1 tau(  32) = (   0.0006254   4.4649316   9.2693709  )
        33           O1  tau(  33) = (   3.2925666   2.9731923  11.3325550  )
        34           O1  tau(  34) = (   0.0092240   2.9805883  10.6323155  )
        35           O1  tau(  35) = (   1.3076969   4.4692784  12.6256357  )
        36           O1  tau(  36) = (   5.2992390   4.4652990  12.6273021  )
        37           Ti1 tau(  37) = (   6.5214685   5.9362284  12.5385417  )
        38           Ti1 tau(  38) = (   3.2054519   4.4560432  12.4842663  )
        39           O1  tau(  39) = (   0.0022752   2.9713357  14.7092999  )
        40           O1  tau(  40) = (   3.3007181   2.9764241  13.9083417  )
        41           O1  tau(  41) = (   4.5485645   4.4411382  16.0917119  )
        42           O1  tau(  42) = (   2.0537992   4.4371030  16.0853891  )
        43           Ti1 tau(  43) = (   3.2976414   5.9412218  15.7196561  )
        44           Ti1 tau(  44) = (   0.0123595   4.4653852  16.1631357  )
        45           O1  tau(  45) = (   3.2900926   2.9813045   4.7018136  )
        46           O1  tau(  46) = (   1.3039711   4.4726057   6.0039043  )
        47           O1  tau(  47) = (   5.2763189   4.4711207   6.0039473  )
        48           N1  tau(  48) = (   0.6591532   2.9890904  22.3781942  )
        49           C1  tau(  49) = (   6.5648715   3.0365617  17.8347222  )
        50           H1  tau(  50) = (   6.0219261   3.7962297  18.4082231  )
        51           H1  tau(  51) = (   6.0207922   2.1139738  18.0222221  )
        52           H1  tau(  52) = (   0.9815245   2.9432023  18.2699478  )
        53           N1  tau(  53) = (   6.1995506   3.0156182  22.7499213  )

     number of k points=    10  Fermi-Dirac smearing, width (Ry)=  0.0073
                       cart. coord. in units 2pi/alat
        k(    1) = (   0.0000000   0.0000000   0.0000000), wk =   0.1250000
        k(    2) = (   0.0000000   0.0419351   0.0000000), wk =   0.2500000
        k(    3) = (   0.0000000  -0.0838702   0.0000000), wk =   0.1250000
        k(    4) = (   0.0379955   0.0000049   0.0000000), wk =   0.2500000
        k(    5) = (   0.0379955   0.0419400   0.0000000), wk =   0.2500000
        k(    6) = (   0.0379955  -0.0838652   0.0000000), wk =   0.2500000
        k(    7) = (   0.0379955  -0.0419301   0.0000000), wk =   0.2500000
        k(    8) = (  -0.0759910  -0.0000099   0.0000000), wk =   0.1250000
        k(    9) = (  -0.0759910   0.0419252   0.0000000), wk =   0.2500000
        k(   10) = (  -0.0759910  -0.0838800   0.0000000), wk =   0.1250000

     Initial potential from superposition of free atoms

     starting charge  378.99916, renormalised to  395.00000

     negative rho (up, down):  1.029E-02 0.000E+00

     %%%%%%%%%%%%%%%%%%%%%%%%%%%%%%%%%%%%%%%%%%%%%%%%%%%%%%%%%%%%%%%%%%%%%%%%
     %                                                                      %
     % You are using vdW-DF, which was implemented by the Thonhauser group. %
     % Please cite the following two papers that made this development      %
     % possible and the two reviews that describe the various versions:     %
     %                                                                      %
     %   T. Thonhauser et al., PRL 115, 136402 (2015).                      %
     %   T. Thonhauser et al., PRB 76, 125112 (2007).                       %
     %   K. Berland et al., Rep. Prog. Phys. 78, 066501 (2015).             %
     %   D.C. Langreth et al., J. Phys.: Condens. Matter 21, 084203 (2009). %
     %                                                                      %
     %                                                                      %
     % If you are calculating the stress with vdW-DF, please also cite:     %
     %                                                                      %
     %   R. Sabatini et al., J. Phys.: Condens. Matter 24, 424209 (2012).   %
     %                                                                      %
     %%%%%%%%%%%%%%%%%%%%%%%%%%%%%%%%%%%%%%%%%%%%%%%%%%%%%%%%%%%%%%%%%%%%%%%%

     Adding external electric field

     Computed dipole along edir(3) :
        Dipole              -11.4328 Ry au,        -29.0594 Debye
        Dipole field         -0.0216 Ry au,

        Potential amp.        2.0000 Ry
        Total length         46.3494 bohr

     Starting wfcs are  299 atomic wfcs
  @ DRIVER MODE: Message from server: STATUS
  @ DRIVER MODE: Message from server: POSDATA
  @ DRIVER MODE: Reading and sharing cell
  @ DRIVER MODE: Reading and sharing positions
  @ DRIVER MODE: Received positions

     Self-consistent Calculation

     iteration #  1     ecut=    29.40 Ry     beta= 0.05
     Davidson diagonalization with overlap
     c_bands:  1 eigenvalues not converged
     c_bands:  1 eigenvalues not converged
     c_bands:  1 eigenvalues not converged
     c_bands:  1 eigenvalues not converged
     c_bands:  2 eigenvalues not converged
     c_bands:  2 eigenvalues not converged
     c_bands:  1 eigenvalues not converged
     c_bands:  1 eigenvalues not converged
     ethr =  1.00E-05,  avg # of iterations = 19.3

[...]

     total energy              =   -2597.26942097 Ry
     estimated scf accuracy    <    3830.64208811 Ry

     iteration #  2     ecut=    29.40 Ry     beta= 0.05
     Davidson diagonalization with overlap
     ethr =  1.00E-02,  avg # of iterations = 23.7

[...]

     iteration # 65     ecut=    29.40 Ry     beta= 0.05
     Davidson diagonalization with overlap
     c_bands:  1 eigenvalues not converged
     c_bands:  1 eigenvalues not converged
     c_bands:  1 eigenvalues not converged
     ethr =  6.32E-09,  avg # of iterations = 17.2

[...]

     total energy              =   -2939.19607924 Ry
     estimated scf accuracy    <       0.00000008 Ry

     iteration # 85     ecut=    29.40 Ry     beta= 0.05
     Davidson diagonalization with overlap
     ethr =  1.95E-11,  avg # of iterations = 10.5

     negative rho (up, down):  1.218E-02 0.000E+00

     Adding external electric field

     Computed dipole along edir(3) :
        Dipole                0.4047 Ry au,          1.0286 Debye
        Dipole field          0.0008 Ry au,

        Potential amp.       -0.0708 Ry
        Total length         46.3494 bohr

     End of self-consistent calculation

          k = 0.0000 0.0000 0.0000 ( 18029 PWs)   bands (ev):

   -56.0208 -56.0100 -55.9867 -55.9740 -55.9036 -55.8789 -55.8580 -55.8356
   -55.8267 -55.7933 -55.7927 -55.7594 -55.5787 -55.4504 -54.9980 -54.9639
   -32.5657 -32.5029 -32.3744 -32.3573 -32.3267 -32.3261 -32.3136 -32.2837
   -32.2628 -32.2395 -32.2334 -32.2211 -32.1910 -32.1730 -32.1620 -32.1504
   -32.1347 -32.1248 -32.1087 -32.0827 -32.0798 -32.0779 -32.0404 -32.0323
   -32.0289 -32.0241 -32.0146 -32.0106 -31.9956 -31.9935 -31.9879 -31.9683
   -31.9672 -31.9609 -31.9459 -31.9302 -31.9050 -31.8632 -31.7921 -31.7337
   -31.6674 -31.5558 -31.4051 -31.3167 -31.2943 -31.2218 -31.1353 -31.0243
   -20.6264 -16.7673 -16.4961 -16.2733 -16.1745 -16.1486 -16.0318 -15.8638
   -15.7394 -15.6953 -15.5951 -15.5799 -15.5564 -15.5260 -15.5137 -15.5049
   -15.4693 -15.4617 -15.4443 -15.4324 -15.3814 -15.3637 -15.3539 -15.2424
   -15.1968 -15.1552 -15.1394 -15.0752 -15.0266 -14.6402 -13.5006 -13.3842
    -9.0903  -5.7935  -4.1395  -3.9791  -3.9266  -3.8830  -3.8527  -3.7531
    -3.7498  -3.6361  -3.5724  -3.2660  -3.2083  -3.1921  -3.1743  -3.1465
    -2.9894  -2.9221  -2.8563  -2.8341  -2.8275  -2.7990  -2.7911  -2.7775
    -2.7408  -2.7018  -2.6834  -2.6343  -2.5811  -2.5060  -2.4995  -2.4370
    -2.4142  -2.3349  -2.3163  -2.2905  -2.2621  -2.2484  -2.2393  -2.2176
    -2.2013  -2.1794  -1.9916  -1.9629  -1.8966  -1.8098  -1.8050  -1.6277
    -1.5285  -1.4989  -1.4737  -1.4468  -1.4122  -1.3977  -1.3197  -1.2090
    -1.1762  -1.1380  -1.0763  -1.0258  -0.9945  -0.8947  -0.8716  -0.7827
    -0.7814  -0.7569  -0.7028  -0.6112  -0.5063  -0.4764  -0.4590  -0.4118
    -0.3767  -0.3128  -0.2956  -0.2340  -0.1692  -0.1580  -0.0826  -0.0560
    -0.0514  -0.0271  -0.0159   0.0287   0.0426   0.1650   0.1874   0.2730
     0.3174   0.4125   0.5341   0.6384   0.6751   0.7346   0.9495   1.0239
     1.1236   1.1733   1.2162   1.5952   1.6409   3.1186   3.2017   3.2498
     3.2573   3.3507   3.3643   3.5667   3.5930   3.6238   3.6621

[...]

          k = 0.0380-0.0419 0.0000 ( 17876 PWs)   bands (ev):

[...]

          k =-0.0760-0.0000 0.0000 ( 17886 PWs)   bands (ev):

[...]

          k =-0.0760-0.0839 0.0000 ( 17948 PWs)   bands (ev):

   -56.0044 -56.0030 -55.9924 -55.9914 -55.8957 -55.8705 -55.8657 -55.8439
   -55.8106 -55.8084 -55.7783 -55.7746 -55.5768 -55.4522 -54.9810 -54.9808
   -32.3695 -32.3683 -32.3185 -32.3177 -32.2996 -32.2985 -32.2843 -32.2756
   -32.2280 -32.2136 -32.2110 -32.2063 -32.1700 -32.1533 -32.1503 -32.1394
   -32.1316 -32.1239 -32.1225 -32.1223 -32.1162 -32.1126 -32.0954 -32.0874
   -32.0632 -32.0603 -32.0559 -32.0308 -32.0110 -32.0097 -32.0082 -32.0063
   -31.9923 -31.9904 -31.9875 -31.9824 -31.9425 -31.8478 -31.7942 -31.7364
   -31.7082 -31.6049 -31.3070 -31.3069 -31.2180 -31.2178 -31.1786 -31.1785
   -20.6263 -16.2021 -16.1814 -15.9782 -15.9355 -15.9298 -15.9251 -15.8215
   -15.7182 -15.7159 -15.7141 -15.6446 -15.6193 -15.6081 -15.5590 -15.5562
   -15.5451 -15.5337 -15.5286 -15.4822 -15.4749 -15.4575 -15.4487 -15.3836
   -15.3368 -15.3322 -15.3106 -15.1216 -15.0009 -14.9230 -13.4862 -13.4859
    -9.1033  -5.7967  -3.7568  -3.7524  -3.4934  -3.4692  -3.2368  -3.1811
    -3.1686  -3.0948  -2.9522  -2.9173  -2.9106  -2.8979  -2.8643  -2.8541
    -2.8394  -2.8286  -2.8183  -2.7915  -2.7679  -2.7342  -2.7284  -2.7050
    -2.6895  -2.6720  -2.6479  -2.6395  -2.6209  -2.5965  -2.5813  -2.5610
    -2.5499  -2.5256  -2.4837  -2.3571  -2.2546  -2.2178  -2.1575  -2.1498
    -2.1293  -2.0965  -2.0823  -2.0653  -2.0610  -2.0073  -1.8489  -1.7414
    -1.7256  -1.6888  -1.6405  -1.6196  -1.5656  -1.4308  -1.4038  -1.3775
    -1.3152  -1.3036  -1.2565  -1.2341  -1.2211  -1.1402  -1.1230  -1.0622
    -1.0004  -0.9810  -0.9773  -0.9211  -0.8615  -0.7909  -0.7807  -0.7378
    -0.7002  -0.6496  -0.6309  -0.5962  -0.5269  -0.4905  -0.3710  -0.3219
    -0.0931  -0.0411   0.0259   0.0725   0.1307   0.1789   0.1824   0.2975
     0.2999   0.3136   0.4129   0.4179   0.5066   0.5238   0.5469   0.7366
     1.2709   1.3877   1.3885   1.4603   1.4608   3.3936   3.4116   3.4409
     3.4829   3.6191   3.6283   3.6471   3.6485   3.7747   3.7956

     the Fermi energy is     3.1145 ev

!    total energy              =   -2939.19608622 Ry
     estimated scf accuracy    <       0.00000004 Ry
     smearing contrib. (-TS)   =      -0.02186805 Ry
     internal energy E=F+TS    =   -2939.17421817 Ry

     The total energy is F=E-TS. E is the sum of the following terms:
     one-electron contribution =  -23189.97708436 Ry
     hartree contribution      =   11680.25246428 Ry
     xc contribution           =    -484.90710607 Ry
     ewald contribution        =    9055.45719892 Ry
     electric field correction =       0.00030906 Ry

     convergence has been achieved in  85 iterations

     Forces acting on atoms (cartesian axes, Ry/au):

     atom    1 type  1   force =    -0.00000622   -0.00018898    0.09684954
     atom    2 type  1   force =    -0.00000581   -0.00054053   -0.17524807
     atom    3 type  2   force =     0.00009530   -0.00001360   -0.02519125
     atom    4 type  2   force =    -0.00003135   -0.00140984    0.05282547
     atom    5 type  2   force =    -0.01239810   -0.00103498    0.00324078
     atom    6 type  2   force =     0.01388846   -0.00053415    0.00284190
     atom    7 type  1   force =     0.00060003    0.00044224   -0.01144466
     atom    8 type  1   force =     0.00025622    0.01540907    0.02923426
     atom    9 type  2   force =    -0.00019627    0.00078337    0.00003651
     atom   10 type  2   force =    -0.00283951    0.00141255   -0.01827256
     atom   11 type  2   force =     0.00081568    0.00002976   -0.00002514
     atom   12 type  2   force =    -0.00062987   -0.00015828   -0.00010992
     atom   13 type  1   force =     0.00060693   -0.00030892   -0.00003379
     atom   14 type  1   force =    -0.00039703    0.00028791   -0.00009393
     atom   15 type  2   force =     0.00017546    0.00007745    0.00068306
     atom   16 type  2   force =    -0.00014567    0.00008674    0.00048502
     atom   17 type  2   force =     0.00033163   -0.00057844   -0.00017162
     atom   18 type  2   force =    -0.00004804   -0.00062777    0.00009027
     atom   19 type  1   force =    -0.00013391   -0.00135853   -0.00032541
     atom   20 type  1   force =     0.00019665   -0.00002826   -0.00050847
     atom   21 type  2   force =     0.00002256    0.00005980    0.10325162
     atom   22 type  2   force =    -0.00021972    0.00047999    0.00004442
     atom   23 type  2   force =    -0.07151682   -0.00008763   -0.02768773
     atom   24 type  2   force =     0.07138376    0.00040047   -0.02774599
     atom   25 type  1   force =     0.00004873   -0.00026045    0.09665408
     atom   26 type  1   force =     0.00003178   -0.00013759   -0.17541197
     atom   27 type  2   force =     0.00012876   -0.00012012   -0.02393404
     atom   28 type  2   force =    -0.00000700   -0.00118684    0.05300774
     atom   29 type  2   force =    -0.01259140    0.00055978    0.00299915
     atom   30 type  2   force =     0.01394732    0.00101625    0.00262790
     atom   31 type  1   force =     0.00052352    0.00340009   -0.01251144
     atom   32 type  1   force =     0.00027963   -0.01699611    0.02993054
     atom   33 type  2   force =    -0.00024599   -0.00052284   -0.00052447
     atom   34 type  2   force =    -0.00265649    0.00030959   -0.02242235
     atom   35 type  2   force =    -0.00005538   -0.00016576    0.00002184
     atom   36 type  2   force =     0.00000205   -0.00001915    0.00005720
     atom   37 type  1   force =     0.00028678   -0.00037868   -0.00055394
     atom   38 type  1   force =    -0.00023116    0.00040801    0.00020096
     atom   39 type  2   force =     0.00000622   -0.00040148    0.00037016
     atom   40 type  2   force =     0.00032965   -0.00050897    0.00000576
     atom   41 type  2   force =    -0.00037048    0.00011201    0.00003210
     atom   42 type  2   force =     0.00058714    0.00032833   -0.00013429
     atom   43 type  1   force =    -0.00027944    0.00059376    0.00003601
     atom   44 type  1   force =     0.00037654   -0.00048258   -0.00016583
     atom   45 type  2   force =     0.00002021    0.00002393    0.10323572
     atom   46 type  2   force =    -0.07151055   -0.00001171   -0.02767802
     atom   47 type  2   force =     0.07135750    0.00039679   -0.02774151
     atom   48 type  3   force =    -0.00081580    0.00017115   -0.00040016
     atom   49 type  4   force =     0.00269763    0.00202784   -0.00250003
     atom   50 type  5   force =    -0.00082538    0.00057703    0.00039157
     atom   51 type  5   force =    -0.00104794   -0.00187379    0.00194971
     atom   52 type  5   force =    -0.00047124    0.00028812    0.00009615
     atom   53 type  3   force =     0.00068043    0.00025395   -0.00036286

     Total force =     0.368820     Total SCF correction =     0.000496
  @ DRIVER MODE: Message from server: STATUS
  @ DRIVER MODE: Message from server: GETFORCE
  @ DRIVER MODE: Returning v,forces,stress,ensemble

     Writing output data file ./calc.save/
  @ DRIVER MODE: Message from server: EXIT
  @ DRIVE MODE: Exiting

     General routines

     Parallel routines

   This run was terminated on:  20: 4:33   2Aug2021

   JOB DONE.