     Program PWSCF v.6.7GPU starts on 14Sep2021 at 23:27: 5

     R & G space division:  proc/nbgrp/npool/nimage =      10
     Reading input from /storage/home/hcoda1/3/ntian30/research/carbon/CxH_vib/CH2_calc/ads_slab/CH2ON2_b/out_0029/pw.inp
Warning: card &CELL ignored
Warning: card   CELL_DYNAMICS='IPI', ignored
Warning: card / ignored

     Current dimensions of program PWSCF are:
     Max number of different atomic species (ntypx) = 10
     Max number of k-points (npk) =  40000
     Max angular momentum in pseudopotentials (lmaxx) =  3
     Presently no symmetry can be used with electric field

     Message from routine cell_base_init:
     DEPRECATED: use true lattice parameter, not A to a.u. conversion factor

     IMPORTANT: XC functional enforced from input :
     Exchange-correlation= BEEF-VDW
                           (   1   4  43  14   2   0   0)
     Any further DFT definition will be discarded
     Please, verify this is what you really want

  @ DRIVER MODE: Connecting to
 qe_1139763_2840441.sched-torque.pace.gatech.edu_xfc4gnc_scratch
  using UNIX socket
  @ DRIVER MODE: Message from server: STATUS
  @ DRIVER MODE: Message from server: INIT
  @ DRIVER MODE: Receiving replica           0          -1
  @ DRIVER MODE: Receiving encoded integer          25
  @ DRIVER MODE:  SCF:  T  FORCE:  T  STRESS:  F  VC:  F  ENSEMBLE:  F
  @ DRIVER MODE:  SCF:  T  FORCE:  T  STRESS:  F  VC:  F  ENSEMBLE:  F

     Using Slab Decomposition

     bravais-lattice index     =            0
     lattice parameter (alat)  =       1.8897  a.u.
     unit-cell volume          =    6658.9804 (a.u.)^3
     number of atoms/cell      =           53
     number of atomic types    =            5
     number of electrons       =       400.00
     number of Kohn-Sham states=          210
     kinetic-energy cutoff     =      29.3995  Ry
     charge density cutoff     =     293.9946  Ry
     scf convergence threshold =      7.3E-08
     mixing beta               =       0.0500
     number of iterations used =            8  plain     mixing
     Exchange-correlation= BEEF-VDW
                           (   1   4  43  14   2   0   0)

     celldm(1)=   1.889726  celldm(2)=   0.000000  celldm(3)=   0.000000
     celldm(4)=   0.000000  celldm(5)=   0.000000  celldm(6)=   0.000000

     crystal axes: (cart. coord. in units of alat)
               a(1) = (   6.579727   0.000000   0.000000 )
               a(2) = (  -0.000775   5.961596   0.000000 )
               a(3) = (   0.000000   0.000000  25.155947 )

     reciprocal axes: (cart. coord. in units 2 pi/alat)
               b(1) = (  0.151982  0.000020  0.000000 )
               b(2) = (  0.000000  0.167740  0.000000 )
               b(3) = (  0.000000  0.000000  0.039752 )

     PseudoPot. # 1 for C  read from file:
     /storage/coda1/p-amedford6/0/shared/rich_project_chbe-medford/medford-share/data/pseudos_module/espresso/nninc/pbe/van/C.UPF
     MD5 check sum: 1a69bf6b8db32088f5b2163dbdb77a27
     Pseudo is Ultrasoft, Zval =  4.0
     Generated by new atomic code, or converted to UPF format
     Using radial grid of  721 points,  4 beta functions with:
                l(1) =   0
                l(2) =   0
                l(3) =   1
                l(4) =   1
     Q(r) pseudized with  8 coefficients,  rinner =    0.800   0.800   0.800

     PseudoPot. # 2 for H  read from file:
     /storage/coda1/p-amedford6/0/shared/rich_project_chbe-medford/medford-share/data/pseudos_module/espresso/nninc/pbe/van/H.UPF
     MD5 check sum: b5ee9d7bfd3a09ee7748110bda690ff7
     Pseudo is Ultrasoft, Zval =  1.0
     Generated by new atomic code, or converted to UPF format
     Using radial grid of  615 points,  1 beta functions with:
                l(1) =   0
     Q(r) pseudized with  8 coefficients,  rinner =    0.800

     PseudoPot. # 3 for O  read from file:
     /storage/coda1/p-amedford6/0/shared/rich_project_chbe-medford/medford-share/data/pseudos_module/espresso/nninc/pbe/van/O.UPF
     MD5 check sum: 78c19812648e8988a0fe644b0f25305e
     Pseudo is Ultrasoft, Zval =  6.0
     Generated by new atomic code, or converted to UPF format
     Using radial grid of  737 points,  4 beta functions with:
                l(1) =   0
                l(2) =   0
                l(3) =   1
                l(4) =   1
     Q(r) pseudized with  8 coefficients,  rinner =    0.800   0.800   0.800

     PseudoPot. # 4 for Ti read from file:
     /storage/coda1/p-amedford6/0/shared/rich_project_chbe-medford/medford-share/data/pseudos_module/espresso/nninc/pbe/van/Ti.UPF
     MD5 check sum: 8e4df49b7f0d34bbd5052bf3f5ea0213
     Pseudo is Ultrasoft, Zval = 12.0
     Generated by new atomic code, or converted to UPF format
     Using radial grid of  851 points,  6 beta functions with:
                l(1) =   0
                l(2) =   0
                l(3) =   1
                l(4) =   1
                l(5) =   2
                l(6) =   2
     Q(r) pseudized with  8 coefficients,  rinner =    1.000   1.000   1.000
                                                       1.000   1.000

     PseudoPot. # 5 for N  read from file:
     /storage/coda1/p-amedford6/0/shared/rich_project_chbe-medford/medford-share/data/pseudos_module/espresso/nninc/pbe/van/N.UPF
     MD5 check sum: 90d10febe142ad51ac9d5be1deb811c4
     Pseudo is Ultrasoft, Zval =  5.0
     Generated by new atomic code, or converted to UPF format
     Using radial grid of  729 points,  4 beta functions with:
                l(1) =   0
                l(2) =   0
                l(3) =   1
                l(4) =   1
     Q(r) pseudized with  8 coefficients,  rinner =    0.800   0.800   0.800

     atomic species   valence    mass     pseudopotential
        C1             4.00    12.01100     C ( 1.00)
        H1             1.00     1.00800     H ( 1.00)
        O1             6.00    15.99900     O ( 1.00)
        Ti1           12.00    47.86700     Ti( 1.00)
        N1             5.00    14.00700     N ( 1.00)

     No symmetry found

   Cartesian axes

     site n.     atom                  positions (alat units)
         1           C1  tau(   1) = (   6.4247902   2.9910588  18.6917704  )
         2           H1  tau(   2) = (   6.3980358   3.9338040  19.2291268  )
         3           H1  tau(   3) = (   6.3671137   2.0386567  19.2103458  )
         4           O1  tau(   4) = (   3.2904802   0.0005063   4.7018136  )
         5           O1  tau(   5) = (   3.2900926   2.9813045   4.7018136  )
         6           O1  tau(   6) = (   1.3043587   1.4918075   6.0039043  )
         7           O1  tau(   7) = (   1.3039711   4.4726057   6.0039043  )
         8           O1  tau(   8) = (   5.2767064   1.4903225   6.0039473  )
         9           O1  tau(   9) = (   5.2763189   4.4711207   6.0039473  )
        10           O1  tau(  10) = (   3.2906025   0.0005020   7.3038282  )
        11           O1  tau(  11) = (   3.2902150   2.9813002   7.3038282  )
        12           O1  tau(  12) = (   0.0006271   0.0005054   7.9858123  )
        13           O1  tau(  13) = (   0.0002396   2.9813036   7.9858123  )
        14           O1  tau(  14) = (   4.5942328   1.4918067   9.2879030  )
        15           O1  tau(  15) = (   4.5938453   4.4726049   9.2879030  )
        16           O1  tau(  16) = (   1.9868534   1.4903216   9.2879459  )
        17           O1  tau(  17) = (   1.9864658   4.4711199   9.2879459  )
        18           O1  tau(  18) = (   0.0058113   2.9878523  10.5832334  )
        19           O1  tau(  19) = (   0.0062988   0.0093020  10.6005518  )
        20           O1  tau(  20) = (   3.2955317   2.9954032  11.3404818  )
        21           O1  tau(  21) = (   3.2944299   0.0136787  11.3445968  )
        22           O1  tau(  22) = (   5.2904553   1.5027675  12.6317203  )
        23           O1  tau(  23) = (   5.2914467   4.4836083  12.6349631  )
        24           O1  tau(  24) = (   1.2933861   1.5040032  12.6362007  )
        25           O1  tau(  25) = (   1.2922507   4.4849626  12.6395598  )
        26           O1  tau(  26) = (   3.2955364   2.9961609  13.9180299  )
        27           O1  tau(  27) = (   3.2969677   0.0155663  13.9438287  )
        28           O1  tau(  28) = (   0.0016464   0.0229801  14.6780835  )
        29           O1  tau(  29) = (   0.0078505   2.9966620  14.7218711  )
        30           O1  tau(  30) = (   4.5417949   4.4807699  16.1031406  )
        31           O1  tau(  31) = (   4.5422182   1.5234006  16.1020929  )
        32           O1  tau(  32) = (   2.0382733   4.4802786  16.1011463  )
        33           O1  tau(  33) = (   2.0385641   1.5240134  16.0993588  )
        34           O1  tau(  34) = (   6.5794991   0.0244991  17.1995468  )
        35           O1  tau(  35) = (   6.5588415   3.0026814  17.4289308  )
        36           Ti1 tau(  36) = (   0.0004258   2.9801865   6.0000000  )
        37           Ti1 tau(  37) = (   0.0000382   5.9609847   6.0000000  )
        38           Ti1 tau(  38) = (   3.2906075   1.4906267   6.0002472  )
        39           Ti1 tau(  39) = (   3.2902200   4.4714249   6.0002472  )
        40           Ti1 tau(  40) = (   3.2947477   0.0499856   9.1537742  )
        41           Ti1 tau(  41) = (   3.3215383   3.0289251   9.1580241  )
        42           Ti1 tau(  42) = (   0.0276872   4.5181110   9.2597866  )
        43           Ti1 tau(  43) = (   0.0223396   1.5961087   9.3523429  )
        44           Ti1 tau(  44) = (   3.3278215   4.4891914  12.4850086  )
        45           Ti1 tau(  45) = (   3.3277968   1.5111787  12.4828596  )
        46           Ti1 tau(  46) = (   0.0250534   0.0277200  12.4935153  )
        47           Ti1 tau(  47) = (   0.0290128   3.0118426  12.7617797  )
        48           Ti1 tau(  48) = (   3.2948489   3.0033751  15.7103116  )
        49           Ti1 tau(  49) = (   3.2995243   0.0226186  15.7353524  )
        50           Ti1 tau(  50) = (   0.0095488   1.4190105  15.9501391  )
        51           Ti1 tau(  51) = (   0.0117608   4.6113996  15.9785021  )
        52           N1  tau(  52) = (   3.7826193   3.0501191  20.2990129  )
        53           N1  tau(  53) = (   2.7364546   2.9530354  19.9655958  )

     number of k points=    10  Fermi-Dirac smearing, width (Ry)=  0.0073
                       cart. coord. in units 2pi/alat
        k(    1) = (   0.0000000   0.0000000   0.0000000), wk =   0.1250000
        k(    2) = (   0.0000000   0.0419351   0.0000000), wk =   0.2500000
        k(    3) = (   0.0000000  -0.0838702   0.0000000), wk =   0.1250000
        k(    4) = (   0.0379955   0.0000049   0.0000000), wk =   0.2500000
        k(    5) = (   0.0379955   0.0419400   0.0000000), wk =   0.2500000
        k(    6) = (   0.0379955  -0.0838652   0.0000000), wk =   0.2500000
        k(    7) = (   0.0379955  -0.0419301   0.0000000), wk =   0.2500000
        k(    8) = (  -0.0759910  -0.0000099   0.0000000), wk =   0.1250000
        k(    9) = (  -0.0759910   0.0419252   0.0000000), wk =   0.2500000
        k(   10) = (  -0.0759910  -0.0838800   0.0000000), wk =   0.1250000

     Initial potential from superposition of free atoms

     starting charge  383.99917, renormalised to  400.00000

     negative rho (up, down):  1.499E-02 0.000E+00

     %%%%%%%%%%%%%%%%%%%%%%%%%%%%%%%%%%%%%%%%%%%%%%%%%%%%%%%%%%%%%%%%%%%%%%%%
     %                                                                      %
     % You are using vdW-DF, which was implemented by the Thonhauser group. %
     % Please cite the following two papers that made this development      %
     % possible and the two reviews that describe the various versions:     %
     %                                                                      %
     %   T. Thonhauser et al., PRL 115, 136402 (2015).                      %
     %   T. Thonhauser et al., PRB 76, 125112 (2007).                       %
     %   K. Berland et al., Rep. Prog. Phys. 78, 066501 (2015).             %
     %   D.C. Langreth et al., J. Phys.: Condens. Matter 21, 084203 (2009). %
     %                                                                      %
     %                                                                      %
     % If you are calculating the stress with vdW-DF, please also cite:     %
     %                                                                      %
     %   R. Sabatini et al., J. Phys.: Condens. Matter 24, 424209 (2012).   %
     %                                                                      %
     %%%%%%%%%%%%%%%%%%%%%%%%%%%%%%%%%%%%%%%%%%%%%%%%%%%%%%%%%%%%%%%%%%%%%%%%

     Adding external electric field

     Computed dipole along edir(3) :
        Dipole              -12.3528 Ry au,        -31.3977 Debye
        Dipole field         -0.0233 Ry au,

        Potential amp.        2.1609 Ry
        Total length         46.3494 bohr

     Starting wfcs are  302 atomic wfcs
  @ DRIVER MODE: Message from server: STATUS
  @ DRIVER MODE: Message from server: POSDATA
  @ DRIVER MODE: Reading and sharing cell
  @ DRIVER MODE: Reading and sharing positions
  @ DRIVER MODE: Received positions

     Self-consistent Calculation

     iteration #  1     ecut=    29.40 Ry     beta= 0.05
     Davidson diagonalization with overlap
     c_bands:  2 eigenvalues not converged
     c_bands:  2 eigenvalues not converged
     c_bands:  2 eigenvalues not converged
     c_bands:  2 eigenvalues not converged
     c_bands:  4 eigenvalues not converged
     c_bands:  2 eigenvalues not converged
     c_bands:  5 eigenvalues not converged
     c_bands:  1 eigenvalues not converged
     c_bands:  3 eigenvalues not converged
     c_bands:  5 eigenvalues not converged
     ethr =  1.00E-05,  avg # of iterations = 22.0

[...]

     total energy              =   -2430.18061236 Ry
     estimated scf accuracy    <    6093.02682609 Ry

     iteration #  2     ecut=    29.40 Ry     beta= 0.05
     Davidson diagonalization with overlap
     ethr =  1.00E-02,  avg # of iterations = 22.2

[...]

     iteration # 82     ecut=    29.40 Ry     beta= 0.05
     Davidson diagonalization with overlap
     c_bands:  1 eigenvalues not converged
     c_bands:  2 eigenvalues not converged
     ethr =  1.06E-10,  avg # of iterations = 14.6

[...]

     total energy              =   -2970.35119324 Ry
     estimated scf accuracy    <       0.00000010 Ry

     iteration # 84     ecut=    29.40 Ry     beta= 0.05
     Davidson diagonalization with overlap
     ethr =  2.45E-11,  avg # of iterations = 13.2

     negative rho (up, down):  1.511E-02 0.000E+00

     Adding external electric field

     Computed dipole along edir(3) :
        Dipole                0.9994 Ry au,          2.5401 Debye
        Dipole field          0.0019 Ry au,

        Potential amp.       -0.1748 Ry
        Total length         46.3494 bohr

     End of self-consistent calculation

          k = 0.0000 0.0000 0.0000 ( 18029 PWs)   bands (ev):

   -55.5201 -55.5109 -55.4829 -55.4745 -55.4163 -55.3990 -55.3737 -55.3104
   -55.3040 -55.2944 -55.2915 -55.2583 -55.2394 -55.2146 -54.5452 -54.5111
   -32.0818 -31.9930 -31.8940 -31.8840 -31.8298 -31.8259 -31.8182 -31.7984
   -31.7709 -31.7545 -31.7525 -31.7273 -31.7038 -31.6929 -31.6781 -31.6599
   -31.6450 -31.6445 -31.6353 -31.6148 -31.5952 -31.5912 -31.5825 -31.5772
   -31.5728 -31.5459 -31.5450 -31.5237 -31.5179 -31.5169 -31.4956 -31.4732
   -31.4677 -31.4451 -31.4364 -31.4359 -31.4281 -31.4234 -31.4017 -31.3974
   -31.3919 -31.3844 -30.9551 -30.8576 -30.8354 -30.7719 -30.6858 -30.5745
   -21.4597 -19.7404 -16.3039 -16.0034 -15.8619 -15.7313 -15.6746 -15.5633
   -15.4064 -15.3468 -15.2498 -15.2005 -15.1499 -15.1159 -15.1088 -15.0869
   -15.0790 -15.0531 -15.0502 -14.9827 -14.9716 -14.9352 -14.9222 -14.9218
   -14.8244 -14.7762 -14.7097 -14.6502 -14.5967 -14.5431 -14.5187 -13.0457
   -12.9273  -9.1232  -6.6525  -5.3888  -5.3868  -4.5901  -4.5797  -3.6529
    -3.4745  -3.4329  -3.4251  -3.3707  -3.3604  -3.2715  -3.1432  -3.1072
    -2.8222  -2.7331  -2.6999  -2.6862  -2.6780  -2.5488  -2.4881  -2.3706
    -2.3644  -2.3505  -2.3490  -2.3403  -2.2966  -2.2929  -2.2498  -2.2177
    -2.1325  -2.0717  -1.9623  -1.9512  -1.9259  -1.8634  -1.8301  -1.8077
    -1.8051  -1.7594  -1.7571  -1.7546  -1.7097  -1.6219  -1.5178  -1.4765
    -1.3809  -1.3470  -1.2350  -1.1035  -1.0254  -0.9854  -0.9326  -0.8824
    -0.8771  -0.8561  -0.8364  -0.8206  -0.8048  -0.6885  -0.5740  -0.5718
    -0.4707  -0.4182  -0.3925  -0.3799  -0.2809  -0.2623  -0.2550  -0.1774
    -0.0208  -0.0169  -0.0045   0.1146   0.1432   0.1597   0.2100   0.2316
     0.2724   0.2963   0.3501   0.4066   0.4159   0.4654   0.4738   0.4953
     0.6008   0.6593   0.6652   0.7237   0.7678   0.9529   0.9677   1.1083
     1.1666   1.3829   1.4797   1.5301   1.6487   2.0667   2.1259   3.6401
     3.6756   3.6956   3.7442   3.7768   3.8103   3.8753   4.0824   4.0998
     4.1020   4.1292

[...]

          k = 0.0380-0.0419 0.0000 ( 17876 PWs)   bands (ev):

[...]

          k =-0.0760-0.0000 0.0000 ( 17886 PWs)   bands (ev):

[...]

          k =-0.0760-0.0839 0.0000 ( 17948 PWs)   bands (ev):

   -55.5089 -55.4940 -55.4939 -55.4913 -55.4086 -55.3955 -55.3814 -55.3137
   -55.2999 -55.2883 -55.2754 -55.2749 -55.2455 -55.2180 -54.5285 -54.5276
   -31.8845 -31.8817 -31.8170 -31.8033 -31.8010 -31.7990 -31.7892 -31.7783
   -31.7669 -31.7420 -31.7254 -31.7127 -31.7003 -31.6610 -31.6491 -31.6428
   -31.6376 -31.6327 -31.6271 -31.6230 -31.6118 -31.6055 -31.6029 -31.5994
   -31.5961 -31.5939 -31.5758 -31.5698 -31.5416 -31.5322 -31.5279 -31.5143
   -31.5022 -31.4931 -31.4879 -31.4810 -31.4786 -31.4741 -31.4570 -31.4363
   -31.4256 -31.4121 -30.8486 -30.8475 -30.7684 -30.7677 -30.7292 -30.7285
   -21.4594 -19.7332 -15.7350 -15.7047 -15.6054 -15.4715 -15.4608 -15.4200
   -15.3789 -15.3202 -15.2620 -15.2592 -15.2173 -15.2015 -15.1884 -15.1519
   -15.1193 -15.0733 -15.0602 -15.0554 -15.0434 -14.9884 -14.9818 -14.9421
   -14.9242 -14.9169 -14.8725 -14.8650 -14.7904 -14.7510 -14.7279 -13.0299
   -13.0273  -9.1358  -6.6362  -5.3649  -5.3174  -4.5951  -4.5894  -3.5770
    -3.1730  -3.0245  -2.9884  -2.8293  -2.6936  -2.6829  -2.6282  -2.5381
    -2.5045  -2.4608  -2.4087  -2.3947  -2.3716  -2.3671  -2.3574  -2.3538
    -2.3456  -2.2946  -2.2760  -2.2396  -2.1851  -2.1772  -2.1641  -2.1577
    -2.1146  -2.0990  -2.0910  -2.0854  -2.0788  -2.0128  -1.9426  -1.8701
    -1.7799  -1.7397  -1.7180  -1.6814  -1.6457  -1.6105  -1.5888  -1.5711
    -1.4601  -1.4318  -1.2889  -1.2645  -1.2478  -1.2370  -1.1964  -1.1922
    -1.0594  -0.9821  -0.9720  -0.9492  -0.8939  -0.8598  -0.8152  -0.7895
    -0.7016  -0.6666  -0.6253  -0.5747  -0.4949  -0.4848  -0.4336  -0.4179
    -0.3366  -0.3220  -0.2908  -0.2879  -0.2218  -0.1763  -0.1022  -0.0956
    -0.0698   0.0369   0.0923   0.1065   0.2891   0.4628   0.4760   0.4868
     0.5986   0.6090   0.6543   0.7290   0.7398   0.8242   0.8798   0.9772
     0.9964   1.0060   1.0850   1.8387   1.8397   1.9293   1.9407   3.6377
     3.8561   3.8880   3.9082   3.9606   4.1172   4.1219   4.1350   4.1478
     4.2608   4.2783

     the Fermi energy is     3.6287 ev

!    total energy              =   -2970.35119741 Ry
     estimated scf accuracy    <       0.00000007 Ry
     smearing contrib. (-TS)   =      -0.03416627 Ry
     internal energy E=F+TS    =   -2970.31703114 Ry

     The total energy is F=E-TS. E is the sum of the following terms:
     one-electron contribution =  -23487.42878283 Ry
     hartree contribution      =   11836.36564915 Ry
     xc contribution           =    -491.51529097 Ry
     ewald contribution        =    9172.25950880 Ry
     electric field correction =       0.00188472 Ry

     convergence has been achieved in  84 iterations

     Forces acting on atoms (cartesian axes, Ry/au):

     atom    1 type  1   force =    -0.00018096    0.00008651   -0.00021781
     atom    2 type  2   force =    -0.00046587    0.00078261    0.00026035
     atom    3 type  2   force =     0.00015633   -0.00057615   -0.00029904
     atom    4 type  3   force =    -0.00007312    0.00001720    0.10422435
     atom    5 type  3   force =    -0.00005963   -0.00001431    0.10427886
     atom    6 type  3   force =    -0.06901783    0.00074687   -0.02905972
     atom    7 type  3   force =    -0.06856627   -0.00135241   -0.02906441
     atom    8 type  3   force =     0.06868203    0.00127678   -0.02913213
     atom    9 type  3   force =     0.06833295   -0.00097498   -0.02913676
     atom   10 type  3   force =     0.00017020    0.00038671    0.04597943
     atom   11 type  3   force =     0.00058704    0.00071776    0.04715687
     atom   12 type  3   force =     0.00031055   -0.00529159   -0.03190679
     atom   13 type  3   force =     0.00036128    0.00311142   -0.02588588
     atom   14 type  3   force =    -0.01813870   -0.00008005    0.00388093
     atom   15 type  3   force =    -0.01655612    0.00120831    0.00342329
     atom   16 type  3   force =     0.01840174   -0.00126182    0.00384902
     atom   17 type  3   force =     0.01755821    0.00142101    0.00328464
     atom   18 type  3   force =     0.00002327    0.00030832    0.00041237
     atom   19 type  3   force =     0.00003767   -0.00012156    0.00014535
     atom   20 type  3   force =    -0.00005409    0.00027139    0.00035930
     atom   21 type  3   force =    -0.00008056   -0.00029176   -0.00036309
     atom   22 type  3   force =     0.00035478    0.00027875    0.00029550
     atom   23 type  3   force =     0.00029733   -0.00024762    0.00028253
     atom   24 type  3   force =    -0.00034681    0.00035288    0.00016330
     atom   25 type  3   force =    -0.00025495   -0.00029305    0.00014339
     atom   26 type  3   force =    -0.00017962    0.00012783    0.00033079
     atom   27 type  3   force =    -0.00013462   -0.00008340    0.00019917
     atom   28 type  3   force =     0.00008245   -0.00002728   -0.00018048
     atom   29 type  3   force =     0.00001215    0.00020892   -0.00050834
     atom   30 type  3   force =    -0.00024544   -0.00042256    0.00004279
     atom   31 type  3   force =    -0.00047963    0.00049545    0.00008355
     atom   32 type  3   force =     0.00045364   -0.00053833    0.00032615
     atom   33 type  3   force =     0.00066918    0.00059549    0.00033810
     atom   34 type  3   force =    -0.00014793    0.00001010    0.00088256
     atom   35 type  3   force =    -0.00032756   -0.00056736   -0.00023169
     atom   36 type  4   force =    -0.00025463   -0.00177256    0.10173279
     atom   37 type  4   force =    -0.00008363    0.00135056    0.11445180
     atom   38 type  4   force =    -0.00031600    0.00053239   -0.18032826
     atom   39 type  4   force =    -0.00021518   -0.00039556   -0.18062759
     atom   40 type  4   force =     0.00025920    0.00082861   -0.00109786
     atom   41 type  4   force =     0.00020666   -0.00078133   -0.00088049
     atom   42 type  4   force =    -0.00022338    0.00088248   -0.00019709
     atom   43 type  4   force =    -0.00016437   -0.00021503    0.00002663
     atom   44 type  4   force =     0.00001505   -0.00007562    0.00030689
     atom   45 type  4   force =     0.00005379    0.00007931    0.00036266
     atom   46 type  4   force =    -0.00017034    0.00048780   -0.00009789
     atom   47 type  4   force =    -0.00030744   -0.00043174    0.00042858
     atom   48 type  4   force =    -0.00056062   -0.00006153    0.00082419
     atom   49 type  4   force =    -0.00051194    0.00007708    0.00017811
     atom   50 type  4   force =     0.00021166    0.00032422   -0.00024858
     atom   51 type  4   force =     0.00019526   -0.00056856   -0.00049558
     atom   52 type  5   force =     0.01791681    0.00202067    0.00680244
     atom   53 type  5   force =    -0.01723197   -0.00254125   -0.00549721

     Total force =     0.375061     Total SCF correction =     0.000557
  @ DRIVER MODE: Message from server: STATUS
  @ DRIVER MODE: Message from server: GETFORCE
  @ DRIVER MODE: Returning v,forces,stress,ensemble

     Writing output data file ./calc.save/
  @ DRIVER MODE: Message from server: EXIT
  @ DRIVE MODE: Exiting

     General routines

     Parallel routines

   This run was terminated on:  23:48:55  14Sep2021

   JOB DONE.