     Program PWSCF v.6.7GPU starts on  8Sep2021 at 23:26:57

     R & G space division:  proc/nbgrp/npool/nimage =      10
     Reading input from /storage/home/hcoda1/3/ntian30/research/carbon/CxH_vib/CH3_calc/ads_slab/CH3NHNH_a/out_0005/pw.inp
Warning: card &CELL ignored
Warning: card   CELL_DYNAMICS='IPI', ignored
Warning: card / ignored

     Current dimensions of program PWSCF are:
     Max number of different atomic species (ntypx) = 10
     Max number of k-points (npk) =  40000
     Max angular momentum in pseudopotentials (lmaxx) =  3
     Presently no symmetry can be used with electric field

     Message from routine cell_base_init:
     DEPRECATED: use true lattice parameter, not A to a.u. conversion factor

     IMPORTANT: XC functional enforced from input :
     Exchange-correlation= BEEF-VDW
                           (   1   4  43  14   2   0   0)
     Any further DFT definition will be discarded
     Please, verify this is what you really want

  @ DRIVER MODE: Connecting to
 qe_1139763_2767401.sched-torque.pace.gatech.edu3zcztvog_scratch
  using UNIX socket
  @ DRIVER MODE: Message from server: STATUS
  @ DRIVER MODE: Message from server: INIT
  @ DRIVER MODE: Receiving replica           0          -1
  @ DRIVER MODE: Receiving encoded integer          25
  @ DRIVER MODE:  SCF:  T  FORCE:  T  STRESS:  F  VC:  F  ENSEMBLE:  F
  @ DRIVER MODE:  SCF:  T  FORCE:  T  STRESS:  F  VC:  F  ENSEMBLE:  F

     Using Slab Decomposition

     bravais-lattice index     =            0
     lattice parameter (alat)  =       1.8897  a.u.
     unit-cell volume          =    6658.9804 (a.u.)^3
     number of atoms/cell      =           55
     number of atomic types    =            5
     number of electrons       =       397.00
     number of Kohn-Sham states=          208
     kinetic-energy cutoff     =      29.3995  Ry
     charge density cutoff     =     293.9946  Ry
     scf convergence threshold =      7.3E-08
     mixing beta               =       0.0500
     number of iterations used =            8  plain     mixing
     Exchange-correlation= BEEF-VDW
                           (   1   4  43  14   2   0   0)

     celldm(1)=   1.889726  celldm(2)=   0.000000  celldm(3)=   0.000000
     celldm(4)=   0.000000  celldm(5)=   0.000000  celldm(6)=   0.000000

     crystal axes: (cart. coord. in units of alat)
               a(1) = (   6.579727   0.000000   0.000000 )
               a(2) = (  -0.000775   5.961596   0.000000 )
               a(3) = (   0.000000   0.000000  25.155947 )

     reciprocal axes: (cart. coord. in units 2 pi/alat)
               b(1) = (  0.151982  0.000020  0.000000 )
               b(2) = (  0.000000  0.167740  0.000000 )
               b(3) = (  0.000000  0.000000  0.039752 )

     PseudoPot. # 1 for Ti read from file:
     /storage/coda1/p-amedford6/0/shared/rich_project_chbe-medford/medford-share/data/pseudos_module/espresso/nninc/pbe/van/Ti.UPF
     MD5 check sum: 8e4df49b7f0d34bbd5052bf3f5ea0213
     Pseudo is Ultrasoft, Zval = 12.0
     Generated by new atomic code, or converted to UPF format
     Using radial grid of  851 points,  6 beta functions with:
                l(1) =   0
                l(2) =   0
                l(3) =   1
                l(4) =   1
                l(5) =   2
                l(6) =   2
     Q(r) pseudized with  8 coefficients,  rinner =    1.000   1.000   1.000
                                                       1.000   1.000

     PseudoPot. # 2 for O  read from file:
     /storage/coda1/p-amedford6/0/shared/rich_project_chbe-medford/medford-share/data/pseudos_module/espresso/nninc/pbe/van/O.UPF
     MD5 check sum: 78c19812648e8988a0fe644b0f25305e
     Pseudo is Ultrasoft, Zval =  6.0
     Generated by new atomic code, or converted to UPF format
     Using radial grid of  737 points,  4 beta functions with:
                l(1) =   0
                l(2) =   0
                l(3) =   1
                l(4) =   1
     Q(r) pseudized with  8 coefficients,  rinner =    0.800   0.800   0.800

     PseudoPot. # 3 for N  read from file:
     /storage/coda1/p-amedford6/0/shared/rich_project_chbe-medford/medford-share/data/pseudos_module/espresso/nninc/pbe/van/N.UPF
     MD5 check sum: 90d10febe142ad51ac9d5be1deb811c4
     Pseudo is Ultrasoft, Zval =  5.0
     Generated by new atomic code, or converted to UPF format
     Using radial grid of  729 points,  4 beta functions with:
                l(1) =   0
                l(2) =   0
                l(3) =   1
                l(4) =   1
     Q(r) pseudized with  8 coefficients,  rinner =    0.800   0.800   0.800

     PseudoPot. # 4 for C  read from file:
     /storage/coda1/p-amedford6/0/shared/rich_project_chbe-medford/medford-share/data/pseudos_module/espresso/nninc/pbe/van/C.UPF
     MD5 check sum: 1a69bf6b8db32088f5b2163dbdb77a27
     Pseudo is Ultrasoft, Zval =  4.0
     Generated by new atomic code, or converted to UPF format
     Using radial grid of  721 points,  4 beta functions with:
                l(1) =   0
                l(2) =   0
                l(3) =   1
                l(4) =   1
     Q(r) pseudized with  8 coefficients,  rinner =    0.800   0.800   0.800

     PseudoPot. # 5 for H  read from file:
     /storage/coda1/p-amedford6/0/shared/rich_project_chbe-medford/medford-share/data/pseudos_module/espresso/nninc/pbe/van/H.UPF
     MD5 check sum: b5ee9d7bfd3a09ee7748110bda690ff7
     Pseudo is Ultrasoft, Zval =  1.0
     Generated by new atomic code, or converted to UPF format
     Using radial grid of  615 points,  1 beta functions with:
                l(1) =   0
     Q(r) pseudized with  8 coefficients,  rinner =    0.800

     atomic species   valence    mass     pseudopotential
        Ti1           12.00    47.86700     Ti( 1.00)
        O1             6.00    15.99900     O ( 1.00)
        N1             5.00    14.00700     N ( 1.00)
        C1             4.00    12.01100     C ( 1.00)
        H1             1.00     1.00800     H ( 1.00)

     No symmetry found

   Cartesian axes

     site n.     atom                  positions (alat units)
         1           Ti1 tau(   1) = (   0.0004258   2.9801865   6.0000000  )
         2           Ti1 tau(   2) = (   3.2906075   1.4906267   6.0002472  )
         3           O1  tau(   3) = (   0.0006271   0.0005054   7.9858123  )
         4           O1  tau(   4) = (   3.2906025   0.0005020   7.3038282  )
         5           O1  tau(   5) = (   4.5942328   1.4918067   9.2879030  )
         6           O1  tau(   6) = (   1.9868534   1.4903216   9.2879459  )
         7           Ti1 tau(   7) = (   3.2907910   2.8959150   9.1758416  )
         8           Ti1 tau(   8) = (   0.0015273   1.4827037   9.2680791  )
         9           O1  tau(   9) = (   3.2830128   5.9597860  11.3344455  )
        10           O1  tau(  10) = (   0.0116148   5.9584955  10.6183126  )
        11           O1  tau(  11) = (   1.2885291   1.4855062  12.6376555  )
        12           O1  tau(  12) = (   5.2724004   1.4911608  12.5936499  )
        13           Ti1 tau(  13) = (   0.0410009   3.0319447  12.6084003  )
        14           Ti1 tau(  14) = (   3.3739341   1.4916561  12.4823474  )
        15           O1  tau(  15) = (   6.4862162   0.0153916  14.6455093  )
        16           O1  tau(  16) = (   3.3439542   5.9611638  13.9051029  )
        17           O1  tau(  17) = (   4.4933269   1.5483200  16.1231154  )
        18           O1  tau(  18) = (   1.9964937   1.4536654  15.9127221  )
        19           Ti1 tau(  19) = (   3.1412959   3.0017366  15.7441667  )
        20           Ti1 tau(  20) = (   6.4823597   1.5369342  15.8006069  )
        21           O1  tau(  21) = (   3.2904802   0.0005063   4.7018136  )
        22           O1  tau(  22) = (   6.5709111   0.0522475  17.2082838  )
        23           O1  tau(  23) = (   1.3043587   1.4918075   6.0039043  )
        24           O1  tau(  24) = (   5.2767064   1.4903225   6.0039473  )
        25           Ti1 tau(  25) = (   0.0000382   5.9609847   6.0000000  )
        26           Ti1 tau(  26) = (   3.2902200   4.4714249   6.0002472  )
        27           O1  tau(  27) = (   0.0002396   2.9813036   7.9858123  )
        28           O1  tau(  28) = (   3.2902150   2.9813002   7.3038282  )
        29           O1  tau(  29) = (   4.5938453   4.4726049   9.2879030  )
        30           O1  tau(  30) = (   1.9864658   4.4711199   9.2879459  )
        31           Ti1 tau(  31) = (   3.2891106   5.8743827   9.1763621  )
        32           Ti1 tau(  32) = (   0.0006254   4.4649316   9.2693709  )
        33           O1  tau(  33) = (   3.2833609   2.9822938  11.3349093  )
        34           O1  tau(  34) = (   0.0092240   2.9805883  10.6323155  )
        35           O1  tau(  35) = (   1.2838611   4.4860338  12.6468719  )
        36           O1  tau(  36) = (   5.2760156   4.4607002  12.6015494  )
        37           Ti1 tau(  37) = (   0.0673138   0.0440259  12.5461749  )
        38           Ti1 tau(  38) = (   3.3712377   4.4654930  12.4933830  )
        39           O1  tau(  39) = (   6.5217465   2.9589972  14.6412948  )
        40           O1  tau(  40) = (   3.2809526   2.9956502  13.9333893  )
        41           O1  tau(  41) = (   4.4911989   4.4583117  16.1637052  )
        42           O1  tau(  42) = (   1.9937212   4.5427850  15.9740970  )
        43           Ti1 tau(  43) = (   3.2955853   0.0167752  15.6963065  )
        44           Ti1 tau(  44) = (   6.5082246   4.6715011  16.1069148  )
        45           O1  tau(  45) = (   3.2900926   2.9813045   4.7018136  )
        46           O1  tau(  46) = (   1.3039711   4.4726057   6.0039043  )
        47           O1  tau(  47) = (   5.2763189   4.4711207   6.0039473  )
        48           N1  tau(  48) = (   1.3945086   2.8365607  18.1749301  )
        49           N1  tau(  49) = (   0.1777896   2.9650562  17.4211889  )
        50           C1  tau(  50) = (   1.4118813   3.7128676  19.3556819  )
        51           H1  tau(  51) = (   0.5171711   3.5996102  19.9880000  )
        52           H1  tau(  52) = (   2.2935099   3.4681107  19.9517681  )
        53           H1  tau(  53) = (   1.4703795   4.7520035  19.0319817  )
        54           H1  tau(  54) = (   1.4579882   1.8621926  18.4823179  )
        55           H1  tau(  55) = (   5.9558665   2.8747675  18.0551794  )

     number of k points=    10  Fermi-Dirac smearing, width (Ry)=  0.0073
                       cart. coord. in units 2pi/alat
        k(    1) = (   0.0000000   0.0000000   0.0000000), wk =   0.1250000
        k(    2) = (   0.0000000   0.0419351   0.0000000), wk =   0.2500000
        k(    3) = (   0.0000000  -0.0838702   0.0000000), wk =   0.1250000
        k(    4) = (   0.0379955   0.0000049   0.0000000), wk =   0.2500000
        k(    5) = (   0.0379955   0.0419400   0.0000000), wk =   0.2500000
        k(    6) = (   0.0379955  -0.0838652   0.0000000), wk =   0.2500000
        k(    7) = (   0.0379955  -0.0419301   0.0000000), wk =   0.2500000
        k(    8) = (  -0.0759910  -0.0000099   0.0000000), wk =   0.1250000
        k(    9) = (  -0.0759910   0.0419252   0.0000000), wk =   0.2500000
        k(   10) = (  -0.0759910  -0.0838800   0.0000000), wk =   0.1250000

     Initial potential from superposition of free atoms

     starting charge  380.99914, renormalised to  397.00000

     negative rho (up, down):  1.540E-02 0.000E+00

     %%%%%%%%%%%%%%%%%%%%%%%%%%%%%%%%%%%%%%%%%%%%%%%%%%%%%%%%%%%%%%%%%%%%%%%%
     %                                                                      %
     % You are using vdW-DF, which was implemented by the Thonhauser group. %
     % Please cite the following two papers that made this development      %
     % possible and the two reviews that describe the various versions:     %
     %                                                                      %
     %   T. Thonhauser et al., PRL 115, 136402 (2015).                      %
     %   T. Thonhauser et al., PRB 76, 125112 (2007).                       %
     %   K. Berland et al., Rep. Prog. Phys. 78, 066501 (2015).             %
     %   D.C. Langreth et al., J. Phys.: Condens. Matter 21, 084203 (2009). %
     %                                                                      %
     %                                                                      %
     % If you are calculating the stress with vdW-DF, please also cite:     %
     %                                                                      %
     %   R. Sabatini et al., J. Phys.: Condens. Matter 24, 424209 (2012).   %
     %                                                                      %
     %%%%%%%%%%%%%%%%%%%%%%%%%%%%%%%%%%%%%%%%%%%%%%%%%%%%%%%%%%%%%%%%%%%%%%%%

     Adding external electric field

     Computed dipole along edir(3) :
        Dipole               -9.6140 Ry au,        -24.4365 Debye
        Dipole field         -0.0181 Ry au,

        Potential amp.        1.6818 Ry
        Total length         46.3494 bohr

     Starting wfcs are  301 atomic wfcs
  @ DRIVER MODE: Message from server: STATUS
  @ DRIVER MODE: Message from server: POSDATA
  @ DRIVER MODE: Reading and sharing cell
  @ DRIVER MODE: Reading and sharing positions
  @ DRIVER MODE: Received positions

     Self-consistent Calculation

     iteration #  1     ecut=    29.40 Ry     beta= 0.05
     Davidson diagonalization with overlap
     c_bands:  1 eigenvalues not converged
     c_bands:  1 eigenvalues not converged
     c_bands:  1 eigenvalues not converged
     c_bands:  1 eigenvalues not converged
     c_bands:  1 eigenvalues not converged
     c_bands:  1 eigenvalues not converged
     c_bands:  2 eigenvalues not converged
     ethr =  1.00E-05,  avg # of iterations = 18.8

[...]

     total energy              =   -2532.87231448 Ry
     estimated scf accuracy    <    4546.58352934 Ry

     iteration #  2     ecut=    29.40 Ry     beta= 0.05
     Davidson diagonalization with overlap
     ethr =  1.00E-02,  avg # of iterations = 24.8

[...]

     iteration # 63     ecut=    29.40 Ry     beta= 0.05
     Davidson diagonalization with overlap
     c_bands:  1 eigenvalues not converged
     ethr =  9.10E-11,  avg # of iterations = 12.0

[...]

     total energy              =   -2941.66144866 Ry
     estimated scf accuracy    <       0.00000041 Ry

     iteration # 66     ecut=    29.40 Ry     beta= 0.05
     Davidson diagonalization with overlap
     ethr =  9.10E-11,  avg # of iterations =  9.3

     negative rho (up, down):  1.606E-02 0.000E+00

     Adding external electric field

     Computed dipole along edir(3) :
        Dipole                0.9453 Ry au,          2.4026 Debye
        Dipole field          0.0018 Ry au,

        Potential amp.       -0.1654 Ry
        Total length         46.3494 bohr

     End of self-consistent calculation

          k = 0.0000 0.0000 0.0000 ( 18029 PWs)   bands (ev):

   -55.6843 -55.6672 -55.6502 -55.6306 -55.5902 -55.5358 -55.5287 -55.4988
   -55.4926 -55.4648 -55.4628 -55.4287 -55.2561 -55.0330 -54.6647 -54.6306
   -32.2182 -32.1673 -32.0405 -32.0303 -31.9971 -31.9823 -31.9772 -31.9531
   -31.9283 -31.8963 -31.8940 -31.8878 -31.8447 -31.8365 -31.8228 -31.8209
   -31.8043 -31.7892 -31.7805 -31.7452 -31.7414 -31.7343 -31.7189 -31.7154
   -31.6924 -31.6879 -31.6852 -31.6775 -31.6634 -31.6612 -31.6537 -31.6443
   -31.6389 -31.6292 -31.6158 -31.6063 -31.5749 -31.5064 -31.4629 -31.2992
   -31.2898 -31.2355 -31.0718 -30.9834 -30.9610 -30.8886 -30.8021 -30.6910
   -16.7921 -16.4151 -16.1602 -15.9308 -15.8397 -15.8092 -15.6568 -15.5253
   -15.4159 -15.3341 -15.2491 -15.2302 -15.2229 -15.2120 -15.1861 -15.1804
   -15.1332 -15.1287 -15.1092 -15.0962 -15.0461 -15.0297 -15.0261 -14.9314
   -14.8674 -14.8322 -14.8174 -14.7828 -14.7454 -14.3322 -13.1669 -13.0504
   -11.7785  -8.9825  -5.4458  -4.3538  -3.8333  -3.7861  -3.6422  -3.5918
    -3.5314  -3.4917  -3.3149  -3.2124  -2.9398  -2.8828  -2.8533  -2.8440
    -2.7851  -2.7539  -2.5989  -2.5729  -2.5023  -2.4932  -2.4778  -2.4490
    -2.4419  -2.4344  -2.3973  -2.3736  -2.3455  -2.2406  -2.1039  -2.0932
    -2.0693  -2.0360  -1.9982  -1.9494  -1.9332  -1.9133  -1.8947  -1.8819
    -1.8693  -1.7348  -1.6996  -1.5835  -1.4936  -1.4478  -1.3655  -1.2966
    -1.2700  -1.1557  -1.1159  -1.1047  -1.0891  -1.0784  -0.9789  -0.8735
    -0.8559  -0.8181  -0.7630  -0.7072  -0.6367  -0.5917  -0.5393  -0.4882
    -0.4650  -0.4489  -0.4461  -0.4107  -0.3179  -0.1781  -0.1263  -0.0919
    -0.0697   0.0071   0.0420   0.0977   0.1238   0.1461   0.1819   0.2349
     0.2784   0.2851   0.2985   0.3131   0.3178   0.4917   0.5413   0.5831
     0.6163   0.6627   0.8238   0.8454   0.9678   1.0407   1.2037   1.2831
     1.3577   1.4355   1.5494   1.6096   1.9290   1.9747   3.4465   3.5340
     3.5787   3.5925   3.6878   3.7294   3.8993   3.9298   3.9443   4.0042

[...]

          k = 0.0380-0.0419 0.0000 ( 17876 PWs)   bands (ev):

[...]

          k =-0.0760-0.0000 0.0000 ( 17886 PWs)   bands (ev):

[...]

          k =-0.0760-0.0839 0.0000 ( 17948 PWs)   bands (ev):

   -55.6676 -55.6667 -55.6525 -55.6451 -55.5841 -55.5417 -55.5161 -55.5052
   -55.4822 -55.4808 -55.4487 -55.4429 -55.2550 -55.0341 -54.6476 -54.6475
   -32.0273 -32.0176 -31.9829 -31.9823 -31.9630 -31.9621 -31.9419 -31.9355
   -31.8827 -31.8820 -31.8717 -31.8665 -31.8497 -31.8317 -31.8070 -31.8023
   -31.7979 -31.7944 -31.7878 -31.7877 -31.7864 -31.7860 -31.7823 -31.7425
   -31.7341 -31.7226 -31.7144 -31.7032 -31.6827 -31.6818 -31.6797 -31.6730
   -31.6630 -31.6590 -31.6557 -31.6531 -31.6122 -31.5089 -31.4596 -31.3613
   -31.2920 -31.2617 -30.9737 -30.9737 -30.8846 -30.8845 -30.8454 -30.8454
   -16.7665 -15.8621 -15.8010 -15.6432 -15.6080 -15.5884 -15.5534 -15.4927
   -15.4095 -15.3823 -15.3777 -15.3306 -15.3050 -15.2721 -15.2340 -15.2195
   -15.2124 -15.1936 -15.1815 -15.1475 -15.1380 -15.1263 -15.1191 -15.0437
   -15.0060 -15.0017 -14.9962 -14.8925 -14.7661 -14.5002 -13.1523 -13.1521
   -11.7846  -8.9966  -5.4603  -4.3409  -3.7558  -3.1548  -3.0678  -2.8932
    -2.8376  -2.8088  -2.7929  -2.6272  -2.6143  -2.6012  -2.5506  -2.5338
    -2.5223  -2.5149  -2.5061  -2.4850  -2.4721  -2.4388  -2.4282  -2.3917
    -2.3789  -2.3605  -2.3436  -2.3269  -2.3068  -2.2936  -2.2785  -2.2354
    -2.2170  -2.2057  -2.1842  -2.1412  -1.9298  -1.8800  -1.8362  -1.8313
    -1.8196  -1.8006  -1.7454  -1.7402  -1.7065  -1.6559  -1.5769  -1.4316
    -1.3862  -1.3698  -1.2770  -1.2552  -1.2032  -1.1305  -1.0849  -1.0680
    -1.0333  -0.9697  -0.9321  -0.8950  -0.8286  -0.8041  -0.7976  -0.7047
    -0.6835  -0.6473  -0.6406  -0.5624  -0.5130  -0.4485  -0.4332  -0.4168
    -0.3860  -0.3518  -0.3333  -0.2661  -0.1737  -0.1725  -0.1471  -0.0407
     0.0497   0.2787   0.3415   0.3784   0.4229   0.5169   0.5860   0.6100
     0.6258   0.6475   0.6667   0.7145   0.8420   0.8521   0.8863   0.9991
     1.1020   1.6246   1.7211   1.7220   1.7945   1.7946   3.7480   3.7662
     3.7869   3.8333   3.9524   3.9594   3.9816   3.9838   4.1064   4.1193

     the Fermi energy is     3.4481 ev

!    total energy              =   -2941.66147428 Ry
     estimated scf accuracy    <       0.00000007 Ry
     smearing contrib. (-TS)   =      -0.02151739 Ry
     internal energy E=F+TS    =   -2941.63995689 Ry

     The total energy is F=E-TS. E is the sum of the following terms:
     one-electron contribution =  -24278.55923060 Ry
     hartree contribution      =   12229.76231209 Ry
     xc contribution           =    -486.86951445 Ry
     ewald contribution        =    9594.02478989 Ry
     electric field correction =       0.00168618 Ry

     convergence has been achieved in  66 iterations

     Forces acting on atoms (cartesian axes, Ry/au):

     atom    1 type  1   force =     0.00017900   -0.00011956    0.09634330
     atom    2 type  1   force =    -0.00021590   -0.00063085   -0.17554520
     atom    3 type  2   force =    -0.00004276   -0.00003631   -0.02419782
     atom    4 type  2   force =     0.00005039   -0.00143760    0.05290889
     atom    5 type  2   force =    -0.01179592   -0.00049559    0.00396590
     atom    6 type  2   force =     0.01310757    0.00023267    0.00230210
     atom    7 type  1   force =    -0.00139812    0.00080805   -0.01150021
     atom    8 type  1   force =     0.00054218    0.00920297    0.02521599
     atom    9 type  2   force =    -0.00010906    0.00017541    0.00039331
     atom   10 type  2   force =    -0.00086471    0.00148101   -0.01579971
     atom   11 type  2   force =    -0.00018687   -0.00049646    0.00040815
     atom   12 type  2   force =    -0.00013485   -0.00026352    0.00004247
     atom   13 type  1   force =     0.00055286   -0.00092146    0.00007807
     atom   14 type  1   force =    -0.00008173   -0.00040160    0.00027846
     atom   15 type  2   force =     0.00016470   -0.00000334   -0.00029375
     atom   16 type  2   force =     0.00008060    0.00024885    0.00004721
     atom   17 type  2   force =    -0.00049082    0.00036082    0.00052476
     atom   18 type  2   force =     0.00007338   -0.00017287   -0.00008894
     atom   19 type  1   force =    -0.00010134   -0.00058556    0.00044059
     atom   20 type  1   force =    -0.00003317    0.00031886    0.00023544
     atom   21 type  2   force =     0.00007426   -0.00008003    0.10322362
     atom   22 type  2   force =    -0.00043705   -0.00016970    0.00031782
     atom   23 type  2   force =    -0.07148408   -0.00018195   -0.02771876
     atom   24 type  2   force =     0.07140521    0.00024850   -0.02771774
     atom   25 type  1   force =     0.00003179   -0.00027727    0.09582251
     atom   26 type  1   force =    -0.00014220   -0.00023330   -0.17570829
     atom   27 type  2   force =     0.00009195   -0.00012570   -0.02330088
     atom   28 type  2   force =     0.00007939   -0.00129502    0.05333641
     atom   29 type  2   force =    -0.01192359   -0.00006069    0.00376145
     atom   30 type  2   force =     0.01317343    0.00042633    0.00213728
     atom   31 type  1   force =    -0.00141670    0.00345452   -0.01082972
     atom   32 type  1   force =     0.00064256   -0.01009239    0.02562137
     atom   33 type  2   force =    -0.00039028    0.00005120    0.00005167
     atom   34 type  2   force =     0.00074892    0.00090234   -0.02307312
     atom   35 type  2   force =    -0.00009969    0.00029664   -0.00001266
     atom   36 type  2   force =    -0.00023151    0.00059784   -0.00027841
     atom   37 type  1   force =    -0.00082193   -0.00101604   -0.00013636
     atom   38 type  1   force =    -0.00002898   -0.00010574   -0.00000032
     atom   39 type  2   force =    -0.00033622    0.00004776    0.00054941
     atom   40 type  2   force =     0.00049366    0.00024491    0.00024609
     atom   41 type  2   force =     0.00009614    0.00048879    0.00031635
     atom   42 type  2   force =     0.00000985    0.00050862   -0.00038720
     atom   43 type  1   force =     0.00010156    0.00012301   -0.00025386
     atom   44 type  1   force =    -0.00038726   -0.00059536   -0.00031191
     atom   45 type  2   force =     0.00006964   -0.00008643    0.10323236
     atom   46 type  2   force =    -0.07149050   -0.00016831   -0.02771616
     atom   47 type  2   force =     0.07141521    0.00030758   -0.02773090
     atom   48 type  3   force =     0.00254502   -0.00053673    0.01357154
     atom   49 type  3   force =    -0.00284000   -0.00000594   -0.00326862
     atom   50 type  4   force =     0.00127345   -0.00144589   -0.00431203
     atom   51 type  5   force =     0.00124258   -0.00038676   -0.00167210
     atom   52 type  5   force =    -0.00027384    0.00021622   -0.00132458
     atom   53 type  5   force =    -0.00030032   -0.00168077    0.00077945
     atom   54 type  5   force =    -0.00023976    0.00374115   -0.00311677
     atom   55 type  5   force =     0.00005388   -0.00037534    0.00014403

     Total force =     0.367709     Total SCF correction =     0.000645
  @ DRIVER MODE: Message from server: STATUS
  @ DRIVER MODE: Message from server: GETFORCE
  @ DRIVER MODE: Returning v,forces,stress,ensemble

     Writing output data file ./calc.save/
  @ DRIVER MODE: Message from server: EXIT
  @ DRIVE MODE: Exiting

     General routines

     Parallel routines

   This run was terminated on:  23:45: 3   8Sep2021

   JOB DONE.