     Program PWSCF v.6.7GPU starts on 18Oct2021 at 21: 5:57

     R & G space division:  proc/nbgrp/npool/nimage =       8
     Reading input from /storage/home/hcoda1/3/ntian30/research/carbon/CxH_vib/Thiel_calc/ads_slab/N2HH_perslab/out_0019/pw.inp
Warning: card &CELL ignored
Warning: card   CELL_DYNAMICS='IPI', ignored
Warning: card / ignored

     Current dimensions of program PWSCF are:
     Max number of different atomic species (ntypx) = 10
     Max number of k-points (npk) =  40000
     Max angular momentum in pseudopotentials (lmaxx) =  3
     Presently no symmetry can be used with electric field

     Message from routine cell_base_init:
     DEPRECATED: use true lattice parameter, not A to a.u. conversion factor

     IMPORTANT: XC functional enforced from input :
     Exchange-correlation= BEEF-VDW
                           (   1   4  43  14   2   0   0)
     Any further DFT definition will be discarded
     Please, verify this is what you really want

  @ DRIVER MODE: Connecting to
 qe_1139763_3255130.sched-torque.pace.gatech.eduelaf8qep_scratch
  using UNIX socket
  @ DRIVER MODE: Message from server: STATUS
  @ DRIVER MODE: Message from server: INIT
  @ DRIVER MODE: Receiving replica           0          -1
  @ DRIVER MODE: Receiving encoded integer          25
  @ DRIVER MODE:  SCF:  T  FORCE:  T  STRESS:  F  VC:  F  ENSEMBLE:  F
  @ DRIVER MODE:  SCF:  T  FORCE:  T  STRESS:  F  VC:  F  ENSEMBLE:  F

     Using Slab Decomposition

     bravais-lattice index     =            0
     lattice parameter (alat)  =       1.8897  a.u.
     unit-cell volume          =    9988.4706 (a.u.)^3
     number of atoms/cell      =           57
     number of atomic types    =            4
     number of electrons       =       438.00
     number of Kohn-Sham states=          229
     kinetic-energy cutoff     =      29.3995  Ry
     charge density cutoff     =     293.9946  Ry
     scf convergence threshold =      7.3E-08
     mixing beta               =       0.0500
     number of iterations used =            8  plain     mixing
     Exchange-correlation= BEEF-VDW
                           (   1   4  43  14   2   0   0)

     celldm(1)=   1.889726  celldm(2)=   0.000000  celldm(3)=   0.000000
     celldm(4)=   0.000000  celldm(5)=   0.000000  celldm(6)=   0.000000

     crystal axes: (cart. coord. in units of alat)
               a(1) = (   6.579727   0.000000   0.000000 )
               a(2) = (  -0.001163   8.942395   0.000000 )
               a(3) = (   0.000000   0.000000  25.155947 )

     reciprocal axes: (cart. coord. in units 2 pi/alat)
               b(1) = (  0.151982  0.000020  0.000000 )
               b(2) = (  0.000000  0.111827  0.000000 )
               b(3) = (  0.000000  0.000000  0.039752 )

     PseudoPot. # 1 for O  read from file:
     /storage/coda1/p-amedford6/0/shared/rich_project_chbe-medford/medford-share/data/pseudos_module/espresso/nninc/pbe/van/O.UPF
     MD5 check sum: 78c19812648e8988a0fe644b0f25305e
     Pseudo is Ultrasoft, Zval =  6.0
     Generated by new atomic code, or converted to UPF format
     Using radial grid of  737 points,  4 beta functions with:
                l(1) =   0
                l(2) =   0
                l(3) =   1
                l(4) =   1
     Q(r) pseudized with  8 coefficients,  rinner =    0.800   0.800   0.800

     PseudoPot. # 2 for Ti read from file:
     /storage/coda1/p-amedford6/0/shared/rich_project_chbe-medford/medford-share/data/pseudos_module/espresso/nninc/pbe/van/Ti.UPF
     MD5 check sum: 8e4df49b7f0d34bbd5052bf3f5ea0213
     Pseudo is Ultrasoft, Zval = 12.0
     Generated by new atomic code, or converted to UPF format
     Using radial grid of  851 points,  6 beta functions with:
                l(1) =   0
                l(2) =   0
                l(3) =   1
                l(4) =   1
                l(5) =   2
                l(6) =   2
     Q(r) pseudized with  8 coefficients,  rinner =    1.000   1.000   1.000
                                                       1.000   1.000

     PseudoPot. # 3 for H  read from file:
     /storage/coda1/p-amedford6/0/shared/rich_project_chbe-medford/medford-share/data/pseudos_module/espresso/nninc/pbe/van/H.UPF
     MD5 check sum: b5ee9d7bfd3a09ee7748110bda690ff7
     Pseudo is Ultrasoft, Zval =  1.0
     Generated by new atomic code, or converted to UPF format
     Using radial grid of  615 points,  1 beta functions with:
                l(1) =   0
     Q(r) pseudized with  8 coefficients,  rinner =    0.800

     PseudoPot. # 4 for N  read from file:
     /storage/coda1/p-amedford6/0/shared/rich_project_chbe-medford/medford-share/data/pseudos_module/espresso/nninc/pbe/van/N.UPF
     MD5 check sum: 90d10febe142ad51ac9d5be1deb811c4
     Pseudo is Ultrasoft, Zval =  5.0
     Generated by new atomic code, or converted to UPF format
     Using radial grid of  729 points,  4 beta functions with:
                l(1) =   0
                l(2) =   0
                l(3) =   1
                l(4) =   1
     Q(r) pseudized with  8 coefficients,  rinner =    0.800   0.800   0.800

     atomic species   valence    mass     pseudopotential
        O1             6.00    15.99900     O ( 1.00)
        Ti1           12.00    47.86700     Ti( 1.00)
        H1             1.00     1.00800     H ( 1.00)
        N1             5.00    14.00700     N ( 1.00)

     No symmetry found

   Cartesian axes

     site n.     atom                  positions (alat units)
         1           O1  tau(   1) = (   0.0007354   0.0005023  10.5931620  )
         2           O1  tau(   2) = (   3.3150156   8.9360210  13.9574341  )
         3           O1  tau(   3) = (   6.5771809   0.1322222  17.3752006  )
         4           O1  tau(   4) = (   0.0006271   0.0005054   7.9858123  )
         5           O1  tau(   5) = (   3.2854428   8.9395983  11.2048121  )
         6           O1  tau(   6) = (   6.5534721   0.0059909  14.6304568  )
         7           O1  tau(   7) = (   1.9868534   1.4903216   9.2879459  )
         8           O1  tau(   8) = (   5.2434221   1.6171961  12.5999149  )
         9           O1  tau(   9) = (   1.9662201   1.5518754  16.1237639  )
        10           Ti1 tau(  10) = (   0.0007404   1.4906270   9.2895810  )
        11           Ti1 tau(  11) = (   3.2893977   1.3594553  12.5356033  )
        12           Ti1 tau(  12) = (   0.0178951   1.3769434  15.7441411  )
        13           O1  tau(  13) = (   4.5942328   1.4918067   9.2879030  )
        14           O1  tau(  14) = (   1.3385959   1.6247007  12.6234478  )
        15           O1  tau(  15) = (   4.5909775   1.5586907  16.1788856  )
        16           Ti1 tau(  16) = (   3.2902859   2.9801868   9.2893338  )
        17           Ti1 tau(  17) = (   6.5767353   2.8476438  12.4354253  )
        18           Ti1 tau(  18) = (   3.2855622   3.0003959  15.7804328  )
        19           O1  tau(  19) = (   0.0003479   2.9813005  10.5931620  )
        20           O1  tau(  20) = (   3.3036998   2.9877085  13.9702655  )
        21           O1  tau(  21) = (   0.0002396   2.9813036   7.9858123  )
        22           O1  tau(  22) = (   3.2849372   2.9737507  11.2063419  )
        23           O1  tau(  23) = (   6.5394694   3.0167582  14.8135819  )
        24           O1  tau(  24) = (   1.9864658   4.4711199   9.2879459  )
        25           O1  tau(  25) = (   5.2427600   4.5794291  12.6037842  )
        26           O1  tau(  26) = (   1.9458942   4.4597853  16.1214517  )
        27           Ti1 tau(  27) = (   0.0003529   4.4714252   9.2895810  )
        28           Ti1 tau(  28) = (   3.2810590   4.3307370  12.5385870  )
        29           Ti1 tau(  29) = (   6.5544800   4.6619433  15.7291082  )
        30           O1  tau(  30) = (   4.5938453   4.4726049   9.2879030  )
        31           O1  tau(  31) = (   1.3254974   4.5864429  12.6215760  )
        32           O1  tau(  32) = (   4.5799584   4.4820416  16.1880388  )
        33           Ti1 tau(  33) = (   3.2898983   5.9609850   9.2893338  )
        34           Ti1 tau(  34) = (   6.5675573   5.8255355  12.4420054  )
        35           Ti1 tau(  35) = (   3.2444431   5.9917870  15.7690220  )
        36           O1  tau(  36) = (  -0.0000397   5.9620987  10.5931620  )
        37           O1  tau(  37) = (   3.2928066   5.9693490  13.9649938  )
        38           O1  tau(  38) = (   6.5603845   5.9023223  17.3786232  )
        39           O1  tau(  39) = (  -0.0001480   5.9621018   7.9858123  )
        40           O1  tau(  40) = (   3.2839194   5.9454927  11.2056182  )
        41           O1  tau(  41) = (   6.5420590   6.0665053  14.6296390  )
        42           O1  tau(  42) = (   1.9860782   7.4519181   9.2879459  )
        43           O1  tau(  43) = (   5.2396418   7.5574700  12.5673505  )
        44           O1  tau(  44) = (   1.9576089   7.5211923  16.0792554  )
        45           Ti1 tau(  45) = (  -0.0000347   7.4522234   9.2895810  )
        46           Ti1 tau(  46) = (   3.2826699   7.3152331  12.5262848  )
        47           Ti1 tau(  47) = (   0.0069763   7.4761561  16.0760502  )
        48           O1  tau(  48) = (   4.5934577   7.4534031   9.2879030  )
        49           O1  tau(  49) = (   1.3370172   7.5712087  12.5877691  )
        50           O1  tau(  50) = (   4.5576284   7.4668559  16.1934357  )
        51           Ti1 tau(  51) = (   3.2895107   8.9417832   9.2893338  )
        52           Ti1 tau(  52) = (   6.5702701   8.7900240  12.4479541  )
        53           Ti1 tau(  53) = (   3.3076380   0.0053799  15.7629688  )
        54           H1  tau(  54) = (   5.7681615   5.8474147  17.9327380  )
        55           H1  tau(  55) = (   5.8019348   0.2260023  17.9463436  )
        56           N1  tau(  56) = (   6.2964029   3.7918275  19.8857669  )
        57           N1  tau(  57) = (   6.3480303   2.9648886  19.1553858  )

     number of k points=    10  Fermi-Dirac smearing, width (Ry)=  0.0073
                       cart. coord. in units 2pi/alat
        k(    1) = (   0.0000000   0.0000000   0.0000000), wk =   0.1250000
        k(    2) = (   0.0000000   0.0279567   0.0000000), wk =   0.2500000
        k(    3) = (   0.0000000  -0.0559134   0.0000000), wk =   0.1250000
        k(    4) = (   0.0379955   0.0000049   0.0000000), wk =   0.2500000
        k(    5) = (   0.0379955   0.0279617   0.0000000), wk =   0.2500000
        k(    6) = (   0.0379955  -0.0559085   0.0000000), wk =   0.2500000
        k(    7) = (   0.0379955  -0.0279518   0.0000000), wk =   0.2500000
        k(    8) = (  -0.0759910  -0.0000099   0.0000000), wk =   0.1250000
        k(    9) = (  -0.0759910   0.0279468   0.0000000), wk =   0.2500000
        k(   10) = (  -0.0759910  -0.0559233   0.0000000), wk =   0.1250000

     Initial potential from superposition of free atoms

     starting charge  419.99912, renormalised to  438.00000

     negative rho (up, down):  3.690E-02 0.000E+00

     %%%%%%%%%%%%%%%%%%%%%%%%%%%%%%%%%%%%%%%%%%%%%%%%%%%%%%%%%%%%%%%%%%%%%%%%
     %                                                                      %
     % You are using vdW-DF, which was implemented by the Thonhauser group. %
     % Please cite the following two papers that made this development      %
     % possible and the two reviews that describe the various versions:     %
     %                                                                      %
     %   T. Thonhauser et al., PRL 115, 136402 (2015).                      %
     %   T. Thonhauser et al., PRB 76, 125112 (2007).                       %
     %   K. Berland et al., Rep. Prog. Phys. 78, 066501 (2015).             %
     %   D.C. Langreth et al., J. Phys.: Condens. Matter 21, 084203 (2009). %
     %                                                                      %
     %                                                                      %
     % If you are calculating the stress with vdW-DF, please also cite:     %
     %                                                                      %
     %   R. Sabatini et al., J. Phys.: Condens. Matter 24, 424209 (2012).   %
     %                                                                      %
     %%%%%%%%%%%%%%%%%%%%%%%%%%%%%%%%%%%%%%%%%%%%%%%%%%%%%%%%%%%%%%%%%%%%%%%%

     Adding external electric field

     Computed dipole along edir(3) :
        Dipole               -6.4270 Ry au,        -16.3359 Debye
        Dipole field         -0.0081 Ry au,

        Potential amp.        0.7495 Ry
        Total length         46.3494 bohr

     Starting wfcs are  330 atomic wfcs
  @ DRIVER MODE: Message from server: STATUS
  @ DRIVER MODE: Message from server: POSDATA
  @ DRIVER MODE: Reading and sharing cell
  @ DRIVER MODE: Reading and sharing positions
  @ DRIVER MODE: Received positions

     Self-consistent Calculation

     iteration #  1     ecut=    29.40 Ry     beta= 0.05
     Davidson diagonalization with overlap
     c_bands:  2 eigenvalues not converged
     c_bands:  2 eigenvalues not converged
     c_bands:  5 eigenvalues not converged
     c_bands:  2 eigenvalues not converged
     c_bands:  4 eigenvalues not converged
     c_bands:  5 eigenvalues not converged
     c_bands:  4 eigenvalues not converged
     c_bands:  3 eigenvalues not converged
     c_bands:  4 eigenvalues not converged
     c_bands:  4 eigenvalues not converged
     ethr =  1.00E-05,  avg # of iterations = 20.0

[...]

     total energy              =   -3267.02835158 Ry
     estimated scf accuracy    <     308.60248486 Ry

[...]

     iteration #  3     ecut=    29.40 Ry     beta= 0.05
     Davidson diagonalization with overlap
     ethr =  1.00E-02,  avg # of iterations = 13.0

[...]

     iteration # 42     ecut=    29.40 Ry     beta= 0.05
     Davidson diagonalization with overlap
     ethr =  1.08E-08,  avg # of iterations = 11.7

[...]

     total energy              =   -3290.82353533 Ry
     estimated scf accuracy    <       0.00000009 Ry

     iteration # 56     ecut=    29.40 Ry     beta= 0.05
     Davidson diagonalization with overlap
     c_bands:  1 eigenvalues not converged
     ethr =  2.06E-11,  avg # of iterations =  8.0

     negative rho (up, down):  3.512E-02 0.000E+00

     Adding external electric field

     Computed dipole along edir(3) :
        Dipole                1.4936 Ry au,          3.7963 Debye
        Dipole field          0.0019 Ry au,

        Potential amp.       -0.1742 Ry
        Total length         46.3494 bohr

     End of self-consistent calculation

          k = 0.0000 0.0000 0.0000 ( 26871 PWs)   bands (ev):

   -57.5953 -57.5702 -57.5687 -57.5051 -57.4828 -57.4654 -57.4403 -57.4381
   -57.4191 -57.4136 -57.3965 -57.3860 -57.3782 -57.3553 -57.3514 -56.7216
   -56.6978 -56.6917 -33.9873 -33.9854 -33.9688 -33.9641 -33.9444 -33.9312
   -33.9141 -33.9020 -33.8983 -33.8913 -33.8888 -33.8763 -33.8439 -33.8365
   -33.8189 -33.7934 -33.7647 -33.7408 -33.7359 -33.7342 -33.7207 -33.7170
   -33.7142 -33.7076 -33.6973 -33.6967 -33.6930 -33.6922 -33.6727 -33.6662
   -33.6396 -33.6364 -33.6318 -33.6279 -33.6217 -33.6145 -33.5998 -33.5973
   -33.5825 -33.5604 -33.5342 -33.5313 -33.5261 -33.4945 -33.4816 -33.0420
   -33.0339 -33.0277 -33.0124 -33.0073 -32.9518 -32.8904 -32.8836 -32.7509
   -23.7240 -19.5291 -19.3974 -18.4808 -18.1093 -17.9380 -17.9261 -17.9036
   -17.8696 -17.7255 -17.6996 -17.6558 -17.6263 -17.6097 -17.4606 -17.4408
   -17.4240 -17.4208 -17.3745 -17.3697 -17.3635 -17.3343 -17.3275 -17.3158
   -17.2924 -17.2643 -17.1643 -17.1453 -17.1403 -17.1074 -17.0686 -17.0668
   -16.7624 -15.1857 -15.1259 -15.1212  -8.9448  -7.2079  -7.0764  -6.8563
    -6.8429  -5.8020  -5.6759  -5.6120  -5.5589  -5.4271  -5.1300  -5.0917
    -5.0576  -5.0373  -5.0206  -4.9679  -4.9166  -4.9079  -4.8897  -4.8597
    -4.8534  -4.7895  -4.7720  -4.7573  -4.6672  -4.6316  -4.6246  -4.5894
    -4.5672  -4.5030  -4.4914  -4.4711  -4.4338  -4.4253  -4.3989  -4.3818
    -4.2672  -4.1571  -4.1366  -4.0926  -4.0744  -3.9649  -3.9493  -3.9136
    -3.8928  -3.8327  -3.7957  -3.7750  -3.7583  -3.6896  -3.6354  -3.6122
    -3.5746  -3.5205  -3.4700  -3.4474  -3.4261  -3.4096  -3.3501  -3.2941
    -3.2582  -3.1912  -3.1415  -3.0529  -3.0480  -2.9617  -2.9108  -2.7796
    -2.7429  -2.6831  -2.6651  -2.6172  -2.5950  -2.4494  -2.4369  -2.4213
    -2.4180  -2.3841  -2.3297  -2.3091  -2.3066  -2.2849  -2.2561  -2.2078
    -2.1903  -2.1236  -2.0820  -2.0587  -2.0437  -2.0099  -1.9471  -1.9205
    -1.8407  -1.7797  -1.7584  -1.6634  -1.5489  -1.5315  -1.5311  -1.4189
    -1.3950  -1.0216  -0.7946  -0.4972  -0.4317  -0.4296  -0.1450  -0.1397
    -0.0013   1.3425   1.4157   1.5866   1.6101   1.6762   1.8161   1.8395
     1.9193   1.9582   1.9763   1.9891   1.9970

[...]

          k = 0.0380-0.0280 0.0000 ( 26873 PWs)   bands (ev):

[...]

          k =-0.0760-0.0000 0.0000 ( 26902 PWs)   bands (ev):

[...]

          k =-0.0760-0.0559 0.0000 ( 26868 PWs)   bands (ev):

   -57.5874 -57.5858 -57.5609 -57.5016 -57.4887 -57.4627 -57.4367 -57.4361
   -57.4249 -57.4170 -57.3942 -57.3843 -57.3720 -57.3683 -57.3451 -56.7158
   -56.7093 -56.6859 -34.0805 -34.0271 -33.9836 -33.9700 -33.9496 -33.9265
   -33.9105 -33.9067 -33.9040 -33.8853 -33.8618 -33.8182 -33.8101 -33.7955
   -33.7932 -33.7478 -33.7382 -33.7364 -33.7357 -33.7237 -33.7179 -33.7051
   -33.7041 -33.6835 -33.6749 -33.6721 -33.6690 -33.6686 -33.6652 -33.6621
   -33.6599 -33.6564 -33.6520 -33.6414 -33.6358 -33.6297 -33.6214 -33.6010
   -33.5794 -33.5749 -33.5720 -33.5609 -33.5587 -33.5109 -33.4941 -33.1295
   -33.0293 -33.0237 -33.0012 -32.9340 -32.9267 -32.8656 -32.8514 -32.8442
   -23.7240 -19.5111 -19.4047 -18.1324 -18.0991 -17.9793 -17.9170 -17.7969
   -17.7796 -17.6996 -17.6862 -17.6778 -17.6423 -17.6041 -17.5649 -17.5494
   -17.4721 -17.4422 -17.4159 -17.4047 -17.3950 -17.3882 -17.3811 -17.3669
   -17.2610 -17.2588 -17.2541 -17.2238 -17.1560 -17.1028 -17.0501 -17.0345
   -16.7947 -15.1832 -15.1777 -15.0623  -8.9447  -7.2489  -7.0495  -6.8574
    -6.8468  -5.6547  -5.4010  -5.3392  -5.3176  -5.2702  -5.1700  -5.1018
    -5.0586  -5.0012  -4.9412  -4.8899  -4.8570  -4.7935  -4.7798  -4.7672
    -4.7562  -4.7070  -4.6666  -4.6497  -4.6353  -4.6197  -4.6031  -4.5749
    -4.5644  -4.5327  -4.4652  -4.4258  -4.3381  -4.3298  -4.2995  -4.2628
    -4.2378  -4.2171  -4.1588  -4.1434  -4.1132  -4.0899  -3.9706  -3.8545
    -3.8401  -3.8050  -3.7989  -3.7685  -3.7298  -3.7234  -3.6212  -3.5465
    -3.4103  -3.3838  -3.3804  -3.3677  -3.3472  -3.2795  -3.2700  -3.2344
    -3.2018  -3.1872  -3.1661  -3.1115  -3.0831  -3.0053  -2.9735  -2.9152
    -2.8619  -2.8296  -2.7710  -2.7601  -2.7375  -2.7264  -2.7216  -2.7101
    -2.6904  -2.6435  -2.6341  -2.4851  -2.4508  -2.4455  -2.4318  -2.3219
    -2.3038  -2.2055  -2.1959  -2.1622  -2.1511  -2.0627  -2.0437  -1.9371
    -1.9172  -1.8586  -1.8116  -1.7626  -1.4501  -1.4387  -1.4103  -1.3774
    -1.2914  -1.2848  -1.0345  -0.6325  -0.3736  -0.3541  -0.3085  -0.1367
    -0.1348   1.4681   1.5352   1.5598   1.5774   1.6754   1.6881   1.7131
     1.7289   1.7659   1.7783   1.8839   1.9482

     the Fermi energy is     1.4871 ev

!    total energy              =   -3290.82359036 Ry
     estimated scf accuracy    <       0.00000006 Ry
     smearing contrib. (-TS)   =      -0.05467131 Ry
     internal energy E=F+TS    =   -3290.76891906 Ry

     The total energy is F=E-TS. E is the sum of the following terms:
     one-electron contribution =  -33575.69809308 Ry
     hartree contribution      =   16851.54789843 Ry
     xc contribution           =    -540.39528831 Ry
     ewald contribution        =   13973.77375742 Ry
     electric field correction =       0.00280649 Ry

     convergence has been achieved in  56 iterations

     Forces acting on atoms (cartesian axes, Ry/au):

     atom    1 type  1   force =     0.00049205    0.00768301    0.05387354
     atom    2 type  1   force =     0.00022752    0.00347084    0.00202819
     atom    3 type  1   force =    -0.00214221   -0.00159116   -0.00176634
     atom    4 type  1   force =     0.00004118    0.00063018    0.10811208
     atom    5 type  1   force =     0.00011760   -0.00052088    0.01007716
     atom    6 type  1   force =    -0.00049644   -0.00866093   -0.00250230
     atom    7 type  1   force =     0.06411278    0.00022164   -0.02870076
     atom    8 type  1   force =     0.00332504   -0.02901271    0.00415020
     atom    9 type  1   force =     0.01263549   -0.00962679   -0.00134477
     atom   10 type  2   force =     0.00006602   -0.00638410   -0.19201518
     atom   11 type  2   force =    -0.00025788    0.01996474   -0.01153002
     atom   12 type  2   force =    -0.00133478    0.01555798    0.01040760
     atom   13 type  1   force =    -0.06425032   -0.00021032   -0.02812144
     atom   14 type  1   force =    -0.00398702   -0.02855676    0.00377912
     atom   15 type  1   force =    -0.01072724   -0.01194126    0.00080758
     atom   16 type  2   force =    -0.00027431   -0.00086150    0.07231425
     atom   17 type  2   force =     0.00033226    0.03631538    0.00476395
     atom   18 type  2   force =    -0.00022478    0.00086234   -0.00731347
     atom   19 type  1   force =     0.00076772    0.00326659    0.05940052
     atom   20 type  1   force =    -0.00031517    0.00182412   -0.00318138
     atom   21 type  1   force =     0.00006370    0.00073522    0.10924200
     atom   22 type  1   force =     0.00005448   -0.00032488    0.01010014
     atom   23 type  1   force =    -0.00003392    0.00082973    0.00147311
     atom   24 type  1   force =     0.06378114   -0.00057967   -0.02867003
     atom   25 type  1   force =     0.00305031   -0.02881679    0.00380412
     atom   26 type  1   force =     0.01003329    0.01238260    0.00070799
     atom   27 type  2   force =     0.00003442    0.00225544   -0.19418223
     atom   28 type  2   force =     0.00013920    0.01852636   -0.01069753
     atom   29 type  2   force =     0.00009406   -0.01692987    0.00907459
     atom   30 type  1   force =    -0.06394595   -0.00100791   -0.02804513
     atom   31 type  1   force =    -0.00267682   -0.02913605    0.00377929
     atom   32 type  1   force =    -0.01242849    0.00754125   -0.00163728
     atom   33 type  2   force =    -0.00026572   -0.00104112    0.07252819
     atom   34 type  2   force =    -0.00010584    0.03449700    0.00418826
     atom   35 type  2   force =     0.00290184   -0.01385225   -0.00296309
     atom   36 type  1   force =     0.00026259    0.00300424    0.05371949
     atom   37 type  1   force =    -0.00022809    0.00130924    0.00205862
     atom   38 type  1   force =    -0.00058664    0.00095753   -0.00076360
     atom   39 type  1   force =     0.00007511   -0.00111499    0.10848600
     atom   40 type  1   force =     0.00000373   -0.00027828    0.00993240
     atom   41 type  1   force =     0.00094030    0.00811840   -0.00134894
     atom   42 type  1   force =     0.06452735   -0.00058415   -0.02832882
     atom   43 type  1   force =     0.00209514   -0.02819046    0.00291887
     atom   44 type  1   force =     0.01355562   -0.00749902    0.00865690
     atom   45 type  2   force =     0.00016810    0.00153723   -0.18905736
     atom   46 type  2   force =    -0.00006462    0.01914758   -0.01213661
     atom   47 type  2   force =     0.00036582    0.00387172   -0.00950424
     atom   48 type  1   force =    -0.06469757   -0.00107429   -0.02777036
     atom   49 type  1   force =    -0.00261915   -0.02847045    0.00285901
     atom   50 type  1   force =    -0.01369148    0.00199898    0.00422861
     atom   51 type  2   force =    -0.00025838   -0.00041464    0.07291938
     atom   52 type  2   force =     0.00057790    0.03496331    0.00444856
     atom   53 type  2   force =    -0.00218717    0.01511930   -0.00250170
     atom   54 type  3   force =     0.00184647    0.00026510   -0.00119339
     atom   55 type  3   force =     0.00095040   -0.00008142   -0.00040245
     atom   56 type  4   force =     0.00000159   -0.00043079    0.00150599
     atom   57 type  4   force =     0.00015977    0.00033639   -0.00066723

     Total force =     0.462847     Total SCF correction =     0.000864
  @ DRIVER MODE: Message from server: STATUS
  @ DRIVER MODE: Message from server: GETFORCE
  @ DRIVER MODE: Returning v,forces,stress,ensemble

     Writing output data file ./calc.save/
  @ DRIVER MODE: Message from server: EXIT
  @ DRIVE MODE: Exiting

     General routines

     Parallel routines

   This run was terminated on:  21:34:59  18Oct2021

   JOB DONE.