     Program PWSCF v.6.7GPU starts on 15Sep2021 at 16:13: 2

     R & G space division:  proc/nbgrp/npool/nimage =      10
     Reading input from /storage/home/hcoda1/3/ntian30/research/carbon/CxH_vib/H2O_calc/ads_slab/CHNHH2O_a/out_0002/pw.inp
Warning: card &CELL ignored
Warning: card   CELL_DYNAMICS='IPI', ignored
Warning: card / ignored

     Current dimensions of program PWSCF are:
     Max number of different atomic species (ntypx) = 10
     Max number of k-points (npk) =  40000
     Max angular momentum in pseudopotentials (lmaxx) =  3
     Presently no symmetry can be used with electric field

     Message from routine cell_base_init:
     DEPRECATED: use true lattice parameter, not A to a.u. conversion factor

     IMPORTANT: XC functional enforced from input :
     Exchange-correlation= BEEF-VDW
                           (   1   4  43  14   2   0   0)
     Any further DFT definition will be discarded
     Please, verify this is what you really want

  @ DRIVER MODE: Connecting to
 qe_1139763_2852628.sched-torque.pace.gatech.eduny2lbtif_scratch
  using UNIX socket
  @ DRIVER MODE: Message from server: STATUS
  @ DRIVER MODE: Message from server: INIT
  @ DRIVER MODE: Receiving replica           0          -1
  @ DRIVER MODE: Receiving encoded integer          25
  @ DRIVER MODE:  SCF:  T  FORCE:  T  STRESS:  F  VC:  F  ENSEMBLE:  F
  @ DRIVER MODE:  SCF:  T  FORCE:  T  STRESS:  F  VC:  F  ENSEMBLE:  F

     Using Slab Decomposition

     bravais-lattice index     =            0
     lattice parameter (alat)  =       1.8897  a.u.
     unit-cell volume          =    6658.9804 (a.u.)^3
     number of atoms/cell      =           54
     number of atomic types    =            5
     number of electrons       =       397.00
     number of Kohn-Sham states=          208
     kinetic-energy cutoff     =      29.3995  Ry
     charge density cutoff     =     293.9946  Ry
     scf convergence threshold =      7.3E-08
     mixing beta               =       0.0500
     number of iterations used =            8  plain     mixing
     Exchange-correlation= BEEF-VDW
                           (   1   4  43  14   2   0   0)

     celldm(1)=   1.889726  celldm(2)=   0.000000  celldm(3)=   0.000000
     celldm(4)=   0.000000  celldm(5)=   0.000000  celldm(6)=   0.000000

     crystal axes: (cart. coord. in units of alat)
               a(1) = (   6.579727   0.000000   0.000000 )
               a(2) = (  -0.000775   5.961596   0.000000 )
               a(3) = (   0.000000   0.000000  25.155947 )

     reciprocal axes: (cart. coord. in units 2 pi/alat)
               b(1) = (  0.151982  0.000020  0.000000 )
               b(2) = (  0.000000  0.167740  0.000000 )
               b(3) = (  0.000000  0.000000  0.039752 )

     PseudoPot. # 1 for Ti read from file:
     /storage/coda1/p-amedford6/0/shared/rich_project_chbe-medford/medford-share/data/pseudos_module/espresso/nninc/pbe/van/Ti.UPF
     MD5 check sum: 8e4df49b7f0d34bbd5052bf3f5ea0213
     Pseudo is Ultrasoft, Zval = 12.0
     Generated by new atomic code, or converted to UPF format
     Using radial grid of  851 points,  6 beta functions with:
                l(1) =   0
                l(2) =   0
                l(3) =   1
                l(4) =   1
                l(5) =   2
                l(6) =   2
     Q(r) pseudized with  8 coefficients,  rinner =    1.000   1.000   1.000
                                                       1.000   1.000

     PseudoPot. # 2 for O  read from file:
     /storage/coda1/p-amedford6/0/shared/rich_project_chbe-medford/medford-share/data/pseudos_module/espresso/nninc/pbe/van/O.UPF
     MD5 check sum: 78c19812648e8988a0fe644b0f25305e
     Pseudo is Ultrasoft, Zval =  6.0
     Generated by new atomic code, or converted to UPF format
     Using radial grid of  737 points,  4 beta functions with:
                l(1) =   0
                l(2) =   0
                l(3) =   1
                l(4) =   1
     Q(r) pseudized with  8 coefficients,  rinner =    0.800   0.800   0.800

     PseudoPot. # 3 for N  read from file:
     /storage/coda1/p-amedford6/0/shared/rich_project_chbe-medford/medford-share/data/pseudos_module/espresso/nninc/pbe/van/N.UPF
     MD5 check sum: 90d10febe142ad51ac9d5be1deb811c4
     Pseudo is Ultrasoft, Zval =  5.0
     Generated by new atomic code, or converted to UPF format
     Using radial grid of  729 points,  4 beta functions with:
                l(1) =   0
                l(2) =   0
                l(3) =   1
                l(4) =   1
     Q(r) pseudized with  8 coefficients,  rinner =    0.800   0.800   0.800

     PseudoPot. # 4 for C  read from file:
     /storage/coda1/p-amedford6/0/shared/rich_project_chbe-medford/medford-share/data/pseudos_module/espresso/nninc/pbe/van/C.UPF
     MD5 check sum: 1a69bf6b8db32088f5b2163dbdb77a27
     Pseudo is Ultrasoft, Zval =  4.0
     Generated by new atomic code, or converted to UPF format
     Using radial grid of  721 points,  4 beta functions with:
                l(1) =   0
                l(2) =   0
                l(3) =   1
                l(4) =   1
     Q(r) pseudized with  8 coefficients,  rinner =    0.800   0.800   0.800

     PseudoPot. # 5 for H  read from file:
     /storage/coda1/p-amedford6/0/shared/rich_project_chbe-medford/medford-share/data/pseudos_module/espresso/nninc/pbe/van/H.UPF
     MD5 check sum: b5ee9d7bfd3a09ee7748110bda690ff7
     Pseudo is Ultrasoft, Zval =  1.0
     Generated by new atomic code, or converted to UPF format
     Using radial grid of  615 points,  1 beta functions with:
                l(1) =   0
     Q(r) pseudized with  8 coefficients,  rinner =    0.800

     atomic species   valence    mass     pseudopotential
        Ti1           12.00    47.86700     Ti( 1.00)
        O1             6.00    15.99900     O ( 1.00)
        N1             5.00    14.00700     N ( 1.00)
        C1             4.00    12.01100     C ( 1.00)
        H1             1.00     1.00800     H ( 1.00)

     No symmetry found

   Cartesian axes

     site n.     atom                  positions (alat units)
         1           Ti1 tau(   1) = (   0.0004258   2.9801865   6.0000000  )
         2           Ti1 tau(   2) = (   3.2906075   1.4906267   6.0002472  )
         3           O1  tau(   3) = (   0.0006271   0.0005054   7.9858123  )
         4           O1  tau(   4) = (   3.2906025   0.0005020   7.3038282  )
         5           O1  tau(   5) = (   4.5942328   1.4918067   9.2879030  )
         6           O1  tau(   6) = (   1.9868534   1.4903216   9.2879459  )
         7           Ti1 tau(   7) = (   3.2907910   2.8959150   9.1758416  )
         8           Ti1 tau(   8) = (   0.0015273   1.4827037   9.2680791  )
         9           O1  tau(   9) = (   3.2914171   5.9475995  11.3455371  )
        10           O1  tau(  10) = (   0.0116148   5.9584955  10.6183126  )
        11           O1  tau(  11) = (   1.3057669   1.4807986  12.6390077  )
        12           O1  tau(  12) = (   5.3035249   1.4749620  12.6227664  )
        13           Ti1 tau(  13) = (   6.5294082   2.9362577  12.6231083  )
        14           Ti1 tau(  14) = (   3.2175537   1.4615748  12.5070279  )
        15           O1  tau(  15) = (   6.5585639   5.9474800  14.6380151  )
        16           O1  tau(  16) = (   3.3125803   5.9531145  13.9695519  )
        17           O1  tau(  17) = (   4.5393379   1.5011389  16.1071157  )
        18           O1  tau(  18) = (   2.0094023   1.5044898  16.0307267  )
        19           Ti1 tau(  19) = (   3.2760958   2.9523363  15.6877793  )
        20           Ti1 tau(  20) = (   0.0277933   1.3451898  16.0452527  )
        21           O1  tau(  21) = (   3.2904802   0.0005063   4.7018136  )
        22           O1  tau(  22) = (   0.0198929   5.9263875  17.1601691  )
        23           O1  tau(  23) = (   1.3043587   1.4918075   6.0039043  )
        24           O1  tau(  24) = (   5.2767064   1.4903225   6.0039473  )
        25           Ti1 tau(  25) = (   0.0000382   5.9609847   6.0000000  )
        26           Ti1 tau(  26) = (   3.2902200   4.4714249   6.0002472  )
        27           O1  tau(  27) = (   0.0002396   2.9813036   7.9858123  )
        28           O1  tau(  28) = (   3.2902150   2.9813002   7.3038282  )
        29           O1  tau(  29) = (   4.5938453   4.4726049   9.2879030  )
        30           O1  tau(  30) = (   1.9864658   4.4711199   9.2879459  )
        31           Ti1 tau(  31) = (   3.2891106   5.8743827   9.1763621  )
        32           Ti1 tau(  32) = (   0.0006254   4.4649316   9.2693709  )
        33           O1  tau(  33) = (   3.2862706   2.9662616  11.3468726  )
        34           O1  tau(  34) = (   0.0092240   2.9805883  10.6323155  )
        35           O1  tau(  35) = (   1.3102706   4.4726941  12.6361575  )
        36           O1  tau(  36) = (   5.3014905   4.4644878  12.6181669  )
        37           Ti1 tau(  37) = (   6.5311680   5.9227251  12.5202533  )
        38           Ti1 tau(  38) = (   3.2191334   4.4553394  12.5017427  )
        39           O1  tau(  39) = (   6.5614274   2.9920157  14.6796082  )
        40           O1  tau(  40) = (   3.3146075   2.9603188  13.8993185  )
        41           O1  tau(  41) = (   4.5484517   4.4144432  16.0509510  )
        42           O1  tau(  42) = (   2.0146171   4.4214036  15.9967612  )
        43           Ti1 tau(  43) = (   3.3303817   5.9274347  15.8100502  )
        44           Ti1 tau(  44) = (   0.0273359   4.4939047  15.8144843  )
        45           O1  tau(  45) = (   3.2900926   2.9813045   4.7018136  )
        46           O1  tau(  46) = (   1.3039711   4.4726057   6.0039043  )
        47           O1  tau(  47) = (   5.2763189   4.4711207   6.0039473  )
        48           N1  tau(  48) = (   6.5234970   2.9613368  17.6459670  )
        49           C1  tau(  49) = (   0.7931072   3.0267964  18.6255283  )
        50           H1  tau(  50) = (   1.8307262   2.9311331  18.2395185  )
        51           H1  tau(  51) = (   5.5494773   3.0666896  17.9713127  )
        52           O1  tau(  52) = (   3.1855344   5.8058271  18.1612476  )
        53           H1  tau(  53) = (   3.8461454   0.3022996  18.7034462  )
        54           H1  tau(  54) = (   2.3120581   0.0053998  18.5533318  )

     number of k points=    10  Fermi-Dirac smearing, width (Ry)=  0.0073
                       cart. coord. in units 2pi/alat
        k(    1) = (   0.0000000   0.0000000   0.0000000), wk =   0.1250000
        k(    2) = (   0.0000000   0.0419351   0.0000000), wk =   0.2500000
        k(    3) = (   0.0000000  -0.0838702   0.0000000), wk =   0.1250000
        k(    4) = (   0.0379955   0.0000049   0.0000000), wk =   0.2500000
        k(    5) = (   0.0379955   0.0419400   0.0000000), wk =   0.2500000
        k(    6) = (   0.0379955  -0.0838652   0.0000000), wk =   0.2500000
        k(    7) = (   0.0379955  -0.0419301   0.0000000), wk =   0.2500000
        k(    8) = (  -0.0759910  -0.0000099   0.0000000), wk =   0.1250000
        k(    9) = (  -0.0759910   0.0419252   0.0000000), wk =   0.2500000
        k(   10) = (  -0.0759910  -0.0838800   0.0000000), wk =   0.1250000

     Initial potential from superposition of free atoms

     starting charge  380.99916, renormalised to  397.00000

     negative rho (up, down):  1.755E-02 0.000E+00

     %%%%%%%%%%%%%%%%%%%%%%%%%%%%%%%%%%%%%%%%%%%%%%%%%%%%%%%%%%%%%%%%%%%%%%%%
     %                                                                      %
     % You are using vdW-DF, which was implemented by the Thonhauser group. %
     % Please cite the following two papers that made this development      %
     % possible and the two reviews that describe the various versions:     %
     %                                                                      %
     %   T. Thonhauser et al., PRL 115, 136402 (2015).                      %
     %   T. Thonhauser et al., PRB 76, 125112 (2007).                       %
     %   K. Berland et al., Rep. Prog. Phys. 78, 066501 (2015).             %
     %   D.C. Langreth et al., J. Phys.: Condens. Matter 21, 084203 (2009). %
     %                                                                      %
     %                                                                      %
     % If you are calculating the stress with vdW-DF, please also cite:     %
     %                                                                      %
     %   R. Sabatini et al., J. Phys.: Condens. Matter 24, 424209 (2012).   %
     %                                                                      %
     %%%%%%%%%%%%%%%%%%%%%%%%%%%%%%%%%%%%%%%%%%%%%%%%%%%%%%%%%%%%%%%%%%%%%%%%

     Adding external electric field

     Computed dipole along edir(3) :
        Dipole               -9.1667 Ry au,        -23.2993 Debye
        Dipole field         -0.0173 Ry au,

        Potential amp.        1.6036 Ry
        Total length         46.3494 bohr

     Starting wfcs are  300 atomic wfcs
  @ DRIVER MODE: Message from server: STATUS
  @ DRIVER MODE: Message from server: POSDATA
  @ DRIVER MODE: Reading and sharing cell
  @ DRIVER MODE: Reading and sharing positions
  @ DRIVER MODE: Received positions

     Self-consistent Calculation

     iteration #  1     ecut=    29.40 Ry     beta= 0.05
     Davidson diagonalization with overlap
     c_bands:  1 eigenvalues not converged
     c_bands:  1 eigenvalues not converged
     c_bands:  1 eigenvalues not converged
     c_bands:  1 eigenvalues not converged
     c_bands:  1 eigenvalues not converged
     c_bands:  1 eigenvalues not converged
     c_bands:  1 eigenvalues not converged
     c_bands:  1 eigenvalues not converged
     ethr =  1.00E-05,  avg # of iterations = 19.7

[...]

     total energy              =   -2547.28258152 Ry
     estimated scf accuracy    <    4504.78310788 Ry

     iteration #  2     ecut=    29.40 Ry     beta= 0.05
     Davidson diagonalization with overlap
     ethr =  1.00E-02,  avg # of iterations = 24.8

[...]

     iteration # 68     ecut=    29.40 Ry     beta= 0.05
     Davidson diagonalization with overlap
     c_bands:  1 eigenvalues not converged
     ethr =  7.97E-11,  avg # of iterations = 14.4

[...]

     total energy              =   -2952.61552640 Ry
     estimated scf accuracy    <       0.00000011 Ry

     iteration # 71     ecut=    29.40 Ry     beta= 0.05
     Davidson diagonalization with overlap
     ethr =  2.73E-11,  avg # of iterations =  2.6

     negative rho (up, down):  1.615E-02 0.000E+00

     Adding external electric field

     Computed dipole along edir(3) :
        Dipole                0.4087 Ry au,          1.0387 Debye
        Dipole field          0.0008 Ry au,

        Potential amp.       -0.0715 Ry
        Total length         46.3494 bohr

     End of self-consistent calculation

          k = 0.0000 0.0000 0.0000 ( 18029 PWs)   bands (ev):

   -56.0225 -55.9978 -55.9915 -55.9884 -55.9616 -55.8684 -55.8356 -55.8268
   -55.8234 -55.8101 -55.8014 -55.7766 -55.7491 -55.5799 -55.0080 -54.9739
   -32.5436 -32.5064 -32.3998 -32.3677 -32.3346 -32.3145 -32.3055 -32.3001
   -32.2657 -32.2354 -32.2234 -32.2172 -32.2099 -32.1947 -32.1768 -32.1748
   -32.1501 -32.1282 -32.1267 -32.1237 -32.0910 -32.0796 -32.0709 -32.0386
   -32.0277 -32.0269 -32.0229 -32.0184 -32.0155 -32.0099 -31.9954 -31.9859
   -31.9822 -31.9808 -31.9686 -31.9628 -31.9605 -31.9404 -31.9211 -31.8405
   -31.8242 -31.7369 -31.4154 -31.3261 -31.3037 -31.2320 -31.1455 -31.0345
   -19.2319 -16.7553 -16.5151 -16.3416 -16.1999 -16.1693 -15.9523 -15.8512
   -15.7808 -15.7280 -15.6564 -15.6053 -15.5708 -15.5614 -15.5447 -15.5229
   -15.5094 -15.4785 -15.4556 -15.4507 -15.4390 -15.4170 -15.3880 -15.3717
   -15.3536 -15.2480 -15.1831 -15.1586 -15.1137 -15.0902 -14.7399 -13.5102
   -13.3936  -7.8400  -7.0839  -4.1548  -4.0626  -3.9837  -3.9439  -3.9281
    -3.7724  -3.6952  -3.5547  -3.5173  -3.3063  -3.2604  -3.2177  -3.1940
    -3.1314  -3.0701  -2.9758  -2.9318  -2.8559  -2.8388  -2.8262  -2.8033
    -2.7818  -2.7660  -2.7273  -2.6626  -2.5935  -2.5579  -2.4523  -2.4205
    -2.4140  -2.3474  -2.3380  -2.3295  -2.3141  -2.2814  -2.2600  -2.2568
    -2.1866  -2.1555  -2.0825  -2.0319  -1.9781  -1.8519  -1.7002  -1.6381
    -1.5888  -1.5305  -1.5032  -1.4666  -1.4445  -1.4200  -1.3687  -1.3032
    -1.2394  -1.2278  -1.1560  -1.0636  -0.9924  -0.9550  -0.8845  -0.8219
    -0.8010  -0.7724  -0.7647  -0.7558  -0.7085  -0.5343  -0.4797  -0.4647
    -0.4262  -0.3422  -0.3145  -0.3017  -0.2533  -0.2446  -0.2048  -0.1156
    -0.0966  -0.0620  -0.0441  -0.0309   0.0024   0.0196   0.1766   0.1971
     0.2402   0.2619   0.3615   0.4698   0.5366   0.6250   0.7191   0.9384
     1.0144   1.0913   1.2054   1.5865   1.6326   2.7827   3.1058   3.1942
     3.2320   3.2383   3.2723   3.3432   3.5597   3.5905   3.6080   3.6643

[...]

          k = 0.0380-0.0419 0.0000 ( 17876 PWs)   bands (ev):

[...]

          k =-0.0760-0.0000 0.0000 ( 17886 PWs)   bands (ev):

[...]

          k =-0.0760-0.0839 0.0000 ( 17948 PWs)   bands (ev):

   -56.0062 -56.0045 -55.9901 -55.9816 -55.9772 -55.8592 -55.8360 -55.8250
   -55.8191 -55.8172 -55.7940 -55.7929 -55.7475 -55.5814 -54.9910 -54.9908
   -32.3575 -32.3416 -32.3222 -32.3211 -32.3006 -32.2992 -32.2788 -32.2708
   -32.2508 -32.2182 -32.2032 -32.1992 -32.1944 -32.1728 -32.1455 -32.1402
   -32.1356 -32.1334 -32.1317 -32.1313 -32.1294 -32.1266 -32.1256 -32.1239
   -32.0772 -32.0582 -32.0490 -32.0379 -32.0256 -32.0232 -32.0219 -32.0201
   -32.0198 -32.0090 -32.0071 -31.9978 -31.9906 -31.9777 -31.9723 -31.8440
   -31.8293 -31.8240 -31.3165 -31.3163 -31.2282 -31.2280 -31.1888 -31.1887
   -19.2310 -16.2140 -16.0944 -16.0404 -15.9467 -15.9219 -15.9068 -15.8332
   -15.7851 -15.7275 -15.7177 -15.6941 -15.6804 -15.6765 -15.6136 -15.5851
   -15.5605 -15.5494 -15.5068 -15.4932 -15.4852 -15.4713 -15.4692 -15.4631
   -15.4211 -15.4191 -15.3511 -15.3471 -15.2085 -15.1004 -15.0122 -13.4955
   -13.4952  -7.8491  -7.0859  -3.9141  -3.6658  -3.4923  -3.3156  -3.2641
    -3.1655  -3.1385  -3.1225  -3.1008  -2.9934  -2.9332  -2.9208  -2.8995
    -2.8582  -2.8483  -2.8418  -2.8367  -2.8027  -2.8009  -2.7648  -2.7458
    -2.7139  -2.7000  -2.6948  -2.6874  -2.6632  -2.6431  -2.6007  -2.5892
    -2.5734  -2.5431  -2.5065  -2.3781  -2.3043  -2.2257  -2.2214  -2.1782
    -2.1656  -2.1472  -2.1037  -2.0853  -2.0595  -1.9833  -1.9014  -1.7475
    -1.7288  -1.7066  -1.6742  -1.6173  -1.5238  -1.4966  -1.4706  -1.4220
    -1.4079  -1.3523  -1.3273  -1.2961  -1.2395  -1.1782  -1.1398  -1.1127
    -1.0689  -1.0025  -0.9817  -0.9609  -0.9483  -0.8875  -0.7779  -0.7712
    -0.7655  -0.7159  -0.7006  -0.6710  -0.6502  -0.5583  -0.4788  -0.4194
    -0.3224  -0.1586  -0.0841   0.0195   0.0570   0.1013   0.1464   0.1876
     0.2853   0.2874   0.3577   0.3893   0.4060   0.4897   0.5009   0.5235
     0.6843   1.3770   1.3782   1.4521   1.4526   2.8193   3.3612   3.4093
     3.4434   3.4903   3.5928   3.6131   3.6418   3.6436   3.7219   3.7695

     the Fermi energy is     3.1089 ev

!    total energy              =   -2952.61555435 Ry
     estimated scf accuracy    <       0.00000005 Ry
     smearing contrib. (-TS)   =      -0.02591492 Ry
     internal energy E=F+TS    =   -2952.58963943 Ry

     The total energy is F=E-TS. E is the sum of the following terms:
     one-electron contribution =  -24509.61988684 Ry
     hartree contribution      =   12342.01031075 Ry
     xc contribution           =    -487.96368838 Ry
     ewald contribution        =    9702.98330990 Ry
     electric field correction =       0.00031514 Ry

     convergence has been achieved in  71 iterations

     Forces acting on atoms (cartesian axes, Ry/au):

     atom    1 type  1   force =    -0.00003047   -0.00031426    0.09594071
     atom    2 type  1   force =     0.00005935   -0.00048220   -0.17609257
     atom    3 type  2   force =     0.00010607   -0.00009764   -0.02432492
     atom    4 type  2   force =     0.00001059   -0.00163039    0.05391129
     atom    5 type  2   force =    -0.01179155   -0.00141791    0.00393164
     atom    6 type  2   force =     0.01322284   -0.00102526    0.00317344
     atom    7 type  1   force =     0.00034723    0.00069555   -0.00764152
     atom    8 type  1   force =     0.00026533    0.01496759    0.02333331
     atom    9 type  2   force =    -0.00005132    0.00018721    0.00011250
     atom   10 type  2   force =    -0.00218044    0.00049694   -0.01742299
     atom   11 type  2   force =     0.00046929   -0.00026006   -0.00021331
     atom   12 type  2   force =    -0.00084092   -0.00017653    0.00002243
     atom   13 type  1   force =     0.00048186    0.00044729   -0.00005456
     atom   14 type  1   force =    -0.00020205    0.00006030    0.00087087
     atom   15 type  2   force =     0.00014137   -0.00004352   -0.00070393
     atom   16 type  2   force =     0.00002566    0.00051988   -0.00019939
     atom   17 type  2   force =    -0.00009731    0.00042333    0.00021691
     atom   18 type  2   force =     0.00023116    0.00010704   -0.00020184
     atom   19 type  1   force =     0.00063715    0.00066084   -0.00036252
     atom   20 type  1   force =    -0.00045995   -0.00004755   -0.00062358
     atom   21 type  2   force =     0.00006800   -0.00000496    0.10334135
     atom   22 type  2   force =    -0.00030513   -0.00022430    0.00074613
     atom   23 type  2   force =    -0.07135947   -0.00011256   -0.02762970
     atom   24 type  2   force =     0.07128065    0.00034100   -0.02769916
     atom   25 type  1   force =     0.00024962   -0.00028901    0.09577305
     atom   26 type  1   force =     0.00011648   -0.00029365   -0.17602419
     atom   27 type  2   force =     0.00013965   -0.00029091   -0.02321733
     atom   28 type  2   force =     0.00000212   -0.00132522    0.05366891
     atom   29 type  2   force =    -0.01213655    0.00039426    0.00377872
     atom   30 type  2   force =     0.01352676    0.00101270    0.00302212
     atom   31 type  1   force =     0.00024513    0.00375958   -0.01144091
     atom   32 type  1   force =     0.00044341   -0.01662018    0.02315468
     atom   33 type  2   force =     0.00018004    0.00009945   -0.00033559
     atom   34 type  2   force =    -0.00192242   -0.00010564   -0.02068845
     atom   35 type  2   force =     0.00045745    0.00005089    0.00008093
     atom   36 type  2   force =    -0.00088794   -0.00000681    0.00034819
     atom   37 type  1   force =     0.00081632    0.00005577   -0.00035492
     atom   38 type  1   force =    -0.00001159    0.00011599    0.00037518
     atom   39 type  2   force =    -0.00042645    0.00043133   -0.00039665
     atom   40 type  2   force =    -0.00040278   -0.00008356   -0.00019722
     atom   41 type  2   force =    -0.00029154    0.00019411    0.00034069
     atom   42 type  2   force =     0.00008659    0.00028673    0.00007070
     atom   43 type  1   force =     0.00021647   -0.00016418    0.00033654
     atom   44 type  1   force =     0.00004131    0.00000661    0.00002538
     atom   45 type  2   force =     0.00007074   -0.00000320    0.10328863
     atom   46 type  2   force =    -0.07134644   -0.00004390   -0.02760981
     atom   47 type  2   force =     0.07127000    0.00038479   -0.02768462
     atom   48 type  3   force =    -0.02203181    0.00203895   -0.00233827
     atom   49 type  4   force =     0.00916585   -0.00001385    0.00610514
     atom   50 type  5   force =     0.00141325   -0.00045182    0.00159429
     atom   51 type  5   force =     0.01187712   -0.00191237   -0.00472318
     atom   52 type  2   force =    -0.00016648   -0.00017564    0.00138358
     atom   53 type  5   force =    -0.00085000   -0.00023894   -0.00023754
     atom   54 type  5   force =     0.00012774    0.00011787   -0.00052861

     Total force =     0.368872     Total SCF correction =     0.000448
  @ DRIVER MODE: Message from server: STATUS
  @ DRIVER MODE: Message from server: GETFORCE
  @ DRIVER MODE: Returning v,forces,stress,ensemble

     Writing output data file ./calc.save/
  @ DRIVER MODE: Message from server: EXIT
  @ DRIVE MODE: Exiting

     General routines

     Parallel routines

   This run was terminated on:  16:31:22  15Sep2021

   JOB DONE.