     Program PWSCF v.6.7GPU starts on  3Aug2021 at  1:49:16

     R & G space division:  proc/nbgrp/npool/nimage =      16
     Reading input from /storage/home/hcoda1/3/ntian30/research/carbon/02Aug_vib_paired/ads_slab/CH3NHHH_a/out_0045/pw.inp
Warning: card &CELL ignored
Warning: card   CELL_DYNAMICS='IPI', ignored
Warning: card / ignored

     Current dimensions of program PWSCF are:
     Max number of different atomic species (ntypx) = 10
     Max number of k-points (npk) =  40000
     Max angular momentum in pseudopotentials (lmaxx) =  3
     Presently no symmetry can be used with electric field

     Message from routine cell_base_init:
     DEPRECATED: use true lattice parameter, not A to a.u. conversion factor

     IMPORTANT: XC functional enforced from input :
     Exchange-correlation= BEEF-VDW
                           (   1   4  43  14   2   0   0)
     Any further DFT definition will be discarded
     Please, verify this is what you really want

  @ DRIVER MODE: Connecting to
 qe_1139763_2482537.sched-torque.pace.gatech.eduh_zaal3x_scratch
  using UNIX socket
  @ DRIVER MODE: Message from server: STATUS
  @ DRIVER MODE: Message from server: INIT
  @ DRIVER MODE: Receiving replica           0          -1
  @ DRIVER MODE: Receiving encoded integer          25
  @ DRIVER MODE:  SCF:  T  FORCE:  T  STRESS:  F  VC:  F  ENSEMBLE:  F
  @ DRIVER MODE:  SCF:  T  FORCE:  T  STRESS:  F  VC:  F  ENSEMBLE:  F

     Using Slab Decomposition

     bravais-lattice index     =            0
     lattice parameter (alat)  =       1.8897  a.u.
     unit-cell volume          =    6658.9804 (a.u.)^3
     number of atoms/cell      =           55
     number of atomic types    =            5
     number of electrons       =       393.00
     number of Kohn-Sham states=          206
     kinetic-energy cutoff     =      29.3995  Ry
     charge density cutoff     =     293.9946  Ry
     scf convergence threshold =      7.3E-08
     mixing beta               =       0.0500
     number of iterations used =            8  plain     mixing
     Exchange-correlation= BEEF-VDW
                           (   1   4  43  14   2   0   0)

     celldm(1)=   1.889726  celldm(2)=   0.000000  celldm(3)=   0.000000
     celldm(4)=   0.000000  celldm(5)=   0.000000  celldm(6)=   0.000000

     crystal axes: (cart. coord. in units of alat)
               a(1) = (   6.579727   0.000000   0.000000 )
               a(2) = (  -0.000775   5.961596   0.000000 )
               a(3) = (   0.000000   0.000000  25.155947 )

     reciprocal axes: (cart. coord. in units 2 pi/alat)
               b(1) = (  0.151982  0.000020  0.000000 )
               b(2) = (  0.000000  0.167740  0.000000 )
               b(3) = (  0.000000  0.000000  0.039752 )

     PseudoPot. # 1 for Ti read from file:
     /storage/coda1/p-amedford6/0/shared/rich_project_chbe-medford/medford-share/data/pseudos_module/espresso/nninc/pbe/van/Ti.UPF
     MD5 check sum: 8e4df49b7f0d34bbd5052bf3f5ea0213
     Pseudo is Ultrasoft, Zval = 12.0
     Generated by new atomic code, or converted to UPF format
     Using radial grid of  851 points,  6 beta functions with:
                l(1) =   0
                l(2) =   0
                l(3) =   1
                l(4) =   1
                l(5) =   2
                l(6) =   2
     Q(r) pseudized with  8 coefficients,  rinner =    1.000   1.000   1.000
                                                       1.000   1.000

     PseudoPot. # 2 for O  read from file:
     /storage/coda1/p-amedford6/0/shared/rich_project_chbe-medford/medford-share/data/pseudos_module/espresso/nninc/pbe/van/O.UPF
     MD5 check sum: 78c19812648e8988a0fe644b0f25305e
     Pseudo is Ultrasoft, Zval =  6.0
     Generated by new atomic code, or converted to UPF format
     Using radial grid of  737 points,  4 beta functions with:
                l(1) =   0
                l(2) =   0
                l(3) =   1
                l(4) =   1
     Q(r) pseudized with  8 coefficients,  rinner =    0.800   0.800   0.800

     PseudoPot. # 3 for N  read from file:
     /storage/coda1/p-amedford6/0/shared/rich_project_chbe-medford/medford-share/data/pseudos_module/espresso/nninc/pbe/van/N.UPF
     MD5 check sum: 90d10febe142ad51ac9d5be1deb811c4
     Pseudo is Ultrasoft, Zval =  5.0
     Generated by new atomic code, or converted to UPF format
     Using radial grid of  729 points,  4 beta functions with:
                l(1) =   0
                l(2) =   0
                l(3) =   1
                l(4) =   1
     Q(r) pseudized with  8 coefficients,  rinner =    0.800   0.800   0.800

     PseudoPot. # 4 for C  read from file:
     /storage/coda1/p-amedford6/0/shared/rich_project_chbe-medford/medford-share/data/pseudos_module/espresso/nninc/pbe/van/C.UPF
     MD5 check sum: 1a69bf6b8db32088f5b2163dbdb77a27
     Pseudo is Ultrasoft, Zval =  4.0
     Generated by new atomic code, or converted to UPF format
     Using radial grid of  721 points,  4 beta functions with:
                l(1) =   0
                l(2) =   0
                l(3) =   1
                l(4) =   1
     Q(r) pseudized with  8 coefficients,  rinner =    0.800   0.800   0.800

     PseudoPot. # 5 for H  read from file:
     /storage/coda1/p-amedford6/0/shared/rich_project_chbe-medford/medford-share/data/pseudos_module/espresso/nninc/pbe/van/H.UPF
     MD5 check sum: b5ee9d7bfd3a09ee7748110bda690ff7
     Pseudo is Ultrasoft, Zval =  1.0
     Generated by new atomic code, or converted to UPF format
     Using radial grid of  615 points,  1 beta functions with:
                l(1) =   0
     Q(r) pseudized with  8 coefficients,  rinner =    0.800

     atomic species   valence    mass     pseudopotential
        Ti1           12.00    47.86700     Ti( 1.00)
        O1             6.00    15.99900     O ( 1.00)
        N1             5.00    14.00700     N ( 1.00)
        C1             4.00    12.01100     C ( 1.00)
        H1             1.00     1.00800     H ( 1.00)

     No symmetry found

   Cartesian axes

     site n.     atom                  positions (alat units)
         1           Ti1 tau(   1) = (   0.0004258   2.9801865   6.0000000  )
         2           Ti1 tau(   2) = (   3.2906075   1.4906267   6.0002472  )
         3           O1  tau(   3) = (   0.0006271   0.0005054   7.9858123  )
         4           O1  tau(   4) = (   3.2906025   0.0005020   7.3038282  )
         5           O1  tau(   5) = (   4.5942328   1.4918067   9.2879030  )
         6           O1  tau(   6) = (   1.9868534   1.4903216   9.2879459  )
         7           Ti1 tau(   7) = (   3.2907910   2.8959150   9.1758416  )
         8           Ti1 tau(   8) = (   0.0015273   1.4827037   9.2680791  )
         9           O1  tau(   9) = (   3.2636084   5.9406443  11.4082010  )
        10           O1  tau(  10) = (   0.0116148   5.9584955  10.6183126  )
        11           O1  tau(  11) = (   1.2642105   1.4849797  12.6947803  )
        12           O1  tau(  12) = (   5.2691575   1.4821021  12.6650678  )
        13           Ti1 tau(  13) = (   6.5574234   2.9640577  12.4921542  )
        14           Ti1 tau(  14) = (   3.2619390   1.4709553  12.5527290  )
        15           O1  tau(  15) = (   6.5247406   5.9594380  14.6832748  )
        16           O1  tau(  16) = (   3.2695906   5.9428997  14.0562986  )
        17           O1  tau(  17) = (   4.5175969   1.4707097  16.2986306  )
        18           O1  tau(  18) = (   1.9406912   1.4777946  16.2473769  )
        19           Ti1 tau(  19) = (   3.2491105   2.9422209  15.8109686  )
        20           Ti1 tau(  20) = (   6.5361480   1.3378720  15.9626387  )
        21           O1  tau(  21) = (   3.2904802   0.0005063   4.7018136  )
        22           O1  tau(  22) = (   6.5280740   5.8897732  17.4332532  )
        23           O1  tau(  23) = (   1.3043587   1.4918075   6.0039043  )
        24           O1  tau(  24) = (   5.2767064   1.4903225   6.0039473  )
        25           Ti1 tau(  25) = (   0.0000382   5.9609847   6.0000000  )
        26           Ti1 tau(  26) = (   3.2902200   4.4714249   6.0002472  )
        27           O1  tau(  27) = (   0.0002396   2.9813036   7.9858123  )
        28           O1  tau(  28) = (   3.2902150   2.9813002   7.3038282  )
        29           O1  tau(  29) = (   4.5938453   4.4726049   9.2879030  )
        30           O1  tau(  30) = (   1.9864658   4.4711199   9.2879459  )
        31           Ti1 tau(  31) = (   3.2891106   5.8743827   9.1763621  )
        32           Ti1 tau(  32) = (   0.0006254   4.4649316   9.2693709  )
        33           O1  tau(  33) = (   3.2649920   2.9642658  11.3997388  )
        34           O1  tau(  34) = (   0.0092240   2.9805883  10.6323155  )
        35           O1  tau(  35) = (   1.2634527   4.4478426  12.7061968  )
        36           O1  tau(  36) = (   5.2693862   4.4495813  12.6755241  )
        37           Ti1 tau(  37) = (   6.5522441   5.9483113  12.5008436  )
        38           Ti1 tau(  38) = (   3.2626494   4.4468850  12.5575576  )
        39           O1  tau(  39) = (   6.4970557   2.9363996  15.0046851  )
        40           O1  tau(  40) = (   3.2722650   2.9529576  14.0194401  )
        41           O1  tau(  41) = (   4.5170401   4.4205294  16.2730734  )
        42           O1  tau(  42) = (   1.9466746   4.4191161  16.2235312  )
        43           Ti1 tau(  43) = (   3.2419262   5.9323414  15.8513663  )
        44           Ti1 tau(  44) = (   6.5549466   4.5556212  15.8889459  )
        45           O1  tau(  45) = (   3.2900926   2.9813045   4.7018136  )
        46           O1  tau(  46) = (   1.3039711   4.4726057   6.0039043  )
        47           O1  tau(  47) = (   5.2763189   4.4711207   6.0039473  )
        48           N1  tau(  48) = (   4.8657738   4.5798987  19.4796958  )
        49           C1  tau(  49) = (   5.7271871   3.4329544  19.8049648  )
        50           H1  tau(  50) = (   6.3241292   3.1721029  18.9298488  )
        51           H1  tau(  51) = (   6.4229137   3.7195585  20.5942015  )
        52           H1  tau(  52) = (   5.1874390   2.5328885  20.1195193  )
        53           H1  tau(  53) = (   5.9066942   5.7389963  18.1772939  )
        54           H1  tau(  54) = (   4.2103208   4.3266459  18.7469397  )
        55           H1  tau(  55) = (   4.3187305   4.8445830  20.2870342  )

     number of k points=    10  Fermi-Dirac smearing, width (Ry)=  0.0073
                       cart. coord. in units 2pi/alat
        k(    1) = (   0.0000000   0.0000000   0.0000000), wk =   0.1250000
        k(    2) = (   0.0000000   0.0419351   0.0000000), wk =   0.2500000
        k(    3) = (   0.0000000  -0.0838702   0.0000000), wk =   0.1250000
        k(    4) = (   0.0379955   0.0000049   0.0000000), wk =   0.2500000
        k(    5) = (   0.0379955   0.0419400   0.0000000), wk =   0.2500000
        k(    6) = (   0.0379955  -0.0838652   0.0000000), wk =   0.2500000
        k(    7) = (   0.0379955  -0.0419301   0.0000000), wk =   0.2500000
        k(    8) = (  -0.0759910  -0.0000099   0.0000000), wk =   0.1250000
        k(    9) = (  -0.0759910   0.0419252   0.0000000), wk =   0.2500000
        k(   10) = (  -0.0759910  -0.0838800   0.0000000), wk =   0.1250000

     Initial potential from superposition of free atoms

     starting charge  376.99914, renormalised to  393.00000

     negative rho (up, down):  1.330E-02 0.000E+00

     %%%%%%%%%%%%%%%%%%%%%%%%%%%%%%%%%%%%%%%%%%%%%%%%%%%%%%%%%%%%%%%%%%%%%%%%
     %                                                                      %
     % You are using vdW-DF, which was implemented by the Thonhauser group. %
     % Please cite the following two papers that made this development      %
     % possible and the two reviews that describe the various versions:     %
     %                                                                      %
     %   T. Thonhauser et al., PRL 115, 136402 (2015).                      %
     %   T. Thonhauser et al., PRB 76, 125112 (2007).                       %
     %   K. Berland et al., Rep. Prog. Phys. 78, 066501 (2015).             %
     %   D.C. Langreth et al., J. Phys.: Condens. Matter 21, 084203 (2009). %
     %                                                                      %
     %                                                                      %
     % If you are calculating the stress with vdW-DF, please also cite:     %
     %                                                                      %
     %   R. Sabatini et al., J. Phys.: Condens. Matter 24, 424209 (2012).   %
     %                                                                      %
     %%%%%%%%%%%%%%%%%%%%%%%%%%%%%%%%%%%%%%%%%%%%%%%%%%%%%%%%%%%%%%%%%%%%%%%%

     Adding external electric field

     Computed dipole along edir(3) :
        Dipole               -9.4918 Ry au,        -24.1257 Debye
        Dipole field         -0.0179 Ry au,

        Potential amp.        1.6604 Ry
        Total length         46.3494 bohr

     Starting wfcs are  298 atomic wfcs
  @ DRIVER MODE: Message from server: STATUS
  @ DRIVER MODE: Message from server: POSDATA
  @ DRIVER MODE: Reading and sharing cell
  @ DRIVER MODE: Reading and sharing positions
  @ DRIVER MODE: Received positions

     Self-consistent Calculation

     iteration #  1     ecut=    29.40 Ry     beta= 0.05
     Davidson diagonalization with overlap
     c_bands:  2 eigenvalues not converged
     c_bands:  1 eigenvalues not converged
     c_bands:  2 eigenvalues not converged
     c_bands:  3 eigenvalues not converged
     c_bands:  3 eigenvalues not converged
     c_bands:  1 eigenvalues not converged
     ethr =  1.00E-05,  avg # of iterations = 18.9

[...]

     total energy              =   -2620.44117760 Ry
     estimated scf accuracy    <    3390.29815026 Ry

     iteration #  2     ecut=    29.40 Ry     beta= 0.05
     Davidson diagonalization with overlap
     ethr =  1.00E-02,  avg # of iterations = 23.3

[...]

     iteration # 83     ecut=    29.40 Ry     beta= 0.05
     Davidson diagonalization with overlap
     c_bands:  1 eigenvalues not converged
     ethr =  2.81E-11,  avg # of iterations =  4.1

[...]

     total energy              =   -2922.77379575 Ry
     estimated scf accuracy    <       0.00000014 Ry

     iteration # 91     ecut=    29.40 Ry     beta= 0.05
     Davidson diagonalization with overlap
     ethr =  2.64E-11,  avg # of iterations = 13.7

     negative rho (up, down):  1.445E-02 0.000E+00

     Adding external electric field

     Computed dipole along edir(3) :
        Dipole                1.4025 Ry au,          3.5647 Debye
        Dipole field          0.0026 Ry au,

        Potential amp.       -0.2453 Ry
        Total length         46.3494 bohr

     End of self-consistent calculation

          k = 0.0000 0.0000 0.0000 ( 18029 PWs)   bands (ev):

   -55.3090 -55.2731 -55.2575 -55.2233 -55.1731 -55.1488 -55.1479 -55.1387
   -55.1144 -55.0845 -55.0736 -55.0506 -55.0317 -54.9735 -54.3011 -54.2670
   -31.8759 -31.7518 -31.6892 -31.6614 -31.6367 -31.6160 -31.5915 -31.5509
   -31.5466 -31.5455 -31.5162 -31.5051 -31.5014 -31.4766 -31.4659 -31.4611
   -31.4476 -31.4376 -31.4104 -31.4018 -31.3975 -31.3812 -31.3730 -31.3556
   -31.3530 -31.3154 -31.3147 -31.3054 -31.3030 -31.2900 -31.2851 -31.2831
   -31.2765 -31.2756 -31.2606 -31.2575 -31.2253 -31.2119 -31.2007 -31.1952
   -31.1823 -31.1073 -30.7114 -30.6149 -30.5930 -30.5273 -30.4405 -30.3300
   -16.8254 -16.1477 -15.8915 -15.7706 -15.6617 -15.6039 -15.5209 -15.4418
   -15.3578 -15.2574 -15.1960 -15.0909 -15.0563 -15.0166 -15.0020 -14.9829
   -14.9560 -14.8760 -14.8650 -14.8544 -14.8288 -14.8105 -14.7822 -14.7734
   -14.7666 -14.7273 -14.6900 -14.5776 -14.4872 -14.4018 -12.8042 -12.6865
   -10.0131  -5.8624  -4.7435  -4.4233  -3.5163  -3.4746  -3.3436  -3.2387
    -3.2052  -3.1971  -3.0761  -2.8929  -2.7979  -2.7708  -2.6896  -2.6298
    -2.5340  -2.5302  -2.4899  -2.3896  -2.3518  -2.3251  -2.2419  -2.2151
    -2.1688  -2.1180  -2.1077  -2.1045  -2.0840  -2.0435  -2.0047  -1.8860
    -1.8012  -1.7793  -1.7057  -1.6894  -1.6833  -1.6552  -1.6122  -1.5930
    -1.5437  -1.5266  -1.4860  -1.4172  -1.3559  -1.2737  -1.2367  -1.1998
    -0.9938  -0.9650  -0.9144  -0.9119  -0.8835  -0.8151  -0.7856  -0.7559
    -0.6900  -0.6874  -0.6590  -0.5527  -0.5099  -0.3891  -0.3185  -0.2389
    -0.1172  -0.1040  -0.0801  -0.0305  -0.0070   0.0527   0.1126   0.1494
     0.1888   0.2015   0.2888   0.3179   0.3946   0.4085   0.4450   0.5110
     0.5267   0.5531   0.5680   0.5833   0.6175   0.6333   0.6675   0.7342
     0.7664   0.8678   0.9165   1.2003   1.2856   1.5946   1.6178   1.7212
     1.9025   2.2997   2.3488   3.7853   3.8466   3.8871   3.9297   3.9333
     4.0150   4.1457   4.2886   4.2980   4.3093   4.3161

[...]

          k = 0.0380-0.0419 0.0000 ( 17876 PWs)   bands (ev):

[...]

          k =-0.0760-0.0000 0.0000 ( 17886 PWs)   bands (ev):

[...]

          k =-0.0760-0.0839 0.0000 ( 17948 PWs)   bands (ev):

   -55.2924 -55.2894 -55.2408 -55.2399 -55.1563 -55.1554 -55.1438 -55.1336
   -55.1293 -55.0773 -55.0688 -55.0664 -55.0246 -54.9806 -54.2841 -54.2840
   -31.6836 -31.6785 -31.5885 -31.5829 -31.5671 -31.5665 -31.5573 -31.5312
   -31.5304 -31.5096 -31.5048 -31.5030 -31.4896 -31.4634 -31.4586 -31.4576
   -31.4316 -31.4310 -31.4246 -31.4036 -31.3811 -31.3791 -31.3688 -31.3649
   -31.3643 -31.3602 -31.3595 -31.3507 -31.3492 -31.3429 -31.3391 -31.3238
   -31.3210 -31.3083 -31.3053 -31.2940 -31.2654 -31.2484 -31.2466 -31.2439
   -31.2267 -31.1737 -30.6056 -30.6056 -30.5239 -30.5238 -30.4840 -30.4839
   -16.7640 -15.8205 -15.6050 -15.5404 -15.4995 -15.4049 -15.3311 -15.3001
   -15.2900 -15.2769 -15.1509 -15.1227 -15.1133 -15.0851 -15.0533 -15.0289
   -15.0250 -14.9900 -14.9329 -14.9268 -14.9189 -14.9107 -14.8470 -14.8388
   -14.8350 -14.8282 -14.7627 -14.7603 -14.6784 -14.6764 -12.7879 -12.7878
   -10.0227  -5.8627  -4.8705  -4.4055  -3.5282  -2.8241  -2.7965  -2.7444
    -2.7067  -2.6133  -2.5277  -2.5004  -2.4639  -2.4062  -2.3540  -2.3066
    -2.3045  -2.2688  -2.2492  -2.2304  -2.1867  -2.1651  -2.1427  -2.1244
    -2.1097  -2.0560  -2.0531  -2.0440  -2.0196  -1.9855  -1.9681  -1.9548
    -1.9386  -1.9203  -1.8948  -1.8755  -1.7325  -1.7116  -1.6710  -1.5539
    -1.5359  -1.5324  -1.4994  -1.4556  -1.4309  -1.4233  -1.3494  -1.3423
    -1.3098  -1.1526  -1.0803  -1.0785  -1.0553  -1.0313  -0.9362  -0.8847
    -0.8443  -0.7945  -0.7186  -0.6873  -0.6685  -0.5960  -0.5691  -0.4777
    -0.3882  -0.3614  -0.3532  -0.2758  -0.2744  -0.2409  -0.2278  -0.1588
    -0.0986  -0.0470  -0.0430  -0.0389   0.0898   0.1268   0.2069   0.3209
     0.4014   0.4096   0.4604   0.5212   0.5992   0.6493   0.6638   0.7879
     0.7899   0.9763   0.9796   1.0280   1.0431   1.1235   1.1286   2.0753
     2.0760   2.1684   2.1687   3.7607   3.9439   3.9981   4.0710   4.0964
     4.1944   4.2792   4.3130   4.3431   4.3650   4.3712

     the Fermi energy is     3.8539 ev

!    total energy              =   -2922.77379851 Ry
     estimated scf accuracy    <       0.00000007 Ry
     smearing contrib. (-TS)   =      -0.04551636 Ry
     internal energy E=F+TS    =   -2922.72828215 Ry

     The total energy is F=E-TS. E is the sum of the following terms:
     one-electron contribution =  -23201.67152033 Ry
     hartree contribution      =   11691.11018042 Ry
     xc contribution           =    -482.55067186 Ry
     ewald contribution        =    9070.38001776 Ry
     electric field correction =       0.00371185 Ry

     convergence has been achieved in  91 iterations

     Forces acting on atoms (cartesian axes, Ry/au):

     atom    1 type  1   force =     0.00016633   -0.00008156    0.09300937
     atom    2 type  1   force =    -0.00000120   -0.00014577   -0.17881769
     atom    3 type  2   force =     0.00002083   -0.00029899   -0.02022877
     atom    4 type  2   force =    -0.00000289   -0.00223960    0.06097854
     atom    5 type  2   force =    -0.01150925   -0.00127661    0.01053825
     atom    6 type  2   force =     0.01242064   -0.00058004    0.00810224
     atom    7 type  1   force =    -0.00124449    0.00345627   -0.01488693
     atom    8 type  1   force =     0.00123000   -0.00358895   -0.00845460
     atom    9 type  2   force =     0.00001381   -0.00004990   -0.00023386
     atom   10 type  2   force =    -0.00281479   -0.00048178    0.00154592
     atom   11 type  2   force =     0.00010525   -0.00024111   -0.00031072
     atom   12 type  2   force =     0.00001861    0.00007812   -0.00012102
     atom   13 type  1   force =    -0.00019528   -0.00031710   -0.00061833
     atom   14 type  1   force =    -0.00003570   -0.00004958    0.00020375
     atom   15 type  2   force =    -0.00011559   -0.00024349   -0.00014192
     atom   16 type  2   force =     0.00032475    0.00035081   -0.00013021
     atom   17 type  2   force =     0.00076876    0.00029102   -0.00026296
     atom   18 type  2   force =     0.00010060   -0.00026554   -0.00005462
     atom   19 type  1   force =     0.00026323    0.00043574   -0.00037309
     atom   20 type  1   force =     0.00010621    0.00007809    0.00050294
     atom   21 type  2   force =     0.00012524   -0.00003121    0.10428300
     atom   22 type  2   force =    -0.00055996    0.00010937    0.00025307
     atom   23 type  2   force =    -0.06993076   -0.00011306   -0.02678360
     atom   24 type  2   force =     0.06990145    0.00034611   -0.02678520
     atom   25 type  1   force =     0.00018867   -0.00021115    0.09229773
     atom   26 type  1   force =    -0.00006540   -0.00036422   -0.17902045
     atom   27 type  2   force =     0.00003974   -0.00025574   -0.01895372
     atom   28 type  2   force =     0.00006464   -0.00193187    0.06022686
     atom   29 type  2   force =    -0.01169586   -0.00161986    0.01033246
     atom   30 type  2   force =     0.01247956   -0.00120208    0.00786210
     atom   31 type  1   force =    -0.00101124    0.00607934   -0.01577076
     atom   32 type  1   force =     0.00116576    0.00334583   -0.00863963
     atom   33 type  2   force =     0.00002888    0.00019925   -0.00022512
     atom   34 type  2   force =    -0.00240710   -0.00053370    0.00059634
     atom   35 type  2   force =    -0.00001328    0.00000225    0.00003108
     atom   36 type  2   force =     0.00005232   -0.00007292    0.00034639
     atom   37 type  1   force =     0.00035155   -0.00003929   -0.00004231
     atom   38 type  1   force =    -0.00034181   -0.00030382    0.00045043
     atom   39 type  2   force =     0.00036540   -0.00014841    0.00063011
     atom   40 type  2   force =     0.00025008   -0.00017804    0.00003880
     atom   41 type  2   force =     0.00004122    0.00035418   -0.00041063
     atom   42 type  2   force =     0.00051222    0.00020768   -0.00018974
     atom   43 type  1   force =     0.00025618   -0.00017774   -0.00032221
     atom   44 type  1   force =     0.00014976   -0.00129742    0.00059982
     atom   45 type  2   force =     0.00011683   -0.00005854    0.10422958
     atom   46 type  2   force =    -0.06994913   -0.00005466   -0.02677466
     atom   47 type  2   force =     0.06993672    0.00035077   -0.02679530
     atom   48 type  3   force =     0.00309457   -0.00148890   -0.00353481
     atom   49 type  4   force =     0.00127127    0.00070014   -0.00146624
     atom   50 type  5   force =     0.00016724   -0.00007169    0.00002010
     atom   51 type  5   force =    -0.00068544   -0.00025082    0.00025229
     atom   52 type  5   force =    -0.00017859   -0.00030278    0.00024167
     atom   53 type  5   force =     0.00020928    0.00085645   -0.00108272
     atom   54 type  5   force =    -0.00013685    0.00004817   -0.00080941
     atom   55 type  5   force =    -0.00341301    0.00327834    0.00466838

     Total force =     0.367712     Total SCF correction =     0.000805
  @ DRIVER MODE: Message from server: STATUS
  @ DRIVER MODE: Message from server: GETFORCE
  @ DRIVER MODE: Returning v,forces,stress,ensemble

     Writing output data file ./calc.save/
  @ DRIVER MODE: Message from server: EXIT
  @ DRIVE MODE: Exiting

     General routines

     Parallel routines

   This run was terminated on:   2:12:31   3Aug2021

   JOB DONE.