     Program PWSCF v.6.7GPU starts on  8Sep2021 at 21:51:40

     R & G space division:  proc/nbgrp/npool/nimage =      10
     Reading input from /storage/home/hcoda1/3/ntian30/research/carbon/CxH_vib/CH2_calc/ads_slab/CH2N_a/out_0000/pw.inp
Warning: card &CELL ignored
Warning: card   CELL_DYNAMICS='IPI', ignored
Warning: card / ignored

     Current dimensions of program PWSCF are:
     Max number of different atomic species (ntypx) = 10
     Max number of k-points (npk) =  40000
     Max angular momentum in pseudopotentials (lmaxx) =  3
     Presently no symmetry can be used with electric field

     Message from routine cell_base_init:
     DEPRECATED: use true lattice parameter, not A to a.u. conversion factor

     IMPORTANT: XC functional enforced from input :
     Exchange-correlation= BEEF-VDW
                           (   1   4  43  14   2   0   0)
     Any further DFT definition will be discarded
     Please, verify this is what you really want

  @ DRIVER MODE: Connecting to
 qe_1139763_2767392.sched-torque.pace.gatech.edugoul9uot_scratch
  using UNIX socket
  @ DRIVER MODE: Message from server: STATUS
  @ DRIVER MODE: Message from server: INIT
  @ DRIVER MODE: Receiving replica           0          -1
  @ DRIVER MODE: Receiving encoded integer          25
  @ DRIVER MODE:  SCF:  T  FORCE:  T  STRESS:  F  VC:  F  ENSEMBLE:  F
  @ DRIVER MODE:  SCF:  T  FORCE:  T  STRESS:  F  VC:  F  ENSEMBLE:  F

     Using Slab Decomposition

     bravais-lattice index     =            0
     lattice parameter (alat)  =       1.8897  a.u.
     unit-cell volume          =    6658.9804 (a.u.)^3
     number of atoms/cell      =           51
     number of atomic types    =            5
     number of electrons       =       389.00
     number of Kohn-Sham states=          204
     kinetic-energy cutoff     =      29.3995  Ry
     charge density cutoff     =     293.9946  Ry
     scf convergence threshold =      7.3E-08
     mixing beta               =       0.0500
     number of iterations used =            8  plain     mixing
     Exchange-correlation= BEEF-VDW
                           (   1   4  43  14   2   0   0)

     celldm(1)=   1.889726  celldm(2)=   0.000000  celldm(3)=   0.000000
     celldm(4)=   0.000000  celldm(5)=   0.000000  celldm(6)=   0.000000

     crystal axes: (cart. coord. in units of alat)
               a(1) = (   6.579727   0.000000   0.000000 )
               a(2) = (  -0.000775   5.961596   0.000000 )
               a(3) = (   0.000000   0.000000  25.155947 )

     reciprocal axes: (cart. coord. in units 2 pi/alat)
               b(1) = (  0.151982  0.000020  0.000000 )
               b(2) = (  0.000000  0.167740  0.000000 )
               b(3) = (  0.000000  0.000000  0.039752 )

     PseudoPot. # 1 for Ti read from file:
     /storage/coda1/p-amedford6/0/shared/rich_project_chbe-medford/medford-share/data/pseudos_module/espresso/nninc/pbe/van/Ti.UPF
     MD5 check sum: 8e4df49b7f0d34bbd5052bf3f5ea0213
     Pseudo is Ultrasoft, Zval = 12.0
     Generated by new atomic code, or converted to UPF format
     Using radial grid of  851 points,  6 beta functions with:
                l(1) =   0
                l(2) =   0
                l(3) =   1
                l(4) =   1
                l(5) =   2
                l(6) =   2
     Q(r) pseudized with  8 coefficients,  rinner =    1.000   1.000   1.000
                                                       1.000   1.000

     PseudoPot. # 2 for O  read from file:
     /storage/coda1/p-amedford6/0/shared/rich_project_chbe-medford/medford-share/data/pseudos_module/espresso/nninc/pbe/van/O.UPF
     MD5 check sum: 78c19812648e8988a0fe644b0f25305e
     Pseudo is Ultrasoft, Zval =  6.0
     Generated by new atomic code, or converted to UPF format
     Using radial grid of  737 points,  4 beta functions with:
                l(1) =   0
                l(2) =   0
                l(3) =   1
                l(4) =   1
     Q(r) pseudized with  8 coefficients,  rinner =    0.800   0.800   0.800

     PseudoPot. # 3 for N  read from file:
     /storage/coda1/p-amedford6/0/shared/rich_project_chbe-medford/medford-share/data/pseudos_module/espresso/nninc/pbe/van/N.UPF
     MD5 check sum: 90d10febe142ad51ac9d5be1deb811c4
     Pseudo is Ultrasoft, Zval =  5.0
     Generated by new atomic code, or converted to UPF format
     Using radial grid of  729 points,  4 beta functions with:
                l(1) =   0
                l(2) =   0
                l(3) =   1
                l(4) =   1
     Q(r) pseudized with  8 coefficients,  rinner =    0.800   0.800   0.800

     PseudoPot. # 4 for C  read from file:
     /storage/coda1/p-amedford6/0/shared/rich_project_chbe-medford/medford-share/data/pseudos_module/espresso/nninc/pbe/van/C.UPF
     MD5 check sum: 1a69bf6b8db32088f5b2163dbdb77a27
     Pseudo is Ultrasoft, Zval =  4.0
     Generated by new atomic code, or converted to UPF format
     Using radial grid of  721 points,  4 beta functions with:
                l(1) =   0
                l(2) =   0
                l(3) =   1
                l(4) =   1
     Q(r) pseudized with  8 coefficients,  rinner =    0.800   0.800   0.800

     PseudoPot. # 5 for H  read from file:
     /storage/coda1/p-amedford6/0/shared/rich_project_chbe-medford/medford-share/data/pseudos_module/espresso/nninc/pbe/van/H.UPF
     MD5 check sum: b5ee9d7bfd3a09ee7748110bda690ff7
     Pseudo is Ultrasoft, Zval =  1.0
     Generated by new atomic code, or converted to UPF format
     Using radial grid of  615 points,  1 beta functions with:
                l(1) =   0
     Q(r) pseudized with  8 coefficients,  rinner =    0.800

     atomic species   valence    mass     pseudopotential
        Ti1           12.00    47.86700     Ti( 1.00)
        O1             6.00    15.99900     O ( 1.00)
        N1             5.00    14.00700     N ( 1.00)
        C1             4.00    12.01100     C ( 1.00)
        H1             1.00     1.00800     H ( 1.00)

     No symmetry found

   Cartesian axes

     site n.     atom                  positions (alat units)
         1           Ti1 tau(   1) = (   0.0004258   2.9801865   6.0000000  )
         2           Ti1 tau(   2) = (   3.2906075   1.4906267   6.0002472  )
         3           O1  tau(   3) = (   0.0006271   0.0005054   7.9858123  )
         4           O1  tau(   4) = (   3.2906025   0.0005020   7.3038282  )
         5           O1  tau(   5) = (   4.5942328   1.4918067   9.2879030  )
         6           O1  tau(   6) = (   1.9868534   1.4903216   9.2879459  )
         7           Ti1 tau(   7) = (   3.2907910   2.8959150   9.1758416  )
         8           Ti1 tau(   8) = (   0.0015273   1.4827037   9.2680791  )
         9           O1  tau(   9) = (   3.3121109   0.0111249  11.3310253  )
        10           O1  tau(  10) = (   0.0116148   5.9584955  10.6183126  )
        11           O1  tau(  11) = (   1.3329579   1.5011098  12.6063046  )
        12           O1  tau(  12) = (   5.3158149   1.4916659  12.6245769  )
        13           Ti1 tau(  13) = (   6.5431557   2.9598450  12.6156978  )
        14           Ti1 tau(  14) = (   3.2273839   1.5049138  12.4779161  )
        15           O1  tau(  15) = (   0.0471551   0.0364395  14.6528705  )
        16           O1  tau(  16) = (   3.3160098   0.0207640  13.9215624  )
        17           O1  tau(  17) = (   4.5810600   1.5471256  16.0564497  )
        18           O1  tau(  18) = (   2.0947546   1.5446786  16.0656860  )
        19           Ti1 tau(  19) = (   3.3354243   3.0239694  15.7034691  )
        20           Ti1 tau(  20) = (   0.0419518   1.5622418  15.8401859  )
        21           O1  tau(  21) = (   3.2904802   0.0005063   4.7018136  )
        22           O1  tau(  22) = (   0.0415632   0.0558952  17.2248266  )
        23           O1  tau(  23) = (   1.3043587   1.4918075   6.0039043  )
        24           O1  tau(  24) = (   5.2767064   1.4903225   6.0039473  )
        25           Ti1 tau(  25) = (   0.0000382   5.9609847   6.0000000  )
        26           Ti1 tau(  26) = (   3.2902200   4.4714249   6.0002472  )
        27           O1  tau(  27) = (   0.0002396   2.9813036   7.9858123  )
        28           O1  tau(  28) = (   3.2902150   2.9813002   7.3038282  )
        29           O1  tau(  29) = (   4.5938453   4.4726049   9.2879030  )
        30           O1  tau(  30) = (   1.9864658   4.4711199   9.2879459  )
        31           Ti1 tau(  31) = (   3.2891106   5.8743827   9.1763621  )
        32           Ti1 tau(  32) = (   0.0006254   4.4649316   9.2693709  )
        33           O1  tau(  33) = (   3.3101407   2.9955762  11.3294870  )
        34           O1  tau(  34) = (   0.0092240   2.9805883  10.6323155  )
        35           O1  tau(  35) = (   1.3272401   4.4878838  12.6173354  )
        36           O1  tau(  36) = (   5.3164082   4.4812184  12.6342743  )
        37           Ti1 tau(  37) = (   6.5430856   5.9365306  12.5602028  )
        38           Ti1 tau(  38) = (   3.2246414   4.4845729  12.4831641  )
        39           O1  tau(  39) = (   0.0420920   2.9623338  14.6463429  )
        40           O1  tau(  40) = (   3.3182946   3.0055568  13.9055467  )
        41           O1  tau(  41) = (   4.5797692   4.5125808  16.0776662  )
        42           O1  tau(  42) = (   2.0972274   4.5146901  16.0918111  )
        43           Ti1 tau(  43) = (   3.3319946   0.0399457  15.7186693  )
        44           Ti1 tau(  44) = (   0.0407629   4.6953510  16.1098173  )
        45           O1  tau(  45) = (   3.2900926   2.9813045   4.7018136  )
        46           O1  tau(  46) = (   1.3039711   4.4726057   6.0039043  )
        47           O1  tau(  47) = (   5.2763189   4.4711207   6.0039473  )
        48           N1  tau(  48) = (   0.0554023   2.9932257  17.3910969  )
        49           C1  tau(  49) = (   0.1090839   2.9222626  18.6472186  )
        50           H1  tau(  50) = (   0.1225839   3.8204711  19.2773028  )
        51           H1  tau(  51) = (   0.1417253   1.9549180  19.1625725  )

     number of k points=    10  Fermi-Dirac smearing, width (Ry)=  0.0073
                       cart. coord. in units 2pi/alat
        k(    1) = (   0.0000000   0.0000000   0.0000000), wk =   0.1250000
        k(    2) = (   0.0000000   0.0419351   0.0000000), wk =   0.2500000
        k(    3) = (   0.0000000  -0.0838702   0.0000000), wk =   0.1250000
        k(    4) = (   0.0379955   0.0000049   0.0000000), wk =   0.2500000
        k(    5) = (   0.0379955   0.0419400   0.0000000), wk =   0.2500000
        k(    6) = (   0.0379955  -0.0838652   0.0000000), wk =   0.2500000
        k(    7) = (   0.0379955  -0.0419301   0.0000000), wk =   0.2500000
        k(    8) = (  -0.0759910  -0.0000099   0.0000000), wk =   0.1250000
        k(    9) = (  -0.0759910   0.0419252   0.0000000), wk =   0.2500000
        k(   10) = (  -0.0759910  -0.0838800   0.0000000), wk =   0.1250000

     Initial potential from superposition of free atoms

     starting charge  372.99918, renormalised to  389.00000

     negative rho (up, down):  1.813E-02 0.000E+00

     %%%%%%%%%%%%%%%%%%%%%%%%%%%%%%%%%%%%%%%%%%%%%%%%%%%%%%%%%%%%%%%%%%%%%%%%
     %                                                                      %
     % You are using vdW-DF, which was implemented by the Thonhauser group. %
     % Please cite the following two papers that made this development      %
     % possible and the two reviews that describe the various versions:     %
     %                                                                      %
     %   T. Thonhauser et al., PRL 115, 136402 (2015).                      %
     %   T. Thonhauser et al., PRB 76, 125112 (2007).                       %
     %   K. Berland et al., Rep. Prog. Phys. 78, 066501 (2015).             %
     %   D.C. Langreth et al., J. Phys.: Condens. Matter 21, 084203 (2009). %
     %                                                                      %
     %                                                                      %
     % If you are calculating the stress with vdW-DF, please also cite:     %
     %                                                                      %
     %   R. Sabatini et al., J. Phys.: Condens. Matter 24, 424209 (2012).   %
     %                                                                      %
     %%%%%%%%%%%%%%%%%%%%%%%%%%%%%%%%%%%%%%%%%%%%%%%%%%%%%%%%%%%%%%%%%%%%%%%%

     Adding external electric field

     Computed dipole along edir(3) :
        Dipole               -4.6856 Ry au,        -11.9097 Debye
        Dipole field         -0.0088 Ry au,

        Potential amp.        0.8197 Ry
        Total length         46.3494 bohr

     Starting wfcs are  294 atomic wfcs
  @ DRIVER MODE: Message from server: STATUS
  @ DRIVER MODE: Message from server: POSDATA
  @ DRIVER MODE: Reading and sharing cell
  @ DRIVER MODE: Reading and sharing positions
  @ DRIVER MODE: Received positions

     Self-consistent Calculation

     iteration #  1     ecut=    29.40 Ry     beta= 0.05
     Davidson diagonalization with overlap
     ethr =  1.00E-02,  avg # of iterations =  2.0

[...]

     total energy              =   -2868.91161616 Ry
     estimated scf accuracy    <     558.24313315 Ry

[...]

     iteration #  3     ecut=    29.40 Ry     beta= 0.05
     Davidson diagonalization with overlap
     c_bands:  1 eigenvalues not converged
     c_bands:  1 eigenvalues not converged
     c_bands:  1 eigenvalues not converged
     c_bands:  1 eigenvalues not converged
     c_bands:  1 eigenvalues not converged
     c_bands:  1 eigenvalues not converged
     c_bands:  1 eigenvalues not converged
     ethr =  1.00E-02,  avg # of iterations = 19.3

[...]

     iteration # 57     ecut=    29.40 Ry     beta= 0.05
     Davidson diagonalization with overlap
     c_bands:  1 eigenvalues not converged
     ethr =  7.11E-11,  avg # of iterations =  9.4

[...]

     total energy              =   -2917.92295162 Ry
     estimated scf accuracy    <       0.00000008 Ry

     iteration # 58     ecut=    29.40 Ry     beta= 0.05
     Davidson diagonalization with overlap
     ethr =  2.14E-11,  avg # of iterations =  6.4

     negative rho (up, down):  1.843E-02 0.000E+00

     Adding external electric field

     Computed dipole along edir(3) :
        Dipole                0.7703 Ry au,          1.9579 Debye
        Dipole field          0.0015 Ry au,

        Potential amp.       -0.1348 Ry
        Total length         46.3494 bohr

     End of self-consistent calculation

          k = 0.0000 0.0000 0.0000 ( 18029 PWs)   bands (ev):

   -55.9942 -55.9847 -55.9601 -55.9484 -55.8715 -55.8417 -55.8216 -55.8074
   -55.8030 -55.7690 -55.7666 -55.7329 -55.5208 -55.2470 -54.9713 -54.9373
   -32.5391 -32.4766 -32.3430 -32.3237 -32.3019 -32.2966 -32.2871 -32.2572
   -32.2368 -32.2115 -32.2047 -32.1826 -32.1649 -32.1462 -32.1379 -32.1246
   -32.1041 -32.0985 -32.0838 -32.0512 -32.0505 -32.0476 -32.0013 -32.0001
   -31.9988 -31.9972 -31.9909 -31.9832 -31.9689 -31.9567 -31.9490 -31.9422
   -31.9334 -31.9331 -31.9198 -31.9105 -31.8789 -31.7706 -31.7028 -31.5360
   -31.5017 -31.4593 -31.3785 -31.2902 -31.2678 -31.1952 -31.1087 -30.9977
   -16.7364 -16.4681 -16.2430 -16.1461 -16.1150 -15.9986 -15.8328 -15.7144
   -15.6633 -15.5652 -15.5517 -15.5301 -15.4963 -15.4657 -15.4636 -15.4374
   -15.4339 -15.4145 -15.4012 -15.3535 -15.3311 -15.2966 -15.1989 -15.1680
   -15.1282 -15.1001 -15.0590 -15.0497 -14.9248 -14.5612 -13.4738 -13.3574
    -7.5587  -4.3333  -4.1139  -4.0027  -3.9489  -3.8996  -3.8407  -3.6340
    -3.5430  -3.5196  -3.2244  -3.1779  -3.1604  -3.1479  -3.1094  -2.8940
    -2.8403  -2.8088  -2.7877  -2.7735  -2.7623  -2.7545  -2.7344  -2.7075
    -2.5942  -2.5385  -2.5350  -2.4120  -2.3843  -2.3275  -2.3061  -2.2591
    -2.2436  -2.2349  -2.2079  -2.1969  -2.1838  -2.1529  -2.0754  -1.9618
    -1.8111  -1.7920  -1.7564  -1.6304  -1.6012  -1.5398  -1.4497  -1.4340
    -1.4196  -1.3853  -1.3681  -1.2967  -1.1709  -1.1467  -1.1370  -1.0363
    -0.9896  -0.9712  -0.8747  -0.8391  -0.7692  -0.7581  -0.7467  -0.7094
    -0.5482  -0.4918  -0.4625  -0.3957  -0.3660  -0.3071  -0.2943  -0.2654
    -0.1830  -0.1308  -0.1106  -0.1040  -0.0556  -0.0193  -0.0025   0.0071
     0.0182   0.0323   0.2048   0.2778   0.2847   0.3637   0.3736   0.5346
     0.5955   0.6631   0.7712   0.9762   1.0506   1.1400   1.2431   1.4378
     1.6219   1.6675   3.1423   3.2259   3.2741   3.2837   3.3850   3.4217
     3.5953   3.6018   3.6162   3.6903

[...]

          k = 0.0380-0.0419 0.0000 ( 17876 PWs)   bands (ev):

[...]

          k =-0.0760-0.0000 0.0000 ( 17886 PWs)   bands (ev):

[...]

          k =-0.0760-0.0839 0.0000 ( 17948 PWs)   bands (ev):

   -55.9776 -55.9766 -55.9692 -55.9637 -55.8645 -55.8284 -55.8249 -55.8242
   -55.7867 -55.7849 -55.7507 -55.7491 -55.5198 -55.2479 -54.9543 -54.9542
   -32.3449 -32.3398 -32.2923 -32.2916 -32.2729 -32.2720 -32.2546 -32.2425
   -32.1946 -32.1884 -32.1821 -32.1754 -32.1386 -32.1203 -32.1152 -32.1139
   -32.1048 -32.0988 -32.0969 -32.0960 -32.0897 -32.0871 -32.0679 -32.0438
   -32.0403 -32.0297 -32.0203 -32.0066 -31.9855 -31.9851 -31.9823 -31.9808
   -31.9653 -31.9645 -31.9608 -31.9577 -31.8830 -31.7731 -31.6990 -31.6015
   -31.5033 -31.4800 -31.2805 -31.2804 -31.1913 -31.1912 -31.1520 -31.1520
   -16.1686 -16.1494 -15.9377 -15.9105 -15.9055 -15.8940 -15.7658 -15.7052
   -15.6888 -15.6868 -15.6080 -15.5863 -15.5649 -15.5374 -15.5257 -15.5134
   -15.5072 -15.4988 -15.4556 -15.4496 -15.4300 -15.4229 -15.3200 -15.3105
   -15.3064 -15.2506 -15.1768 -15.0381 -14.9419 -14.7293 -13.4593 -13.4591
    -7.5546  -4.3155  -3.6880  -3.4590  -3.4363  -3.1679  -3.1508  -3.1418
    -3.0818  -2.9091  -2.8932  -2.8701  -2.8492  -2.8206  -2.8188  -2.7976
    -2.7955  -2.7846  -2.7404  -2.7332  -2.7076  -2.6709  -2.6608  -2.6493
    -2.6406  -2.6168  -2.6064  -2.5646  -2.5351  -2.5278  -2.5130  -2.4894
    -2.3040  -2.2211  -2.1947  -2.1315  -2.1242  -2.0892  -2.0578  -2.0458
    -2.0298  -1.9793  -1.9014  -1.7270  -1.6942  -1.6761  -1.6182  -1.5895
    -1.5487  -1.4625  -1.3945  -1.3699  -1.3638  -1.3153  -1.2065  -1.1849
    -1.1710  -1.0974  -1.0620  -1.0438  -1.0025  -0.9874  -0.9543  -0.9489
    -0.8555  -0.8061  -0.7594  -0.7570  -0.7115  -0.6452  -0.6322  -0.6047
    -0.4958  -0.4768  -0.4061  -0.3775  -0.2759  -0.2077  -0.0102   0.0521
     0.0776   0.1360   0.2162   0.2972   0.3116   0.3255   0.3258   0.3733
     0.4423   0.5384   0.5478   0.6014   0.7062   1.3317   1.4144   1.4150
     1.4873   1.4874   3.4282   3.4380   3.4773   3.4991   3.6351   3.6507
     3.6736   3.6747   3.7299   3.8117

     the Fermi energy is     3.1400 ev

!    total energy              =   -2917.92299977 Ry
     estimated scf accuracy    <       0.00000003 Ry
     smearing contrib. (-TS)   =      -0.02181291 Ry
     internal energy E=F+TS    =   -2917.90118686 Ry

     The total energy is F=E-TS. E is the sum of the following terms:
     one-electron contribution =  -24778.20475398 Ry
     hartree contribution      =   12472.76236793 Ry
     xc contribution           =    -479.18520389 Ry
     ewald contribution        =    9866.72528336 Ry
     electric field correction =       0.00111972 Ry

     convergence has been achieved in  58 iterations

     Forces acting on atoms (cartesian axes, Ry/au):

     atom    1 type  1   force =     0.00017186   -0.00022962    0.09671047
     atom    2 type  1   force =     0.00006912   -0.00052994   -0.17540974
     atom    3 type  2   force =     0.00018055    0.00000878   -0.02478910
     atom    4 type  2   force =     0.00005778   -0.00133189    0.05291847
     atom    5 type  2   force =    -0.01177810    0.00012895    0.00258685
     atom    6 type  2   force =     0.01394751    0.00051663    0.00338894
     atom    7 type  1   force =     0.00129615    0.00071074   -0.01175891
     atom    8 type  1   force =    -0.00005637    0.00766888    0.02822076
     atom    9 type  2   force =    -0.00024063   -0.00023627   -0.00012208
     atom   10 type  2   force =    -0.00220760    0.00208149   -0.01528242
     atom   11 type  2   force =     0.00000275   -0.00009264    0.00022945
     atom   12 type  2   force =    -0.00003289    0.00014490   -0.00006304
     atom   13 type  1   force =    -0.00104914   -0.00025460   -0.00001204
     atom   14 type  1   force =    -0.00023079   -0.00026407    0.00059857
     atom   15 type  2   force =    -0.00030673   -0.00002886   -0.00021198
     atom   16 type  2   force =     0.00025473    0.00007809   -0.00052877
     atom   17 type  2   force =     0.00006064    0.00007028   -0.00022532
     atom   18 type  2   force =    -0.00012653    0.00031166   -0.00053734
     atom   19 type  1   force =    -0.00063014    0.00010640   -0.00034657
     atom   20 type  1   force =     0.00014331   -0.00100202    0.00021013
     atom   21 type  2   force =     0.00008851   -0.00004783    0.10323164
     atom   22 type  2   force =     0.00044079   -0.00028739   -0.00005094
     atom   23 type  2   force =    -0.07150154   -0.00015961   -0.02767941
     atom   24 type  2   force =     0.07149427    0.00033451   -0.02776343
     atom   25 type  1   force =     0.00018776   -0.00023234    0.09621434
     atom   26 type  1   force =     0.00011238   -0.00029407   -0.17554193
     atom   27 type  2   force =     0.00022350   -0.00012192   -0.02387089
     atom   28 type  2   force =     0.00009006   -0.00110213    0.05286065
     atom   29 type  2   force =    -0.01198661    0.00068182    0.00233760
     atom   30 type  2   force =     0.01401993    0.00103187    0.00318805
     atom   31 type  1   force =     0.00114317    0.00334632   -0.01208122
     atom   32 type  1   force =    -0.00024708   -0.00974751    0.02865606
     atom   33 type  2   force =    -0.00017444    0.00031444   -0.00009683
     atom   34 type  2   force =    -0.00172856    0.00174678   -0.02357386
     atom   35 type  2   force =     0.00000226    0.00009347    0.00022786
     atom   36 type  2   force =     0.00055913    0.00012401    0.00021301
     atom   37 type  1   force =    -0.00099111   -0.00038806    0.00026413
     atom   38 type  1   force =     0.00022875   -0.00011950    0.00053667
     atom   39 type  2   force =    -0.00005894   -0.00054020   -0.00075013
     atom   40 type  2   force =    -0.00004410    0.00025561    0.00047158
     atom   41 type  2   force =    -0.00066515   -0.00045940   -0.00017566
     atom   42 type  2   force =    -0.00012627   -0.00073746   -0.00073781
     atom   43 type  1   force =    -0.00047305    0.00001522   -0.00011392
     atom   44 type  1   force =     0.00013287    0.00030139    0.00041871
     atom   45 type  2   force =     0.00006683   -0.00006832    0.10325961
     atom   46 type  2   force =    -0.07149668   -0.00008305   -0.02769304
     atom   47 type  2   force =     0.07150815    0.00033587   -0.02777177
     atom   48 type  3   force =     0.00099565   -0.00058945    0.00017129
     atom   49 type  4   force =    -0.00148124   -0.00060615   -0.00037918
     atom   50 type  5   force =     0.00033223   -0.00018529    0.00013226
     atom   51 type  5   force =    -0.00017697   -0.00066850    0.00052023

     Total force =     0.367994     Total SCF correction =     0.000535
  @ DRIVER MODE: Message from server: STATUS
  @ DRIVER MODE: Message from server: GETFORCE
  @ DRIVER MODE: Returning v,forces,stress,ensemble

     Writing output data file ./calc.save/
  @ DRIVER MODE: Message from server: EXIT
  @ DRIVE MODE: Exiting

     General routines

     Parallel routines

   This run was terminated on:  22: 6:35   8Sep2021

   JOB DONE.