     Program PWSCF v.6.7GPU starts on 23Sep2021 at 21:23:50

     R & G space division:  proc/nbgrp/npool/nimage =       8
     Reading input from /storage/home/hcoda1/3/ntian30/research/carbon/CxH_vib/H2O_calc/ads_slab/CH3NNHHHHO_a/out_0026/pw.inp
Warning: card &CELL ignored
Warning: card   CELL_DYNAMICS='IPI', ignored
Warning: card / ignored

     Current dimensions of program PWSCF are:
     Max number of different atomic species (ntypx) = 10
     Max number of k-points (npk) =  40000
     Max angular momentum in pseudopotentials (lmaxx) =  3
     Presently no symmetry can be used with electric field

     Message from routine cell_base_init:
     DEPRECATED: use true lattice parameter, not A to a.u. conversion factor

     IMPORTANT: XC functional enforced from input :
     Exchange-correlation= BEEF-VDW
                           (   1   4  43  14   2   0   0)
     Any further DFT definition will be discarded
     Please, verify this is what you really want

  @ DRIVER MODE: Connecting to
 qe_1139763_2947308.sched-torque.pace.gatech.edu6dkn93le_scratch
  using UNIX socket
  @ DRIVER MODE: Message from server: STATUS
  @ DRIVER MODE: Message from server: INIT
  @ DRIVER MODE: Receiving replica           0          -1
  @ DRIVER MODE: Receiving encoded integer          25
  @ DRIVER MODE:  SCF:  T  FORCE:  T  STRESS:  F  VC:  F  ENSEMBLE:  F
  @ DRIVER MODE:  SCF:  T  FORCE:  T  STRESS:  F  VC:  F  ENSEMBLE:  F

     Using Slab Decomposition

     bravais-lattice index     =            0
     lattice parameter (alat)  =       1.8897  a.u.
     unit-cell volume          =    6658.9804 (a.u.)^3
     number of atoms/cell      =           58
     number of atomic types    =            5
     number of electrons       =       405.00
     number of Kohn-Sham states=          212
     kinetic-energy cutoff     =      29.3995  Ry
     charge density cutoff     =     293.9946  Ry
     scf convergence threshold =      7.3E-08
     mixing beta               =       0.0500
     number of iterations used =            8  plain     mixing
     Exchange-correlation= BEEF-VDW
                           (   1   4  43  14   2   0   0)

     celldm(1)=   1.889726  celldm(2)=   0.000000  celldm(3)=   0.000000
     celldm(4)=   0.000000  celldm(5)=   0.000000  celldm(6)=   0.000000

     crystal axes: (cart. coord. in units of alat)
               a(1) = (   6.579727   0.000000   0.000000 )
               a(2) = (  -0.000775   5.961596   0.000000 )
               a(3) = (   0.000000   0.000000  25.155947 )

     reciprocal axes: (cart. coord. in units 2 pi/alat)
               b(1) = (  0.151982  0.000020  0.000000 )
               b(2) = (  0.000000  0.167740  0.000000 )
               b(3) = (  0.000000  0.000000  0.039752 )

     PseudoPot. # 1 for Ti read from file:
     /storage/coda1/p-amedford6/0/shared/rich_project_chbe-medford/medford-share/data/pseudos_module/espresso/nninc/pbe/van/Ti.UPF
     MD5 check sum: 8e4df49b7f0d34bbd5052bf3f5ea0213
     Pseudo is Ultrasoft, Zval = 12.0
     Generated by new atomic code, or converted to UPF format
     Using radial grid of  851 points,  6 beta functions with:
                l(1) =   0
                l(2) =   0
                l(3) =   1
                l(4) =   1
                l(5) =   2
                l(6) =   2
     Q(r) pseudized with  8 coefficients,  rinner =    1.000   1.000   1.000
                                                       1.000   1.000

     PseudoPot. # 2 for O  read from file:
     /storage/coda1/p-amedford6/0/shared/rich_project_chbe-medford/medford-share/data/pseudos_module/espresso/nninc/pbe/van/O.UPF
     MD5 check sum: 78c19812648e8988a0fe644b0f25305e
     Pseudo is Ultrasoft, Zval =  6.0
     Generated by new atomic code, or converted to UPF format
     Using radial grid of  737 points,  4 beta functions with:
                l(1) =   0
                l(2) =   0
                l(3) =   1
                l(4) =   1
     Q(r) pseudized with  8 coefficients,  rinner =    0.800   0.800   0.800

     PseudoPot. # 3 for N  read from file:
     /storage/coda1/p-amedford6/0/shared/rich_project_chbe-medford/medford-share/data/pseudos_module/espresso/nninc/pbe/van/N.UPF
     MD5 check sum: 90d10febe142ad51ac9d5be1deb811c4
     Pseudo is Ultrasoft, Zval =  5.0
     Generated by new atomic code, or converted to UPF format
     Using radial grid of  729 points,  4 beta functions with:
                l(1) =   0
                l(2) =   0
                l(3) =   1
                l(4) =   1
     Q(r) pseudized with  8 coefficients,  rinner =    0.800   0.800   0.800

     PseudoPot. # 4 for C  read from file:
     /storage/coda1/p-amedford6/0/shared/rich_project_chbe-medford/medford-share/data/pseudos_module/espresso/nninc/pbe/van/C.UPF
     MD5 check sum: 1a69bf6b8db32088f5b2163dbdb77a27
     Pseudo is Ultrasoft, Zval =  4.0
     Generated by new atomic code, or converted to UPF format
     Using radial grid of  721 points,  4 beta functions with:
                l(1) =   0
                l(2) =   0
                l(3) =   1
                l(4) =   1
     Q(r) pseudized with  8 coefficients,  rinner =    0.800   0.800   0.800

     PseudoPot. # 5 for H  read from file:
     /storage/coda1/p-amedford6/0/shared/rich_project_chbe-medford/medford-share/data/pseudos_module/espresso/nninc/pbe/van/H.UPF
     MD5 check sum: b5ee9d7bfd3a09ee7748110bda690ff7
     Pseudo is Ultrasoft, Zval =  1.0
     Generated by new atomic code, or converted to UPF format
     Using radial grid of  615 points,  1 beta functions with:
                l(1) =   0
     Q(r) pseudized with  8 coefficients,  rinner =    0.800

     atomic species   valence    mass     pseudopotential
        Ti1           12.00    47.86700     Ti( 1.00)
        O1             6.00    15.99900     O ( 1.00)
        N1             5.00    14.00700     N ( 1.00)
        C1             4.00    12.01100     C ( 1.00)
        H1             1.00     1.00800     H ( 1.00)

     No symmetry found

   Cartesian axes

     site n.     atom                  positions (alat units)
         1           Ti1 tau(   1) = (   0.0004258   2.9801865   6.0000000  )
         2           Ti1 tau(   2) = (   3.2906075   1.4906267   6.0002472  )
         3           O1  tau(   3) = (   0.0006271   0.0005054   7.9858123  )
         4           O1  tau(   4) = (   3.2906025   0.0005020   7.3038282  )
         5           O1  tau(   5) = (   4.5942328   1.4918067   9.2879030  )
         6           O1  tau(   6) = (   1.9868534   1.4903216   9.2879459  )
         7           Ti1 tau(   7) = (   3.2907910   2.8959150   9.1758416  )
         8           Ti1 tau(   8) = (   0.0015273   1.4827037   9.2680791  )
         9           O1  tau(   9) = (   3.3066316   0.0080679  11.3583267  )
        10           O1  tau(  10) = (   0.0116148   5.9584955  10.6183126  )
        11           O1  tau(  11) = (   1.3000076   1.5005770  12.6434233  )
        12           O1  tau(  12) = (   5.3281586   1.4930334  12.6431679  )
        13           Ti1 tau(  13) = (   0.0126194   3.0144704  12.5166071  )
        14           Ti1 tau(  14) = (   3.3185830   1.5708444  12.4374219  )
        15           O1  tau(  15) = (   0.0449490   0.0685618  14.6579901  )
        16           O1  tau(  16) = (   3.3164028   5.8986079  13.9921319  )
        17           O1  tau(  17) = (   4.5763498   1.4919541  16.1892649  )
        18           O1  tau(  18) = (   2.0390356   1.5007807  16.1677599  )
        19           Ti1 tau(  19) = (   3.3152479   2.9236451  15.6986563  )
        20           Ti1 tau(  20) = (   0.0808212   1.4292116  16.0039943  )
        21           O1  tau(  21) = (   3.2904802   0.0005063   4.7018136  )
        22           O1  tau(  22) = (   0.0303022   5.8046116  17.1736243  )
        23           O1  tau(  23) = (   1.3043587   1.4918075   6.0039043  )
        24           O1  tau(  24) = (   5.2767064   1.4903225   6.0039473  )
        25           Ti1 tau(  25) = (   0.0000382   5.9609847   6.0000000  )
        26           Ti1 tau(  26) = (   3.2902200   4.4714249   6.0002472  )
        27           O1  tau(  27) = (   0.0002396   2.9813036   7.9858123  )
        28           O1  tau(  28) = (   3.2902150   2.9813002   7.3038282  )
        29           O1  tau(  29) = (   4.5938453   4.4726049   9.2879030  )
        30           O1  tau(  30) = (   1.9864658   4.4711199   9.2879459  )
        31           Ti1 tau(  31) = (   3.2891106   5.8743827   9.1763621  )
        32           Ti1 tau(  32) = (   0.0006254   4.4649316   9.2693709  )
        33           O1  tau(  33) = (   3.3101163   2.9547251  11.3177968  )
        34           O1  tau(  34) = (   0.0092240   2.9805883  10.6323155  )
        35           O1  tau(  35) = (   1.2917786   4.4638488  12.6831265  )
        36           O1  tau(  36) = (   5.3332004   4.4701953  12.6833355  )
        37           Ti1 tau(  37) = (   0.0360484   0.0435164  12.5022323  )
        38           Ti1 tau(  38) = (   3.3166134   4.6596848  12.7231989  )
        39           O1  tau(  39) = (   6.5734590   2.9070644  14.8960501  )
        40           O1  tau(  40) = (   3.3256711   2.9499323  13.9293234  )
        41           O1  tau(  41) = (   4.5718193   4.3849529  16.1598725  )
        42           O1  tau(  42) = (   2.0293811   4.3548050  16.0908550  )
        43           Ti1 tau(  43) = (   3.3839698   5.9011270  16.3477160  )
        44           Ti1 tau(  44) = (   0.0762916   4.6312412  15.8077656  )
        45           O1  tau(  45) = (   3.2900926   2.9813045   4.7018136  )
        46           O1  tau(  46) = (   1.3039711   4.4726057   6.0039043  )
        47           O1  tau(  47) = (   5.2763189   4.4711207   6.0039473  )
        48           N1  tau(  48) = (   1.0338470   3.0145746  18.8549854  )
        49           N1  tau(  49) = (   6.4614719   2.5758313  18.0922931  )
        50           C1  tau(  50) = (   0.6385090   3.7489381  20.0602371  )
        51           H1  tau(  51) = (   6.5128770   4.5633600  19.8465500  )
        52           H1  tau(  52) = (   0.1976125   3.0656416  20.7809517  )
        53           H1  tau(  53) = (   1.5398112   4.1767214  20.4987412  )
        54           H1  tau(  54) = (   5.7034478   3.2665398  18.1448723  )
        55           H1  tau(  55) = (   6.1095767   1.7263867  18.5341855  )
        56           H1  tau(  56) = (   1.5400177   3.6533120  18.2466354  )
        57           O1  tau(  57) = (   3.2295176   5.8880611  18.1942677  )
        58           H1  tau(  58) = (   2.6769533   0.6239085  18.5854980  )

     number of k points=    10  Fermi-Dirac smearing, width (Ry)=  0.0073
                       cart. coord. in units 2pi/alat
        k(    1) = (   0.0000000   0.0000000   0.0000000), wk =   0.1250000
        k(    2) = (   0.0000000   0.0419351   0.0000000), wk =   0.2500000
        k(    3) = (   0.0000000  -0.0838702   0.0000000), wk =   0.1250000
        k(    4) = (   0.0379955   0.0000049   0.0000000), wk =   0.2500000
        k(    5) = (   0.0379955   0.0419400   0.0000000), wk =   0.2500000
        k(    6) = (   0.0379955  -0.0838652   0.0000000), wk =   0.2500000
        k(    7) = (   0.0379955  -0.0419301   0.0000000), wk =   0.2500000
        k(    8) = (  -0.0759910  -0.0000099   0.0000000), wk =   0.1250000
        k(    9) = (  -0.0759910   0.0419252   0.0000000), wk =   0.2500000
        k(   10) = (  -0.0759910  -0.0838800   0.0000000), wk =   0.1250000

     Initial potential from superposition of free atoms

     starting charge  388.99913, renormalised to  405.00000

     negative rho (up, down):  1.325E-02 0.000E+00

     %%%%%%%%%%%%%%%%%%%%%%%%%%%%%%%%%%%%%%%%%%%%%%%%%%%%%%%%%%%%%%%%%%%%%%%%
     %                                                                      %
     % You are using vdW-DF, which was implemented by the Thonhauser group. %
     % Please cite the following two papers that made this development      %
     % possible and the two reviews that describe the various versions:     %
     %                                                                      %
     %   T. Thonhauser et al., PRL 115, 136402 (2015).                      %
     %   T. Thonhauser et al., PRB 76, 125112 (2007).                       %
     %   K. Berland et al., Rep. Prog. Phys. 78, 066501 (2015).             %
     %   D.C. Langreth et al., J. Phys.: Condens. Matter 21, 084203 (2009). %
     %                                                                      %
     %                                                                      %
     % If you are calculating the stress with vdW-DF, please also cite:     %
     %                                                                      %
     %   R. Sabatini et al., J. Phys.: Condens. Matter 24, 424209 (2012).   %
     %                                                                      %
     %%%%%%%%%%%%%%%%%%%%%%%%%%%%%%%%%%%%%%%%%%%%%%%%%%%%%%%%%%%%%%%%%%%%%%%%

     Adding external electric field

     Computed dipole along edir(3) :
        Dipole              -14.7651 Ry au,        -37.5293 Debye
        Dipole field         -0.0279 Ry au,

        Potential amp.        2.5829 Ry
        Total length         46.3494 bohr

     Starting wfcs are  307 atomic wfcs
  @ DRIVER MODE: Message from server: STATUS
  @ DRIVER MODE: Message from server: POSDATA
  @ DRIVER MODE: Reading and sharing cell
  @ DRIVER MODE: Reading and sharing positions
  @ DRIVER MODE: Received positions

     Self-consistent Calculation

     iteration #  1     ecut=    29.40 Ry     beta= 0.05
     Davidson diagonalization with overlap
     c_bands:  3 eigenvalues not converged
     c_bands:  4 eigenvalues not converged
     c_bands:  2 eigenvalues not converged
     c_bands:  3 eigenvalues not converged
     c_bands:  3 eigenvalues not converged
     c_bands:  3 eigenvalues not converged
     ethr =  1.00E-05,  avg # of iterations = 23.2

[...]

     total energy              =   -2204.22460200 Ry
     estimated scf accuracy    <    8785.90836920 Ry

     iteration #  2     ecut=    29.40 Ry     beta= 0.05
     Davidson diagonalization with overlap
     ethr =  1.00E-02,  avg # of iterations = 29.2

[...]

     iteration # 54     ecut=    29.40 Ry     beta= 0.05
     Davidson diagonalization with overlap
     c_bands:  1 eigenvalues not converged
     c_bands:  1 eigenvalues not converged
     ethr =  1.35E-07,  avg # of iterations = 14.0

[...]

     total energy              =   -2976.49824474 Ry
     estimated scf accuracy    <       0.00000010 Ry

     iteration # 79     ecut=    29.40 Ry     beta= 0.05
     Davidson diagonalization with overlap
     ethr =  2.39E-11,  avg # of iterations =  3.5

     negative rho (up, down):  1.444E-02 0.000E+00

     Adding external electric field

     Computed dipole along edir(3) :
        Dipole                0.9941 Ry au,          2.5266 Debye
        Dipole field          0.0019 Ry au,

        Potential amp.       -0.1739 Ry
        Total length         46.3494 bohr

     End of self-consistent calculation

          k = 0.0000 0.0000 0.0000 ( 18029 PWs)   bands (ev):

   -55.5813 -55.4978 -55.4637 -55.3630 -55.3418 -55.3258 -55.3119 -55.3054
   -55.2920 -55.2623 -55.2186 -55.0965 -55.0856 -55.0089 -54.4669 -54.4329
   -31.9823 -31.9178 -31.8767 -31.8294 -31.8278 -31.8087 -31.7982 -31.7887
   -31.7488 -31.7438 -31.7257 -31.6504 -31.6267 -31.6064 -31.6043 -31.6024
   -31.5967 -31.5847 -31.5823 -31.5554 -31.5493 -31.5240 -31.5232 -31.5116
   -31.4964 -31.4852 -31.4776 -31.4604 -31.4560 -31.4531 -31.4435 -31.4375
   -31.4338 -31.4143 -31.3724 -31.3706 -31.3001 -31.2931 -31.2789 -31.2585
   -31.2216 -31.2144 -30.8726 -30.7871 -30.7646 -30.6902 -30.6039 -30.4920
   -17.5810 -16.3999 -16.1388 -15.9762 -15.7604 -15.6750 -15.6465 -15.4539
   -15.3486 -15.2956 -15.1094 -15.0634 -15.0326 -15.0215 -15.0062 -14.9835
   -14.9638 -14.9255 -14.9170 -14.9067 -14.9011 -14.8626 -14.8402 -14.7898
   -14.7670 -14.7043 -14.6321 -14.5645 -14.5171 -14.2561 -14.2383 -12.9689
   -12.9652 -12.8489  -9.4690  -6.1536  -5.1999  -4.6362  -3.9616  -3.5037
    -3.4028  -3.3873  -3.3346  -3.2685  -3.1844  -2.9952  -2.8864  -2.8345
    -2.7318  -2.6244  -2.5695  -2.5056  -2.4730  -2.4295  -2.3966  -2.3842
    -2.3780  -2.2818  -2.2732  -2.2461  -2.2109  -2.1548  -2.1391  -2.0612
    -2.0249  -2.0164  -1.8921  -1.8793  -1.8136  -1.8092  -1.8031  -1.7694
    -1.7483  -1.7334  -1.7043  -1.6206  -1.5676  -1.4973  -1.4745  -1.4446
    -1.1855  -1.0933  -1.0558  -1.0280  -0.9302  -0.9140  -0.9007  -0.8970
    -0.8830  -0.8335  -0.7872  -0.7028  -0.5934  -0.5731  -0.5643  -0.5193
    -0.4540  -0.3721  -0.2990  -0.2694  -0.2321  -0.2188  -0.1528  -0.0753
    -0.0593  -0.0469   0.0618   0.0761   0.1584   0.2171   0.2311   0.2758
     0.3168   0.3496   0.4062   0.4426   0.4730   0.4789   0.5122   0.5566
     0.6125   0.6429   0.6708   0.7530   0.8086   0.8540   0.8816   1.0529
     1.0827   1.1382   1.1794   1.2665   1.5094   1.5597   1.5988   1.7541
     2.1260   2.1712   3.5868   3.7380   3.7531   3.8226   3.8477   3.9386
     4.0762   4.1438   4.2756   4.2843

[...]

          k = 0.0380-0.0419 0.0000 ( 17876 PWs)   bands (ev):

[...]

          k =-0.0760-0.0000 0.0000 ( 17886 PWs)   bands (ev):

[...]

          k =-0.0760-0.0839 0.0000 ( 17948 PWs)   bands (ev):

   -55.5806 -55.4808 -55.4806 -55.3617 -55.3286 -55.3184 -55.3125 -55.3089
   -55.3085 -55.2544 -55.2266 -55.0933 -55.0867 -55.0120 -54.4500 -54.4497
   -31.8651 -31.8073 -31.8023 -31.7977 -31.7975 -31.7831 -31.7743 -31.7740
   -31.7052 -31.6492 -31.6412 -31.6338 -31.6290 -31.6157 -31.6009 -31.6008
   -31.5985 -31.5982 -31.5839 -31.5736 -31.5661 -31.5574 -31.5365 -31.5184
   -31.5155 -31.5116 -31.5043 -31.5013 -31.4889 -31.4816 -31.4791 -31.4733
   -31.4681 -31.4495 -31.4437 -31.3667 -31.3547 -31.3408 -31.3020 -31.2971
   -31.2638 -31.2178 -30.7774 -30.7772 -30.6857 -30.6853 -30.6473 -30.6469
   -17.5750 -16.3858 -15.7469 -15.5689 -15.4726 -15.4661 -15.3354 -15.2696
   -15.2607 -15.2263 -15.2076 -15.1927 -15.1597 -15.1423 -15.1027 -15.0498
   -15.0166 -14.9939 -14.9823 -14.9452 -14.9328 -14.9109 -14.9034 -14.8948
   -14.8366 -14.8044 -14.7953 -14.7646 -14.5692 -14.5471 -14.3709 -12.9704
   -12.9509 -12.9507  -9.4665  -6.1389  -5.2016  -4.6463  -3.9577  -3.1919
    -2.9212  -2.7779  -2.7016  -2.5675  -2.5576  -2.4998  -2.4847  -2.4466
    -2.4384  -2.3975  -2.3435  -2.3272  -2.2843  -2.2793  -2.2486  -2.2363
    -2.2256  -2.2165  -2.1915  -2.1717  -2.1628  -2.1221  -2.1174  -2.1018
    -2.0820  -2.0656  -2.0380  -2.0270  -1.9870  -1.9473  -1.8822  -1.8084
    -1.7227  -1.6398  -1.6293  -1.6185  -1.5721  -1.5656  -1.5189  -1.5075
    -1.4602  -1.4087  -1.2946  -1.1718  -1.1320  -1.1055  -1.0734  -1.0413
    -0.9867  -0.9638  -0.9288  -0.8804  -0.8487  -0.7249  -0.7139  -0.6485
    -0.5640  -0.5307  -0.4548  -0.4416  -0.4270  -0.4108  -0.3891  -0.3724
    -0.3429  -0.3268  -0.2225  -0.1985  -0.1952  -0.1726  -0.1218  -0.0191
     0.0550   0.1379   0.2406   0.2903   0.3181   0.3518   0.4517   0.5698
     0.5950   0.6582   0.6903   0.7330   0.8002   0.8210   0.8688   0.9537
     1.0071   1.0396   1.0659   1.0708   1.1254   1.1538   1.9227   1.9312
     1.9914   1.9917   3.8005   4.0767   4.1023   4.1183   4.1557   4.1601
     4.1817   4.1962   4.2666   4.2773

     the Fermi energy is     3.6238 ev

!    total energy              =   -2976.49825307 Ry
     estimated scf accuracy    <       0.00000006 Ry
     smearing contrib. (-TS)   =      -0.01952802 Ry
     internal energy E=F+TS    =   -2976.47872505 Ry

     The total energy is F=E-TS. E is the sum of the following terms:
     one-electron contribution =  -23034.52910323 Ry
     hartree contribution      =   11613.62745292 Ry
     xc contribution           =    -495.71233066 Ry
     ewald contribution        =    8940.13339116 Ry
     electric field correction =       0.00186475 Ry

     convergence has been achieved in  79 iterations

     Forces acting on atoms (cartesian axes, Ry/au):

     atom    1 type  1   force =     0.00000770   -0.00022489    0.09405040
     atom    2 type  1   force =    -0.00015924    0.00025580   -0.17515191
     atom    3 type  2   force =     0.00007421   -0.00016070   -0.02116311
     atom    4 type  2   force =     0.00000267   -0.00104145    0.05355592
     atom    5 type  2   force =    -0.00455296   -0.00322534    0.00114679
     atom    6 type  2   force =     0.00660893   -0.00242486    0.00160957
     atom    7 type  1   force =     0.00037304    0.00456707    0.01036743
     atom    8 type  1   force =    -0.00056175    0.00198926    0.00312109
     atom    9 type  2   force =     0.00010350   -0.00050551   -0.00047055
     atom   10 type  2   force =    -0.00031086   -0.00004171   -0.01128623
     atom   11 type  2   force =    -0.00023285    0.00046338    0.00004397
     atom   12 type  2   force =    -0.00027313    0.00067731    0.00008130
     atom   13 type  1   force =     0.00061523   -0.00065043    0.00023424
     atom   14 type  1   force =    -0.00035455    0.00017141    0.00019861
     atom   15 type  2   force =    -0.00017491    0.00009846    0.00051588
     atom   16 type  2   force =     0.00004747   -0.00003601    0.00040429
     atom   17 type  2   force =    -0.00037156    0.00023318    0.00007464
     atom   18 type  2   force =     0.00003100    0.00008871    0.00023492
     atom   19 type  1   force =    -0.00009786    0.00053956   -0.00027800
     atom   20 type  1   force =    -0.00000878   -0.00011760   -0.00011743
     atom   21 type  2   force =     0.00002827   -0.00001225    0.10312445
     atom   22 type  2   force =    -0.00007583   -0.00016316   -0.00032679
     atom   23 type  2   force =    -0.07214027   -0.00021171   -0.02724545
     atom   24 type  2   force =     0.07204189    0.00023099   -0.02732311
     atom   25 type  1   force =     0.00006906   -0.00034867    0.09402512
     atom   26 type  1   force =    -0.00000447   -0.00128383   -0.17518820
     atom   27 type  2   force =     0.00015174   -0.00021233   -0.01994188
     atom   28 type  2   force =     0.00008590   -0.00111122    0.04907702
     atom   29 type  2   force =    -0.00668527    0.00152675    0.00212285
     atom   30 type  2   force =     0.00855182    0.00170458    0.00249184
     atom   31 type  1   force =     0.00050005   -0.00020146    0.00052372
     atom   32 type  1   force =    -0.00020273   -0.00144981    0.00350935
     atom   33 type  2   force =    -0.00007840   -0.00000044   -0.00002630
     atom   34 type  2   force =    -0.00088866    0.00246486   -0.01149809
     atom   35 type  2   force =     0.00003455   -0.00042874    0.00048801
     atom   36 type  2   force =    -0.00053376   -0.00040616    0.00034361
     atom   37 type  1   force =     0.00037604    0.00029159    0.00003090
     atom   38 type  1   force =    -0.00038246    0.00021352    0.00030480
     atom   39 type  2   force =    -0.00051049    0.00043141    0.00045911
     atom   40 type  2   force =    -0.00002076   -0.00007990   -0.00006852
     atom   41 type  2   force =    -0.00037401   -0.00027697    0.00025937
     atom   42 type  2   force =    -0.00022215   -0.00024740   -0.00025919
     atom   43 type  1   force =    -0.00003445   -0.00037418    0.00071860
     atom   44 type  1   force =    -0.00016751    0.00015789    0.00013098
     atom   45 type  2   force =     0.00002186   -0.00001756    0.10298380
     atom   46 type  2   force =    -0.07214615   -0.00008241   -0.02724095
     atom   47 type  2   force =     0.07199762    0.00035432   -0.02728455
     atom   48 type  3   force =     0.00078941   -0.00030484   -0.00057847
     atom   49 type  3   force =    -0.00072839    0.00005452    0.00010524
     atom   50 type  4   force =     0.00366788    0.00219866   -0.00225960
     atom   51 type  5   force =    -0.00063305   -0.00026266    0.00054676
     atom   52 type  5   force =    -0.00361840   -0.00348689    0.00295021
     atom   53 type  5   force =     0.00056121    0.00008569   -0.00063797
     atom   54 type  5   force =     0.00017750    0.00020235   -0.00055490
     atom   55 type  5   force =    -0.00018490    0.00032667    0.00039621
     atom   56 type  5   force =     0.00026019    0.00016079   -0.00042931
     atom   57 type  2   force =    -0.00020888    0.00052273   -0.00070237
     atom   58 type  5   force =    -0.00023931   -0.00062035   -0.00019813

     Total force =     0.361791     Total SCF correction =     0.000557
  @ DRIVER MODE: Message from server: STATUS
  @ DRIVER MODE: Message from server: GETFORCE
  @ DRIVER MODE: Returning v,forces,stress,ensemble

     Writing output data file ./calc.save/
  @ DRIVER MODE: Message from server: EXIT
  @ DRIVE MODE: Exiting

     General routines

     Parallel routines

   This run was terminated on:  21:50:10  23Sep2021

   JOB DONE.