     Program PWSCF v.6.7GPU starts on  2Aug2021 at 14:55:32

     R & G space division:  proc/nbgrp/npool/nimage =      16
     Reading input from /storage/home/hcoda1/3/ntian30/research/carbon/02Aug_vib_paired/ads_slab/CH3N2_b/out_0008/pw.inp
Warning: card &CELL ignored
Warning: card   CELL_DYNAMICS='IPI', ignored
Warning: card / ignored

     Current dimensions of program PWSCF are:
     Max number of different atomic species (ntypx) = 10
     Max number of k-points (npk) =  40000
     Max angular momentum in pseudopotentials (lmaxx) =  3
     Presently no symmetry can be used with electric field

     Message from routine cell_base_init:
     DEPRECATED: use true lattice parameter, not A to a.u. conversion factor

     IMPORTANT: XC functional enforced from input :
     Exchange-correlation= BEEF-VDW
                           (   1   4  43  14   2   0   0)
     Any further DFT definition will be discarded
     Please, verify this is what you really want

  @ DRIVER MODE: Connecting to
 qe_1139763_2482536.sched-torque.pace.gatech.edu2z0xbe9t_scratch
  using UNIX socket
  @ DRIVER MODE: Message from server: STATUS
  @ DRIVER MODE: Message from server: INIT
  @ DRIVER MODE: Receiving replica           0          -1
  @ DRIVER MODE: Receiving encoded integer          25
  @ DRIVER MODE:  SCF:  T  FORCE:  T  STRESS:  F  VC:  F  ENSEMBLE:  F
  @ DRIVER MODE:  SCF:  T  FORCE:  T  STRESS:  F  VC:  F  ENSEMBLE:  F

     Using Slab Decomposition

     bravais-lattice index     =            0
     lattice parameter (alat)  =       1.8897  a.u.
     unit-cell volume          =    6658.9804 (a.u.)^3
     number of atoms/cell      =           53
     number of atomic types    =            5
     number of electrons       =       395.00
     number of Kohn-Sham states=          207
     kinetic-energy cutoff     =      29.3995  Ry
     charge density cutoff     =     293.9946  Ry
     scf convergence threshold =      7.3E-08
     mixing beta               =       0.0500
     number of iterations used =            8  plain     mixing
     Exchange-correlation= BEEF-VDW
                           (   1   4  43  14   2   0   0)

     celldm(1)=   1.889726  celldm(2)=   0.000000  celldm(3)=   0.000000
     celldm(4)=   0.000000  celldm(5)=   0.000000  celldm(6)=   0.000000

     crystal axes: (cart. coord. in units of alat)
               a(1) = (   6.579727   0.000000   0.000000 )
               a(2) = (  -0.000775   5.961596   0.000000 )
               a(3) = (   0.000000   0.000000  25.155947 )

     reciprocal axes: (cart. coord. in units 2 pi/alat)
               b(1) = (  0.151982  0.000020  0.000000 )
               b(2) = (  0.000000  0.167740  0.000000 )
               b(3) = (  0.000000  0.000000  0.039752 )

     PseudoPot. # 1 for Ti read from file:
     /storage/coda1/p-amedford6/0/shared/rich_project_chbe-medford/medford-share/data/pseudos_module/espresso/nninc/pbe/van/Ti.UPF
     MD5 check sum: 8e4df49b7f0d34bbd5052bf3f5ea0213
     Pseudo is Ultrasoft, Zval = 12.0
     Generated by new atomic code, or converted to UPF format
     Using radial grid of  851 points,  6 beta functions with:
                l(1) =   0
                l(2) =   0
                l(3) =   1
                l(4) =   1
                l(5) =   2
                l(6) =   2
     Q(r) pseudized with  8 coefficients,  rinner =    1.000   1.000   1.000
                                                       1.000   1.000

     PseudoPot. # 2 for O  read from file:
     /storage/coda1/p-amedford6/0/shared/rich_project_chbe-medford/medford-share/data/pseudos_module/espresso/nninc/pbe/van/O.UPF
     MD5 check sum: 78c19812648e8988a0fe644b0f25305e
     Pseudo is Ultrasoft, Zval =  6.0
     Generated by new atomic code, or converted to UPF format
     Using radial grid of  737 points,  4 beta functions with:
                l(1) =   0
                l(2) =   0
                l(3) =   1
                l(4) =   1
     Q(r) pseudized with  8 coefficients,  rinner =    0.800   0.800   0.800

     PseudoPot. # 3 for N  read from file:
     /storage/coda1/p-amedford6/0/shared/rich_project_chbe-medford/medford-share/data/pseudos_module/espresso/nninc/pbe/van/N.UPF
     MD5 check sum: 90d10febe142ad51ac9d5be1deb811c4
     Pseudo is Ultrasoft, Zval =  5.0
     Generated by new atomic code, or converted to UPF format
     Using radial grid of  729 points,  4 beta functions with:
                l(1) =   0
                l(2) =   0
                l(3) =   1
                l(4) =   1
     Q(r) pseudized with  8 coefficients,  rinner =    0.800   0.800   0.800

     PseudoPot. # 4 for C  read from file:
     /storage/coda1/p-amedford6/0/shared/rich_project_chbe-medford/medford-share/data/pseudos_module/espresso/nninc/pbe/van/C.UPF
     MD5 check sum: 1a69bf6b8db32088f5b2163dbdb77a27
     Pseudo is Ultrasoft, Zval =  4.0
     Generated by new atomic code, or converted to UPF format
     Using radial grid of  721 points,  4 beta functions with:
                l(1) =   0
                l(2) =   0
                l(3) =   1
                l(4) =   1
     Q(r) pseudized with  8 coefficients,  rinner =    0.800   0.800   0.800

     PseudoPot. # 5 for H  read from file:
     /storage/coda1/p-amedford6/0/shared/rich_project_chbe-medford/medford-share/data/pseudos_module/espresso/nninc/pbe/van/H.UPF
     MD5 check sum: b5ee9d7bfd3a09ee7748110bda690ff7
     Pseudo is Ultrasoft, Zval =  1.0
     Generated by new atomic code, or converted to UPF format
     Using radial grid of  615 points,  1 beta functions with:
                l(1) =   0
     Q(r) pseudized with  8 coefficients,  rinner =    0.800

     atomic species   valence    mass     pseudopotential
        Ti1           12.00    47.86700     Ti( 1.00)
        O1             6.00    15.99900     O ( 1.00)
        N1             5.00    14.00700     N ( 1.00)
        C1             4.00    12.01100     C ( 1.00)
        H1             1.00     1.00800     H ( 1.00)

     No symmetry found

   Cartesian axes

     site n.     atom                  positions (alat units)
         1           Ti1 tau(   1) = (   0.0004258   2.9801865   6.0000000  )
         2           Ti1 tau(   2) = (   3.2906075   1.4906267   6.0002472  )
         3           O1  tau(   3) = (   0.0006271   0.0005054   7.9858123  )
         4           O1  tau(   4) = (   3.2906025   0.0005020   7.3038282  )
         5           O1  tau(   5) = (   4.5942328   1.4918067   9.2879030  )
         6           O1  tau(   6) = (   1.9868534   1.4903216   9.2879459  )
         7           Ti1 tau(   7) = (   3.2907910   2.8959150   9.1758416  )
         8           Ti1 tau(   8) = (   0.0015273   1.4827037   9.2680791  )
         9           O1  tau(   9) = (   3.3037365   0.0094216  11.3222111  )
        10           O1  tau(  10) = (   0.0116148   5.9584955  10.6183126  )
        11           O1  tau(  11) = (   1.3152514   1.5075076  12.6320051  )
        12           O1  tau(  12) = (   5.3186361   1.4995162  12.6508707  )
        13           Ti1 tau(  13) = (   6.5540705   2.9956815  12.5884341  )
        14           Ti1 tau(  14) = (   3.2234832   1.4927074  12.4921739  )
        15           O1  tau(  15) = (   0.0610261   5.9052480  14.6017706  )
        16           O1  tau(  16) = (   3.2936532   0.0132264  13.8830087  )
        17           O1  tau(  17) = (   4.5722397   1.5061520  16.0138922  )
        18           O1  tau(  18) = (   2.0767725   1.5295127  16.0808449  )
        19           Ti1 tau(  19) = (   3.3650854   3.0251465  15.6907462  )
        20           Ti1 tau(  20) = (   0.0387768   1.3037779  15.7216176  )
        21           O1  tau(  21) = (   3.2904802   0.0005063   4.7018136  )
        22           O1  tau(  22) = (   0.0189486   0.1070799  17.1824039  )
        23           O1  tau(  23) = (   1.3043587   1.4918075   6.0039043  )
        24           O1  tau(  24) = (   5.2767064   1.4903225   6.0039473  )
        25           Ti1 tau(  25) = (   0.0000382   5.9609847   6.0000000  )
        26           Ti1 tau(  26) = (   3.2902200   4.4714249   6.0002472  )
        27           O1  tau(  27) = (   0.0002396   2.9813036   7.9858123  )
        28           O1  tau(  28) = (   3.2902150   2.9813002   7.3038282  )
        29           O1  tau(  29) = (   4.5938453   4.4726049   9.2879030  )
        30           O1  tau(  30) = (   1.9864658   4.4711199   9.2879459  )
        31           Ti1 tau(  31) = (   3.2891106   5.8743827   9.1763621  )
        32           Ti1 tau(  32) = (   0.0006254   4.4649316   9.2693709  )
        33           O1  tau(  33) = (   3.3043114   2.9829305  11.3227053  )
        34           O1  tau(  34) = (   0.0092240   2.9805883  10.6323155  )
        35           O1  tau(  35) = (   1.3131995   4.4620516  12.6081187  )
        36           O1  tau(  36) = (   5.3117129   4.4692194  12.6284301  )
        37           Ti1 tau(  37) = (   6.5303063   5.9583428  12.5400172  )
        38           Ti1 tau(  38) = (   3.2255477   4.4746212  12.4748647  )
        39           O1  tau(  39) = (   0.0377805   3.0059521  14.8845374  )
        40           O1  tau(  40) = (   3.3120027   2.9986483  13.8863452  )
        41           O1  tau(  41) = (   4.5434534   4.5277214  16.0148975  )
        42           O1  tau(  42) = (   2.1165747   4.4940517  16.0783766  )
        43           Ti1 tau(  43) = (   3.3042555   0.0241951  15.7004812  )
        44           Ti1 tau(  44) = (   0.0495666   4.4505358  16.3362958  )
        45           O1  tau(  45) = (   3.2900926   2.9813045   4.7018136  )
        46           O1  tau(  46) = (   1.3039711   4.4726057   6.0039043  )
        47           O1  tau(  47) = (   5.2763189   4.4711207   6.0039473  )
        48           N1  tau(  48) = (   0.5348212   3.4288502  18.0689430  )
        49           C1  tau(  49) = (   1.3656880   3.0079929  19.2215664  )
        50           H1  tau(  50) = (   1.4862090   3.8900195  19.8496782  )
        51           H1  tau(  51) = (   0.8469181   2.2141957  19.7647163  )
        52           H1  tau(  52) = (   2.3296892   2.6851793  18.8624704  )
        53           N1  tau(  53) = (   5.9145885   3.2636146  17.9655992  )

     number of k points=    10  Fermi-Dirac smearing, width (Ry)=  0.0073
                       cart. coord. in units 2pi/alat
        k(    1) = (   0.0000000   0.0000000   0.0000000), wk =   0.1250000
        k(    2) = (   0.0000000   0.0419351   0.0000000), wk =   0.2500000
        k(    3) = (   0.0000000  -0.0838702   0.0000000), wk =   0.1250000
        k(    4) = (   0.0379955   0.0000049   0.0000000), wk =   0.2500000
        k(    5) = (   0.0379955   0.0419400   0.0000000), wk =   0.2500000
        k(    6) = (   0.0379955  -0.0838652   0.0000000), wk =   0.2500000
        k(    7) = (   0.0379955  -0.0419301   0.0000000), wk =   0.2500000
        k(    8) = (  -0.0759910  -0.0000099   0.0000000), wk =   0.1250000
        k(    9) = (  -0.0759910   0.0419252   0.0000000), wk =   0.2500000
        k(   10) = (  -0.0759910  -0.0838800   0.0000000), wk =   0.1250000

     Initial potential from superposition of free atoms

     starting charge  378.99916, renormalised to  395.00000

     negative rho (up, down):  1.610E-02 0.000E+00

     %%%%%%%%%%%%%%%%%%%%%%%%%%%%%%%%%%%%%%%%%%%%%%%%%%%%%%%%%%%%%%%%%%%%%%%%
     %                                                                      %
     % You are using vdW-DF, which was implemented by the Thonhauser group. %
     % Please cite the following two papers that made this development      %
     % possible and the two reviews that describe the various versions:     %
     %                                                                      %
     %   T. Thonhauser et al., PRL 115, 136402 (2015).                      %
     %   T. Thonhauser et al., PRB 76, 125112 (2007).                       %
     %   K. Berland et al., Rep. Prog. Phys. 78, 066501 (2015).             %
     %   D.C. Langreth et al., J. Phys.: Condens. Matter 21, 084203 (2009). %
     %                                                                      %
     %                                                                      %
     % If you are calculating the stress with vdW-DF, please also cite:     %
     %                                                                      %
     %   R. Sabatini et al., J. Phys.: Condens. Matter 24, 424209 (2012).   %
     %                                                                      %
     %%%%%%%%%%%%%%%%%%%%%%%%%%%%%%%%%%%%%%%%%%%%%%%%%%%%%%%%%%%%%%%%%%%%%%%%

     Adding external electric field

     Computed dipole along edir(3) :
        Dipole               -8.5786 Ry au,        -21.8047 Debye
        Dipole field         -0.0162 Ry au,

        Potential amp.        1.5007 Ry
        Total length         46.3494 bohr

     Starting wfcs are  299 atomic wfcs
  @ DRIVER MODE: Message from server: STATUS
  @ DRIVER MODE: Message from server: POSDATA
  @ DRIVER MODE: Reading and sharing cell
  @ DRIVER MODE: Reading and sharing positions
  @ DRIVER MODE: Received positions

     Self-consistent Calculation

     iteration #  1     ecut=    29.40 Ry     beta= 0.05
     Davidson diagonalization with overlap
     c_bands:  1 eigenvalues not converged
     c_bands:  2 eigenvalues not converged
     c_bands:  1 eigenvalues not converged
     c_bands:  3 eigenvalues not converged
     c_bands:  1 eigenvalues not converged
     c_bands:  2 eigenvalues not converged
     c_bands:  2 eigenvalues not converged
     c_bands:  2 eigenvalues not converged
     ethr =  1.00E-05,  avg # of iterations = 19.2

[...]

     total energy              =   -2599.37656476 Ry
     estimated scf accuracy    <    3763.42580652 Ry

     iteration #  2     ecut=    29.40 Ry     beta= 0.05
     Davidson diagonalization with overlap
     ethr =  1.00E-02,  avg # of iterations = 22.1

[...]

     iteration # 52     ecut=    29.40 Ry     beta= 0.05
     Davidson diagonalization with overlap
     c_bands:  1 eigenvalues not converged
     ethr =  9.84E-10,  avg # of iterations = 14.0

[...]

     total energy              =   -2939.12523484 Ry
     estimated scf accuracy    <       0.00000012 Ry

     iteration # 61     ecut=    29.40 Ry     beta= 0.05
     Davidson diagonalization with overlap
     ethr =  3.12E-11,  avg # of iterations =  7.8

     negative rho (up, down):  1.617E-02 0.000E+00

     Adding external electric field

     Computed dipole along edir(3) :
        Dipole                0.9122 Ry au,          2.3187 Debye
        Dipole field          0.0017 Ry au,

        Potential amp.       -0.1596 Ry
        Total length         46.3494 bohr

     End of self-consistent calculation

          k = 0.0000 0.0000 0.0000 ( 18029 PWs)   bands (ev):

   -55.7756 -55.7696 -55.7415 -55.7337 -55.6832 -55.6349 -55.5962 -55.5622
   -55.5553 -55.5216 -55.5197 -55.4468 -54.9558 -54.8049 -54.7557 -54.7217
   -32.3185 -32.2596 -32.1745 -32.0957 -32.0678 -32.0561 -32.0472 -32.0209
   -32.0056 -31.9703 -31.9400 -31.9279 -31.9215 -31.9046 -31.8826 -31.8814
   -31.8787 -31.8782 -31.8650 -31.8349 -31.8327 -31.8214 -31.8006 -31.7916
   -31.7886 -31.7821 -31.7810 -31.7553 -31.7412 -31.7360 -31.7253 -31.7104
   -31.7065 -31.6691 -31.6364 -31.5641 -31.4918 -31.3373 -31.1672 -31.1626
   -31.1031 -31.0746 -31.0646 -31.0522 -30.9797 -30.9110 -30.8932 -30.7818
   -19.4259 -16.5172 -16.2523 -15.9670 -15.9153 -15.8411 -15.7477 -15.6246
   -15.5289 -15.4104 -15.3715 -15.3153 -15.3080 -15.2637 -15.2366 -15.2326
   -15.2061 -15.1981 -15.1341 -15.1265 -15.0761 -15.0644 -15.0163 -14.9817
   -14.9698 -14.9147 -14.8459 -14.8041 -14.6859 -14.1594 -13.2573 -13.1409
   -12.2956  -7.2500  -4.9398  -4.7783  -3.8995  -3.7570  -3.6925  -3.6848
    -3.6402  -3.4406  -3.3552  -3.2841  -3.0441  -2.9526  -2.9281  -2.9175
    -2.8685  -2.7139  -2.6810  -2.6067  -2.5902  -2.5621  -2.5405  -2.5322
    -2.4967  -2.4867  -2.4596  -2.4318  -2.3264  -2.2128  -2.1847  -2.1071
    -2.0904  -2.0759  -2.0445  -2.0355  -2.0249  -2.0152  -1.9968  -1.9595
    -1.8991  -1.8521  -1.7876  -1.7030  -1.5621  -1.5396  -1.4608  -1.3850
    -1.3050  -1.2627  -1.2407  -1.2124  -1.1727  -1.0931  -1.0670  -0.9209
    -0.8240  -0.7908  -0.7738  -0.7309  -0.6952  -0.5930  -0.5713  -0.5421
    -0.5331  -0.5054  -0.4317  -0.3751  -0.2433  -0.2126  -0.2087  -0.1710
    -0.1003  -0.0465   0.0070   0.0563   0.0640   0.0998   0.1599   0.1851
     0.1900   0.2327   0.2751   0.3498   0.3761   0.4501   0.4542   0.5185
     0.5621   0.6441   0.7514   0.8735   1.0170   1.1541   1.1984   1.2674
     1.3629   1.4593   1.8376   1.8832   2.1475   3.3378   3.4449   3.4685
     3.4806   3.5873   3.7959   3.8183   3.8674   3.8878   3.8960

[...]

          k = 0.0380-0.0419 0.0000 ( 17876 PWs)   bands (ev):

[...]

          k =-0.0760-0.0000 0.0000 ( 17886 PWs)   bands (ev):

[...]

          k =-0.0760-0.0839 0.0000 ( 17948 PWs)   bands (ev):

   -55.7585 -55.7585 -55.7523 -55.7508 -55.6759 -55.6421 -55.5792 -55.5788
   -55.5387 -55.5383 -55.5152 -55.4511 -54.9545 -54.8061 -54.7386 -54.7386
   -32.1221 -32.1185 -32.0749 -32.0749 -32.0533 -32.0532 -32.0194 -32.0047
   -31.9984 -31.9897 -31.9209 -31.9157 -31.9048 -31.8985 -31.8820 -31.8797
   -31.8791 -31.8778 -31.8775 -31.8724 -31.8539 -31.8511 -31.8499 -31.8138
   -31.7845 -31.7823 -31.7806 -31.7682 -31.7679 -31.7586 -31.7576 -31.7559
   -31.7546 -31.7366 -31.7120 -31.6611 -31.4393 -31.3191 -31.1690 -31.1579
   -31.0811 -31.0650 -31.0649 -30.9754 -30.9753 -30.9365 -30.9364 -30.9139
   -19.4237 -15.9177 -15.9115 -15.7500 -15.7155 -15.6499 -15.6411 -15.5732
   -15.5061 -15.4614 -15.4564 -15.3413 -15.3392 -15.3247 -15.3030 -15.2488
   -15.2326 -15.2313 -15.2277 -15.2199 -15.2084 -15.1807 -15.1501 -15.0994
   -15.0944 -15.0739 -15.0633 -14.9418 -14.5312 -14.4699 -13.2427 -13.2427
   -12.2981  -7.2364  -4.9421  -4.7755  -3.6162  -3.2069  -3.1905  -3.0026
    -2.9193  -2.9083  -2.8929  -2.7572  -2.7313  -2.7113  -2.6646  -2.6519
    -2.6374  -2.6003  -2.5843  -2.5603  -2.5202  -2.5147  -2.4666  -2.4643
    -2.4489  -2.4329  -2.4085  -2.4031  -2.3894  -2.3746  -2.3371  -2.2815
    -2.2426  -2.2159  -2.1874  -2.0910  -2.0300  -1.9941  -1.9270  -1.9184
    -1.8674  -1.8428  -1.8283  -1.7654  -1.6920  -1.6628  -1.5781  -1.4864
    -1.4678  -1.4526  -1.3337  -1.3199  -1.2447  -1.2213  -1.1374  -1.1204
    -1.0807  -0.9702  -0.9467  -0.9155  -0.8807  -0.8368  -0.7732  -0.7363
    -0.7344  -0.6859  -0.6415  -0.5856  -0.5242  -0.5122  -0.4969  -0.4881
    -0.4245  -0.3911  -0.3691  -0.2865  -0.2715  -0.1897  -0.0460  -0.0131
     0.1447   0.1938   0.3024   0.3300   0.4209   0.4426   0.5366   0.5398
     0.5724   0.7017   0.7206   0.7382   0.7542   0.7742   0.7981   0.9370
     1.6317   1.6318   1.7033   1.7034   2.0856   3.6708   3.7078   3.7579
     3.7798   3.8839   3.8889   3.8916   3.8993   4.0207   4.0216

     the Fermi energy is     3.3513 ev

!    total energy              =   -2939.12527559 Ry
     estimated scf accuracy    <       0.00000004 Ry
     smearing contrib. (-TS)   =      -0.02052705 Ry
     internal energy E=F+TS    =   -2939.10474854 Ry

     The total energy is F=E-TS. E is the sum of the following terms:
     one-electron contribution =  -24213.23910549 Ry
     hartree contribution      =   12195.35504311 Ry
     xc contribution           =    -485.19855217 Ry
     ewald contribution        =    9563.97629556 Ry
     electric field correction =       0.00157045 Ry

     convergence has been achieved in  61 iterations

     Forces acting on atoms (cartesian axes, Ry/au):

     atom    1 type  1   force =     0.00011261   -0.00019861    0.09587825
     atom    2 type  1   force =     0.00006156   -0.00062017   -0.17549390
     atom    3 type  2   force =     0.00017540   -0.00019469   -0.02303513
     atom    4 type  2   force =     0.00004071   -0.00128384    0.05261902
     atom    5 type  2   force =    -0.00977827   -0.00031277    0.00253696
     atom    6 type  2   force =     0.01166343    0.00022795    0.00291650
     atom    7 type  1   force =     0.00088909    0.00001931   -0.00991631
     atom    8 type  1   force =    -0.00000416    0.00532066    0.01818646
     atom    9 type  2   force =    -0.00001825   -0.00029056   -0.00008035
     atom   10 type  2   force =    -0.00253779    0.00216309   -0.01349803
     atom   11 type  2   force =    -0.00097732    0.00011571    0.00016687
     atom   12 type  2   force =     0.00040525   -0.00025117    0.00048456
     atom   13 type  1   force =     0.00010957   -0.00008329    0.00052527
     atom   14 type  1   force =    -0.00004919   -0.00016503   -0.00017058
     atom   15 type  2   force =    -0.00057370    0.00030040    0.00042558
     atom   16 type  2   force =    -0.00043542    0.00007785    0.00021102
     atom   17 type  2   force =    -0.00016957   -0.00006533   -0.00030311
     atom   18 type  2   force =     0.00032703    0.00023847    0.00012452
     atom   19 type  1   force =    -0.00060862   -0.00054052    0.00060986
     atom   20 type  1   force =    -0.00026437    0.00030291   -0.00074910
     atom   21 type  2   force =     0.00007214   -0.00006105    0.10321044
     atom   22 type  2   force =     0.00008531   -0.00001802   -0.00045508
     atom   23 type  2   force =    -0.07154844   -0.00018996   -0.02753364
     atom   24 type  2   force =     0.07152508    0.00030894   -0.02759284
     atom   25 type  1   force =     0.00013330   -0.00029276    0.09520733
     atom   26 type  1   force =     0.00009030   -0.00046379   -0.17563766
     atom   27 type  2   force =     0.00015823   -0.00011896   -0.02178149
     atom   28 type  2   force =     0.00008136   -0.00106450    0.05249346
     atom   29 type  2   force =    -0.01015735    0.00023769    0.00291453
     atom   30 type  2   force =     0.01197551    0.00052392    0.00328947
     atom   31 type  1   force =     0.00088766    0.00415957   -0.01179013
     atom   32 type  1   force =     0.00011585   -0.00634777    0.01831538
     atom   33 type  2   force =     0.00016289    0.00041870   -0.00007978
     atom   34 type  2   force =    -0.00308708   -0.00010031   -0.00867600
     atom   35 type  2   force =    -0.00021532    0.00006101    0.00000633
     atom   36 type  2   force =    -0.00002075    0.00027665   -0.00006832
     atom   37 type  1   force =     0.00045932   -0.00094368    0.00021309
     atom   38 type  1   force =    -0.00033308    0.00007811    0.00032588
     atom   39 type  2   force =     0.00010096   -0.00030241    0.00054024
     atom   40 type  2   force =    -0.00008532    0.00026615    0.00017155
     atom   41 type  2   force =     0.00001294   -0.00018877   -0.00014837
     atom   42 type  2   force =    -0.00040073    0.00011741   -0.00038166
     atom   43 type  1   force =     0.00023370    0.00045646    0.00006562
     atom   44 type  1   force =    -0.00009601   -0.00076776   -0.00090007
     atom   45 type  2   force =     0.00008163   -0.00006499    0.10314218
     atom   46 type  2   force =    -0.07156069   -0.00009908   -0.02752468
     atom   47 type  2   force =     0.07154704    0.00025386   -0.02759240
     atom   48 type  3   force =     0.00295920   -0.00077236    0.00044766
     atom   49 type  4   force =    -0.01974449   -0.00090414    0.00298306
     atom   50 type  5   force =     0.00196435    0.00110323    0.00045893
     atom   51 type  5   force =     0.00339283    0.00310239   -0.00237813
     atom   52 type  5   force =     0.01010667   -0.00355212   -0.00414059
     atom   53 type  3   force =     0.00273501    0.00012792    0.00145735

     Total force =     0.365534     Total SCF correction =     0.000651
  @ DRIVER MODE: Message from server: STATUS
  @ DRIVER MODE: Message from server: GETFORCE
  @ DRIVER MODE: Returning v,forces,stress,ensemble

     Writing output data file ./calc.save/
  @ DRIVER MODE: Message from server: EXIT
  @ DRIVE MODE: Exiting

     General routines

     Parallel routines

   This run was terminated on:  15: 9:59   2Aug2021

   JOB DONE.