     Program PWSCF v.6.7GPU starts on  2Aug2021 at 14:16:20

     R & G space division:  proc/nbgrp/npool/nimage =      16
     Reading input from /storage/home/hcoda1/3/ntian30/research/carbon/02Aug_vib_paired/ads_slab/CH3NH3_a/out_0007/pw.inp
Warning: card &CELL ignored
Warning: card   CELL_DYNAMICS='IPI', ignored
Warning: card / ignored

     Current dimensions of program PWSCF are:
     Max number of different atomic species (ntypx) = 10
     Max number of k-points (npk) =  40000
     Max angular momentum in pseudopotentials (lmaxx) =  3
     Presently no symmetry can be used with electric field

     Message from routine cell_base_init:
     DEPRECATED: use true lattice parameter, not A to a.u. conversion factor

     IMPORTANT: XC functional enforced from input :
     Exchange-correlation= BEEF-VDW
                           (   1   4  43  14   2   0   0)
     Any further DFT definition will be discarded
     Please, verify this is what you really want

  @ DRIVER MODE: Connecting to
 qe_1139763_2482539.sched-torque.pace.gatech.eduzg7kbvgl_scratch
  using UNIX socket
  @ DRIVER MODE: Message from server: STATUS
  @ DRIVER MODE: Message from server: INIT
  @ DRIVER MODE: Receiving replica           0          -1
  @ DRIVER MODE: Receiving encoded integer          25
  @ DRIVER MODE:  SCF:  T  FORCE:  T  STRESS:  F  VC:  F  ENSEMBLE:  F
  @ DRIVER MODE:  SCF:  T  FORCE:  T  STRESS:  F  VC:  F  ENSEMBLE:  F

     Using Slab Decomposition

     bravais-lattice index     =            0
     lattice parameter (alat)  =       1.8897  a.u.
     unit-cell volume          =    6658.9804 (a.u.)^3
     number of atoms/cell      =           55
     number of atomic types    =            5
     number of electrons       =       393.00
     number of Kohn-Sham states=          206
     kinetic-energy cutoff     =      29.3995  Ry
     charge density cutoff     =     293.9946  Ry
     scf convergence threshold =      7.3E-08
     mixing beta               =       0.0500
     number of iterations used =            8  plain     mixing
     Exchange-correlation= BEEF-VDW
                           (   1   4  43  14   2   0   0)

     celldm(1)=   1.889726  celldm(2)=   0.000000  celldm(3)=   0.000000
     celldm(4)=   0.000000  celldm(5)=   0.000000  celldm(6)=   0.000000

     crystal axes: (cart. coord. in units of alat)
               a(1) = (   6.579727   0.000000   0.000000 )
               a(2) = (  -0.000775   5.961596   0.000000 )
               a(3) = (   0.000000   0.000000  25.155947 )

     reciprocal axes: (cart. coord. in units 2 pi/alat)
               b(1) = (  0.151982  0.000020  0.000000 )
               b(2) = (  0.000000  0.167740  0.000000 )
               b(3) = (  0.000000  0.000000  0.039752 )

     PseudoPot. # 1 for Ti read from file:
     /storage/coda1/p-amedford6/0/shared/rich_project_chbe-medford/medford-share/data/pseudos_module/espresso/nninc/pbe/van/Ti.UPF
     MD5 check sum: 8e4df49b7f0d34bbd5052bf3f5ea0213
     Pseudo is Ultrasoft, Zval = 12.0
     Generated by new atomic code, or converted to UPF format
     Using radial grid of  851 points,  6 beta functions with:
                l(1) =   0
                l(2) =   0
                l(3) =   1
                l(4) =   1
                l(5) =   2
                l(6) =   2
     Q(r) pseudized with  8 coefficients,  rinner =    1.000   1.000   1.000
                                                       1.000   1.000

     PseudoPot. # 2 for O  read from file:
     /storage/coda1/p-amedford6/0/shared/rich_project_chbe-medford/medford-share/data/pseudos_module/espresso/nninc/pbe/van/O.UPF
     MD5 check sum: 78c19812648e8988a0fe644b0f25305e
     Pseudo is Ultrasoft, Zval =  6.0
     Generated by new atomic code, or converted to UPF format
     Using radial grid of  737 points,  4 beta functions with:
                l(1) =   0
                l(2) =   0
                l(3) =   1
                l(4) =   1
     Q(r) pseudized with  8 coefficients,  rinner =    0.800   0.800   0.800

     PseudoPot. # 3 for C  read from file:
     /storage/coda1/p-amedford6/0/shared/rich_project_chbe-medford/medford-share/data/pseudos_module/espresso/nninc/pbe/van/C.UPF
     MD5 check sum: 1a69bf6b8db32088f5b2163dbdb77a27
     Pseudo is Ultrasoft, Zval =  4.0
     Generated by new atomic code, or converted to UPF format
     Using radial grid of  721 points,  4 beta functions with:
                l(1) =   0
                l(2) =   0
                l(3) =   1
                l(4) =   1
     Q(r) pseudized with  8 coefficients,  rinner =    0.800   0.800   0.800

     PseudoPot. # 4 for H  read from file:
     /storage/coda1/p-amedford6/0/shared/rich_project_chbe-medford/medford-share/data/pseudos_module/espresso/nninc/pbe/van/H.UPF
     MD5 check sum: b5ee9d7bfd3a09ee7748110bda690ff7
     Pseudo is Ultrasoft, Zval =  1.0
     Generated by new atomic code, or converted to UPF format
     Using radial grid of  615 points,  1 beta functions with:
                l(1) =   0
     Q(r) pseudized with  8 coefficients,  rinner =    0.800

     PseudoPot. # 5 for N  read from file:
     /storage/coda1/p-amedford6/0/shared/rich_project_chbe-medford/medford-share/data/pseudos_module/espresso/nninc/pbe/van/N.UPF
     MD5 check sum: 90d10febe142ad51ac9d5be1deb811c4
     Pseudo is Ultrasoft, Zval =  5.0
     Generated by new atomic code, or converted to UPF format
     Using radial grid of  729 points,  4 beta functions with:
                l(1) =   0
                l(2) =   0
                l(3) =   1
                l(4) =   1
     Q(r) pseudized with  8 coefficients,  rinner =    0.800   0.800   0.800

     atomic species   valence    mass     pseudopotential
        Ti1           12.00    47.86700     Ti( 1.00)
        O1             6.00    15.99900     O ( 1.00)
        C1             4.00    12.01100     C ( 1.00)
        H1             1.00     1.00800     H ( 1.00)
        N1             5.00    14.00700     N ( 1.00)

     No symmetry found

   Cartesian axes

     site n.     atom                  positions (alat units)
         1           Ti1 tau(   1) = (   0.0004258   2.9801865   6.0000000  )
         2           Ti1 tau(   2) = (   3.2906075   1.4906267   6.0002472  )
         3           O1  tau(   3) = (   0.0006271   0.0005054   7.9858123  )
         4           O1  tau(   4) = (   3.2906025   0.0005020   7.3038282  )
         5           O1  tau(   5) = (   4.5942328   1.4918067   9.2879030  )
         6           O1  tau(   6) = (   1.9868534   1.4903216   9.2879459  )
         7           Ti1 tau(   7) = (   3.2907910   2.8959150   9.1758416  )
         8           Ti1 tau(   8) = (   0.0015273   1.4827037   9.2680791  )
         9           O1  tau(   9) = (   3.2981156   0.0012339  11.3300471  )
        10           O1  tau(  10) = (   0.0116148   5.9584955  10.6183126  )
        11           O1  tau(  11) = (   1.3033605   1.5036236  12.6199488  )
        12           O1  tau(  12) = (   5.2811161   1.5074500  12.6162500  )
        13           Ti1 tau(  13) = (   0.0407500   2.9455431  12.6352795  )
        14           Ti1 tau(  14) = (   3.3444429   1.4910927  12.4779025  )
        15           O1  tau(  15) = (   0.0052662   0.0451097  14.6026341  )
        16           O1  tau(  16) = (   3.2946143   0.0124870  13.9210852  )
        17           O1  tau(  17) = (   4.5465206   1.5046604  16.0624161  )
        18           O1  tau(  18) = (   2.0546879   1.5048301  16.0609706  )
        19           Ti1 tau(  19) = (   3.2991624   2.9918142  15.6995589  )
        20           Ti1 tau(  20) = (   6.5707204   1.4025535  15.8059435  )
        21           O1  tau(  21) = (   3.2904802   0.0005063   4.7018136  )
        22           O1  tau(  22) = (   0.0164654   0.0145536  17.1360041  )
        23           O1  tau(  23) = (   1.3043587   1.4918075   6.0039043  )
        24           O1  tau(  24) = (   5.2767064   1.4903225   6.0039473  )
        25           Ti1 tau(  25) = (   0.0000382   5.9609847   6.0000000  )
        26           Ti1 tau(  26) = (   3.2902200   4.4714249   6.0002472  )
        27           O1  tau(  27) = (   0.0002396   2.9813036   7.9858123  )
        28           O1  tau(  28) = (   3.2902150   2.9813002   7.3038282  )
        29           O1  tau(  29) = (   4.5938453   4.4726049   9.2879030  )
        30           O1  tau(  30) = (   1.9864658   4.4711199   9.2879459  )
        31           Ti1 tau(  31) = (   3.2891106   5.8743827   9.1763621  )
        32           Ti1 tau(  32) = (   0.0006254   4.4649316   9.2693709  )
        33           O1  tau(  33) = (   3.2977166   2.9913250  11.3287690  )
        34           O1  tau(  34) = (   0.0092240   2.9805883  10.6323155  )
        35           O1  tau(  35) = (   1.3008534   4.4801743  12.6308489  )
        36           O1  tau(  36) = (   5.2850400   4.4860598  12.6280017  )
        37           Ti1 tau(  37) = (   0.0409916   5.9178611  12.5441859  )
        38           Ti1 tau(  38) = (   3.3442415   4.4710906  12.4862270  )
        39           O1  tau(  39) = (   0.0109228   2.9791018  14.7123696  )
        40           O1  tau(  40) = (   3.2998940   2.9912248  13.9043662  )
        41           O1  tau(  41) = (   4.5474046   4.4713503  16.0779382  )
        42           O1  tau(  42) = (   2.0618872   4.4767818  16.0643778  )
        43           Ti1 tau(  43) = (   3.2722838   0.0128901  15.7174356  )
        44           Ti1 tau(  44) = (   6.5592075   4.4947239  16.1563676  )
        45           O1  tau(  45) = (   3.2900926   2.9813045   4.7018136  )
        46           O1  tau(  46) = (   1.3039711   4.4726057   6.0039043  )
        47           O1  tau(  47) = (   5.2763189   4.4711207   6.0039473  )
        48           C1  tau(  48) = (   0.0359503   3.0870652  17.8341721  )
        49           H1  tau(  49) = (   5.8042062   3.6010452  18.3763092  )
        50           H1  tau(  50) = (   6.4784518   2.0305676  18.0614951  )
        51           H1  tau(  51) = (   0.9863100   3.3782628  18.2908018  )
        52           N1  tau(  52) = (   4.7642638   1.7931862  21.6370373  )
        53           H1  tau(  53) = (   4.5527921   2.7808570  21.5386679  )
        54           H1  tau(  54) = (   4.1042548   1.2952780  21.0483319  )
        55           H1  tau(  55) = (   4.5435699   1.5432347  22.5953497  )

     number of k points=    10  Fermi-Dirac smearing, width (Ry)=  0.0073
                       cart. coord. in units 2pi/alat
        k(    1) = (   0.0000000   0.0000000   0.0000000), wk =   0.1250000
        k(    2) = (   0.0000000   0.0419351   0.0000000), wk =   0.2500000
        k(    3) = (   0.0000000  -0.0838702   0.0000000), wk =   0.1250000
        k(    4) = (   0.0379955   0.0000049   0.0000000), wk =   0.2500000
        k(    5) = (   0.0379955   0.0419400   0.0000000), wk =   0.2500000
        k(    6) = (   0.0379955  -0.0838652   0.0000000), wk =   0.2500000
        k(    7) = (   0.0379955  -0.0419301   0.0000000), wk =   0.2500000
        k(    8) = (  -0.0759910  -0.0000099   0.0000000), wk =   0.1250000
        k(    9) = (  -0.0759910   0.0419252   0.0000000), wk =   0.2500000
        k(   10) = (  -0.0759910  -0.0838800   0.0000000), wk =   0.1250000

     Initial potential from superposition of free atoms

     starting charge  376.99914, renormalised to  393.00000

     negative rho (up, down):  1.001E-02 0.000E+00

     %%%%%%%%%%%%%%%%%%%%%%%%%%%%%%%%%%%%%%%%%%%%%%%%%%%%%%%%%%%%%%%%%%%%%%%%
     %                                                                      %
     % You are using vdW-DF, which was implemented by the Thonhauser group. %
     % Please cite the following two papers that made this development      %
     % possible and the two reviews that describe the various versions:     %
     %                                                                      %
     %   T. Thonhauser et al., PRL 115, 136402 (2015).                      %
     %   T. Thonhauser et al., PRB 76, 125112 (2007).                       %
     %   K. Berland et al., Rep. Prog. Phys. 78, 066501 (2015).             %
     %   D.C. Langreth et al., J. Phys.: Condens. Matter 21, 084203 (2009). %
     %                                                                      %
     %                                                                      %
     % If you are calculating the stress with vdW-DF, please also cite:     %
     %                                                                      %
     %   R. Sabatini et al., J. Phys.: Condens. Matter 24, 424209 (2012).   %
     %                                                                      %
     %%%%%%%%%%%%%%%%%%%%%%%%%%%%%%%%%%%%%%%%%%%%%%%%%%%%%%%%%%%%%%%%%%%%%%%%

     Adding external electric field

     Computed dipole along edir(3) :
        Dipole               -9.0616 Ry au,        -23.0322 Debye
        Dipole field         -0.0171 Ry au,

        Potential amp.        1.5852 Ry
        Total length         46.3494 bohr

     Starting wfcs are  298 atomic wfcs
  @ DRIVER MODE: Message from server: STATUS
  @ DRIVER MODE: Message from server: POSDATA
  @ DRIVER MODE: Reading and sharing cell
  @ DRIVER MODE: Reading and sharing positions
  @ DRIVER MODE: Received positions

     Self-consistent Calculation

     iteration #  1     ecut=    29.40 Ry     beta= 0.05
     Davidson diagonalization with overlap
     c_bands:  1 eigenvalues not converged
     c_bands:  1 eigenvalues not converged
     c_bands:  1 eigenvalues not converged
     ethr =  1.00E-05,  avg # of iterations = 17.8

[...]

     total energy              =   -2692.43601155 Ry
     estimated scf accuracy    <    2566.26492932 Ry

[...]

     iteration #  3     ecut=    29.40 Ry     beta= 0.05
     Davidson diagonalization with overlap
     ethr =  1.00E-02,  avg # of iterations = 15.8

[...]

     iteration # 62     ecut=    29.40 Ry     beta= 0.05
     Davidson diagonalization with overlap
     c_bands:  1 eigenvalues not converged
     ethr =  9.72E-10,  avg # of iterations = 13.5

[...]

     total energy              =   -2922.78952331 Ry
     estimated scf accuracy    <       0.00000008 Ry

     iteration # 71     ecut=    29.40 Ry     beta= 0.05
     Davidson diagonalization with overlap
     ethr =  2.04E-11,  avg # of iterations = 11.3

     negative rho (up, down):  1.131E-02 0.000E+00

     Adding external electric field

     Computed dipole along edir(3) :
        Dipole                0.5490 Ry au,          1.3954 Debye
        Dipole field          0.0010 Ry au,

        Potential amp.       -0.0960 Ry
        Total length         46.3494 bohr

     End of self-consistent calculation

          k = 0.0000 0.0000 0.0000 ( 18029 PWs)   bands (ev):

   -56.0337 -56.0302 -55.9997 -55.9938 -55.9016 -55.8668 -55.8662 -55.8419
   -55.8232 -55.8079 -55.8030 -55.7693 -55.5681 -55.4015 -55.0094 -54.9753
   -32.5887 -32.5157 -32.3611 -32.3550 -32.3411 -32.3402 -32.3268 -32.2936
   -32.2763 -32.2396 -32.2336 -32.2330 -32.2097 -32.1860 -32.1735 -32.1672
   -32.1376 -32.1354 -32.1212 -32.0910 -32.0809 -32.0700 -32.0387 -32.0337
   -32.0293 -32.0274 -32.0132 -32.0118 -32.0053 -31.9797 -31.9795 -31.9769
   -31.9721 -31.9712 -31.9561 -31.9468 -31.9153 -31.8469 -31.7825 -31.6893
   -31.6298 -31.5190 -31.4164 -31.3283 -31.3058 -31.2331 -31.1467 -31.0356
   -16.7685 -16.5049 -16.2731 -16.1824 -16.1326 -16.0463 -15.8685 -15.7519
   -15.7038 -15.6029 -15.5700 -15.5504 -15.5336 -15.5034 -15.4952 -15.4700
   -15.4590 -15.4524 -15.4179 -15.3898 -15.3647 -15.3500 -15.2300 -15.1780
   -15.1618 -15.1309 -15.0826 -15.0663 -14.6115 -13.6551 -13.5120 -13.3956
    -9.0321  -4.1431  -3.9629  -3.9374  -3.8892  -3.8474  -3.7139  -3.6965
    -3.6447  -3.5846  -3.2665  -3.2097  -3.2014  -3.1607  -3.1461  -2.9872
    -2.9234  -2.8500  -2.8339  -2.8280  -2.8028  -2.7976  -2.7923  -2.7502
    -2.7080  -2.6508  -2.6276  -2.5597  -2.5152  -2.4437  -2.3710  -2.3434
    -2.3011  -2.2991  -2.2620  -2.2495  -2.2419  -2.2318  -2.1955  -2.1815
    -2.0011  -1.9526  -1.8795  -1.8167  -1.8011  -1.6382  -1.5315  -1.4832
    -1.4648  -1.4579  -1.4399  -1.4228  -1.3271  -1.2092  -1.1761  -1.1264
    -1.0788  -1.0304  -1.0003  -0.9000  -0.8836  -0.7922  -0.7790  -0.7604
    -0.6486  -0.6258  -0.4912  -0.4692  -0.4640  -0.4035  -0.3880  -0.3151
    -0.2910  -0.2344  -0.1694  -0.1573  -0.0890  -0.0630  -0.0596  -0.0032
     0.0015   0.0467   0.0621   0.1713   0.2267   0.2762   0.3301   0.4374
     0.5164   0.6309   0.6776   0.7369   0.9387   1.0123   1.1218   1.1844
     1.2054   1.4668   1.5836   1.6292   3.1048   3.1898   3.2114   3.2373
     3.3447   3.3696   3.5554   3.5719   3.6065   3.6262

[...]

          k = 0.0380-0.0419 0.0000 ( 17876 PWs)   bands (ev):

[...]

          k =-0.0760-0.0000 0.0000 ( 17886 PWs)   bands (ev):

[...]

          k =-0.0760-0.0839 0.0000 ( 17948 PWs)   bands (ev):

   -56.0172 -56.0161 -56.0148 -56.0091 -55.8867 -55.8816 -55.8579 -55.8317
   -55.8255 -55.8236 -55.7874 -55.7850 -55.5667 -55.4029 -54.9924 -54.9922
   -32.3945 -32.3882 -32.3313 -32.3306 -32.3126 -32.3117 -32.2933 -32.2887
   -32.2224 -32.2213 -32.2183 -32.2075 -32.1672 -32.1662 -32.1469 -32.1425
   -32.1383 -32.1367 -32.1356 -32.1276 -32.1266 -32.1237 -32.0881 -32.0776
   -32.0728 -32.0505 -32.0463 -32.0325 -32.0238 -32.0228 -32.0191 -32.0172
   -32.0019 -32.0005 -31.9963 -31.9901 -31.9248 -31.8299 -31.7847 -31.6920
   -31.6741 -31.5633 -31.3186 -31.3185 -31.2293 -31.2291 -31.1900 -31.1899
   -16.2104 -16.1874 -15.9808 -15.9467 -15.9430 -15.9362 -15.8052 -15.7249
   -15.7244 -15.6986 -15.6378 -15.6265 -15.6044 -15.5657 -15.5415 -15.5391
   -15.5205 -15.5155 -15.4891 -15.4791 -15.4661 -15.4588 -15.3664 -15.3467
   -15.3428 -15.2932 -15.1480 -15.0014 -14.8922 -13.6544 -13.4977 -13.4972
    -9.0464  -3.7161  -3.7074  -3.5066  -3.4753  -3.2326  -3.1946  -3.1814
    -3.1121  -2.9557  -2.9161  -2.8981  -2.8906  -2.8462  -2.8385  -2.8335
    -2.8215  -2.7936  -2.7767  -2.7402  -2.7339  -2.7179  -2.7105  -2.6991
    -2.6821  -2.6522  -2.6434  -2.6084  -2.6062  -2.5855  -2.5717  -2.5432
    -2.5379  -2.4105  -2.2520  -2.2281  -2.1674  -2.1600  -2.1142  -2.1008
    -2.0940  -2.0667  -2.0376  -2.0108  -1.8519  -1.7402  -1.7257  -1.7089
    -1.6400  -1.6126  -1.5268  -1.4372  -1.3962  -1.3781  -1.3099  -1.3058
    -1.2563  -1.2317  -1.2108  -1.1434  -1.0868  -1.0496  -0.9927  -0.9865
    -0.9785  -0.9082  -0.8661  -0.7910  -0.7823  -0.7451  -0.7102  -0.6551
    -0.6210  -0.6094  -0.5195  -0.4871  -0.3749  -0.3261  -0.0675  -0.0182
     0.0341   0.0617   0.1269   0.1850   0.1895   0.2866   0.2903   0.3277
     0.4061   0.4274   0.4984   0.5177   0.5675   0.7293   1.2799   1.3764
     1.3772   1.4486   1.4491   1.4574   3.4026   3.4143   3.4214   3.4660
     3.6113   3.6160   3.6347   3.6363   3.7748   3.7958

     the Fermi energy is     3.1013 ev

!    total energy              =   -2922.78953723 Ry
     estimated scf accuracy    <       0.00000005 Ry
     smearing contrib. (-TS)   =      -0.02169793 Ry
     internal energy E=F+TS    =   -2922.76783930 Ry

     The total energy is F=E-TS. E is the sum of the following terms:
     one-electron contribution =  -23651.28325095 Ry
     hartree contribution      =   11909.84748924 Ry
     xc contribution           =    -482.25843799 Ry
     ewald contribution        =    9300.92579165 Ry
     electric field correction =       0.00056875 Ry

     convergence has been achieved in  71 iterations

     Forces acting on atoms (cartesian axes, Ry/au):

     atom    1 type  1   force =     0.00004179   -0.00023006    0.09686568
     atom    2 type  1   force =    -0.00017088   -0.00054320   -0.17513031
     atom    3 type  2   force =     0.00001984   -0.00004611   -0.02502916
     atom    4 type  2   force =     0.00002905   -0.00139906    0.05266024
     atom    5 type  2   force =    -0.01205939   -0.00050862    0.00329508
     atom    6 type  2   force =     0.01378741    0.00008931    0.00269513
     atom    7 type  1   force =    -0.00058030    0.00056528   -0.01159619
     atom    8 type  1   force =     0.00020455    0.01201725    0.02898248
     atom    9 type  2   force =    -0.00029703    0.00057705    0.00059594
     atom   10 type  2   force =    -0.00153609    0.00252489   -0.01947166
     atom   11 type  2   force =    -0.00017738   -0.00037738   -0.00014815
     atom   12 type  2   force =    -0.00090851    0.00003075   -0.00030031
     atom   13 type  1   force =     0.00055089   -0.00096442    0.00110435
     atom   14 type  1   force =     0.00145677    0.00057333   -0.00069179
     atom   15 type  2   force =    -0.00013336   -0.00113059    0.00036828
     atom   16 type  2   force =    -0.00021150   -0.00020339   -0.00146652
     atom   17 type  2   force =    -0.00067147    0.00075751   -0.00000231
     atom   18 type  2   force =     0.00049312    0.00094788    0.00004466
     atom   19 type  1   force =    -0.00015874   -0.00112096    0.00053664
     atom   20 type  1   force =    -0.00011324    0.00047551   -0.00006696
     atom   21 type  2   force =     0.00004816   -0.00003930    0.10324228
     atom   22 type  2   force =     0.00029984   -0.00022340    0.00091602
     atom   23 type  2   force =    -0.07156166   -0.00014526   -0.02768083
     atom   24 type  2   force =     0.07145338    0.00027022   -0.02771344
     atom   25 type  1   force =     0.00004934   -0.00028294    0.09645756
     atom   26 type  1   force =    -0.00019354   -0.00030187   -0.17536037
     atom   27 type  2   force =     0.00008314   -0.00017367   -0.02381235
     atom   28 type  2   force =     0.00004477   -0.00114249    0.05273507
     atom   29 type  2   force =    -0.01210106    0.00085495    0.00276311
     atom   30 type  2   force =     0.01374522    0.00124246    0.00218127
     atom   31 type  1   force =    -0.00046951    0.00303022   -0.01245083
     atom   32 type  1   force =     0.00018960   -0.01423499    0.02939177
     atom   33 type  2   force =    -0.00023313   -0.00062914    0.00045137
     atom   34 type  2   force =    -0.00098440    0.00176202   -0.02267969
     atom   35 type  2   force =    -0.00067025   -0.00060122   -0.00012877
     atom   36 type  2   force =     0.00002489   -0.00014606   -0.00034089
     atom   37 type  1   force =     0.00065351    0.00026444    0.00057542
     atom   38 type  1   force =     0.00150824    0.00018995   -0.00068655
     atom   39 type  2   force =     0.00006106    0.00015302   -0.00129384
     atom   40 type  2   force =    -0.00035015   -0.00009981    0.00176006
     atom   41 type  2   force =    -0.00084071   -0.00104132   -0.00020005
     atom   42 type  2   force =     0.00025654   -0.00149147    0.00030426
     atom   43 type  1   force =     0.00025018    0.00066287    0.00104173
     atom   44 type  1   force =     0.00036105   -0.00024701    0.00079479
     atom   45 type  2   force =     0.00005802   -0.00009307    0.10322651
     atom   46 type  2   force =    -0.07154786   -0.00011379   -0.02768456
     atom   47 type  2   force =     0.07145329    0.00031628   -0.02771960
     atom   48 type  3   force =    -0.00611558    0.00392712    0.00250466
     atom   49 type  4   force =     0.00633764   -0.00350289   -0.00418724
     atom   50 type  4   force =    -0.00023118   -0.00063758    0.00096244
     atom   51 type  4   force =    -0.00150012    0.00034456    0.00031850
     atom   52 type  5   force =    -0.00006811   -0.00018776   -0.00037808
     atom   53 type  4   force =     0.00064896   -0.00002755   -0.00037024
     atom   54 type  4   force =     0.00006140    0.00018984   -0.00011199
     atom   55 type  4   force =    -0.00028648    0.00011969   -0.00007258

     Total force =     0.368542     Total SCF correction =     0.000964
  @ DRIVER MODE: Message from server: STATUS
  @ DRIVER MODE: Message from server: GETFORCE
  @ DRIVER MODE: Returning v,forces,stress,ensemble

     Writing output data file ./calc.save/
  @ DRIVER MODE: Message from server: EXIT
  @ DRIVE MODE: Exiting

     General routines

     Parallel routines

   This run was terminated on:  15: 0: 5   2Aug2021

   JOB DONE.