     Program PWSCF v.6.7GPU starts on 24Aug2021 at 18:27: 4

     R & G space division:  proc/nbgrp/npool/nimage =       6
     Reading input from /storage/home/hcoda1/3/ntian30/research/carbon/CH3_vib_end_on/ads_slab/CH3N2H_a/out_0004/pw.inp
Warning: card &CELL ignored
Warning: card   CELL_DYNAMICS='IPI', ignored
Warning: card / ignored

     Current dimensions of program PWSCF are:
     Max number of different atomic species (ntypx) = 10
     Max number of k-points (npk) =  40000
     Max angular momentum in pseudopotentials (lmaxx) =  3
     Presently no symmetry can be used with electric field

     Message from routine cell_base_init:
     DEPRECATED: use true lattice parameter, not A to a.u. conversion factor

     IMPORTANT: XC functional enforced from input :
     Exchange-correlation= BEEF-VDW
                           (   1   4  43  14   2   0   0)
     Any further DFT definition will be discarded
     Please, verify this is what you really want

  @ DRIVER MODE: Connecting to
 qe_1139763_2643869.sched-torque.pace.gatech.eduy0fostsj_scratch
  using UNIX socket
  @ DRIVER MODE: Message from server: STATUS
  @ DRIVER MODE: Message from server: INIT
  @ DRIVER MODE: Receiving replica           0          -1
  @ DRIVER MODE: Receiving encoded integer          25
  @ DRIVER MODE:  SCF:  T  FORCE:  T  STRESS:  F  VC:  F  ENSEMBLE:  F
  @ DRIVER MODE:  SCF:  T  FORCE:  T  STRESS:  F  VC:  F  ENSEMBLE:  F

     Using Slab Decomposition

     bravais-lattice index     =            0
     lattice parameter (alat)  =       1.8897  a.u.
     unit-cell volume          =    6658.9804 (a.u.)^3
     number of atoms/cell      =           54
     number of atomic types    =            5
     number of electrons       =       396.00
     number of Kohn-Sham states=          208
     kinetic-energy cutoff     =      29.3995  Ry
     charge density cutoff     =     293.9946  Ry
     scf convergence threshold =      7.3E-08
     mixing beta               =       0.0500
     number of iterations used =            8  plain     mixing
     Exchange-correlation= BEEF-VDW
                           (   1   4  43  14   2   0   0)

     celldm(1)=   1.889726  celldm(2)=   0.000000  celldm(3)=   0.000000
     celldm(4)=   0.000000  celldm(5)=   0.000000  celldm(6)=   0.000000

     crystal axes: (cart. coord. in units of alat)
               a(1) = (   6.579727   0.000000   0.000000 )
               a(2) = (  -0.000775   5.961596   0.000000 )
               a(3) = (   0.000000   0.000000  25.155947 )

     reciprocal axes: (cart. coord. in units 2 pi/alat)
               b(1) = (  0.151982  0.000020  0.000000 )
               b(2) = (  0.000000  0.167740  0.000000 )
               b(3) = (  0.000000  0.000000  0.039752 )

     PseudoPot. # 1 for Ti read from file:
     /storage/coda1/p-amedford6/0/shared/rich_project_chbe-medford/medford-share/data/pseudos_module/espresso/nninc/pbe/van/Ti.UPF
     MD5 check sum: 8e4df49b7f0d34bbd5052bf3f5ea0213
     Pseudo is Ultrasoft, Zval = 12.0
     Generated by new atomic code, or converted to UPF format
     Using radial grid of  851 points,  6 beta functions with:
                l(1) =   0
                l(2) =   0
                l(3) =   1
                l(4) =   1
                l(5) =   2
                l(6) =   2
     Q(r) pseudized with  8 coefficients,  rinner =    1.000   1.000   1.000
                                                       1.000   1.000

     PseudoPot. # 2 for O  read from file:
     /storage/coda1/p-amedford6/0/shared/rich_project_chbe-medford/medford-share/data/pseudos_module/espresso/nninc/pbe/van/O.UPF
     MD5 check sum: 78c19812648e8988a0fe644b0f25305e
     Pseudo is Ultrasoft, Zval =  6.0
     Generated by new atomic code, or converted to UPF format
     Using radial grid of  737 points,  4 beta functions with:
                l(1) =   0
                l(2) =   0
                l(3) =   1
                l(4) =   1
     Q(r) pseudized with  8 coefficients,  rinner =    0.800   0.800   0.800

     PseudoPot. # 3 for N  read from file:
     /storage/coda1/p-amedford6/0/shared/rich_project_chbe-medford/medford-share/data/pseudos_module/espresso/nninc/pbe/van/N.UPF
     MD5 check sum: 90d10febe142ad51ac9d5be1deb811c4
     Pseudo is Ultrasoft, Zval =  5.0
     Generated by new atomic code, or converted to UPF format
     Using radial grid of  729 points,  4 beta functions with:
                l(1) =   0
                l(2) =   0
                l(3) =   1
                l(4) =   1
     Q(r) pseudized with  8 coefficients,  rinner =    0.800   0.800   0.800

     PseudoPot. # 4 for C  read from file:
     /storage/coda1/p-amedford6/0/shared/rich_project_chbe-medford/medford-share/data/pseudos_module/espresso/nninc/pbe/van/C.UPF
     MD5 check sum: 1a69bf6b8db32088f5b2163dbdb77a27
     Pseudo is Ultrasoft, Zval =  4.0
     Generated by new atomic code, or converted to UPF format
     Using radial grid of  721 points,  4 beta functions with:
                l(1) =   0
                l(2) =   0
                l(3) =   1
                l(4) =   1
     Q(r) pseudized with  8 coefficients,  rinner =    0.800   0.800   0.800

     PseudoPot. # 5 for H  read from file:
     /storage/coda1/p-amedford6/0/shared/rich_project_chbe-medford/medford-share/data/pseudos_module/espresso/nninc/pbe/van/H.UPF
     MD5 check sum: b5ee9d7bfd3a09ee7748110bda690ff7
     Pseudo is Ultrasoft, Zval =  1.0
     Generated by new atomic code, or converted to UPF format
     Using radial grid of  615 points,  1 beta functions with:
                l(1) =   0
     Q(r) pseudized with  8 coefficients,  rinner =    0.800

     atomic species   valence    mass     pseudopotential
        Ti1           12.00    47.86700     Ti( 1.00)
        O1             6.00    15.99900     O ( 1.00)
        N1             5.00    14.00700     N ( 1.00)
        C1             4.00    12.01100     C ( 1.00)
        H1             1.00     1.00800     H ( 1.00)

     No symmetry found

   Cartesian axes

     site n.     atom                  positions (alat units)
         1           Ti1 tau(   1) = (   0.0004258   2.9801865   6.0000000  )
         2           Ti1 tau(   2) = (   3.2906075   1.4906267   6.0002472  )
         3           O1  tau(   3) = (   0.0006271   0.0005054   7.9858123  )
         4           O1  tau(   4) = (   3.2906025   0.0005020   7.3038282  )
         5           O1  tau(   5) = (   4.5942328   1.4918067   9.2879030  )
         6           O1  tau(   6) = (   1.9868534   1.4903216   9.2879459  )
         7           Ti1 tau(   7) = (   3.2907910   2.8959150   9.1758416  )
         8           Ti1 tau(   8) = (   0.0015273   1.4827037   9.2680791  )
         9           O1  tau(   9) = (   3.2896288   0.0042867  11.3205077  )
        10           O1  tau(  10) = (   0.0116148   5.9584955  10.6183126  )
        11           O1  tau(  11) = (   1.2848067   1.4985890  12.6232755  )
        12           O1  tau(  12) = (   5.2688617   1.4893877  12.6055203  )
        13           Ti1 tau(  13) = (   0.0799559   3.0171279  12.6206390  )
        14           Ti1 tau(  14) = (   3.4009582   1.4891986  12.4726338  )
        15           O1  tau(  15) = (   6.5707323   0.0080309  14.6263129  )
        16           O1  tau(  16) = (   3.2902489   0.0120312  13.8979102  )
        17           O1  tau(  17) = (   4.5126121   1.5346005  16.0500440  )
        18           O1  tau(  18) = (   2.0453867   1.5362785  16.0447169  )
        19           Ti1 tau(  19) = (   3.2767562   3.0203775  15.6892921  )
        20           Ti1 tau(  20) = (   6.5596632   1.5778499  15.8310978  )
        21           O1  tau(  21) = (   3.2904802   0.0005063   4.7018136  )
        22           O1  tau(  22) = (   6.5709656   0.0671247  17.2345223  )
        23           O1  tau(  23) = (   1.3043587   1.4918075   6.0039043  )
        24           O1  tau(  24) = (   5.2767064   1.4903225   6.0039473  )
        25           Ti1 tau(  25) = (   0.0000382   5.9609847   6.0000000  )
        26           Ti1 tau(  26) = (   3.2902200   4.4714249   6.0002472  )
        27           O1  tau(  27) = (   0.0002396   2.9813036   7.9858123  )
        28           O1  tau(  28) = (   3.2902150   2.9813002   7.3038282  )
        29           O1  tau(  29) = (   4.5938453   4.4726049   9.2879030  )
        30           O1  tau(  30) = (   1.9864658   4.4711199   9.2879459  )
        31           Ti1 tau(  31) = (   3.2891106   5.8743827   9.1763621  )
        32           Ti1 tau(  32) = (   0.0006254   4.4649316   9.2693709  )
        33           O1  tau(  33) = (   3.2919429   2.9835650  11.3172650  )
        34           O1  tau(  34) = (   0.0092240   2.9805883  10.6323155  )
        35           O1  tau(  35) = (   1.2842535   4.4799506  12.6241420  )
        36           O1  tau(  36) = (   5.2755836   4.4732255  12.6042992  )
        37           Ti1 tau(  37) = (   0.0783641   0.0295629  12.6394962  )
        38           Ti1 tau(  38) = (   3.4022659   4.4693352  12.4708195  )
        39           O1  tau(  39) = (   6.5693815   2.9799975  14.6326336  )
        40           O1  tau(  40) = (   3.2899495   3.0014797  13.8849495  )
        41           O1  tau(  41) = (   4.5062741   4.5069571  16.0893315  )
        42           O1  tau(  42) = (   2.0480812   4.5060041  16.0753496  )
        43           Ti1 tau(  43) = (   3.2742444   0.0367023  15.7020416  )
        44           Ti1 tau(  44) = (   6.5658628   4.6518251  16.1481936  )
        45           O1  tau(  45) = (   3.2900926   2.9813045   4.7018136  )
        46           O1  tau(  46) = (   1.3039711   4.4726057   6.0039043  )
        47           O1  tau(  47) = (   5.2763189   4.4711207   6.0039473  )
        48           N1  tau(  48) = (   6.5201982   2.6697193  18.5868863  )
        49           N1  tau(  49) = (   6.5663212   2.9659568  17.3251533  )
        50           C1  tau(  50) = (   0.1092964   3.6297355  19.6533281  )
        51           H1  tau(  51) = (   6.1365678   4.5355971  19.4091500  )
        52           H1  tau(  52) = (   6.3142024   3.1981282  20.5813133  )
        53           H1  tau(  53) = (   1.1661384   3.8973747  19.7839464  )
        54           H1  tau(  54) = (   6.5756389   1.6632157  18.8047554  )

     number of k points=    10  Fermi-Dirac smearing, width (Ry)=  0.0073
                       cart. coord. in units 2pi/alat
        k(    1) = (   0.0000000   0.0000000   0.0000000), wk =   0.1250000
        k(    2) = (   0.0000000   0.0419351   0.0000000), wk =   0.2500000
        k(    3) = (   0.0000000  -0.0838702   0.0000000), wk =   0.1250000
        k(    4) = (   0.0379955   0.0000049   0.0000000), wk =   0.2500000
        k(    5) = (   0.0379955   0.0419400   0.0000000), wk =   0.2500000
        k(    6) = (   0.0379955  -0.0838652   0.0000000), wk =   0.2500000
        k(    7) = (   0.0379955  -0.0419301   0.0000000), wk =   0.2500000
        k(    8) = (  -0.0759910  -0.0000099   0.0000000), wk =   0.1250000
        k(    9) = (  -0.0759910   0.0419252   0.0000000), wk =   0.2500000
        k(   10) = (  -0.0759910  -0.0838800   0.0000000), wk =   0.1250000

     Initial potential from superposition of free atoms

     starting charge  379.99915, renormalised to  396.00000

     negative rho (up, down):  1.474E-02 0.000E+00

     %%%%%%%%%%%%%%%%%%%%%%%%%%%%%%%%%%%%%%%%%%%%%%%%%%%%%%%%%%%%%%%%%%%%%%%%
     %                                                                      %
     % You are using vdW-DF, which was implemented by the Thonhauser group. %
     % Please cite the following two papers that made this development      %
     % possible and the two reviews that describe the various versions:     %
     %                                                                      %
     %   T. Thonhauser et al., PRL 115, 136402 (2015).                      %
     %   T. Thonhauser et al., PRB 76, 125112 (2007).                       %
     %   K. Berland et al., Rep. Prog. Phys. 78, 066501 (2015).             %
     %   D.C. Langreth et al., J. Phys.: Condens. Matter 21, 084203 (2009). %
     %                                                                      %
     %                                                                      %
     % If you are calculating the stress with vdW-DF, please also cite:     %
     %                                                                      %
     %   R. Sabatini et al., J. Phys.: Condens. Matter 24, 424209 (2012).   %
     %                                                                      %
     %%%%%%%%%%%%%%%%%%%%%%%%%%%%%%%%%%%%%%%%%%%%%%%%%%%%%%%%%%%%%%%%%%%%%%%%

     Adding external electric field

     Computed dipole along edir(3) :
        Dipole               -9.2704 Ry au,        -23.5631 Debye
        Dipole field         -0.0175 Ry au,

        Potential amp.        1.6217 Ry
        Total length         46.3494 bohr

     Starting wfcs are  300 atomic wfcs
  @ DRIVER MODE: Message from server: STATUS
  @ DRIVER MODE: Message from server: POSDATA
  @ DRIVER MODE: Reading and sharing cell
  @ DRIVER MODE: Reading and sharing positions
  @ DRIVER MODE: Received positions

     Self-consistent Calculation

     iteration #  1     ecut=    29.40 Ry     beta= 0.05
     Davidson diagonalization with overlap
     c_bands:  1 eigenvalues not converged
     c_bands:  1 eigenvalues not converged
     c_bands:  1 eigenvalues not converged
     ethr =  1.00E-05,  avg # of iterations = 17.9

[...]

     total energy              =   -2585.77483961 Ry
     estimated scf accuracy    <    3942.12147176 Ry

     iteration #  2     ecut=    29.40 Ry     beta= 0.05
     Davidson diagonalization with overlap
     ethr =  1.00E-02,  avg # of iterations = 23.4

[...]

     iteration # 42     ecut=    29.40 Ry     beta= 0.05
     Davidson diagonalization with overlap
     c_bands:  1 eigenvalues not converged
     ethr =  1.88E-06,  avg # of iterations =  8.0

[...]

     total energy              =   -2940.39744197 Ry
     estimated scf accuracy    <       0.00000009 Ry

     iteration # 67     ecut=    29.40 Ry     beta= 0.05
     Davidson diagonalization with overlap
     ethr =  2.15E-11,  avg # of iterations = 10.3

     negative rho (up, down):  1.568E-02 0.000E+00

     Adding external electric field

     Computed dipole along edir(3) :
        Dipole                1.1380 Ry au,          2.8925 Debye
        Dipole field          0.0021 Ry au,

        Potential amp.       -0.1991 Ry
        Total length         46.3494 bohr

     End of self-consistent calculation

          k = 0.0000 0.0000 0.0000 ( 18029 PWs)   bands (ev):

   -55.6385 -55.6045 -55.5470 -55.5093 -55.4026 -55.3808 -55.3688 -55.3453
   -55.3386 -55.3332 -55.3114 -55.2634 -54.7240 -54.5808 -54.5551 -54.5468
   -32.1131 -32.0906 -31.9328 -31.9197 -31.8904 -31.8591 -31.8417 -31.8348
   -31.7917 -31.7773 -31.7749 -31.7354 -31.7269 -31.7089 -31.6972 -31.6895
   -31.6776 -31.6683 -31.6371 -31.6235 -31.6015 -31.5809 -31.5738 -31.5618
   -31.5466 -31.5406 -31.5337 -31.5317 -31.5260 -31.5088 -31.5001 -31.4983
   -31.4948 -31.4575 -31.4450 -31.3776 -31.2218 -30.9865 -30.9471 -30.9321
   -30.9018 -30.8933 -30.8791 -30.8034 -30.7636 -30.7349 -30.7171 -30.6060
   -18.0392 -16.2737 -16.0456 -15.7686 -15.6691 -15.6443 -15.5237 -15.3907
   -15.2899 -15.1956 -15.1546 -15.1006 -15.0962 -15.0669 -15.0361 -15.0001
   -14.9729 -14.9332 -14.9179 -14.8955 -14.8726 -14.8640 -14.7507 -14.7384
   -14.7131 -14.6213 -14.6110 -14.5409 -14.5128 -14.0864 -13.0831 -12.9674
   -12.0740  -8.8723  -5.7474  -4.4790  -4.1852  -3.6565  -3.5303  -3.5002
    -3.3987  -3.2258  -3.1338  -3.0747  -2.9463  -2.7602  -2.7260  -2.7158
    -2.6957  -2.6383  -2.4396  -2.4139  -2.3835  -2.3430  -2.3331  -2.3314
    -2.3166  -2.2551  -2.1905  -2.1242  -2.0286  -2.0243  -1.9650  -1.9512
    -1.9335  -1.9002  -1.8568  -1.8164  -1.7946  -1.7537  -1.7336  -1.7283
    -1.6885  -1.6052  -1.5024  -1.3454  -1.3318  -1.2976  -1.2502  -1.1930
    -1.0283  -1.0145  -0.9757  -0.9692  -0.9382  -0.8622  -0.7985  -0.7099
    -0.6764  -0.5979  -0.5813  -0.5534  -0.4788  -0.3929  -0.3705  -0.3553
    -0.3475  -0.3320  -0.2756  -0.1618  -0.0642  -0.0353   0.0858   0.0908
     0.1263   0.1713   0.1863   0.2688   0.3059   0.3194   0.3712   0.3716
     0.3832   0.4267   0.4498   0.5109   0.5665   0.6519   0.7248   0.7907
     0.8272   0.9443   1.0154   1.0809   1.1105   1.2404   1.3631   1.3792
     1.4408   1.6359   1.6388   2.0093   2.0536   3.5327   3.5538   3.6467
     3.6899   3.7875   3.8264   3.9711   4.0236   4.0631   4.1771   4.2091

[...]

          k = 0.0380-0.0419 0.0000 ( 17876 PWs)   bands (ev):

[...]

          k =-0.0760-0.0000 0.0000 ( 17886 PWs)   bands (ev):

[...]

          k =-0.0760-0.0839 0.0000 ( 17948 PWs)   bands (ev):

   -55.6216 -55.6213 -55.5339 -55.5222 -55.3857 -55.3854 -55.3718 -55.3475
   -55.3298 -55.3285 -55.3270 -55.2679 -54.7224 -54.5638 -54.5636 -54.5565
   -31.9286 -31.9285 -31.9180 -31.9180 -31.8983 -31.8891 -31.7917 -31.7820
   -31.7580 -31.7453 -31.7425 -31.7420 -31.6976 -31.6947 -31.6836 -31.6800
   -31.6704 -31.6669 -31.6663 -31.6427 -31.5969 -31.5967 -31.5815 -31.5784
   -31.5741 -31.5726 -31.5712 -31.5607 -31.5581 -31.5544 -31.5446 -31.5417
   -31.5368 -31.5247 -31.4987 -31.4657 -31.1310 -30.9674 -30.9330 -30.9207
   -30.8919 -30.8918 -30.7995 -30.7994 -30.7826 -30.7648 -30.7603 -30.7602
   -18.0336 -15.6969 -15.6855 -15.5056 -15.5004 -15.4407 -15.4345 -15.2813
   -15.2804 -15.2623 -15.2540 -15.1304 -15.1266 -15.0964 -15.0925 -15.0503
   -15.0424 -15.0223 -15.0140 -15.0122 -15.0058 -14.9811 -14.9308 -14.8942
   -14.8886 -14.7127 -14.7110 -14.5910 -14.5591 -14.2222 -13.0694 -13.0693
   -12.0750  -8.8824  -5.7392  -4.4189  -4.1879  -2.9867  -2.9747  -2.9632
    -2.7009  -2.6958  -2.6708  -2.6604  -2.4556  -2.4428  -2.4217  -2.4161
    -2.3889  -2.3829  -2.3681  -2.3609  -2.2785  -2.2681  -2.2564  -2.2336
    -2.2307  -2.2239  -2.2079  -2.2002  -2.1903  -2.1566  -2.1229  -2.0930
    -2.0581  -2.0364  -1.9172  -1.8073  -1.7275  -1.7206  -1.6899  -1.6840
    -1.6781  -1.6716  -1.6392  -1.5349  -1.4837  -1.4272  -1.2882  -1.2608
    -1.2451  -1.1984  -1.1100  -1.0299  -0.9657  -0.9495  -0.9015  -0.8581
    -0.8333  -0.7492  -0.7252  -0.7175  -0.6504  -0.6173  -0.5723  -0.5661
    -0.5531  -0.4874  -0.4399  -0.3896  -0.3652  -0.3345  -0.2896  -0.2688
    -0.2060  -0.1575  -0.1063  -0.1007  -0.0523  -0.0444   0.0194   0.1697
     0.2196   0.4730   0.4882   0.5173   0.6419   0.7147   0.7202   0.7472
     0.7786   0.8301   0.8416   0.9761   0.9872   0.9902   1.1564   1.1806
     1.2610   1.8092   1.8095   1.8727   1.8731   3.4358   3.9239   3.9414
     3.9668   3.9820   4.0538   4.0549   4.0629   4.0703   4.2487   4.2686

     the Fermi energy is     3.5099 ev

!    total energy              =   -2940.39746590 Ry
     estimated scf accuracy    <       0.00000005 Ry
     smearing contrib. (-TS)   =      -0.02306847 Ry
     internal energy E=F+TS    =   -2940.37439743 Ry

     The total energy is F=E-TS. E is the sum of the following terms:
     one-electron contribution =  -24109.49325460 Ry
     hartree contribution      =   12146.00108262 Ry
     xc contribution           =    -486.04681969 Ry
     ewald contribution        =    9509.16215040 Ry
     electric field correction =       0.00244384 Ry

     convergence has been achieved in  67 iterations

     Forces acting on atoms (cartesian axes, Ry/au):

     atom    1 type  1   force =     0.00016053   -0.00012633    0.09933851
     atom    2 type  1   force =    -0.00012374   -0.00046682   -0.17358750
     atom    3 type  2   force =    -0.00004934   -0.00000364   -0.02878085
     atom    4 type  2   force =     0.00007417   -0.00125154    0.04998474
     atom    5 type  2   force =    -0.01306219    0.00057690    0.00123941
     atom    6 type  2   force =     0.01460989    0.00138460   -0.00008473
     atom    7 type  1   force =    -0.00144652   -0.00059850   -0.00836633
     atom    8 type  1   force =     0.00087666   -0.00412703    0.04510688
     atom    9 type  2   force =    -0.00002829   -0.00065892   -0.00021630
     atom   10 type  2   force =    -0.00128887    0.00227780   -0.02835326
     atom   11 type  2   force =     0.00018562    0.00061456   -0.00000223
     atom   12 type  2   force =     0.00027443    0.00040895    0.00014621
     atom   13 type  1   force =     0.00037315    0.00021051   -0.00074015
     atom   14 type  1   force =     0.00002321    0.00047569    0.00023877
     atom   15 type  2   force =     0.00033325    0.00009693    0.00012561
     atom   16 type  2   force =    -0.00040987   -0.00023396   -0.00004587
     atom   17 type  2   force =    -0.00097338    0.00017074   -0.00045582
     atom   18 type  2   force =     0.00085261    0.00022593    0.00030280
     atom   19 type  1   force =     0.00022872   -0.00009829   -0.00017469
     atom   20 type  1   force =    -0.00049211   -0.00100768    0.00016914
     atom   21 type  2   force =     0.00008879   -0.00007151    0.10270685
     atom   22 type  2   force =     0.00011100    0.00027314    0.00042666
     atom   23 type  2   force =    -0.07213717   -0.00015636   -0.02832540
     atom   24 type  2   force =     0.07213542    0.00030247   -0.02832477
     atom   25 type  1   force =     0.00012767   -0.00019670    0.09863995
     atom   26 type  1   force =    -0.00011308   -0.00046528   -0.17379527
     atom   27 type  2   force =     0.00001173   -0.00002630   -0.02806205
     atom   28 type  2   force =     0.00011438   -0.00099929    0.04943879
     atom   29 type  2   force =    -0.01338101    0.00005219    0.00130006
     atom   30 type  2   force =     0.01483575    0.00041755   -0.00004255
     atom   31 type  1   force =    -0.00140079    0.00250661   -0.00865656
     atom   32 type  1   force =     0.00106208    0.00238247    0.04544183
     atom   33 type  2   force =    -0.00012831    0.00104193    0.00060519
     atom   34 type  2   force =    -0.00071546    0.00120486   -0.03109303
     atom   35 type  2   force =     0.00067542   -0.00050737   -0.00014425
     atom   36 type  2   force =    -0.00160941   -0.00010780    0.00010036
     atom   37 type  1   force =    -0.00018465   -0.00152730    0.00002647
     atom   38 type  1   force =     0.00077496   -0.00005335    0.00042515
     atom   39 type  2   force =     0.00032579    0.00017289   -0.00041614
     atom   40 type  2   force =    -0.00040136    0.00033244    0.00008319
     atom   41 type  2   force =     0.00052076   -0.00062471    0.00012693
     atom   42 type  2   force =    -0.00048967   -0.00074269    0.00061621
     atom   43 type  1   force =     0.00036522   -0.00031461   -0.00071449
     atom   44 type  1   force =    -0.00033295   -0.00029743   -0.00090370
     atom   45 type  2   force =     0.00010893   -0.00006899    0.10273740
     atom   46 type  2   force =    -0.07215916   -0.00010123   -0.02832323
     atom   47 type  2   force =     0.07214423    0.00034022   -0.02829868
     atom   48 type  3   force =    -0.00024945   -0.02623972    0.00024916
     atom   49 type  3   force =     0.00014356    0.00370732   -0.00269281
     atom   50 type  4   force =     0.00150229    0.00663248    0.00298862
     atom   51 type  5   force =     0.00007046    0.00060673    0.00118341
     atom   52 type  5   force =     0.00026064   -0.00023965   -0.00087870
     atom   53 type  5   force =    -0.00074156    0.00097446   -0.00040960
     atom   54 type  5   force =    -0.00145301    0.01392261   -0.00185932

     Total force =     0.373447     Total SCF correction =     0.000825
  @ DRIVER MODE: Message from server: STATUS
  @ DRIVER MODE: Message from server: GETFORCE
  @ DRIVER MODE: Returning v,forces,stress,ensemble

     Writing output data file ./calc.save/
  @ DRIVER MODE: Message from server: EXIT
  @ DRIVE MODE: Exiting

     General routines

     Parallel routines

   This run was terminated on:  18:56:17  24Aug2021

   JOB DONE.