     Program PWSCF v.6.7GPU starts on 23Sep2021 at  3:48:33

     R & G space division:  proc/nbgrp/npool/nimage =      10
     Reading input from /storage/home/hcoda1/3/ntian30/research/carbon/CxH_vib/H2O_calc/ads_slab/CH2N2HHO_a/out_0034/pw.inp
Warning: card &CELL ignored
Warning: card   CELL_DYNAMICS='IPI', ignored
Warning: card / ignored

     Current dimensions of program PWSCF are:
     Max number of different atomic species (ntypx) = 10
     Max number of k-points (npk) =  40000
     Max angular momentum in pseudopotentials (lmaxx) =  3
     Presently no symmetry can be used with electric field

     Message from routine cell_base_init:
     DEPRECATED: use true lattice parameter, not A to a.u. conversion factor

     IMPORTANT: XC functional enforced from input :
     Exchange-correlation= BEEF-VDW
                           (   1   4  43  14   2   0   0)
     Any further DFT definition will be discarded
     Please, verify this is what you really want

  @ DRIVER MODE: Connecting to
 qe_1139763_2937323.sched-torque.pace.gatech.eduzhlq649h_scratch
  using UNIX socket
  @ DRIVER MODE: Message from server: STATUS
  @ DRIVER MODE: Message from server: INIT
  @ DRIVER MODE: Receiving replica           0          -1
  @ DRIVER MODE: Receiving encoded integer          25
  @ DRIVER MODE:  SCF:  T  FORCE:  T  STRESS:  F  VC:  F  ENSEMBLE:  F
  @ DRIVER MODE:  SCF:  T  FORCE:  T  STRESS:  F  VC:  F  ENSEMBLE:  F

     Using Slab Decomposition

     bravais-lattice index     =            0
     lattice parameter (alat)  =       1.8897  a.u.
     unit-cell volume          =    6658.9804 (a.u.)^3
     number of atoms/cell      =           55
     number of atomic types    =            5
     number of electrons       =       402.00
     number of Kohn-Sham states=          211
     kinetic-energy cutoff     =      29.3995  Ry
     charge density cutoff     =     293.9946  Ry
     scf convergence threshold =      7.3E-08
     mixing beta               =       0.0500
     number of iterations used =            8  plain     mixing
     Exchange-correlation= BEEF-VDW
                           (   1   4  43  14   2   0   0)

     celldm(1)=   1.889726  celldm(2)=   0.000000  celldm(3)=   0.000000
     celldm(4)=   0.000000  celldm(5)=   0.000000  celldm(6)=   0.000000

     crystal axes: (cart. coord. in units of alat)
               a(1) = (   6.579727   0.000000   0.000000 )
               a(2) = (  -0.000775   5.961596   0.000000 )
               a(3) = (   0.000000   0.000000  25.155947 )

     reciprocal axes: (cart. coord. in units 2 pi/alat)
               b(1) = (  0.151982  0.000020  0.000000 )
               b(2) = (  0.000000  0.167740  0.000000 )
               b(3) = (  0.000000  0.000000  0.039752 )

     PseudoPot. # 1 for Ti read from file:
     /storage/coda1/p-amedford6/0/shared/rich_project_chbe-medford/medford-share/data/pseudos_module/espresso/nninc/pbe/van/Ti.UPF
     MD5 check sum: 8e4df49b7f0d34bbd5052bf3f5ea0213
     Pseudo is Ultrasoft, Zval = 12.0
     Generated by new atomic code, or converted to UPF format
     Using radial grid of  851 points,  6 beta functions with:
                l(1) =   0
                l(2) =   0
                l(3) =   1
                l(4) =   1
                l(5) =   2
                l(6) =   2
     Q(r) pseudized with  8 coefficients,  rinner =    1.000   1.000   1.000
                                                       1.000   1.000

     PseudoPot. # 2 for O  read from file:
     /storage/coda1/p-amedford6/0/shared/rich_project_chbe-medford/medford-share/data/pseudos_module/espresso/nninc/pbe/van/O.UPF
     MD5 check sum: 78c19812648e8988a0fe644b0f25305e
     Pseudo is Ultrasoft, Zval =  6.0
     Generated by new atomic code, or converted to UPF format
     Using radial grid of  737 points,  4 beta functions with:
                l(1) =   0
                l(2) =   0
                l(3) =   1
                l(4) =   1
     Q(r) pseudized with  8 coefficients,  rinner =    0.800   0.800   0.800

     PseudoPot. # 3 for N  read from file:
     /storage/coda1/p-amedford6/0/shared/rich_project_chbe-medford/medford-share/data/pseudos_module/espresso/nninc/pbe/van/N.UPF
     MD5 check sum: 90d10febe142ad51ac9d5be1deb811c4
     Pseudo is Ultrasoft, Zval =  5.0
     Generated by new atomic code, or converted to UPF format
     Using radial grid of  729 points,  4 beta functions with:
                l(1) =   0
                l(2) =   0
                l(3) =   1
                l(4) =   1
     Q(r) pseudized with  8 coefficients,  rinner =    0.800   0.800   0.800

     PseudoPot. # 4 for C  read from file:
     /storage/coda1/p-amedford6/0/shared/rich_project_chbe-medford/medford-share/data/pseudos_module/espresso/nninc/pbe/van/C.UPF
     MD5 check sum: 1a69bf6b8db32088f5b2163dbdb77a27
     Pseudo is Ultrasoft, Zval =  4.0
     Generated by new atomic code, or converted to UPF format
     Using radial grid of  721 points,  4 beta functions with:
                l(1) =   0
                l(2) =   0
                l(3) =   1
                l(4) =   1
     Q(r) pseudized with  8 coefficients,  rinner =    0.800   0.800   0.800

     PseudoPot. # 5 for H  read from file:
     /storage/coda1/p-amedford6/0/shared/rich_project_chbe-medford/medford-share/data/pseudos_module/espresso/nninc/pbe/van/H.UPF
     MD5 check sum: b5ee9d7bfd3a09ee7748110bda690ff7
     Pseudo is Ultrasoft, Zval =  1.0
     Generated by new atomic code, or converted to UPF format
     Using radial grid of  615 points,  1 beta functions with:
                l(1) =   0
     Q(r) pseudized with  8 coefficients,  rinner =    0.800

     atomic species   valence    mass     pseudopotential
        Ti1           12.00    47.86700     Ti( 1.00)
        O1             6.00    15.99900     O ( 1.00)
        N1             5.00    14.00700     N ( 1.00)
        C1             4.00    12.01100     C ( 1.00)
        H1             1.00     1.00800     H ( 1.00)

     No symmetry found

   Cartesian axes

     site n.     atom                  positions (alat units)
         1           Ti1 tau(   1) = (   0.0004258   2.9801865   6.0000000  )
         2           Ti1 tau(   2) = (   3.2906075   1.4906267   6.0002472  )
         3           O1  tau(   3) = (   0.0006271   0.0005054   7.9858123  )
         4           O1  tau(   4) = (   3.2906025   0.0005020   7.3038282  )
         5           O1  tau(   5) = (   4.5942328   1.4918067   9.2879030  )
         6           O1  tau(   6) = (   1.9868534   1.4903216   9.2879459  )
         7           Ti1 tau(   7) = (   3.2907910   2.8959150   9.1758416  )
         8           Ti1 tau(   8) = (   0.0015273   1.4827037   9.2680791  )
         9           O1  tau(   9) = (   3.3002520   5.9418316  11.2747492  )
        10           O1  tau(  10) = (   0.0116148   5.9584955  10.6183126  )
        11           O1  tau(  11) = (   1.2897458   1.4862980  12.6211975  )
        12           O1  tau(  12) = (   5.3051886   1.5023792  12.6347999  )
        13           Ti1 tau(  13) = (   0.0146078   2.8478158  12.7200684  )
        14           Ti1 tau(  14) = (   3.3063360   1.3081926  12.6482236  )
        15           O1  tau(  15) = (   0.0235978   5.9609164  14.6274833  )
        16           O1  tau(  16) = (   3.2983906   0.0399142  13.8749830  )
        17           O1  tau(  17) = (   4.5813539   1.5856785  16.0626423  )
        18           O1  tau(  18) = (   2.0324892   1.5097802  16.0098020  )
        19           Ti1 tau(  19) = (   3.2774956   2.9544257  15.6266065  )
        20           Ti1 tau(  20) = (   6.5530467   1.3151789  15.9772938  )
        21           O1  tau(  21) = (   3.2904802   0.0005063   4.7018136  )
        22           O1  tau(  22) = (   6.5059356   5.9265713  17.1294848  )
        23           O1  tau(  23) = (   1.3043587   1.4918075   6.0039043  )
        24           O1  tau(  24) = (   5.2767064   1.4903225   6.0039473  )
        25           Ti1 tau(  25) = (   0.0000382   5.9609847   6.0000000  )
        26           Ti1 tau(  26) = (   3.2902200   4.4714249   6.0002472  )
        27           O1  tau(  27) = (   0.0002396   2.9813036   7.9858123  )
        28           O1  tau(  28) = (   3.2902150   2.9813002   7.3038282  )
        29           O1  tau(  29) = (   4.5938453   4.4726049   9.2879030  )
        30           O1  tau(  30) = (   1.9864658   4.4711199   9.2879459  )
        31           Ti1 tau(  31) = (   3.2891106   5.8743827   9.1763621  )
        32           Ti1 tau(  32) = (   0.0006254   4.4649316   9.2693709  )
        33           O1  tau(  33) = (   3.2992753   3.0242338  11.2405823  )
        34           O1  tau(  34) = (   0.0092240   2.9805883  10.6323155  )
        35           O1  tau(  35) = (   1.2972400   4.4705050  12.6241655  )
        36           O1  tau(  36) = (   5.3008088   4.4694758  12.6340222  )
        37           Ti1 tau(  37) = (   0.0289225   5.8314391  12.5906285  )
        38           Ti1 tau(  38) = (   3.3189507   4.3956991  12.4097224  )
        39           O1  tau(  39) = (   0.0312427   2.9750824  14.7260556  )
        40           O1  tau(  40) = (   3.2762925   2.9668711  13.8358254  )
        41           O1  tau(  41) = (   4.5358187   4.4455929  15.9064879  )
        42           O1  tau(  42) = (   2.0572077   4.4429961  16.0439637  )
        43           Ti1 tau(  43) = (   3.2186928   5.9141907  16.2420754  )
        44           Ti1 tau(  44) = (   6.4642982   4.4840528  15.9061301  )
        45           O1  tau(  45) = (   3.2900926   2.9813045   4.7018136  )
        46           O1  tau(  46) = (   1.3039711   4.4726057   6.0039043  )
        47           O1  tau(  47) = (   5.2763189   4.4711207   6.0039473  )
        48           N1  tau(  48) = (   0.2499663   2.3419386  17.9913213  )
        49           C1  tau(  49) = (   0.6208863   1.8700663  19.1394302  )
        50           H1  tau(  50) = (   0.7431952   2.5333404  19.9929579  )
        51           H1  tau(  51) = (   0.8399735   0.8189210  19.2161768  )
        52           N1  tau(  52) = (   6.5658643   3.6116587  17.7752569  )
        53           H1  tau(  53) = (   0.1300021   4.2335620  18.5825096  )
        54           O1  tau(  54) = (   3.3713844   5.9089882  18.0735649  )
        55           H1  tau(  55) = (   4.1655974   0.3538959  18.4550359  )

     number of k points=    10  Fermi-Dirac smearing, width (Ry)=  0.0073
                       cart. coord. in units 2pi/alat
        k(    1) = (   0.0000000   0.0000000   0.0000000), wk =   0.1250000
        k(    2) = (   0.0000000   0.0419351   0.0000000), wk =   0.2500000
        k(    3) = (   0.0000000  -0.0838702   0.0000000), wk =   0.1250000
        k(    4) = (   0.0379955   0.0000049   0.0000000), wk =   0.2500000
        k(    5) = (   0.0379955   0.0419400   0.0000000), wk =   0.2500000
        k(    6) = (   0.0379955  -0.0838652   0.0000000), wk =   0.2500000
        k(    7) = (   0.0379955  -0.0419301   0.0000000), wk =   0.2500000
        k(    8) = (  -0.0759910  -0.0000099   0.0000000), wk =   0.1250000
        k(    9) = (  -0.0759910   0.0419252   0.0000000), wk =   0.2500000
        k(   10) = (  -0.0759910  -0.0838800   0.0000000), wk =   0.1250000

     Initial potential from superposition of free atoms

     starting charge  385.99915, renormalised to  402.00000

     negative rho (up, down):  1.591E-02 0.000E+00

     %%%%%%%%%%%%%%%%%%%%%%%%%%%%%%%%%%%%%%%%%%%%%%%%%%%%%%%%%%%%%%%%%%%%%%%%
     %                                                                      %
     % You are using vdW-DF, which was implemented by the Thonhauser group. %
     % Please cite the following two papers that made this development      %
     % possible and the two reviews that describe the various versions:     %
     %                                                                      %
     %   T. Thonhauser et al., PRL 115, 136402 (2015).                      %
     %   T. Thonhauser et al., PRB 76, 125112 (2007).                       %
     %   K. Berland et al., Rep. Prog. Phys. 78, 066501 (2015).             %
     %   D.C. Langreth et al., J. Phys.: Condens. Matter 21, 084203 (2009). %
     %                                                                      %
     %                                                                      %
     % If you are calculating the stress with vdW-DF, please also cite:     %
     %                                                                      %
     %   R. Sabatini et al., J. Phys.: Condens. Matter 24, 424209 (2012).   %
     %                                                                      %
     %%%%%%%%%%%%%%%%%%%%%%%%%%%%%%%%%%%%%%%%%%%%%%%%%%%%%%%%%%%%%%%%%%%%%%%%

     Adding external electric field

     Computed dipole along edir(3) :
        Dipole              -11.3527 Ry au,        -28.8557 Debye
        Dipole field         -0.0214 Ry au,

        Potential amp.        1.9860 Ry
        Total length         46.3494 bohr

     Starting wfcs are  304 atomic wfcs
  @ DRIVER MODE: Message from server: STATUS
  @ DRIVER MODE: Message from server: POSDATA
  @ DRIVER MODE: Reading and sharing cell
  @ DRIVER MODE: Reading and sharing positions
  @ DRIVER MODE: Received positions

     Self-consistent Calculation

     iteration #  1     ecut=    29.40 Ry     beta= 0.05
     Davidson diagonalization with overlap
     c_bands:  4 eigenvalues not converged
     c_bands:  3 eigenvalues not converged
     c_bands:  3 eigenvalues not converged
     c_bands:  5 eigenvalues not converged
     c_bands:  5 eigenvalues not converged
     c_bands:  1 eigenvalues not converged
     c_bands:  5 eigenvalues not converged
     c_bands:  4 eigenvalues not converged
     c_bands:  5 eigenvalues not converged
     c_bands:  1 eigenvalues not converged
     ethr =  1.00E-05,  avg # of iterations = 24.0

[...]

     total energy              =   -2410.18164713 Ry
     estimated scf accuracy    <    6308.35267315 Ry

     iteration #  2     ecut=    29.40 Ry     beta= 0.05
     Davidson diagonalization with overlap
     ethr =  1.00E-02,  avg # of iterations = 23.2

[...]

     iteration # 39     ecut=    29.40 Ry     beta= 0.05
     Davidson diagonalization with overlap
     c_bands:  1 eigenvalues not converged
     ethr =  3.42E-06,  avg # of iterations =  8.0

[...]

     total energy              =   -2972.72745879 Ry
     estimated scf accuracy    <       0.00000036 Ry

     iteration # 66     ecut=    29.40 Ry     beta= 0.05
     Davidson diagonalization with overlap
     ethr =  2.78E-11,  avg # of iterations =  8.2

     negative rho (up, down):  1.620E-02 0.000E+00

     Adding external electric field

     Computed dipole along edir(3) :
        Dipole                0.4610 Ry au,          1.1717 Debye
        Dipole field          0.0009 Ry au,

        Potential amp.       -0.0806 Ry
        Total length         46.3494 bohr

     End of self-consistent calculation

          k = 0.0000 0.0000 0.0000 ( 18029 PWs)   bands (ev):

   -56.5383 -56.5046 -55.8865 -55.8510 -55.6239 -55.5643 -55.3800 -55.3261
   -55.3018 -55.2303 -55.2004 -55.1897 -55.1558 -55.0330 -55.0327 -54.9853
   -32.9705 -32.8229 -32.7950 -32.7056 -32.6143 -32.5962 -32.3695 -32.1060
   -32.1043 -32.0769 -32.0297 -32.0260 -31.9930 -31.8695 -31.8526 -31.8447
   -31.7918 -31.7680 -31.7272 -31.7095 -31.6922 -31.6475 -31.6451 -31.5873
   -31.5855 -31.5812 -31.5784 -31.5345 -31.5305 -31.5269 -31.5063 -31.5061
   -31.4844 -31.4799 -31.4240 -31.4059 -31.3994 -31.3548 -31.3167 -31.2947
   -31.2888 -31.2797 -31.2436 -31.2427 -31.2182 -31.2048 -31.1760 -31.1561
   -17.8105 -16.7237 -16.2897 -16.1713 -15.9815 -15.9079 -15.8835 -15.8522
   -15.7861 -15.6148 -15.5344 -15.5095 -15.4994 -15.4403 -15.2729 -15.1763
   -15.1592 -15.0933 -15.0151 -14.9910 -14.9518 -14.8982 -14.8715 -14.8567
   -14.8409 -14.8059 -14.6831 -14.6028 -14.5045 -14.3240 -14.3082 -13.6869
   -13.5773 -11.9614  -7.7097  -5.1497  -4.3609  -4.2741  -3.7966  -3.7750
    -3.6061  -3.4267  -3.3704  -3.2262  -3.1670  -3.1171  -3.0610  -3.0466
    -2.9429  -2.8007  -2.7938  -2.7398  -2.7173  -2.7139  -2.6949  -2.5942
    -2.5283  -2.5193  -2.4242  -2.3323  -2.3115  -2.2720  -2.2324  -2.2248
    -2.1813  -2.1425  -2.0877  -2.0507  -2.0349  -1.9374  -1.9181  -1.8119
    -1.7847  -1.7596  -1.7501  -1.7186  -1.6792  -1.6209  -1.5491  -1.4305
    -1.3423  -1.3229  -1.2505  -1.2460  -1.2196  -1.0578  -1.0170  -1.0146
    -0.9541  -0.8781  -0.8487  -0.7929  -0.7556  -0.7114  -0.6596  -0.6180
    -0.5818  -0.4528  -0.4491  -0.3982  -0.3144  -0.2930  -0.2614  -0.2386
    -0.1575  -0.1025  -0.0652   0.0051   0.0653   0.0720   0.1163   0.1739
     0.2835   0.3263   0.3505   0.3813   0.4242   0.4489   0.5164   0.5638
     0.5949   0.6039   0.6793   0.7817   0.7991   0.8338   0.9222   0.9478
     1.0329   1.0708   1.0879   1.1725   1.1923   1.3718   1.4102   1.5800
     2.3842   2.7262   2.8763   3.1587   3.1737   3.4659   3.6885   3.7162
     3.7191   3.7990   3.9367

[...]

          k = 0.0380-0.0419 0.0000 ( 17876 PWs)   bands (ev):

[...]

          k =-0.0760-0.0000 0.0000 ( 17886 PWs)   bands (ev):

[...]

          k =-0.0760-0.0839 0.0000 ( 17948 PWs)   bands (ev):

   -56.5217 -56.5210 -55.8745 -55.8628 -55.6186 -55.5696 -55.3739 -55.3320
   -55.2998 -55.2289 -55.2022 -55.1733 -55.1721 -55.0344 -55.0255 -54.9924
   -32.8089 -32.8082 -32.7876 -32.7867 -32.6585 -32.6582 -32.1956 -32.1861
   -32.0682 -32.0553 -32.0550 -32.0471 -31.9266 -31.8878 -31.8464 -31.8397
   -31.7966 -31.7905 -31.7031 -31.6708 -31.6288 -31.6109 -31.5927 -31.5876
   -31.5750 -31.5647 -31.5505 -31.5389 -31.5234 -31.5197 -31.5189 -31.5099
   -31.4733 -31.4693 -31.4303 -31.4107 -31.3973 -31.3958 -31.3875 -31.3588
   -31.3578 -31.2993 -31.2817 -31.2599 -31.2467 -31.2443 -31.2207 -31.1782
   -17.7967 -16.1517 -16.1071 -16.1028 -16.0195 -16.0171 -15.8135 -15.8063
   -15.6258 -15.6021 -15.5282 -15.4599 -15.3506 -15.3174 -15.2934 -15.2421
   -15.1971 -15.1690 -15.1128 -15.0809 -14.9983 -14.9669 -14.9510 -14.9396
   -14.9069 -14.8543 -14.7218 -14.6871 -14.6697 -14.5897 -14.4545 -13.6814
   -13.6807 -11.9192  -7.6387  -5.2123  -4.4344  -3.7494  -3.2193  -3.1911
    -3.1420  -3.1329  -2.9350  -2.8945  -2.8734  -2.8220  -2.7857  -2.7708
    -2.7256  -2.7197  -2.6378  -2.5855  -2.5538  -2.5412  -2.5173  -2.4574
    -2.4361  -2.4057  -2.3936  -2.3623  -2.3513  -2.3419  -2.3183  -2.2511
    -2.2013  -2.1493  -2.1157  -2.0751  -2.0178  -2.0125  -1.9784  -1.9697
    -1.8913  -1.7985  -1.7621  -1.6866  -1.6046  -1.5704  -1.5426  -1.5248
    -1.4817  -1.4246  -1.3977  -1.3487  -1.3230  -1.2696  -1.2338  -1.2239
    -1.1581  -1.1200  -1.0529  -1.0313  -0.9512  -0.8397  -0.7842  -0.7593
    -0.7324  -0.7197  -0.6504  -0.5873  -0.5401  -0.5189  -0.4479  -0.4403
    -0.4134  -0.3635  -0.3491  -0.3134  -0.2019  -0.1390  -0.0779   0.0063
     0.0457   0.0823   0.1619   0.2169   0.2406   0.3165   0.3967   0.4765
     0.4928   0.5320   0.5381   0.7048   0.7352   0.8441   0.8763   0.9522
     0.9865   1.0266   1.1474   1.1893   1.2218   1.2231   1.2439   1.2617
     2.3298   3.2960   3.2986   3.3484   3.3565   3.6240   3.6325   3.7702
     3.7722   3.8909   3.9302

     the Fermi energy is     2.6055 ev

!    total energy              =   -2972.72750210 Ry
     estimated scf accuracy    <       0.00000005 Ry
     smearing contrib. (-TS)   =      -0.00744999 Ry
     internal energy E=F+TS    =   -2972.72005210 Ry

     The total energy is F=E-TS. E is the sum of the following terms:
     one-electron contribution =  -24031.63414835 Ry
     hartree contribution      =   12109.46082312 Ry
     xc contribution           =    -493.27845419 Ry
     ewald contribution        =    9442.73132629 Ry
     electric field correction =       0.00040102 Ry

     convergence has been achieved in  66 iterations

     Forces acting on atoms (cartesian axes, Ry/au):

     atom    1 type  1   force =    -0.00000882   -0.00044037    0.11618884
     atom    2 type  1   force =    -0.00007154    0.00013285   -0.15937042
     atom    3 type  2   force =     0.00002468    0.00000779   -0.05252223
     atom    4 type  2   force =     0.00005168   -0.00013742    0.02468665
     atom    5 type  2   force =    -0.00349423   -0.00224578   -0.01042097
     atom    6 type  2   force =     0.00529062   -0.00174664   -0.01062033
     atom    7 type  1   force =     0.00000243   -0.00613071    0.04625888
     atom    8 type  1   force =     0.00041338    0.01613009    0.08036569
     atom    9 type  2   force =    -0.00001218   -0.00062186    0.00014969
     atom   10 type  2   force =    -0.00257457    0.00058410   -0.04974007
     atom   11 type  2   force =    -0.00056951   -0.00013575   -0.00014738
     atom   12 type  2   force =     0.00060811   -0.00028327    0.00000882
     atom   13 type  1   force =    -0.00018539    0.00044009   -0.00004768
     atom   14 type  1   force =     0.00017685    0.00008713   -0.00110399
     atom   15 type  2   force =    -0.00022747   -0.00029269   -0.00045695
     atom   16 type  2   force =     0.00013009   -0.00064963    0.00073505
     atom   17 type  2   force =     0.00004743    0.00052880    0.00008944
     atom   18 type  2   force =     0.00006604    0.00055882   -0.00025466
     atom   19 type  1   force =    -0.00057139   -0.00027909   -0.00047261
     atom   20 type  1   force =     0.00053916    0.00040569   -0.00039540
     atom   21 type  2   force =     0.00004871    0.00021696    0.09894856
     atom   22 type  2   force =    -0.00000604   -0.00038246   -0.00026192
     atom   23 type  2   force =    -0.07984530    0.00004312   -0.03164846
     atom   24 type  2   force =     0.07974727    0.00047671   -0.03170899
     atom   25 type  1   force =     0.00006675   -0.00057220    0.11648279
     atom   26 type  1   force =    -0.00010887   -0.00143084   -0.15989200
     atom   27 type  2   force =     0.00007017   -0.00069857   -0.05053733
     atom   28 type  2   force =     0.00005406    0.00166560    0.02022398
     atom   29 type  2   force =    -0.00169787    0.00505392   -0.01370810
     atom   30 type  2   force =     0.00360937    0.00547554   -0.01383943
     atom   31 type  1   force =    -0.00017264    0.00220214    0.03174229
     atom   32 type  1   force =     0.00031982   -0.01973482    0.08002565
     atom   33 type  2   force =     0.00014199   -0.00035630    0.00016192
     atom   34 type  2   force =    -0.00158692    0.00085360   -0.06328878
     atom   35 type  2   force =     0.00039141    0.00003058   -0.00016722
     atom   36 type  2   force =     0.00017104   -0.00005157   -0.00024050
     atom   37 type  1   force =    -0.00013579   -0.00023477   -0.00062225
     atom   38 type  1   force =     0.00013010    0.00045270    0.00007390
     atom   39 type  2   force =    -0.00029053    0.00054786    0.00016364
     atom   40 type  2   force =     0.00023802    0.00011150    0.00065360
     atom   41 type  2   force =     0.00124558    0.00001960   -0.00009646
     atom   42 type  2   force =    -0.00123436   -0.00051008    0.00005628
     atom   43 type  1   force =    -0.00050412    0.00046723   -0.00037113
     atom   44 type  1   force =    -0.00005203    0.00006368   -0.00004471
     atom   45 type  2   force =     0.00005059    0.00003164    0.09875249
     atom   46 type  2   force =    -0.07990082    0.00000665   -0.03165102
     atom   47 type  2   force =     0.07979266    0.00043608   -0.03172317
     atom   48 type  3   force =    -0.00010630    0.00193537    0.00098907
     atom   49 type  4   force =    -0.00019576   -0.00000740   -0.00007043
     atom   50 type  5   force =    -0.00017567   -0.00031875   -0.00029002
     atom   51 type  5   force =     0.00011217    0.00036074   -0.00031535
     atom   52 type  3   force =     0.00053993    0.00475413    0.00547184
     atom   53 type  5   force =    -0.00112816   -0.00670283   -0.00601213
     atom   54 type  2   force =    -0.00031423   -0.00017718   -0.00083082
     atom   55 type  5   force =     0.00109037    0.00006026    0.00064385

     Total force =     0.396840     Total SCF correction =     0.000484
  @ DRIVER MODE: Message from server: STATUS
  @ DRIVER MODE: Message from server: GETFORCE
  @ DRIVER MODE: Returning v,forces,stress,ensemble

     Writing output data file ./calc.save/
  @ DRIVER MODE: Message from server: EXIT
  @ DRIVE MODE: Exiting

     General routines

     Parallel routines

   This run was terminated on:   4: 6:12  23Sep2021

   JOB DONE.