     Program PWSCF v.6.7GPU starts on  9Sep2021 at  0:48:34

     R & G space division:  proc/nbgrp/npool/nimage =      10
     Reading input from /storage/home/hcoda1/3/ntian30/research/carbon/CxH_vib/CH_calc/ads_slab/CHN2H_a/out_0009/pw.inp
Warning: card &CELL ignored
Warning: card   CELL_DYNAMICS='IPI', ignored
Warning: card / ignored

     Current dimensions of program PWSCF are:
     Max number of different atomic species (ntypx) = 10
     Max number of k-points (npk) =  40000
     Max angular momentum in pseudopotentials (lmaxx) =  3
     Presently no symmetry can be used with electric field

     Message from routine cell_base_init:
     DEPRECATED: use true lattice parameter, not A to a.u. conversion factor

     IMPORTANT: XC functional enforced from input :
     Exchange-correlation= BEEF-VDW
                           (   1   4  43  14   2   0   0)
     Any further DFT definition will be discarded
     Please, verify this is what you really want

  @ DRIVER MODE: Connecting to
 qe_1139763_2767376.sched-torque.pace.gatech.eduyy1hj_mk_scratch
  using UNIX socket
  @ DRIVER MODE: Message from server: STATUS
  @ DRIVER MODE: Message from server: INIT
  @ DRIVER MODE: Receiving replica           0          -1
  @ DRIVER MODE: Receiving encoded integer          25
  @ DRIVER MODE:  SCF:  T  FORCE:  T  STRESS:  F  VC:  F  ENSEMBLE:  F
  @ DRIVER MODE:  SCF:  T  FORCE:  T  STRESS:  F  VC:  F  ENSEMBLE:  F

     Using Slab Decomposition

     bravais-lattice index     =            0
     lattice parameter (alat)  =       1.8897  a.u.
     unit-cell volume          =    6658.9804 (a.u.)^3
     number of atoms/cell      =           52
     number of atomic types    =            5
     number of electrons       =       394.00
     number of Kohn-Sham states=          207
     kinetic-energy cutoff     =      29.3995  Ry
     charge density cutoff     =     293.9946  Ry
     scf convergence threshold =      7.3E-08
     mixing beta               =       0.0500
     number of iterations used =            8  plain     mixing
     Exchange-correlation= BEEF-VDW
                           (   1   4  43  14   2   0   0)

     celldm(1)=   1.889726  celldm(2)=   0.000000  celldm(3)=   0.000000
     celldm(4)=   0.000000  celldm(5)=   0.000000  celldm(6)=   0.000000

     crystal axes: (cart. coord. in units of alat)
               a(1) = (   6.579727   0.000000   0.000000 )
               a(2) = (  -0.000775   5.961596   0.000000 )
               a(3) = (   0.000000   0.000000  25.155947 )

     reciprocal axes: (cart. coord. in units 2 pi/alat)
               b(1) = (  0.151982  0.000020  0.000000 )
               b(2) = (  0.000000  0.167740  0.000000 )
               b(3) = (  0.000000  0.000000  0.039752 )

     PseudoPot. # 1 for Ti read from file:
     /storage/coda1/p-amedford6/0/shared/rich_project_chbe-medford/medford-share/data/pseudos_module/espresso/nninc/pbe/van/Ti.UPF
     MD5 check sum: 8e4df49b7f0d34bbd5052bf3f5ea0213
     Pseudo is Ultrasoft, Zval = 12.0
     Generated by new atomic code, or converted to UPF format
     Using radial grid of  851 points,  6 beta functions with:
                l(1) =   0
                l(2) =   0
                l(3) =   1
                l(4) =   1
                l(5) =   2
                l(6) =   2
     Q(r) pseudized with  8 coefficients,  rinner =    1.000   1.000   1.000
                                                       1.000   1.000

     PseudoPot. # 2 for O  read from file:
     /storage/coda1/p-amedford6/0/shared/rich_project_chbe-medford/medford-share/data/pseudos_module/espresso/nninc/pbe/van/O.UPF
     MD5 check sum: 78c19812648e8988a0fe644b0f25305e
     Pseudo is Ultrasoft, Zval =  6.0
     Generated by new atomic code, or converted to UPF format
     Using radial grid of  737 points,  4 beta functions with:
                l(1) =   0
                l(2) =   0
                l(3) =   1
                l(4) =   1
     Q(r) pseudized with  8 coefficients,  rinner =    0.800   0.800   0.800

     PseudoPot. # 3 for N  read from file:
     /storage/coda1/p-amedford6/0/shared/rich_project_chbe-medford/medford-share/data/pseudos_module/espresso/nninc/pbe/van/N.UPF
     MD5 check sum: 90d10febe142ad51ac9d5be1deb811c4
     Pseudo is Ultrasoft, Zval =  5.0
     Generated by new atomic code, or converted to UPF format
     Using radial grid of  729 points,  4 beta functions with:
                l(1) =   0
                l(2) =   0
                l(3) =   1
                l(4) =   1
     Q(r) pseudized with  8 coefficients,  rinner =    0.800   0.800   0.800

     PseudoPot. # 4 for C  read from file:
     /storage/coda1/p-amedford6/0/shared/rich_project_chbe-medford/medford-share/data/pseudos_module/espresso/nninc/pbe/van/C.UPF
     MD5 check sum: 1a69bf6b8db32088f5b2163dbdb77a27
     Pseudo is Ultrasoft, Zval =  4.0
     Generated by new atomic code, or converted to UPF format
     Using radial grid of  721 points,  4 beta functions with:
                l(1) =   0
                l(2) =   0
                l(3) =   1
                l(4) =   1
     Q(r) pseudized with  8 coefficients,  rinner =    0.800   0.800   0.800

     PseudoPot. # 5 for H  read from file:
     /storage/coda1/p-amedford6/0/shared/rich_project_chbe-medford/medford-share/data/pseudos_module/espresso/nninc/pbe/van/H.UPF
     MD5 check sum: b5ee9d7bfd3a09ee7748110bda690ff7
     Pseudo is Ultrasoft, Zval =  1.0
     Generated by new atomic code, or converted to UPF format
     Using radial grid of  615 points,  1 beta functions with:
                l(1) =   0
     Q(r) pseudized with  8 coefficients,  rinner =    0.800

     atomic species   valence    mass     pseudopotential
        Ti1           12.00    47.86700     Ti( 1.00)
        O1             6.00    15.99900     O ( 1.00)
        N1             5.00    14.00700     N ( 1.00)
        C1             4.00    12.01100     C ( 1.00)
        H1             1.00     1.00800     H ( 1.00)

     No symmetry found

   Cartesian axes

     site n.     atom                  positions (alat units)
         1           Ti1 tau(   1) = (   0.0004258   2.9801865   6.0000000  )
         2           Ti1 tau(   2) = (   3.2906075   1.4906267   6.0002472  )
         3           O1  tau(   3) = (   0.0006271   0.0005054   7.9858123  )
         4           O1  tau(   4) = (   3.2906025   0.0005020   7.3038282  )
         5           O1  tau(   5) = (   4.5942328   1.4918067   9.2879030  )
         6           O1  tau(   6) = (   1.9868534   1.4903216   9.2879459  )
         7           Ti1 tau(   7) = (   3.2907910   2.8959150   9.1758416  )
         8           Ti1 tau(   8) = (   0.0015273   1.4827037   9.2680791  )
         9           O1  tau(   9) = (   3.3079035   5.9465650  11.3667630  )
        10           O1  tau(  10) = (   0.0116148   5.9584955  10.6183126  )
        11           O1  tau(  11) = (   1.3159687   1.4802111  12.6598234  )
        12           O1  tau(  12) = (   5.3141237   1.4785834  12.6569702  )
        13           Ti1 tau(  13) = (   0.0356438   2.9569522  12.5500042  )
        14           Ti1 tau(  14) = (   3.3321116   1.4682926  12.5176941  )
        15           O1  tau(  15) = (   0.0287262   5.9365737  14.6848071  )
        16           O1  tau(  16) = (   3.3260766   5.9477468  13.9918032  )
        17           O1  tau(  17) = (   4.5788076   1.5006004  16.1778977  )
        18           O1  tau(  18) = (   2.0653823   1.4932191  16.1519216  )
        19           Ti1 tau(  19) = (   3.3252840   2.9629899  15.7366588  )
        20           Ti1 tau(  20) = (   0.0567170   1.3280226  15.9864722  )
        21           O1  tau(  21) = (   3.2904802   0.0005063   4.7018136  )
        22           O1  tau(  22) = (   0.0395201   5.9563027  17.2132275  )
        23           O1  tau(  23) = (   1.3043587   1.4918075   6.0039043  )
        24           O1  tau(  24) = (   5.2767064   1.4903225   6.0039473  )
        25           Ti1 tau(  25) = (   0.0000382   5.9609847   6.0000000  )
        26           Ti1 tau(  26) = (   3.2902200   4.4714249   6.0002472  )
        27           O1  tau(  27) = (   0.0002396   2.9813036   7.9858123  )
        28           O1  tau(  28) = (   3.2902150   2.9813002   7.3038282  )
        29           O1  tau(  29) = (   4.5938453   4.4726049   9.2879030  )
        30           O1  tau(  30) = (   1.9864658   4.4711199   9.2879459  )
        31           Ti1 tau(  31) = (   3.2891106   5.8743827   9.1763621  )
        32           Ti1 tau(  32) = (   0.0006254   4.4649316   9.2693709  )
        33           O1  tau(  33) = (   3.3109971   2.9638951  11.3609806  )
        34           O1  tau(  34) = (   0.0092240   2.9805883  10.6323155  )
        35           O1  tau(  35) = (   1.3172493   4.4579999  12.6547637  )
        36           O1  tau(  36) = (   5.3123203   4.4599931  12.6537913  )
        37           Ti1 tau(  37) = (   0.0349292   5.9384232  12.5038109  )
        38           Ti1 tau(  38) = (   3.3308216   4.4462378  12.5132791  )
        39           O1  tau(  39) = (   0.0262156   2.9786664  14.8481040  )
        40           O1  tau(  40) = (   3.3240488   2.9673873  13.9486158  )
        41           O1  tau(  41) = (   4.5778164   4.4375445  16.1741249  )
        42           O1  tau(  42) = (   2.0647505   4.4412733  16.1578575  )
        43           Ti1 tau(  43) = (   3.3314326   5.9455663  15.7867969  )
        44           Ti1 tau(  44) = (   0.0345939   4.5236910  15.9072353  )
        45           O1  tau(  45) = (   3.2900926   2.9813045   4.7018136  )
        46           O1  tau(  46) = (   1.3039711   4.4726057   6.0039043  )
        47           O1  tau(  47) = (   5.2763189   4.4711207   6.0039473  )
        48           N1  tau(  48) = (   0.8843530   3.1395628  18.6524426  )
        49           C1  tau(  49) = (   1.8908588   3.1094352  19.2834450  )
        50           H1  tau(  50) = (   2.4245030   3.8971110  19.8100181  )
        51           N1  tau(  51) = (   6.5588057   2.9807634  17.7841789  )
        52           H1  tau(  52) = (   5.6432114   2.8891999  18.2270943  )

     number of k points=    10  Fermi-Dirac smearing, width (Ry)=  0.0073
                       cart. coord. in units 2pi/alat
        k(    1) = (   0.0000000   0.0000000   0.0000000), wk =   0.1250000
        k(    2) = (   0.0000000   0.0419351   0.0000000), wk =   0.2500000
        k(    3) = (   0.0000000  -0.0838702   0.0000000), wk =   0.1250000
        k(    4) = (   0.0379955   0.0000049   0.0000000), wk =   0.2500000
        k(    5) = (   0.0379955   0.0419400   0.0000000), wk =   0.2500000
        k(    6) = (   0.0379955  -0.0838652   0.0000000), wk =   0.2500000
        k(    7) = (   0.0379955  -0.0419301   0.0000000), wk =   0.2500000
        k(    8) = (  -0.0759910  -0.0000099   0.0000000), wk =   0.1250000
        k(    9) = (  -0.0759910   0.0419252   0.0000000), wk =   0.2500000
        k(   10) = (  -0.0759910  -0.0838800   0.0000000), wk =   0.1250000

     Initial potential from superposition of free atoms

     starting charge  377.99917, renormalised to  394.00000

     negative rho (up, down):  1.652E-02 0.000E+00

     %%%%%%%%%%%%%%%%%%%%%%%%%%%%%%%%%%%%%%%%%%%%%%%%%%%%%%%%%%%%%%%%%%%%%%%%
     %                                                                      %
     % You are using vdW-DF, which was implemented by the Thonhauser group. %
     % Please cite the following two papers that made this development      %
     % possible and the two reviews that describe the various versions:     %
     %                                                                      %
     %   T. Thonhauser et al., PRL 115, 136402 (2015).                      %
     %   T. Thonhauser et al., PRB 76, 125112 (2007).                       %
     %   K. Berland et al., Rep. Prog. Phys. 78, 066501 (2015).             %
     %   D.C. Langreth et al., J. Phys.: Condens. Matter 21, 084203 (2009). %
     %                                                                      %
     %                                                                      %
     % If you are calculating the stress with vdW-DF, please also cite:     %
     %                                                                      %
     %   R. Sabatini et al., J. Phys.: Condens. Matter 24, 424209 (2012).   %
     %                                                                      %
     %%%%%%%%%%%%%%%%%%%%%%%%%%%%%%%%%%%%%%%%%%%%%%%%%%%%%%%%%%%%%%%%%%%%%%%%

     Adding external electric field

     Computed dipole along edir(3) :
        Dipole               -8.4995 Ry au,        -21.6035 Debye
        Dipole field         -0.0160 Ry au,

        Potential amp.        1.4869 Ry
        Total length         46.3494 bohr

     Starting wfcs are  298 atomic wfcs
  @ DRIVER MODE: Message from server: STATUS
  @ DRIVER MODE: Message from server: POSDATA
  @ DRIVER MODE: Reading and sharing cell
  @ DRIVER MODE: Reading and sharing positions
  @ DRIVER MODE: Received positions

     Self-consistent Calculation

     iteration #  1     ecut=    29.40 Ry     beta= 0.05
     Davidson diagonalization with overlap
     c_bands:  1 eigenvalues not converged
     c_bands:  1 eigenvalues not converged
     c_bands:  2 eigenvalues not converged
     c_bands:  2 eigenvalues not converged
     c_bands:  2 eigenvalues not converged
     c_bands:  1 eigenvalues not converged
     ethr =  1.00E-05,  avg # of iterations = 19.0

[...]

     total energy              =   -2624.28347134 Ry
     estimated scf accuracy    <    3488.43422403 Ry

[...]

     iteration #  3     ecut=    29.40 Ry     beta= 0.05
     Davidson diagonalization with overlap
     ethr =  1.00E-02,  avg # of iterations = 14.7

[...]

     iteration # 97     ecut=    29.40 Ry     beta= 0.05
     Davidson diagonalization with overlap
     c_bands:  2 eigenvalues not converged
     ethr =  2.76E-10,  avg # of iterations = 17.3

[...]

     total energy              =   -2937.80852193 Ry
     estimated scf accuracy    <       0.00000009 Ry

     iteration #103     ecut=    29.40 Ry     beta= 0.05
     Davidson diagonalization with overlap
     ethr =  2.29E-11,  avg # of iterations =  7.4

     negative rho (up, down):  1.628E-02 0.000E+00

     Adding external electric field

     Computed dipole along edir(3) :
        Dipole                1.2803 Ry au,          3.2542 Debye
        Dipole field          0.0024 Ry au,

        Potential amp.       -0.2240 Ry
        Total length         46.3494 bohr

     End of self-consistent calculation

          k = 0.0000 0.0000 0.0000 ( 18029 PWs)   bands (ev):

   -55.4437 -55.4077 -55.4075 -55.3734 -55.3372 -55.3212 -55.2782 -55.2566
   -55.2509 -55.2419 -55.2341 -55.2220 -55.2007 -55.1723 -54.4259 -54.3919
   -32.0127 -31.8981 -31.8358 -31.8070 -31.7629 -31.7555 -31.7458 -31.7370
   -31.6971 -31.6902 -31.6528 -31.6520 -31.6446 -31.6175 -31.5981 -31.5798
   -31.5754 -31.5689 -31.5609 -31.5552 -31.5196 -31.5190 -31.5099 -31.5015
   -31.4870 -31.4646 -31.4589 -31.4555 -31.4514 -31.4481 -31.4451 -31.4308
   -31.4228 -31.4163 -31.4108 -31.4057 -31.3833 -31.3711 -31.3696 -31.3634
   -31.3428 -31.2791 -30.8348 -30.7419 -30.7198 -30.6513 -30.5645 -30.4536
   -20.2232 -16.2579 -15.9854 -15.8407 -15.7179 -15.6339 -15.5071 -15.4669
   -15.3496 -15.3304 -15.2356 -15.1602 -15.0925 -15.0895 -15.0721 -15.0459
   -14.9930 -14.9789 -14.9764 -14.9340 -14.9317 -14.8898 -14.8704 -14.8365
   -14.8186 -14.7995 -14.7802 -14.6596 -14.5903 -14.5315 -14.1671 -12.9283
   -12.8111  -8.7966  -7.0833  -5.4227  -4.6995  -3.6032  -3.4434  -3.3562
    -3.3402  -3.3359  -3.1714  -3.0433  -2.8160  -2.7770  -2.7046  -2.6503
    -2.6323  -2.6103  -2.4324  -2.4081  -2.3480  -2.3206  -2.2836  -2.2540
    -2.2291  -2.2070  -2.2010  -2.1831  -2.1684  -2.0084  -1.9098  -1.8771
    -1.8424  -1.8293  -1.7697  -1.7366  -1.7309  -1.7290  -1.7200  -1.6766
    -1.6561  -1.6091  -1.5069  -1.4730  -1.4440  -1.3235  -1.3087  -1.1598
    -1.0765  -0.9914  -0.9843  -0.9176  -0.9100  -0.8776  -0.8276  -0.8013
    -0.7791  -0.6452  -0.5739  -0.5140  -0.5009  -0.4574  -0.4126  -0.3762
    -0.2819  -0.2193  -0.2113  -0.1994  -0.0338  -0.0188   0.0272   0.0764
     0.1021   0.1492   0.1763   0.2443   0.2790   0.3239   0.3543   0.4504
     0.4912   0.5104   0.5247   0.5441   0.5561   0.6179   0.6832   0.7016
     0.7501   0.8093   0.9185   1.1176   1.1773   1.1914   1.5065   1.5407
     1.5969   1.7821   2.1718   2.2195   3.6564   3.7280   3.7917   3.8067
     3.8162   3.8920   4.0640   4.1397   4.1553   4.1619   4.1735

[...]

          k = 0.0380-0.0419 0.0000 ( 17876 PWs)   bands (ev):

[...]

          k =-0.0760-0.0000 0.0000 ( 17886 PWs)   bands (ev):

[...]

          k =-0.0760-0.0839 0.0000 ( 17948 PWs)   bands (ev):

   -55.4268 -55.4244 -55.3904 -55.3904 -55.3339 -55.3127 -55.2867 -55.2465
   -55.2452 -55.2401 -55.2379 -55.2179 -55.2173 -55.1765 -54.4090 -54.4087
   -31.8177 -31.8147 -31.7543 -31.7360 -31.7133 -31.7132 -31.7013 -31.6825
   -31.6825 -31.6542 -31.6449 -31.6394 -31.6363 -31.5959 -31.5740 -31.5709
   -31.5708 -31.5629 -31.5624 -31.5518 -31.5393 -31.5298 -31.5192 -31.5156
   -31.5114 -31.5099 -31.5098 -31.5033 -31.4811 -31.4732 -31.4709 -31.4707
   -31.4538 -31.4511 -31.4503 -31.4419 -31.4407 -31.4359 -31.3980 -31.3973
   -31.3908 -31.3705 -30.7326 -30.7323 -30.6475 -30.6472 -30.6080 -30.6078
   -20.2220 -15.7124 -15.6933 -15.6344 -15.4282 -15.4249 -15.4138 -15.3993
   -15.3627 -15.2399 -15.2195 -15.2047 -15.1878 -15.1460 -15.1423 -15.1252
   -15.1154 -15.0170 -15.0148 -15.0127 -15.0113 -14.9491 -14.9412 -14.9273
   -14.8929 -14.8897 -14.8605 -14.7908 -14.7879 -14.6532 -14.4871 -12.9127
   -12.9126  -8.7823  -7.1024  -5.4210  -4.6829  -2.9688  -2.8984  -2.8548
    -2.6457  -2.6231  -2.6084  -2.5247  -2.4757  -2.4141  -2.4066  -2.3995
    -2.3409  -2.3051  -2.2919  -2.2737  -2.2659  -2.2482  -2.2270  -2.2152
    -2.1693  -2.1588  -2.1492  -2.1132  -2.1006  -2.0825  -2.0571  -2.0380
    -2.0236  -2.0185  -1.9983  -1.8381  -1.7865  -1.7389  -1.6846  -1.6776
    -1.6356  -1.6281  -1.5338  -1.4992  -1.4703  -1.4417  -1.4338  -1.2410
    -1.2265  -1.1752  -1.1704  -1.1460  -0.9896  -0.9703  -0.9523  -0.9376
    -0.8919  -0.8089  -0.8020  -0.7658  -0.6573  -0.6283  -0.6193  -0.5708
    -0.4500  -0.4274  -0.4056  -0.3999  -0.3942  -0.3006  -0.2838  -0.2722
    -0.2424  -0.2099  -0.1587  -0.1527  -0.0994   0.0826   0.1284   0.1932
     0.2720   0.4429   0.4819   0.5081   0.5488   0.6101   0.6825   0.7002
     0.7636   0.8571   0.8716   0.9040   0.9741   1.0268   1.0346   1.0593
     1.9549   1.9557   2.0394   2.0396   3.8273   3.8377   3.9010   3.9380
     3.9864   4.0768   4.1753   4.1921   4.2353   4.2360   4.3165

     the Fermi energy is     3.7103 ev

!    total energy              =   -2937.80852340 Ry
     estimated scf accuracy    <       0.00000006 Ry
     smearing contrib. (-TS)   =      -0.03814317 Ry
     internal energy E=F+TS    =   -2937.77038024 Ry

     The total energy is F=E-TS. E is the sum of the following terms:
     one-electron contribution =  -24092.09526123 Ry
     hartree contribution      =   12136.03907603 Ry
     xc contribution           =    -484.38015321 Ry
     ewald contribution        =    9502.66286478 Ry
     electric field correction =       0.00309340 Ry

     convergence has been achieved in 103 iterations

     Forces acting on atoms (cartesian axes, Ry/au):

     atom    1 type  1   force =     0.00005848   -0.00011534    0.09405299
     atom    2 type  1   force =    -0.00017095   -0.00022347   -0.17764659
     atom    3 type  2   force =     0.00010957   -0.00020712   -0.02137731
     atom    4 type  2   force =     0.00002530   -0.00184031    0.05753936
     atom    5 type  2   force =    -0.01067478   -0.00139286    0.00633452
     atom    6 type  2   force =     0.01274074   -0.00074804    0.00661938
     atom    7 type  1   force =     0.00011226    0.00196936   -0.01404319
     atom    8 type  1   force =    -0.00046837    0.00579573    0.00395829
     atom    9 type  2   force =     0.00036080    0.00022792   -0.00008693
     atom   10 type  2   force =    -0.00024035    0.00022317   -0.00511211
     atom   11 type  2   force =     0.00005547   -0.00015636   -0.00045235
     atom   12 type  2   force =    -0.00029596    0.00000591    0.00008092
     atom   13 type  1   force =    -0.00024972    0.00000647   -0.00021920
     atom   14 type  1   force =    -0.00009310    0.00013813   -0.00013685
     atom   15 type  2   force =    -0.00048874   -0.00040861   -0.00023619
     atom   16 type  2   force =    -0.00018299    0.00019198    0.00000045
     atom   17 type  2   force =    -0.00009160   -0.00020449   -0.00024659
     atom   18 type  2   force =    -0.00036876   -0.00014966   -0.00060035
     atom   19 type  1   force =    -0.00020397    0.00013399   -0.00002174
     atom   20 type  1   force =    -0.00031725   -0.00006298    0.00086816
     atom   21 type  2   force =     0.00001689    0.00002347    0.10380144
     atom   22 type  2   force =     0.00003044    0.00017117   -0.00025985
     atom   23 type  2   force =    -0.07064328   -0.00007837   -0.02704958
     atom   24 type  2   force =     0.07053608    0.00036673   -0.02710446
     atom   25 type  1   force =     0.00000873   -0.00008541    0.09367797
     atom   26 type  1   force =    -0.00013428   -0.00016286   -0.17770737
     atom   27 type  2   force =     0.00013250   -0.00023906   -0.02035859
     atom   28 type  2   force =     0.00006768   -0.00155111    0.05701255
     atom   29 type  2   force =    -0.01101871   -0.00054084    0.00635792
     atom   30 type  2   force =     0.01294031   -0.00027500    0.00665189
     atom   31 type  1   force =     0.00029928    0.00519502   -0.01482666
     atom   32 type  1   force =    -0.00039720   -0.00655355    0.00412802
     atom   33 type  2   force =     0.00015740    0.00008059   -0.00031471
     atom   34 type  2   force =     0.00035625   -0.00102348   -0.00204380
     atom   35 type  2   force =    -0.00030771    0.00015426   -0.00021970
     atom   36 type  2   force =    -0.00004714    0.00000338    0.00011057
     atom   37 type  1   force =    -0.00007059    0.00022613   -0.00009850
     atom   38 type  1   force =     0.00005749    0.00025450    0.00023946
     atom   39 type  2   force =    -0.00007290    0.00021807   -0.00002447
     atom   40 type  2   force =    -0.00029755    0.00009547   -0.00024216
     atom   41 type  2   force =    -0.00031021   -0.00004258   -0.00004296
     atom   42 type  2   force =    -0.00015982    0.00017387   -0.00031474
     atom   43 type  1   force =    -0.00016244    0.00012187    0.00006657
     atom   44 type  1   force =    -0.00006343   -0.00050445    0.00017773
     atom   45 type  2   force =     0.00001350   -0.00000582    0.10381084
     atom   46 type  2   force =    -0.07066206   -0.00003847   -0.02706489
     atom   47 type  2   force =     0.07053917    0.00040142   -0.02710180
     atom   48 type  3   force =    -0.00107823   -0.00132671   -0.00050219
     atom   49 type  4   force =     0.00493170    0.00760868    0.00512343
     atom   50 type  5   force =    -0.00385694   -0.00635545   -0.00412598
     atom   51 type  3   force =    -0.00023839   -0.00002611   -0.00118507
     atom   52 type  5   force =    -0.00018262    0.00053121    0.00015444

     Total force =     0.366243     Total SCF correction =     0.000660
  @ DRIVER MODE: Message from server: STATUS
  @ DRIVER MODE: Message from server: GETFORCE
  @ DRIVER MODE: Returning v,forces,stress,ensemble

     Writing output data file ./calc.save/
  @ DRIVER MODE: Message from server: EXIT
  @ DRIVE MODE: Exiting

     General routines

     Parallel routines

   This run was terminated on:   1:14:20   9Sep2021

   JOB DONE.