     Program PWSCF v.6.7GPU starts on  2Aug2021 at 20:52:53

     R & G space division:  proc/nbgrp/npool/nimage =      16
     Reading input from /storage/home/hcoda1/3/ntian30/research/carbon/02Aug_vib_paired/ads_slab/CH3NNHHH_a/out_0032/pw.inp
Warning: card &CELL ignored
Warning: card   CELL_DYNAMICS='IPI', ignored
Warning: card / ignored

     Current dimensions of program PWSCF are:
     Max number of different atomic species (ntypx) = 10
     Max number of k-points (npk) =  40000
     Max angular momentum in pseudopotentials (lmaxx) =  3
     Presently no symmetry can be used with electric field

     Message from routine cell_base_init:
     DEPRECATED: use true lattice parameter, not A to a.u. conversion factor

     IMPORTANT: XC functional enforced from input :
     Exchange-correlation= BEEF-VDW
                           (   1   4  43  14   2   0   0)
     Any further DFT definition will be discarded
     Please, verify this is what you really want

  @ DRIVER MODE: Connecting to
 qe_1139763_2482545.sched-torque.pace.gatech.edu1p4d79et_scratch
  using UNIX socket
  @ DRIVER MODE: Message from server: STATUS
  @ DRIVER MODE: Message from server: INIT
  @ DRIVER MODE: Receiving replica           0          -1
  @ DRIVER MODE: Receiving encoded integer          25
  @ DRIVER MODE:  SCF:  T  FORCE:  T  STRESS:  F  VC:  F  ENSEMBLE:  F
  @ DRIVER MODE:  SCF:  T  FORCE:  T  STRESS:  F  VC:  F  ENSEMBLE:  F

     Using Slab Decomposition

     bravais-lattice index     =            0
     lattice parameter (alat)  =       1.8897  a.u.
     unit-cell volume          =    6658.9804 (a.u.)^3
     number of atoms/cell      =           56
     number of atomic types    =            5
     number of electrons       =       398.00
     number of Kohn-Sham states=          209
     kinetic-energy cutoff     =      29.3995  Ry
     charge density cutoff     =     293.9946  Ry
     scf convergence threshold =      7.3E-08
     mixing beta               =       0.0500
     number of iterations used =            8  plain     mixing
     Exchange-correlation= BEEF-VDW
                           (   1   4  43  14   2   0   0)

     celldm(1)=   1.889726  celldm(2)=   0.000000  celldm(3)=   0.000000
     celldm(4)=   0.000000  celldm(5)=   0.000000  celldm(6)=   0.000000

     crystal axes: (cart. coord. in units of alat)
               a(1) = (   6.579727   0.000000   0.000000 )
               a(2) = (  -0.000775   5.961596   0.000000 )
               a(3) = (   0.000000   0.000000  25.155947 )

     reciprocal axes: (cart. coord. in units 2 pi/alat)
               b(1) = (  0.151982  0.000020  0.000000 )
               b(2) = (  0.000000  0.167740  0.000000 )
               b(3) = (  0.000000  0.000000  0.039752 )

     PseudoPot. # 1 for Ti read from file:
     /storage/coda1/p-amedford6/0/shared/rich_project_chbe-medford/medford-share/data/pseudos_module/espresso/nninc/pbe/van/Ti.UPF
     MD5 check sum: 8e4df49b7f0d34bbd5052bf3f5ea0213
     Pseudo is Ultrasoft, Zval = 12.0
     Generated by new atomic code, or converted to UPF format
     Using radial grid of  851 points,  6 beta functions with:
                l(1) =   0
                l(2) =   0
                l(3) =   1
                l(4) =   1
                l(5) =   2
                l(6) =   2
     Q(r) pseudized with  8 coefficients,  rinner =    1.000   1.000   1.000
                                                       1.000   1.000

     PseudoPot. # 2 for O  read from file:
     /storage/coda1/p-amedford6/0/shared/rich_project_chbe-medford/medford-share/data/pseudos_module/espresso/nninc/pbe/van/O.UPF
     MD5 check sum: 78c19812648e8988a0fe644b0f25305e
     Pseudo is Ultrasoft, Zval =  6.0
     Generated by new atomic code, or converted to UPF format
     Using radial grid of  737 points,  4 beta functions with:
                l(1) =   0
                l(2) =   0
                l(3) =   1
                l(4) =   1
     Q(r) pseudized with  8 coefficients,  rinner =    0.800   0.800   0.800

     PseudoPot. # 3 for N  read from file:
     /storage/coda1/p-amedford6/0/shared/rich_project_chbe-medford/medford-share/data/pseudos_module/espresso/nninc/pbe/van/N.UPF
     MD5 check sum: 90d10febe142ad51ac9d5be1deb811c4
     Pseudo is Ultrasoft, Zval =  5.0
     Generated by new atomic code, or converted to UPF format
     Using radial grid of  729 points,  4 beta functions with:
                l(1) =   0
                l(2) =   0
                l(3) =   1
                l(4) =   1
     Q(r) pseudized with  8 coefficients,  rinner =    0.800   0.800   0.800

     PseudoPot. # 4 for C  read from file:
     /storage/coda1/p-amedford6/0/shared/rich_project_chbe-medford/medford-share/data/pseudos_module/espresso/nninc/pbe/van/C.UPF
     MD5 check sum: 1a69bf6b8db32088f5b2163dbdb77a27
     Pseudo is Ultrasoft, Zval =  4.0
     Generated by new atomic code, or converted to UPF format
     Using radial grid of  721 points,  4 beta functions with:
                l(1) =   0
                l(2) =   0
                l(3) =   1
                l(4) =   1
     Q(r) pseudized with  8 coefficients,  rinner =    0.800   0.800   0.800

     PseudoPot. # 5 for H  read from file:
     /storage/coda1/p-amedford6/0/shared/rich_project_chbe-medford/medford-share/data/pseudos_module/espresso/nninc/pbe/van/H.UPF
     MD5 check sum: b5ee9d7bfd3a09ee7748110bda690ff7
     Pseudo is Ultrasoft, Zval =  1.0
     Generated by new atomic code, or converted to UPF format
     Using radial grid of  615 points,  1 beta functions with:
                l(1) =   0
     Q(r) pseudized with  8 coefficients,  rinner =    0.800

     atomic species   valence    mass     pseudopotential
        Ti1           12.00    47.86700     Ti( 1.00)
        O1             6.00    15.99900     O ( 1.00)
        N1             5.00    14.00700     N ( 1.00)
        C1             4.00    12.01100     C ( 1.00)
        H1             1.00     1.00800     H ( 1.00)

     No symmetry found

   Cartesian axes

     site n.     atom                  positions (alat units)
         1           Ti1 tau(   1) = (   0.0004258   2.9801865   6.0000000  )
         2           Ti1 tau(   2) = (   3.2906075   1.4906267   6.0002472  )
         3           O1  tau(   3) = (   0.0006271   0.0005054   7.9858123  )
         4           O1  tau(   4) = (   3.2906025   0.0005020   7.3038282  )
         5           O1  tau(   5) = (   4.5942328   1.4918067   9.2879030  )
         6           O1  tau(   6) = (   1.9868534   1.4903216   9.2879459  )
         7           Ti1 tau(   7) = (   3.2907910   2.8959150   9.1758416  )
         8           Ti1 tau(   8) = (   0.0015273   1.4827037   9.2680791  )
         9           O1  tau(   9) = (   3.2969863   5.9453513  11.3493076  )
        10           O1  tau(  10) = (   0.0116148   5.9584955  10.6183126  )
        11           O1  tau(  11) = (   1.3059050   1.4736943  12.6642453  )
        12           O1  tau(  12) = (   5.3003793   1.4775083  12.6459419  )
        13           Ti1 tau(  13) = (   0.0167275   2.9625105  12.5508078  )
        14           Ti1 tau(  14) = (   3.3131340   1.4712512  12.4909780  )
        15           O1  tau(  15) = (   6.5517612   5.9325698  14.7566896  )
        16           O1  tau(  16) = (   3.3302114   5.9429442  13.9823395  )
        17           O1  tau(  17) = (   4.5243935   1.5056208  16.2316672  )
        18           O1  tau(  18) = (   2.0170937   1.4633510  16.1378485  )
        19           Ti1 tau(  19) = (   3.2500237   2.9242626  15.6920970  )
        20           Ti1 tau(  20) = (   6.5441017   1.2779805  16.1516014  )
        21           O1  tau(  21) = (   3.2904802   0.0005063   4.7018136  )
        22           O1  tau(  22) = (   6.5540411   5.9581837  17.3465722  )
        23           O1  tau(  23) = (   1.3043587   1.4918075   6.0039043  )
        24           O1  tau(  24) = (   5.2767064   1.4903225   6.0039473  )
        25           Ti1 tau(  25) = (   0.0000382   5.9609847   6.0000000  )
        26           Ti1 tau(  26) = (   3.2902200   4.4714249   6.0002472  )
        27           O1  tau(  27) = (   0.0002396   2.9813036   7.9858123  )
        28           O1  tau(  28) = (   3.2902150   2.9813002   7.3038282  )
        29           O1  tau(  29) = (   4.5938453   4.4726049   9.2879030  )
        30           O1  tau(  30) = (   1.9864658   4.4711199   9.2879459  )
        31           Ti1 tau(  31) = (   3.2891106   5.8743827   9.1763621  )
        32           Ti1 tau(  32) = (   0.0006254   4.4649316   9.2693709  )
        33           O1  tau(  33) = (   3.2962403   2.9651072  11.3429128  )
        34           O1  tau(  34) = (   0.0092240   2.9805883  10.6323155  )
        35           O1  tau(  35) = (   1.3076126   4.4641214  12.6643835  )
        36           O1  tau(  36) = (   5.2981430   4.4591552  12.6429889  )
        37           Ti1 tau(  37) = (   0.0194730   5.9489450  12.5196332  )
        38           Ti1 tau(  38) = (   3.3150505   4.4522436  12.4946186  )
        39           O1  tau(  39) = (   6.5702761   2.9869041  14.8038460  )
        40           O1  tau(  40) = (   3.3119818   2.9576719  13.9204832  )
        41           O1  tau(  41) = (   4.5223198   4.3950437  16.2490866  )
        42           O1  tau(  42) = (   2.0356696   4.4339808  16.1311045  )
        43           Ti1 tau(  43) = (   3.3057863   5.9493229  15.7677403  )
        44           Ti1 tau(  44) = (   0.0958844   4.4293496  15.8701971  )
        45           O1  tau(  45) = (   3.2900926   2.9813045   4.7018136  )
        46           O1  tau(  46) = (   1.3039711   4.4726057   6.0039043  )
        47           O1  tau(  47) = (   5.2763189   4.4711207   6.0039473  )
        48           N1  tau(  48) = (   0.0620580   3.0375546  17.6897758  )
        49           C1  tau(  49) = (   1.1116374   2.9693208  18.6984743  )
        50           H1  tau(  50) = (   1.2951007   3.9532040  19.1583453  )
        51           H1  tau(  51) = (   0.8627774   2.2426413  19.4871689  )
        52           H1  tau(  52) = (   2.0263963   2.6228967  18.2308865  )
        53           N1  tau(  53) = (   5.4379256   3.3744730  18.4033390  )
        54           H1  tau(  54) = (   5.6103604   4.1199394  19.0852601  )
        55           H1  tau(  55) = (   4.7934260   3.8076565  17.6395878  )
        56           H1  tau(  56) = (   5.0090149   2.5598412  18.8678436  )

     number of k points=    10  Fermi-Dirac smearing, width (Ry)=  0.0073
                       cart. coord. in units 2pi/alat
        k(    1) = (   0.0000000   0.0000000   0.0000000), wk =   0.1250000
        k(    2) = (   0.0000000   0.0419351   0.0000000), wk =   0.2500000
        k(    3) = (   0.0000000  -0.0838702   0.0000000), wk =   0.1250000
        k(    4) = (   0.0379955   0.0000049   0.0000000), wk =   0.2500000
        k(    5) = (   0.0379955   0.0419400   0.0000000), wk =   0.2500000
        k(    6) = (   0.0379955  -0.0838652   0.0000000), wk =   0.2500000
        k(    7) = (   0.0379955  -0.0419301   0.0000000), wk =   0.2500000
        k(    8) = (  -0.0759910  -0.0000099   0.0000000), wk =   0.1250000
        k(    9) = (  -0.0759910   0.0419252   0.0000000), wk =   0.2500000
        k(   10) = (  -0.0759910  -0.0838800   0.0000000), wk =   0.1250000

     Initial potential from superposition of free atoms

     starting charge  381.99914, renormalised to  398.00000

     negative rho (up, down):  1.617E-02 0.000E+00

     %%%%%%%%%%%%%%%%%%%%%%%%%%%%%%%%%%%%%%%%%%%%%%%%%%%%%%%%%%%%%%%%%%%%%%%%
     %                                                                      %
     % You are using vdW-DF, which was implemented by the Thonhauser group. %
     % Please cite the following two papers that made this development      %
     % possible and the two reviews that describe the various versions:     %
     %                                                                      %
     %   T. Thonhauser et al., PRL 115, 136402 (2015).                      %
     %   T. Thonhauser et al., PRB 76, 125112 (2007).                       %
     %   K. Berland et al., Rep. Prog. Phys. 78, 066501 (2015).             %
     %   D.C. Langreth et al., J. Phys.: Condens. Matter 21, 084203 (2009). %
     %                                                                      %
     %                                                                      %
     % If you are calculating the stress with vdW-DF, please also cite:     %
     %                                                                      %
     %   R. Sabatini et al., J. Phys.: Condens. Matter 24, 424209 (2012).   %
     %                                                                      %
     %%%%%%%%%%%%%%%%%%%%%%%%%%%%%%%%%%%%%%%%%%%%%%%%%%%%%%%%%%%%%%%%%%%%%%%%

     Adding external electric field

     Computed dipole along edir(3) :
        Dipole              -10.5729 Ry au,        -26.8736 Debye
        Dipole field         -0.0200 Ry au,

        Potential amp.        1.8496 Ry
        Total length         46.3494 bohr

     Starting wfcs are  302 atomic wfcs
  @ DRIVER MODE: Message from server: STATUS
  @ DRIVER MODE: Message from server: POSDATA
  @ DRIVER MODE: Reading and sharing cell
  @ DRIVER MODE: Reading and sharing positions
  @ DRIVER MODE: Received positions

     Self-consistent Calculation

     iteration #  1     ecut=    29.40 Ry     beta= 0.05
     Davidson diagonalization with overlap
     c_bands:  3 eigenvalues not converged
     c_bands:  3 eigenvalues not converged
     c_bands:  1 eigenvalues not converged
     c_bands:  5 eigenvalues not converged
     c_bands:  5 eigenvalues not converged
     c_bands:  5 eigenvalues not converged
     c_bands:  1 eigenvalues not converged
     c_bands:  4 eigenvalues not converged
     c_bands:  3 eigenvalues not converged
     ethr =  1.00E-05,  avg # of iterations = 20.0

[...]

     total energy              =   -2442.75175772 Ry
     estimated scf accuracy    <    5591.60110619 Ry

     iteration #  2     ecut=    29.40 Ry     beta= 0.05
     Davidson diagonalization with overlap
     ethr =  1.00E-02,  avg # of iterations = 24.2

[...]

     iteration # 67     ecut=    29.40 Ry     beta= 0.05
     Davidson diagonalization with overlap
     c_bands:  3 eigenvalues not converged
     ethr =  2.26E-11,  avg # of iterations = 15.1

[...]

     total energy              =   -2942.82494051 Ry
     estimated scf accuracy    <       0.00000008 Ry

     iteration # 68     ecut=    29.40 Ry     beta= 0.05
     Davidson diagonalization with overlap
     ethr =  1.97E-11,  avg # of iterations =  4.2

     negative rho (up, down):  1.419E-02 0.000E+00

     Adding external electric field

     Computed dipole along edir(3) :
        Dipole                1.6025 Ry au,          4.0732 Debye
        Dipole field          0.0030 Ry au,

        Potential amp.       -0.2803 Ry
        Total length         46.3494 bohr

     End of self-consistent calculation

          k = 0.0000 0.0000 0.0000 ( 18029 PWs)   bands (ev):

   -55.1454 -55.1088 -55.1066 -55.0725 -55.0279 -55.0126 -54.9898 -54.9472
   -54.9345 -54.9261 -54.9121 -54.9015 -54.8664 -54.7952 -54.1191 -54.0850
   -31.7253 -31.5964 -31.5142 -31.4823 -31.4378 -31.4370 -31.4345 -31.4044
   -31.4006 -31.3968 -31.3699 -31.3551 -31.3517 -31.3230 -31.3052 -31.2800
   -31.2635 -31.2594 -31.2495 -31.2442 -31.2179 -31.2120 -31.2050 -31.1787
   -31.1635 -31.1571 -31.1503 -31.1430 -31.1424 -31.1312 -31.1293 -31.1229
   -31.1060 -31.0973 -31.0914 -31.0650 -31.0624 -31.0501 -31.0433 -31.0378
   -31.0268 -30.9847 -30.5276 -30.4356 -30.4134 -30.3442 -30.2575 -30.1464
   -18.9734 -16.0095 -15.7551 -15.6196 -15.3847 -15.3328 -15.2763 -15.0709
   -15.0674 -14.9951 -14.9801 -14.9320 -14.9125 -14.8453 -14.7607 -14.7394
   -14.6721 -14.6707 -14.6406 -14.6295 -14.6285 -14.5659 -14.5561 -14.5268
   -14.5137 -14.4883 -14.3702 -14.2859 -14.2274 -13.9749 -13.5821 -12.6218
   -12.5047  -9.7718  -7.6939  -7.1807  -5.4755  -3.8054  -3.3468  -3.2614
    -3.1710  -3.1430  -3.0659  -3.0367  -2.8519  -2.8300  -2.4893  -2.4526
    -2.4031  -2.3851  -2.3641  -2.3463  -2.1777  -2.1524  -2.0796  -2.0457
    -2.0276  -1.9870  -1.9709  -1.9608  -1.9271  -1.9214  -1.9126  -1.7051
    -1.6486  -1.5534  -1.5313  -1.5113  -1.4721  -1.4362  -1.4274  -1.4245
    -1.4187  -1.4051  -1.3920  -1.3120  -1.2513  -1.1729  -1.1635  -1.1279
    -1.0241  -0.9751  -0.7763  -0.7626  -0.7169  -0.6747  -0.6121  -0.5906
    -0.5242  -0.4936  -0.4736  -0.3525  -0.3237  -0.2833  -0.2556  -0.1887
    -0.1563  -0.1130  -0.0273   0.0428   0.0778   0.0963   0.1560   0.2855
     0.2971   0.3260   0.3874   0.4508   0.4913   0.5121   0.5305   0.5675
     0.6167   0.7422   0.7871   0.8067   0.8110   0.8451   0.8683   0.9194
     0.9439   1.0037   1.0093   1.1281   1.1974   1.4263   1.4606   1.4835
     1.8157   1.8394   1.9034   2.0894   2.4775   2.5248   3.9590   4.0196
     4.0764   4.0934   4.1121   4.2008   4.2227   4.4218   4.4491   4.4530
     4.4559

[...]

          k = 0.0380-0.0419 0.0000 ( 17876 PWs)   bands (ev):

[...]

          k =-0.0760-0.0000 0.0000 ( 17886 PWs)   bands (ev):

[...]

          k =-0.0760-0.0839 0.0000 ( 17948 PWs)   bands (ev):

   -55.1299 -55.1241 -55.0896 -55.0895 -55.0173 -55.0091 -55.0004 -54.9311
   -54.9294 -54.9270 -54.9191 -54.9177 -54.8627 -54.7989 -54.1021 -54.1019
   -31.5289 -31.5261 -31.4492 -31.4273 -31.4115 -31.4115 -31.3822 -31.3821
   -31.3564 -31.3507 -31.3478 -31.3472 -31.3130 -31.2783 -31.2717 -31.2673
   -31.2663 -31.2623 -31.2601 -31.2538 -31.2227 -31.2190 -31.2166 -31.2137
   -31.2088 -31.2088 -31.1952 -31.1931 -31.1658 -31.1611 -31.1456 -31.1416
   -31.1391 -31.1384 -31.1370 -31.1289 -31.1041 -31.1002 -31.0975 -31.0749
   -31.0496 -31.0321 -30.4262 -30.4260 -30.3403 -30.3401 -30.3009 -30.3008
   -18.9687 -15.5165 -15.4068 -15.2998 -15.2329 -15.1903 -15.1397 -15.1215
   -15.1112 -15.0654 -15.0358 -14.9666 -14.9028 -14.8501 -14.8491 -14.8142
   -14.7360 -14.7221 -14.7151 -14.7045 -14.6480 -14.6413 -14.6097 -14.5888
   -14.5857 -14.5559 -14.4823 -14.4799 -14.3923 -14.1834 -13.6172 -12.6063
   -12.6062  -9.7416  -7.6884  -7.1277  -5.4790  -3.8278  -3.4157  -2.7647
    -2.6541  -2.4434  -2.4176  -2.3576  -2.3372  -2.2529  -2.1912  -2.1697
    -2.1464  -2.1124  -2.1095  -2.0861  -2.0638  -2.0086  -1.9813  -1.9700
    -1.9637  -1.9489  -1.9363  -1.9157  -1.8593  -1.8495  -1.8422  -1.7999
    -1.7884  -1.7571  -1.7507  -1.7121  -1.6952  -1.6203  -1.5266  -1.5022
    -1.4436  -1.3414  -1.3280  -1.3223  -1.2290  -1.2205  -1.1911  -1.1602
    -1.1051  -1.0056  -0.9508  -0.8752  -0.8720  -0.8416  -0.7541  -0.6910
    -0.6572  -0.6478  -0.6073  -0.5498  -0.5281  -0.4947  -0.4118  -0.3703
    -0.3432  -0.3077  -0.2137  -0.1519  -0.1297  -0.0983  -0.0949  -0.0055
     0.0275   0.0643   0.0850   0.1233   0.1498   0.2178   0.2375   0.3471
     0.4179   0.4471   0.5661   0.5902   0.6548   0.7867   0.8580   0.8993
     0.9527   1.0095   1.0364   1.1669   1.1741   1.1976   1.2926   1.3329
     1.3398   1.3529   2.2622   2.2632   2.3448   2.3450   4.0911   4.1777
     4.2210   4.2585   4.3663   4.4754   4.4941   4.5370   4.5375   4.6131
     4.6193

     the Fermi energy is     4.0113 ev

!    total energy              =   -2942.82496778 Ry
     estimated scf accuracy    <       0.00000004 Ry
     smearing contrib. (-TS)   =      -0.03686338 Ry
     internal energy E=F+TS    =   -2942.78810440 Ry

     The total energy is F=E-TS. E is the sum of the following terms:
     one-electron contribution =  -23972.26191098 Ry
     hartree contribution      =   12081.59965019 Ry
     xc contribution           =    -487.77279880 Ry
     ewald contribution        =    9435.64210887 Ry
     electric field correction =       0.00484632 Ry

     convergence has been achieved in  68 iterations

     Forces acting on atoms (cartesian axes, Ry/au):

     atom    1 type  1   force =     0.00014581   -0.00023739    0.09428848
     atom    2 type  1   force =    -0.00010056   -0.00033791   -0.17741476
     atom    3 type  2   force =     0.00005836   -0.00017044   -0.02135676
     atom    4 type  2   force =    -0.00001393   -0.00172300    0.05656879
     atom    5 type  2   force =    -0.01054692   -0.00127676    0.00624709
     atom    6 type  2   force =     0.01221402   -0.00073886    0.00571854
     atom    7 type  1   force =    -0.00034128    0.00172400   -0.01621404
     atom    8 type  1   force =    -0.00010775    0.00438338    0.00560388
     atom    9 type  2   force =     0.00000873   -0.00003714   -0.00003509
     atom   10 type  2   force =    -0.00074144   -0.00021769   -0.00045570
     atom   11 type  2   force =     0.00035391    0.00012281   -0.00019667
     atom   12 type  2   force =    -0.00053003    0.00000217   -0.00013288
     atom   13 type  1   force =     0.00002568   -0.00033590    0.00018246
     atom   14 type  1   force =     0.00057397    0.00011927   -0.00029797
     atom   15 type  2   force =    -0.00043013    0.00025384   -0.00019106
     atom   16 type  2   force =    -0.00031848    0.00018520   -0.00007340
     atom   17 type  2   force =    -0.00018739    0.00007076    0.00031317
     atom   18 type  2   force =     0.00019940    0.00026631   -0.00025327
     atom   19 type  1   force =     0.00004579   -0.00005605    0.00027105
     atom   20 type  1   force =     0.00013256    0.00036961   -0.00025424
     atom   21 type  2   force =     0.00003579    0.00004010    0.10359019
     atom   22 type  2   force =    -0.00002813   -0.00070118   -0.00067670
     atom   23 type  2   force =    -0.07080820   -0.00011348   -0.02719422
     atom   24 type  2   force =     0.07067440    0.00033786   -0.02722685
     atom   25 type  1   force =    -0.00009517   -0.00020322    0.09375556
     atom   26 type  1   force =    -0.00013523   -0.00031506   -0.17730862
     atom   27 type  2   force =     0.00009076   -0.00035226   -0.02046246
     atom   28 type  2   force =     0.00003340   -0.00143975    0.05587826
     atom   29 type  2   force =    -0.01090795   -0.00073295    0.00609591
     atom   30 type  2   force =     0.01246125   -0.00029021    0.00557488
     atom   31 type  1   force =    -0.00015768    0.00465226   -0.01718880
     atom   32 type  1   force =    -0.00003198   -0.00482855    0.00559581
     atom   33 type  2   force =     0.00006050    0.00012029    0.00027703
     atom   34 type  2   force =     0.00005750   -0.00085073   -0.00297793
     atom   35 type  2   force =     0.00023905    0.00003070    0.00007093
     atom   36 type  2   force =    -0.00043734    0.00015349   -0.00006800
     atom   37 type  1   force =    -0.00013596   -0.00010464   -0.00011433
     atom   38 type  1   force =     0.00044582   -0.00028766    0.00039568
     atom   39 type  2   force =    -0.00045777    0.00013418    0.00066441
     atom   40 type  2   force =    -0.00011338    0.00020034   -0.00022377
     atom   41 type  2   force =     0.00020478   -0.00007352    0.00086870
     atom   42 type  2   force =     0.00000183    0.00026632   -0.00018885
     atom   43 type  1   force =    -0.00057706    0.00073982    0.00015527
     atom   44 type  1   force =     0.00004898    0.00037349   -0.00026034
     atom   45 type  2   force =     0.00002806    0.00000596    0.10359084
     atom   46 type  2   force =    -0.07080686   -0.00003890   -0.02718820
     atom   47 type  2   force =     0.07067523    0.00038504   -0.02719402
     atom   48 type  3   force =     0.00495024   -0.00096793    0.00011120
     atom   49 type  4   force =     0.00195328   -0.00052543   -0.00142217
     atom   50 type  5   force =    -0.00011653   -0.00006492   -0.00006216
     atom   51 type  5   force =    -0.00041762   -0.00024592   -0.00008307
     atom   52 type  5   force =    -0.00007589    0.00001284    0.00044186
     atom   53 type  3   force =    -0.01687455   -0.00223049   -0.00120759
     atom   54 type  5   force =     0.00256350    0.00207716    0.00153882
     atom   55 type  5   force =     0.00409533   -0.00116682    0.00195817
     atom   56 type  5   force =     0.00311727    0.00363757   -0.00183305

     Total force =     0.366066     Total SCF correction =     0.000599
  @ DRIVER MODE: Message from server: STATUS
  @ DRIVER MODE: Message from server: GETFORCE
  @ DRIVER MODE: Returning v,forces,stress,ensemble

     Writing output data file ./calc.save/
  @ DRIVER MODE: Message from server: EXIT
  @ DRIVE MODE: Exiting

     General routines

     Parallel routines

   This run was terminated on:  21: 8: 4   2Aug2021

   JOB DONE.