     Program PWSCF v.6.7GPU starts on 23Sep2021 at 10:41:32

     R & G space division:  proc/nbgrp/npool/nimage =       8
     Reading input from /storage/home/hcoda1/3/ntian30/research/carbon/CxH_vib/H2O_calc/ads_slab/CH2NNHHHO_a/out_0000/pw.inp
Warning: card &CELL ignored
Warning: card   CELL_DYNAMICS='IPI', ignored
Warning: card / ignored

     Current dimensions of program PWSCF are:
     Max number of different atomic species (ntypx) = 10
     Max number of k-points (npk) =  40000
     Max angular momentum in pseudopotentials (lmaxx) =  3
     Presently no symmetry can be used with electric field

     Message from routine cell_base_init:
     DEPRECATED: use true lattice parameter, not A to a.u. conversion factor

     IMPORTANT: XC functional enforced from input :
     Exchange-correlation= BEEF-VDW
                           (   1   4  43  14   2   0   0)
     Any further DFT definition will be discarded
     Please, verify this is what you really want

  @ DRIVER MODE: Connecting to
 qe_1139763_2947314.sched-torque.pace.gatech.edu06qh7v0m_scratch
  using UNIX socket
  @ DRIVER MODE: Message from server: STATUS
  @ DRIVER MODE: Message from server: INIT
  @ DRIVER MODE: Receiving replica           0          -1
  @ DRIVER MODE: Receiving encoded integer          25
  @ DRIVER MODE:  SCF:  T  FORCE:  T  STRESS:  F  VC:  F  ENSEMBLE:  F
  @ DRIVER MODE:  SCF:  T  FORCE:  T  STRESS:  F  VC:  F  ENSEMBLE:  F

     Using Slab Decomposition

     bravais-lattice index     =            0
     lattice parameter (alat)  =       1.8897  a.u.
     unit-cell volume          =    6658.9804 (a.u.)^3
     number of atoms/cell      =           56
     number of atomic types    =            5
     number of electrons       =       403.00
     number of Kohn-Sham states=          211
     kinetic-energy cutoff     =      29.3995  Ry
     charge density cutoff     =     293.9946  Ry
     scf convergence threshold =      7.3E-08
     mixing beta               =       0.0500
     number of iterations used =            8  plain     mixing
     Exchange-correlation= BEEF-VDW
                           (   1   4  43  14   2   0   0)

     celldm(1)=   1.889726  celldm(2)=   0.000000  celldm(3)=   0.000000
     celldm(4)=   0.000000  celldm(5)=   0.000000  celldm(6)=   0.000000

     crystal axes: (cart. coord. in units of alat)
               a(1) = (   6.579727   0.000000   0.000000 )
               a(2) = (  -0.000775   5.961596   0.000000 )
               a(3) = (   0.000000   0.000000  25.155947 )

     reciprocal axes: (cart. coord. in units 2 pi/alat)
               b(1) = (  0.151982  0.000020  0.000000 )
               b(2) = (  0.000000  0.167740  0.000000 )
               b(3) = (  0.000000  0.000000  0.039752 )

     PseudoPot. # 1 for Ti read from file:
     /storage/coda1/p-amedford6/0/shared/rich_project_chbe-medford/medford-share/data/pseudos_module/espresso/nninc/pbe/van/Ti.UPF
     MD5 check sum: 8e4df49b7f0d34bbd5052bf3f5ea0213
     Pseudo is Ultrasoft, Zval = 12.0
     Generated by new atomic code, or converted to UPF format
     Using radial grid of  851 points,  6 beta functions with:
                l(1) =   0
                l(2) =   0
                l(3) =   1
                l(4) =   1
                l(5) =   2
                l(6) =   2
     Q(r) pseudized with  8 coefficients,  rinner =    1.000   1.000   1.000
                                                       1.000   1.000

     PseudoPot. # 2 for O  read from file:
     /storage/coda1/p-amedford6/0/shared/rich_project_chbe-medford/medford-share/data/pseudos_module/espresso/nninc/pbe/van/O.UPF
     MD5 check sum: 78c19812648e8988a0fe644b0f25305e
     Pseudo is Ultrasoft, Zval =  6.0
     Generated by new atomic code, or converted to UPF format
     Using radial grid of  737 points,  4 beta functions with:
                l(1) =   0
                l(2) =   0
                l(3) =   1
                l(4) =   1
     Q(r) pseudized with  8 coefficients,  rinner =    0.800   0.800   0.800

     PseudoPot. # 3 for N  read from file:
     /storage/coda1/p-amedford6/0/shared/rich_project_chbe-medford/medford-share/data/pseudos_module/espresso/nninc/pbe/van/N.UPF
     MD5 check sum: 90d10febe142ad51ac9d5be1deb811c4
     Pseudo is Ultrasoft, Zval =  5.0
     Generated by new atomic code, or converted to UPF format
     Using radial grid of  729 points,  4 beta functions with:
                l(1) =   0
                l(2) =   0
                l(3) =   1
                l(4) =   1
     Q(r) pseudized with  8 coefficients,  rinner =    0.800   0.800   0.800

     PseudoPot. # 4 for C  read from file:
     /storage/coda1/p-amedford6/0/shared/rich_project_chbe-medford/medford-share/data/pseudos_module/espresso/nninc/pbe/van/C.UPF
     MD5 check sum: 1a69bf6b8db32088f5b2163dbdb77a27
     Pseudo is Ultrasoft, Zval =  4.0
     Generated by new atomic code, or converted to UPF format
     Using radial grid of  721 points,  4 beta functions with:
                l(1) =   0
                l(2) =   0
                l(3) =   1
                l(4) =   1
     Q(r) pseudized with  8 coefficients,  rinner =    0.800   0.800   0.800

     PseudoPot. # 5 for H  read from file:
     /storage/coda1/p-amedford6/0/shared/rich_project_chbe-medford/medford-share/data/pseudos_module/espresso/nninc/pbe/van/H.UPF
     MD5 check sum: b5ee9d7bfd3a09ee7748110bda690ff7
     Pseudo is Ultrasoft, Zval =  1.0
     Generated by new atomic code, or converted to UPF format
     Using radial grid of  615 points,  1 beta functions with:
                l(1) =   0
     Q(r) pseudized with  8 coefficients,  rinner =    0.800

     atomic species   valence    mass     pseudopotential
        Ti1           12.00    47.86700     Ti( 1.00)
        O1             6.00    15.99900     O ( 1.00)
        N1             5.00    14.00700     N ( 1.00)
        C1             4.00    12.01100     C ( 1.00)
        H1             1.00     1.00800     H ( 1.00)

     No symmetry found

   Cartesian axes

     site n.     atom                  positions (alat units)
         1           Ti1 tau(   1) = (   0.0004258   2.9801865   6.0000000  )
         2           Ti1 tau(   2) = (   3.2906075   1.4906267   6.0002472  )
         3           O1  tau(   3) = (   0.0006271   0.0005054   7.9858123  )
         4           O1  tau(   4) = (   3.2906025   0.0005020   7.3038282  )
         5           O1  tau(   5) = (   4.5942328   1.4918067   9.2879030  )
         6           O1  tau(   6) = (   1.9868534   1.4903216   9.2879459  )
         7           Ti1 tau(   7) = (   3.2907910   2.8959150   9.1758416  )
         8           Ti1 tau(   8) = (   0.0015273   1.4827037   9.2680791  )
         9           O1  tau(   9) = (   3.2834828   5.9254549  11.3560997  )
        10           O1  tau(  10) = (   0.0116148   5.9584955  10.6183126  )
        11           O1  tau(  11) = (   1.2632982   1.4794151  12.6467768  )
        12           O1  tau(  12) = (   5.2979234   1.4912170  12.6376735  )
        13           Ti1 tau(  13) = (   6.5593102   2.9584919  12.5255918  )
        14           Ti1 tau(  14) = (   3.2941082   1.2876829  12.7086691  )
        15           O1  tau(  15) = (   6.5459232   0.0848410  14.6672212  )
        16           O1  tau(  16) = (   3.2899079   0.0686032  13.9983899  )
        17           O1  tau(  17) = (   4.5347701   1.5447734  16.1667714  )
        18           O1  tau(  18) = (   1.9898569   1.5359154  16.1924900  )
        19           Ti1 tau(  19) = (   3.2532585   2.9792413  15.6887139  )
        20           Ti1 tau(  20) = (   6.5162390   1.4193964  16.0443711  )
        21           O1  tau(  21) = (   3.2904802   0.0005063   4.7018136  )
        22           O1  tau(  22) = (   6.5314393   5.8470953  17.1670503  )
        23           O1  tau(  23) = (   1.3043587   1.4918075   6.0039043  )
        24           O1  tau(  24) = (   5.2767064   1.4903225   6.0039473  )
        25           Ti1 tau(  25) = (   0.0000382   5.9609847   6.0000000  )
        26           Ti1 tau(  26) = (   3.2902200   4.4714249   6.0002472  )
        27           O1  tau(  27) = (   0.0002396   2.9813036   7.9858123  )
        28           O1  tau(  28) = (   3.2902150   2.9813002   7.3038282  )
        29           O1  tau(  29) = (   4.5938453   4.4726049   9.2879030  )
        30           O1  tau(  30) = (   1.9864658   4.4711199   9.2879459  )
        31           Ti1 tau(  31) = (   3.2891106   5.8743827   9.1763621  )
        32           Ti1 tau(  32) = (   0.0006254   4.4649316   9.2693709  )
        33           O1  tau(  33) = (   3.2801501   3.0037454  11.3162440  )
        34           O1  tau(  34) = (   0.0092240   2.9805883  10.6323155  )
        35           O1  tau(  35) = (   1.2628463   4.4620516  12.6871769  )
        36           O1  tau(  36) = (   5.2965349   4.4479299  12.6783795  )
        37           Ti1 tau(  37) = (   0.0245004   5.9521619  12.5031165  )
        38           Ti1 tau(  38) = (   3.2934334   4.3725749  12.4478892  )
        39           O1  tau(  39) = (   0.0012172   2.9324930  14.9038371  )
        40           O1  tau(  40) = (   3.2612729   2.9642313  13.9201381  )
        41           O1  tau(  41) = (   4.5459169   4.3864222  16.0774642  )
        42           O1  tau(  42) = (   2.0085495   4.4473877  16.1057765  )
        43           Ti1 tau(  43) = (   3.2275989   5.9528725  16.3079466  )
        44           Ti1 tau(  44) = (   6.5418721   4.6299905  15.7990834  )
        45           O1  tau(  45) = (   3.2900926   2.9813045   4.7018136  )
        46           O1  tau(  46) = (   1.3039711   4.4726057   6.0039043  )
        47           O1  tau(  47) = (   5.2763189   4.4711207   6.0039473  )
        48           N1  tau(  48) = (   6.5153795   2.7269917  18.1720481  )
        49           C1  tau(  49) = (   0.9714328   2.6352729  18.9176740  )
        50           H1  tau(  50) = (   0.9613011   2.9697384  19.9541300  )
        51           H1  tau(  51) = (   1.8619620   2.1844435  18.5121220  )
        52           N1  tau(  52) = (   5.3313596   3.1722530  18.7397816  )
        53           H1  tau(  53) = (   5.4931776   3.7097374  19.5894643  )
        54           H1  tau(  54) = (   4.8256156   3.7472006  18.0707398  )
        55           O1  tau(  55) = (   3.3867674   5.8992794  18.1610867  )
        56           H1  tau(  56) = (   4.0349165   0.5560778  18.5374839  )

     number of k points=    10  Fermi-Dirac smearing, width (Ry)=  0.0073
                       cart. coord. in units 2pi/alat
        k(    1) = (   0.0000000   0.0000000   0.0000000), wk =   0.1250000
        k(    2) = (   0.0000000   0.0419351   0.0000000), wk =   0.2500000
        k(    3) = (   0.0000000  -0.0838702   0.0000000), wk =   0.1250000
        k(    4) = (   0.0379955   0.0000049   0.0000000), wk =   0.2500000
        k(    5) = (   0.0379955   0.0419400   0.0000000), wk =   0.2500000
        k(    6) = (   0.0379955  -0.0838652   0.0000000), wk =   0.2500000
        k(    7) = (   0.0379955  -0.0419301   0.0000000), wk =   0.2500000
        k(    8) = (  -0.0759910  -0.0000099   0.0000000), wk =   0.1250000
        k(    9) = (  -0.0759910   0.0419252   0.0000000), wk =   0.2500000
        k(   10) = (  -0.0759910  -0.0838800   0.0000000), wk =   0.1250000

     Initial potential from superposition of free atoms

     starting charge  386.99914, renormalised to  403.00000

     negative rho (up, down):  1.547E-02 0.000E+00

     %%%%%%%%%%%%%%%%%%%%%%%%%%%%%%%%%%%%%%%%%%%%%%%%%%%%%%%%%%%%%%%%%%%%%%%%
     %                                                                      %
     % You are using vdW-DF, which was implemented by the Thonhauser group. %
     % Please cite the following two papers that made this development      %
     % possible and the two reviews that describe the various versions:     %
     %                                                                      %
     %   T. Thonhauser et al., PRL 115, 136402 (2015).                      %
     %   T. Thonhauser et al., PRB 76, 125112 (2007).                       %
     %   K. Berland et al., Rep. Prog. Phys. 78, 066501 (2015).             %
     %   D.C. Langreth et al., J. Phys.: Condens. Matter 21, 084203 (2009). %
     %                                                                      %
     %                                                                      %
     % If you are calculating the stress with vdW-DF, please also cite:     %
     %                                                                      %
     %   R. Sabatini et al., J. Phys.: Condens. Matter 24, 424209 (2012).   %
     %                                                                      %
     %%%%%%%%%%%%%%%%%%%%%%%%%%%%%%%%%%%%%%%%%%%%%%%%%%%%%%%%%%%%%%%%%%%%%%%%

     Adding external electric field

     Computed dipole along edir(3) :
        Dipole              -13.0228 Ry au,        -33.1008 Debye
        Dipole field         -0.0246 Ry au,

        Potential amp.        2.2781 Ry
        Total length         46.3494 bohr

     Starting wfcs are  305 atomic wfcs
  @ DRIVER MODE: Message from server: STATUS
  @ DRIVER MODE: Message from server: POSDATA
  @ DRIVER MODE: Reading and sharing cell
  @ DRIVER MODE: Reading and sharing positions
  @ DRIVER MODE: Received positions

     Self-consistent Calculation

     iteration #  1     ecut=    29.40 Ry     beta= 0.05
     Davidson diagonalization with overlap
     ethr =  1.00E-02,  avg # of iterations =  3.7

[...]

     total energy              =   -2350.33125195 Ry
     estimated scf accuracy    <    7094.62476648 Ry

[...]

     iteration #  9     ecut=    29.40 Ry     beta= 0.05
     Davidson diagonalization with overlap
     c_bands:  2 eigenvalues not converged
     ethr =  4.55E-03,  avg # of iterations = 12.8

[...]

     iteration # 56     ecut=    29.40 Ry     beta= 0.05
     Davidson diagonalization with overlap
     c_bands:  1 eigenvalues not converged
     c_bands:  2 eigenvalues not converged
     c_bands:  1 eigenvalues not converged
     c_bands:  1 eigenvalues not converged
     c_bands:  2 eigenvalues not converged
     ethr =  1.06E-06,  avg # of iterations = 18.8

[...]

     total energy              =   -2974.00158632 Ry
     estimated scf accuracy    <       0.00000017 Ry

     iteration # 76     ecut=    29.40 Ry     beta= 0.05
     Davidson diagonalization with overlap
     ethr =  4.28E-11,  avg # of iterations = 10.0

     negative rho (up, down):  1.591E-02 0.000E+00

     Adding external electric field

     Computed dipole along edir(3) :
        Dipole                1.0886 Ry au,          2.7670 Debye
        Dipole field          0.0021 Ry au,

        Potential amp.       -0.1904 Ry
        Total length         46.3494 bohr

     End of self-consistent calculation

          k = 0.0000 0.0000 0.0000 ( 18029 PWs)   bands (ev):

   -55.5958 -55.5301 -55.4961 -55.3794 -55.3734 -55.3567 -55.3431 -55.3305
   -55.3229 -55.2949 -55.2474 -55.1472 -55.1320 -55.0551 -54.4984 -54.4644
   -32.0145 -31.9329 -31.8974 -31.8647 -31.8596 -31.8251 -31.8210 -31.8073
   -31.7798 -31.7759 -31.7572 -31.6826 -31.6562 -31.6485 -31.6364 -31.6329
   -31.6213 -31.6115 -31.5877 -31.5876 -31.5811 -31.5533 -31.5428 -31.5378
   -31.5198 -31.5156 -31.5111 -31.4968 -31.4871 -31.4844 -31.4764 -31.4672
   -31.4671 -31.4436 -31.4212 -31.4026 -31.3444 -31.3361 -31.3034 -31.2936
   -31.2737 -31.2614 -30.9039 -30.8186 -30.7961 -30.7217 -30.6354 -30.5233
   -18.3829 -16.4391 -16.1669 -15.9997 -15.7872 -15.7071 -15.6685 -15.4753
   -15.3830 -15.3216 -15.0926 -15.0696 -15.0645 -15.0390 -15.0289 -15.0132
   -14.9962 -14.9568 -14.9481 -14.9395 -14.9159 -14.9012 -14.8692 -14.8173
   -14.7747 -14.7582 -14.6637 -14.5950 -14.5484 -14.3136 -14.2154 -13.5007
   -12.9965 -12.8802  -8.5612  -6.2672  -5.8508  -4.0444  -3.8498  -3.5287
    -3.4334  -3.4120  -3.3517  -3.2880  -3.0466  -2.9774  -2.8851  -2.8356
    -2.7610  -2.6461  -2.5974  -2.5266  -2.4554  -2.4461  -2.3988  -2.3698
    -2.3082  -2.2948  -2.2590  -2.2524  -2.1816  -2.1618  -2.0612  -2.0488
    -2.0343  -1.8996  -1.8864  -1.8438  -1.8360  -1.8357  -1.7970  -1.7783
    -1.7626  -1.7460  -1.6409  -1.6022  -1.5817  -1.5099  -1.4775  -1.1617
    -1.1291  -1.0863  -1.0669  -1.0156  -0.9637  -0.9406  -0.9181  -0.8536
    -0.8155  -0.7656  -0.7335  -0.7000  -0.6186  -0.5825  -0.5407  -0.4574
    -0.3832  -0.3086  -0.3034  -0.2588  -0.2308  -0.2047  -0.1061  -0.0809
    -0.0675   0.0317   0.0523   0.1274   0.1676   0.2109   0.2497   0.2973
     0.3623   0.3797   0.4052   0.4413   0.4487   0.5041   0.5244   0.5831
     0.6360   0.6511   0.7492   0.8069   0.8214   0.8399   0.9473   1.0260
     1.1460   1.1541   1.2550   1.4805   1.5285   1.5724   1.7218   2.0946
     2.1396   3.5565   3.7052   3.7218   3.7659   3.8130   3.8972   4.0433
     4.1060   4.2433   4.2479

[...]

          k = 0.0380-0.0419 0.0000 ( 17876 PWs)   bands (ev):

[...]

          k =-0.0760-0.0000 0.0000 ( 17886 PWs)   bands (ev):

[...]

          k =-0.0760-0.0839 0.0000 ( 17948 PWs)   bands (ev):

   -55.5950 -55.5132 -55.5129 -55.3722 -55.3660 -55.3562 -55.3399 -55.3394
   -55.3312 -55.2879 -55.2544 -55.1441 -55.1332 -55.0581 -54.4817 -54.4810
   -31.8784 -31.8298 -31.8297 -31.8280 -31.8163 -31.8067 -31.8064 -31.7999
   -31.7323 -31.6851 -31.6762 -31.6658 -31.6608 -31.6333 -31.6331 -31.6314
   -31.6295 -31.6151 -31.6124 -31.5976 -31.5856 -31.5760 -31.5664 -31.5557
   -31.5468 -31.5429 -31.5339 -31.5333 -31.5179 -31.5125 -31.5099 -31.5060
   -31.5056 -31.4775 -31.4735 -31.4151 -31.3963 -31.3731 -31.3469 -31.3398
   -31.3099 -31.2654 -30.8091 -30.8086 -30.7174 -30.7162 -30.6789 -30.6783
   -18.3800 -16.4236 -15.7479 -15.6224 -15.4972 -15.4929 -15.3722 -15.2947
   -15.2772 -15.2484 -15.2366 -15.2024 -15.1849 -15.1491 -15.1173 -15.0866
   -15.0465 -15.0256 -15.0122 -14.9730 -14.9622 -14.9450 -14.9354 -14.9124
   -14.8710 -14.8356 -14.8248 -14.6811 -14.6263 -14.5795 -14.4400 -13.5096
   -12.9823 -12.9819  -8.5377  -6.2335  -5.8701  -3.9937  -3.9282  -2.9862
    -2.9196  -2.8174  -2.7134  -2.6182  -2.5644  -2.5289  -2.4912  -2.4468
    -2.4245  -2.3745  -2.3335  -2.3133  -2.3048  -2.2721  -2.2633  -2.2482
    -2.2282  -2.2133  -2.1981  -2.1879  -2.1597  -2.1425  -2.1417  -2.1079
    -2.0966  -2.0691  -2.0610  -2.0084  -1.9110  -1.8821  -1.7890  -1.6887
    -1.6809  -1.6679  -1.6440  -1.6064  -1.5952  -1.5697  -1.5330  -1.4729
    -1.4644  -1.3005  -1.2475  -1.2175  -1.1432  -1.0874  -1.0568  -1.0293
    -0.9860  -0.9612  -0.8877  -0.8582  -0.7619  -0.7074  -0.6809  -0.6223
    -0.5452  -0.4809  -0.4721  -0.4663  -0.4391  -0.4162  -0.3906  -0.3608
    -0.3356  -0.2652  -0.2276  -0.2088  -0.1992  -0.1437  -0.0979   0.0049
     0.1312   0.2402   0.2567   0.2873   0.3261   0.4767   0.5207   0.5822
     0.6297   0.6609   0.6912   0.7845   0.7958   0.8790   0.9042   0.9409
     0.9866   1.0116   1.0440   1.0734   1.0823   1.8920   1.8993   1.9600
     1.9602   3.7744   4.0527   4.0778   4.0861   4.1035   4.1240   4.1388
     4.1587   4.2280   4.2344

     the Fermi energy is     3.5919 ev

!    total energy              =   -2974.00160035 Ry
     estimated scf accuracy    <       0.00000006 Ry
     smearing contrib. (-TS)   =      -0.01962655 Ry
     internal energy E=F+TS    =   -2973.98197380 Ry

     The total energy is F=E-TS. E is the sum of the following terms:
     one-electron contribution =  -23472.01791056 Ry
     hartree contribution      =   11831.42682715 Ry
     xc contribution           =    -494.06477746 Ry
     ewald contribution        =    9160.67165063 Ry
     electric field correction =       0.00223644 Ry

     convergence has been achieved in  76 iterations

     Forces acting on atoms (cartesian axes, Ry/au):

     atom    1 type  1   force =     0.00012762   -0.00018729    0.09456678
     atom    2 type  1   force =    -0.00002881    0.00034480   -0.17511698
     atom    3 type  2   force =    -0.00002511   -0.00002569   -0.02134921
     atom    4 type  2   force =     0.00001512   -0.00189337    0.05323924
     atom    5 type  2   force =    -0.00694525   -0.00239546    0.00357283
     atom    6 type  2   force =     0.00805621   -0.00193094    0.00205174
     atom    7 type  1   force =    -0.00070147   -0.00277715    0.01003272
     atom    8 type  1   force =     0.00060982    0.00276194    0.00502064
     atom    9 type  2   force =     0.00003268   -0.00046834    0.00023894
     atom   10 type  2   force =    -0.00253808   -0.00140571   -0.01078410
     atom   11 type  2   force =     0.00128412   -0.00017723    0.00056554
     atom   12 type  2   force =    -0.00081479   -0.00022858    0.00067303
     atom   13 type  1   force =    -0.00095439   -0.00096081    0.00046651
     atom   14 type  1   force =     0.00031728    0.00031790    0.00010043
     atom   15 type  2   force =     0.00011830    0.00027045   -0.00038373
     atom   16 type  2   force =    -0.00045869    0.00020493    0.00009315
     atom   17 type  2   force =    -0.00017641    0.00028613    0.00015219
     atom   18 type  2   force =     0.00097895   -0.00018498   -0.00031507
     atom   19 type  1   force =     0.00117389    0.00063983    0.00002189
     atom   20 type  1   force =    -0.00073575    0.00002545   -0.00006307
     atom   21 type  2   force =     0.00006449    0.00009860    0.10309058
     atom   22 type  2   force =     0.00059057    0.00072895    0.00050106
     atom   23 type  2   force =    -0.07212619   -0.00013534   -0.02734592
     atom   24 type  2   force =     0.07201224    0.00029742   -0.02734536
     atom   25 type  1   force =     0.00002180   -0.00014510    0.09405571
     atom   26 type  1   force =    -0.00015188   -0.00109383   -0.17520533
     atom   27 type  2   force =     0.00012213   -0.00024711   -0.02013888
     atom   28 type  2   force =    -0.00000229   -0.00026764    0.04931223
     atom   29 type  2   force =    -0.00564027    0.00192614    0.00159226
     atom   30 type  2   force =     0.00666769    0.00249747   -0.00000490
     atom   31 type  1   force =    -0.00072385    0.00677258   -0.00109085
     atom   32 type  1   force =     0.00050181   -0.00384994    0.00433398
     atom   33 type  2   force =     0.00016177   -0.00010669   -0.00080546
     atom   34 type  2   force =    -0.00187314    0.00170000   -0.01047245
     atom   35 type  2   force =     0.00118088    0.00029353   -0.00015725
     atom   36 type  2   force =    -0.00057059    0.00043409   -0.00024443
     atom   37 type  1   force =    -0.00064074    0.00044617   -0.00025288
     atom   38 type  1   force =     0.00055781    0.00015047    0.00014354
     atom   39 type  2   force =     0.00032848   -0.00039927    0.00040560
     atom   40 type  2   force =     0.00020485    0.00014559   -0.00035033
     atom   41 type  2   force =     0.00004019   -0.00011700   -0.00104812
     atom   42 type  2   force =     0.00036869   -0.00033884    0.00037388
     atom   43 type  1   force =     0.00012237   -0.00074602    0.00036224
     atom   44 type  1   force =    -0.00047773   -0.00012771    0.00011483
     atom   45 type  2   force =     0.00007676   -0.00006639    0.10287696
     atom   46 type  2   force =    -0.07216417   -0.00002678   -0.02734457
     atom   47 type  2   force =     0.07208578    0.00040822   -0.02738115
     atom   48 type  3   force =     0.00043639   -0.00000609   -0.00021763
     atom   49 type  4   force =     0.00023806   -0.00040420   -0.00015952
     atom   50 type  5   force =    -0.00011085   -0.00035405   -0.00010216
     atom   51 type  5   force =    -0.00026625    0.00012817    0.00004944
     atom   52 type  3   force =    -0.00049815   -0.00040282    0.00019694
     atom   53 type  5   force =     0.00006330   -0.00007358    0.00021233
     atom   54 type  5   force =    -0.00008891    0.00027281   -0.00060144
     atom   55 type  2   force =    -0.00020347    0.00089584    0.00007024
     atom   56 type  5   force =     0.00035717   -0.00050353   -0.00020667

     Total force =     0.361932     Total SCF correction =     0.000659
  @ DRIVER MODE: Message from server: STATUS
  @ DRIVER MODE: Message from server: GETFORCE
  @ DRIVER MODE: Returning v,forces,stress,ensemble

     Writing output data file ./calc.save/
  @ DRIVER MODE: Message from server: EXIT
  @ DRIVE MODE: Exiting

     General routines

     Parallel routines

   This run was terminated on:  11: 6:23  23Sep2021

   JOB DONE.