     Program PWSCF v.6.7GPU starts on 23Sep2021 at  1:16:30

     R & G space division:  proc/nbgrp/npool/nimage =      10
     Reading input from /storage/home/hcoda1/3/ntian30/research/carbon/CxH_vib/H2O_calc/ads_slab/CH2NHNHO_a/out_0028/pw.inp
Warning: card &CELL ignored
Warning: card   CELL_DYNAMICS='IPI', ignored
Warning: card / ignored

     Current dimensions of program PWSCF are:
     Max number of different atomic species (ntypx) = 10
     Max number of k-points (npk) =  40000
     Max angular momentum in pseudopotentials (lmaxx) =  3
     Presently no symmetry can be used with electric field

     Message from routine cell_base_init:
     DEPRECATED: use true lattice parameter, not A to a.u. conversion factor

     IMPORTANT: XC functional enforced from input :
     Exchange-correlation= BEEF-VDW
                           (   1   4  43  14   2   0   0)
     Any further DFT definition will be discarded
     Please, verify this is what you really want

  @ DRIVER MODE: Connecting to
 qe_1139763_2937322.sched-torque.pace.gatech.eduxitgtec0_scratch
  using UNIX socket
  @ DRIVER MODE: Message from server: STATUS
  @ DRIVER MODE: Message from server: INIT
  @ DRIVER MODE: Receiving replica           0          -1
  @ DRIVER MODE: Receiving encoded integer          25
  @ DRIVER MODE:  SCF:  T  FORCE:  T  STRESS:  F  VC:  F  ENSEMBLE:  F
  @ DRIVER MODE:  SCF:  T  FORCE:  T  STRESS:  F  VC:  F  ENSEMBLE:  F

     Using Slab Decomposition

     bravais-lattice index     =            0
     lattice parameter (alat)  =       1.8897  a.u.
     unit-cell volume          =    6658.9804 (a.u.)^3
     number of atoms/cell      =           55
     number of atomic types    =            5
     number of electrons       =       402.00
     number of Kohn-Sham states=          211
     kinetic-energy cutoff     =      29.3995  Ry
     charge density cutoff     =     293.9946  Ry
     scf convergence threshold =      7.3E-08
     mixing beta               =       0.0500
     number of iterations used =            8  plain     mixing
     Exchange-correlation= BEEF-VDW
                           (   1   4  43  14   2   0   0)

     celldm(1)=   1.889726  celldm(2)=   0.000000  celldm(3)=   0.000000
     celldm(4)=   0.000000  celldm(5)=   0.000000  celldm(6)=   0.000000

     crystal axes: (cart. coord. in units of alat)
               a(1) = (   6.579727   0.000000   0.000000 )
               a(2) = (  -0.000775   5.961596   0.000000 )
               a(3) = (   0.000000   0.000000  25.155947 )

     reciprocal axes: (cart. coord. in units 2 pi/alat)
               b(1) = (  0.151982  0.000020  0.000000 )
               b(2) = (  0.000000  0.167740  0.000000 )
               b(3) = (  0.000000  0.000000  0.039752 )

     PseudoPot. # 1 for Ti read from file:
     /storage/coda1/p-amedford6/0/shared/rich_project_chbe-medford/medford-share/data/pseudos_module/espresso/nninc/pbe/van/Ti.UPF
     MD5 check sum: 8e4df49b7f0d34bbd5052bf3f5ea0213
     Pseudo is Ultrasoft, Zval = 12.0
     Generated by new atomic code, or converted to UPF format
     Using radial grid of  851 points,  6 beta functions with:
                l(1) =   0
                l(2) =   0
                l(3) =   1
                l(4) =   1
                l(5) =   2
                l(6) =   2
     Q(r) pseudized with  8 coefficients,  rinner =    1.000   1.000   1.000
                                                       1.000   1.000

     PseudoPot. # 2 for O  read from file:
     /storage/coda1/p-amedford6/0/shared/rich_project_chbe-medford/medford-share/data/pseudos_module/espresso/nninc/pbe/van/O.UPF
     MD5 check sum: 78c19812648e8988a0fe644b0f25305e
     Pseudo is Ultrasoft, Zval =  6.0
     Generated by new atomic code, or converted to UPF format
     Using radial grid of  737 points,  4 beta functions with:
                l(1) =   0
                l(2) =   0
                l(3) =   1
                l(4) =   1
     Q(r) pseudized with  8 coefficients,  rinner =    0.800   0.800   0.800

     PseudoPot. # 3 for N  read from file:
     /storage/coda1/p-amedford6/0/shared/rich_project_chbe-medford/medford-share/data/pseudos_module/espresso/nninc/pbe/van/N.UPF
     MD5 check sum: 90d10febe142ad51ac9d5be1deb811c4
     Pseudo is Ultrasoft, Zval =  5.0
     Generated by new atomic code, or converted to UPF format
     Using radial grid of  729 points,  4 beta functions with:
                l(1) =   0
                l(2) =   0
                l(3) =   1
                l(4) =   1
     Q(r) pseudized with  8 coefficients,  rinner =    0.800   0.800   0.800

     PseudoPot. # 4 for C  read from file:
     /storage/coda1/p-amedford6/0/shared/rich_project_chbe-medford/medford-share/data/pseudos_module/espresso/nninc/pbe/van/C.UPF
     MD5 check sum: 1a69bf6b8db32088f5b2163dbdb77a27
     Pseudo is Ultrasoft, Zval =  4.0
     Generated by new atomic code, or converted to UPF format
     Using radial grid of  721 points,  4 beta functions with:
                l(1) =   0
                l(2) =   0
                l(3) =   1
                l(4) =   1
     Q(r) pseudized with  8 coefficients,  rinner =    0.800   0.800   0.800

     PseudoPot. # 5 for H  read from file:
     /storage/coda1/p-amedford6/0/shared/rich_project_chbe-medford/medford-share/data/pseudos_module/espresso/nninc/pbe/van/H.UPF
     MD5 check sum: b5ee9d7bfd3a09ee7748110bda690ff7
     Pseudo is Ultrasoft, Zval =  1.0
     Generated by new atomic code, or converted to UPF format
     Using radial grid of  615 points,  1 beta functions with:
                l(1) =   0
     Q(r) pseudized with  8 coefficients,  rinner =    0.800

     atomic species   valence    mass     pseudopotential
        Ti1           12.00    47.86700     Ti( 1.00)
        O1             6.00    15.99900     O ( 1.00)
        N1             5.00    14.00700     N ( 1.00)
        C1             4.00    12.01100     C ( 1.00)
        H1             1.00     1.00800     H ( 1.00)

     No symmetry found

   Cartesian axes

     site n.     atom                  positions (alat units)
         1           Ti1 tau(   1) = (   0.0004258   2.9801865   6.0000000  )
         2           Ti1 tau(   2) = (   3.2906075   1.4906267   6.0002472  )
         3           O1  tau(   3) = (   0.0006271   0.0005054   7.9858123  )
         4           O1  tau(   4) = (   3.2906025   0.0005020   7.3038282  )
         5           O1  tau(   5) = (   4.5942328   1.4918067   9.2879030  )
         6           O1  tau(   6) = (   1.9868534   1.4903216   9.2879459  )
         7           Ti1 tau(   7) = (   3.2907910   2.8959150   9.1758416  )
         8           Ti1 tau(   8) = (   0.0015273   1.4827037   9.2680791  )
         9           O1  tau(   9) = (   3.2865774   0.0244666  11.2672233  )
        10           O1  tau(  10) = (   0.0116148   5.9584955  10.6183126  )
        11           O1  tau(  11) = (   1.2851059   1.4881214  12.6284388  )
        12           O1  tau(  12) = (   5.2821296   1.4859116  12.6239949  )
        13           Ti1 tau(  13) = (   6.5757640   3.1226837  12.6583379  )
        14           Ti1 tau(  14) = (   3.2808560   1.5553189  12.4169499  )
        15           O1  tau(  15) = (   6.5631415   0.0020138  14.6662933  )
        16           O1  tau(  16) = (   3.2768600   5.9282172  13.8639556  )
        17           O1  tau(  17) = (   4.5247100   1.5609280  15.9911388  )
        18           O1  tau(  18) = (   2.0319249   1.5505618  16.0334288  )
        19           Ti1 tau(  19) = (   3.2655126   3.0139642  15.6417618  )
        20           Ti1 tau(  20) = (   6.4701730   1.5779936  15.7979382  )
        21           O1  tau(  21) = (   3.2904802   0.0005063   4.7018136  )
        22           O1  tau(  22) = (   6.5470303   0.0764028  17.2486596  )
        23           O1  tau(  23) = (   1.3043587   1.4918075   6.0039043  )
        24           O1  tau(  24) = (   5.2767064   1.4903225   6.0039473  )
        25           Ti1 tau(  25) = (   0.0000382   5.9609847   6.0000000  )
        26           Ti1 tau(  26) = (   3.2902200   4.4714249   6.0002472  )
        27           O1  tau(  27) = (   0.0002396   2.9813036   7.9858123  )
        28           O1  tau(  28) = (   3.2902150   2.9813002   7.3038282  )
        29           O1  tau(  29) = (   4.5938453   4.4726049   9.2879030  )
        30           O1  tau(  30) = (   1.9864658   4.4711199   9.2879459  )
        31           Ti1 tau(  31) = (   3.2891106   5.8743827   9.1763621  )
        32           Ti1 tau(  32) = (   0.0006254   4.4649316   9.2693709  )
        33           O1  tau(  33) = (   3.2856154   2.9374191  11.2445503  )
        34           O1  tau(  34) = (   0.0092240   2.9805883  10.6323155  )
        35           O1  tau(  35) = (   1.2776263   4.4762221  12.6158080  )
        36           O1  tau(  36) = (   5.2889682   4.4773653  12.6103441  )
        37           Ti1 tau(  37) = (   6.5721904   0.1276321  12.6579576  )
        38           Ti1 tau(  38) = (   3.2825792   4.6513186  12.6446142  )
        39           O1  tau(  39) = (   6.5601178   2.9984380  14.6401328  )
        40           O1  tau(  40) = (   3.2784952   3.0022753  13.8540846  )
        41           O1  tau(  41) = (   4.5130724   4.4679886  16.1105769  )
        42           O1  tau(  42) = (   2.0068779   4.4712703  16.0772645  )
        43           Ti1 tau(  43) = (   3.1879138   0.0422448  16.2953621  )
        44           Ti1 tau(  44) = (   6.5239028   4.6756254  16.1574449  )
        45           O1  tau(  45) = (   3.2900926   2.9813045   4.7018136  )
        46           O1  tau(  46) = (   1.3039711   4.4726057   6.0039043  )
        47           O1  tau(  47) = (   5.2763189   4.4711207   6.0039473  )
        48           N1  tau(  48) = (   0.1470516   2.5879757  18.5611170  )
        49           N1  tau(  49) = (   6.5778558   2.9357776  17.3215245  )
        50           C1  tau(  50) = (   0.2601206   3.3452726  19.6311682  )
        51           H1  tau(  51) = (   0.3627438   2.8498571  20.5812141  )
        52           H1  tau(  52) = (   0.2464683   4.4274571  19.5160682  )
        53           H1  tau(  53) = (   0.1772712   1.5612145  18.6921905  )
        54           O1  tau(  54) = (   3.2326362   0.0923429  18.1472848  )
        55           H1  tau(  55) = (   3.6209404   5.2806276  18.5811828  )

     number of k points=    10  Fermi-Dirac smearing, width (Ry)=  0.0073
                       cart. coord. in units 2pi/alat
        k(    1) = (   0.0000000   0.0000000   0.0000000), wk =   0.1250000
        k(    2) = (   0.0000000   0.0419351   0.0000000), wk =   0.2500000
        k(    3) = (   0.0000000  -0.0838702   0.0000000), wk =   0.1250000
        k(    4) = (   0.0379955   0.0000049   0.0000000), wk =   0.2500000
        k(    5) = (   0.0379955   0.0419400   0.0000000), wk =   0.2500000
        k(    6) = (   0.0379955  -0.0838652   0.0000000), wk =   0.2500000
        k(    7) = (   0.0379955  -0.0419301   0.0000000), wk =   0.2500000
        k(    8) = (  -0.0759910  -0.0000099   0.0000000), wk =   0.1250000
        k(    9) = (  -0.0759910   0.0419252   0.0000000), wk =   0.2500000
        k(   10) = (  -0.0759910  -0.0838800   0.0000000), wk =   0.1250000

     Initial potential from superposition of free atoms

     starting charge  385.99915, renormalised to  402.00000

     negative rho (up, down):  1.462E-02 0.000E+00

     %%%%%%%%%%%%%%%%%%%%%%%%%%%%%%%%%%%%%%%%%%%%%%%%%%%%%%%%%%%%%%%%%%%%%%%%
     %                                                                      %
     % You are using vdW-DF, which was implemented by the Thonhauser group. %
     % Please cite the following two papers that made this development      %
     % possible and the two reviews that describe the various versions:     %
     %                                                                      %
     %   T. Thonhauser et al., PRL 115, 136402 (2015).                      %
     %   T. Thonhauser et al., PRB 76, 125112 (2007).                       %
     %   K. Berland et al., Rep. Prog. Phys. 78, 066501 (2015).             %
     %   D.C. Langreth et al., J. Phys.: Condens. Matter 21, 084203 (2009). %
     %                                                                      %
     %                                                                      %
     % If you are calculating the stress with vdW-DF, please also cite:     %
     %                                                                      %
     %   R. Sabatini et al., J. Phys.: Condens. Matter 24, 424209 (2012).   %
     %                                                                      %
     %%%%%%%%%%%%%%%%%%%%%%%%%%%%%%%%%%%%%%%%%%%%%%%%%%%%%%%%%%%%%%%%%%%%%%%%

     Adding external electric field

     Computed dipole along edir(3) :
        Dipole              -11.6290 Ry au,        -29.5581 Debye
        Dipole field         -0.0219 Ry au,

        Potential amp.        2.0343 Ry
        Total length         46.3494 bohr

     Starting wfcs are  304 atomic wfcs
  @ DRIVER MODE: Message from server: STATUS
  @ DRIVER MODE: Message from server: POSDATA
  @ DRIVER MODE: Reading and sharing cell
  @ DRIVER MODE: Reading and sharing positions
  @ DRIVER MODE: Received positions

     Self-consistent Calculation

     iteration #  1     ecut=    29.40 Ry     beta= 0.05
     Davidson diagonalization with overlap
     c_bands:  3 eigenvalues not converged
     c_bands:  2 eigenvalues not converged
     c_bands:  3 eigenvalues not converged
     c_bands:  4 eigenvalues not converged
     c_bands:  1 eigenvalues not converged
     c_bands:  4 eigenvalues not converged
     c_bands:  5 eigenvalues not converged
     c_bands:  5 eigenvalues not converged
     c_bands:  5 eigenvalues not converged
     ethr =  1.00E-05,  avg # of iterations = 23.9

[...]

     total energy              =   -2412.18491077 Ry
     estimated scf accuracy    <    6293.15980455 Ry

     iteration #  2     ecut=    29.40 Ry     beta= 0.05
     Davidson diagonalization with overlap
     ethr =  1.00E-02,  avg # of iterations = 22.9

[...]

     iteration # 38     ecut=    29.40 Ry     beta= 0.05
     Davidson diagonalization with overlap
     c_bands:  1 eigenvalues not converged
     ethr =  5.44E-06,  avg # of iterations = 10.1

[...]

     total energy              =   -2972.74098174 Ry
     estimated scf accuracy    <       0.00000007 Ry

     iteration # 69     ecut=    29.40 Ry     beta= 0.05
     Davidson diagonalization with overlap
     ethr =  1.84E-11,  avg # of iterations =  2.2

     negative rho (up, down):  1.521E-02 0.000E+00

     Adding external electric field

     Computed dipole along edir(3) :
        Dipole                0.6661 Ry au,          1.6931 Debye
        Dipole field          0.0013 Ry au,

        Potential amp.       -0.1165 Ry
        Total length         46.3494 bohr

     End of self-consistent calculation

          k = 0.0000 0.0000 0.0000 ( 18029 PWs)   bands (ev):

   -56.4995 -56.4660 -55.7001 -55.6661 -55.4411 -55.3847 -55.1392 -55.1072
   -55.0879 -55.0541 -55.0339 -54.9828 -54.9791 -54.7864 -54.7540 -54.6420
   -32.9233 -32.7772 -32.7492 -32.6732 -32.5826 -32.5498 -32.1835 -31.9222
   -31.9213 -31.8915 -31.8402 -31.8356 -31.8160 -31.6703 -31.6623 -31.6151
   -31.5915 -31.5873 -31.5454 -31.5134 -31.4745 -31.4604 -31.4328 -31.4085
   -31.3727 -31.3716 -31.3681 -31.3569 -31.3052 -31.2947 -31.2724 -31.2492
   -31.2306 -31.2151 -31.2130 -31.2019 -31.1832 -31.1717 -31.1570 -31.1013
   -31.0463 -31.0258 -30.9967 -30.9851 -30.9697 -30.9187 -30.8569 -30.8323
   -18.6493 -16.6343 -16.1278 -16.0789 -15.8367 -15.7747 -15.7188 -15.7145
   -15.6694 -15.4279 -15.3904 -15.3577 -15.3134 -15.2170 -15.0866 -14.9899
   -14.7987 -14.7442 -14.7422 -14.7122 -14.6874 -14.6549 -14.6300 -14.5982
   -14.5940 -14.5610 -14.5056 -14.3338 -14.2687 -14.0593 -14.0442 -13.5856
   -13.4776 -12.4074  -8.5441  -6.0013  -4.5731  -4.2004  -3.6418  -3.6073
    -3.4296  -3.3426  -3.2489  -3.1668  -3.0532  -3.0409  -2.9614  -2.9219
    -2.9053  -2.8350  -2.8169  -2.6541  -2.6280  -2.6092  -2.5208  -2.4926
    -2.3300  -2.3060  -2.2237  -2.1507  -2.1308  -2.0736  -2.0606  -2.0005
    -1.9487  -1.9315  -1.8652  -1.8591  -1.8448  -1.7317  -1.7160  -1.6801
    -1.6325  -1.5712  -1.5613  -1.5072  -1.4224  -1.4088  -1.2759  -1.1920
    -1.1479  -1.1431  -1.1065  -1.0640  -1.0171  -0.8831  -0.8726  -0.7624
    -0.7428  -0.7409  -0.6733  -0.5771  -0.5556  -0.5229  -0.4475  -0.4108
    -0.3670  -0.3167  -0.2625  -0.1409  -0.1335  -0.1170  -0.0719  -0.0299
    -0.0145   0.0604   0.1510   0.1675   0.2728   0.2890   0.3373   0.4301
     0.5117   0.5217   0.5408   0.6023   0.6446   0.6794   0.7540   0.7729
     0.8138   0.8256   0.8747   0.9338   0.9607   1.0613   1.1090   1.1278
     1.1613   1.2098   1.2886   1.3716   1.4686   1.5103   1.5407   1.8117
     2.3283   2.7832   2.9458   3.2234   3.3347   3.6455   3.7703   3.7713
     3.7818   3.9853   4.1341

[...]

          k = 0.0380-0.0419 0.0000 ( 17876 PWs)   bands (ev):

[...]

          k =-0.0760-0.0000 0.0000 ( 17886 PWs)   bands (ev):

[...]

          k =-0.0760-0.0839 0.0000 ( 17948 PWs)   bands (ev):

   -56.4830 -56.4824 -55.6860 -55.6800 -55.4354 -55.3903 -55.1380 -55.1029
   -55.0711 -55.0707 -55.0380 -54.9819 -54.9795 -54.7877 -54.7517 -54.6441
   -32.7632 -32.7627 -32.7406 -32.7401 -32.6268 -32.6262 -32.0059 -32.0011
   -31.8809 -31.8754 -31.8704 -31.8604 -31.7427 -31.7078 -31.6637 -31.6568
   -31.6167 -31.6129 -31.4445 -31.4351 -31.4216 -31.4214 -31.3825 -31.3771
   -31.3617 -31.3537 -31.3409 -31.3215 -31.3000 -31.2927 -31.2920 -31.2744
   -31.2546 -31.2543 -31.2534 -31.2394 -31.2210 -31.1868 -31.1785 -31.1490
   -31.1339 -31.0502 -31.0064 -31.0008 -30.9862 -30.9483 -30.8714 -30.8590
   -18.6457 -16.0694 -16.0034 -16.0007 -15.9403 -15.9386 -15.7059 -15.7020
   -15.4662 -15.4379 -15.2801 -15.1867 -15.1688 -15.1069 -15.0688 -15.0170
   -14.9625 -14.9333 -14.8229 -14.7855 -14.7541 -14.7163 -14.6896 -14.6695
   -14.6092 -14.5727 -14.5491 -14.4502 -14.4261 -14.1913 -14.1834 -13.5819
   -13.5815 -12.4123  -8.5467  -5.9963  -4.5295  -3.6639  -3.3345  -3.0707
    -3.0662  -3.0608  -3.0558  -2.9913  -2.8165  -2.8129  -2.6600  -2.6264
    -2.6147  -2.5892  -2.5584  -2.4548  -2.3786  -2.3617  -2.3601  -2.3558
    -2.3067  -2.2986  -2.2475  -2.1692  -2.1064  -2.0979  -2.0637  -2.0020
    -1.9431  -1.8946  -1.8903  -1.8522  -1.8291  -1.7979  -1.7786  -1.7573
    -1.7125  -1.6291  -1.5047  -1.4290  -1.3975  -1.3803  -1.3422  -1.2954
    -1.2821  -1.2704  -1.2185  -1.2038  -1.1392  -1.1095  -1.0691  -0.9734
    -0.9133  -0.8821  -0.8573  -0.7528  -0.7139  -0.6389  -0.5938  -0.5593
    -0.5237  -0.5004  -0.4390  -0.4278  -0.3458  -0.2780  -0.2507  -0.1949
    -0.1812  -0.1692  -0.1514  -0.1066  -0.0012   0.0145   0.0481   0.1469
     0.2100   0.2824   0.3003   0.3922   0.4210   0.4919   0.6073   0.6452
     0.7146   0.7785   0.8522   0.9375   0.9853   1.0306   1.1362   1.2215
     1.2368   1.2841   1.3113   1.3165   1.3177   1.3705   1.3905   1.5178
     2.1646   3.3666   3.3684   3.4252   3.4299   3.7296   3.7349   3.8409
     3.8444   4.0943   4.1155

     the Fermi energy is     2.5945 ev

!    total energy              =   -2972.74100176 Ry
     estimated scf accuracy    <       0.00000003 Ry
     smearing contrib. (-TS)   =      -0.00419895 Ry
     internal energy E=F+TS    =   -2972.73680281 Ry

     The total energy is F=E-TS. E is the sum of the following terms:
     one-electron contribution =  -23699.94590429 Ry
     hartree contribution      =   11945.27983265 Ry
     xc contribution           =    -493.11553071 Ry
     ewald contribution        =    9275.04396216 Ry
     electric field correction =       0.00083739 Ry

     convergence has been achieved in  69 iterations

     Forces acting on atoms (cartesian axes, Ry/au):

     atom    1 type  1   force =     0.00016586   -0.00042961    0.12199681
     atom    2 type  1   force =    -0.00003904    0.00028248   -0.15638690
     atom    3 type  2   force =     0.00004759   -0.00048111   -0.06053100
     atom    4 type  2   force =     0.00005137    0.00071484    0.01973104
     atom    5 type  2   force =    -0.00084879   -0.00259911   -0.01519429
     atom    6 type  2   force =     0.00220197   -0.00198283   -0.01655206
     atom    7 type  1   force =    -0.00030124   -0.00090932    0.05414170
     atom    8 type  1   force =     0.00082196    0.00107812    0.09007173
     atom    9 type  2   force =    -0.00035846   -0.00027755    0.00007101
     atom   10 type  2   force =    -0.00296048    0.00316558   -0.05930716
     atom   11 type  2   force =    -0.00025823    0.00018967    0.00005316
     atom   12 type  2   force =    -0.00022458    0.00013952   -0.00037749
     atom   13 type  1   force =    -0.00052528    0.00040084    0.00034241
     atom   14 type  1   force =     0.00006710    0.00141650   -0.00110802
     atom   15 type  2   force =    -0.00001901   -0.00066757   -0.00144399
     atom   16 type  2   force =     0.00011592    0.00068677    0.00050491
     atom   17 type  2   force =    -0.00084715   -0.00043101   -0.00011038
     atom   18 type  2   force =     0.00045170    0.00010811   -0.00031270
     atom   19 type  1   force =     0.00004351    0.00123995   -0.00011375
     atom   20 type  1   force =     0.00009769    0.00049291    0.00032322
     atom   21 type  2   force =     0.00009353   -0.00002642    0.09828746
     atom   22 type  2   force =     0.00035857   -0.00044032    0.00026980
     atom   23 type  2   force =    -0.08162688   -0.00004979   -0.03247657
     atom   24 type  2   force =     0.08161212    0.00036770   -0.03250795
     atom   25 type  1   force =     0.00002829   -0.00029107    0.12168650
     atom   26 type  1   force =     0.00003512   -0.00154708   -0.15641851
     atom   27 type  2   force =     0.00012880    0.00020927   -0.05949374
     atom   28 type  2   force =     0.00005518    0.00038843    0.01459585
     atom   29 type  2   force =    -0.00455904    0.00218062   -0.01162700
     atom   30 type  2   force =     0.00589160    0.00262707   -0.01293488
     atom   31 type  1   force =    -0.00043866   -0.00214259    0.04014443
     atom   32 type  1   force =     0.00078882   -0.00225300    0.09109767
     atom   33 type  2   force =    -0.00012441    0.00037273    0.00009076
     atom   34 type  2   force =    -0.00234971    0.00049164   -0.06881905
     atom   35 type  2   force =    -0.00022597    0.00005469    0.00027001
     atom   36 type  2   force =     0.00060231   -0.00027177    0.00003312
     atom   37 type  1   force =    -0.00002821    0.00021614   -0.00071566
     atom   38 type  1   force =     0.00013564    0.00104886   -0.00047052
     atom   39 type  2   force =    -0.00049175   -0.00120478    0.00041662
     atom   40 type  2   force =    -0.00001594    0.00044587   -0.00011025
     atom   41 type  2   force =     0.00076868   -0.00041425   -0.00001206
     atom   42 type  2   force =    -0.00057744   -0.00069437   -0.00071641
     atom   43 type  1   force =    -0.00017437   -0.00128031    0.00005309
     atom   44 type  1   force =    -0.00012153   -0.00069674    0.00052792
     atom   45 type  2   force =     0.00009520    0.00008308    0.09809056
     atom   46 type  2   force =    -0.08158017   -0.00002887   -0.03247145
     atom   47 type  2   force =     0.08156737    0.00041232   -0.03248954
     atom   48 type  3   force =     0.00019375    0.00084488    0.00029780
     atom   49 type  3   force =    -0.00023328   -0.00149843    0.00019906
     atom   50 type  4   force =     0.00020441    0.01234517   -0.00117321
     atom   51 type  5   force =     0.00071803    0.00040841   -0.00049270
     atom   52 type  5   force =     0.00068391   -0.01406842    0.00092260
     atom   53 type  5   force =     0.00003699    0.00125117    0.00012835
     atom   54 type  2   force =    -0.00051039    0.00105313   -0.00096101
     atom   55 type  5   force =     0.00137701   -0.00003015    0.00098068

     Total force =     0.408755     Total SCF correction =     0.000338
  @ DRIVER MODE: Message from server: STATUS
  @ DRIVER MODE: Message from server: GETFORCE
  @ DRIVER MODE: Returning v,forces,stress,ensemble

     Writing output data file ./calc.save/
  @ DRIVER MODE: Message from server: EXIT
  @ DRIVE MODE: Exiting

     General routines

     Parallel routines

   This run was terminated on:   1:34:18  23Sep2021

   JOB DONE.