     Program PWSCF v.6.7GPU starts on  1Oct2021 at 12:13:15

     R & G space division:  proc/nbgrp/npool/nimage =       8
     Reading input from /storage/home/hcoda1/3/ntian30/research/carbon/CxH_vib/pristine/ads_slab/CHHNN_a/out_0018/pw.inp
Warning: card &CELL ignored
Warning: card   CELL_DYNAMICS='IPI', ignored
Warning: card / ignored

     Current dimensions of program PWSCF are:
     Max number of different atomic species (ntypx) = 10
     Max number of k-points (npk) =  40000
     Max angular momentum in pseudopotentials (lmaxx) =  3
     Presently no symmetry can be used with electric field

     Message from routine cell_base_init:
     DEPRECATED: use true lattice parameter, not A to a.u. conversion factor

     IMPORTANT: XC functional enforced from input :
     Exchange-correlation= BEEF-VDW
                           (   1   4  43  14   2   0   0)
     Any further DFT definition will be discarded
     Please, verify this is what you really want

  @ DRIVER MODE: Connecting to
 qe_1139763_3035467.sched-torque.pace.gatech.edumkv21vir_scratch
  using UNIX socket
  @ DRIVER MODE: Message from server: STATUS
  @ DRIVER MODE: Message from server: INIT
  @ DRIVER MODE: Receiving replica           0          -1
  @ DRIVER MODE: Receiving encoded integer          25
  @ DRIVER MODE:  SCF:  T  FORCE:  T  STRESS:  F  VC:  F  ENSEMBLE:  F
  @ DRIVER MODE:  SCF:  T  FORCE:  T  STRESS:  F  VC:  F  ENSEMBLE:  F

     Using Slab Decomposition

     bravais-lattice index     =            0
     lattice parameter (alat)  =       1.8897  a.u.
     unit-cell volume          =    6658.9804 (a.u.)^3
     number of atoms/cell      =           53
     number of atomic types    =            5
     number of electrons       =       400.00
     number of Kohn-Sham states=          210
     kinetic-energy cutoff     =      29.3995  Ry
     charge density cutoff     =     293.9946  Ry
     scf convergence threshold =      7.3E-08
     mixing beta               =       0.0500
     number of iterations used =            8  plain     mixing
     Exchange-correlation= BEEF-VDW
                           (   1   4  43  14   2   0   0)

     celldm(1)=   1.889726  celldm(2)=   0.000000  celldm(3)=   0.000000
     celldm(4)=   0.000000  celldm(5)=   0.000000  celldm(6)=   0.000000

     crystal axes: (cart. coord. in units of alat)
               a(1) = (   6.579727   0.000000   0.000000 )
               a(2) = (  -0.000775   5.961596   0.000000 )
               a(3) = (   0.000000   0.000000  25.155947 )

     reciprocal axes: (cart. coord. in units 2 pi/alat)
               b(1) = (  0.151982  0.000020  0.000000 )
               b(2) = (  0.000000  0.167740  0.000000 )
               b(3) = (  0.000000  0.000000  0.039752 )

     PseudoPot. # 1 for Ti read from file:
     /storage/coda1/p-amedford6/0/shared/rich_project_chbe-medford/medford-share/data/pseudos_module/espresso/nninc/pbe/van/Ti.UPF
     MD5 check sum: 8e4df49b7f0d34bbd5052bf3f5ea0213
     Pseudo is Ultrasoft, Zval = 12.0
     Generated by new atomic code, or converted to UPF format
     Using radial grid of  851 points,  6 beta functions with:
                l(1) =   0
                l(2) =   0
                l(3) =   1
                l(4) =   1
                l(5) =   2
                l(6) =   2
     Q(r) pseudized with  8 coefficients,  rinner =    1.000   1.000   1.000
                                                       1.000   1.000

     PseudoPot. # 2 for O  read from file:
     /storage/coda1/p-amedford6/0/shared/rich_project_chbe-medford/medford-share/data/pseudos_module/espresso/nninc/pbe/van/O.UPF
     MD5 check sum: 78c19812648e8988a0fe644b0f25305e
     Pseudo is Ultrasoft, Zval =  6.0
     Generated by new atomic code, or converted to UPF format
     Using radial grid of  737 points,  4 beta functions with:
                l(1) =   0
                l(2) =   0
                l(3) =   1
                l(4) =   1
     Q(r) pseudized with  8 coefficients,  rinner =    0.800   0.800   0.800

     PseudoPot. # 3 for N  read from file:
     /storage/coda1/p-amedford6/0/shared/rich_project_chbe-medford/medford-share/data/pseudos_module/espresso/nninc/pbe/van/N.UPF
     MD5 check sum: 90d10febe142ad51ac9d5be1deb811c4
     Pseudo is Ultrasoft, Zval =  5.0
     Generated by new atomic code, or converted to UPF format
     Using radial grid of  729 points,  4 beta functions with:
                l(1) =   0
                l(2) =   0
                l(3) =   1
                l(4) =   1
     Q(r) pseudized with  8 coefficients,  rinner =    0.800   0.800   0.800

     PseudoPot. # 4 for C  read from file:
     /storage/coda1/p-amedford6/0/shared/rich_project_chbe-medford/medford-share/data/pseudos_module/espresso/nninc/pbe/van/C.UPF
     MD5 check sum: 1a69bf6b8db32088f5b2163dbdb77a27
     Pseudo is Ultrasoft, Zval =  4.0
     Generated by new atomic code, or converted to UPF format
     Using radial grid of  721 points,  4 beta functions with:
                l(1) =   0
                l(2) =   0
                l(3) =   1
                l(4) =   1
     Q(r) pseudized with  8 coefficients,  rinner =    0.800   0.800   0.800

     PseudoPot. # 5 for H  read from file:
     /storage/coda1/p-amedford6/0/shared/rich_project_chbe-medford/medford-share/data/pseudos_module/espresso/nninc/pbe/van/H.UPF
     MD5 check sum: b5ee9d7bfd3a09ee7748110bda690ff7
     Pseudo is Ultrasoft, Zval =  1.0
     Generated by new atomic code, or converted to UPF format
     Using radial grid of  615 points,  1 beta functions with:
                l(1) =   0
     Q(r) pseudized with  8 coefficients,  rinner =    0.800

     atomic species   valence    mass     pseudopotential
        Ti1           12.00    47.86700     Ti( 1.00)
        O1             6.00    15.99900     O ( 1.00)
        N1             5.00    14.00700     N ( 1.00)
        C1             4.00    12.01100     C ( 1.00)
        H1             1.00     1.00800     H ( 1.00)

     No symmetry found

   Cartesian axes

     site n.     atom                  positions (alat units)
         1           Ti1 tau(   1) = (   0.0004258   2.9801865   6.0000000  )
         2           Ti1 tau(   2) = (   3.2906075   1.4906267   6.0002472  )
         3           O1  tau(   3) = (   0.0006271   0.0005054   7.9858123  )
         4           O1  tau(   4) = (   3.2906025   0.0005020   7.3038282  )
         5           O1  tau(   5) = (   4.5942328   1.4918067   9.2879030  )
         6           O1  tau(   6) = (   1.9868534   1.4903216   9.2879459  )
         7           Ti1 tau(   7) = (   3.2961651   2.9340025   9.1571600  )
         8           Ti1 tau(   8) = (   0.0257383   1.5005952   9.3383585  )
         9           O1  tau(   9) = (   3.3091981   5.9584344  11.3361002  )
        10           O1  tau(  10) = (   6.5780281   5.9600862  10.6016087  )
        11           O1  tau(  11) = (   1.3203574   1.4925043  12.6130903  )
        12           O1  tau(  12) = (   5.3210186   1.4819496  12.6412376  )
        13           Ti1 tau(  13) = (   6.5659556   2.9650791  12.8176139  )
        14           Ti1 tau(  14) = (   3.2164003   1.4877187  12.4769567  )
        15           O1  tau(  15) = (   0.0404395   5.9536100  14.6624943  )
        16           O1  tau(  16) = (   3.3074673   5.9584959  13.9062718  )
        17           O1  tau(  17) = (   4.5856532   1.4904827  16.0465219  )
        18           O1  tau(  18) = (   2.1034043   1.4884928  16.0442595  )
        19           Ti1 tau(  19) = (   3.2939248   2.9785878  15.7144947  )
        20           Ti1 tau(  20) = (   6.5451327   1.4142704  16.0395912  )
        21           O1  tau(  21) = (   3.2904802   0.0005063   4.7018136  )
        22           O1  tau(  22) = (   0.0457580   0.0044623  17.2034710  )
        23           O1  tau(  23) = (   1.3043587   1.4918075   6.0039043  )
        24           O1  tau(  24) = (   5.2767064   1.4903225   6.0039473  )
        25           Ti1 tau(  25) = (   0.0000382   5.9609847   6.0000000  )
        26           Ti1 tau(  26) = (   3.2902200   4.4714249   6.0002472  )
        27           O1  tau(  27) = (   0.0002396   2.9813036   7.9858123  )
        28           O1  tau(  28) = (   3.2902150   2.9813002   7.3038282  )
        29           O1  tau(  29) = (   4.5938453   4.4726049   9.2879030  )
        30           O1  tau(  30) = (   1.9864658   4.4711199   9.2879459  )
        31           Ti1 tau(  31) = (   3.3296195   5.9152860   9.1560537  )
        32           Ti1 tau(  32) = (   0.0304643   4.4420822   9.3322224  )
        33           O1  tau(  33) = (   3.3127198   2.9780151  11.3348310  )
        34           O1  tau(  34) = (   0.0025308   2.9791118  10.5479895  )
        35           O1  tau(  35) = (   1.3183054   4.4635934  12.6126975  )
        36           O1  tau(  36) = (   5.3202651   4.4673696  12.6407401  )
        37           Ti1 tau(  37) = (   6.5108624   5.9459213  12.5946634  )
        38           Ti1 tau(  38) = (   3.2137380   4.4666137  12.4775098  )
        39           O1  tau(  39) = (   0.0464109   2.9731917  14.6594554  )
        40           O1  tau(  40) = (   3.3098714   2.9789900  13.9126757  )
        41           O1  tau(  41) = (   4.5859750   4.4686661  16.0488133  )
        42           O1  tau(  42) = (   2.1005049   4.4706468  16.0453856  )
        43           Ti1 tau(  43) = (   3.2853703   5.9589473  15.7052640  )
        44           Ti1 tau(  44) = (   6.5509595   4.5658457  16.0514827  )
        45           O1  tau(  45) = (   3.2900926   2.9813045   4.7018136  )
        46           O1  tau(  46) = (   0.0949885   2.9744829  17.2486893  )
        47           O1  tau(  47) = (   1.3039711   4.4726057   6.0039043  )
        48           O1  tau(  48) = (   5.2763189   4.4711207   6.0039473  )
        49           N1  tau(  49) = (   0.3730515   3.1615268  19.4484725  )
        50           N1  tau(  50) = (   6.0186590   2.9946300  18.5893579  )
        51           C1  tau(  51) = (   0.0316377   3.3059097  20.7192049  )
        52           H1  tau(  52) = (   5.5749133   3.3461147  21.0318256  )
        53           H1  tau(  53) = (   0.8315635   3.3875449  21.4270997  )

     number of k points=    10  Fermi-Dirac smearing, width (Ry)=  0.0073
                       cart. coord. in units 2pi/alat
        k(    1) = (   0.0000000   0.0000000   0.0000000), wk =   0.1250000
        k(    2) = (   0.0000000   0.0419351   0.0000000), wk =   0.2500000
        k(    3) = (   0.0000000  -0.0838702   0.0000000), wk =   0.1250000
        k(    4) = (   0.0379955   0.0000049   0.0000000), wk =   0.2500000
        k(    5) = (   0.0379955   0.0419400   0.0000000), wk =   0.2500000
        k(    6) = (   0.0379955  -0.0838652   0.0000000), wk =   0.2500000
        k(    7) = (   0.0379955  -0.0419301   0.0000000), wk =   0.2500000
        k(    8) = (  -0.0759910  -0.0000099   0.0000000), wk =   0.1250000
        k(    9) = (  -0.0759910   0.0419252   0.0000000), wk =   0.2500000
        k(   10) = (  -0.0759910  -0.0838800   0.0000000), wk =   0.1250000

     Initial potential from superposition of free atoms

     starting charge  383.99917, renormalised to  400.00000

     negative rho (up, down):  1.224E-02 0.000E+00

     %%%%%%%%%%%%%%%%%%%%%%%%%%%%%%%%%%%%%%%%%%%%%%%%%%%%%%%%%%%%%%%%%%%%%%%%
     %                                                                      %
     % You are using vdW-DF, which was implemented by the Thonhauser group. %
     % Please cite the following two papers that made this development      %
     % possible and the two reviews that describe the various versions:     %
     %                                                                      %
     %   T. Thonhauser et al., PRL 115, 136402 (2015).                      %
     %   T. Thonhauser et al., PRB 76, 125112 (2007).                       %
     %   K. Berland et al., Rep. Prog. Phys. 78, 066501 (2015).             %
     %   D.C. Langreth et al., J. Phys.: Condens. Matter 21, 084203 (2009). %
     %                                                                      %
     %                                                                      %
     % If you are calculating the stress with vdW-DF, please also cite:     %
     %                                                                      %
     %   R. Sabatini et al., J. Phys.: Condens. Matter 24, 424209 (2012).   %
     %                                                                      %
     %%%%%%%%%%%%%%%%%%%%%%%%%%%%%%%%%%%%%%%%%%%%%%%%%%%%%%%%%%%%%%%%%%%%%%%%

     Adding external electric field

     Computed dipole along edir(3) :
        Dipole              -11.7993 Ry au,        -29.9908 Debye
        Dipole field         -0.0223 Ry au,

        Potential amp.        2.0641 Ry
        Total length         46.3494 bohr

     Starting wfcs are  302 atomic wfcs
  @ DRIVER MODE: Message from server: STATUS
  @ DRIVER MODE: Message from server: POSDATA
  @ DRIVER MODE: Reading and sharing cell
  @ DRIVER MODE: Reading and sharing positions
  @ DRIVER MODE: Received positions

     Self-consistent Calculation

     iteration #  1     ecut=    29.40 Ry     beta= 0.05
     Davidson diagonalization with overlap
     c_bands:  3 eigenvalues not converged
     c_bands:  1 eigenvalues not converged
     c_bands:  2 eigenvalues not converged
     c_bands:  3 eigenvalues not converged
     c_bands:  3 eigenvalues not converged
     c_bands:  3 eigenvalues not converged
     c_bands:  1 eigenvalues not converged
     c_bands:  5 eigenvalues not converged
     c_bands:  2 eigenvalues not converged
     ethr =  1.00E-05,  avg # of iterations = 19.9

[...]

     total energy              =   -2452.84888428 Ry
     estimated scf accuracy    <    5806.27103799 Ry

     iteration #  2     ecut=    29.40 Ry     beta= 0.05
     Davidson diagonalization with overlap
     ethr =  1.00E-02,  avg # of iterations = 22.3

[...]

     iteration # 67     ecut=    29.40 Ry     beta= 0.05
     Davidson diagonalization with overlap
     c_bands:  1 eigenvalues not converged
     ethr =  2.11E-08,  avg # of iterations =  3.7

[...]

     total energy              =   -2970.15562235 Ry
     estimated scf accuracy    <       0.00000013 Ry

     iteration # 86     ecut=    29.40 Ry     beta= 0.05
     Davidson diagonalization with overlap
     ethr =  2.76E-11,  avg # of iterations =  5.4

     negative rho (up, down):  1.339E-02 0.000E+00

     Adding external electric field

     Computed dipole along edir(3) :
        Dipole                0.4172 Ry au,          1.0604 Debye
        Dipole field          0.0008 Ry au,

        Potential amp.       -0.0730 Ry
        Total length         46.3494 bohr

     End of self-consistent calculation

          k = 0.0000 0.0000 0.0000 ( 18029 PWs)   bands (ev):

   -56.1042 -56.0659 -56.0538 -56.0176 -55.9502 -55.9238 -55.8887 -55.8535
   -55.7995 -55.7887 -55.7642 -55.7622 -55.7538 -55.7187 -55.0699 -55.0358
   -32.6054 -32.5575 -32.4143 -32.3925 -32.3868 -32.3606 -32.3511 -32.3242
   -32.2845 -32.2819 -32.2751 -32.2712 -32.2545 -32.2448 -32.2349 -32.2090
   -32.1875 -32.1807 -32.1769 -32.1765 -32.1501 -32.1370 -32.0791 -32.0773
   -32.0696 -32.0556 -32.0504 -32.0249 -32.0233 -32.0194 -32.0085 -31.9961
   -31.9591 -31.9585 -31.9436 -31.9419 -31.9404 -31.9321 -31.9232 -31.9026
   -31.8882 -31.8437 -31.4781 -31.3844 -31.3617 -31.2951 -31.2092 -31.0978
   -19.0365 -16.7905 -16.4886 -16.3889 -16.2017 -16.1743 -16.0709 -16.0410
   -15.8102 -15.7152 -15.6551 -15.6265 -15.5984 -15.5910 -15.5849 -15.5598
   -15.5172 -15.5151 -15.4840 -15.4658 -15.4566 -15.4027 -15.3533 -15.3085
   -15.2478 -15.2144 -15.1829 -15.1800 -15.0736 -15.0259 -14.9784 -13.5689
   -13.4513 -10.9245  -6.4539  -4.8209  -4.1533  -3.9965  -3.9534  -3.9526
    -3.8386  -3.6907  -3.5910  -3.5527  -3.4380  -3.2223  -3.2110  -3.1937
    -3.1721  -3.1145  -2.9608  -2.8940  -2.8872  -2.8699  -2.8505  -2.8288
    -2.8053  -2.7908  -2.7615  -2.7346  -2.7183  -2.5774  -2.5703  -2.4720
    -2.4531  -2.4038  -2.3736  -2.3586  -2.3154  -2.2688  -2.2261  -2.2055
    -2.1828  -2.1562  -2.0778  -1.9366  -1.9045  -1.8703  -1.7933  -1.7390
    -1.7278  -1.4739  -1.4727  -1.4657  -1.4013  -1.3577  -1.3494  -1.2718
    -1.2195  -1.1965  -1.1783  -1.1455  -1.0809  -1.0038  -0.9595  -0.9066
    -0.8705  -0.8201  -0.7898  -0.7742  -0.7556  -0.5479  -0.5241  -0.4919
    -0.4547  -0.3385  -0.3287  -0.2828  -0.2700  -0.2271  -0.2185  -0.1056
    -0.0834  -0.0646  -0.0491  -0.0286  -0.0036   0.0124   0.0689   0.1193
     0.1524   0.1786   0.3691   0.3798   0.5434   0.5839   0.6133   0.7597
     0.8689   0.9555   1.0817   1.1310   1.5476   1.6173   1.7193   2.9820
     3.1122   3.1935   3.2435   3.2753   3.3349   3.4985   3.5479   3.5771
     3.6169   3.6248

[...]

          k = 0.0380-0.0419 0.0000 ( 17876 PWs)   bands (ev):

[...]

          k =-0.0760-0.0000 0.0000 ( 17886 PWs)   bands (ev):

[...]

          k =-0.0760-0.0839 0.0000 ( 17948 PWs)   bands (ev):

   -56.0939 -56.0760 -56.0363 -56.0349 -55.9473 -55.9083 -55.9041 -55.8565
   -55.7867 -55.7768 -55.7737 -55.7667 -55.7557 -55.7271 -55.0528 -55.0528
   -32.4081 -32.4063 -32.3813 -32.3797 -32.3654 -32.3520 -32.3103 -32.3092
   -32.2914 -32.2455 -32.2405 -32.2391 -32.2282 -32.2155 -32.2150 -32.2049
   -32.1966 -32.1942 -32.1769 -32.1559 -32.1307 -32.1253 -32.1145 -32.1129
   -32.1053 -32.0946 -32.0870 -32.0746 -32.0623 -32.0390 -32.0281 -31.9923
   -31.9877 -31.9861 -31.9782 -31.9688 -31.9665 -31.9632 -31.9630 -31.9553
   -31.9475 -31.9369 -31.3744 -31.3744 -31.2913 -31.2911 -31.2523 -31.2521
   -19.0279 -16.2114 -16.2026 -16.1549 -15.9495 -15.9460 -15.9122 -15.8578
   -15.7621 -15.7607 -15.7534 -15.7416 -15.6772 -15.6685 -15.6627 -15.5910
   -15.5800 -15.5772 -15.5705 -15.5459 -15.4918 -15.4909 -15.3799 -15.3578
   -15.3549 -15.3486 -15.3293 -15.3219 -15.2568 -15.2018 -15.1963 -13.5542
   -13.5513 -10.9259  -6.4412  -4.7844  -3.6903  -3.5040  -3.4952  -3.4115
    -3.1876  -3.1785  -3.0604  -3.0525  -3.0015  -2.9567  -2.9176  -2.9051
    -2.8945  -2.8742  -2.8707  -2.8513  -2.8303  -2.8135  -2.7962  -2.7693
    -2.7218  -2.6899  -2.6735  -2.6518  -2.6428  -2.6333  -2.6045  -2.5963
    -2.5749  -2.5720  -2.5524  -2.4543  -2.3294  -2.2905  -2.2440  -2.1838
    -2.1573  -2.1267  -2.1211  -2.0892  -2.0763  -2.0503  -1.9286  -1.8577
    -1.7811  -1.7486  -1.7246  -1.6612  -1.5800  -1.4987  -1.4289  -1.4066
    -1.3601  -1.3117  -1.2881  -1.2534  -1.2197  -1.2081  -1.1586  -1.0851
    -1.0748  -1.0364  -1.0267  -1.0057  -0.9338  -0.9246  -0.8685  -0.8111
    -0.7968  -0.7103  -0.6558  -0.6326  -0.6201  -0.5603  -0.5419  -0.4741
    -0.3969  -0.3166  -0.0433  -0.0262   0.0274   0.0394   0.0727   0.1711
     0.2342   0.2512   0.3253   0.3496   0.4266   0.4761   0.5090   0.5137
     0.5941   0.6120   1.3205   1.3242   1.4069   1.4163   1.7433   2.9416
     3.3903   3.4197   3.4262   3.4476   3.5833   3.5907   3.6078   3.6160
     3.7538   3.7917

     the Fermi energy is     3.0586 ev

!    total energy              =   -2970.15563169 Ry
     estimated scf accuracy    <       0.00000003 Ry
     smearing contrib. (-TS)   =      -0.02348348 Ry
     internal energy E=F+TS    =   -2970.13214821 Ry

     The total energy is F=E-TS. E is the sum of the following terms:
     one-electron contribution =  -23558.04712536 Ry
     hartree contribution      =   11867.23726541 Ry
     xc contribution           =    -491.49130562 Ry
     ewald contribution        =    9212.16868887 Ry
     electric field correction =       0.00032848 Ry

     convergence has been achieved in  86 iterations

     Forces acting on atoms (cartesian axes, Ry/au):

     atom    1 type  1   force =    -0.00000476   -0.00027824    0.11745143
     atom    2 type  1   force =    -0.00003129   -0.00048128   -0.17833997
     atom    3 type  2   force =     0.00020271    0.00070586   -0.03807688
     atom    4 type  2   force =     0.00087820   -0.00060060    0.04408069
     atom    5 type  2   force =    -0.02134980   -0.00158849    0.00209996
     atom    6 type  2   force =     0.02127317    0.00124843    0.00429727
     atom    7 type  1   force =     0.00092528   -0.00016813   -0.00003766
     atom    8 type  1   force =     0.00006030   -0.00014339    0.00093114
     atom    9 type  2   force =    -0.00048548    0.00006574   -0.00043231
     atom   10 type  2   force =     0.00024996    0.00008210   -0.00102509
     atom   11 type  2   force =     0.00061428    0.00008997   -0.00003268
     atom   12 type  2   force =    -0.00029769    0.00039483   -0.00023895
     atom   13 type  1   force =    -0.00136795    0.00032506    0.00000242
     atom   14 type  1   force =     0.00116556    0.00020589   -0.00036279
     atom   15 type  2   force =    -0.00036590    0.00019484    0.00104539
     atom   16 type  2   force =    -0.00027337    0.00003454    0.00155208
     atom   17 type  2   force =     0.00011111   -0.00027327    0.00047346
     atom   18 type  2   force =    -0.00043198   -0.00044309    0.00025020
     atom   19 type  1   force =    -0.00032552    0.00020130    0.00046668
     atom   20 type  1   force =     0.00029773    0.00006679    0.00014287
     atom   21 type  2   force =    -0.00000637    0.00005294    0.10376046
     atom   22 type  2   force =    -0.00040808    0.00025059   -0.00096648
     atom   23 type  2   force =    -0.06937069    0.00107912   -0.03120620
     atom   24 type  2   force =     0.06913297    0.00148430   -0.03120436
     atom   25 type  1   force =    -0.00023247   -0.00019194    0.12921158
     atom   26 type  1   force =    -0.00004363   -0.00004703   -0.17841958
     atom   27 type  2   force =     0.00040756    0.00016053   -0.03708014
     atom   28 type  2   force =     0.00033201   -0.00056167    0.04504001
     atom   29 type  2   force =    -0.02052971    0.00076847    0.00198642
     atom   30 type  2   force =     0.02218578    0.00158467    0.00424766
     atom   31 type  1   force =     0.00022508   -0.00043264   -0.00059502
     atom   32 type  1   force =    -0.00009814   -0.00106391    0.00109013
     atom   33 type  2   force =    -0.00050006   -0.00016252    0.00080538
     atom   34 type  2   force =     0.00010976   -0.00009287   -0.00021898
     atom   35 type  2   force =     0.00071048   -0.00022643   -0.00013616
     atom   36 type  2   force =    -0.00020118   -0.00013896   -0.00039323
     atom   37 type  1   force =    -0.00080609   -0.00049553    0.00037983
     atom   38 type  1   force =     0.00125003   -0.00043316   -0.00031617
     atom   39 type  2   force =    -0.00030882   -0.00017320   -0.00087886
     atom   40 type  2   force =    -0.00029922   -0.00009869   -0.00017868
     atom   41 type  2   force =    -0.00008759    0.00052030    0.00035514
     atom   42 type  2   force =    -0.00022200    0.00058464    0.00021940
     atom   43 type  1   force =    -0.00016321   -0.00007513   -0.00071210
     atom   44 type  1   force =     0.00013685   -0.00017411   -0.00006874
     atom   45 type  2   force =     0.00001542    0.00004869    0.10387859
     atom   46 type  2   force =     0.00017535   -0.00005014   -0.00066138
     atom   47 type  2   force =    -0.06933745   -0.00128700   -0.03117100
     atom   48 type  2   force =     0.06912647   -0.00082387   -0.03122418
     atom   49 type  3   force =    -0.00329790    0.00150865    0.01160179
     atom   50 type  3   force =     0.00041907    0.00057425    0.00512629
     atom   51 type  4   force =    -0.00203835   -0.00249115   -0.02521938
     atom   52 type  5   force =    -0.00266303    0.00000893    0.00244225
     atom   53 type  5   force =     0.00554258    0.00075502    0.00625847

     Total force =     0.385183     Total SCF correction =     0.000355
  @ DRIVER MODE: Message from server: STATUS
  @ DRIVER MODE: Message from server: GETFORCE
  @ DRIVER MODE: Returning v,forces,stress,ensemble

     Writing output data file ./calc.save/
  @ DRIVER MODE: Message from server: EXIT
  @ DRIVE MODE: Exiting

     General routines

     Parallel routines

   This run was terminated on:  13:25:50   1Oct2021

   JOB DONE.