     Program PWSCF v.6.7GPU starts on 26Sep2021 at  1: 4: 5

     R & G space division:  proc/nbgrp/npool/nimage =       8
     Reading input from /storage/home/hcoda1/3/ntian30/research/carbon/CxH_vib/H2O_calc/ads_slab/CH3OHN2HO_a/out_0019/pw.inp
Warning: card &CELL ignored
Warning: card   CELL_DYNAMICS='IPI', ignored
Warning: card / ignored

     Current dimensions of program PWSCF are:
     Max number of different atomic species (ntypx) = 10
     Max number of k-points (npk) =  40000
     Max angular momentum in pseudopotentials (lmaxx) =  3
     Presently no symmetry can be used with electric field

     Message from routine cell_base_init:
     DEPRECATED: use true lattice parameter, not A to a.u. conversion factor

     IMPORTANT: XC functional enforced from input :
     Exchange-correlation= BEEF-VDW
                           (   1   4  43  14   2   0   0)
     Any further DFT definition will be discarded
     Please, verify this is what you really want

  @ DRIVER MODE: Connecting to
 qe_1139763_2971668.sched-torque.pace.gatech.edu_v96uryg_scratch
  using UNIX socket
  @ DRIVER MODE: Message from server: STATUS
  @ DRIVER MODE: Message from server: INIT
  @ DRIVER MODE: Receiving replica           0          -1
  @ DRIVER MODE: Receiving encoded integer          25
  @ DRIVER MODE:  SCF:  T  FORCE:  T  STRESS:  F  VC:  F  ENSEMBLE:  F
  @ DRIVER MODE:  SCF:  T  FORCE:  T  STRESS:  F  VC:  F  ENSEMBLE:  F

     Using Slab Decomposition

     bravais-lattice index     =            0
     lattice parameter (alat)  =       1.8897  a.u.
     unit-cell volume          =    6658.9804 (a.u.)^3
     number of atoms/cell      =           57
     number of atomic types    =            5
     number of electrons       =       409.00
     number of Kohn-Sham states=          214
     kinetic-energy cutoff     =      29.3995  Ry
     charge density cutoff     =     293.9946  Ry
     scf convergence threshold =      7.3E-08
     mixing beta               =       0.0500
     number of iterations used =            8  plain     mixing
     Exchange-correlation= BEEF-VDW
                           (   1   4  43  14   2   0   0)

     celldm(1)=   1.889726  celldm(2)=   0.000000  celldm(3)=   0.000000
     celldm(4)=   0.000000  celldm(5)=   0.000000  celldm(6)=   0.000000

     crystal axes: (cart. coord. in units of alat)
               a(1) = (   6.579727   0.000000   0.000000 )
               a(2) = (  -0.000775   5.961596   0.000000 )
               a(3) = (   0.000000   0.000000  25.155947 )

     reciprocal axes: (cart. coord. in units 2 pi/alat)
               b(1) = (  0.151982  0.000020  0.000000 )
               b(2) = (  0.000000  0.167740  0.000000 )
               b(3) = (  0.000000  0.000000  0.039752 )

     PseudoPot. # 1 for Ti read from file:
     /storage/coda1/p-amedford6/0/shared/rich_project_chbe-medford/medford-share/data/pseudos_module/espresso/nninc/pbe/van/Ti.UPF
     MD5 check sum: 8e4df49b7f0d34bbd5052bf3f5ea0213
     Pseudo is Ultrasoft, Zval = 12.0
     Generated by new atomic code, or converted to UPF format
     Using radial grid of  851 points,  6 beta functions with:
                l(1) =   0
                l(2) =   0
                l(3) =   1
                l(4) =   1
                l(5) =   2
                l(6) =   2
     Q(r) pseudized with  8 coefficients,  rinner =    1.000   1.000   1.000
                                                       1.000   1.000

     PseudoPot. # 2 for O  read from file:
     /storage/coda1/p-amedford6/0/shared/rich_project_chbe-medford/medford-share/data/pseudos_module/espresso/nninc/pbe/van/O.UPF
     MD5 check sum: 78c19812648e8988a0fe644b0f25305e
     Pseudo is Ultrasoft, Zval =  6.0
     Generated by new atomic code, or converted to UPF format
     Using radial grid of  737 points,  4 beta functions with:
                l(1) =   0
                l(2) =   0
                l(3) =   1
                l(4) =   1
     Q(r) pseudized with  8 coefficients,  rinner =    0.800   0.800   0.800

     PseudoPot. # 3 for C  read from file:
     /storage/coda1/p-amedford6/0/shared/rich_project_chbe-medford/medford-share/data/pseudos_module/espresso/nninc/pbe/van/C.UPF
     MD5 check sum: 1a69bf6b8db32088f5b2163dbdb77a27
     Pseudo is Ultrasoft, Zval =  4.0
     Generated by new atomic code, or converted to UPF format
     Using radial grid of  721 points,  4 beta functions with:
                l(1) =   0
                l(2) =   0
                l(3) =   1
                l(4) =   1
     Q(r) pseudized with  8 coefficients,  rinner =    0.800   0.800   0.800

     PseudoPot. # 4 for H  read from file:
     /storage/coda1/p-amedford6/0/shared/rich_project_chbe-medford/medford-share/data/pseudos_module/espresso/nninc/pbe/van/H.UPF
     MD5 check sum: b5ee9d7bfd3a09ee7748110bda690ff7
     Pseudo is Ultrasoft, Zval =  1.0
     Generated by new atomic code, or converted to UPF format
     Using radial grid of  615 points,  1 beta functions with:
                l(1) =   0
     Q(r) pseudized with  8 coefficients,  rinner =    0.800

     PseudoPot. # 5 for N  read from file:
     /storage/coda1/p-amedford6/0/shared/rich_project_chbe-medford/medford-share/data/pseudos_module/espresso/nninc/pbe/van/N.UPF
     MD5 check sum: 90d10febe142ad51ac9d5be1deb811c4
     Pseudo is Ultrasoft, Zval =  5.0
     Generated by new atomic code, or converted to UPF format
     Using radial grid of  729 points,  4 beta functions with:
                l(1) =   0
                l(2) =   0
                l(3) =   1
                l(4) =   1
     Q(r) pseudized with  8 coefficients,  rinner =    0.800   0.800   0.800

     atomic species   valence    mass     pseudopotential
        Ti1           12.00    47.86700     Ti( 1.00)
        O1             6.00    15.99900     O ( 1.00)
        C1             4.00    12.01100     C ( 1.00)
        H1             1.00     1.00800     H ( 1.00)
        N1             5.00    14.00700     N ( 1.00)

     No symmetry found

   Cartesian axes

     site n.     atom                  positions (alat units)
         1           Ti1 tau(   1) = (   0.0004258   2.9801865   6.0000000  )
         2           Ti1 tau(   2) = (   3.2906075   1.4906267   6.0002472  )
         3           O1  tau(   3) = (   0.0006271   0.0005054   7.9858123  )
         4           O1  tau(   4) = (   3.2906025   0.0005020   7.3038282  )
         5           O1  tau(   5) = (   4.5942328   1.4918067   9.2879030  )
         6           O1  tau(   6) = (   1.9868534   1.4903216   9.2879459  )
         7           Ti1 tau(   7) = (   3.3371032   3.0268772   9.1887580  )
         8           Ti1 tau(   8) = (   0.0611061   1.5258697   9.2809523  )
         9           O1  tau(   9) = (   3.3143856   0.0188946  11.3581724  )
        10           O1  tau(  10) = (   0.0164151   0.0031400  10.5895864  )
        11           O1  tau(  11) = (   1.3088961   1.4994640  12.6347600  )
        12           O1  tau(  12) = (   5.3347766   1.4946156  12.6347356  )
        13           Ti1 tau(  13) = (   0.0202478   3.0292801  12.5720800  )
        14           Ti1 tau(  14) = (   3.3188568   1.5851219  12.4260843  )
        15           O1  tau(  15) = (   0.0445434   5.9450813  14.6510506  )
        16           O1  tau(  16) = (   3.3207065   5.8849141  14.0104376  )
        17           O1  tau(  17) = (   4.6249962   1.5116716  16.1313945  )
        18           O1  tau(  18) = (   2.0639035   1.5439872  16.0680944  )
        19           Ti1 tau(  19) = (   3.3360141   2.9454253  15.6763505  )
        20           Ti1 tau(  20) = (   0.0686920   1.3314864  15.9334539  )
        21           O1  tau(  21) = (   3.2904802   0.0005063   4.7018136  )
        22           O1  tau(  22) = (   0.0979609   0.0039778  17.1657837  )
        23           O1  tau(  23) = (   1.3043587   1.4918075   6.0039043  )
        24           O1  tau(  24) = (   5.2767064   1.4903225   6.0039473  )
        25           Ti1 tau(  25) = (   0.0000382   5.9609847   6.0000000  )
        26           Ti1 tau(  26) = (   3.2902200   4.4714249   6.0002472  )
        27           O1  tau(  27) = (   0.0002396   2.9813036   7.9858123  )
        28           O1  tau(  28) = (   3.2902150   2.9813002   7.3038282  )
        29           O1  tau(  29) = (   4.5938453   4.4726049   9.2879030  )
        30           O1  tau(  30) = (   1.9864658   4.4711199   9.2879459  )
        31           Ti1 tau(  31) = (   3.3368545   0.0404040   9.1664313  )
        32           Ti1 tau(  32) = (   0.0604674   4.4799263   9.2696248  )
        33           O1  tau(  33) = (   3.3137611   2.9662427  11.3084074  )
        34           O1  tau(  34) = (   0.0134136   2.9850836  10.6046154  )
        35           O1  tau(  35) = (   1.3054726   4.4719986  12.6384794  )
        36           O1  tau(  36) = (   5.3362180   4.4781181  12.6390536  )
        37           Ti1 tau(  37) = (   0.0365240   0.0487139  12.4702884  )
        38           Ti1 tau(  38) = (   3.3180881   4.6653017  12.7087268  )
        39           O1  tau(  39) = (   0.0228105   2.9918545  14.7761892  )
        40           O1  tau(  40) = (   3.3431522   2.9700269  13.9040455  )
        41           O1  tau(  41) = (   4.6265974   4.4152401  16.1544535  )
        42           O1  tau(  42) = (   2.0571238   4.3592187  16.1146037  )
        43           Ti1 tau(  43) = (   3.3848590   5.9294639  16.2700006  )
        44           Ti1 tau(  44) = (   0.0517009   4.5268197  15.8466567  )
        45           O1  tau(  45) = (   3.2900926   2.9813045   4.7018136  )
        46           O1  tau(  46) = (   1.3039711   4.4726057   6.0039043  )
        47           O1  tau(  47) = (   5.2763189   4.4711207   6.0039473  )
        48           C1  tau(  48) = (   5.9450987   3.0517216  18.8599509  )
        49           O1  tau(  49) = (   0.1802289   3.0084098  17.6484507  )
        50           H1  tau(  50) = (   4.9625852   2.6832861  18.5889656  )
        51           H1  tau(  51) = (   1.1063247   3.1442434  17.8758057  )
        52           H1  tau(  52) = (   6.3899442   2.3914015  19.6026461  )
        53           H1  tau(  53) = (   5.8846647   4.0795385  19.2151274  )
        54           N1  tau(  54) = (   5.7598779   3.1323611  22.9045362  )
        55           N1  tau(  55) = (   4.9845974   3.1850264  22.1203839  )
        56           O1  tau(  56) = (   3.1467188   0.0118795  18.1166202  )
        57           H1  tau(  57) = (   2.2164505   0.0865285  18.3868412  )

     number of k points=    10  Fermi-Dirac smearing, width (Ry)=  0.0073
                       cart. coord. in units 2pi/alat
        k(    1) = (   0.0000000   0.0000000   0.0000000), wk =   0.1250000
        k(    2) = (   0.0000000   0.0419351   0.0000000), wk =   0.2500000
        k(    3) = (   0.0000000  -0.0838702   0.0000000), wk =   0.1250000
        k(    4) = (   0.0379955   0.0000049   0.0000000), wk =   0.2500000
        k(    5) = (   0.0379955   0.0419400   0.0000000), wk =   0.2500000
        k(    6) = (   0.0379955  -0.0838652   0.0000000), wk =   0.2500000
        k(    7) = (   0.0379955  -0.0419301   0.0000000), wk =   0.2500000
        k(    8) = (  -0.0759910  -0.0000099   0.0000000), wk =   0.1250000
        k(    9) = (  -0.0759910   0.0419252   0.0000000), wk =   0.2500000
        k(   10) = (  -0.0759910  -0.0838800   0.0000000), wk =   0.1250000

     Initial potential from superposition of free atoms

     starting charge  392.99914, renormalised to  409.00000

     negative rho (up, down):  9.139E-03 0.000E+00

     %%%%%%%%%%%%%%%%%%%%%%%%%%%%%%%%%%%%%%%%%%%%%%%%%%%%%%%%%%%%%%%%%%%%%%%%
     %                                                                      %
     % You are using vdW-DF, which was implemented by the Thonhauser group. %
     % Please cite the following two papers that made this development      %
     % possible and the two reviews that describe the various versions:     %
     %                                                                      %
     %   T. Thonhauser et al., PRL 115, 136402 (2015).                      %
     %   T. Thonhauser et al., PRB 76, 125112 (2007).                       %
     %   K. Berland et al., Rep. Prog. Phys. 78, 066501 (2015).             %
     %   D.C. Langreth et al., J. Phys.: Condens. Matter 21, 084203 (2009). %
     %                                                                      %
     %                                                                      %
     % If you are calculating the stress with vdW-DF, please also cite:     %
     %                                                                      %
     %   R. Sabatini et al., J. Phys.: Condens. Matter 24, 424209 (2012).   %
     %                                                                      %
     %%%%%%%%%%%%%%%%%%%%%%%%%%%%%%%%%%%%%%%%%%%%%%%%%%%%%%%%%%%%%%%%%%%%%%%%

     Adding external electric field

     Computed dipole along edir(3) :
        Dipole              -18.8687 Ry au,        -47.9594 Debye
        Dipole field         -0.0356 Ry au,

        Potential amp.        3.3008 Ry
        Total length         46.3494 bohr

     Starting wfcs are  309 atomic wfcs
  @ DRIVER MODE: Message from server: STATUS
  @ DRIVER MODE: Message from server: POSDATA
  @ DRIVER MODE: Reading and sharing cell
  @ DRIVER MODE: Reading and sharing positions
  @ DRIVER MODE: Received positions

     Self-consistent Calculation

     iteration #  1     ecut=    29.40 Ry     beta= 0.05
     Davidson diagonalization with overlap
     c_bands:  5 eigenvalues not converged
     c_bands:  5 eigenvalues not converged
     c_bands:  1 eigenvalues not converged
     c_bands:  4 eigenvalues not converged
     c_bands:  1 eigenvalues not converged
     c_bands:  3 eigenvalues not converged
     ethr =  1.00E-05,  avg # of iterations = 27.3

[...]

     total energy              =   -2113.15827528 Ry
     estimated scf accuracy    <   10331.07657104 Ry

     iteration #  2     ecut=    29.40 Ry     beta= 0.05
     Davidson diagonalization with overlap
     ethr =  1.00E-02,  avg # of iterations = 30.2

[...]

     iteration # 72     ecut=    29.40 Ry     beta= 0.05
     Davidson diagonalization with overlap
     c_bands:  1 eigenvalues not converged
     ethr =  5.15E-11,  avg # of iterations = 11.5

[...]

     total energy              =   -3006.45815477 Ry
     estimated scf accuracy    <       0.00000012 Ry

     iteration # 73     ecut=    29.40 Ry     beta= 0.05
     Davidson diagonalization with overlap
     ethr =  2.88E-11,  avg # of iterations = 10.4

     negative rho (up, down):  1.064E-02 0.000E+00

     Adding external electric field

     Computed dipole along edir(3) :
        Dipole                1.0516 Ry au,          2.6729 Debye
        Dipole field          0.0020 Ry au,

        Potential amp.       -0.1840 Ry
        Total length         46.3494 bohr

     End of self-consistent calculation

          k = 0.0000 0.0000 0.0000 ( 18029 PWs)   bands (ev):

   -55.3279 -55.2524 -55.2172 -55.1430 -55.1215 -55.0864 -55.0502 -55.0462
   -55.0437 -55.0246 -55.0147 -54.9846 -54.8981 -54.8221 -54.2121 -54.1781
   -31.7304 -31.7224 -31.6341 -31.6226 -31.5815 -31.5679 -31.5433 -31.5415
   -31.5065 -31.4952 -31.4837 -31.4197 -31.4061 -31.4060 -31.3792 -31.3611
   -31.3525 -31.3354 -31.3351 -31.3232 -31.3159 -31.3112 -31.2652 -31.2632
   -31.2611 -31.2544 -31.2515 -31.2386 -31.2324 -31.2135 -31.2068 -31.1962
   -31.1946 -31.1745 -31.1702 -31.1621 -31.1615 -31.1267 -31.0869 -31.0674
   -31.0363 -31.0259 -30.6183 -30.5320 -30.5094 -30.4352 -30.3489 -30.2373
   -21.5095 -19.7705 -16.1349 -15.9046 -15.7253 -15.5234 -15.4666 -15.4001
   -15.2129 -15.1394 -14.9834 -14.8590 -14.8439 -14.7868 -14.7851 -14.7758
   -14.7468 -14.7218 -14.6765 -14.6651 -14.6597 -14.6562 -14.5947 -14.5521
   -14.5492 -14.5224 -14.5017 -14.3747 -14.3277 -14.2730 -14.1031 -14.0822
   -12.7119 -12.5957 -10.5962  -6.6909  -6.4389  -4.6740  -4.6332  -4.5981
    -4.4171  -3.6514  -3.3735  -3.2539  -3.1534  -3.1346  -3.0703  -3.0194
    -2.8042  -2.7022  -2.6350  -2.5223  -2.3951  -2.3596  -2.3125  -2.2774
    -2.1851  -2.1673  -2.1356  -2.1060  -2.0497  -2.0218  -2.0142  -2.0020
    -1.9261  -1.9191  -1.7895  -1.7844  -1.7291  -1.6362  -1.6184  -1.5956
    -1.5884  -1.5539  -1.5517  -1.5091  -1.4854  -1.4615  -1.4343  -1.3585
    -1.3388  -1.2758  -1.2380  -1.0072  -0.8521  -0.8274  -0.7468  -0.7308
    -0.7008  -0.6705  -0.6501  -0.6396  -0.6024  -0.5868  -0.4831  -0.3799
    -0.3713  -0.3113  -0.2738  -0.2688  -0.1332  -0.0888  -0.0141   0.0084
     0.0408   0.0618   0.1460   0.1952   0.2166   0.2834   0.3149   0.4202
     0.4576   0.4768   0.5183   0.5732   0.6341   0.6672   0.7074   0.7107
     0.7434   0.7926   0.8220   0.8566   0.8791   0.9260   1.0289   1.0661
     1.0768   1.2173   1.2281   1.3105   1.4354   1.4873   1.7603   1.8128
     1.8596   2.0051   2.3816   2.4285   3.8714   3.9741   3.9951   4.0164
     4.0841   4.1659   4.3313   4.3544   4.4190   4.5197

[...]

          k = 0.0380-0.0419 0.0000 ( 17876 PWs)   bands (ev):

[...]

          k =-0.0760-0.0000 0.0000 ( 17886 PWs)   bands (ev):

[...]

          k =-0.0760-0.0839 0.0000 ( 17948 PWs)   bands (ev):

   -55.3271 -55.2393 -55.2301 -55.1370 -55.1171 -55.0921 -55.0503 -55.0445
   -55.0363 -55.0280 -55.0156 -54.9938 -54.8945 -54.8257 -54.1952 -54.1948
   -31.6420 -31.5776 -31.5678 -31.5503 -31.5414 -31.5411 -31.5354 -31.5195
   -31.4573 -31.4523 -31.4138 -31.3930 -31.3807 -31.3758 -31.3593 -31.3569
   -31.3535 -31.3522 -31.3446 -31.3389 -31.3340 -31.3317 -31.3166 -31.3146
   -31.2957 -31.2849 -31.2559 -31.2496 -31.2462 -31.2419 -31.2340 -31.2327
   -31.2262 -31.2213 -31.2176 -31.2131 -31.2105 -31.1725 -31.1539 -31.0910
   -31.0734 -31.0298 -30.5223 -30.5220 -30.4321 -30.4305 -30.3922 -30.3913
   -21.5094 -19.7668 -16.1113 -15.5349 -15.3779 -15.2068 -15.1931 -15.1137
   -15.0224 -15.0044 -14.9739 -14.9606 -14.9434 -14.9190 -14.9108 -14.8750
   -14.8128 -14.7709 -14.7478 -14.7395 -14.6926 -14.6873 -14.6837 -14.6209
   -14.6137 -14.5955 -14.5708 -14.5110 -14.5026 -14.4015 -14.3880 -14.2143
   -12.6980 -12.6971 -10.5982  -6.6911  -6.4408  -4.6687  -4.6401  -4.5867
    -4.4092  -3.6168  -3.3639  -2.6831  -2.5994  -2.5460  -2.4308  -2.3524
    -2.2997  -2.2494  -2.2282  -2.1831  -2.1620  -2.0924  -2.0580  -2.0490
    -2.0297  -2.0274  -1.9969  -1.9816  -1.9691  -1.9475  -1.9191  -1.9019
    -1.8914  -1.8704  -1.8504  -1.8248  -1.8125  -1.8027  -1.7878  -1.7721
    -1.6611  -1.6446  -1.6116  -1.4497  -1.4380  -1.3683  -1.3367  -1.3103
    -1.3068  -1.2764  -1.2616  -1.2202  -1.1151  -1.0863  -1.0366  -1.0011
    -0.9034  -0.8862  -0.8353  -0.7850  -0.7386  -0.7101  -0.6798  -0.6643
    -0.6105  -0.4722  -0.4517  -0.4063  -0.2872  -0.2138  -0.1982  -0.1857
    -0.1639  -0.1408  -0.0943  -0.0861  -0.0242  -0.0118   0.0592   0.0630
     0.0923   0.1137   0.2163   0.3383   0.4168   0.4608   0.5053   0.5550
     0.5887   0.6706   0.7478   0.8337   0.9099   0.9394   0.9531   1.0709
     1.1031   1.1557   1.2018   1.2220   1.2803   1.3161   1.3563   1.3894
     2.1739   2.1875   2.2438   2.2495   4.0517   4.3023   4.3622   4.3794
     4.3890   4.4214   4.4426   4.4935   4.5113   4.5353

     the Fermi energy is     3.8816 ev

!    total energy              =   -3006.45817161 Ry
     estimated scf accuracy    <       0.00000007 Ry
     smearing contrib. (-TS)   =      -0.02082680 Ry
     internal energy E=F+TS    =   -3006.43734481 Ry

     The total energy is F=E-TS. E is the sum of the following terms:
     one-electron contribution =  -22317.92281556 Ry
     hartree contribution      =   11258.48284018 Ry
     xc contribution           =    -501.15461661 Ry
     ewald contribution        =    8554.15516024 Ry
     electric field correction =       0.00208694 Ry

     convergence has been achieved in  73 iterations

     Forces acting on atoms (cartesian axes, Ry/au):

     atom    1 type  1   force =    -0.00037698   -0.00017766    0.09497314
     atom    2 type  1   force =    -0.00035377    0.00512620   -0.17480698
     atom    3 type  2   force =     0.00070891    0.00013486   -0.02673225
     atom    4 type  2   force =     0.00128753    0.00083069    0.05206956
     atom    5 type  2   force =    -0.01096021   -0.00255812    0.00077954
     atom    6 type  2   force =     0.01193508   -0.00380768    0.00178941
     atom    7 type  1   force =    -0.00021845    0.00038961    0.00066090
     atom    8 type  1   force =     0.00013095    0.00022937    0.00015242
     atom    9 type  2   force =     0.00024833    0.00075899   -0.00065811
     atom   10 type  2   force =    -0.00039305    0.00016258    0.00016298
     atom   11 type  2   force =     0.00043878   -0.00015050    0.00011663
     atom   12 type  2   force =    -0.00084596   -0.00015039    0.00037204
     atom   13 type  1   force =     0.00043635    0.00035176   -0.00023800
     atom   14 type  1   force =    -0.00033680   -0.00069890    0.00094549
     atom   15 type  2   force =    -0.00015514   -0.00052699   -0.00095290
     atom   16 type  2   force =    -0.00027119    0.00000087   -0.00023006
     atom   17 type  2   force =    -0.00094748    0.00031130   -0.00001161
     atom   18 type  2   force =     0.00043188    0.00065641   -0.00010906
     atom   19 type  1   force =     0.00013079   -0.00078343    0.00032145
     atom   20 type  1   force =    -0.00020335    0.00001676    0.00019949
     atom   21 type  2   force =    -0.00000566    0.00007370    0.10300117
     atom   22 type  2   force =    -0.00002702   -0.00017554    0.00104719
     atom   23 type  2   force =    -0.07194310    0.00013610   -0.02803226
     atom   24 type  2   force =     0.07178044    0.00063294   -0.02813464
     atom   25 type  1   force =    -0.00035631    0.00025972    0.10241301
     atom   26 type  1   force =    -0.00010862   -0.00474760   -0.17505770
     atom   27 type  2   force =     0.00085041    0.00117196   -0.02485370
     atom   28 type  2   force =     0.00119511    0.00025411    0.05170542
     atom   29 type  2   force =    -0.01192103    0.00381269    0.00172149
     atom   30 type  2   force =     0.01376418    0.00146216    0.00245065
     atom   31 type  1   force =    -0.00029254   -0.00016654    0.00080649
     atom   32 type  1   force =     0.00028050    0.00028675    0.00058454
     atom   33 type  2   force =     0.00000456    0.00020208    0.00009234
     atom   34 type  2   force =    -0.00027291   -0.00032384   -0.00054170
     atom   35 type  2   force =    -0.00023822    0.00004988   -0.00046401
     atom   36 type  2   force =    -0.00037457    0.00009474   -0.00007934
     atom   37 type  1   force =    -0.00006468   -0.00035748    0.00002665
     atom   38 type  1   force =    -0.00056911    0.00027513    0.00001655
     atom   39 type  2   force =    -0.00025994   -0.00025411    0.00082804
     atom   40 type  2   force =    -0.00019466    0.00011738    0.00028987
     atom   41 type  2   force =    -0.00138128   -0.00025648   -0.00005834
     atom   42 type  2   force =     0.00100015   -0.00007553   -0.00058422
     atom   43 type  1   force =    -0.00026842    0.00050348    0.00016848
     atom   44 type  1   force =    -0.00000712    0.00022374   -0.00015502
     atom   45 type  2   force =     0.00000173    0.00013984    0.10259090
     atom   46 type  2   force =    -0.07183946   -0.00062425   -0.02798156
     atom   47 type  2   force =     0.07169617   -0.00013270   -0.02805474
     atom   48 type  3   force =    -0.00097411   -0.00022922   -0.00008970
     atom   49 type  2   force =    -0.01870123   -0.00317907   -0.00348300
     atom   50 type  4   force =    -0.00005450   -0.00041353   -0.00009748
     atom   51 type  4   force =     0.01853589    0.00282157    0.00340146
     atom   52 type  4   force =    -0.00012695    0.00007136   -0.00051171
     atom   53 type  4   force =    -0.00001193   -0.00040110   -0.00110705
     atom   54 type  5   force =     0.00013031   -0.00008118    0.00035148
     atom   55 type  5   force =    -0.00045931    0.00006101   -0.00030064
     atom   56 type  2   force =     0.00080471   -0.00054582    0.00048876
     atom   57 type  4   force =    -0.00027771   -0.00080208   -0.00120180

     Total force =     0.365786     Total SCF correction =     0.000723
  @ DRIVER MODE: Message from server: STATUS
  @ DRIVER MODE: Message from server: GETFORCE
  @ DRIVER MODE: Returning v,forces,stress,ensemble

     Writing output data file ./calc.save/
  @ DRIVER MODE: Message from server: EXIT
  @ DRIVE MODE: Exiting

     General routines

     Parallel routines

   This run was terminated on:   1:35:37  26Sep2021

   JOB DONE.