     Program PWSCF v.6.7GPU starts on 15Sep2021 at 19:57: 6

     R & G space division:  proc/nbgrp/npool/nimage =      10
     Reading input from /storage/home/hcoda1/3/ntian30/research/carbon/CxH_vib/H2O_calc/ads_slab/CH3NH2O_a/out_0015/pw.inp
Warning: card &CELL ignored
Warning: card   CELL_DYNAMICS='IPI', ignored
Warning: card / ignored

     Current dimensions of program PWSCF are:
     Max number of different atomic species (ntypx) = 10
     Max number of k-points (npk) =  40000
     Max angular momentum in pseudopotentials (lmaxx) =  3
     Presently no symmetry can be used with electric field

     Message from routine cell_base_init:
     DEPRECATED: use true lattice parameter, not A to a.u. conversion factor

     IMPORTANT: XC functional enforced from input :
     Exchange-correlation= BEEF-VDW
                           (   1   4  43  14   2   0   0)
     Any further DFT definition will be discarded
     Please, verify this is what you really want

  @ DRIVER MODE: Connecting to
 qe_1139763_2852618.sched-torque.pace.gatech.edu47uahf1a_scratch
  using UNIX socket
  @ DRIVER MODE: Message from server: STATUS
  @ DRIVER MODE: Message from server: INIT
  @ DRIVER MODE: Receiving replica           0          -1
  @ DRIVER MODE: Receiving encoded integer          25
  @ DRIVER MODE:  SCF:  T  FORCE:  T  STRESS:  F  VC:  F  ENSEMBLE:  F
  @ DRIVER MODE:  SCF:  T  FORCE:  T  STRESS:  F  VC:  F  ENSEMBLE:  F

     Using Slab Decomposition

     bravais-lattice index     =            0
     lattice parameter (alat)  =       1.8897  a.u.
     unit-cell volume          =    6658.9804 (a.u.)^3
     number of atoms/cell      =           55
     number of atomic types    =            5
     number of electrons       =       398.00
     number of Kohn-Sham states=          209
     kinetic-energy cutoff     =      29.3995  Ry
     charge density cutoff     =     293.9946  Ry
     scf convergence threshold =      7.3E-08
     mixing beta               =       0.0500
     number of iterations used =            8  plain     mixing
     Exchange-correlation= BEEF-VDW
                           (   1   4  43  14   2   0   0)

     celldm(1)=   1.889726  celldm(2)=   0.000000  celldm(3)=   0.000000
     celldm(4)=   0.000000  celldm(5)=   0.000000  celldm(6)=   0.000000

     crystal axes: (cart. coord. in units of alat)
               a(1) = (   6.579727   0.000000   0.000000 )
               a(2) = (  -0.000775   5.961596   0.000000 )
               a(3) = (   0.000000   0.000000  25.155947 )

     reciprocal axes: (cart. coord. in units 2 pi/alat)
               b(1) = (  0.151982  0.000020  0.000000 )
               b(2) = (  0.000000  0.167740  0.000000 )
               b(3) = (  0.000000  0.000000  0.039752 )

     PseudoPot. # 1 for Ti read from file:
     /storage/coda1/p-amedford6/0/shared/rich_project_chbe-medford/medford-share/data/pseudos_module/espresso/nninc/pbe/van/Ti.UPF
     MD5 check sum: 8e4df49b7f0d34bbd5052bf3f5ea0213
     Pseudo is Ultrasoft, Zval = 12.0
     Generated by new atomic code, or converted to UPF format
     Using radial grid of  851 points,  6 beta functions with:
                l(1) =   0
                l(2) =   0
                l(3) =   1
                l(4) =   1
                l(5) =   2
                l(6) =   2
     Q(r) pseudized with  8 coefficients,  rinner =    1.000   1.000   1.000
                                                       1.000   1.000

     PseudoPot. # 2 for O  read from file:
     /storage/coda1/p-amedford6/0/shared/rich_project_chbe-medford/medford-share/data/pseudos_module/espresso/nninc/pbe/van/O.UPF
     MD5 check sum: 78c19812648e8988a0fe644b0f25305e
     Pseudo is Ultrasoft, Zval =  6.0
     Generated by new atomic code, or converted to UPF format
     Using radial grid of  737 points,  4 beta functions with:
                l(1) =   0
                l(2) =   0
                l(3) =   1
                l(4) =   1
     Q(r) pseudized with  8 coefficients,  rinner =    0.800   0.800   0.800

     PseudoPot. # 3 for N  read from file:
     /storage/coda1/p-amedford6/0/shared/rich_project_chbe-medford/medford-share/data/pseudos_module/espresso/nninc/pbe/van/N.UPF
     MD5 check sum: 90d10febe142ad51ac9d5be1deb811c4
     Pseudo is Ultrasoft, Zval =  5.0
     Generated by new atomic code, or converted to UPF format
     Using radial grid of  729 points,  4 beta functions with:
                l(1) =   0
                l(2) =   0
                l(3) =   1
                l(4) =   1
     Q(r) pseudized with  8 coefficients,  rinner =    0.800   0.800   0.800

     PseudoPot. # 4 for C  read from file:
     /storage/coda1/p-amedford6/0/shared/rich_project_chbe-medford/medford-share/data/pseudos_module/espresso/nninc/pbe/van/C.UPF
     MD5 check sum: 1a69bf6b8db32088f5b2163dbdb77a27
     Pseudo is Ultrasoft, Zval =  4.0
     Generated by new atomic code, or converted to UPF format
     Using radial grid of  721 points,  4 beta functions with:
                l(1) =   0
                l(2) =   0
                l(3) =   1
                l(4) =   1
     Q(r) pseudized with  8 coefficients,  rinner =    0.800   0.800   0.800

     PseudoPot. # 5 for H  read from file:
     /storage/coda1/p-amedford6/0/shared/rich_project_chbe-medford/medford-share/data/pseudos_module/espresso/nninc/pbe/van/H.UPF
     MD5 check sum: b5ee9d7bfd3a09ee7748110bda690ff7
     Pseudo is Ultrasoft, Zval =  1.0
     Generated by new atomic code, or converted to UPF format
     Using radial grid of  615 points,  1 beta functions with:
                l(1) =   0
     Q(r) pseudized with  8 coefficients,  rinner =    0.800

     atomic species   valence    mass     pseudopotential
        Ti1           12.00    47.86700     Ti( 1.00)
        O1             6.00    15.99900     O ( 1.00)
        N1             5.00    14.00700     N ( 1.00)
        C1             4.00    12.01100     C ( 1.00)
        H1             1.00     1.00800     H ( 1.00)

     No symmetry found

   Cartesian axes

     site n.     atom                  positions (alat units)
         1           Ti1 tau(   1) = (   0.0004258   2.9801865   6.0000000  )
         2           Ti1 tau(   2) = (   3.2906075   1.4906267   6.0002472  )
         3           O1  tau(   3) = (   0.0006271   0.0005054   7.9858123  )
         4           O1  tau(   4) = (   3.2906025   0.0005020   7.3038282  )
         5           O1  tau(   5) = (   4.5942328   1.4918067   9.2879030  )
         6           O1  tau(   6) = (   1.9868534   1.4903216   9.2879459  )
         7           Ti1 tau(   7) = (   3.2907910   2.8959150   9.1758416  )
         8           Ti1 tau(   8) = (   0.0015273   1.4827037   9.2680791  )
         9           O1  tau(   9) = (   3.2951577   0.0167633  11.2896499  )
        10           O1  tau(  10) = (   0.0116148   5.9584955  10.6183126  )
        11           O1  tau(  11) = (   1.3222759   1.5071707  12.6129440  )
        12           O1  tau(  12) = (   5.3060066   1.5095485  12.6267335  )
        13           Ti1 tau(  13) = (   6.4824898   3.0013615  12.7357613  )
        14           Ti1 tau(  14) = (   3.1735365   1.4973312  12.4739500  )
        15           O1  tau(  15) = (   0.0245190   0.0017265  14.5963640  )
        16           O1  tau(  16) = (   3.2983568   0.0259644  13.8884976  )
        17           O1  tau(  17) = (   4.5535709   1.5599051  15.9919625  )
        18           O1  tau(  18) = (   2.0723989   1.5598234  15.9883263  )
        19           Ti1 tau(  19) = (   3.3263631   3.0313633  15.6478355  )
        20           Ti1 tau(  20) = (   0.0083359   1.6222165  16.0589653  )
        21           O1  tau(  21) = (   3.2904802   0.0005063   4.7018136  )
        22           O1  tau(  22) = (   0.0206953   0.0548308  17.2083480  )
        23           O1  tau(  23) = (   1.3043587   1.4918075   6.0039043  )
        24           O1  tau(  24) = (   5.2767064   1.4903225   6.0039473  )
        25           Ti1 tau(  25) = (   0.0000382   5.9609847   6.0000000  )
        26           Ti1 tau(  26) = (   3.2902200   4.4714249   6.0002472  )
        27           O1  tau(  27) = (   0.0002396   2.9813036   7.9858123  )
        28           O1  tau(  28) = (   3.2902150   2.9813002   7.3038282  )
        29           O1  tau(  29) = (   4.5938453   4.4726049   9.2879030  )
        30           O1  tau(  30) = (   1.9864658   4.4711199   9.2879459  )
        31           Ti1 tau(  31) = (   3.2891106   5.8743827   9.1763621  )
        32           Ti1 tau(  32) = (   0.0006254   4.4649316   9.2693709  )
        33           O1  tau(  33) = (   3.2909539   2.9954008  11.2901670  )
        34           O1  tau(  34) = (   0.0092240   2.9805883  10.6323155  )
        35           O1  tau(  35) = (   1.3211080   4.4795309  12.6092917  )
        36           O1  tau(  36) = (   5.3058445   4.4798052  12.6251394  )
        37           Ti1 tau(  37) = (   6.5140999   0.0198189  12.7603067  )
        38           Ti1 tau(  38) = (   3.1705570   4.4938763  12.4677136  )
        39           O1  tau(  39) = (   0.0016069   2.9863809  14.6467327  )
        40           O1  tau(  40) = (   3.3112668   3.0122049  13.8485686  )
        41           O1  tau(  41) = (   4.5534170   4.5051619  16.0179686  )
        42           O1  tau(  42) = (   2.0797414   4.5084034  16.0201905  )
        43           Ti1 tau(  43) = (   3.2815144   0.0627375  15.7417980  )
        44           Ti1 tau(  44) = (   0.0076503   4.5954094  16.1032789  )
        45           O1  tau(  45) = (   3.2900926   2.9813045   4.7018136  )
        46           O1  tau(  46) = (   1.3039711   4.4726057   6.0039043  )
        47           O1  tau(  47) = (   5.2763189   4.4711207   6.0039473  )
        48           N1  tau(  48) = (   0.0651939   3.0276870  17.3150544  )
        49           C1  tau(  49) = (   0.3375872   3.0185870  18.7284822  )
        50           H1  tau(  50) = (   0.4544735   4.0211245  19.1352477  )
        51           H1  tau(  51) = (   6.1015407   2.5302758  19.2785169  )
        52           H1  tau(  52) = (   1.2508204   2.4494767  18.9518403  )
        53           O1  tau(  53) = (   3.3357083   0.1159715  18.1615364  )
        54           H1  tau(  54) = (   4.1514219   5.6051498  18.3929375  )
        55           H1  tau(  55) = (   2.5926282   5.5337384  18.4710493  )

     number of k points=    10  Fermi-Dirac smearing, width (Ry)=  0.0073
                       cart. coord. in units 2pi/alat
        k(    1) = (   0.0000000   0.0000000   0.0000000), wk =   0.1250000
        k(    2) = (   0.0000000   0.0419351   0.0000000), wk =   0.2500000
        k(    3) = (   0.0000000  -0.0838702   0.0000000), wk =   0.1250000
        k(    4) = (   0.0379955   0.0000049   0.0000000), wk =   0.2500000
        k(    5) = (   0.0379955   0.0419400   0.0000000), wk =   0.2500000
        k(    6) = (   0.0379955  -0.0838652   0.0000000), wk =   0.2500000
        k(    7) = (   0.0379955  -0.0419301   0.0000000), wk =   0.2500000
        k(    8) = (  -0.0759910  -0.0000099   0.0000000), wk =   0.1250000
        k(    9) = (  -0.0759910   0.0419252   0.0000000), wk =   0.2500000
        k(   10) = (  -0.0759910  -0.0838800   0.0000000), wk =   0.1250000

     Initial potential from superposition of free atoms

     starting charge  381.99915, renormalised to  398.00000

     negative rho (up, down):  1.656E-02 0.000E+00

     %%%%%%%%%%%%%%%%%%%%%%%%%%%%%%%%%%%%%%%%%%%%%%%%%%%%%%%%%%%%%%%%%%%%%%%%
     %                                                                      %
     % You are using vdW-DF, which was implemented by the Thonhauser group. %
     % Please cite the following two papers that made this development      %
     % possible and the two reviews that describe the various versions:     %
     %                                                                      %
     %   T. Thonhauser et al., PRL 115, 136402 (2015).                      %
     %   T. Thonhauser et al., PRB 76, 125112 (2007).                       %
     %   K. Berland et al., Rep. Prog. Phys. 78, 066501 (2015).             %
     %   D.C. Langreth et al., J. Phys.: Condens. Matter 21, 084203 (2009). %
     %                                                                      %
     %                                                                      %
     % If you are calculating the stress with vdW-DF, please also cite:     %
     %                                                                      %
     %   R. Sabatini et al., J. Phys.: Condens. Matter 24, 424209 (2012).   %
     %                                                                      %
     %%%%%%%%%%%%%%%%%%%%%%%%%%%%%%%%%%%%%%%%%%%%%%%%%%%%%%%%%%%%%%%%%%%%%%%%

     Adding external electric field

     Computed dipole along edir(3) :
        Dipole               -9.1079 Ry au,        -23.1500 Debye
        Dipole field         -0.0172 Ry au,

        Potential amp.        1.5933 Ry
        Total length         46.3494 bohr

     Starting wfcs are  301 atomic wfcs
  @ DRIVER MODE: Message from server: STATUS
  @ DRIVER MODE: Message from server: POSDATA
  @ DRIVER MODE: Reading and sharing cell
  @ DRIVER MODE: Reading and sharing positions
  @ DRIVER MODE: Received positions

     Self-consistent Calculation

     iteration #  1     ecut=    29.40 Ry     beta= 0.05
     Davidson diagonalization with overlap
     c_bands:  1 eigenvalues not converged
     c_bands:  1 eigenvalues not converged
     c_bands:  1 eigenvalues not converged
     c_bands:  1 eigenvalues not converged
     c_bands:  1 eigenvalues not converged
     c_bands:  1 eigenvalues not converged
     c_bands:  1 eigenvalues not converged
     c_bands:  2 eigenvalues not converged
     ethr =  1.00E-05,  avg # of iterations = 19.6

[...]

     total energy              =   -2564.53436823 Ry
     estimated scf accuracy    <    4316.88330496 Ry

     iteration #  2     ecut=    29.40 Ry     beta= 0.05
     Davidson diagonalization with overlap
     ethr =  1.00E-02,  avg # of iterations = 23.8

[...]

     iteration # 48     ecut=    29.40 Ry     beta= 0.05
     Davidson diagonalization with overlap
     c_bands:  1 eigenvalues not converged
     ethr =  6.70E-06,  avg # of iterations = 13.0

[...]

     total energy              =   -2953.97100589 Ry
     estimated scf accuracy    <       0.00000020 Ry

     iteration # 84     ecut=    29.40 Ry     beta= 0.05
     Davidson diagonalization with overlap
     ethr =  5.10E-11,  avg # of iterations =  5.3

     negative rho (up, down):  1.669E-02 0.000E+00

     Adding external electric field

     Computed dipole along edir(3) :
        Dipole                0.5321 Ry au,          1.3525 Debye
        Dipole field          0.0010 Ry au,

        Potential amp.       -0.0931 Ry
        Total length         46.3494 bohr

     End of self-consistent calculation

          k = 0.0000 0.0000 0.0000 ( 18029 PWs)   bands (ev):

   -56.5932 -56.5596 -55.7111 -55.6771 -55.6672 -55.6324 -55.4905 -55.4543
   -55.3602 -55.2419 -55.2287 -55.2264 -55.2079 -55.1310 -54.7239 -54.6745
   -33.0199 -32.8677 -32.8395 -32.7696 -32.6787 -32.6461 -32.1790 -32.1497
   -32.0261 -31.9761 -31.9282 -31.9092 -31.8798 -31.8698 -31.8420 -31.8360
   -31.8170 -31.8120 -31.7896 -31.7740 -31.7664 -31.7102 -31.7056 -31.6681
   -31.6545 -31.6328 -31.6251 -31.6167 -31.5939 -31.5853 -31.5816 -31.5574
   -31.4644 -31.4520 -31.4183 -31.4048 -31.3783 -31.3688 -31.3552 -31.3363
   -31.3083 -31.2578 -31.2388 -30.9675 -30.9461 -30.9167 -30.8928 -30.7835
   -18.7869 -16.7486 -16.2851 -16.0440 -15.9493 -15.8673 -15.8274 -15.7841
   -15.6368 -15.5637 -15.5437 -15.5411 -15.4735 -15.3293 -15.2753 -15.1775
   -15.0913 -14.9500 -14.9386 -14.8985 -14.8850 -14.8486 -14.8446 -14.7941
   -14.6255 -14.5896 -14.5439 -14.4853 -14.3932 -14.1725 -13.7401 -13.6304
   -12.9747  -7.7951  -6.5812  -4.3158  -3.7837  -3.5186  -3.4864  -3.3581
    -3.3540  -3.3117  -3.1812  -3.1635  -3.0897  -3.0624  -3.0275  -2.9484
    -2.9036  -2.8686  -2.7777  -2.7638  -2.7445  -2.7371  -2.7159  -2.5983
    -2.5544  -2.5039  -2.4007  -2.2906  -2.2482  -2.2210  -2.1749  -2.1417
    -2.0904  -2.0792  -2.0672  -2.0553  -1.9515  -1.8293  -1.8044  -1.7811
    -1.7350  -1.7205  -1.7119  -1.6885  -1.6035  -1.4958  -1.4023  -1.3345
    -1.3278  -1.2518  -1.2437  -1.1863  -1.0748  -1.0120  -1.0098  -0.9875
    -0.8834  -0.8587  -0.7872  -0.7249  -0.6656  -0.6125  -0.5499  -0.4976
    -0.4745  -0.4651  -0.3673  -0.2978  -0.2729  -0.2177  -0.2096  -0.2045
    -0.1773  -0.0825  -0.0468   0.0288   0.0652   0.1131   0.1482   0.2275
     0.2872   0.3529   0.3997   0.4219   0.4872   0.5429   0.5980   0.6893
     0.7465   0.7526   0.7800   0.8386   0.8521   0.9263   1.0084   1.0283
     1.0949   1.1661   1.3298   1.3688   1.6127   1.6883   2.3129   2.6841
     2.8452   3.1404   3.3300   3.4680   3.6633   3.6737   3.6809   3.9026
     3.9307

[...]

          k = 0.0380-0.0419 0.0000 ( 17876 PWs)   bands (ev):

[...]

          k =-0.0760-0.0000 0.0000 ( 17886 PWs)   bands (ev):

[...]

          k =-0.0760-0.0839 0.0000 ( 17948 PWs)   bands (ev):

   -56.5766 -56.5761 -55.6960 -55.6917 -55.6544 -55.6454 -55.4765 -55.4682
   -55.3578 -55.2310 -55.2249 -55.2248 -55.2231 -55.1342 -54.7167 -54.6815
   -32.8536 -32.8532 -32.8369 -32.8367 -32.7228 -32.7224 -32.0026 -31.9968
   -31.9855 -31.9785 -31.9022 -31.8876 -31.8862 -31.8819 -31.8752 -31.8737
   -31.8665 -31.8585 -31.8319 -31.8149 -31.7215 -31.7151 -31.6835 -31.6757
   -31.6526 -31.6171 -31.5851 -31.5705 -31.5703 -31.5686 -31.5472 -31.5297
   -31.4784 -31.4497 -31.4495 -31.4455 -31.4301 -31.4107 -31.4106 -31.3996
   -31.3732 -31.3378 -31.0996 -31.0372 -30.9436 -30.9179 -30.9025 -30.8554
   -18.7860 -16.0994 -16.0974 -16.0619 -16.0612 -15.7948 -15.7914 -15.7018
   -15.6962 -15.5646 -15.4441 -15.3399 -15.3273 -15.2933 -15.2668 -15.1566
   -15.1356 -15.1242 -15.1139 -15.0064 -14.9872 -14.9392 -14.9249 -14.9093
   -14.9019 -14.6071 -14.5907 -14.4906 -14.4646 -14.3249 -13.7340 -13.7339
   -12.9932  -7.7887  -6.5742  -3.1961  -3.1893  -3.1513  -3.1347  -3.1341
    -3.0964  -2.9764  -2.9291  -2.9271  -2.9262  -2.8445  -2.7812  -2.7734
    -2.6996  -2.6664  -2.6492  -2.5922  -2.5783  -2.5136  -2.4871  -2.4790
    -2.4614  -2.4374  -2.4361  -2.3425  -2.2764  -2.2305  -2.2252  -2.1659
    -2.1365  -2.0768  -2.0545  -2.0433  -2.0108  -1.9689  -1.9570  -1.9188
    -1.8768  -1.8425  -1.7787  -1.6124  -1.6031  -1.5942  -1.5738  -1.4524
    -1.4443  -1.4096  -1.3782  -1.3727  -1.3019  -1.2524  -1.2145  -1.1634
    -1.0756  -1.0542  -0.9498  -0.8974  -0.8543  -0.7986  -0.6934  -0.6729
    -0.6657  -0.6543  -0.6236  -0.5539  -0.5195  -0.5160  -0.3930  -0.3687
    -0.3308  -0.3009  -0.2430  -0.2139  -0.1554  -0.1229  -0.0532  -0.0389
     0.0003   0.0767   0.1528   0.1864   0.2380   0.2444   0.5187   0.5924
     0.7216   0.7848   0.8473   0.9153   0.9803   1.0088   1.0383   1.1638
     1.1681   1.1776   1.1781   1.2483   1.2536   1.5929   2.1910   3.2601
     3.2604   3.3267   3.3273   3.6482   3.6545   3.7615   3.7718   3.9319
     3.9463

     the Fermi energy is     2.5111 ev

!    total energy              =   -2953.97101127 Ry
     estimated scf accuracy    <       0.00000006 Ry
     smearing contrib. (-TS)   =      -0.00443168 Ry
     internal energy E=F+TS    =   -2953.96657958 Ry

     The total energy is F=E-TS. E is the sum of the following terms:
     one-electron contribution =  -24344.03313565 Ry
     hartree contribution      =   12263.92524692 Ry
     xc contribution           =    -488.77743088 Ry
     ewald contribution        =    9614.91820567 Ry
     electric field correction =       0.00053435 Ry

     convergence has been achieved in  84 iterations

     Forces acting on atoms (cartesian axes, Ry/au):

     atom    1 type  1   force =    -0.00003090   -0.00048420    0.12439943
     atom    2 type  1   force =    -0.00003911   -0.00048468   -0.15980990
     atom    3 type  2   force =     0.00020077   -0.00023609   -0.06783502
     atom    4 type  2   force =     0.00000166   -0.00009133    0.02612827
     atom    5 type  2   force =    -0.01436550    0.00191422   -0.00990046
     atom    6 type  2   force =     0.01614926    0.00232481   -0.01027388
     atom    7 type  1   force =     0.00071923   -0.00389911    0.02847604
     atom    8 type  1   force =    -0.00033617   -0.00435991    0.10934295
     atom    9 type  2   force =     0.00002287    0.00001749    0.00008100
     atom   10 type  2   force =    -0.00225485    0.00266757   -0.07360383
     atom   11 type  2   force =     0.00080999   -0.00002793   -0.00023480
     atom   12 type  2   force =    -0.00044211    0.00004808   -0.00019827
     atom   13 type  1   force =    -0.00001042    0.00013704   -0.00009547
     atom   14 type  1   force =    -0.00033954    0.00048570   -0.00040191
     atom   15 type  2   force =     0.00002876   -0.00066060   -0.00025836
     atom   16 type  2   force =    -0.00018270   -0.00000368    0.00042992
     atom   17 type  2   force =    -0.00064920   -0.00032839   -0.00031252
     atom   18 type  2   force =     0.00029437   -0.00019186    0.00010944
     atom   19 type  1   force =     0.00044641   -0.00002805   -0.00027316
     atom   20 type  1   force =    -0.00021108   -0.00060523   -0.00080075
     atom   21 type  2   force =     0.00006560   -0.00003881    0.09951929
     atom   22 type  2   force =     0.00005997   -0.00049545    0.00029602
     atom   23 type  2   force =    -0.07970653   -0.00006350   -0.03246301
     atom   24 type  2   force =     0.07957822    0.00037660   -0.03252267
     atom   25 type  1   force =    -0.00000512   -0.00057750    0.12403998
     atom   26 type  1   force =    -0.00010781   -0.00062946   -0.15994212
     atom   27 type  2   force =     0.00033342   -0.00035822   -0.06690527
     atom   28 type  2   force =    -0.00002471    0.00017821    0.02514983
     atom   29 type  2   force =    -0.01495609    0.00189482   -0.00987604
     atom   30 type  2   force =     0.01664195    0.00242214   -0.01020832
     atom   31 type  1   force =     0.00078435   -0.00077592    0.02375229
     atom   32 type  1   force =    -0.00023186    0.00200928    0.10996927
     atom   33 type  2   force =     0.00004338   -0.00026926    0.00034509
     atom   34 type  2   force =    -0.00212244    0.00206929   -0.07172239
     atom   35 type  2   force =     0.00023451   -0.00012268   -0.00008601
     atom   36 type  2   force =    -0.00017224   -0.00024591   -0.00015820
     atom   37 type  1   force =     0.00042928   -0.00002080    0.00038989
     atom   38 type  1   force =     0.00002372   -0.00056324   -0.00018326
     atom   39 type  2   force =     0.00006784    0.00019482    0.00061976
     atom   40 type  2   force =    -0.00008503   -0.00023752    0.00027847
     atom   41 type  2   force =     0.00069964   -0.00033364    0.00011857
     atom   42 type  2   force =    -0.00097020   -0.00039871    0.00061449
     atom   43 type  1   force =     0.00001379   -0.00033791    0.00002855
     atom   44 type  1   force =    -0.00028572    0.00001343   -0.00088116
     atom   45 type  2   force =     0.00005515   -0.00004594    0.09948838
     atom   46 type  2   force =    -0.07971577    0.00000215   -0.03248403
     atom   47 type  2   force =     0.07959577    0.00043004   -0.03250943
     atom   48 type  3   force =    -0.00051762    0.00005861   -0.00064836
     atom   49 type  4   force =    -0.00118071   -0.00963063   -0.00259226
     atom   50 type  5   force =     0.00049220    0.01059433    0.00340824
     atom   51 type  5   force =    -0.00017367   -0.00115792    0.00042185
     atom   52 type  5   force =     0.00048876   -0.00045452    0.00004818
     atom   53 type  2   force =    -0.00063001   -0.00010757   -0.00066693
     atom   54 type  5   force =     0.00081432    0.00037941    0.00066122
     atom   55 type  5   force =     0.00065192    0.00004812   -0.00026867

     Total force =     0.423623     Total SCF correction =     0.000359
  @ DRIVER MODE: Message from server: STATUS
  @ DRIVER MODE: Message from server: GETFORCE
  @ DRIVER MODE: Returning v,forces,stress,ensemble

     Writing output data file ./calc.save/
  @ DRIVER MODE: Message from server: EXIT
  @ DRIVE MODE: Exiting

     General routines

     Parallel routines

   This run was terminated on:  20:18:53  15Sep2021

   JOB DONE.