     Program PWSCF v.6.7GPU starts on 23Sep2021 at  2:20:50

     R & G space division:  proc/nbgrp/npool/nimage =       8
     Reading input from /storage/home/hcoda1/3/ntian30/research/carbon/CxH_vib/H2O_calc/ads_slab/CH3NHNHHO_a/out_0011/pw.inp
Warning: card &CELL ignored
Warning: card   CELL_DYNAMICS='IPI', ignored
Warning: card / ignored

     Current dimensions of program PWSCF are:
     Max number of different atomic species (ntypx) = 10
     Max number of k-points (npk) =  40000
     Max angular momentum in pseudopotentials (lmaxx) =  3
     Presently no symmetry can be used with electric field

     Message from routine cell_base_init:
     DEPRECATED: use true lattice parameter, not A to a.u. conversion factor

     IMPORTANT: XC functional enforced from input :
     Exchange-correlation= BEEF-VDW
                           (   1   4  43  14   2   0   0)
     Any further DFT definition will be discarded
     Please, verify this is what you really want

  @ DRIVER MODE: Connecting to
 qe_1139763_2941006.sched-torque.pace.gatech.edutvodi_ko_scratch
  using UNIX socket
  @ DRIVER MODE: Message from server: STATUS
  @ DRIVER MODE: Message from server: INIT
  @ DRIVER MODE: Receiving replica           0          -1
  @ DRIVER MODE: Receiving encoded integer          25
  @ DRIVER MODE:  SCF:  T  FORCE:  T  STRESS:  F  VC:  F  ENSEMBLE:  F
  @ DRIVER MODE:  SCF:  T  FORCE:  T  STRESS:  F  VC:  F  ENSEMBLE:  F

     Using Slab Decomposition

     bravais-lattice index     =            0
     lattice parameter (alat)  =       1.8897  a.u.
     unit-cell volume          =    6658.9804 (a.u.)^3
     number of atoms/cell      =           57
     number of atomic types    =            5
     number of electrons       =       404.00
     number of Kohn-Sham states=          212
     kinetic-energy cutoff     =      29.3995  Ry
     charge density cutoff     =     293.9946  Ry
     scf convergence threshold =      7.3E-08
     mixing beta               =       0.0500
     number of iterations used =            8  plain     mixing
     Exchange-correlation= BEEF-VDW
                           (   1   4  43  14   2   0   0)

     celldm(1)=   1.889726  celldm(2)=   0.000000  celldm(3)=   0.000000
     celldm(4)=   0.000000  celldm(5)=   0.000000  celldm(6)=   0.000000

     crystal axes: (cart. coord. in units of alat)
               a(1) = (   6.579727   0.000000   0.000000 )
               a(2) = (  -0.000775   5.961596   0.000000 )
               a(3) = (   0.000000   0.000000  25.155947 )

     reciprocal axes: (cart. coord. in units 2 pi/alat)
               b(1) = (  0.151982  0.000020  0.000000 )
               b(2) = (  0.000000  0.167740  0.000000 )
               b(3) = (  0.000000  0.000000  0.039752 )

     PseudoPot. # 1 for Ti read from file:
     /storage/coda1/p-amedford6/0/shared/rich_project_chbe-medford/medford-share/data/pseudos_module/espresso/nninc/pbe/van/Ti.UPF
     MD5 check sum: 8e4df49b7f0d34bbd5052bf3f5ea0213
     Pseudo is Ultrasoft, Zval = 12.0
     Generated by new atomic code, or converted to UPF format
     Using radial grid of  851 points,  6 beta functions with:
                l(1) =   0
                l(2) =   0
                l(3) =   1
                l(4) =   1
                l(5) =   2
                l(6) =   2
     Q(r) pseudized with  8 coefficients,  rinner =    1.000   1.000   1.000
                                                       1.000   1.000

     PseudoPot. # 2 for O  read from file:
     /storage/coda1/p-amedford6/0/shared/rich_project_chbe-medford/medford-share/data/pseudos_module/espresso/nninc/pbe/van/O.UPF
     MD5 check sum: 78c19812648e8988a0fe644b0f25305e
     Pseudo is Ultrasoft, Zval =  6.0
     Generated by new atomic code, or converted to UPF format
     Using radial grid of  737 points,  4 beta functions with:
                l(1) =   0
                l(2) =   0
                l(3) =   1
                l(4) =   1
     Q(r) pseudized with  8 coefficients,  rinner =    0.800   0.800   0.800

     PseudoPot. # 3 for N  read from file:
     /storage/coda1/p-amedford6/0/shared/rich_project_chbe-medford/medford-share/data/pseudos_module/espresso/nninc/pbe/van/N.UPF
     MD5 check sum: 90d10febe142ad51ac9d5be1deb811c4
     Pseudo is Ultrasoft, Zval =  5.0
     Generated by new atomic code, or converted to UPF format
     Using radial grid of  729 points,  4 beta functions with:
                l(1) =   0
                l(2) =   0
                l(3) =   1
                l(4) =   1
     Q(r) pseudized with  8 coefficients,  rinner =    0.800   0.800   0.800

     PseudoPot. # 4 for C  read from file:
     /storage/coda1/p-amedford6/0/shared/rich_project_chbe-medford/medford-share/data/pseudos_module/espresso/nninc/pbe/van/C.UPF
     MD5 check sum: 1a69bf6b8db32088f5b2163dbdb77a27
     Pseudo is Ultrasoft, Zval =  4.0
     Generated by new atomic code, or converted to UPF format
     Using radial grid of  721 points,  4 beta functions with:
                l(1) =   0
                l(2) =   0
                l(3) =   1
                l(4) =   1
     Q(r) pseudized with  8 coefficients,  rinner =    0.800   0.800   0.800

     PseudoPot. # 5 for H  read from file:
     /storage/coda1/p-amedford6/0/shared/rich_project_chbe-medford/medford-share/data/pseudos_module/espresso/nninc/pbe/van/H.UPF
     MD5 check sum: b5ee9d7bfd3a09ee7748110bda690ff7
     Pseudo is Ultrasoft, Zval =  1.0
     Generated by new atomic code, or converted to UPF format
     Using radial grid of  615 points,  1 beta functions with:
                l(1) =   0
     Q(r) pseudized with  8 coefficients,  rinner =    0.800

     atomic species   valence    mass     pseudopotential
        Ti1           12.00    47.86700     Ti( 1.00)
        O1             6.00    15.99900     O ( 1.00)
        N1             5.00    14.00700     N ( 1.00)
        C1             4.00    12.01100     C ( 1.00)
        H1             1.00     1.00800     H ( 1.00)

     No symmetry found

   Cartesian axes

     site n.     atom                  positions (alat units)
         1           Ti1 tau(   1) = (   0.0004258   2.9801865   6.0000000  )
         2           Ti1 tau(   2) = (   3.2906075   1.4906267   6.0002472  )
         3           O1  tau(   3) = (   0.0006271   0.0005054   7.9858123  )
         4           O1  tau(   4) = (   3.2906025   0.0005020   7.3038282  )
         5           O1  tau(   5) = (   4.5942328   1.4918067   9.2879030  )
         6           O1  tau(   6) = (   1.9868534   1.4903216   9.2879459  )
         7           Ti1 tau(   7) = (   3.2907910   2.8959150   9.1758416  )
         8           Ti1 tau(   8) = (   0.0015273   1.4827037   9.2680791  )
         9           O1  tau(   9) = (   3.2953096   5.9421394  11.2884464  )
        10           O1  tau(  10) = (   0.0116148   5.9584955  10.6183126  )
        11           O1  tau(  11) = (   1.3041449   1.4755329  12.6321863  )
        12           O1  tau(  12) = (   5.3089623   1.4871430  12.6059879  )
        13           Ti1 tau(  13) = (   6.5683417   3.1096339  12.6902584  )
        14           Ti1 tau(  14) = (   3.3171551   1.3050273  12.6602886  )
        15           O1  tau(  15) = (   6.5441980   0.0188234  14.6400653  )
        16           O1  tau(  16) = (   3.3305379   0.0354930  13.9003223  )
        17           O1  tau(  17) = (   4.5569828   1.5958521  16.0354584  )
        18           O1  tau(  18) = (   2.0254723   1.5302355  15.9749146  )
        19           Ti1 tau(  19) = (   3.2479256   3.0467527  15.6517507  )
        20           Ti1 tau(  20) = (   6.4631478   1.5268535  15.8454044  )
        21           O1  tau(  21) = (   3.2904802   0.0005063   4.7018136  )
        22           O1  tau(  22) = (   6.5640117   0.0389496  17.1838934  )
        23           O1  tau(  23) = (   1.3043587   1.4918075   6.0039043  )
        24           O1  tau(  24) = (   5.2767064   1.4903225   6.0039473  )
        25           Ti1 tau(  25) = (   0.0000382   5.9609847   6.0000000  )
        26           Ti1 tau(  26) = (   3.2902200   4.4714249   6.0002472  )
        27           O1  tau(  27) = (   0.0002396   2.9813036   7.9858123  )
        28           O1  tau(  28) = (   3.2902150   2.9813002   7.3038282  )
        29           O1  tau(  29) = (   4.5938453   4.4726049   9.2879030  )
        30           O1  tau(  30) = (   1.9864658   4.4711199   9.2879459  )
        31           Ti1 tau(  31) = (   3.2891106   5.8743827   9.1763621  )
        32           Ti1 tau(  32) = (   0.0006254   4.4649316   9.2693709  )
        33           O1  tau(  33) = (   3.2909858   3.0116154  11.2527998  )
        34           O1  tau(  34) = (   0.0092240   2.9805883  10.6323155  )
        35           O1  tau(  35) = (   1.2990260   4.4726261  12.6330189  )
        36           O1  tau(  36) = (   5.2946483   4.4606482  12.6134978  )
        37           Ti1 tau(  37) = (   0.0333947   0.1262769  12.6104238  )
        38           Ti1 tau(  38) = (   3.2900473   4.3917186  12.4086616  )
        39           O1  tau(  39) = (   6.5591047   2.9728048  14.6463482  )
        40           O1  tau(  40) = (   3.3071982   2.9909887  13.8663713  )
        41           O1  tau(  41) = (   4.5374868   4.4330245  16.1128471  )
        42           O1  tau(  42) = (   2.0037144   4.4952966  15.9584979  )
        43           Ti1 tau(  43) = (   3.1911318   0.0573200  16.2061952  )
        44           Ti1 tau(  44) = (   6.5299348   4.6473693  16.0672121  )
        45           O1  tau(  45) = (   3.2900926   2.9813045   4.7018136  )
        46           O1  tau(  46) = (   1.3039711   4.4726057   6.0039043  )
        47           O1  tau(  47) = (   5.2763189   4.4711207   6.0039473  )
        48           N1  tau(  48) = (   1.2509970   2.8552009  18.3001485  )
        49           N1  tau(  49) = (   0.1090600   2.9410495  17.4485617  )
        50           C1  tau(  50) = (   1.1117997   3.5424446  19.5707766  )
        51           H1  tau(  51) = (   0.2696121   3.1616043  20.1716506  )
        52           H1  tau(  52) = (   2.0314425   3.4001925  20.1392599  )
        53           H1  tau(  53) = (   0.9679189   4.6079482  19.3970517  )
        54           H1  tau(  54) = (   1.5306055   1.8840965  18.4148701  )
        55           H1  tau(  55) = (   5.8389999   2.9001924  18.0325661  )
        56           O1  tau(  56) = (   3.2424369   0.1001929  18.0579484  )
        57           H1  tau(  57) = (   3.9792659   5.6040190  18.4897823  )

     number of k points=    10  Fermi-Dirac smearing, width (Ry)=  0.0073
                       cart. coord. in units 2pi/alat
        k(    1) = (   0.0000000   0.0000000   0.0000000), wk =   0.1250000
        k(    2) = (   0.0000000   0.0419351   0.0000000), wk =   0.2500000
        k(    3) = (   0.0000000  -0.0838702   0.0000000), wk =   0.1250000
        k(    4) = (   0.0379955   0.0000049   0.0000000), wk =   0.2500000
        k(    5) = (   0.0379955   0.0419400   0.0000000), wk =   0.2500000
        k(    6) = (   0.0379955  -0.0838652   0.0000000), wk =   0.2500000
        k(    7) = (   0.0379955  -0.0419301   0.0000000), wk =   0.2500000
        k(    8) = (  -0.0759910  -0.0000099   0.0000000), wk =   0.1250000
        k(    9) = (  -0.0759910   0.0419252   0.0000000), wk =   0.2500000
        k(   10) = (  -0.0759910  -0.0838800   0.0000000), wk =   0.1250000

     Initial potential from superposition of free atoms

     starting charge  387.99913, renormalised to  404.00000

     negative rho (up, down):  1.467E-02 0.000E+00

     %%%%%%%%%%%%%%%%%%%%%%%%%%%%%%%%%%%%%%%%%%%%%%%%%%%%%%%%%%%%%%%%%%%%%%%%
     %                                                                      %
     % You are using vdW-DF, which was implemented by the Thonhauser group. %
     % Please cite the following two papers that made this development      %
     % possible and the two reviews that describe the various versions:     %
     %                                                                      %
     %   T. Thonhauser et al., PRL 115, 136402 (2015).                      %
     %   T. Thonhauser et al., PRB 76, 125112 (2007).                       %
     %   K. Berland et al., Rep. Prog. Phys. 78, 066501 (2015).             %
     %   D.C. Langreth et al., J. Phys.: Condens. Matter 21, 084203 (2009). %
     %                                                                      %
     %                                                                      %
     % If you are calculating the stress with vdW-DF, please also cite:     %
     %                                                                      %
     %   R. Sabatini et al., J. Phys.: Condens. Matter 24, 424209 (2012).   %
     %                                                                      %
     %%%%%%%%%%%%%%%%%%%%%%%%%%%%%%%%%%%%%%%%%%%%%%%%%%%%%%%%%%%%%%%%%%%%%%%%

     Adding external electric field

     Computed dipole along edir(3) :
        Dipole              -12.7276 Ry au,        -32.3503 Debye
        Dipole field         -0.0240 Ry au,

        Potential amp.        2.2265 Ry
        Total length         46.3494 bohr

     Starting wfcs are  306 atomic wfcs
  @ DRIVER MODE: Message from server: STATUS
  @ DRIVER MODE: Message from server: POSDATA
  @ DRIVER MODE: Reading and sharing cell
  @ DRIVER MODE: Reading and sharing positions
  @ DRIVER MODE: Received positions

     Self-consistent Calculation

     iteration #  1     ecut=    29.40 Ry     beta= 0.05
     Davidson diagonalization with overlap
     c_bands:  4 eigenvalues not converged
     c_bands:  5 eigenvalues not converged
     c_bands:  5 eigenvalues not converged
     c_bands:  5 eigenvalues not converged
     c_bands:  1 eigenvalues not converged
     c_bands:  3 eigenvalues not converged
     c_bands:  4 eigenvalues not converged
     c_bands:  4 eigenvalues not converged
     ethr =  1.00E-05,  avg # of iterations = 24.4

[...]

     total energy              =   -2345.48942502 Ry
     estimated scf accuracy    <    7120.91213912 Ry

     iteration #  2     ecut=    29.40 Ry     beta= 0.05
     Davidson diagonalization with overlap
     ethr =  1.00E-02,  avg # of iterations = 24.8

[...]

     iteration # 53     ecut=    29.40 Ry     beta= 0.05
     Davidson diagonalization with overlap
     c_bands:  2 eigenvalues not converged
     c_bands:  1 eigenvalues not converged
     c_bands:  1 eigenvalues not converged
     ethr =  8.90E-07,  avg # of iterations = 15.9

[...]

     total energy              =   -2975.25024554 Ry
     estimated scf accuracy    <       0.00000011 Ry

     iteration # 77     ecut=    29.40 Ry     beta= 0.05
     Davidson diagonalization with overlap
     ethr =  2.66E-11,  avg # of iterations =  3.8

     negative rho (up, down):  1.542E-02 0.000E+00

     Adding external electric field

     Computed dipole along edir(3) :
        Dipole                0.5370 Ry au,          1.3649 Debye
        Dipole field          0.0010 Ry au,

        Potential amp.       -0.0939 Ry
        Total length         46.3494 bohr

     End of self-consistent calculation

          k = 0.0000 0.0000 0.0000 ( 18029 PWs)   bands (ev):

   -56.4320 -56.3983 -55.7726 -55.7378 -55.5407 -55.4796 -55.3608 -55.2054
   -55.2040 -55.1354 -55.1012 -55.0931 -55.0592 -55.0428 -54.9817 -54.8580
   -32.8649 -32.7162 -32.6882 -32.5998 -32.5084 -32.4905 -32.2528 -32.0188
   -31.9920 -31.9692 -31.9163 -31.9108 -31.8813 -31.7688 -31.7568 -31.7404
   -31.7056 -31.6926 -31.6819 -31.6416 -31.6287 -31.6208 -31.5701 -31.5502
   -31.5075 -31.4834 -31.4794 -31.4331 -31.4115 -31.4090 -31.4070 -31.3805
   -31.3639 -31.3631 -31.3257 -31.3078 -31.3033 -31.2981 -31.2794 -31.2317
   -31.2308 -31.2204 -31.2021 -31.1814 -31.1087 -31.1064 -31.1024 -31.0515
   -16.6204 -16.5187 -16.1864 -16.1711 -15.8633 -15.8050 -15.7755 -15.7433
   -15.6832 -15.5501 -15.4401 -15.3965 -15.3831 -15.3364 -15.1781 -15.0808
   -14.9792 -14.9084 -14.9015 -14.8551 -14.8479 -14.8148 -14.8062 -14.8019
   -14.7336 -14.6975 -14.5917 -14.5417 -14.4483 -14.2538 -14.1724 -13.5908
   -13.4810 -11.5362  -8.6473  -4.9921  -4.2450  -4.1716  -3.7765  -3.6939
    -3.5232  -3.4457  -3.2905  -3.2643  -3.1711  -3.0718  -3.0149  -2.9562
    -2.9450  -2.8405  -2.6907  -2.6390  -2.6326  -2.6140  -2.6037  -2.5126
    -2.4429  -2.4104  -2.3418  -2.2712  -2.2386  -2.1545  -2.1486  -2.1250
    -2.1040  -2.0724  -2.0235  -1.9764  -1.9549  -1.9324  -1.8187  -1.7765
    -1.7507  -1.7075  -1.6820  -1.6053  -1.5666  -1.5197  -1.4415  -1.3798
    -1.2601  -1.2352  -1.1687  -1.1548  -1.1267  -1.0012  -0.9612  -0.9271
    -0.8631  -0.8322  -0.7674  -0.7468  -0.7094  -0.6696  -0.6602  -0.6234
    -0.5165  -0.4891  -0.3619  -0.3482  -0.2886  -0.2208  -0.2130  -0.1578
    -0.1363  -0.0970  -0.0566  -0.0179   0.0247   0.0963   0.1325   0.2220
     0.2634   0.3277   0.4235   0.4525   0.4719   0.5367   0.5531   0.5884
     0.6331   0.7257   0.7341   0.7967   0.8714   0.9173   0.9298   0.9968
     1.0541   1.0756   1.1696   1.1995   1.2128   1.2668   1.4697   1.5101
     1.6932   2.4402   2.8329   2.9799   3.2657   3.2992   3.5603   3.7929
     3.8242   3.9099   4.0178   4.0456

[...]

          k = 0.0380-0.0419 0.0000 ( 17876 PWs)   bands (ev):

[...]

          k =-0.0760-0.0000 0.0000 ( 17886 PWs)   bands (ev):

[...]

          k =-0.0760-0.0839 0.0000 ( 17948 PWs)   bands (ev):

   -56.4153 -56.4148 -55.7599 -55.7503 -55.5356 -55.4847 -55.3594 -55.2066
   -55.1993 -55.1398 -55.0990 -55.0767 -55.0755 -55.0414 -54.9839 -54.8593
   -32.7020 -32.7016 -32.6818 -32.6811 -32.5526 -32.5524 -32.0778 -32.0694
   -31.9540 -31.9465 -31.9428 -31.9403 -31.8388 -31.7999 -31.7629 -31.7546
   -31.7102 -31.7049 -31.6588 -31.6097 -31.5774 -31.5586 -31.5365 -31.4946
   -31.4839 -31.4813 -31.4305 -31.4267 -31.4224 -31.4216 -31.4110 -31.3916
   -31.3792 -31.3540 -31.3311 -31.3200 -31.3021 -31.3011 -31.2998 -31.2942
   -31.2627 -31.2616 -31.2385 -31.2283 -31.1884 -31.1689 -31.1075 -31.0833
   -16.4908 -16.1712 -16.0008 -15.9969 -15.9180 -15.9154 -15.7067 -15.7011
   -15.5284 -15.4988 -15.4208 -15.3043 -15.2542 -15.1976 -15.1863 -15.1481
   -15.0887 -15.0706 -15.0253 -15.0097 -14.9459 -14.9022 -14.8552 -14.8099
   -14.7901 -14.7504 -14.6310 -14.5833 -14.5747 -14.3876 -14.3533 -13.5849
   -13.5844 -11.5430  -8.6541  -5.0007  -4.2431  -3.7479  -3.4024  -3.1020
    -3.0841  -3.0397  -3.0308  -2.8143  -2.7943  -2.7645  -2.6936  -2.6806
    -2.6308  -2.6236  -2.5307  -2.4895  -2.4482  -2.4339  -2.4196  -2.3628
    -2.3331  -2.2953  -2.2914  -2.2504  -2.2162  -2.1813  -2.1585  -2.1159
    -2.0882  -2.0770  -2.0369  -2.0060  -1.9792  -1.9305  -1.9111  -1.8774
    -1.8709  -1.8440  -1.6880  -1.6343  -1.5795  -1.5419  -1.5081  -1.4420
    -1.4334  -1.3767  -1.3196  -1.2848  -1.2585  -1.2373  -1.1485  -1.1221
    -1.1060  -1.0653  -1.0242  -0.9650  -0.9033  -0.8569  -0.7798  -0.6855
    -0.6590  -0.6410  -0.6131  -0.6055  -0.5632  -0.5106  -0.4220  -0.3693
    -0.3193  -0.3032  -0.2597  -0.2536  -0.2267  -0.1816  -0.1155   0.0049
     0.0716   0.1057   0.1627   0.2200   0.2772   0.3376   0.3829   0.4638
     0.5431   0.5637   0.6514   0.6863   0.8072   0.8504   0.9681   1.0088
     1.0462   1.0885   1.1601   1.2570   1.2822   1.3207   1.3226   1.3400
     1.3554   2.4661   3.4000   3.4030   3.4537   3.4611   3.7364   3.7446
     3.8770   3.8788   4.0067   4.0190

     the Fermi energy is     2.7131 ev

!    total energy              =   -2975.25025936 Ry
     estimated scf accuracy    <       0.00000006 Ry
     smearing contrib. (-TS)   =      -0.00747784 Ry
     internal energy E=F+TS    =   -2975.24278152 Ry

     The total energy is F=E-TS. E is the sum of the following terms:
     one-electron contribution =  -23776.09188834 Ry
     hartree contribution      =   11983.70683560 Ry
     xc contribution           =    -494.80346943 Ry
     ewald contribution        =    9311.94519644 Ry
     electric field correction =       0.00054422 Ry

     convergence has been achieved in  77 iterations

     Forces acting on atoms (cartesian axes, Ry/au):

     atom    1 type  1   force =     0.00001910   -0.00034939    0.11634188
     atom    2 type  1   force =    -0.00013853    0.00031329   -0.16014539
     atom    3 type  2   force =     0.00004464    0.00032437   -0.05337548
     atom    4 type  2   force =     0.00007159   -0.00041097    0.02637545
     atom    5 type  2   force =    -0.00500551   -0.00226213   -0.01007512
     atom    6 type  2   force =     0.00668843   -0.00183415   -0.01080871
     atom    7 type  1   force =    -0.00038062   -0.00640131    0.04592889
     atom    8 type  1   force =     0.00056435    0.01078295    0.08207152
     atom    9 type  2   force =    -0.00001683    0.00034790   -0.00032167
     atom   10 type  2   force =    -0.00140218    0.00154025   -0.05480414
     atom   11 type  2   force =     0.00075302    0.00029038   -0.00030436
     atom   12 type  2   force =    -0.00117243    0.00021336    0.00010944
     atom   13 type  1   force =    -0.00022693   -0.00093975    0.00079449
     atom   14 type  1   force =     0.00047419    0.00127006   -0.00008243
     atom   15 type  2   force =     0.00008348   -0.00072172   -0.00007123
     atom   16 type  2   force =    -0.00030465    0.00062425    0.00083259
     atom   17 type  2   force =    -0.00089702   -0.00051035    0.00011743
     atom   18 type  2   force =     0.00088158   -0.00028541    0.00014051
     atom   19 type  1   force =    -0.00057458   -0.00055057   -0.00028011
     atom   20 type  1   force =     0.00018013   -0.00115519   -0.00157702
     atom   21 type  2   force =     0.00007598    0.00015099    0.09915472
     atom   22 type  2   force =     0.00026018   -0.00040307    0.00093239
     atom   23 type  2   force =    -0.07953173   -0.00002438   -0.03164812
     atom   24 type  2   force =     0.07945215    0.00040577   -0.03168067
     atom   25 type  1   force =     0.00018053   -0.00036979    0.11659868
     atom   26 type  1   force =    -0.00008197   -0.00141349   -0.16028351
     atom   27 type  2   force =     0.00013399   -0.00011970   -0.05175870
     atom   28 type  2   force =     0.00003119    0.00130302    0.02156979
     atom   29 type  2   force =    -0.00382150    0.00422616   -0.01247743
     atom   30 type  2   force =     0.00540652    0.00483806   -0.01307075
     atom   31 type  1   force =    -0.00014794    0.00312983    0.03089791
     atom   32 type  1   force =     0.00051203   -0.01301292    0.08293847
     atom   33 type  2   force =     0.00017964   -0.00055155    0.00005237
     atom   34 type  2   force =    -0.00049826    0.00167623   -0.06815106
     atom   35 type  2   force =    -0.00040973   -0.00063845   -0.00017414
     atom   36 type  2   force =     0.00003757   -0.00001529   -0.00008820
     atom   37 type  1   force =    -0.00012483   -0.00121369    0.00028180
     atom   38 type  1   force =     0.00047929   -0.00033568    0.00033407
     atom   39 type  2   force =     0.00010907    0.00037008   -0.00074052
     atom   40 type  2   force =    -0.00012014   -0.00023206    0.00003253
     atom   41 type  2   force =     0.00100300    0.00002402    0.00013278
     atom   42 type  2   force =    -0.00092543   -0.00031014    0.00017339
     atom   43 type  1   force =     0.00011645   -0.00077088    0.00000165
     atom   44 type  1   force =     0.00035426    0.00128545   -0.00118441
     atom   45 type  2   force =     0.00007377   -0.00002881    0.09895751
     atom   46 type  2   force =    -0.07954610   -0.00001149   -0.03166276
     atom   47 type  2   force =     0.07948372    0.00043293   -0.03168310
     atom   48 type  3   force =    -0.00142583    0.00034099   -0.00489860
     atom   49 type  3   force =    -0.00345911   -0.00001479    0.01510676
     atom   50 type  4   force =    -0.00196746    0.00084483   -0.00128207
     atom   51 type  5   force =    -0.00118730    0.00025773   -0.00003797
     atom   52 type  5   force =     0.00000492   -0.00057683   -0.00003473
     atom   53 type  5   force =     0.00053928    0.00026362   -0.00048202
     atom   54 type  5   force =    -0.00071614   -0.00149352   -0.00024032
     atom   55 type  5   force =     0.00490970    0.00050225   -0.00608961
     atom   56 type  2   force =     0.00113031   -0.00022370    0.00010653
     atom   57 type  5   force =    -0.00015133    0.00142241   -0.00046918

     Total force =     0.399785     Total SCF correction =     0.000818
  @ DRIVER MODE: Message from server: STATUS
  @ DRIVER MODE: Message from server: GETFORCE
  @ DRIVER MODE: Returning v,forces,stress,ensemble

     Writing output data file ./calc.save/
  @ DRIVER MODE: Message from server: EXIT
  @ DRIVE MODE: Exiting

     General routines

     Parallel routines

   This run was terminated on:   2:48: 5  23Sep2021

   JOB DONE.