     Program PWSCF v.6.7GPU starts on  5Oct2021 at 21:59:53

     R & G space division:  proc/nbgrp/npool/nimage =       8
     Reading input from /storage/home/hcoda1/3/ntian30/research/carbon/CxH_vib/pristine/ads_slab/CH2N2_a/out_0030/pw.inp
Warning: card &CELL ignored
Warning: card   CELL_DYNAMICS='IPI', ignored
Warning: card / ignored

     Current dimensions of program PWSCF are:
     Max number of different atomic species (ntypx) = 10
     Max number of k-points (npk) =  40000
     Max angular momentum in pseudopotentials (lmaxx) =  3
     Presently no symmetry can be used with electric field

     Message from routine cell_base_init:
     DEPRECATED: use true lattice parameter, not A to a.u. conversion factor

     IMPORTANT: XC functional enforced from input :
     Exchange-correlation= BEEF-VDW
                           (   1   4  43  14   2   0   0)
     Any further DFT definition will be discarded
     Please, verify this is what you really want

  @ DRIVER MODE: Connecting to
 qe_1139763_3091261.sched-torque.pace.gatech.eduutwn4nfs_scratch
  using UNIX socket
  @ DRIVER MODE: Message from server: STATUS
  @ DRIVER MODE: Message from server: INIT
  @ DRIVER MODE: Receiving replica           0          -1
  @ DRIVER MODE: Receiving encoded integer          25
  @ DRIVER MODE:  SCF:  T  FORCE:  T  STRESS:  F  VC:  F  ENSEMBLE:  F
  @ DRIVER MODE:  SCF:  T  FORCE:  T  STRESS:  F  VC:  F  ENSEMBLE:  F

     Using Slab Decomposition

     bravais-lattice index     =            0
     lattice parameter (alat)  =       1.8897  a.u.
     unit-cell volume          =    6658.9804 (a.u.)^3
     number of atoms/cell      =           53
     number of atomic types    =            5
     number of electrons       =       400.00
     number of Kohn-Sham states=          210
     kinetic-energy cutoff     =      29.3995  Ry
     charge density cutoff     =     293.9946  Ry
     scf convergence threshold =      7.3E-08
     mixing beta               =       0.0500
     number of iterations used =            8  plain     mixing
     Exchange-correlation= BEEF-VDW
                           (   1   4  43  14   2   0   0)

     celldm(1)=   1.889726  celldm(2)=   0.000000  celldm(3)=   0.000000
     celldm(4)=   0.000000  celldm(5)=   0.000000  celldm(6)=   0.000000

     crystal axes: (cart. coord. in units of alat)
               a(1) = (   6.579727   0.000000   0.000000 )
               a(2) = (  -0.000775   5.961596   0.000000 )
               a(3) = (   0.000000   0.000000  25.155947 )

     reciprocal axes: (cart. coord. in units 2 pi/alat)
               b(1) = (  0.151982  0.000020  0.000000 )
               b(2) = (  0.000000  0.167740  0.000000 )
               b(3) = (  0.000000  0.000000  0.039752 )

     PseudoPot. # 1 for Ti read from file:
     /storage/coda1/p-amedford6/0/shared/rich_project_chbe-medford/medford-share/data/pseudos_module/espresso/nninc/pbe/van/Ti.UPF
     MD5 check sum: 8e4df49b7f0d34bbd5052bf3f5ea0213
     Pseudo is Ultrasoft, Zval = 12.0
     Generated by new atomic code, or converted to UPF format
     Using radial grid of  851 points,  6 beta functions with:
                l(1) =   0
                l(2) =   0
                l(3) =   1
                l(4) =   1
                l(5) =   2
                l(6) =   2
     Q(r) pseudized with  8 coefficients,  rinner =    1.000   1.000   1.000
                                                       1.000   1.000

     PseudoPot. # 2 for O  read from file:
     /storage/coda1/p-amedford6/0/shared/rich_project_chbe-medford/medford-share/data/pseudos_module/espresso/nninc/pbe/van/O.UPF
     MD5 check sum: 78c19812648e8988a0fe644b0f25305e
     Pseudo is Ultrasoft, Zval =  6.0
     Generated by new atomic code, or converted to UPF format
     Using radial grid of  737 points,  4 beta functions with:
                l(1) =   0
                l(2) =   0
                l(3) =   1
                l(4) =   1
     Q(r) pseudized with  8 coefficients,  rinner =    0.800   0.800   0.800

     PseudoPot. # 3 for N  read from file:
     /storage/coda1/p-amedford6/0/shared/rich_project_chbe-medford/medford-share/data/pseudos_module/espresso/nninc/pbe/van/N.UPF
     MD5 check sum: 90d10febe142ad51ac9d5be1deb811c4
     Pseudo is Ultrasoft, Zval =  5.0
     Generated by new atomic code, or converted to UPF format
     Using radial grid of  729 points,  4 beta functions with:
                l(1) =   0
                l(2) =   0
                l(3) =   1
                l(4) =   1
     Q(r) pseudized with  8 coefficients,  rinner =    0.800   0.800   0.800

     PseudoPot. # 4 for C  read from file:
     /storage/coda1/p-amedford6/0/shared/rich_project_chbe-medford/medford-share/data/pseudos_module/espresso/nninc/pbe/van/C.UPF
     MD5 check sum: 1a69bf6b8db32088f5b2163dbdb77a27
     Pseudo is Ultrasoft, Zval =  4.0
     Generated by new atomic code, or converted to UPF format
     Using radial grid of  721 points,  4 beta functions with:
                l(1) =   0
                l(2) =   0
                l(3) =   1
                l(4) =   1
     Q(r) pseudized with  8 coefficients,  rinner =    0.800   0.800   0.800

     PseudoPot. # 5 for H  read from file:
     /storage/coda1/p-amedford6/0/shared/rich_project_chbe-medford/medford-share/data/pseudos_module/espresso/nninc/pbe/van/H.UPF
     MD5 check sum: b5ee9d7bfd3a09ee7748110bda690ff7
     Pseudo is Ultrasoft, Zval =  1.0
     Generated by new atomic code, or converted to UPF format
     Using radial grid of  615 points,  1 beta functions with:
                l(1) =   0
     Q(r) pseudized with  8 coefficients,  rinner =    0.800

     atomic species   valence    mass     pseudopotential
        Ti1           12.00    47.86700     Ti( 1.00)
        O1             6.00    15.99900     O ( 1.00)
        N1             5.00    14.00700     N ( 1.00)
        C1             4.00    12.01100     C ( 1.00)
        H1             1.00     1.00800     H ( 1.00)

     No symmetry found

   Cartesian axes

     site n.     atom                  positions (alat units)
         1           Ti1 tau(   1) = (   0.0004258   2.9801865   6.0000000  )
         2           Ti1 tau(   2) = (   3.2906075   1.4906267   6.0002472  )
         3           O1  tau(   3) = (   0.0006271   0.0005054   7.9858123  )
         4           O1  tau(   4) = (   3.2906025   0.0005020   7.3038282  )
         5           O1  tau(   5) = (   4.5942328   1.4918067   9.2879030  )
         6           O1  tau(   6) = (   1.9868534   1.4903216   9.2879459  )
         7           Ti1 tau(   7) = (   3.2967797   2.8647345   9.1688538  )
         8           Ti1 tau(   8) = (   0.0139078   1.4260134   9.3797207  )
         9           O1  tau(   9) = (   3.2818202   5.9426219  11.3413624  )
        10           O1  tau(  10) = (  -0.0006713   5.9438105  10.5613913  )
        11           O1  tau(  11) = (   1.2629550   1.4689526  12.6431422  )
        12           O1  tau(  12) = (   5.2627372   1.4724369  12.6244454  )
        13           Ti1 tau(  13) = (   0.0649248   2.9521173  12.8162972  )
        14           Ti1 tau(  14) = (   3.3900010   1.4623865  12.4921655  )
        15           O1  tau(  15) = (   6.5612248   5.9427239  14.6529025  )
        16           O1  tau(  16) = (   3.2707349   5.9499158  13.9186396  )
        17           O1  tau(  17) = (   4.5120437   1.4930778  16.0516072  )
        18           O1  tau(  18) = (   2.0188724   1.4901805  16.0528637  )
        19           Ti1 tau(  19) = (   3.2526435   2.9656207  15.7242400  )
        20           Ti1 tau(  20) = (   6.5390660   1.5270114  16.1581541  )
        21           O1  tau(  21) = (   3.2904802   0.0005063   4.7018136  )
        22           O1  tau(  22) = (   6.5517350   0.0054997  17.2382445  )
        23           O1  tau(  23) = (   1.3043587   1.4918075   6.0039043  )
        24           O1  tau(  24) = (   5.2767064   1.4903225   6.0039473  )
        25           Ti1 tau(  25) = (   0.0000382   5.9609847   6.0000000  )
        26           Ti1 tau(  26) = (   3.2902200   4.4714249   6.0002472  )
        27           O1  tau(  27) = (   0.0002396   2.9813036   7.9858123  )
        28           O1  tau(  28) = (   3.2902150   2.9813002   7.3038282  )
        29           O1  tau(  29) = (   4.5938453   4.4726049   9.2879030  )
        30           O1  tau(  30) = (   1.9864658   4.4711199   9.2879459  )
        31           Ti1 tau(  31) = (   3.2991641   5.8454459   9.1677744  )
        32           Ti1 tau(  32) = (   0.0142928   4.4069258   9.3804372  )
        33           O1  tau(  33) = (   3.2794024   2.9620648  11.3429404  )
        34           O1  tau(  34) = (   0.0008107   2.9631099  10.5617750  )
        35           O1  tau(  35) = (   1.2628400   4.4505553  12.6449227  )
        36           O1  tau(  36) = (   5.2621040   4.4508628  12.6271667  )
        37           Ti1 tau(  37) = (   0.0634051   5.9337149  12.8176510  )
        38           Ti1 tau(  38) = (   3.3888395   4.4462795  12.4902329  )
        39           O1  tau(  39) = (   6.5643088   2.9532696  14.6533357  )
        40           O1  tau(  40) = (   3.2687884   2.9653797  13.9163527  )
        41           O1  tau(  41) = (   4.5138939   4.4677068  16.0260545  )
        42           O1  tau(  42) = (   2.0159196   4.4685127  16.0260682  )
        43           Ti1 tau(  43) = (   3.2551286   5.9518885  15.7372992  )
        44           Ti1 tau(  44) = (   6.5382561   4.5045293  16.1449140  )
        45           O1  tau(  45) = (   3.2900926   2.9813045   4.7018136  )
        46           O1  tau(  46) = (   6.5520679   2.9954315  17.2342401  )
        47           O1  tau(  47) = (   1.3039711   4.4726057   6.0039043  )
        48           O1  tau(  48) = (   5.2763189   4.4711207   6.0039473  )
        49           N1  tau(  49) = (   3.2718132   4.4933032  18.6889481  )
        50           N1  tau(  50) = (   3.2619367   3.3563452  18.5802627  )
        51           C1  tau(  51) = (   3.2831389   5.7900214  18.6539038  )
        52           H1  tau(  52) = (   2.3406966   0.3270794  18.8225995  )
        53           H1  tau(  53) = (   4.2401870   0.3074325  18.8113464  )

     number of k points=    10  Fermi-Dirac smearing, width (Ry)=  0.0073
                       cart. coord. in units 2pi/alat
        k(    1) = (   0.0000000   0.0000000   0.0000000), wk =   0.1250000
        k(    2) = (   0.0000000   0.0419351   0.0000000), wk =   0.2500000
        k(    3) = (   0.0000000  -0.0838702   0.0000000), wk =   0.1250000
        k(    4) = (   0.0379955   0.0000049   0.0000000), wk =   0.2500000
        k(    5) = (   0.0379955   0.0419400   0.0000000), wk =   0.2500000
        k(    6) = (   0.0379955  -0.0838652   0.0000000), wk =   0.2500000
        k(    7) = (   0.0379955  -0.0419301   0.0000000), wk =   0.2500000
        k(    8) = (  -0.0759910  -0.0000099   0.0000000), wk =   0.1250000
        k(    9) = (  -0.0759910   0.0419252   0.0000000), wk =   0.2500000
        k(   10) = (  -0.0759910  -0.0838800   0.0000000), wk =   0.1250000

     Initial potential from superposition of free atoms

     starting charge  383.99917, renormalised to  400.00000

     negative rho (up, down):  1.828E-02 0.000E+00

     %%%%%%%%%%%%%%%%%%%%%%%%%%%%%%%%%%%%%%%%%%%%%%%%%%%%%%%%%%%%%%%%%%%%%%%%
     %                                                                      %
     % You are using vdW-DF, which was implemented by the Thonhauser group. %
     % Please cite the following two papers that made this development      %
     % possible and the two reviews that describe the various versions:     %
     %                                                                      %
     %   T. Thonhauser et al., PRL 115, 136402 (2015).                      %
     %   T. Thonhauser et al., PRB 76, 125112 (2007).                       %
     %   K. Berland et al., Rep. Prog. Phys. 78, 066501 (2015).             %
     %   D.C. Langreth et al., J. Phys.: Condens. Matter 21, 084203 (2009). %
     %                                                                      %
     %                                                                      %
     % If you are calculating the stress with vdW-DF, please also cite:     %
     %                                                                      %
     %   R. Sabatini et al., J. Phys.: Condens. Matter 24, 424209 (2012).   %
     %                                                                      %
     %%%%%%%%%%%%%%%%%%%%%%%%%%%%%%%%%%%%%%%%%%%%%%%%%%%%%%%%%%%%%%%%%%%%%%%%

     Adding external electric field

     Computed dipole along edir(3) :
        Dipole               -9.8405 Ry au,        -25.0122 Debye
        Dipole field         -0.0186 Ry au,

        Potential amp.        1.7215 Ry
        Total length         46.3494 bohr

     Starting wfcs are  302 atomic wfcs
  @ DRIVER MODE: Message from server: STATUS
  @ DRIVER MODE: Message from server: POSDATA
  @ DRIVER MODE: Reading and sharing cell
  @ DRIVER MODE: Reading and sharing positions
  @ DRIVER MODE: Received positions

     Self-consistent Calculation

     iteration #  1     ecut=    29.40 Ry     beta= 0.05
     Davidson diagonalization with overlap
     c_bands:  1 eigenvalues not converged
     c_bands:  2 eigenvalues not converged
     c_bands:  1 eigenvalues not converged
     c_bands:  2 eigenvalues not converged
     c_bands:  2 eigenvalues not converged
     c_bands:  2 eigenvalues not converged
     c_bands:  1 eigenvalues not converged
     c_bands:  3 eigenvalues not converged
     ethr =  1.00E-05,  avg # of iterations = 20.0

[...]

     total energy              =   -2519.78072740 Ry
     estimated scf accuracy    <    5013.14681167 Ry

     iteration #  2     ecut=    29.40 Ry     beta= 0.05
     Davidson diagonalization with overlap
     ethr =  1.00E-02,  avg # of iterations = 25.1

[...]

     iteration # 76     ecut=    29.40 Ry     beta= 0.05
     Davidson diagonalization with overlap
     c_bands:  2 eigenvalues not converged
     ethr =  2.42E-11,  avg # of iterations =  7.3

[...]

     total energy              =   -2970.35089386 Ry
     estimated scf accuracy    <       0.00000009 Ry

     iteration # 78     ecut=    29.40 Ry     beta= 0.05
     Davidson diagonalization with overlap
     ethr =  2.36E-11,  avg # of iterations =  4.5

     negative rho (up, down):  1.789E-02 0.000E+00

     Adding external electric field

     Computed dipole along edir(3) :
        Dipole                0.5398 Ry au,          1.3720 Debye
        Dipole field          0.0010 Ry au,

        Potential amp.       -0.0944 Ry
        Total length         46.3494 bohr

     End of self-consistent calculation

          k = 0.0000 0.0000 0.0000 ( 18029 PWs)   bands (ev):

   -56.2373 -56.2037 -55.8877 -55.8520 -55.7632 -55.7282 -55.6296 -55.6061
   -55.5950 -55.5721 -55.5253 -55.4903 -55.4794 -55.4427 -55.0103 -54.9763
   -32.6642 -32.4848 -32.4569 -32.4286 -32.4227 -32.3376 -32.2911 -32.2372
   -32.1839 -32.1326 -32.1016 -32.0981 -32.0668 -32.0655 -32.0492 -32.0437
   -32.0305 -32.0106 -32.0052 -31.9895 -31.9039 -31.8811 -31.8702 -31.8589
   -31.8499 -31.8447 -31.8213 -31.8123 -31.7990 -31.7708 -31.7640 -31.7420
   -31.7357 -31.7224 -31.7044 -31.7025 -31.7024 -31.6858 -31.6832 -31.6552
   -31.6293 -31.5502 -31.4097 -31.3374 -31.3135 -31.2280 -31.1430 -31.0312
   -21.0559 -16.5549 -16.3912 -16.1701 -16.0167 -15.9276 -15.7964 -15.6012
   -15.5759 -15.4828 -15.4804 -15.4569 -15.3861 -15.3855 -15.3521 -15.3468
   -15.3183 -15.2971 -15.2575 -15.2407 -15.2385 -15.1958 -15.1359 -15.1105
   -15.0177 -14.9706 -14.8653 -14.8602 -14.8298 -14.7453 -14.7144 -14.2826
   -13.5043 -13.3910  -6.8065  -5.8705  -5.1039  -3.9823  -3.9286  -3.8924
    -3.7766  -3.7575  -3.6312  -3.3530  -3.2980  -3.0469  -2.9918  -2.9752
    -2.9297  -2.9078  -2.8403  -2.8277  -2.7359  -2.7314  -2.6852  -2.6781
    -2.6449  -2.6425  -2.6260  -2.5656  -2.5444  -2.4598  -2.4512  -2.4196
    -2.3911  -2.2781  -2.2335  -2.1887  -2.1868  -2.1581  -2.0588  -2.0512
    -2.0376  -2.0082  -1.9259  -1.8748  -1.7478  -1.6475  -1.6312  -1.5862
    -1.5250  -1.4924  -1.2935  -1.2461  -1.2425  -1.2215  -1.1991  -1.1865
    -1.1179  -1.0513  -0.9286  -0.8543  -0.8278  -0.7730  -0.7524  -0.7465
    -0.7272  -0.6490  -0.6196  -0.6131  -0.5901  -0.4489  -0.3035  -0.2645
    -0.2421  -0.2275  -0.2058  -0.1267  -0.1103  -0.0741  -0.0330  -0.0161
     0.0046   0.0530   0.0816   0.0903   0.1945   0.2148   0.2763   0.2976
     0.3075   0.3429   0.3868   0.5326   0.6194   0.7329   0.7421   0.8215
     0.9694   0.9764   1.0171   1.2159   1.2315   1.2789   1.6026   1.6758
     3.0346   3.2182   3.4498   3.5205   3.5408   3.6334   3.7389   3.7690
     3.8358   3.9144

[...]

          k = 0.0380-0.0419 0.0000 ( 17876 PWs)   bands (ev):

[...]

          k =-0.0760-0.0000 0.0000 ( 17886 PWs)   bands (ev):

[...]

          k =-0.0760-0.0839 0.0000 ( 17948 PWs)   bands (ev):

   -56.2205 -56.2203 -55.8700 -55.8694 -55.7478 -55.7434 -55.6130 -55.6116
   -55.5894 -55.5886 -55.5085 -55.5072 -55.4614 -55.4606 -54.9932 -54.9932
   -32.4818 -32.4817 -32.4705 -32.4703 -32.3815 -32.3813 -32.2289 -32.2246
   -32.1338 -32.1290 -32.0760 -32.0751 -32.0658 -32.0551 -32.0353 -32.0268
   -31.9530 -31.9457 -31.9342 -31.9325 -31.9194 -31.9186 -31.8528 -31.8524
   -31.8412 -31.8399 -31.8346 -31.8341 -31.8279 -31.8276 -31.7996 -31.7989
   -31.7885 -31.7822 -31.7244 -31.7234 -31.7150 -31.7139 -31.6976 -31.6964
   -31.6810 -31.6802 -31.3264 -31.3264 -31.2239 -31.2239 -31.1856 -31.1856
   -21.0549 -15.9757 -15.9640 -15.7706 -15.7656 -15.7025 -15.7024 -15.6621
   -15.6596 -15.6098 -15.6083 -15.4705 -15.4671 -15.4662 -15.4617 -15.3861
   -15.3848 -15.3708 -15.3696 -15.3187 -15.3171 -15.1827 -15.1816 -15.0955
   -15.0945 -15.0507 -15.0499 -14.9938 -14.9931 -14.8939 -14.8805 -14.2948
   -13.4934 -13.4933  -6.6490  -5.8411  -5.0920  -4.1542  -3.2615  -3.2482
    -2.9821  -2.9762  -2.8817  -2.8612  -2.8466  -2.8242  -2.8226  -2.7373
    -2.7289  -2.7058  -2.7002  -2.6729  -2.6687  -2.6114  -2.6100  -2.5873
    -2.5818  -2.5720  -2.5709  -2.5655  -2.5633  -2.4739  -2.4704  -2.4572
    -2.4552  -2.3827  -2.3764  -2.3423  -2.3301  -2.1217  -2.1213  -2.0517
    -2.0507  -1.9327  -1.9315  -1.9151  -1.9111  -1.8752  -1.8354  -1.5966
    -1.5944  -1.5372  -1.5344  -1.4856  -1.4712  -1.3654  -1.3362  -1.2087
    -1.1896  -1.1733  -1.1658  -1.0157  -1.0121  -1.0102  -1.0066  -0.9828
    -0.9794  -0.8636  -0.8500  -0.7638  -0.7568  -0.7398  -0.7364  -0.6982
    -0.6807  -0.5304  -0.5300  -0.5069  -0.5012  -0.3598  -0.3587  -0.2995
    -0.2929  -0.0511  -0.0429   0.0694   0.0697   0.2990   0.3332   0.3544
     0.3653   0.5080   0.5164   0.5302   0.5391   0.6644   0.6689   0.6858
     0.6917   0.7789   0.7789   1.2136   1.4048   1.4053   1.4571   1.4572
     3.5757   3.5801   3.5847   3.5890   3.6295   3.6311   3.6766   3.6783
     3.9339   3.9568

     the Fermi energy is     2.4074 ev

!    total energy              =   -2970.35091250 Ry
     estimated scf accuracy    <       0.00000004 Ry
     smearing contrib. (-TS)   =      -0.00009805 Ry
     internal energy E=F+TS    =   -2970.35081445 Ry

     The total energy is F=E-TS. E is the sum of the following terms:
     one-electron contribution =  -24066.43132311 Ry
     hartree contribution      =   12123.53994260 Ry
     xc contribution           =    -491.48320778 Ry
     ewald contribution        =    9464.02322401 Ry
     electric field correction =       0.00054982 Ry

     convergence has been achieved in  78 iterations

     Forces acting on atoms (cartesian axes, Ry/au):

     atom    1 type  1   force =     0.00011344   -0.00011001    0.14850237
     atom    2 type  1   force =    -0.00010648   -0.00048655   -0.16836181
     atom    3 type  2   force =     0.00014050    0.00223451   -0.05994714
     atom    4 type  2   force =     0.00015593   -0.00146614    0.03991660
     atom    5 type  2   force =    -0.02120882   -0.00097115    0.00398507
     atom    6 type  2   force =     0.02100533    0.00033093    0.00311830
     atom    7 type  1   force =    -0.00011662   -0.00020544   -0.00000024
     atom    8 type  1   force =    -0.00021796    0.00002375    0.00003876
     atom    9 type  2   force =    -0.00023595   -0.00005712    0.00012919
     atom   10 type  2   force =     0.00001637   -0.00000004    0.00004373
     atom   11 type  2   force =    -0.00000447   -0.00006481   -0.00012919
     atom   12 type  2   force =    -0.00009727   -0.00013499   -0.00007074
     atom   13 type  1   force =    -0.00007774   -0.00001015   -0.00008723
     atom   14 type  1   force =     0.00005654   -0.00003123    0.00003548
     atom   15 type  2   force =     0.00011069    0.00000930   -0.00002714
     atom   16 type  2   force =     0.00007504   -0.00004248    0.00012126
     atom   17 type  2   force =     0.00004728   -0.00010487    0.00015758
     atom   18 type  2   force =     0.00018787   -0.00006031   -0.00006266
     atom   19 type  1   force =     0.00028589    0.00004478   -0.00009276
     atom   20 type  1   force =    -0.00019795   -0.00007965   -0.00015021
     atom   21 type  2   force =     0.00004385   -0.00004529    0.10204614
     atom   22 type  2   force =     0.00011250   -0.00006580   -0.00003684
     atom   23 type  2   force =    -0.07526785    0.00015927   -0.03466680
     atom   24 type  2   force =     0.07520011    0.00058530   -0.03474200
     atom   25 type  1   force =     0.00011267   -0.00013400    0.14840606
     atom   26 type  1   force =    -0.00013721   -0.00085794   -0.16859386
     atom   27 type  2   force =     0.00012346    0.00218466   -0.05989937
     atom   28 type  2   force =     0.00009055   -0.00145869    0.04019819
     atom   29 type  2   force =    -0.02100643   -0.00107503    0.00396390
     atom   30 type  2   force =     0.02119895    0.00041180    0.00311441
     atom   31 type  1   force =    -0.00019804   -0.00010979    0.00000050
     atom   32 type  1   force =    -0.00011551   -0.00005701   -0.00008781
     atom   33 type  2   force =     0.00013126    0.00008175    0.00004761
     atom   34 type  2   force =    -0.00008646    0.00002857   -0.00003378
     atom   35 type  2   force =    -0.00003642    0.00002832    0.00003280
     atom   36 type  2   force =    -0.00014401    0.00022545   -0.00015113
     atom   37 type  1   force =    -0.00006478   -0.00014155   -0.00005794
     atom   38 type  1   force =     0.00004408    0.00005767    0.00019502
     atom   39 type  2   force =    -0.00007338   -0.00000939   -0.00017535
     atom   40 type  2   force =     0.00011182    0.00001691    0.00007154
     atom   41 type  2   force =     0.00023567   -0.00013930    0.00004733
     atom   42 type  2   force =     0.00021137   -0.00005242    0.00027257
     atom   43 type  1   force =     0.00000197    0.00035993    0.00030921
     atom   44 type  1   force =    -0.00010593    0.00008860    0.00000616
     atom   45 type  2   force =     0.00003858   -0.00004845    0.10204073
     atom   46 type  2   force =     0.00005404    0.00003905   -0.00007634
     atom   47 type  2   force =    -0.07526948    0.00019852   -0.03466681
     atom   48 type  2   force =     0.07520791    0.00062910   -0.03473815
     atom   49 type  3   force =    -0.00029835   -0.00072994   -0.00093914
     atom   50 type  3   force =     0.00011486    0.00072212    0.00095245
     atom   51 type  4   force =     0.00098833    0.00102121    0.00002476
     atom   52 type  5   force =    -0.00015504   -0.00028806    0.00015962
     atom   53 type  5   force =    -0.00099472   -0.00044391   -0.00014291

     Total force =     0.401723     Total SCF correction =     0.000906
  @ DRIVER MODE: Message from server: STATUS
  @ DRIVER MODE: Message from server: GETFORCE
  @ DRIVER MODE: Returning v,forces,stress,ensemble

     Writing output data file ./calc.save/
  @ DRIVER MODE: Message from server: EXIT
  @ DRIVE MODE: Exiting

     General routines

     Parallel routines

   This run was terminated on:  22:26: 1   5Oct2021

   JOB DONE.