     Program PWSCF v.6.7GPU starts on 25Aug2021 at  0:36:33

     R & G space division:  proc/nbgrp/npool/nimage =      72
     Reading input from /storage/home/hcoda1/3/ntian30/research/carbon/CH2_vib/ads_slab/CH2NNH3_a/out_0040/pw.inp
Warning: card &CELL ignored
Warning: card   CELL_DYNAMICS='IPI', ignored
Warning: card / ignored

     Current dimensions of program PWSCF are:
     Max number of different atomic species (ntypx) = 10
     Max number of k-points (npk) =  40000
     Max angular momentum in pseudopotentials (lmaxx) =  3
     Presently no symmetry can be used with electric field

     Message from routine cell_base_init:
     DEPRECATED: use true lattice parameter, not A to a.u. conversion factor

     IMPORTANT: XC functional enforced from input :
     Exchange-correlation= BEEF-VDW
                           (   1   4  43  14   2   0   0)
     Any further DFT definition will be discarded
     Please, verify this is what you really want

  @ DRIVER MODE: Connecting to
 qe_1139763_2641442.sched-torque.pace.gatech.educvn6msoj_scratch
  using UNIX socket
  @ DRIVER MODE: Message from server: STATUS
  @ DRIVER MODE: Message from server: INIT
  @ DRIVER MODE: Receiving replica           0          -1
  @ DRIVER MODE: Receiving encoded integer          25
  @ DRIVER MODE:  SCF:  T  FORCE:  T  STRESS:  F  VC:  F  ENSEMBLE:  F
  @ DRIVER MODE:  SCF:  T  FORCE:  T  STRESS:  F  VC:  F  ENSEMBLE:  F

     Using Slab Decomposition

     bravais-lattice index     =            0
     lattice parameter (alat)  =       1.8897  a.u.
     unit-cell volume          =    6658.9804 (a.u.)^3
     number of atoms/cell      =           55
     number of atomic types    =            5
     number of electrons       =       397.00
     number of Kohn-Sham states=          208
     kinetic-energy cutoff     =      29.3995  Ry
     charge density cutoff     =     293.9946  Ry
     scf convergence threshold =      7.3E-08
     mixing beta               =       0.0500
     number of iterations used =            8  plain     mixing
     Exchange-correlation= BEEF-VDW
                           (   1   4  43  14   2   0   0)

     celldm(1)=   1.889726  celldm(2)=   0.000000  celldm(3)=   0.000000
     celldm(4)=   0.000000  celldm(5)=   0.000000  celldm(6)=   0.000000

     crystal axes: (cart. coord. in units of alat)
               a(1) = (   6.579727   0.000000   0.000000 )
               a(2) = (  -0.000775   5.961596   0.000000 )
               a(3) = (   0.000000   0.000000  25.155947 )

     reciprocal axes: (cart. coord. in units 2 pi/alat)
               b(1) = (  0.151982  0.000020  0.000000 )
               b(2) = (  0.000000  0.167740  0.000000 )
               b(3) = (  0.000000  0.000000  0.039752 )

     PseudoPot. # 1 for Ti read from file:
     /storage/coda1/p-amedford6/0/shared/rich_project_chbe-medford/medford-share/data/pseudos_module/espresso/nninc/pbe/van/Ti.UPF
     MD5 check sum: 8e4df49b7f0d34bbd5052bf3f5ea0213
     Pseudo is Ultrasoft, Zval = 12.0
     Generated by new atomic code, or converted to UPF format
     Using radial grid of  851 points,  6 beta functions with:
                l(1) =   0
                l(2) =   0
                l(3) =   1
                l(4) =   1
                l(5) =   2
                l(6) =   2
     Q(r) pseudized with  8 coefficients,  rinner =    1.000   1.000   1.000
                                                       1.000   1.000

     PseudoPot. # 2 for O  read from file:
     /storage/coda1/p-amedford6/0/shared/rich_project_chbe-medford/medford-share/data/pseudos_module/espresso/nninc/pbe/van/O.UPF
     MD5 check sum: 78c19812648e8988a0fe644b0f25305e
     Pseudo is Ultrasoft, Zval =  6.0
     Generated by new atomic code, or converted to UPF format
     Using radial grid of  737 points,  4 beta functions with:
                l(1) =   0
                l(2) =   0
                l(3) =   1
                l(4) =   1
     Q(r) pseudized with  8 coefficients,  rinner =    0.800   0.800   0.800

     PseudoPot. # 3 for N  read from file:
     /storage/coda1/p-amedford6/0/shared/rich_project_chbe-medford/medford-share/data/pseudos_module/espresso/nninc/pbe/van/N.UPF
     MD5 check sum: 90d10febe142ad51ac9d5be1deb811c4
     Pseudo is Ultrasoft, Zval =  5.0
     Generated by new atomic code, or converted to UPF format
     Using radial grid of  729 points,  4 beta functions with:
                l(1) =   0
                l(2) =   0
                l(3) =   1
                l(4) =   1
     Q(r) pseudized with  8 coefficients,  rinner =    0.800   0.800   0.800

     PseudoPot. # 4 for C  read from file:
     /storage/coda1/p-amedford6/0/shared/rich_project_chbe-medford/medford-share/data/pseudos_module/espresso/nninc/pbe/van/C.UPF
     MD5 check sum: 1a69bf6b8db32088f5b2163dbdb77a27
     Pseudo is Ultrasoft, Zval =  4.0
     Generated by new atomic code, or converted to UPF format
     Using radial grid of  721 points,  4 beta functions with:
                l(1) =   0
                l(2) =   0
                l(3) =   1
                l(4) =   1
     Q(r) pseudized with  8 coefficients,  rinner =    0.800   0.800   0.800

     PseudoPot. # 5 for H  read from file:
     /storage/coda1/p-amedford6/0/shared/rich_project_chbe-medford/medford-share/data/pseudos_module/espresso/nninc/pbe/van/H.UPF
     MD5 check sum: b5ee9d7bfd3a09ee7748110bda690ff7
     Pseudo is Ultrasoft, Zval =  1.0
     Generated by new atomic code, or converted to UPF format
     Using radial grid of  615 points,  1 beta functions with:
                l(1) =   0
     Q(r) pseudized with  8 coefficients,  rinner =    0.800

     atomic species   valence    mass     pseudopotential
        Ti1           12.00    47.86700     Ti( 1.00)
        O1             6.00    15.99900     O ( 1.00)
        N1             5.00    14.00700     N ( 1.00)
        C1             4.00    12.01100     C ( 1.00)
        H1             1.00     1.00800     H ( 1.00)

     No symmetry found

   Cartesian axes

     site n.     atom                  positions (alat units)
         1           Ti1 tau(   1) = (   0.0004258   2.9801865   6.0000000  )
         2           Ti1 tau(   2) = (   3.2906075   1.4906267   6.0002472  )
         3           O1  tau(   3) = (   0.0006271   0.0005054   7.9858123  )
         4           O1  tau(   4) = (   3.2906025   0.0005020   7.3038282  )
         5           O1  tau(   5) = (   4.5942328   1.4918067   9.2879030  )
         6           O1  tau(   6) = (   1.9868534   1.4903216   9.2879459  )
         7           Ti1 tau(   7) = (   3.2907910   2.8959150   9.1758416  )
         8           Ti1 tau(   8) = (   0.0015273   1.4827037   9.2680791  )
         9           O1  tau(   9) = (   3.2870044   0.0008392  11.3329265  )
        10           O1  tau(  10) = (   0.0116148   5.9584955  10.6183126  )
        11           O1  tau(  11) = (   1.3103063   1.4923116  12.6208530  )
        12           O1  tau(  12) = (   5.2933663   1.4849185  12.6124200  )
        13           Ti1 tau(  13) = (   6.5212574   2.9536302  12.6166858  )
        14           Ti1 tau(  14) = (   3.2058376   1.4897313  12.4816367  )
        15           O1  tau(  15) = (   6.5713238   0.0136578  14.6546308  )
        16           O1  tau(  16) = (   3.3039920   0.0133407  13.9274802  )
        17           O1  tau(  17) = (   4.5398155   1.5323753  16.0810081  )
        18           O1  tau(  18) = (   2.0543055   1.5218724  16.0470058  )
        19           Ti1 tau(  19) = (   3.2774803   3.0107093  15.7022328  )
        20           Ti1 tau(  20) = (   6.5342633   1.5374647  15.8423947  )
        21           O1  tau(  21) = (   3.2904802   0.0005063   4.7018136  )
        22           O1  tau(  22) = (   0.0034288   0.0322173  17.2228558  )
        23           O1  tau(  23) = (   1.3043587   1.4918075   6.0039043  )
        24           O1  tau(  24) = (   5.2767064   1.4903225   6.0039473  )
        25           Ti1 tau(  25) = (   0.0000382   5.9609847   6.0000000  )
        26           Ti1 tau(  26) = (   3.2902200   4.4714249   6.0002472  )
        27           O1  tau(  27) = (   0.0002396   2.9813036   7.9858123  )
        28           O1  tau(  28) = (   3.2902150   2.9813002   7.3038282  )
        29           O1  tau(  29) = (   4.5938453   4.4726049   9.2879030  )
        30           O1  tau(  30) = (   1.9864658   4.4711199   9.2879459  )
        31           Ti1 tau(  31) = (   3.2891106   5.8743827   9.1763621  )
        32           Ti1 tau(  32) = (   0.0006254   4.4649316   9.2693709  )
        33           O1  tau(  33) = (   3.2848367   2.9872869  11.3311783  )
        34           O1  tau(  34) = (   0.0092240   2.9805883  10.6323155  )
        35           O1  tau(  35) = (   1.3050274   4.4824158  12.6313026  )
        36           O1  tau(  36) = (   5.2955027   4.4751037  12.6224712  )
        37           Ti1 tau(  37) = (   6.5218534   5.9301143  12.5590122  )
        38           Ti1 tau(  38) = (   3.2037265   4.4702053  12.4865905  )
        39           O1  tau(  39) = (   6.5652647   2.9430126  14.6458727  )
        40           O1  tau(  40) = (   3.3006234   2.9978660  13.9063397  )
        41           O1  tau(  41) = (   4.5289998   4.4870283  16.1192093  )
        42           O1  tau(  42) = (   2.0463452   4.4937679  16.0531255  )
        43           Ti1 tau(  43) = (   3.2679282   0.0255942  15.7259849  )
        44           Ti1 tau(  44) = (   6.5624932   4.6695214  16.1100661  )
        45           O1  tau(  45) = (   3.2900926   2.9813045   4.7018136  )
        46           O1  tau(  46) = (   1.3039711   4.4726057   6.0039043  )
        47           O1  tau(  47) = (   5.2763189   4.4711207   6.0039473  )
        48           N1  tau(  48) = (   0.0665130   2.9625449  17.3937163  )
        49           C1  tau(  49) = (   0.2662726   2.8715582  18.6342609  )
        50           H1  tau(  50) = (   0.3859136   3.7587535  19.2661104  )
        51           H1  tau(  51) = (   0.3502417   1.8926937  19.1273272  )
        52           N1  tau(  52) = (   3.5829462   4.8819607  19.5834040  )
        53           H1  tau(  53) = (   4.1394342   5.6873527  19.8504637  )
        54           H1  tau(  54) = (   4.0752263   4.4538539  18.8113048  )
        55           H1  tau(  55) = (   3.6086599   4.2347498  20.3655469  )

     number of k points=    10  Fermi-Dirac smearing, width (Ry)=  0.0073
                       cart. coord. in units 2pi/alat
        k(    1) = (   0.0000000   0.0000000   0.0000000), wk =   0.1250000
        k(    2) = (   0.0000000   0.0419351   0.0000000), wk =   0.2500000
        k(    3) = (   0.0000000  -0.0838702   0.0000000), wk =   0.1250000
        k(    4) = (   0.0379955   0.0000049   0.0000000), wk =   0.2500000
        k(    5) = (   0.0379955   0.0419400   0.0000000), wk =   0.2500000
        k(    6) = (   0.0379955  -0.0838652   0.0000000), wk =   0.2500000
        k(    7) = (   0.0379955  -0.0419301   0.0000000), wk =   0.2500000
        k(    8) = (  -0.0759910  -0.0000099   0.0000000), wk =   0.1250000
        k(    9) = (  -0.0759910   0.0419252   0.0000000), wk =   0.2500000
        k(   10) = (  -0.0759910  -0.0838800   0.0000000), wk =   0.1250000

     Initial potential from superposition of free atoms

     starting charge  380.99914, renormalised to  397.00000

     negative rho (up, down):  1.455E-02 0.000E+00

     %%%%%%%%%%%%%%%%%%%%%%%%%%%%%%%%%%%%%%%%%%%%%%%%%%%%%%%%%%%%%%%%%%%%%%%%
     %                                                                      %
     % You are using vdW-DF, which was implemented by the Thonhauser group. %
     % Please cite the following two papers that made this development      %
     % possible and the two reviews that describe the various versions:     %
     %                                                                      %
     %   T. Thonhauser et al., PRL 115, 136402 (2015).                      %
     %   T. Thonhauser et al., PRB 76, 125112 (2007).                       %
     %   K. Berland et al., Rep. Prog. Phys. 78, 066501 (2015).             %
     %   D.C. Langreth et al., J. Phys.: Condens. Matter 21, 084203 (2009). %
     %                                                                      %
     %                                                                      %
     % If you are calculating the stress with vdW-DF, please also cite:     %
     %                                                                      %
     %   R. Sabatini et al., J. Phys.: Condens. Matter 24, 424209 (2012).   %
     %                                                                      %
     %%%%%%%%%%%%%%%%%%%%%%%%%%%%%%%%%%%%%%%%%%%%%%%%%%%%%%%%%%%%%%%%%%%%%%%%

     Adding external electric field

     Computed dipole along edir(3) :
        Dipole              -10.1102 Ry au,        -25.6976 Debye
        Dipole field         -0.0191 Ry au,

        Potential amp.        1.7686 Ry
        Total length         46.3494 bohr

     Starting wfcs are  301 atomic wfcs
  @ DRIVER MODE: Message from server: STATUS
  @ DRIVER MODE: Message from server: POSDATA
  @ DRIVER MODE: Reading and sharing cell
  @ DRIVER MODE: Reading and sharing positions
  @ DRIVER MODE: Received positions

     Self-consistent Calculation

     iteration #  1     ecut=    29.40 Ry     beta= 0.05
     Davidson diagonalization with overlap
     c_bands:  2 eigenvalues not converged
     c_bands:  1 eigenvalues not converged
     c_bands:  1 eigenvalues not converged
     c_bands:  1 eigenvalues not converged
     c_bands:  1 eigenvalues not converged
     c_bands:  1 eigenvalues not converged
     c_bands:  1 eigenvalues not converged
     c_bands:  2 eigenvalues not converged
     ethr =  1.00E-05,  avg # of iterations = 19.0

[...]

     total energy              =   -2537.41783057 Ry
     estimated scf accuracy    <    4509.16085330 Ry

     iteration #  2     ecut=    29.40 Ry     beta= 0.05
     Davidson diagonalization with overlap
     ethr =  1.00E-02,  avg # of iterations = 24.5

[...]

     iteration # 53     ecut=    29.40 Ry     beta= 0.05
     Davidson diagonalization with overlap
     c_bands:  1 eigenvalues not converged
     ethr =  6.27E-10,  avg # of iterations = 13.7

[...]

     total energy              =   -2941.70787111 Ry
     estimated scf accuracy    <       0.00000010 Ry

     iteration # 60     ecut=    29.40 Ry     beta= 0.05
     Davidson diagonalization with overlap
     ethr =  2.43E-11,  avg # of iterations = 10.7

     negative rho (up, down):  1.502E-02 0.000E+00

     Adding external electric field

     Computed dipole along edir(3) :
        Dipole                0.8862 Ry au,          2.2524 Debye
        Dipole field          0.0017 Ry au,

        Potential amp.       -0.1550 Ry
        Total length         46.3494 bohr

     End of self-consistent calculation

          k = 0.0000 0.0000 0.0000 ( 18029 PWs)   bands (ev):

   -55.7597 -55.7509 -55.7256 -55.7150 -55.6452 -55.6046 -55.5884 -55.5700
   -55.5681 -55.5342 -55.5321 -55.4985 -55.2788 -55.0269 -54.7367 -54.7026
   -32.3038 -32.2420 -32.1057 -32.0949 -32.0670 -32.0636 -32.0526 -32.0226
   -32.0022 -31.9781 -31.9714 -31.9510 -31.9306 -31.9117 -31.9031 -31.8900
   -31.8762 -31.8639 -31.8490 -31.8166 -31.8139 -31.8112 -31.7698 -31.7630
   -31.7624 -31.7606 -31.7559 -31.7468 -31.7341 -31.7194 -31.7115 -31.7074
   -31.7024 -31.6985 -31.6851 -31.6754 -31.6443 -31.5331 -31.4598 -31.3083
   -31.2807 -31.2343 -31.1437 -31.0555 -31.0330 -30.9605 -30.8740 -30.7629
   -16.4996 -16.2344 -16.0176 -15.9132 -15.8779 -15.7622 -15.5982 -15.4790
   -15.4264 -15.3283 -15.3145 -15.2952 -15.2617 -15.2452 -15.2245 -15.2056
   -15.2010 -15.1834 -15.1698 -15.1185 -15.0957 -15.0584 -14.9611 -14.9315
   -14.8939 -14.8774 -14.8195 -14.8144 -14.6802 -14.3312 -14.0568 -13.2393
   -13.1229  -7.2959  -4.2074  -4.1217  -4.0113  -3.8754  -3.7661  -3.7128
    -3.6647  -3.6043  -3.3985  -3.3080  -3.2829  -2.9867  -2.9408  -2.9259
    -2.9037  -2.8782  -2.6587  -2.6039  -2.5724  -2.5552  -2.5405  -2.5273
    -2.5197  -2.5001  -2.4660  -2.3685  -2.3147  -2.3000  -2.1768  -2.1482
    -2.0880  -2.0714  -2.0247  -2.0096  -1.9966  -1.9917  -1.9636  -1.9474
    -1.9220  -1.8436  -1.7280  -1.5758  -1.5572  -1.5237  -1.4035  -1.3663
    -1.3024  -1.2187  -1.2007  -1.1845  -1.1505  -1.1389  -1.0596  -0.9469
    -0.9065  -0.8979  -0.7945  -0.7545  -0.7343  -0.6302  -0.6064  -0.5386
    -0.5218  -0.5120  -0.4792  -0.3192  -0.2611  -0.2262  -0.1617  -0.1385
    -0.0791  -0.0613  -0.0310   0.0517   0.0999   0.1264   0.1281   0.1770
     0.2155   0.2323   0.2363   0.2511   0.2713   0.4383   0.5141   0.5280
     0.5976   0.6091   0.7716   0.8158   0.8980   1.0003   1.0434   1.2110
     1.2852   1.3750   1.4775   1.6805   1.8565   1.9021   3.3775   3.4608
     3.5093   3.5218   3.6199   3.6611   3.8303   3.8386   3.8491   3.9238

[...]

          k = 0.0380-0.0419 0.0000 ( 17876 PWs)   bands (ev):

[...]

          k =-0.0760-0.0000 0.0000 ( 17886 PWs)   bands (ev):

[...]

          k =-0.0760-0.0839 0.0000 ( 17948 PWs)   bands (ev):

   -55.7430 -55.7421 -55.7337 -55.7320 -55.6393 -55.5942 -55.5890 -55.5855
   -55.5518 -55.5501 -55.5160 -55.5148 -55.2777 -55.0278 -54.7197 -54.7195
   -32.1089 -32.1061 -32.0576 -32.0570 -32.0384 -32.0375 -32.0224 -32.0101
   -31.9577 -31.9536 -31.9490 -31.9449 -31.9103 -31.8835 -31.8821 -31.8789
   -31.8696 -31.8637 -31.8622 -31.8615 -31.8549 -31.8525 -31.8425 -31.8082
   -31.8020 -31.7950 -31.7826 -31.7699 -31.7506 -31.7502 -31.7472 -31.7462
   -31.7306 -31.7299 -31.7249 -31.7221 -31.6425 -31.5355 -31.4563 -31.3750
   -31.2824 -31.2562 -31.0458 -31.0457 -30.9566 -30.9564 -30.9173 -30.9172
   -15.9390 -15.9077 -15.7026 -15.6756 -15.6719 -15.6558 -15.5308 -15.4677
   -15.4545 -15.4523 -15.3882 -15.3679 -15.3313 -15.3040 -15.2896 -15.2795
   -15.2738 -15.2676 -15.2189 -15.2130 -15.1953 -15.1881 -15.0851 -15.0756
   -15.0717 -15.0166 -14.9361 -14.7942 -14.6968 -14.5050 -14.0565 -13.2247
   -13.2246  -7.2924  -4.2205  -4.0795  -4.0419  -3.4397  -3.2288  -3.1916
    -2.9323  -2.9141  -2.9005  -2.8454  -2.6726  -2.6552  -2.6337  -2.6156
    -2.5819  -2.5809  -2.5619  -2.5600  -2.5490  -2.5146  -2.5030  -2.4732
    -2.4357  -2.4254  -2.4136  -2.4124  -2.3822  -2.3725  -2.3337  -2.3043
    -2.2951  -2.2767  -2.2619  -2.0923  -1.9841  -1.9589  -1.8958  -1.8880
    -1.8591  -1.8229  -1.8155  -1.7948  -1.7440  -1.6580  -1.4910  -1.4587
    -1.4405  -1.3781  -1.3609  -1.3101  -1.2302  -1.1563  -1.1340  -1.1286
    -1.0790  -0.9693  -0.9467  -0.9386  -0.8688  -0.8225  -0.8160  -0.7803
    -0.7517  -0.7188  -0.7145  -0.6224  -0.5730  -0.5300  -0.5250  -0.4768
    -0.4093  -0.3981  -0.3696  -0.2603  -0.2376  -0.1799  -0.1455  -0.0356
     0.0276   0.2259   0.2797   0.3158   0.3732   0.4480   0.5304   0.5457
     0.5501   0.5605   0.6162   0.6695   0.7743   0.7831   0.8382   0.9452
     1.0104   1.6044   1.6490   1.6497   1.7219   1.7220   3.6601   3.6718
     3.7107   3.7314   3.8696   3.8848   3.9086   3.9096   3.9611   4.0463

     the Fermi energy is     3.3749 ev

!    total energy              =   -2941.70791388 Ry
     estimated scf accuracy    <       0.00000005 Ry
     smearing contrib. (-TS)   =      -0.02185623 Ry
     internal energy E=F+TS    =   -2941.68605766 Ry

     The total energy is F=E-TS. E is the sum of the following terms:
     one-electron contribution =  -23925.30069123 Ry
     hartree contribution      =   12052.28011307 Ry
     xc contribution           =    -486.76849876 Ry
     ewald contribution        =    9418.10153729 Ry
     electric field correction =       0.00148197 Ry

     convergence has been achieved in  60 iterations

     Forces acting on atoms (cartesian axes, Ry/au):

     atom    1 type  1   force =     0.00003026   -0.00025590    0.09664211
     atom    2 type  1   force =     0.00004361   -0.00058160   -0.17538324
     atom    3 type  2   force =     0.00011463   -0.00004412   -0.02487899
     atom    4 type  2   force =    -0.00000279   -0.00141791    0.05290308
     atom    5 type  2   force =    -0.01226987   -0.00026278    0.00348540
     atom    6 type  2   force =     0.01362375    0.00026560    0.00256083
     atom    7 type  1   force =     0.00031124    0.00058265   -0.01137579
     atom    8 type  1   force =     0.00051931    0.00783691    0.02844346
     atom    9 type  2   force =     0.00020406    0.00041237    0.00050911
     atom   10 type  2   force =    -0.00292165    0.00138081   -0.01556911
     atom   11 type  2   force =     0.00067261   -0.00000581   -0.00001794
     atom   12 type  2   force =    -0.00008044   -0.00013595   -0.00014237
     atom   13 type  1   force =    -0.00019867   -0.00032288    0.00098849
     atom   14 type  1   force =     0.00018407   -0.00007554   -0.00020258
     atom   15 type  2   force =     0.00017986    0.00048385    0.00020058
     atom   16 type  2   force =    -0.00033483   -0.00036232   -0.00030381
     atom   17 type  2   force =    -0.00067419   -0.00000050   -0.00045177
     atom   18 type  2   force =     0.00040501    0.00043309   -0.00004594
     atom   19 type  1   force =    -0.00049123   -0.00080653   -0.00012924
     atom   20 type  1   force =     0.00045177    0.00100015   -0.00112887
     atom   21 type  2   force =     0.00005623   -0.00006467    0.10318890
     atom   22 type  2   force =    -0.00080571    0.00005611    0.00069997
     atom   23 type  2   force =    -0.07151009   -0.00014622   -0.02772542
     atom   24 type  2   force =     0.07143574    0.00031505   -0.02780390
     atom   25 type  1   force =     0.00016515   -0.00023932    0.09628476
     atom   26 type  1   force =     0.00009564   -0.00022754   -0.17562874
     atom   27 type  2   force =     0.00016969   -0.00018856   -0.02392578
     atom   28 type  2   force =    -0.00000042   -0.00117347    0.05281552
     atom   29 type  2   force =    -0.01240043    0.00039468    0.00317950
     atom   30 type  2   force =     0.01365247    0.00085785    0.00222343
     atom   31 type  1   force =     0.00028494    0.00324395   -0.01196892
     atom   32 type  1   force =     0.00065028   -0.01007406    0.02884547
     atom   33 type  2   force =     0.00024233   -0.00024771    0.00064280
     atom   34 type  2   force =    -0.00238020    0.00102778   -0.02371326
     atom   35 type  2   force =     0.00059428   -0.00070647   -0.00009008
     atom   36 type  2   force =    -0.00015256   -0.00079284    0.00017483
     atom   37 type  1   force =    -0.00018058   -0.00013508    0.00048399
     atom   38 type  1   force =     0.00029820    0.00036053   -0.00065667
     atom   39 type  2   force =    -0.00009654   -0.00075206    0.00119031
     atom   40 type  2   force =     0.00026390   -0.00062422   -0.00014029
     atom   41 type  2   force =    -0.00026537   -0.00058489    0.00001480
     atom   42 type  2   force =    -0.00033447   -0.00023529   -0.00001843
     atom   43 type  1   force =    -0.00050987    0.00072174    0.00004095
     atom   44 type  1   force =    -0.00016788    0.00008555   -0.00036443
     atom   45 type  2   force =     0.00007320   -0.00006711    0.10320166
     atom   46 type  2   force =    -0.07154080   -0.00008415   -0.02775135
     atom   47 type  2   force =     0.07145118    0.00033924   -0.02781649
     atom   48 type  3   force =    -0.00020332   -0.00063854   -0.00128373
     atom   49 type  4   force =     0.00059821   -0.00099822    0.00079070
     atom   50 type  5   force =    -0.00041031    0.00073681    0.00113095
     atom   51 type  5   force =    -0.00026969    0.00065220   -0.00049418
     atom   52 type  3   force =    -0.00399736    0.00497784    0.00427132
     atom   53 type  5   force =     0.00063604    0.00131075    0.00086748
     atom   54 type  5   force =     0.00411544   -0.00526034   -0.00399160
     atom   55 type  5   force =     0.00067618    0.00003707   -0.00277747

     Total force =     0.368236     Total SCF correction =     0.000554
  @ DRIVER MODE: Message from server: STATUS
  @ DRIVER MODE: Message from server: GETFORCE
  @ DRIVER MODE: Returning v,forces,stress,ensemble

     Writing output data file ./calc.save/
  @ DRIVER MODE: Message from server: EXIT
  @ DRIVE MODE: Exiting

     General routines

     Parallel routines

   This run was terminated on:   0:53:55  25Aug2021

   JOB DONE.