     Program PWSCF v.6.7GPU starts on 14Sep2021 at 14:37:58

     R & G space division:  proc/nbgrp/npool/nimage =      10
     Reading input from /storage/home/hcoda1/3/ntian30/research/carbon/CxH_vib/CH_calc/ads_slab/CHON2_d/out_0003/pw.inp
Warning: card &CELL ignored
Warning: card   CELL_DYNAMICS='IPI', ignored
Warning: card / ignored

     Current dimensions of program PWSCF are:
     Max number of different atomic species (ntypx) = 10
     Max number of k-points (npk) =  40000
     Max angular momentum in pseudopotentials (lmaxx) =  3
     Presently no symmetry can be used with electric field

     Message from routine cell_base_init:
     DEPRECATED: use true lattice parameter, not A to a.u. conversion factor

     IMPORTANT: XC functional enforced from input :
     Exchange-correlation= BEEF-VDW
                           (   1   4  43  14   2   0   0)
     Any further DFT definition will be discarded
     Please, verify this is what you really want

  @ DRIVER MODE: Connecting to
 qe_1139763_2840438.sched-torque.pace.gatech.edutwdfggtl_scratch
  using UNIX socket
  @ DRIVER MODE: Message from server: STATUS
  @ DRIVER MODE: Message from server: INIT
  @ DRIVER MODE: Receiving replica           0          -1
  @ DRIVER MODE: Receiving encoded integer          25
  @ DRIVER MODE:  SCF:  T  FORCE:  T  STRESS:  F  VC:  F  ENSEMBLE:  F
  @ DRIVER MODE:  SCF:  T  FORCE:  T  STRESS:  F  VC:  F  ENSEMBLE:  F

     Using Slab Decomposition

     bravais-lattice index     =            0
     lattice parameter (alat)  =       1.8897  a.u.
     unit-cell volume          =    6658.9804 (a.u.)^3
     number of atoms/cell      =           52
     number of atomic types    =            5
     number of electrons       =       399.00
     number of Kohn-Sham states=          209
     kinetic-energy cutoff     =      29.3995  Ry
     charge density cutoff     =     293.9946  Ry
     scf convergence threshold =      7.3E-08
     mixing beta               =       0.0500
     number of iterations used =            8  plain     mixing
     Exchange-correlation= BEEF-VDW
                           (   1   4  43  14   2   0   0)

     celldm(1)=   1.889726  celldm(2)=   0.000000  celldm(3)=   0.000000
     celldm(4)=   0.000000  celldm(5)=   0.000000  celldm(6)=   0.000000

     crystal axes: (cart. coord. in units of alat)
               a(1) = (   6.579727   0.000000   0.000000 )
               a(2) = (  -0.000775   5.961596   0.000000 )
               a(3) = (   0.000000   0.000000  25.155947 )

     reciprocal axes: (cart. coord. in units 2 pi/alat)
               b(1) = (  0.151982  0.000020  0.000000 )
               b(2) = (  0.000000  0.167740  0.000000 )
               b(3) = (  0.000000  0.000000  0.039752 )

     PseudoPot. # 1 for O  read from file:
     /storage/coda1/p-amedford6/0/shared/rich_project_chbe-medford/medford-share/data/pseudos_module/espresso/nninc/pbe/van/O.UPF
     MD5 check sum: 78c19812648e8988a0fe644b0f25305e
     Pseudo is Ultrasoft, Zval =  6.0
     Generated by new atomic code, or converted to UPF format
     Using radial grid of  737 points,  4 beta functions with:
                l(1) =   0
                l(2) =   0
                l(3) =   1
                l(4) =   1
     Q(r) pseudized with  8 coefficients,  rinner =    0.800   0.800   0.800

     PseudoPot. # 2 for Ti read from file:
     /storage/coda1/p-amedford6/0/shared/rich_project_chbe-medford/medford-share/data/pseudos_module/espresso/nninc/pbe/van/Ti.UPF
     MD5 check sum: 8e4df49b7f0d34bbd5052bf3f5ea0213
     Pseudo is Ultrasoft, Zval = 12.0
     Generated by new atomic code, or converted to UPF format
     Using radial grid of  851 points,  6 beta functions with:
                l(1) =   0
                l(2) =   0
                l(3) =   1
                l(4) =   1
                l(5) =   2
                l(6) =   2
     Q(r) pseudized with  8 coefficients,  rinner =    1.000   1.000   1.000
                                                       1.000   1.000

     PseudoPot. # 3 for C  read from file:
     /storage/coda1/p-amedford6/0/shared/rich_project_chbe-medford/medford-share/data/pseudos_module/espresso/nninc/pbe/van/C.UPF
     MD5 check sum: 1a69bf6b8db32088f5b2163dbdb77a27
     Pseudo is Ultrasoft, Zval =  4.0
     Generated by new atomic code, or converted to UPF format
     Using radial grid of  721 points,  4 beta functions with:
                l(1) =   0
                l(2) =   0
                l(3) =   1
                l(4) =   1
     Q(r) pseudized with  8 coefficients,  rinner =    0.800   0.800   0.800

     PseudoPot. # 4 for H  read from file:
     /storage/coda1/p-amedford6/0/shared/rich_project_chbe-medford/medford-share/data/pseudos_module/espresso/nninc/pbe/van/H.UPF
     MD5 check sum: b5ee9d7bfd3a09ee7748110bda690ff7
     Pseudo is Ultrasoft, Zval =  1.0
     Generated by new atomic code, or converted to UPF format
     Using radial grid of  615 points,  1 beta functions with:
                l(1) =   0
     Q(r) pseudized with  8 coefficients,  rinner =    0.800

     PseudoPot. # 5 for N  read from file:
     /storage/coda1/p-amedford6/0/shared/rich_project_chbe-medford/medford-share/data/pseudos_module/espresso/nninc/pbe/van/N.UPF
     MD5 check sum: 90d10febe142ad51ac9d5be1deb811c4
     Pseudo is Ultrasoft, Zval =  5.0
     Generated by new atomic code, or converted to UPF format
     Using radial grid of  729 points,  4 beta functions with:
                l(1) =   0
                l(2) =   0
                l(3) =   1
                l(4) =   1
     Q(r) pseudized with  8 coefficients,  rinner =    0.800   0.800   0.800

     atomic species   valence    mass     pseudopotential
        O1             6.00    15.99900     O ( 1.00)
        Ti1           12.00    47.86700     Ti( 1.00)
        C1             4.00    12.01100     C ( 1.00)
        H1             1.00     1.00800     H ( 1.00)
        N1             5.00    14.00700     N ( 1.00)

     No symmetry found

   Cartesian axes

     site n.     atom                  positions (alat units)
         1           O1  tau(   1) = (   3.2904802   0.0005063   4.7018136  )
         2           O1  tau(   2) = (   3.2900926   2.9813045   4.7018136  )
         3           Ti1 tau(   3) = (   0.0004258   2.9801865   6.0000000  )
         4           Ti1 tau(   4) = (   0.0000382   5.9609847   6.0000000  )
         5           Ti1 tau(   5) = (   3.2906075   1.4906267   6.0002472  )
         6           Ti1 tau(   6) = (   3.2902200   4.4714249   6.0002472  )
         7           O1  tau(   7) = (   1.3043587   1.4918075   6.0039043  )
         8           O1  tau(   8) = (   1.3039711   4.4726057   6.0039043  )
         9           O1  tau(   9) = (   5.2767064   1.4903225   6.0039473  )
        10           O1  tau(  10) = (   5.2763189   4.4711207   6.0039473  )
        11           O1  tau(  11) = (   3.2906025   0.0005020   7.3038282  )
        12           O1  tau(  12) = (   3.2902150   2.9813002   7.3038282  )
        13           O1  tau(  13) = (   0.0006271   0.0005054   7.9858123  )
        14           O1  tau(  14) = (   0.0002396   2.9813036   7.9858123  )
        15           Ti1 tau(  15) = (   3.2818399   0.0632074   9.1536190  )
        16           Ti1 tau(  16) = (   3.2594741   3.0397892   9.1577678  )
        17           Ti1 tau(  17) = (   6.5510804   4.5344316   9.2678866  )
        18           O1  tau(  18) = (   4.5942328   1.4918067   9.2879030  )
        19           O1  tau(  19) = (   4.5938453   4.4726049   9.2879030  )
        20           O1  tau(  20) = (   1.9868534   1.4903216   9.2879459  )
        21           O1  tau(  21) = (   1.9864658   4.4711199   9.2879459  )
        22           Ti1 tau(  22) = (   6.5572888   1.6134915   9.3644180  )
        23           O1  tau(  23) = (   0.0036999   2.9964159  10.5720758  )
        24           O1  tau(  24) = (   0.0032988   0.0129995  10.6087427  )
        25           O1  tau(  25) = (   3.3025789   3.0011443  11.3496891  )
        26           O1  tau(  26) = (   3.3069272   0.0203573  11.3499924  )
        27           Ti1 tau(  27) = (   3.3485197   1.5170776  12.4945998  )
        28           Ti1 tau(  28) = (   0.0476823   0.0282983  12.5166062  )
        29           Ti1 tau(  29) = (   3.3474104   4.4962924  12.4903914  )
        30           O1  tau(  30) = (   1.2998870   1.5091839  12.6411902  )
        31           O1  tau(  31) = (   5.2998363   1.5142331  12.6477699  )
        32           O1  tau(  32) = (   1.2995728   4.4957929  12.6443136  )
        33           O1  tau(  33) = (   5.3001588   4.4888893  12.6515721  )
        34           Ti1 tau(  34) = (   0.0405098   3.0100001  12.8178096  )
        35           O1  tau(  35) = (   3.3017622   3.0020563  13.9311684  )
        36           O1  tau(  36) = (   3.3043745   0.0240830  13.9418183  )
        37           O1  tau(  37) = (   0.0425158   3.0055145  14.7122960  )
        38           O1  tau(  38) = (   0.0212564   0.0294349  14.7090242  )
        39           Ti1 tau(  39) = (   3.3143756   3.0090542  15.7253892  )
        40           Ti1 tau(  40) = (   3.3278308   0.0282705  15.7347533  )
        41           Ti1 tau(  41) = (   0.0474550   4.6028283  15.9859659  )
        42           O1  tau(  42) = (   4.5544755   4.4960427  16.0754871  )
        43           O1  tau(  43) = (   2.0560418   4.4875074  16.0954883  )
        44           O1  tau(  44) = (   4.5513302   1.5206081  16.0934294  )
        45           O1  tau(  45) = (   2.0557237   1.5274495  16.1011513  )
        46           Ti1 tau(  46) = (   0.0476892   1.4302431  16.0559646  )
        47           O1  tau(  47) = (   0.0145416   0.0172736  17.2235231  )
        48           O1  tau(  48) = (   6.5187403   2.9894048  17.3870116  )
        49           C1  tau(  49) = (   5.9068627   3.1321688  18.5844627  )
        50           H1  tau(  50) = (   5.7866629   4.0998533  19.0461414  )
        51           N1  tau(  51) = (   5.4444810   2.0886009  19.2066540  )
        52           N1  tau(  52) = (   5.0309896   1.1542324  19.7398597  )

     number of k points=    10  Fermi-Dirac smearing, width (Ry)=  0.0073
                       cart. coord. in units 2pi/alat
        k(    1) = (   0.0000000   0.0000000   0.0000000), wk =   0.1250000
        k(    2) = (   0.0000000   0.0419351   0.0000000), wk =   0.2500000
        k(    3) = (   0.0000000  -0.0838702   0.0000000), wk =   0.1250000
        k(    4) = (   0.0379955   0.0000049   0.0000000), wk =   0.2500000
        k(    5) = (   0.0379955   0.0419400   0.0000000), wk =   0.2500000
        k(    6) = (   0.0379955  -0.0838652   0.0000000), wk =   0.2500000
        k(    7) = (   0.0379955  -0.0419301   0.0000000), wk =   0.2500000
        k(    8) = (  -0.0759910  -0.0000099   0.0000000), wk =   0.1250000
        k(    9) = (  -0.0759910   0.0419252   0.0000000), wk =   0.2500000
        k(   10) = (  -0.0759910  -0.0838800   0.0000000), wk =   0.1250000

     Initial potential from superposition of free atoms

     starting charge  382.99918, renormalised to  399.00000

     negative rho (up, down):  1.729E-02 0.000E+00

     %%%%%%%%%%%%%%%%%%%%%%%%%%%%%%%%%%%%%%%%%%%%%%%%%%%%%%%%%%%%%%%%%%%%%%%%
     %                                                                      %
     % You are using vdW-DF, which was implemented by the Thonhauser group. %
     % Please cite the following two papers that made this development      %
     % possible and the two reviews that describe the various versions:     %
     %                                                                      %
     %   T. Thonhauser et al., PRL 115, 136402 (2015).                      %
     %   T. Thonhauser et al., PRB 76, 125112 (2007).                       %
     %   K. Berland et al., Rep. Prog. Phys. 78, 066501 (2015).             %
     %   D.C. Langreth et al., J. Phys.: Condens. Matter 21, 084203 (2009). %
     %                                                                      %
     %                                                                      %
     % If you are calculating the stress with vdW-DF, please also cite:     %
     %                                                                      %
     %   R. Sabatini et al., J. Phys.: Condens. Matter 24, 424209 (2012).   %
     %                                                                      %
     %%%%%%%%%%%%%%%%%%%%%%%%%%%%%%%%%%%%%%%%%%%%%%%%%%%%%%%%%%%%%%%%%%%%%%%%

     Adding external electric field

     Computed dipole along edir(3) :
        Dipole              -10.9256 Ry au,        -27.7701 Debye
        Dipole field         -0.0206 Ry au,

        Potential amp.        1.9113 Ry
        Total length         46.3494 bohr

     Starting wfcs are  301 atomic wfcs
  @ DRIVER MODE: Message from server: STATUS
  @ DRIVER MODE: Message from server: POSDATA
  @ DRIVER MODE: Reading and sharing cell
  @ DRIVER MODE: Reading and sharing positions
  @ DRIVER MODE: Received positions

     Self-consistent Calculation

     iteration #  1     ecut=    29.40 Ry     beta= 0.05
     Davidson diagonalization with overlap
     c_bands:  1 eigenvalues not converged
     c_bands:  3 eigenvalues not converged
     c_bands:  1 eigenvalues not converged
     c_bands:  2 eigenvalues not converged
     c_bands:  3 eigenvalues not converged
     c_bands:  2 eigenvalues not converged
     c_bands:  2 eigenvalues not converged
     c_bands:  4 eigenvalues not converged
     c_bands:  3 eigenvalues not converged
     ethr =  1.00E-05,  avg # of iterations = 19.6

[...]

     total energy              =   -2496.08967670 Ry
     estimated scf accuracy    <    5311.87196733 Ry

     iteration #  2     ecut=    29.40 Ry     beta= 0.05
     Davidson diagonalization with overlap
     ethr =  1.00E-02,  avg # of iterations = 22.7

[...]

     iteration # 61     ecut=    29.40 Ry     beta= 0.05
     Davidson diagonalization with overlap
     c_bands:  1 eigenvalues not converged
     ethr =  3.90E-11,  avg # of iterations = 12.3

[...]

     total energy              =   -2969.03732796 Ry
     estimated scf accuracy    <       0.00000011 Ry

     iteration # 63     ecut=    29.40 Ry     beta= 0.05
     Davidson diagonalization with overlap
     ethr =  2.70E-11,  avg # of iterations =  8.7

     negative rho (up, down):  1.695E-02 0.000E+00

     Adding external electric field

     Computed dipole along edir(3) :
        Dipole                0.4432 Ry au,          1.1264 Debye
        Dipole field          0.0008 Ry au,

        Potential amp.       -0.0775 Ry
        Total length         46.3494 bohr

     End of self-consistent calculation

          k = 0.0000 0.0000 0.0000 ( 18029 PWs)   bands (ev):

   -55.9408 -55.9270 -55.9038 -55.8908 -55.8290 -55.8084 -55.7842 -55.7684
   -55.7644 -55.7175 -55.7123 -55.6968 -55.6629 -55.5939 -54.9552 -54.9211
   -32.4913 -32.4093 -32.3255 -32.2970 -32.2650 -32.2410 -32.2335 -32.2115
   -32.1773 -32.1685 -32.1505 -32.1439 -32.1393 -32.1077 -32.1007 -32.0715
   -32.0708 -32.0664 -32.0625 -32.0315 -32.0263 -32.0060 -32.0054 -31.9891
   -31.9825 -31.9657 -31.9498 -31.9444 -31.9349 -31.9335 -31.9276 -31.9206
   -31.9190 -31.9090 -31.8778 -31.8752 -31.8449 -31.8420 -31.8169 -31.8029
   -31.7842 -31.7812 -31.3650 -31.2679 -31.2456 -31.1817 -31.0957 -30.9845
   -20.5007 -18.6512 -16.6862 -16.3957 -16.2468 -16.1031 -16.0684 -15.9509
   -15.7824 -15.6615 -15.6264 -15.5610 -15.5118 -15.5080 -15.4911 -15.4790
   -15.4641 -15.4551 -15.4342 -15.3769 -15.3695 -15.3457 -15.3256 -15.2879
   -15.2252 -15.1519 -15.1019 -15.0610 -15.0140 -14.9474 -14.9289 -13.4561
   -13.4488 -13.3379  -6.9337  -5.8789  -4.5911  -4.0399  -3.8719  -3.8662
    -3.8319  -3.7523  -3.6186  -3.5092  -3.4957  -3.3083  -3.1884  -3.1204
    -3.0922  -3.0769  -3.0685  -2.8828  -2.8779  -2.8174  -2.7687  -2.7571
    -2.7539  -2.7262  -2.7113  -2.6846  -2.6617  -2.6530  -2.6001  -2.4798
    -2.3587  -2.3459  -2.3257  -2.2434  -2.2353  -2.2215  -2.2200  -2.1940
    -2.1649  -2.1533  -2.1449  -2.0607  -1.9778  -1.8899  -1.8608  -1.7649
    -1.7271  -1.6409  -1.4569  -1.4092  -1.3579  -1.3443  -1.3335  -1.2923
    -1.2580  -1.2093  -1.1620  -1.1374  -1.0607  -0.9624  -0.9439  -0.8547
    -0.7971  -0.7539  -0.6863  -0.6677  -0.6594  -0.6444  -0.5236  -0.4212
    -0.4083  -0.3836  -0.2824  -0.2336  -0.2240  -0.1707  -0.1563  -0.1206
    -0.0718  -0.0165   0.0165   0.0225   0.0557   0.0650   0.1079   0.2262
     0.2488   0.2540   0.3394   0.3676   0.5285   0.5707   0.7022   0.7900
     0.9721   1.0690   1.1342   1.2398   1.6575   1.7168   2.6001   3.2448
     3.2745   3.3064   3.3441   3.3990   3.5071   3.6530   3.6829   3.7019
     3.7261

[...]

          k = 0.0380-0.0419 0.0000 ( 17876 PWs)   bands (ev):

[...]

          k =-0.0760-0.0000 0.0000 ( 17886 PWs)   bands (ev):

[...]

          k =-0.0760-0.0839 0.0000 ( 17948 PWs)   bands (ev):

   -55.9295 -55.9150 -55.9101 -55.9075 -55.8221 -55.7983 -55.7911 -55.7781
   -55.7582 -55.7186 -55.7148 -55.6822 -55.6777 -55.5962 -54.9387 -54.9375
   -32.2946 -32.2916 -32.2333 -32.2276 -32.2221 -32.2178 -32.1990 -32.1978
   -32.1912 -32.1544 -32.1303 -32.1255 -32.1236 -32.0816 -32.0705 -32.0678
   -32.0594 -32.0554 -32.0521 -32.0459 -32.0390 -32.0227 -32.0177 -32.0116
   -32.0061 -32.0007 -31.9995 -31.9978 -31.9807 -31.9510 -31.9425 -31.9404
   -31.9341 -31.9333 -31.9316 -31.9136 -31.9010 -31.8973 -31.8884 -31.8778
   -31.8248 -31.7903 -31.2590 -31.2575 -31.1785 -31.1775 -31.1392 -31.1382
   -20.4992 -18.6373 -16.1173 -16.0989 -15.9043 -15.8593 -15.8534 -15.7998
   -15.7261 -15.7071 -15.6629 -15.6588 -15.6059 -15.5930 -15.5856 -15.5345
   -15.4927 -15.4632 -15.4541 -15.4484 -15.3927 -15.3891 -15.3882 -15.3336
   -15.3188 -15.3038 -15.2743 -15.2701 -15.2039 -15.1778 -15.1020 -13.4569
   -13.4403 -13.4380  -6.9051  -5.8865  -4.5899  -3.5925  -3.4076  -3.3850
    -3.2922  -3.1448  -3.0774  -3.0752  -2.9935  -2.9191  -2.8903  -2.8725
    -2.8372  -2.7886  -2.7819  -2.7758  -2.7604  -2.7475  -2.7256  -2.7123
    -2.6807  -2.6612  -2.6264  -2.6013  -2.5829  -2.5663  -2.5580  -2.5208
    -2.5016  -2.4890  -2.4792  -2.4737  -2.4098  -2.2450  -2.1946  -2.1147
    -2.0886  -2.0800  -2.0341  -2.0329  -2.0062  -1.9932  -1.9768  -1.8732
    -1.7786  -1.6943  -1.6782  -1.6608  -1.6404  -1.6028  -1.4885  -1.4548
    -1.3811  -1.3605  -1.3459  -1.2452  -1.2211  -1.1555  -1.1505  -1.0684
    -1.0255  -1.0133  -0.9495  -0.9088  -0.8941  -0.8370  -0.8110  -0.7445
    -0.6910  -0.6714  -0.6076  -0.5880  -0.5655  -0.5119  -0.4693  -0.4540
    -0.3861  -0.2954  -0.2492  -0.0595   0.0685   0.0852   0.1036   0.1769
     0.2568   0.2961   0.3192   0.3539   0.4407   0.4998   0.5740   0.5913
     0.6145   0.6798   1.4287   1.4303   1.5198   1.5306   2.5199   3.4535
     3.4756   3.4994   3.5506   3.7037   3.7083   3.7262   3.7359   3.8252
     3.8652

     the Fermi energy is     3.2134 ev

!    total energy              =   -2969.03735917 Ry
     estimated scf accuracy    <       0.00000007 Ry
     smearing contrib. (-TS)   =      -0.02337793 Ry
     internal energy E=F+TS    =   -2969.01398124 Ry

     The total energy is F=E-TS. E is the sum of the following terms:
     one-electron contribution =  -23804.39086814 Ry
     hartree contribution      =   11990.61190138 Ry
     xc contribution           =    -490.85004350 Ry
     ewald contribution        =    9335.61465841 Ry
     electric field correction =       0.00037061 Ry

     convergence has been achieved in  63 iterations

     Forces acting on atoms (cartesian axes, Ry/au):

     atom    1 type  1   force =     0.00008847    0.00006607    0.10421982
     atom    2 type  1   force =     0.00010599    0.00002708    0.10424879
     atom    3 type  2   force =     0.00028814   -0.00169811    0.10529679
     atom    4 type  2   force =     0.00011912    0.00145703    0.11700638
     atom    5 type  2   force =     0.00012503    0.00057892   -0.18001274
     atom    6 type  2   force =    -0.00004406   -0.00014040   -0.18011097
     atom    7 type  1   force =    -0.06883819    0.00078434   -0.02949902
     atom    8 type  1   force =    -0.06850193   -0.00143644   -0.02953491
     atom    9 type  1   force =     0.06893300    0.00107433   -0.02955273
     atom   10 type  1   force =     0.06848904   -0.00091172   -0.02960982
     atom   11 type  1   force =    -0.00025471    0.00067573    0.04562584
     atom   12 type  1   force =    -0.00062087    0.00092544    0.04728621
     atom   13 type  1   force =    -0.00012090   -0.00650532   -0.03344387
     atom   14 type  1   force =    -0.00030690    0.00406746   -0.02750067
     atom   15 type  2   force =    -0.00007879   -0.00037945   -0.00001180
     atom   16 type  2   force =    -0.00016638   -0.00039787    0.00004727
     atom   17 type  2   force =    -0.00018071    0.00000151   -0.00009460
     atom   18 type  1   force =    -0.01864202   -0.00141598    0.00430644
     atom   19 type  1   force =    -0.01733778    0.00092937    0.00347443
     atom   20 type  1   force =     0.01934228    0.00094268    0.00436449
     atom   21 type  1   force =     0.01780950    0.00241985    0.00370033
     atom   22 type  2   force =    -0.00021834   -0.00007679   -0.00014449
     atom   23 type  1   force =    -0.00013559    0.00001271    0.00012805
     atom   24 type  1   force =     0.00016308   -0.00001428    0.00020122
     atom   25 type  1   force =     0.00000623    0.00010661   -0.00010158
     atom   26 type  1   force =    -0.00012846   -0.00014756   -0.00009291
     atom   27 type  2   force =     0.00004777    0.00001414   -0.00011207
     atom   28 type  2   force =    -0.00023239    0.00006336   -0.00018284
     atom   29 type  2   force =     0.00000247    0.00003386   -0.00012173
     atom   30 type  1   force =    -0.00027202   -0.00016794   -0.00016586
     atom   31 type  1   force =     0.00036992   -0.00023369   -0.00018992
     atom   32 type  1   force =    -0.00005034   -0.00018864    0.00015206
     atom   33 type  1   force =    -0.00005589   -0.00006457   -0.00010167
     atom   34 type  2   force =    -0.00005192    0.00018896    0.00007800
     atom   35 type  1   force =     0.00008706   -0.00019316   -0.00019454
     atom   36 type  1   force =     0.00005395   -0.00000030   -0.00004244
     atom   37 type  1   force =    -0.00003132    0.00017822   -0.00014778
     atom   38 type  1   force =    -0.00009383   -0.00084046   -0.00012833
     atom   39 type  2   force =     0.00001812   -0.00033425    0.00026674
     atom   40 type  2   force =     0.00003823    0.00015547    0.00001706
     atom   41 type  2   force =    -0.00030212    0.00002224   -0.00035026
     atom   42 type  1   force =     0.00054454   -0.00005904    0.00026988
     atom   43 type  1   force =    -0.00054075    0.00015504   -0.00003783
     atom   44 type  1   force =    -0.00068646   -0.00014823   -0.00028176
     atom   45 type  1   force =     0.00039042   -0.00001481   -0.00005259
     atom   46 type  2   force =     0.00019075   -0.00019045    0.00037962
     atom   47 type  1   force =    -0.00005783   -0.00107264   -0.00031265
     atom   48 type  1   force =    -0.00006345    0.00495133    0.00131995
     atom   49 type  3   force =     0.00018337   -0.00389373   -0.00107329
     atom   50 type  4   force =     0.00101614    0.00062536   -0.00082517
     atom   51 type  5   force =    -0.00216241   -0.00057502    0.00234507
     atom   52 type  5   force =     0.00176375    0.00064375   -0.00070360

     Total force =     0.376110     Total SCF correction =     0.000705
  @ DRIVER MODE: Message from server: STATUS
  @ DRIVER MODE: Message from server: GETFORCE
  @ DRIVER MODE: Returning v,forces,stress,ensemble

     Writing output data file ./calc.save/
  @ DRIVER MODE: Message from server: EXIT
  @ DRIVE MODE: Exiting

     General routines

     Parallel routines

   This run was terminated on:  14:56: 8  14Sep2021

   JOB DONE.