     Program PWSCF v.6.7GPU starts on 13Oct2021 at  1:15:43

     R & G space division:  proc/nbgrp/npool/nimage =       8
     Reading input from /storage/home/hcoda1/3/ntian30/research/carbon/ACS_vib/ads_slab/HNNH/out_0023/pw.inp
Warning: card &CELL ignored
Warning: card   CELL_DYNAMICS='IPI', ignored
Warning: card / ignored

     Current dimensions of program PWSCF are:
     Max number of different atomic species (ntypx) = 10
     Max number of k-points (npk) =  40000
     Max angular momentum in pseudopotentials (lmaxx) =  3
     Presently no symmetry can be used with electric field

     Message from routine cell_base_init:
     DEPRECATED: use true lattice parameter, not A to a.u. conversion factor

     IMPORTANT: XC functional enforced from input :
     Exchange-correlation= BEEF-VDW
                           (   1   4  43  14   2   0   0)
     Any further DFT definition will be discarded
     Please, verify this is what you really want

  @ DRIVER MODE: Connecting to
 qe_1139763_3181311.sched-torque.pace.gatech.eduatl7ke7g_scratch
  using UNIX socket
  @ DRIVER MODE: Message from server: STATUS
  @ DRIVER MODE: Message from server: INIT
  @ DRIVER MODE: Receiving replica           0          -1
  @ DRIVER MODE: Receiving encoded integer          25
  @ DRIVER MODE:  SCF:  T  FORCE:  T  STRESS:  F  VC:  F  ENSEMBLE:  F
  @ DRIVER MODE:  SCF:  T  FORCE:  T  STRESS:  F  VC:  F  ENSEMBLE:  F

     Using Slab Decomposition

     bravais-lattice index     =            0
     lattice parameter (alat)  =       1.8897  a.u.
     unit-cell volume          =    6658.9804 (a.u.)^3
     number of atoms/cell      =           51
     number of atomic types    =            4
     number of electrons       =       390.00
     number of Kohn-Sham states=          205
     kinetic-energy cutoff     =      29.3995  Ry
     charge density cutoff     =     293.9946  Ry
     scf convergence threshold =      7.3E-08
     mixing beta               =       0.0500
     number of iterations used =            8  plain     mixing
     Exchange-correlation= BEEF-VDW
                           (   1   4  43  14   2   0   0)

     celldm(1)=   1.889726  celldm(2)=   0.000000  celldm(3)=   0.000000
     celldm(4)=   0.000000  celldm(5)=   0.000000  celldm(6)=   0.000000

     crystal axes: (cart. coord. in units of alat)
               a(1) = (   6.579727   0.000000   0.000000 )
               a(2) = (  -0.000775   5.961596   0.000000 )
               a(3) = (   0.000000   0.000000  25.155947 )

     reciprocal axes: (cart. coord. in units 2 pi/alat)
               b(1) = (  0.151982  0.000020  0.000000 )
               b(2) = (  0.000000  0.167740  0.000000 )
               b(3) = (  0.000000  0.000000  0.039752 )

     PseudoPot. # 1 for Ti read from file:
     /storage/coda1/p-amedford6/0/shared/rich_project_chbe-medford/medford-share/data/pseudos_module/espresso/nninc/pbe/van/Ti.UPF
     MD5 check sum: 8e4df49b7f0d34bbd5052bf3f5ea0213
     Pseudo is Ultrasoft, Zval = 12.0
     Generated by new atomic code, or converted to UPF format
     Using radial grid of  851 points,  6 beta functions with:
                l(1) =   0
                l(2) =   0
                l(3) =   1
                l(4) =   1
                l(5) =   2
                l(6) =   2
     Q(r) pseudized with  8 coefficients,  rinner =    1.000   1.000   1.000
                                                       1.000   1.000

     PseudoPot. # 2 for O  read from file:
     /storage/coda1/p-amedford6/0/shared/rich_project_chbe-medford/medford-share/data/pseudos_module/espresso/nninc/pbe/van/O.UPF
     MD5 check sum: 78c19812648e8988a0fe644b0f25305e
     Pseudo is Ultrasoft, Zval =  6.0
     Generated by new atomic code, or converted to UPF format
     Using radial grid of  737 points,  4 beta functions with:
                l(1) =   0
                l(2) =   0
                l(3) =   1
                l(4) =   1
     Q(r) pseudized with  8 coefficients,  rinner =    0.800   0.800   0.800

     PseudoPot. # 3 for H  read from file:
     /storage/coda1/p-amedford6/0/shared/rich_project_chbe-medford/medford-share/data/pseudos_module/espresso/nninc/pbe/van/H.UPF
     MD5 check sum: b5ee9d7bfd3a09ee7748110bda690ff7
     Pseudo is Ultrasoft, Zval =  1.0
     Generated by new atomic code, or converted to UPF format
     Using radial grid of  615 points,  1 beta functions with:
                l(1) =   0
     Q(r) pseudized with  8 coefficients,  rinner =    0.800

     PseudoPot. # 4 for N  read from file:
     /storage/coda1/p-amedford6/0/shared/rich_project_chbe-medford/medford-share/data/pseudos_module/espresso/nninc/pbe/van/N.UPF
     MD5 check sum: 90d10febe142ad51ac9d5be1deb811c4
     Pseudo is Ultrasoft, Zval =  5.0
     Generated by new atomic code, or converted to UPF format
     Using radial grid of  729 points,  4 beta functions with:
                l(1) =   0
                l(2) =   0
                l(3) =   1
                l(4) =   1
     Q(r) pseudized with  8 coefficients,  rinner =    0.800   0.800   0.800

     atomic species   valence    mass     pseudopotential
        Ti1           12.00    47.86700     Ti( 1.00)
        O1             6.00    15.99900     O ( 1.00)
        H1             1.00     1.00800     H ( 1.00)
        N1             5.00    14.00700     N ( 1.00)

     No symmetry found

   Cartesian axes

     site n.     atom                  positions (alat units)
         1           Ti1 tau(   1) = (   0.0004258   2.9801865   6.0000000  )
         2           Ti1 tau(   2) = (   3.2906075   1.4906267   6.0002472  )
         3           O1  tau(   3) = (   0.0006271   0.0005054   7.9858123  )
         4           O1  tau(   4) = (   3.2906025   0.0005020   7.3038282  )
         5           O1  tau(   5) = (   4.5942328   1.4918067   9.2879030  )
         6           O1  tau(   6) = (   1.9868534   1.4903216   9.2879459  )
         7           Ti1 tau(   7) = (   3.2908881   2.9042228   9.1664735  )
         8           Ti1 tau(   8) = (   0.0028208   1.4453605   9.2576896  )
         9           O1  tau(   9) = (   3.2707936   0.0024169  11.3547307  )
        10           O1  tau(  10) = (   6.5771562   5.9613851  10.5998947  )
        11           O1  tau(  11) = (   1.2750810   1.4887983  12.6623546  )
        12           O1  tau(  12) = (   5.2735957   1.4941237  12.6366476  )
        13           Ti1 tau(  13) = (   6.5484273   3.0048924  12.8091026  )
        14           Ti1 tau(  14) = (   3.2635572   1.4892482  12.5038529  )
        15           O1  tau(  15) = (   6.5112577   5.9342846  14.6610847  )
        16           O1  tau(  16) = (   3.2966729   5.9487847  13.9562402  )
        17           O1  tau(  17) = (   4.4981853   1.5100712  16.1215815  )
        18           O1  tau(  18) = (   1.9927245   1.4809274  16.0269182  )
        19           Ti1 tau(  19) = (   3.2349744   2.9714856  15.7300180  )
        20           Ti1 tau(  20) = (   6.5689460   1.3052557  15.9023701  )
        21           O1  tau(  21) = (   3.2904802   0.0005063   4.7018136  )
        22           O1  tau(  22) = (   6.5497555   0.0700294  17.2054191  )
        23           O1  tau(  23) = (   1.3043587   1.4918075   6.0039043  )
        24           O1  tau(  24) = (   5.2767064   1.4903225   6.0039473  )
        25           Ti1 tau(  25) = (   0.0000382   5.9609847   6.0000000  )
        26           Ti1 tau(  26) = (   3.2902200   4.4714249   6.0002472  )
        27           O1  tau(  27) = (   0.0002396   2.9813036   7.9858123  )
        28           O1  tau(  28) = (   3.2902150   2.9813002   7.3038282  )
        29           O1  tau(  29) = (   4.5938453   4.4726049   9.2879030  )
        30           O1  tau(  30) = (   1.9864658   4.4711199   9.2879459  )
        31           Ti1 tau(  31) = (   3.2899333   5.8856170   9.1744801  )
        32           Ti1 tau(  32) = (   0.0020137   4.3658053   9.3606106  )
        33           O1  tau(  33) = (   3.2690173   2.9735267  11.3530824  )
        34           O1  tau(  34) = (   0.0002412   2.9750176  10.5666245  )
        35           O1  tau(  35) = (   1.2748646   4.4726994  12.6423647  )
        36           O1  tau(  36) = (   5.2720213   4.4664742  12.6163582  )
        37           Ti1 tau(  37) = (   6.5582605   0.0201509  12.4985948  )
        38           Ti1 tau(  38) = (   3.2618569   4.4653106  12.4956167  )
        39           O1  tau(  39) = (   6.5348066   3.0079926  14.7180217  )
        40           O1  tau(  40) = (   3.2797409   2.9875293  13.9337705  )
        41           O1  tau(  41) = (   4.5027845   4.4373921  16.1556124  )
        42           O1  tau(  42) = (   1.9850320   4.4617864  16.0830993  )
        43           Ti1 tau(  43) = (   3.2823567   5.9555293  15.7495178  )
        44           Ti1 tau(  44) = (   6.5552429   4.5047081  16.0597439  )
        45           O1  tau(  45) = (   3.2900926   2.9813045   4.7018136  )
        46           O1  tau(  46) = (   1.3039711   4.4726057   6.0039043  )
        47           O1  tau(  47) = (   5.2763189   4.4711207   6.0039473  )
        48           H1  tau(  48) = (   0.5659039   2.5807529  19.4396776  )
        49           N1  tau(  49) = (   0.9330341   2.9538053  18.5544450  )
        50           N1  tau(  50) = (   6.5241730   3.1816813  17.7405862  )
        51           H1  tau(  51) = (   5.5906726   3.0068531  18.1206748  )

     number of k points=    10  Fermi-Dirac smearing, width (Ry)=  0.0073
                       cart. coord. in units 2pi/alat
        k(    1) = (   0.0000000   0.0000000   0.0000000), wk =   0.1250000
        k(    2) = (   0.0000000   0.0419351   0.0000000), wk =   0.2500000
        k(    3) = (   0.0000000  -0.0838702   0.0000000), wk =   0.1250000
        k(    4) = (   0.0379955   0.0000049   0.0000000), wk =   0.2500000
        k(    5) = (   0.0379955   0.0419400   0.0000000), wk =   0.2500000
        k(    6) = (   0.0379955  -0.0838652   0.0000000), wk =   0.2500000
        k(    7) = (   0.0379955  -0.0419301   0.0000000), wk =   0.2500000
        k(    8) = (  -0.0759910  -0.0000099   0.0000000), wk =   0.1250000
        k(    9) = (  -0.0759910   0.0419252   0.0000000), wk =   0.2500000
        k(   10) = (  -0.0759910  -0.0838800   0.0000000), wk =   0.1250000

     Initial potential from superposition of free atoms

     starting charge  373.99921, renormalised to  390.00000

     negative rho (up, down):  1.941E-02 0.000E+00

     %%%%%%%%%%%%%%%%%%%%%%%%%%%%%%%%%%%%%%%%%%%%%%%%%%%%%%%%%%%%%%%%%%%%%%%%
     %                                                                      %
     % You are using vdW-DF, which was implemented by the Thonhauser group. %
     % Please cite the following two papers that made this development      %
     % possible and the two reviews that describe the various versions:     %
     %                                                                      %
     %   T. Thonhauser et al., PRL 115, 136402 (2015).                      %
     %   T. Thonhauser et al., PRB 76, 125112 (2007).                       %
     %   K. Berland et al., Rep. Prog. Phys. 78, 066501 (2015).             %
     %   D.C. Langreth et al., J. Phys.: Condens. Matter 21, 084203 (2009). %
     %                                                                      %
     %                                                                      %
     % If you are calculating the stress with vdW-DF, please also cite:     %
     %                                                                      %
     %   R. Sabatini et al., J. Phys.: Condens. Matter 24, 424209 (2012).   %
     %                                                                      %
     %%%%%%%%%%%%%%%%%%%%%%%%%%%%%%%%%%%%%%%%%%%%%%%%%%%%%%%%%%%%%%%%%%%%%%%%

     Adding external electric field

     Computed dipole along edir(3) :
        Dipole               -5.1480 Ry au,        -13.0850 Debye
        Dipole field         -0.0097 Ry au,

        Potential amp.        0.9006 Ry
        Total length         46.3494 bohr

     Starting wfcs are  294 atomic wfcs
  @ DRIVER MODE: Message from server: STATUS
  @ DRIVER MODE: Message from server: POSDATA
  @ DRIVER MODE: Reading and sharing cell
  @ DRIVER MODE: Reading and sharing positions
  @ DRIVER MODE: Received positions

     Self-consistent Calculation

     iteration #  1     ecut=    29.40 Ry     beta= 0.05
     Davidson diagonalization with overlap
     c_bands:  5 eigenvalues not converged
     c_bands:  1 eigenvalues not converged
     c_bands:  3 eigenvalues not converged
     c_bands:  4 eigenvalues not converged
     c_bands:  1 eigenvalues not converged
     c_bands:  3 eigenvalues not converged
     c_bands:  2 eigenvalues not converged
     c_bands:  3 eigenvalues not converged
     ethr =  1.00E-05,  avg # of iterations = 20.5

[...]

     total energy              =   -2838.04263560 Ry
     estimated scf accuracy    <     989.77929317 Ry

     iteration #  2     ecut=    29.40 Ry     beta= 0.05
     Davidson diagonalization with overlap
     ethr =  1.00E-02,  avg # of iterations = 16.6

[...]

     iteration # 40     ecut=    29.40 Ry     beta= 0.05
     Davidson diagonalization with overlap
     c_bands:  1 eigenvalues not converged
     c_bands:  1 eigenvalues not converged
     c_bands:  1 eigenvalues not converged
     ethr =  5.62E-07,  avg # of iterations = 13.7

[...]

     total energy              =   -2926.39977390 Ry
     estimated scf accuracy    <       0.00000009 Ry

     iteration # 70     ecut=    29.40 Ry     beta= 0.05
     Davidson diagonalization with overlap
     ethr =  2.21E-11,  avg # of iterations =  7.9

     negative rho (up, down):  1.912E-02 0.000E+00

     Adding external electric field

     Computed dipole along edir(3) :
        Dipole                0.7822 Ry au,          1.9882 Debye
        Dipole field          0.0015 Ry au,

        Potential amp.       -0.1368 Ry
        Total length         46.3494 bohr

     End of self-consistent calculation

          k = 0.0000 0.0000 0.0000 ( 18029 PWs)   bands (ev):

   -55.9583 -55.9452 -55.9205 -55.9086 -55.8677 -55.8267 -55.8041 -55.7913
   -55.7333 -55.7088 -55.6751 -55.6187 -55.5687 -55.4996 -54.9256 -54.8915
   -32.5126 -32.4242 -32.3082 -32.2986 -32.2755 -32.2527 -32.2283 -32.2005
   -32.1937 -32.1857 -32.1662 -32.1533 -32.1267 -32.1253 -32.1176 -32.0996
   -32.0924 -32.0763 -32.0566 -32.0465 -32.0225 -32.0095 -32.0007 -32.0005
   -31.9850 -31.9709 -31.9528 -31.9448 -31.9318 -31.9232 -31.9181 -31.8932
   -31.8843 -31.8574 -31.8402 -31.8218 -31.8193 -31.8067 -31.8002 -31.7326
   -31.6846 -31.6135 -31.3337 -31.2425 -31.2198 -31.1501 -31.0637 -30.9529
   -18.0764 -16.7149 -16.4132 -16.2788 -16.1323 -16.0865 -15.9854 -15.8012
   -15.6975 -15.6468 -15.5823 -15.5590 -15.5563 -15.5058 -15.4959 -15.4898
   -15.4656 -15.4266 -15.3914 -15.3505 -15.3470 -15.3399 -15.3067 -15.2449
   -15.2146 -15.1173 -15.0629 -14.9667 -14.9625 -14.8291 -13.4285 -13.3116
   -10.3392  -6.6392  -4.0653  -3.9465  -3.8807  -3.8356  -3.7798  -3.5755
    -3.5224  -3.3207  -3.2514  -3.1483  -3.1042  -3.0850  -3.0792  -3.0116
    -2.8714  -2.7755  -2.7668  -2.7530  -2.7306  -2.7192  -2.7099  -2.6937
    -2.6884  -2.6431  -2.5697  -2.5000  -2.4381  -2.3783  -2.3274  -2.2478
    -2.2341  -2.2191  -2.2076  -2.2018  -2.1664  -2.1590  -2.1482  -2.0202
    -1.9966  -1.9080  -1.7854  -1.7646  -1.6491  -1.5690  -1.5511  -1.4208
    -1.3848  -1.3515  -1.3182  -1.2725  -1.2388  -1.2288  -1.1533  -1.1123
    -1.0163  -0.9801  -0.8809  -0.8358  -0.8307  -0.7698  -0.6925  -0.6813
    -0.6673  -0.5287  -0.4417  -0.4324  -0.4284  -0.3452  -0.2894  -0.2368
    -0.1899  -0.1813  -0.1625  -0.1234  -0.0958   0.0029   0.0125   0.0461
     0.0600   0.0981   0.1876   0.2571   0.2701   0.3295   0.3450   0.5551
     0.5664   0.5786   0.7156   0.7627   1.0106   1.0957   1.1217   1.2831
     1.6761   1.7310   3.1483   3.2364   3.2523   3.2892   3.3531   3.3988
     3.5518   3.6039   3.6483   3.6753   3.7000

[...]

          k = 0.0380-0.0419 0.0000 ( 17876 PWs)   bands (ev):

[...]

          k =-0.0760-0.0000 0.0000 ( 17886 PWs)   bands (ev):

[...]

          k =-0.0760-0.0839 0.0000 ( 17948 PWs)   bands (ev):

   -55.9477 -55.9309 -55.9296 -55.9239 -55.8626 -55.8164 -55.8090 -55.8016
   -55.7304 -55.6922 -55.6918 -55.6213 -55.5644 -55.5038 -54.9090 -54.9080
   -32.3175 -32.3131 -32.2498 -32.2497 -32.2404 -32.2318 -32.2153 -32.2145
   -32.1578 -32.1547 -32.1492 -32.1423 -32.1258 -32.0999 -32.0808 -32.0735
   -32.0694 -32.0673 -32.0646 -32.0621 -32.0497 -32.0301 -32.0241 -32.0164
   -32.0144 -32.0113 -32.0091 -32.0053 -31.9564 -31.9336 -31.9295 -31.9292
   -31.9144 -31.9016 -31.8975 -31.8899 -31.8470 -31.8202 -31.8166 -31.7367
   -31.7215 -31.6585 -31.2332 -31.2319 -31.1470 -31.1461 -31.1074 -31.1063
   -18.0710 -16.1529 -16.1247 -15.9746 -15.8839 -15.8727 -15.8274 -15.7687
   -15.7400 -15.6843 -15.6515 -15.6328 -15.6160 -15.5993 -15.5746 -15.5261
   -15.4763 -15.4704 -15.4605 -15.4453 -15.3949 -15.3853 -15.3603 -15.3517
   -15.3291 -15.2643 -15.2426 -15.1966 -15.1171 -14.9944 -13.4152 -13.4114
   -10.3438  -6.6398  -3.4387  -3.4058  -3.3096  -3.2079  -3.0988  -3.0943
    -3.0148  -2.9520  -2.9125  -2.8641  -2.8199  -2.7963  -2.7644  -2.7603
    -2.7528  -2.7408  -2.7321  -2.7000  -2.6873  -2.6810  -2.6468  -2.6317
    -2.6105  -2.6035  -2.5627  -2.5509  -2.5363  -2.4934  -2.4904  -2.4851
    -2.4803  -2.2886  -2.2489  -2.2023  -2.1518  -2.0724  -2.0562  -2.0425
    -2.0023  -1.9873  -1.9766  -1.9090  -1.8139  -1.6959  -1.6601  -1.6372
    -1.6242  -1.5826  -1.4068  -1.3750  -1.3597  -1.3368  -1.3054  -1.2526
    -1.2205  -1.2016  -1.1065  -1.0860  -1.0429  -0.9688  -0.9130  -0.8929
    -0.8625  -0.8248  -0.7805  -0.7413  -0.6992  -0.6838  -0.6190  -0.5704
    -0.5255  -0.5061  -0.4877  -0.4037  -0.3252  -0.3003  -0.0977   0.0349
     0.0687   0.0814   0.2182   0.2343   0.2707   0.3422   0.3753   0.4183
     0.4766   0.5821   0.5846   0.5968   0.6062   0.6655   1.4570   1.4616
     1.5361   1.5481   3.2121   3.3968   3.4401   3.4797   3.5408   3.6840
     3.7081   3.7096   3.7326   3.7872   3.8538

     the Fermi energy is     3.1932 ev

!    total energy              =   -2926.39978825 Ry
     estimated scf accuracy    <       0.00000005 Ry
     smearing contrib. (-TS)   =      -0.03280472 Ry
     internal energy E=F+TS    =   -2926.36698353 Ry

     The total energy is F=E-TS. E is the sum of the following terms:
     one-electron contribution =  -24581.60077428 Ry
     hartree contribution      =   12374.92579726 Ry
     xc contribution           =    -480.79174060 Ry
     ewald contribution        =    9761.09857942 Ry
     electric field correction =       0.00115467 Ry

     convergence has been achieved in  70 iterations

     Forces acting on atoms (cartesian axes, Ry/au):

     atom    1 type  1   force =     0.00019816    0.00160628    0.10331569
     atom    2 type  1   force =     0.00006574   -0.00227905   -0.17660051
     atom    3 type  2   force =     0.00018080    0.00648478   -0.03461170
     atom    4 type  2   force =    -0.00004987   -0.00102686    0.05242126
     atom    5 type  2   force =    -0.01732921   -0.00087142    0.00516280
     atom    6 type  2   force =     0.01634205   -0.00066489    0.00402293
     atom    7 type  1   force =     0.00051496    0.00280714   -0.00770946
     atom    8 type  1   force =    -0.00011445   -0.00004079    0.00048411
     atom    9 type  2   force =     0.00013772   -0.00018789   -0.00050932
     atom   10 type  2   force =     0.00006967   -0.00015340   -0.00040758
     atom   11 type  2   force =     0.00025221    0.00017088    0.00031101
     atom   12 type  2   force =     0.00017414    0.00030709    0.00019486
     atom   13 type  1   force =    -0.00041102    0.00068425   -0.00077868
     atom   14 type  1   force =    -0.00039689   -0.00004746   -0.00100680
     atom   15 type  2   force =    -0.00000009    0.00086494    0.00006048
     atom   16 type  2   force =     0.00004749   -0.00015669    0.00087495
     atom   17 type  2   force =     0.00033603    0.00045608    0.00039491
     atom   18 type  2   force =    -0.00037283    0.00029125    0.00007619
     atom   19 type  1   force =    -0.00002811   -0.00046353    0.00039078
     atom   20 type  1   force =     0.00000609   -0.00142454    0.00010931
     atom   21 type  2   force =     0.00012771   -0.00007593    0.10334048
     atom   22 type  2   force =    -0.00031631    0.00024380    0.00136427
     atom   23 type  2   force =    -0.07030892    0.00113008   -0.02965809
     atom   24 type  2   force =     0.07029469    0.00155973   -0.02966279
     atom   25 type  1   force =     0.00010999   -0.00166422    0.11618993
     atom   26 type  1   force =    -0.00002950    0.00128588   -0.17607756
     atom   27 type  2   force =     0.00011183   -0.00260127   -0.02894199
     atom   28 type  2   force =    -0.00004271   -0.00141487    0.05147295
     atom   29 type  2   force =    -0.01884454    0.00097839    0.00642762
     atom   30 type  2   force =     0.01784756    0.00162381    0.00534233
     atom   31 type  1   force =     0.00051956   -0.00133430   -0.01367232
     atom   32 type  1   force =    -0.00010289   -0.00101949    0.00067310
     atom   33 type  2   force =     0.00007302   -0.00014377   -0.00046716
     atom   34 type  2   force =     0.00008689   -0.00064731    0.00082979
     atom   35 type  2   force =     0.00037512   -0.00019506    0.00040893
     atom   36 type  2   force =     0.00007727   -0.00014999    0.00030664
     atom   37 type  1   force =    -0.00014693    0.00022126   -0.00000579
     atom   38 type  1   force =    -0.00051927   -0.00054610   -0.00078772
     atom   39 type  2   force =    -0.00035937   -0.00048319    0.00088234
     atom   40 type  2   force =     0.00011037   -0.00014601    0.00150314
     atom   41 type  2   force =     0.00043364   -0.00054552    0.00033927
     atom   42 type  2   force =    -0.00064156   -0.00017612   -0.00015625
     atom   43 type  1   force =     0.00010352    0.00019749    0.00005117
     atom   44 type  1   force =     0.00017804    0.00129132    0.00066920
     atom   45 type  2   force =     0.00012158   -0.00004398    0.10353590
     atom   46 type  2   force =    -0.07074034   -0.00146942   -0.02962137
     atom   47 type  2   force =     0.07071689   -0.00103938   -0.02965229
     atom   48 type  3   force =     0.00001087   -0.00086139    0.00070881
     atom   49 type  4   force =     0.00026531    0.00058728   -0.00028856
     atom   50 type  4   force =     0.00555955    0.00160835   -0.00550390
     atom   51 type  3   force =    -0.00469370   -0.00252621    0.00425470

     Total force =     0.374731     Total SCF correction =     0.000568
  @ DRIVER MODE: Message from server: STATUS
  @ DRIVER MODE: Message from server: GETFORCE
  @ DRIVER MODE: Returning v,forces,stress,ensemble

     Writing output data file ./calc.save/
  @ DRIVER MODE: Message from server: EXIT
  @ DRIVE MODE: Exiting

     General routines

     Parallel routines

   This run was terminated on:   2:11: 7  13Oct2021

   JOB DONE.