     Program PWSCF v.6.7GPU starts on  9Sep2021 at 12:44:20

     R & G space division:  proc/nbgrp/npool/nimage =      10
     Reading input from /storage/home/hcoda1/3/ntian30/research/carbon/CxH_vib/CH3_calc/ads_slab/CH3NH2NH_c/out_0044/pw.inp
Warning: card &CELL ignored
Warning: card   CELL_DYNAMICS='IPI', ignored
Warning: card / ignored

     Current dimensions of program PWSCF are:
     Max number of different atomic species (ntypx) = 10
     Max number of k-points (npk) =  40000
     Max angular momentum in pseudopotentials (lmaxx) =  3
     Presently no symmetry can be used with electric field

     Message from routine cell_base_init:
     DEPRECATED: use true lattice parameter, not A to a.u. conversion factor

     IMPORTANT: XC functional enforced from input :
     Exchange-correlation= BEEF-VDW
                           (   1   4  43  14   2   0   0)
     Any further DFT definition will be discarded
     Please, verify this is what you really want

  @ DRIVER MODE: Connecting to
 qe_1139763_2767400.sched-torque.pace.gatech.eduu43jyklu_scratch
  using UNIX socket
  @ DRIVER MODE: Message from server: STATUS
  @ DRIVER MODE: Message from server: INIT
  @ DRIVER MODE: Receiving replica           0          -1
  @ DRIVER MODE: Receiving encoded integer          25
  @ DRIVER MODE:  SCF:  T  FORCE:  T  STRESS:  F  VC:  F  ENSEMBLE:  F
  @ DRIVER MODE:  SCF:  T  FORCE:  T  STRESS:  F  VC:  F  ENSEMBLE:  F

     Using Slab Decomposition

     bravais-lattice index     =            0
     lattice parameter (alat)  =       1.8897  a.u.
     unit-cell volume          =    6658.9804 (a.u.)^3
     number of atoms/cell      =           56
     number of atomic types    =            5
     number of electrons       =       398.00
     number of Kohn-Sham states=          209
     kinetic-energy cutoff     =      29.3995  Ry
     charge density cutoff     =     293.9946  Ry
     scf convergence threshold =      7.3E-08
     mixing beta               =       0.0500
     number of iterations used =            8  plain     mixing
     Exchange-correlation= BEEF-VDW
                           (   1   4  43  14   2   0   0)

     celldm(1)=   1.889726  celldm(2)=   0.000000  celldm(3)=   0.000000
     celldm(4)=   0.000000  celldm(5)=   0.000000  celldm(6)=   0.000000

     crystal axes: (cart. coord. in units of alat)
               a(1) = (   6.579727   0.000000   0.000000 )
               a(2) = (  -0.000775   5.961596   0.000000 )
               a(3) = (   0.000000   0.000000  25.155947 )

     reciprocal axes: (cart. coord. in units 2 pi/alat)
               b(1) = (  0.151982  0.000020  0.000000 )
               b(2) = (  0.000000  0.167740  0.000000 )
               b(3) = (  0.000000  0.000000  0.039752 )

     PseudoPot. # 1 for Ti read from file:
     /storage/coda1/p-amedford6/0/shared/rich_project_chbe-medford/medford-share/data/pseudos_module/espresso/nninc/pbe/van/Ti.UPF
     MD5 check sum: 8e4df49b7f0d34bbd5052bf3f5ea0213
     Pseudo is Ultrasoft, Zval = 12.0
     Generated by new atomic code, or converted to UPF format
     Using radial grid of  851 points,  6 beta functions with:
                l(1) =   0
                l(2) =   0
                l(3) =   1
                l(4) =   1
                l(5) =   2
                l(6) =   2
     Q(r) pseudized with  8 coefficients,  rinner =    1.000   1.000   1.000
                                                       1.000   1.000

     PseudoPot. # 2 for O  read from file:
     /storage/coda1/p-amedford6/0/shared/rich_project_chbe-medford/medford-share/data/pseudos_module/espresso/nninc/pbe/van/O.UPF
     MD5 check sum: 78c19812648e8988a0fe644b0f25305e
     Pseudo is Ultrasoft, Zval =  6.0
     Generated by new atomic code, or converted to UPF format
     Using radial grid of  737 points,  4 beta functions with:
                l(1) =   0
                l(2) =   0
                l(3) =   1
                l(4) =   1
     Q(r) pseudized with  8 coefficients,  rinner =    0.800   0.800   0.800

     PseudoPot. # 3 for N  read from file:
     /storage/coda1/p-amedford6/0/shared/rich_project_chbe-medford/medford-share/data/pseudos_module/espresso/nninc/pbe/van/N.UPF
     MD5 check sum: 90d10febe142ad51ac9d5be1deb811c4
     Pseudo is Ultrasoft, Zval =  5.0
     Generated by new atomic code, or converted to UPF format
     Using radial grid of  729 points,  4 beta functions with:
                l(1) =   0
                l(2) =   0
                l(3) =   1
                l(4) =   1
     Q(r) pseudized with  8 coefficients,  rinner =    0.800   0.800   0.800

     PseudoPot. # 4 for C  read from file:
     /storage/coda1/p-amedford6/0/shared/rich_project_chbe-medford/medford-share/data/pseudos_module/espresso/nninc/pbe/van/C.UPF
     MD5 check sum: 1a69bf6b8db32088f5b2163dbdb77a27
     Pseudo is Ultrasoft, Zval =  4.0
     Generated by new atomic code, or converted to UPF format
     Using radial grid of  721 points,  4 beta functions with:
                l(1) =   0
                l(2) =   0
                l(3) =   1
                l(4) =   1
     Q(r) pseudized with  8 coefficients,  rinner =    0.800   0.800   0.800

     PseudoPot. # 5 for H  read from file:
     /storage/coda1/p-amedford6/0/shared/rich_project_chbe-medford/medford-share/data/pseudos_module/espresso/nninc/pbe/van/H.UPF
     MD5 check sum: b5ee9d7bfd3a09ee7748110bda690ff7
     Pseudo is Ultrasoft, Zval =  1.0
     Generated by new atomic code, or converted to UPF format
     Using radial grid of  615 points,  1 beta functions with:
                l(1) =   0
     Q(r) pseudized with  8 coefficients,  rinner =    0.800

     atomic species   valence    mass     pseudopotential
        Ti1           12.00    47.86700     Ti( 1.00)
        O1             6.00    15.99900     O ( 1.00)
        N1             5.00    14.00700     N ( 1.00)
        C1             4.00    12.01100     C ( 1.00)
        H1             1.00     1.00800     H ( 1.00)

     No symmetry found

   Cartesian axes

     site n.     atom                  positions (alat units)
         1           Ti1 tau(   1) = (   0.0004258   2.9801865   6.0000000  )
         2           Ti1 tau(   2) = (   3.2906075   1.4906267   6.0002472  )
         3           O1  tau(   3) = (   0.0006271   0.0005054   7.9858123  )
         4           O1  tau(   4) = (   3.2906025   0.0005020   7.3038282  )
         5           O1  tau(   5) = (   4.5942328   1.4918067   9.2879030  )
         6           O1  tau(   6) = (   1.9868534   1.4903216   9.2879459  )
         7           Ti1 tau(   7) = (   3.2907910   2.8959150   9.1758416  )
         8           Ti1 tau(   8) = (   0.0015273   1.4827037   9.2680791  )
         9           O1  tau(   9) = (   3.3032705   0.0110091  11.3485381  )
        10           O1  tau(  10) = (   0.0116148   5.9584955  10.6183126  )
        11           O1  tau(  11) = (   1.3020657   1.4959176  12.6398190  )
        12           O1  tau(  12) = (   5.2896457   1.4919019  12.6612249  )
        13           Ti1 tau(  13) = (   0.0353884   3.0012823  12.5523301  )
        14           Ti1 tau(  14) = (   3.3275346   1.5008247  12.4978572  )
        15           O1  tau(  15) = (   0.0424128   0.0047235  14.7277795  )
        16           O1  tau(  16) = (   3.2762846   0.0047332  13.9819514  )
        17           O1  tau(  17) = (   4.5591522   1.5298593  16.0930730  )
        18           O1  tau(  18) = (   2.0612242   1.5646392  16.2256692  )
        19           Ti1 tau(  19) = (   3.3170857   3.0293758  15.7013767  )
        20           Ti1 tau(  20) = (   6.5267591   1.5471840  15.7818195  )
        21           O1  tau(  21) = (   3.2904802   0.0005063   4.7018136  )
        22           O1  tau(  22) = (   0.0258072   0.0396315  17.3287798  )
        23           O1  tau(  23) = (   1.3043587   1.4918075   6.0039043  )
        24           O1  tau(  24) = (   5.2767064   1.4903225   6.0039473  )
        25           Ti1 tau(  25) = (   0.0000382   5.9609847   6.0000000  )
        26           Ti1 tau(  26) = (   3.2902200   4.4714249   6.0002472  )
        27           O1  tau(  27) = (   0.0002396   2.9813036   7.9858123  )
        28           O1  tau(  28) = (   3.2902150   2.9813002   7.3038282  )
        29           O1  tau(  29) = (   4.5938453   4.4726049   9.2879030  )
        30           O1  tau(  30) = (   1.9864658   4.4711199   9.2879459  )
        31           Ti1 tau(  31) = (   3.2891106   5.8743827   9.1763621  )
        32           Ti1 tau(  32) = (   0.0006254   4.4649316   9.2693709  )
        33           O1  tau(  33) = (   3.3047253   2.9863606  11.3412877  )
        34           O1  tau(  34) = (   0.0092240   2.9805883  10.6323155  )
        35           O1  tau(  35) = (   1.3023160   4.4818153  12.6295520  )
        36           O1  tau(  36) = (   5.2910779   4.4839738  12.6480862  )
        37           Ti1 tau(  37) = (   0.0306270   0.0097343  12.5156175  )
        38           Ti1 tau(  38) = (   3.3295341   4.4791655  12.4867326  )
        39           O1  tau(  39) = (   0.0319336   2.9935560  14.7343221  )
        40           O1  tau(  40) = (   3.2835893   3.0037955  13.9224844  )
        41           O1  tau(  41) = (   4.5669158   4.4809188  16.1713821  )
        42           O1  tau(  42) = (   2.0542530   4.4668402  16.2247519  )
        43           Ti1 tau(  43) = (   3.3000170   0.0150779  15.7669526  )
        44           Ti1 tau(  44) = (   0.0416703   4.6955124  16.1636639  )
        45           O1  tau(  45) = (   3.2900926   2.9813045   4.7018136  )
        46           O1  tau(  46) = (   1.3039711   4.4726057   6.0039043  )
        47           O1  tau(  47) = (   5.2763189   4.4711207   6.0039473  )
        48           N1  tau(  48) = (   0.9019483   2.4226080  18.4567899  )
        49           N1  tau(  49) = (   6.4923839   2.9153054  17.5348467  )
        50           C1  tau(  50) = (   1.2734633   3.3482217  19.5544901  )
        51           H1  tau(  51) = (   0.3921683   3.5464126  20.1615046  )
        52           H1  tau(  52) = (   2.0553077   2.8833093  20.1573268  )
        53           H1  tau(  53) = (   1.6239766   4.2728770  19.1044814  )
        54           H1  tau(  54) = (   0.5870980   1.4942747  18.7832689  )
        55           H1  tau(  55) = (   5.6083569   2.8486818  18.0159164  )
        56           H1  tau(  56) = (   1.7025450   2.1792920  17.8234971  )

     number of k points=    10  Fermi-Dirac smearing, width (Ry)=  0.0073
                       cart. coord. in units 2pi/alat
        k(    1) = (   0.0000000   0.0000000   0.0000000), wk =   0.1250000
        k(    2) = (   0.0000000   0.0419351   0.0000000), wk =   0.2500000
        k(    3) = (   0.0000000  -0.0838702   0.0000000), wk =   0.1250000
        k(    4) = (   0.0379955   0.0000049   0.0000000), wk =   0.2500000
        k(    5) = (   0.0379955   0.0419400   0.0000000), wk =   0.2500000
        k(    6) = (   0.0379955  -0.0838652   0.0000000), wk =   0.2500000
        k(    7) = (   0.0379955  -0.0419301   0.0000000), wk =   0.2500000
        k(    8) = (  -0.0759910  -0.0000099   0.0000000), wk =   0.1250000
        k(    9) = (  -0.0759910   0.0419252   0.0000000), wk =   0.2500000
        k(   10) = (  -0.0759910  -0.0838800   0.0000000), wk =   0.1250000

     Initial potential from superposition of free atoms

     starting charge  381.99914, renormalised to  398.00000

     negative rho (up, down):  1.484E-02 0.000E+00

     %%%%%%%%%%%%%%%%%%%%%%%%%%%%%%%%%%%%%%%%%%%%%%%%%%%%%%%%%%%%%%%%%%%%%%%%
     %                                                                      %
     % You are using vdW-DF, which was implemented by the Thonhauser group. %
     % Please cite the following two papers that made this development      %
     % possible and the two reviews that describe the various versions:     %
     %                                                                      %
     %   T. Thonhauser et al., PRL 115, 136402 (2015).                      %
     %   T. Thonhauser et al., PRB 76, 125112 (2007).                       %
     %   K. Berland et al., Rep. Prog. Phys. 78, 066501 (2015).             %
     %   D.C. Langreth et al., J. Phys.: Condens. Matter 21, 084203 (2009). %
     %                                                                      %
     %                                                                      %
     % If you are calculating the stress with vdW-DF, please also cite:     %
     %                                                                      %
     %   R. Sabatini et al., J. Phys.: Condens. Matter 24, 424209 (2012).   %
     %                                                                      %
     %%%%%%%%%%%%%%%%%%%%%%%%%%%%%%%%%%%%%%%%%%%%%%%%%%%%%%%%%%%%%%%%%%%%%%%%

     Adding external electric field

     Computed dipole along edir(3) :
        Dipole              -10.9106 Ry au,        -27.7320 Debye
        Dipole field         -0.0206 Ry au,

        Potential amp.        1.9086 Ry
        Total length         46.3494 bohr

     Starting wfcs are  302 atomic wfcs
  @ DRIVER MODE: Message from server: STATUS
  @ DRIVER MODE: Message from server: POSDATA
  @ DRIVER MODE: Reading and sharing cell
  @ DRIVER MODE: Reading and sharing positions
  @ DRIVER MODE: Received positions

     Self-consistent Calculation

     iteration #  1     ecut=    29.40 Ry     beta= 0.05
     Davidson diagonalization with overlap
     c_bands:  5 eigenvalues not converged
     c_bands:  4 eigenvalues not converged
     c_bands:  1 eigenvalues not converged
     c_bands:  2 eigenvalues not converged
     c_bands:  3 eigenvalues not converged
     c_bands:  4 eigenvalues not converged
     c_bands:  4 eigenvalues not converged
     ethr =  1.00E-05,  avg # of iterations = 24.5

[...]

     total energy              =   -2445.33135869 Ry
     estimated scf accuracy    <    5568.65769743 Ry

     iteration #  2     ecut=    29.40 Ry     beta= 0.05
     Davidson diagonalization with overlap
     ethr =  1.00E-02,  avg # of iterations = 23.0

[...]

     iteration # 82     ecut=    29.40 Ry     beta= 0.05
     Davidson diagonalization with overlap
     ethr =  6.54E-11,  avg # of iterations =  9.1

[...]

     total energy              =   -2942.84142188 Ry
     estimated scf accuracy    <       0.00000009 Ry

     iteration # 84     ecut=    29.40 Ry     beta= 0.05
     Davidson diagonalization with overlap
     c_bands:  1 eigenvalues not converged
     ethr =  2.33E-11,  avg # of iterations = 14.1

     negative rho (up, down):  1.046E-02 0.000E+00

     Adding external electric field

     Computed dipole along edir(3) :
        Dipole                1.5790 Ry au,          4.0133 Debye
        Dipole field          0.0030 Ry au,

        Potential amp.       -0.2762 Ry
        Total length         46.3494 bohr

     End of self-consistent calculation

          k = 0.0000 0.0000 0.0000 ( 18029 PWs)   bands (ev):

   -55.0907 -55.0553 -55.0516 -55.0212 -54.9679 -54.9654 -54.9280 -54.8912
   -54.8827 -54.8686 -54.8555 -54.8504 -54.8045 -54.7598 -54.0655 -54.0314
   -31.6647 -31.5448 -31.4549 -31.4251 -31.3859 -31.3815 -31.3798 -31.3503
   -31.3476 -31.3457 -31.3025 -31.3006 -31.2998 -31.2653 -31.2470 -31.2275
   -31.2077 -31.2041 -31.1947 -31.1930 -31.1664 -31.1490 -31.1475 -31.1216
   -31.1120 -31.0981 -31.0960 -31.0933 -31.0894 -31.0766 -31.0716 -31.0645
   -31.0517 -31.0411 -31.0231 -31.0144 -31.0069 -31.0020 -30.9967 -30.9908
   -30.9870 -30.9525 -30.4739 -30.3822 -30.3600 -30.2905 -30.2038 -30.0928
   -19.1698 -15.9337 -15.6592 -15.5365 -15.3260 -15.2764 -15.2034 -15.0082
   -14.9437 -14.8875 -14.8772 -14.8657 -14.8487 -14.7775 -14.6985 -14.6179
   -14.6154 -14.6091 -14.5979 -14.5799 -14.5727 -14.5101 -14.5029 -14.4710
   -14.4589 -14.4188 -14.3118 -14.2299 -14.1731 -14.0230 -13.3540 -12.5681
   -12.4511 -11.1206  -7.8869  -6.5529  -5.8766  -4.1160  -3.9442  -3.2789
    -3.0942  -3.0719  -3.0090  -2.9840  -2.8097  -2.7596  -2.5621  -2.4481
    -2.3607  -2.3217  -2.3095  -2.2927  -2.1435  -2.0749  -2.0404  -1.9940
    -1.9696  -1.9468  -1.9054  -1.8977  -1.8672  -1.8491  -1.8408  -1.6633
    -1.5879  -1.5409  -1.5094  -1.4708  -1.4213  -1.3934  -1.3745  -1.3698
    -1.3647  -1.3457  -1.3141  -1.2530  -1.2260  -1.1688  -1.1004  -1.0739
    -0.9840  -0.9019  -0.7144  -0.6691  -0.6511  -0.6149  -0.5547  -0.5070
    -0.4718  -0.4369  -0.4231  -0.3573  -0.2872  -0.2549  -0.1924  -0.1278
    -0.1173  -0.0543  -0.0476   0.1143   0.1262   0.1474   0.2385   0.3250
     0.3728   0.3809   0.4392   0.5133   0.5354   0.5451   0.5815   0.6019
     0.6787   0.7878   0.8125   0.8541   0.8658   0.8994   0.9222   0.9769
     1.0007   1.0636   1.0699   1.1741   1.2212   1.2561   1.5061   1.5391
     1.8696   1.9030   1.9570   2.1436   2.5309   2.5780   4.0174   4.0801
     4.0934   4.1432   4.1664   4.1851   4.2575   4.4782   4.5034   4.5095
     4.5171

[...]

          k = 0.0380-0.0419 0.0000 ( 17876 PWs)   bands (ev):

[...]

          k =-0.0760-0.0000 0.0000 ( 17886 PWs)   bands (ev):

[...]

          k =-0.0760-0.0839 0.0000 ( 17948 PWs)   bands (ev):

   -55.0786 -55.0635 -55.0382 -55.0382 -54.9648 -54.9543 -54.9390 -54.8742
   -54.8715 -54.8707 -54.8685 -54.8663 -54.7985 -54.7657 -54.0485 -54.0483
   -31.4723 -31.4627 -31.3999 -31.3600 -31.3600 -31.3585 -31.3311 -31.3310
   -31.2998 -31.2958 -31.2909 -31.2848 -31.2601 -31.2250 -31.2179 -31.2118
   -31.2098 -31.2060 -31.2051 -31.1962 -31.1643 -31.1631 -31.1594 -31.1573
   -31.1572 -31.1544 -31.1500 -31.1337 -31.1082 -31.1045 -31.0991 -31.0892
   -31.0871 -31.0853 -31.0841 -31.0683 -31.0498 -31.0485 -31.0381 -31.0326
   -31.0080 -30.9914 -30.3727 -30.3726 -30.2866 -30.2864 -30.2472 -30.2472
   -19.1658 -15.4169 -15.3266 -15.1784 -15.1589 -15.1096 -15.0615 -15.0451
   -15.0277 -14.9715 -14.9320 -14.8862 -14.8375 -14.7944 -14.7922 -14.7537
   -14.6816 -14.6601 -14.6580 -14.6435 -14.5925 -14.5818 -14.5543 -14.5355
   -14.5304 -14.4873 -14.4278 -14.4242 -14.3853 -14.2069 -13.3645 -12.5529
   -12.5524 -11.1230  -7.8970  -6.5368  -5.8657  -4.0874  -3.9379  -2.6858
    -2.5867  -2.5403  -2.4202  -2.3333  -2.2930  -2.2588  -2.1238  -2.1043
    -2.0857  -2.0595  -2.0467  -2.0125  -2.0051  -1.9566  -1.9275  -1.9172
    -1.9108  -1.8979  -1.8757  -1.8283  -1.8054  -1.7957  -1.7863  -1.7476
    -1.7337  -1.7017  -1.6958  -1.6569  -1.6354  -1.5504  -1.4612  -1.4214
    -1.3713  -1.3063  -1.2716  -1.2649  -1.1719  -1.1636  -1.1404  -1.1070
    -1.0619  -0.9414  -0.8841  -0.8212  -0.8170  -0.8042  -0.6971  -0.6601
    -0.6295  -0.5937  -0.5575  -0.5263  -0.4881  -0.4410  -0.3645  -0.3335
    -0.2948  -0.2577  -0.1857  -0.0973  -0.0783  -0.0470  -0.0428   0.0422
     0.0682   0.1064   0.1158   0.1350   0.1916   0.2048   0.2919   0.3819
     0.4460   0.5345   0.6480   0.6525   0.7299   0.8219   0.9085   0.9475
     0.9990   1.0647   1.0663   1.1005   1.2220   1.2292   1.3507   1.3895
     1.3982   1.4206   2.3160   2.3171   2.3980   2.3983   4.1464   4.2441
     4.2832   4.3244   4.3773   4.5218   4.5450   4.5903   4.5908   4.6616
     4.6749

     the Fermi energy is     4.0640 ev

!    total energy              =   -2942.84142842 Ry
     estimated scf accuracy    <       0.00000006 Ry
     smearing contrib. (-TS)   =      -0.03725094 Ry
     internal energy E=F+TS    =   -2942.80417749 Ry

     The total energy is F=E-TS. E is the sum of the following terms:
     one-electron contribution =  -23856.62308477 Ry
     hartree contribution      =   12023.64141472 Ry
     xc contribution           =    -487.76323894 Ry
     ewald contribution        =    9377.93602664 Ry
     electric field correction =       0.00470486 Ry

     convergence has been achieved in  84 iterations

     Forces acting on atoms (cartesian axes, Ry/au):

     atom    1 type  1   force =     0.00001669   -0.00023639    0.09431971
     atom    2 type  1   force =    -0.00015615   -0.00053571   -0.17710823
     atom    3 type  2   force =     0.00001846   -0.00024476   -0.02146794
     atom    4 type  2   force =    -0.00001565   -0.00167602    0.05642910
     atom    5 type  2   force =    -0.01048465   -0.00075129    0.00563199
     atom    6 type  2   force =     0.01225109   -0.00009553    0.00552218
     atom    7 type  1   force =    -0.00024171    0.00107127   -0.01570340
     atom    8 type  1   force =    -0.00006821    0.00524959    0.00655479
     atom    9 type  2   force =    -0.00030431    0.00055783    0.00023242
     atom   10 type  2   force =    -0.00199776    0.00266106   -0.00433655
     atom   11 type  2   force =     0.00040754   -0.00022102    0.00029169
     atom   12 type  2   force =    -0.00008753   -0.00028825   -0.00018373
     atom   13 type  1   force =    -0.00073146    0.00044831   -0.00007546
     atom   14 type  1   force =     0.00037581   -0.00016825    0.00002667
     atom   15 type  2   force =    -0.00019090   -0.00057275   -0.00034147
     atom   16 type  2   force =     0.00005092    0.00037647   -0.00030363
     atom   17 type  2   force =     0.00087123    0.00018004    0.00042689
     atom   18 type  2   force =    -0.00016441    0.00007788   -0.00016367
     atom   19 type  1   force =     0.00033537    0.00077502    0.00039938
     atom   20 type  1   force =    -0.00048383    0.00018552    0.00050374
     atom   21 type  2   force =    -0.00002094   -0.00011272    0.10363338
     atom   22 type  2   force =     0.00016780    0.00032957    0.00040757
     atom   23 type  2   force =    -0.07090642   -0.00021257   -0.02719596
     atom   24 type  2   force =     0.07070597    0.00024000   -0.02724454
     atom   25 type  1   force =     0.00001959   -0.00027185    0.09398645
     atom   26 type  1   force =    -0.00025253   -0.00056516   -0.17738002
     atom   27 type  2   force =     0.00005946   -0.00008045   -0.02060330
     atom   28 type  2   force =     0.00002497   -0.00136508    0.05572223
     atom   29 type  2   force =    -0.01079052   -0.00000324    0.00592582
     atom   30 type  2   force =     0.01247981    0.00028492    0.00577617
     atom   31 type  1   force =    -0.00017120    0.00516781   -0.01628065
     atom   32 type  1   force =    -0.00008845   -0.00625370    0.00668928
     atom   33 type  2   force =    -0.00009551   -0.00047711    0.00026108
     atom   34 type  2   force =    -0.00163451    0.00066681   -0.00772980
     atom   35 type  2   force =    -0.00032274    0.00005569    0.00043431
     atom   36 type  2   force =     0.00057391    0.00005551   -0.00005674
     atom   37 type  1   force =    -0.00082590   -0.00078202   -0.00011478
     atom   38 type  1   force =     0.00048165    0.00001324    0.00043121
     atom   39 type  2   force =    -0.00028292   -0.00021352    0.00063322
     atom   40 type  2   force =    -0.00005673   -0.00018851   -0.00022451
     atom   41 type  2   force =     0.00016726   -0.00047538    0.00030050
     atom   42 type  2   force =    -0.00021291   -0.00028071    0.00050471
     atom   43 type  1   force =     0.00001877   -0.00068834   -0.00017869
     atom   44 type  1   force =     0.00027558    0.00042596    0.00026889
     atom   45 type  2   force =    -0.00002362   -0.00011741    0.10365475
     atom   46 type  2   force =    -0.07091457   -0.00014348   -0.02716727
     atom   47 type  2   force =     0.07071946    0.00027897   -0.02724057
     atom   48 type  3   force =     0.00091142    0.00098750    0.00003458
     atom   49 type  3   force =     0.01247515   -0.00030223   -0.00471649
     atom   50 type  4   force =     0.00072435   -0.00006144   -0.00018868
     atom   51 type  5   force =     0.00021111   -0.00053062    0.00067781
     atom   52 type  5   force =    -0.00044713    0.00040332    0.00007434
     atom   53 type  5   force =     0.00042643   -0.00045205    0.00024890
     atom   54 type  5   force =     0.00015604   -0.00023281   -0.00004187
     atom   55 type  5   force =    -0.01349734   -0.00110604    0.00595047
     atom   56 type  5   force =     0.00054467   -0.00078589    0.00009370

     Total force =     0.366206     Total SCF correction =     0.000610
  @ DRIVER MODE: Message from server: STATUS
  @ DRIVER MODE: Message from server: GETFORCE
  @ DRIVER MODE: Returning v,forces,stress,ensemble

     Writing output data file ./calc.save/
  @ DRIVER MODE: Message from server: EXIT
  @ DRIVE MODE: Exiting

     General routines

     Parallel routines

   This run was terminated on:  13: 6:31   9Sep2021

   JOB DONE.