     Program PWSCF v.6.7GPU starts on 23Sep2021 at  5: 6:14

     R & G space division:  proc/nbgrp/npool/nimage =      10
     Reading input from /storage/home/hcoda1/3/ntian30/research/carbon/CxH_vib/H2O_calc/ads_slab/CHNNHHHO_a/out_0039/pw.inp
Warning: card &CELL ignored
Warning: card   CELL_DYNAMICS='IPI', ignored
Warning: card / ignored

     Current dimensions of program PWSCF are:
     Max number of different atomic species (ntypx) = 10
     Max number of k-points (npk) =  40000
     Max angular momentum in pseudopotentials (lmaxx) =  3
     Presently no symmetry can be used with electric field

     Message from routine cell_base_init:
     DEPRECATED: use true lattice parameter, not A to a.u. conversion factor

     IMPORTANT: XC functional enforced from input :
     Exchange-correlation= BEEF-VDW
                           (   1   4  43  14   2   0   0)
     Any further DFT definition will be discarded
     Please, verify this is what you really want

  @ DRIVER MODE: Connecting to
 qe_1139763_2937315.sched-torque.pace.gatech.edukakb89r7_scratch
  using UNIX socket
  @ DRIVER MODE: Message from server: STATUS
  @ DRIVER MODE: Message from server: INIT
  @ DRIVER MODE: Receiving replica           0          -1
  @ DRIVER MODE: Receiving encoded integer          25
  @ DRIVER MODE:  SCF:  T  FORCE:  T  STRESS:  F  VC:  F  ENSEMBLE:  F
  @ DRIVER MODE:  SCF:  T  FORCE:  T  STRESS:  F  VC:  F  ENSEMBLE:  F

     Using Slab Decomposition

     bravais-lattice index     =            0
     lattice parameter (alat)  =       1.8897  a.u.
     unit-cell volume          =    6658.9804 (a.u.)^3
     number of atoms/cell      =           55
     number of atomic types    =            5
     number of electrons       =       402.00
     number of Kohn-Sham states=          211
     kinetic-energy cutoff     =      29.3995  Ry
     charge density cutoff     =     293.9946  Ry
     scf convergence threshold =      7.3E-08
     mixing beta               =       0.0500
     number of iterations used =            8  plain     mixing
     Exchange-correlation= BEEF-VDW
                           (   1   4  43  14   2   0   0)

     celldm(1)=   1.889726  celldm(2)=   0.000000  celldm(3)=   0.000000
     celldm(4)=   0.000000  celldm(5)=   0.000000  celldm(6)=   0.000000

     crystal axes: (cart. coord. in units of alat)
               a(1) = (   6.579727   0.000000   0.000000 )
               a(2) = (  -0.000775   5.961596   0.000000 )
               a(3) = (   0.000000   0.000000  25.155947 )

     reciprocal axes: (cart. coord. in units 2 pi/alat)
               b(1) = (  0.151982  0.000020  0.000000 )
               b(2) = (  0.000000  0.167740  0.000000 )
               b(3) = (  0.000000  0.000000  0.039752 )

     PseudoPot. # 1 for Ti read from file:
     /storage/coda1/p-amedford6/0/shared/rich_project_chbe-medford/medford-share/data/pseudos_module/espresso/nninc/pbe/van/Ti.UPF
     MD5 check sum: 8e4df49b7f0d34bbd5052bf3f5ea0213
     Pseudo is Ultrasoft, Zval = 12.0
     Generated by new atomic code, or converted to UPF format
     Using radial grid of  851 points,  6 beta functions with:
                l(1) =   0
                l(2) =   0
                l(3) =   1
                l(4) =   1
                l(5) =   2
                l(6) =   2
     Q(r) pseudized with  8 coefficients,  rinner =    1.000   1.000   1.000
                                                       1.000   1.000

     PseudoPot. # 2 for O  read from file:
     /storage/coda1/p-amedford6/0/shared/rich_project_chbe-medford/medford-share/data/pseudos_module/espresso/nninc/pbe/van/O.UPF
     MD5 check sum: 78c19812648e8988a0fe644b0f25305e
     Pseudo is Ultrasoft, Zval =  6.0
     Generated by new atomic code, or converted to UPF format
     Using radial grid of  737 points,  4 beta functions with:
                l(1) =   0
                l(2) =   0
                l(3) =   1
                l(4) =   1
     Q(r) pseudized with  8 coefficients,  rinner =    0.800   0.800   0.800

     PseudoPot. # 3 for N  read from file:
     /storage/coda1/p-amedford6/0/shared/rich_project_chbe-medford/medford-share/data/pseudos_module/espresso/nninc/pbe/van/N.UPF
     MD5 check sum: 90d10febe142ad51ac9d5be1deb811c4
     Pseudo is Ultrasoft, Zval =  5.0
     Generated by new atomic code, or converted to UPF format
     Using radial grid of  729 points,  4 beta functions with:
                l(1) =   0
                l(2) =   0
                l(3) =   1
                l(4) =   1
     Q(r) pseudized with  8 coefficients,  rinner =    0.800   0.800   0.800

     PseudoPot. # 4 for C  read from file:
     /storage/coda1/p-amedford6/0/shared/rich_project_chbe-medford/medford-share/data/pseudos_module/espresso/nninc/pbe/van/C.UPF
     MD5 check sum: 1a69bf6b8db32088f5b2163dbdb77a27
     Pseudo is Ultrasoft, Zval =  4.0
     Generated by new atomic code, or converted to UPF format
     Using radial grid of  721 points,  4 beta functions with:
                l(1) =   0
                l(2) =   0
                l(3) =   1
                l(4) =   1
     Q(r) pseudized with  8 coefficients,  rinner =    0.800   0.800   0.800

     PseudoPot. # 5 for H  read from file:
     /storage/coda1/p-amedford6/0/shared/rich_project_chbe-medford/medford-share/data/pseudos_module/espresso/nninc/pbe/van/H.UPF
     MD5 check sum: b5ee9d7bfd3a09ee7748110bda690ff7
     Pseudo is Ultrasoft, Zval =  1.0
     Generated by new atomic code, or converted to UPF format
     Using radial grid of  615 points,  1 beta functions with:
                l(1) =   0
     Q(r) pseudized with  8 coefficients,  rinner =    0.800

     atomic species   valence    mass     pseudopotential
        Ti1           12.00    47.86700     Ti( 1.00)
        O1             6.00    15.99900     O ( 1.00)
        N1             5.00    14.00700     N ( 1.00)
        C1             4.00    12.01100     C ( 1.00)
        H1             1.00     1.00800     H ( 1.00)

     No symmetry found

   Cartesian axes

     site n.     atom                  positions (alat units)
         1           Ti1 tau(   1) = (   0.0004258   2.9801865   6.0000000  )
         2           Ti1 tau(   2) = (   3.2906075   1.4906267   6.0002472  )
         3           O1  tau(   3) = (   0.0006271   0.0005054   7.9858123  )
         4           O1  tau(   4) = (   3.2906025   0.0005020   7.3038282  )
         5           O1  tau(   5) = (   4.5942328   1.4918067   9.2879030  )
         6           O1  tau(   6) = (   1.9868534   1.4903216   9.2879459  )
         7           Ti1 tau(   7) = (   3.2907910   2.8959150   9.1758416  )
         8           Ti1 tau(   8) = (   0.0015273   1.4827037   9.2680791  )
         9           O1  tau(   9) = (   3.3019041   5.9340972  11.2780832  )
        10           O1  tau(  10) = (   0.0116148   5.9584955  10.6183126  )
        11           O1  tau(  11) = (   1.2869077   1.4717189  12.6473688  )
        12           O1  tau(  12) = (   5.3188397   1.4655789  12.6430575  )
        13           Ti1 tau(  13) = (   0.0521173   3.0639968  12.7333969  )
        14           Ti1 tau(  14) = (   3.2906581   1.3001642  12.6471297  )
        15           O1  tau(  15) = (   0.0021475   5.9326859  14.6872502  )
        16           O1  tau(  16) = (   3.3040199   0.0265785  13.8678754  )
        17           O1  tau(  17) = (   4.6240569   1.6264218  16.1080407  )
        18           O1  tau(  18) = (   2.0715169   1.5429601  15.9546445  )
        19           Ti1 tau(  19) = (   3.3363059   2.9874148  15.6109769  )
        20           Ti1 tau(  20) = (   0.0492893   1.4028208  15.7974426  )
        21           O1  tau(  21) = (   3.2904802   0.0005063   4.7018136  )
        22           O1  tau(  22) = (   0.0944532   0.0627470  17.1934044  )
        23           O1  tau(  23) = (   1.3043587   1.4918075   6.0039043  )
        24           O1  tau(  24) = (   5.2767064   1.4903225   6.0039473  )
        25           Ti1 tau(  25) = (   0.0000382   5.9609847   6.0000000  )
        26           Ti1 tau(  26) = (   3.2902200   4.4714249   6.0002472  )
        27           O1  tau(  27) = (   0.0002396   2.9813036   7.9858123  )
        28           O1  tau(  28) = (   3.2902150   2.9813002   7.3038282  )
        29           O1  tau(  29) = (   4.5938453   4.4726049   9.2879030  )
        30           O1  tau(  30) = (   1.9864658   4.4711199   9.2879459  )
        31           Ti1 tau(  31) = (   3.2891106   5.8743827   9.1763621  )
        32           Ti1 tau(  32) = (   0.0006254   4.4649316   9.2693709  )
        33           O1  tau(  33) = (   3.3033179   3.0104581  11.2528581  )
        34           O1  tau(  34) = (   0.0092240   2.9805883  10.6323155  )
        35           O1  tau(  35) = (   1.3074756   4.4469578  12.6382572  )
        36           O1  tau(  36) = (   5.3202433   4.4545580  12.6357595  )
        37           Ti1 tau(  37) = (   6.5572640   0.0741000  12.5519234  )
        38           Ti1 tau(  38) = (   3.3179412   4.3950854  12.4030220  )
        39           O1  tau(  39) = (   0.0383827   2.9948909  14.7437145  )
        40           O1  tau(  40) = (   3.3238341   2.9662938  13.8354460  )
        41           O1  tau(  41) = (   4.5722604   4.5101538  15.9256862  )
        42           O1  tau(  42) = (   2.0839069   4.4665637  16.0501180  )
        43           Ti1 tau(  43) = (   3.2507700   5.9423238  16.2547716  )
        44           Ti1 tau(  44) = (   6.5063516   4.5631136  16.2071476  )
        45           O1  tau(  45) = (   3.2900926   2.9813045   4.7018136  )
        46           O1  tau(  46) = (   1.3039711   4.4726057   6.0039043  )
        47           O1  tau(  47) = (   5.2763189   4.4711207   6.0039473  )
        48           N1  tau(  48) = (   0.4124544   2.9287237  17.8391456  )
        49           C1  tau(  49) = (   1.3780350   3.0145335  18.6736463  )
        50           H1  tau(  50) = (   2.3027514   2.5668077  18.2879847  )
        51           N1  tau(  51) = (   5.7762606   3.6115528  18.1636368  )
        52           H1  tau(  52) = (   5.8537390   4.1179332  19.0469945  )
        53           H1  tau(  53) = (   5.0130290   2.9392956  18.1702355  )
        54           O1  tau(  54) = (   3.2882145   0.0016813  18.0866318  )
        55           H1  tau(  55) = (   2.5950809   5.5738040  18.6371346  )

     number of k points=    10  Fermi-Dirac smearing, width (Ry)=  0.0073
                       cart. coord. in units 2pi/alat
        k(    1) = (   0.0000000   0.0000000   0.0000000), wk =   0.1250000
        k(    2) = (   0.0000000   0.0419351   0.0000000), wk =   0.2500000
        k(    3) = (   0.0000000  -0.0838702   0.0000000), wk =   0.1250000
        k(    4) = (   0.0379955   0.0000049   0.0000000), wk =   0.2500000
        k(    5) = (   0.0379955   0.0419400   0.0000000), wk =   0.2500000
        k(    6) = (   0.0379955  -0.0838652   0.0000000), wk =   0.2500000
        k(    7) = (   0.0379955  -0.0419301   0.0000000), wk =   0.2500000
        k(    8) = (  -0.0759910  -0.0000099   0.0000000), wk =   0.1250000
        k(    9) = (  -0.0759910   0.0419252   0.0000000), wk =   0.2500000
        k(   10) = (  -0.0759910  -0.0838800   0.0000000), wk =   0.1250000

     Initial potential from superposition of free atoms

     starting charge  385.99915, renormalised to  402.00000

     negative rho (up, down):  1.703E-02 0.000E+00

     %%%%%%%%%%%%%%%%%%%%%%%%%%%%%%%%%%%%%%%%%%%%%%%%%%%%%%%%%%%%%%%%%%%%%%%%
     %                                                                      %
     % You are using vdW-DF, which was implemented by the Thonhauser group. %
     % Please cite the following two papers that made this development      %
     % possible and the two reviews that describe the various versions:     %
     %                                                                      %
     %   T. Thonhauser et al., PRL 115, 136402 (2015).                      %
     %   T. Thonhauser et al., PRB 76, 125112 (2007).                       %
     %   K. Berland et al., Rep. Prog. Phys. 78, 066501 (2015).             %
     %   D.C. Langreth et al., J. Phys.: Condens. Matter 21, 084203 (2009). %
     %                                                                      %
     %                                                                      %
     % If you are calculating the stress with vdW-DF, please also cite:     %
     %                                                                      %
     %   R. Sabatini et al., J. Phys.: Condens. Matter 24, 424209 (2012).   %
     %                                                                      %
     %%%%%%%%%%%%%%%%%%%%%%%%%%%%%%%%%%%%%%%%%%%%%%%%%%%%%%%%%%%%%%%%%%%%%%%%

     Adding external electric field

     Computed dipole along edir(3) :
        Dipole              -11.1544 Ry au,        -28.3516 Debye
        Dipole field         -0.0210 Ry au,

        Potential amp.        1.9513 Ry
        Total length         46.3494 bohr

     Starting wfcs are  304 atomic wfcs
  @ DRIVER MODE: Message from server: STATUS
  @ DRIVER MODE: Message from server: POSDATA
  @ DRIVER MODE: Reading and sharing cell
  @ DRIVER MODE: Reading and sharing positions
  @ DRIVER MODE: Received positions

     Self-consistent Calculation

     iteration #  1     ecut=    29.40 Ry     beta= 0.05
     Davidson diagonalization with overlap
     c_bands:  2 eigenvalues not converged
     c_bands:  3 eigenvalues not converged
     c_bands:  1 eigenvalues not converged
     c_bands:  5 eigenvalues not converged
     c_bands:  1 eigenvalues not converged
     c_bands:  5 eigenvalues not converged
     c_bands:  3 eigenvalues not converged
     ethr =  1.00E-05,  avg # of iterations = 27.6

[...]

     total energy              =   -2400.31794062 Ry
     estimated scf accuracy    <    6416.10331515 Ry

     iteration #  2     ecut=    29.40 Ry     beta= 0.05
     Davidson diagonalization with overlap
     ethr =  1.00E-02,  avg # of iterations = 24.7

[...]

     iteration # 49     ecut=    29.40 Ry     beta= 0.05
     Davidson diagonalization with overlap
     c_bands:  1 eigenvalues not converged
     c_bands:  1 eigenvalues not converged
     ethr =  6.04E-07,  avg # of iterations = 10.6

[...]

     total energy              =   -2972.60992911 Ry
     estimated scf accuracy    <       0.00000015 Ry

     iteration # 74     ecut=    29.40 Ry     beta= 0.05
     Davidson diagonalization with overlap
     ethr =  3.72E-11,  avg # of iterations =  7.8

     negative rho (up, down):  1.638E-02 0.000E+00

     Adding external electric field

     Computed dipole along edir(3) :
        Dipole                0.2197 Ry au,          0.5584 Debye
        Dipole field          0.0004 Ry au,

        Potential amp.       -0.0384 Ry
        Total length         46.3494 bohr

     End of self-consistent calculation

          k = 0.0000 0.0000 0.0000 ( 18029 PWs)   bands (ev):

   -56.4667 -56.4329 -56.0100 -55.9741 -55.7584 -55.7039 -55.6458 -55.6378
   -55.6041 -55.5132 -55.5062 -55.4505 -55.4068 -55.2829 -55.2108 -55.1768
   -32.9132 -32.7580 -32.7307 -32.6265 -32.5377 -32.5342 -32.4915 -32.2417
   -32.2277 -32.2057 -32.1589 -32.1538 -32.1282 -32.1086 -32.0249 -32.0117
   -31.9930 -31.9796 -31.9619 -31.9234 -31.9193 -31.9099 -31.9063 -31.8839
   -31.8648 -31.8631 -31.8596 -31.8059 -31.7890 -31.7690 -31.7468 -31.7225
   -31.7103 -31.6947 -31.6775 -31.6732 -31.6449 -31.6059 -31.5964 -31.5767
   -31.5477 -31.5458 -31.5221 -31.5143 -31.4910 -31.4250 -31.3407 -31.2286
   -17.9075 -16.7383 -16.4954 -16.4034 -16.2038 -16.0129 -15.9196 -15.9043
   -15.8847 -15.7642 -15.7634 -15.6123 -15.5319 -15.4766 -15.4141 -15.4027
   -15.3337 -15.3167 -15.2533 -15.2257 -15.2129 -15.1865 -15.1385 -15.0765
   -15.0659 -15.0393 -14.8524 -14.8278 -14.8122 -14.6273 -14.5342 -13.7082
   -13.5965 -13.2146  -7.8375  -6.1738  -4.2623  -4.2544  -4.1483  -3.9335
    -3.7344  -3.6728  -3.5764  -3.4342  -3.4037  -3.1614  -3.1461  -3.1045
    -3.0158  -2.9882  -2.9614  -2.9012  -2.8430  -2.8234  -2.7631  -2.6857
    -2.6831  -2.6731  -2.6417  -2.6189  -2.5155  -2.4755  -2.4133  -2.3739
    -2.3478  -2.3374  -2.2980  -2.2431  -2.2155  -2.1632  -2.1455  -2.0647
    -2.0345  -1.9475  -1.8873  -1.8699  -1.8163  -1.7587  -1.7539  -1.6987
    -1.5675  -1.4574  -1.3905  -1.3488  -1.2951  -1.2393  -1.2091  -1.1542
    -1.0895  -1.0661  -1.0432  -1.0061  -0.9456  -0.9162  -0.8697  -0.8157
    -0.7401  -0.6716  -0.6260  -0.6057  -0.4993  -0.4340  -0.3963  -0.3800
    -0.3434  -0.2892  -0.2340  -0.1942  -0.1836  -0.1605  -0.1000   0.0237
     0.0335   0.0934   0.1482   0.1822   0.1948   0.2099   0.2717   0.3375
     0.4134   0.4559   0.4687   0.5265   0.5922   0.6293   0.7451   0.8137
     0.8385   0.8808   0.9561   1.0323   1.0483   1.3547   1.3681   1.3974
     2.5153   2.7684   2.8993   3.0786   3.1994   3.3344   3.6531   3.6701
     3.6819   3.7025   3.7942

[...]

          k = 0.0380-0.0419 0.0000 ( 17876 PWs)   bands (ev):

[...]

          k =-0.0760-0.0000 0.0000 ( 17886 PWs)   bands (ev):

[...]

          k =-0.0760-0.0839 0.0000 ( 17948 PWs)   bands (ev):

   -56.4500 -56.4495 -55.9984 -55.9856 -55.7525 -55.7097 -55.6371 -55.6363
   -55.6125 -55.5109 -55.5076 -55.4488 -55.4089 -55.2845 -55.1943 -55.1932
   -32.7437 -32.7433 -32.7294 -32.7292 -32.5791 -32.5782 -32.3203 -32.3093
   -32.1902 -32.1840 -32.1758 -32.1742 -32.0603 -32.0278 -31.9813 -31.9742
   -31.9609 -31.9564 -31.9475 -31.9395 -31.9362 -31.9283 -31.9088 -31.8717
   -31.8631 -31.8576 -31.8546 -31.8402 -31.8208 -31.7956 -31.7822 -31.7720
   -31.7254 -31.7089 -31.7012 -31.6809 -31.6507 -31.6320 -31.6304 -31.6007
   -31.5500 -31.5354 -31.5346 -31.4950 -31.4216 -31.4203 -31.3835 -31.3826
   -17.8982 -16.4788 -16.1440 -16.1331 -16.0154 -16.0098 -15.8575 -15.8373
   -15.8192 -15.7455 -15.6812 -15.6599 -15.5121 -15.4995 -15.4631 -15.4274
   -15.3993 -15.3620 -15.3576 -15.3339 -15.3020 -15.2351 -15.2145 -15.1896
   -15.1790 -15.1026 -14.9231 -14.8996 -14.8968 -14.8221 -14.6837 -13.7002
   -13.6992 -13.2258  -7.8018  -6.1038  -4.3791  -4.0979  -3.3146  -3.2506
    -3.1755  -3.1396  -3.1292  -3.0567  -3.0413  -2.9265  -2.8980  -2.8591
    -2.8328  -2.8224  -2.8022  -2.7514  -2.7292  -2.6842  -2.6676  -2.6657
    -2.6343  -2.5941  -2.5739  -2.5508  -2.5401  -2.4704  -2.4406  -2.3976
    -2.3808  -2.3690  -2.3220  -2.2614  -2.2427  -2.1868  -2.1744  -2.1416
    -2.1048  -2.0442  -2.0053  -1.9632  -1.8653  -1.8443  -1.7763  -1.6582
    -1.6371  -1.5531  -1.5249  -1.5037  -1.4813  -1.4037  -1.3715  -1.3379
    -1.2504  -1.2238  -1.2157  -1.1894  -1.1562  -1.1317  -1.0748  -1.0124
    -0.9173  -0.8537  -0.8426  -0.8229  -0.7843  -0.7574  -0.7168  -0.6243
    -0.6032  -0.5679  -0.5579  -0.5169  -0.4042  -0.3780  -0.2282  -0.1904
    -0.1010  -0.0742  -0.0555  -0.0125   0.1091   0.1359   0.1867   0.2071
     0.2660   0.3110   0.3602   0.4524   0.5540   0.5666   0.6974   0.7244
     0.7451   0.8188   0.9504   0.9926   1.2080   1.2126   1.2143   1.2165
     2.4948   3.3211   3.3236   3.3569   3.3692   3.5723   3.5924   3.7182
     3.8026   3.8119   3.8335

     the Fermi energy is     2.6950 ev

!    total energy              =   -2972.60994487 Ry
     estimated scf accuracy    <       0.00000007 Ry
     smearing contrib. (-TS)   =      -0.01174962 Ry
     internal energy E=F+TS    =   -2972.59819526 Ry

     The total energy is F=E-TS. E is the sum of the following terms:
     one-electron contribution =  -24036.65389617 Ry
     hartree contribution      =   12109.72260150 Ry
     xc contribution           =    -493.07964572 Ry
     ewald contribution        =    9447.41265407 Ry
     electric field correction =       0.00009107 Ry

     convergence has been achieved in  74 iterations

     Forces acting on atoms (cartesian axes, Ry/au):

     atom    1 type  1   force =    -0.00003756   -0.00046707    0.10841220
     atom    2 type  1   force =     0.00001630    0.00008736   -0.16405358
     atom    3 type  2   force =     0.00013189    0.00046916   -0.04119032
     atom    4 type  2   force =     0.00009447   -0.00056718    0.03215321
     atom    5 type  2   force =    -0.00380542   -0.00332843   -0.00777180
     atom    6 type  2   force =     0.00586480   -0.00273724   -0.00759697
     atom    7 type  1   force =     0.00017228   -0.00552039    0.03628886
     atom    8 type  1   force =     0.00012911    0.02544197    0.06348835
     atom    9 type  2   force =     0.00013926    0.00039669    0.00014598
     atom   10 type  2   force =    -0.00195278    0.00076047   -0.03777054
     atom   11 type  2   force =     0.00010442   -0.00016073   -0.00016607
     atom   12 type  2   force =    -0.00074063    0.00019847   -0.00017529
     atom   13 type  1   force =     0.00045075    0.00046289    0.00084577
     atom   14 type  1   force =    -0.00056180   -0.00026948    0.00014544
     atom   15 type  2   force =    -0.00012758    0.00005621    0.00081919
     atom   16 type  2   force =    -0.00013724    0.00030491   -0.00011728
     atom   17 type  2   force =    -0.00110524    0.00040337    0.00017025
     atom   18 type  2   force =     0.00072085   -0.00030476   -0.00000341
     atom   19 type  1   force =     0.00028075   -0.00044046    0.00006006
     atom   20 type  1   force =    -0.00053520   -0.00003296   -0.00022360
     atom   21 type  2   force =     0.00009669    0.00018825    0.10012176
     atom   22 type  2   force =    -0.00011755   -0.00027061    0.00038472
     atom   23 type  2   force =    -0.07740726    0.00001696   -0.03032336
     atom   24 type  2   force =     0.07740179    0.00043540   -0.03036471
     atom   25 type  1   force =    -0.00001447   -0.00031654    0.10860008
     atom   26 type  1   force =    -0.00004074   -0.00110424   -0.16409012
     atom   27 type  2   force =     0.00011612   -0.00017732   -0.03920212
     atom   28 type  2   force =     0.00011584    0.00118019    0.02836833
     atom   29 type  2   force =    -0.00230930    0.00468332   -0.01050144
     atom   30 type  2   force =     0.00438552    0.00496543   -0.01046030
     atom   31 type  1   force =     0.00005610    0.00318445    0.01912160
     atom   32 type  1   force =     0.00036289   -0.02766233    0.06523123
     atom   33 type  2   force =    -0.00003491   -0.00078323   -0.00040966
     atom   34 type  2   force =    -0.00062764    0.00086102   -0.05567152
     atom   35 type  2   force =    -0.00035862   -0.00023398   -0.00026332
     atom   36 type  2   force =    -0.00006245   -0.00003366   -0.00018689
     atom   37 type  1   force =     0.00029463   -0.00053997    0.00008756
     atom   38 type  1   force =    -0.00036856   -0.00014604    0.00025971
     atom   39 type  2   force =    -0.00016818    0.00030569   -0.00012018
     atom   40 type  2   force =    -0.00016854   -0.00027256   -0.00030689
     atom   41 type  2   force =    -0.00021711    0.00016480   -0.00020909
     atom   42 type  2   force =    -0.00066309   -0.00016581   -0.00036020
     atom   43 type  1   force =     0.00039153   -0.00035989    0.00021287
     atom   44 type  1   force =    -0.00036318    0.00019783   -0.00064960
     atom   45 type  2   force =     0.00010183    0.00001484    0.09994310
     atom   46 type  2   force =    -0.07743957   -0.00001332   -0.03033256
     atom   47 type  2   force =     0.07745901    0.00041821   -0.03037166
     atom   48 type  3   force =    -0.00023225    0.00001773   -0.00010496
     atom   49 type  4   force =    -0.00006575   -0.00021327   -0.00058185
     atom   50 type  5   force =    -0.00019450   -0.00010179   -0.00019990
     atom   51 type  3   force =     0.00103570   -0.00083600   -0.00003106
     atom   52 type  5   force =     0.00020748    0.00023587   -0.00038273
     atom   53 type  5   force =     0.00010289    0.00075643    0.00003307
     atom   54 type  2   force =     0.00639034    0.00475530   -0.00581442
     atom   55 type  5   force =    -0.00676614   -0.00390396    0.00511407

     Total force =     0.383100     Total SCF correction =     0.000777
  @ DRIVER MODE: Message from server: STATUS
  @ DRIVER MODE: Message from server: GETFORCE
  @ DRIVER MODE: Returning v,forces,stress,ensemble

     Writing output data file ./calc.save/
  @ DRIVER MODE: Message from server: EXIT
  @ DRIVE MODE: Exiting

     General routines

     Parallel routines

   This run was terminated on:   5:25:56  23Sep2021

   JOB DONE.