     Program PWSCF v.6.7GPU starts on 15Sep2021 at 22:53:23

     R & G space division:  proc/nbgrp/npool/nimage =      10
     Reading input from /storage/home/hcoda1/3/ntian30/research/carbon/CxH_vib/H2O_calc/ads_slab/CHOH2O_a/out_0023/pw.inp
Warning: card &CELL ignored
Warning: card   CELL_DYNAMICS='IPI', ignored
Warning: card / ignored

     Current dimensions of program PWSCF are:
     Max number of different atomic species (ntypx) = 10
     Max number of k-points (npk) =  40000
     Max angular momentum in pseudopotentials (lmaxx) =  3
     Presently no symmetry can be used with electric field

     Message from routine cell_base_init:
     DEPRECATED: use true lattice parameter, not A to a.u. conversion factor

     IMPORTANT: XC functional enforced from input :
     Exchange-correlation= BEEF-VDW
                           (   1   4  43  14   2   0   0)
     Any further DFT definition will be discarded
     Please, verify this is what you really want

  @ DRIVER MODE: Connecting to
 qe_1139763_2852631.sched-torque.pace.gatech.edu82yo84yp_scratch
  using UNIX socket
  @ DRIVER MODE: Message from server: STATUS
  @ DRIVER MODE: Message from server: INIT
  @ DRIVER MODE: Receiving replica           0          -1
  @ DRIVER MODE: Receiving encoded integer          25
  @ DRIVER MODE:  SCF:  T  FORCE:  T  STRESS:  F  VC:  F  ENSEMBLE:  F
  @ DRIVER MODE:  SCF:  T  FORCE:  T  STRESS:  F  VC:  F  ENSEMBLE:  F

     Using Slab Decomposition

     bravais-lattice index     =            0
     lattice parameter (alat)  =       1.8897  a.u.
     unit-cell volume          =    6658.9804 (a.u.)^3
     number of atoms/cell      =           53
     number of atomic types    =            4
     number of electrons       =       397.00
     number of Kohn-Sham states=          208
     kinetic-energy cutoff     =      29.3995  Ry
     charge density cutoff     =     293.9946  Ry
     scf convergence threshold =      7.3E-08
     mixing beta               =       0.0500
     number of iterations used =            8  plain     mixing
     Exchange-correlation= BEEF-VDW
                           (   1   4  43  14   2   0   0)

     celldm(1)=   1.889726  celldm(2)=   0.000000  celldm(3)=   0.000000
     celldm(4)=   0.000000  celldm(5)=   0.000000  celldm(6)=   0.000000

     crystal axes: (cart. coord. in units of alat)
               a(1) = (   6.579727   0.000000   0.000000 )
               a(2) = (  -0.000775   5.961596   0.000000 )
               a(3) = (   0.000000   0.000000  25.155947 )

     reciprocal axes: (cart. coord. in units 2 pi/alat)
               b(1) = (  0.151982  0.000020  0.000000 )
               b(2) = (  0.000000  0.167740  0.000000 )
               b(3) = (  0.000000  0.000000  0.039752 )

     PseudoPot. # 1 for O  read from file:
     /storage/coda1/p-amedford6/0/shared/rich_project_chbe-medford/medford-share/data/pseudos_module/espresso/nninc/pbe/van/O.UPF
     MD5 check sum: 78c19812648e8988a0fe644b0f25305e
     Pseudo is Ultrasoft, Zval =  6.0
     Generated by new atomic code, or converted to UPF format
     Using radial grid of  737 points,  4 beta functions with:
                l(1) =   0
                l(2) =   0
                l(3) =   1
                l(4) =   1
     Q(r) pseudized with  8 coefficients,  rinner =    0.800   0.800   0.800

     PseudoPot. # 2 for Ti read from file:
     /storage/coda1/p-amedford6/0/shared/rich_project_chbe-medford/medford-share/data/pseudos_module/espresso/nninc/pbe/van/Ti.UPF
     MD5 check sum: 8e4df49b7f0d34bbd5052bf3f5ea0213
     Pseudo is Ultrasoft, Zval = 12.0
     Generated by new atomic code, or converted to UPF format
     Using radial grid of  851 points,  6 beta functions with:
                l(1) =   0
                l(2) =   0
                l(3) =   1
                l(4) =   1
                l(5) =   2
                l(6) =   2
     Q(r) pseudized with  8 coefficients,  rinner =    1.000   1.000   1.000
                                                       1.000   1.000

     PseudoPot. # 3 for C  read from file:
     /storage/coda1/p-amedford6/0/shared/rich_project_chbe-medford/medford-share/data/pseudos_module/espresso/nninc/pbe/van/C.UPF
     MD5 check sum: 1a69bf6b8db32088f5b2163dbdb77a27
     Pseudo is Ultrasoft, Zval =  4.0
     Generated by new atomic code, or converted to UPF format
     Using radial grid of  721 points,  4 beta functions with:
                l(1) =   0
                l(2) =   0
                l(3) =   1
                l(4) =   1
     Q(r) pseudized with  8 coefficients,  rinner =    0.800   0.800   0.800

     PseudoPot. # 4 for H  read from file:
     /storage/coda1/p-amedford6/0/shared/rich_project_chbe-medford/medford-share/data/pseudos_module/espresso/nninc/pbe/van/H.UPF
     MD5 check sum: b5ee9d7bfd3a09ee7748110bda690ff7
     Pseudo is Ultrasoft, Zval =  1.0
     Generated by new atomic code, or converted to UPF format
     Using radial grid of  615 points,  1 beta functions with:
                l(1) =   0
     Q(r) pseudized with  8 coefficients,  rinner =    0.800

     atomic species   valence    mass     pseudopotential
        O1             6.00    15.99900     O ( 1.00)
        Ti1           12.00    47.86700     Ti( 1.00)
        C1             4.00    12.01100     C ( 1.00)
        H1             1.00     1.00800     H ( 1.00)

     No symmetry found

   Cartesian axes

     site n.     atom                  positions (alat units)
         1           O1  tau(   1) = (   3.2904802   0.0005063   4.7018136  )
         2           O1  tau(   2) = (   3.2900926   2.9813045   4.7018136  )
         3           Ti1 tau(   3) = (   0.0004258   2.9801865   6.0000000  )
         4           Ti1 tau(   4) = (   0.0000382   5.9609847   6.0000000  )
         5           Ti1 tau(   5) = (   3.2906075   1.4906267   6.0002472  )
         6           Ti1 tau(   6) = (   3.2902200   4.4714249   6.0002472  )
         7           O1  tau(   7) = (   1.3043587   1.4918075   6.0039043  )
         8           O1  tau(   8) = (   1.3039711   4.4726057   6.0039043  )
         9           O1  tau(   9) = (   5.2767064   1.4903225   6.0039473  )
        10           O1  tau(  10) = (   5.2763189   4.4711207   6.0039473  )
        11           O1  tau(  11) = (   3.2906025   0.0005020   7.3038282  )
        12           O1  tau(  12) = (   3.2902150   2.9813002   7.3038282  )
        13           O1  tau(  13) = (   0.0006271   0.0005054   7.9858123  )
        14           O1  tau(  14) = (   0.0002396   2.9813036   7.9858123  )
        15           Ti1 tau(  15) = (   3.2898052   0.0549011   9.1556235  )
        16           Ti1 tau(  16) = (   3.3203827   3.0319468   9.1649589  )
        17           Ti1 tau(  17) = (   0.0233352   4.5284096   9.2575609  )
        18           Ti1 tau(  18) = (   0.0173867   1.6076536   9.3607995  )
        19           O1  tau(  19) = (   4.5942328   1.4918067   9.2879030  )
        20           O1  tau(  20) = (   4.5938453   4.4726049   9.2879030  )
        21           O1  tau(  21) = (   1.9868534   1.4903216   9.2879459  )
        22           O1  tau(  22) = (   1.9864658   4.4711199   9.2879459  )
        23           O1  tau(  23) = (   0.0034721   0.0125384  10.6021848  )
        24           O1  tau(  24) = (   0.0020335   2.9928551  10.5785608  )
        25           O1  tau(  25) = (   3.2937812   2.9995440  11.3622203  )
        26           O1  tau(  26) = (   3.2898347   0.0201518  11.3605052  )
        27           Ti1 tau(  27) = (   0.0300534   0.0302837  12.4945235  )
        28           Ti1 tau(  28) = (   3.3347356   4.5017157  12.5123549  )
        29           Ti1 tau(  29) = (   3.3349302   1.5071924  12.5110355  )
        30           Ti1 tau(  30) = (   0.0295963   3.0145660  12.7881340  )
        31           O1  tau(  31) = (   1.2797855   4.4923438  12.6426172  )
        32           O1  tau(  32) = (   1.2799313   1.5104473  12.6443552  )
        33           O1  tau(  33) = (   5.2866386   4.4922094  12.6434695  )
        34           O1  tau(  34) = (   5.2866683   1.5083124  12.6439979  )
        35           O1  tau(  35) = (   3.2814828   3.0070543  13.9178409  )
        36           O1  tau(  36) = (   3.2867003   0.0227894  13.9786966  )
        37           O1  tau(  37) = (   0.0021618   0.0175046  14.6784646  )
        38           O1  tau(  38) = (   0.0002945   3.0143855  14.7103493  )
        39           Ti1 tau(  39) = (   3.2869621   3.0144872  15.7052805  )
        40           Ti1 tau(  40) = (   3.3044863   0.0423327  15.8215216  )
        41           Ti1 tau(  41) = (   0.0135451   4.5796903  15.9522020  )
        42           Ti1 tau(  42) = (   0.0105102   1.3838334  15.9764479  )
        43           O1  tau(  43) = (   4.5519026   4.4709862  16.0573678  )
        44           O1  tau(  44) = (   4.5564327   1.5473262  16.0430495  )
        45           O1  tau(  45) = (   2.0152543   1.5518810  16.0555283  )
        46           O1  tau(  46) = (   2.0123771   4.4621050  16.0713562  )
        47           O1  tau(  47) = (   0.0008539   0.0298781  17.1953024  )
        48           O1  tau(  48) = (   6.5358978   3.0350243  17.4695059  )
        49           C1  tau(  49) = (   6.3916590   3.0774531  18.7359330  )
        50           H1  tau(  50) = (   6.4332689   2.0249999  19.1325638  )
        51           O1  tau(  51) = (   3.2941481   0.0813851  18.1711625  )
        52           H1  tau(  52) = (   4.0521942   5.5777154  18.5714528  )
        53           H1  tau(  53) = (   2.4879692   5.6555715  18.5615442  )

     number of k points=    10  Fermi-Dirac smearing, width (Ry)=  0.0073
                       cart. coord. in units 2pi/alat
        k(    1) = (   0.0000000   0.0000000   0.0000000), wk =   0.1250000
        k(    2) = (   0.0000000   0.0419351   0.0000000), wk =   0.2500000
        k(    3) = (   0.0000000  -0.0838702   0.0000000), wk =   0.1250000
        k(    4) = (   0.0379955   0.0000049   0.0000000), wk =   0.2500000
        k(    5) = (   0.0379955   0.0419400   0.0000000), wk =   0.2500000
        k(    6) = (   0.0379955  -0.0838652   0.0000000), wk =   0.2500000
        k(    7) = (   0.0379955  -0.0419301   0.0000000), wk =   0.2500000
        k(    8) = (  -0.0759910  -0.0000099   0.0000000), wk =   0.1250000
        k(    9) = (  -0.0759910   0.0419252   0.0000000), wk =   0.2500000
        k(   10) = (  -0.0759910  -0.0838800   0.0000000), wk =   0.1250000

     Initial potential from superposition of free atoms

     starting charge  380.99918, renormalised to  397.00000

     negative rho (up, down):  1.752E-02 0.000E+00

     %%%%%%%%%%%%%%%%%%%%%%%%%%%%%%%%%%%%%%%%%%%%%%%%%%%%%%%%%%%%%%%%%%%%%%%%
     %                                                                      %
     % You are using vdW-DF, which was implemented by the Thonhauser group. %
     % Please cite the following two papers that made this development      %
     % possible and the two reviews that describe the various versions:     %
     %                                                                      %
     %   T. Thonhauser et al., PRL 115, 136402 (2015).                      %
     %   T. Thonhauser et al., PRB 76, 125112 (2007).                       %
     %   K. Berland et al., Rep. Prog. Phys. 78, 066501 (2015).             %
     %   D.C. Langreth et al., J. Phys.: Condens. Matter 21, 084203 (2009). %
     %                                                                      %
     %                                                                      %
     % If you are calculating the stress with vdW-DF, please also cite:     %
     %                                                                      %
     %   R. Sabatini et al., J. Phys.: Condens. Matter 24, 424209 (2012).   %
     %                                                                      %
     %%%%%%%%%%%%%%%%%%%%%%%%%%%%%%%%%%%%%%%%%%%%%%%%%%%%%%%%%%%%%%%%%%%%%%%%

     Adding external electric field

     Computed dipole along edir(3) :
        Dipole               -8.9443 Ry au,        -22.7341 Debye
        Dipole field         -0.0169 Ry au,

        Potential amp.        1.5647 Ry
        Total length         46.3494 bohr

     Starting wfcs are  299 atomic wfcs
  @ DRIVER MODE: Message from server: STATUS
  @ DRIVER MODE: Message from server: POSDATA
  @ DRIVER MODE: Reading and sharing cell
  @ DRIVER MODE: Reading and sharing positions
  @ DRIVER MODE: Received positions

     Self-consistent Calculation

     iteration #  1     ecut=    29.40 Ry     beta= 0.05
     Davidson diagonalization with overlap
     c_bands:  1 eigenvalues not converged
     c_bands:  1 eigenvalues not converged
     c_bands:  1 eigenvalues not converged
     c_bands:  2 eigenvalues not converged
     ethr =  1.00E-05,  avg # of iterations = 19.1

[...]

     total energy              =   -2583.20038438 Ry
     estimated scf accuracy    <    4233.39485384 Ry

     iteration #  2     ecut=    29.40 Ry     beta= 0.05
     Davidson diagonalization with overlap
     ethr =  1.00E-02,  avg # of iterations = 23.6

[...]

     iteration # 91     ecut=    29.40 Ry     beta= 0.05
     Davidson diagonalization with overlap
     c_bands:  1 eigenvalues not converged
     c_bands:  2 eigenvalues not converged
     ethr =  4.23E-11,  avg # of iterations = 17.3

[...]

     total energy              =   -2963.67529183 Ry
     estimated scf accuracy    <       0.00000011 Ry

     iteration # 93     ecut=    29.40 Ry     beta= 0.05
     Davidson diagonalization with overlap
     ethr =  2.88E-11,  avg # of iterations =  2.9

     negative rho (up, down):  1.623E-02 0.000E+00

     Adding external electric field

     Computed dipole along edir(3) :
        Dipole                0.4699 Ry au,          1.1944 Debye
        Dipole field          0.0009 Ry au,

        Potential amp.       -0.0822 Ry
        Total length         46.3494 bohr

     End of self-consistent calculation

          k = 0.0000 0.0000 0.0000 ( 18029 PWs)   bands (ev):

   -56.0099 -55.9732 -55.9730 -55.9509 -55.9371 -55.8929 -55.8589 -55.8247
   -55.7928 -55.7877 -55.7769 -55.7510 -55.7433 -55.6833 -55.0192 -54.9851
   -32.5262 -32.4806 -32.4028 -32.3698 -32.3601 -32.3058 -32.2863 -32.2747
   -32.2554 -32.2426 -32.2040 -32.1965 -32.1867 -32.1684 -32.1670 -32.1555
   -32.1290 -32.1155 -32.1026 -32.1016 -32.0815 -32.0731 -32.0677 -32.0613
   -32.0472 -32.0388 -32.0359 -32.0243 -32.0082 -31.9983 -31.9945 -31.9814
   -31.9618 -31.9552 -31.9525 -31.9499 -31.9214 -31.9036 -31.8937 -31.8824
   -31.8697 -31.8658 -31.4287 -31.3328 -31.3105 -31.2452 -31.1590 -31.0480
   -19.4358 -19.0977 -16.7303 -16.4694 -16.3093 -16.1909 -16.1424 -15.9257
   -15.8418 -15.7916 -15.7040 -15.6282 -15.5997 -15.5822 -15.5492 -15.5351
   -15.5286 -15.5068 -15.4551 -15.4385 -15.4167 -15.4112 -15.3997 -15.3800
   -15.2991 -15.2256 -15.1635 -15.1317 -15.0591 -15.0196 -14.9820 -13.5204
   -13.4024  -7.8954  -6.8686  -4.6574  -4.0911  -3.9502  -3.9271  -3.8980
    -3.8316  -3.6842  -3.6144  -3.4741  -3.3127  -3.3017  -3.1816  -3.1452
    -3.1205  -3.0524  -3.0349  -2.9741  -2.8454  -2.8317  -2.8212  -2.8036
    -2.7929  -2.7496  -2.7271  -2.6918  -2.6498  -2.5840  -2.5126  -2.4873
    -2.4123  -2.4065  -2.3688  -2.3137  -2.3080  -2.2827  -2.2691  -2.2432
    -2.1925  -2.1781  -2.1672  -2.0635  -1.9760  -1.8650  -1.7034  -1.6772
    -1.6738  -1.5506  -1.5022  -1.4478  -1.4154  -1.4136  -1.3639  -1.3152
    -1.2688  -1.2501  -1.1455  -1.0319  -0.9995  -0.9415  -0.9134  -0.7884
    -0.7374  -0.7315  -0.7220  -0.7139  -0.6920  -0.6204  -0.5065  -0.4330
    -0.4241  -0.3334  -0.3110  -0.2986  -0.2400  -0.2307  -0.2093  -0.1548
    -0.1094  -0.0628  -0.0458  -0.0161   0.0215   0.0261   0.1564   0.2061
     0.2353   0.2554   0.2934   0.4621   0.5066   0.6363   0.7423   0.9123
     1.0045   1.0698   1.1791   1.5901   1.6474   2.8432   3.1674   3.2119
     3.2253   3.2398   3.3024   3.4048   3.5503   3.6205   3.6350   3.6703

[...]

          k = 0.0380-0.0419 0.0000 ( 17876 PWs)   bands (ev):

[...]

          k =-0.0760-0.0000 0.0000 ( 17886 PWs)   bands (ev):

[...]

          k =-0.0760-0.0839 0.0000 ( 17948 PWs)   bands (ev):

   -55.9986 -55.9842 -55.9563 -55.9540 -55.9489 -55.8809 -55.8710 -55.8203
   -55.7896 -55.7894 -55.7620 -55.7585 -55.7552 -55.6860 -55.0027 -55.0015
   -32.3411 -32.3205 -32.3153 -32.3048 -32.2922 -32.2890 -32.2692 -32.2418
   -32.2330 -32.2225 -32.2129 -32.2061 -32.1644 -32.1537 -32.1464 -32.1361
   -32.1229 -32.1187 -32.1138 -32.1121 -32.1082 -32.1065 -32.0890 -32.0848
   -32.0844 -32.0779 -32.0718 -32.0446 -32.0278 -32.0220 -32.0141 -32.0121
   -32.0040 -31.9912 -31.9797 -31.9734 -31.9709 -31.9680 -31.9575 -31.9442
   -31.9102 -31.8796 -31.3239 -31.3224 -31.2421 -31.2410 -31.2026 -31.2015
   -19.4273 -19.0970 -16.1827 -16.0756 -16.0666 -15.8919 -15.8780 -15.8554
   -15.8127 -15.8031 -15.7104 -15.7076 -15.6640 -15.6507 -15.6246 -15.5903
   -15.5852 -15.5247 -15.5238 -15.5193 -15.4637 -15.4584 -15.4367 -15.4216
   -15.3994 -15.3898 -15.3446 -15.3331 -15.2699 -15.2010 -15.1881 -13.5049
   -13.5027  -7.8963  -6.8616  -4.6024  -3.7683  -3.4649  -3.3177  -3.2868
    -3.2291  -3.1280  -3.1016  -3.0640  -3.0156  -2.9753  -2.9259  -2.8661
    -2.8429  -2.8392  -2.8283  -2.8224  -2.8034  -2.7967  -2.7571  -2.7327
    -2.7025  -2.6725  -2.6538  -2.6311  -2.6255  -2.6075  -2.5829  -2.5716
    -2.5590  -2.5504  -2.4810  -2.4505  -2.3279  -2.3201  -2.2399  -2.2079
    -2.1461  -2.1393  -2.1166  -2.0742  -2.0656  -2.0504  -1.8756  -1.8511
    -1.7426  -1.7353  -1.7143  -1.6850  -1.5953  -1.5268  -1.4904  -1.4743
    -1.4201  -1.4023  -1.3325  -1.2655  -1.2053  -1.1693  -1.1008  -1.0696
    -1.0537  -0.9765  -0.9665  -0.9319  -0.9053  -0.8869  -0.7681  -0.7614
    -0.7261  -0.6902  -0.6594  -0.6061  -0.5584  -0.5417  -0.5034  -0.4521
    -0.3799  -0.3561  -0.1664   0.0152   0.0219   0.0515   0.1420   0.1813
     0.2997   0.3323   0.3380   0.3728   0.4133   0.5069   0.5295   0.5369
     0.6107   1.3649   1.3658   1.4523   1.4632   2.7103   3.3577   3.4166
     3.4808   3.5165   3.6210   3.6384   3.6532   3.6644   3.7004   3.8048

     the Fermi energy is     3.1407 ev

!    total energy              =   -2963.67529499 Ry
     estimated scf accuracy    <       0.00000007 Ry
     smearing contrib. (-TS)   =      -0.02578499 Ry
     internal energy E=F+TS    =   -2963.64951000 Ry

     The total energy is F=E-TS. E is the sum of the following terms:
     one-electron contribution =  -24426.09571202 Ry
     hartree contribution      =   12300.49852949 Ry
     xc contribution           =    -489.18343002 Ry
     ewald contribution        =    9651.13068582 Ry
     electric field correction =       0.00041672 Ry

     convergence has been achieved in  93 iterations

     Forces acting on atoms (cartesian axes, Ry/au):

     atom    1 type  1   force =    -0.00006439    0.00006619    0.10400001
     atom    2 type  1   force =    -0.00005588    0.00005339    0.10401521
     atom    3 type  2   force =    -0.00018331   -0.00196301    0.10277882
     atom    4 type  2   force =    -0.00008043    0.00160763    0.11469009
     atom    5 type  2   force =    -0.00026145    0.00156039   -0.17902936
     atom    6 type  2   force =    -0.00013946   -0.00104332   -0.17941569
     atom    7 type  1   force =    -0.06953196    0.00065970   -0.02925573
     atom    8 type  1   force =    -0.06908063   -0.00122267   -0.02930349
     atom    9 type  1   force =     0.06920921    0.00118847   -0.02931359
     atom   10 type  1   force =     0.06884105   -0.00085450   -0.02938701
     atom   11 type  1   force =     0.00005865    0.00064432    0.04736530
     atom   12 type  1   force =     0.00063905    0.00089926    0.04973525
     atom   13 type  1   force =     0.00021787   -0.00563419   -0.03310217
     atom   14 type  1   force =     0.00028164    0.00398183   -0.02650718
     atom   15 type  2   force =    -0.00015295   -0.00003503   -0.00070260
     atom   16 type  2   force =    -0.00019798   -0.00005472   -0.00075530
     atom   17 type  2   force =     0.00008657   -0.00094150   -0.00006916
     atom   18 type  2   force =     0.00011655    0.00111005   -0.00008610
     atom   19 type  1   force =    -0.01880140   -0.00005895    0.00452735
     atom   20 type  1   force =    -0.01689666    0.00164628    0.00398288
     atom   21 type  1   force =     0.01838017   -0.00109724    0.00451193
     atom   22 type  1   force =     0.01748966    0.00197544    0.00384125
     atom   23 type  1   force =     0.00018185    0.00006173   -0.00073263
     atom   24 type  1   force =     0.00011347   -0.00022772   -0.00027737
     atom   25 type  1   force =    -0.00031815    0.00015840   -0.00071103
     atom   26 type  1   force =    -0.00019723   -0.00004073   -0.00088690
     atom   27 type  2   force =    -0.00020865    0.00045693    0.00035470
     atom   28 type  2   force =     0.00026792    0.00070518    0.00085582
     atom   29 type  2   force =     0.00028407   -0.00016849    0.00103132
     atom   30 type  2   force =    -0.00019341   -0.00022744    0.00019187
     atom   31 type  1   force =     0.00024421   -0.00007558   -0.00036634
     atom   32 type  1   force =     0.00002853    0.00012092   -0.00009620
     atom   33 type  1   force =    -0.00009539   -0.00017303   -0.00072942
     atom   34 type  1   force =     0.00004723    0.00012164   -0.00042888
     atom   35 type  1   force =     0.00010367   -0.00003798   -0.00118689
     atom   36 type  1   force =     0.00012463   -0.00055064    0.00004043
     atom   37 type  1   force =    -0.00019651    0.00016341    0.00006618
     atom   38 type  1   force =     0.00015742   -0.00003961   -0.00065978
     atom   39 type  2   force =    -0.00009646   -0.00040027    0.00072721
     atom   40 type  2   force =     0.00003218   -0.00092484   -0.00019798
     atom   41 type  2   force =     0.00023776   -0.00082893   -0.00012296
     atom   42 type  2   force =     0.00003243    0.00047960    0.00016310
     atom   43 type  1   force =    -0.00073162   -0.00062251   -0.00005562
     atom   44 type  1   force =    -0.00009094   -0.00006026   -0.00001933
     atom   45 type  1   force =     0.00005011   -0.00022530    0.00008942
     atom   46 type  1   force =     0.00063009   -0.00032683   -0.00012259
     atom   47 type  1   force =    -0.00029845    0.00037169    0.00017377
     atom   48 type  1   force =     0.00012428    0.00051907   -0.00012848
     atom   49 type  3   force =    -0.00007232    0.00000585   -0.00032890
     atom   50 type  4   force =    -0.00056902    0.00071611   -0.00078269
     atom   51 type  1   force =    -0.00048067   -0.00754401    0.00784839
     atom   52 type  4   force =    -0.00355696    0.00291556   -0.00284365
     atom   53 type  4   force =     0.00457198    0.00319028   -0.00338527

     Total force =     0.374589     Total SCF correction =     0.001116
  @ DRIVER MODE: Message from server: STATUS
  @ DRIVER MODE: Message from server: GETFORCE
  @ DRIVER MODE: Returning v,forces,stress,ensemble

     Writing output data file ./calc.save/
  @ DRIVER MODE: Message from server: EXIT
  @ DRIVE MODE: Exiting

     General routines

     Parallel routines

   This run was terminated on:  23:17:49  15Sep2021

   JOB DONE.