     Program PWSCF v.6.7GPU starts on 18Oct2021 at 11:27:12

     R & G space division:  proc/nbgrp/npool/nimage =       8
     Reading input from /storage/home/hcoda1/3/ntian30/research/carbon/CxH_vib/Thiel_calc/ads_slab/NH3_perslab/out_0000/pw.inp
Warning: card &CELL ignored
Warning: card   CELL_DYNAMICS='IPI', ignored
Warning: card / ignored

     Current dimensions of program PWSCF are:
     Max number of different atomic species (ntypx) = 10
     Max number of k-points (npk) =  40000
     Max angular momentum in pseudopotentials (lmaxx) =  3
     Presently no symmetry can be used with electric field

     Message from routine cell_base_init:
     DEPRECATED: use true lattice parameter, not A to a.u. conversion factor

     IMPORTANT: XC functional enforced from input :
     Exchange-correlation= BEEF-VDW
                           (   1   4  43  14   2   0   0)
     Any further DFT definition will be discarded
     Please, verify this is what you really want

  @ DRIVER MODE: Connecting to
 qe_1139763_3255128.sched-torque.pace.gatech.edu7m5gm1ht_scratch
  using UNIX socket
  @ DRIVER MODE: Message from server: STATUS
  @ DRIVER MODE: Message from server: INIT
  @ DRIVER MODE: Receiving replica           0          -1
  @ DRIVER MODE: Receiving encoded integer          25
  @ DRIVER MODE:  SCF:  T  FORCE:  T  STRESS:  F  VC:  F  ENSEMBLE:  F
  @ DRIVER MODE:  SCF:  T  FORCE:  T  STRESS:  F  VC:  F  ENSEMBLE:  F

     Using Slab Decomposition

     bravais-lattice index     =            0
     lattice parameter (alat)  =       1.8897  a.u.
     unit-cell volume          =    9988.4706 (a.u.)^3
     number of atoms/cell      =           57
     number of atomic types    =            4
     number of electrons       =       434.00
     number of Kohn-Sham states=          227
     kinetic-energy cutoff     =      29.3995  Ry
     charge density cutoff     =     293.9946  Ry
     scf convergence threshold =      7.3E-08
     mixing beta               =       0.0500
     number of iterations used =            8  plain     mixing
     Exchange-correlation= BEEF-VDW
                           (   1   4  43  14   2   0   0)

     celldm(1)=   1.889726  celldm(2)=   0.000000  celldm(3)=   0.000000
     celldm(4)=   0.000000  celldm(5)=   0.000000  celldm(6)=   0.000000

     crystal axes: (cart. coord. in units of alat)
               a(1) = (   6.579727   0.000000   0.000000 )
               a(2) = (  -0.001163   8.942395   0.000000 )
               a(3) = (   0.000000   0.000000  25.155947 )

     reciprocal axes: (cart. coord. in units 2 pi/alat)
               b(1) = (  0.151982  0.000020  0.000000 )
               b(2) = (  0.000000  0.111827  0.000000 )
               b(3) = (  0.000000  0.000000  0.039752 )

     PseudoPot. # 1 for O  read from file:
     /storage/coda1/p-amedford6/0/shared/rich_project_chbe-medford/medford-share/data/pseudos_module/espresso/nninc/pbe/van/O.UPF
     MD5 check sum: 78c19812648e8988a0fe644b0f25305e
     Pseudo is Ultrasoft, Zval =  6.0
     Generated by new atomic code, or converted to UPF format
     Using radial grid of  737 points,  4 beta functions with:
                l(1) =   0
                l(2) =   0
                l(3) =   1
                l(4) =   1
     Q(r) pseudized with  8 coefficients,  rinner =    0.800   0.800   0.800

     PseudoPot. # 2 for Ti read from file:
     /storage/coda1/p-amedford6/0/shared/rich_project_chbe-medford/medford-share/data/pseudos_module/espresso/nninc/pbe/van/Ti.UPF
     MD5 check sum: 8e4df49b7f0d34bbd5052bf3f5ea0213
     Pseudo is Ultrasoft, Zval = 12.0
     Generated by new atomic code, or converted to UPF format
     Using radial grid of  851 points,  6 beta functions with:
                l(1) =   0
                l(2) =   0
                l(3) =   1
                l(4) =   1
                l(5) =   2
                l(6) =   2
     Q(r) pseudized with  8 coefficients,  rinner =    1.000   1.000   1.000
                                                       1.000   1.000

     PseudoPot. # 3 for N  read from file:
     /storage/coda1/p-amedford6/0/shared/rich_project_chbe-medford/medford-share/data/pseudos_module/espresso/nninc/pbe/van/N.UPF
     MD5 check sum: 90d10febe142ad51ac9d5be1deb811c4
     Pseudo is Ultrasoft, Zval =  5.0
     Generated by new atomic code, or converted to UPF format
     Using radial grid of  729 points,  4 beta functions with:
                l(1) =   0
                l(2) =   0
                l(3) =   1
                l(4) =   1
     Q(r) pseudized with  8 coefficients,  rinner =    0.800   0.800   0.800

     PseudoPot. # 4 for H  read from file:
     /storage/coda1/p-amedford6/0/shared/rich_project_chbe-medford/medford-share/data/pseudos_module/espresso/nninc/pbe/van/H.UPF
     MD5 check sum: b5ee9d7bfd3a09ee7748110bda690ff7
     Pseudo is Ultrasoft, Zval =  1.0
     Generated by new atomic code, or converted to UPF format
     Using radial grid of  615 points,  1 beta functions with:
                l(1) =   0
     Q(r) pseudized with  8 coefficients,  rinner =    0.800

     atomic species   valence    mass     pseudopotential
        O1             6.00    15.99900     O ( 1.00)
        Ti1           12.00    47.86700     Ti( 1.00)
        N1             5.00    14.00700     N ( 1.00)
        H1             1.00     1.00800     H ( 1.00)

     No symmetry found

   Cartesian axes

     site n.     atom                  positions (alat units)
         1           O1  tau(   1) = (   0.0007354   0.0005023  10.5931620  )
         2           O1  tau(   2) = (   3.2904414   0.0112058  13.8964882  )
         3           O1  tau(   3) = (   0.0005401   0.0771385  17.1949530  )
         4           O1  tau(   4) = (   0.0006271   0.0005054   7.9858123  )
         5           O1  tau(   5) = (   3.2895838   8.9314717  11.1944372  )
         6           O1  tau(   6) = (   0.0004542   0.0037726  14.5839567  )
         7           O1  tau(   7) = (   1.9868534   1.4903216   9.2879459  )
         8           O1  tau(   8) = (   5.2378633   1.6121790  12.5812404  )
         9           O1  tau(   9) = (   2.0187564   1.5175485  16.0920123  )
        10           Ti1 tau(  10) = (   0.0007404   1.4906270   9.2895810  )
        11           Ti1 tau(  11) = (   3.2908292   1.3533612  12.4825321  )
        12           Ti1 tau(  12) = (   6.5791587   1.3318727  15.7218970  )
        13           O1  tau(  13) = (   4.5942328   1.4918067   9.2879030  )
        14           O1  tau(  14) = (   1.3429762   1.6114357  12.5808800  )
        15           O1  tau(  15) = (   4.5614660   1.5177748  16.0924020  )
        16           Ti1 tau(  16) = (   3.2902859   2.9801868   9.2893338  )
        17           Ti1 tau(  17) = (   0.0008758   2.8334547  12.4616519  )
        18           Ti1 tau(  18) = (   3.2892168   3.0031368  15.7199352  )
        19           O1  tau(  19) = (   0.0003479   2.9813005  10.5931620  )
        20           O1  tau(  20) = (   3.2898890   2.9669551  13.9060418  )
        21           O1  tau(  21) = (   0.0002396   2.9813036   7.9858123  )
        22           O1  tau(  22) = (   3.2903741   2.9784362  11.1973051  )
        23           O1  tau(  23) = (   0.0002543   2.9904732  14.7865853  )
        24           O1  tau(  24) = (   1.9864658   4.4711199   9.2879459  )
        25           O1  tau(  25) = (   5.2421976   4.5796938  12.5913975  )
        26           O1  tau(  26) = (   1.9868962   4.3874993  16.0752682  )
        27           Ti1 tau(  27) = (   0.0003529   4.4714252   9.2895810  )
        28           Ti1 tau(  28) = (   3.2909855   4.3334338  12.5384581  )
        29           Ti1 tau(  29) = (  -0.0001346   4.7016419  15.7431722  )
        30           O1  tau(  30) = (   4.5938453   4.4726049   9.2879030  )
        31           O1  tau(  31) = (   1.3385138   4.5792087  12.5910896  )
        32           O1  tau(  32) = (   4.5924143   4.3878248  16.0749966  )
        33           Ti1 tau(  33) = (   3.2898983   5.9609850   9.2893338  )
        34           Ti1 tau(  34) = (   0.0009896   5.8105845  12.4545566  )
        35           Ti1 tau(  35) = (   3.2904027   6.0159751  15.8417138  )
        36           O1  tau(  36) = (  -0.0000397   5.9620987  10.5931620  )
        37           O1  tau(  37) = (   3.2899583   5.9542551  13.9530320  )
        38           O1  tau(  38) = (  -0.0003598   5.9221528  17.2055630  )
        39           O1  tau(  39) = (  -0.0001480   5.9621018   7.9858123  )
        40           O1  tau(  40) = (   3.2900585   5.9465535  11.2077716  )
        41           O1  tau(  41) = (   0.0000491   6.0342996  14.6037136  )
        42           O1  tau(  42) = (   1.9860782   7.4519181   9.2879459  )
        43           O1  tau(  43) = (   5.2346004   7.5551364  12.5649479  )
        44           O1  tau(  44) = (   2.0242992   7.4812189  16.0368393  )
        45           Ti1 tau(  45) = (  -0.0000347   7.4522234   9.2895810  )
        46           Ti1 tau(  46) = (   3.2903849   7.2707884  12.5514019  )
        47           Ti1 tau(  47) = (  -0.0000376   7.4906229  16.2622595  )
        48           O1  tau(  48) = (   4.5934577   7.4534031   9.2879030  )
        49           O1  tau(  49) = (   1.3450914   7.5544588  12.5647554  )
        50           O1  tau(  50) = (   4.5547502   7.4813962  16.0367022  )
        51           Ti1 tau(  51) = (   3.2895107   8.9417832   9.2893338  )
        52           Ti1 tau(  52) = (   0.0003618   8.7732999  12.4519576  )
        53           Ti1 tau(  53) = (   3.2901532   0.0195992  15.7030453  )
        54           N1  tau(  54) = (   3.2894534   5.9569964  18.1695816  )
        55           H1  tau(  55) = (   3.2894156   5.0059420  18.5212279  )
        56           H1  tau(  56) = (   2.4599617   6.4194056  18.5308046  )
        57           H1  tau(  57) = (   4.1186270   6.4195692  18.5314737  )

     number of k points=    10  Fermi-Dirac smearing, width (Ry)=  0.0073
                       cart. coord. in units 2pi/alat
        k(    1) = (   0.0000000   0.0000000   0.0000000), wk =   0.1250000
        k(    2) = (   0.0000000   0.0279567   0.0000000), wk =   0.2500000
        k(    3) = (   0.0000000  -0.0559134   0.0000000), wk =   0.1250000
        k(    4) = (   0.0379955   0.0000049   0.0000000), wk =   0.2500000
        k(    5) = (   0.0379955   0.0279617   0.0000000), wk =   0.2500000
        k(    6) = (   0.0379955  -0.0559085   0.0000000), wk =   0.2500000
        k(    7) = (   0.0379955  -0.0279518   0.0000000), wk =   0.2500000
        k(    8) = (  -0.0759910  -0.0000099   0.0000000), wk =   0.1250000
        k(    9) = (  -0.0759910   0.0279468   0.0000000), wk =   0.2500000
        k(   10) = (  -0.0759910  -0.0559233   0.0000000), wk =   0.1250000

     Initial potential from superposition of free atoms

     starting charge  415.99912, renormalised to  434.00000

     negative rho (up, down):  3.900E-02 0.000E+00

     %%%%%%%%%%%%%%%%%%%%%%%%%%%%%%%%%%%%%%%%%%%%%%%%%%%%%%%%%%%%%%%%%%%%%%%%
     %                                                                      %
     % You are using vdW-DF, which was implemented by the Thonhauser group. %
     % Please cite the following two papers that made this development      %
     % possible and the two reviews that describe the various versions:     %
     %                                                                      %
     %   T. Thonhauser et al., PRL 115, 136402 (2015).                      %
     %   T. Thonhauser et al., PRB 76, 125112 (2007).                       %
     %   K. Berland et al., Rep. Prog. Phys. 78, 066501 (2015).             %
     %   D.C. Langreth et al., J. Phys.: Condens. Matter 21, 084203 (2009). %
     %                                                                      %
     %                                                                      %
     % If you are calculating the stress with vdW-DF, please also cite:     %
     %                                                                      %
     %   R. Sabatini et al., J. Phys.: Condens. Matter 24, 424209 (2012).   %
     %                                                                      %
     %%%%%%%%%%%%%%%%%%%%%%%%%%%%%%%%%%%%%%%%%%%%%%%%%%%%%%%%%%%%%%%%%%%%%%%%

     Adding external electric field

     Computed dipole along edir(3) :
        Dipole               -2.9258 Ry au,         -7.4367 Debye
        Dipole field         -0.0037 Ry au,

        Potential amp.        0.3412 Ry
        Total length         46.3494 bohr

     Starting wfcs are  327 atomic wfcs
  @ DRIVER MODE: Message from server: STATUS
  @ DRIVER MODE: Message from server: POSDATA
  @ DRIVER MODE: Reading and sharing cell
  @ DRIVER MODE: Reading and sharing positions
  @ DRIVER MODE: Received positions

     Self-consistent Calculation

     iteration #  1     ecut=    29.40 Ry     beta= 0.05
     Davidson diagonalization with overlap
     ethr =  1.00E-02,  avg # of iterations =  2.0

[...]

     total energy              =   -3273.17749201 Ry
     estimated scf accuracy    <      15.58990534 Ry

[...]

     iteration #  4     ecut=    29.40 Ry     beta= 0.05
     Davidson diagonalization with overlap
     c_bands:  5 eigenvalues not converged
     c_bands:  2 eigenvalues not converged
     c_bands:  2 eigenvalues not converged
     c_bands:  3 eigenvalues not converged
     c_bands:  3 eigenvalues not converged
     c_bands:  4 eigenvalues not converged
     c_bands:  5 eigenvalues not converged
     c_bands:  4 eigenvalues not converged
     c_bands:  2 eigenvalues not converged
     ethr =  1.09E-03,  avg # of iterations = 19.7

[...]

     iteration # 27     ecut=    29.40 Ry     beta= 0.05
     Davidson diagonalization with overlap
     c_bands:  1 eigenvalues not converged
     ethr =  1.28E-06,  avg # of iterations = 12.5

[...]

     total energy              =   -3272.09862877 Ry
     estimated scf accuracy    <       0.00000008 Ry

     iteration # 50     ecut=    29.40 Ry     beta= 0.05
     Davidson diagonalization with overlap
     ethr =  1.83E-11,  avg # of iterations = 13.7

     negative rho (up, down):  3.686E-02 0.000E+00

     Adding external electric field

     Computed dipole along edir(3) :
        Dipole                1.4017 Ry au,          3.5627 Debye
        Dipole field          0.0018 Ry au,

        Potential amp.       -0.1635 Ry
        Total length         46.3494 bohr

     End of self-consistent calculation

          k = 0.0000 0.0000 0.0000 ( 26871 PWs)   bands (ev):

   -57.9214 -57.9025 -57.8790 -57.8724 -57.8393 -57.7386 -57.7363 -57.7090
   -57.6943 -57.6872 -57.6549 -57.6196 -57.4805 -57.4639 -57.3993 -56.9347
   -56.9099 -56.9081 -34.2873 -34.2851 -34.2799 -34.2405 -34.2302 -34.2121
   -34.2091 -34.1749 -34.1665 -34.1546 -34.1471 -34.1353 -34.1210 -34.1012
   -34.0923 -34.0786 -34.0696 -34.0250 -34.0213 -34.0181 -34.0055 -34.0014
   -33.9957 -33.9938 -33.9802 -33.9514 -33.9257 -33.9219 -33.9213 -33.9210
   -33.9049 -33.9004 -33.8920 -33.8783 -33.8754 -33.8650 -33.8607 -33.8450
   -33.8320 -33.7574 -33.6921 -33.6726 -33.6663 -33.6534 -33.5284 -33.2489
   -33.2482 -33.2465 -33.2318 -33.2304 -33.1614 -33.0979 -33.0960 -32.9612
   -18.7194 -18.3389 -18.1779 -18.1231 -18.0950 -18.0094 -17.9642 -17.9233
   -17.7353 -17.6949 -17.6746 -17.6539 -17.6296 -17.6010 -17.5901 -17.5775
   -17.5549 -17.5459 -17.5444 -17.5184 -17.5072 -17.4322 -17.3792 -17.3527
   -17.3509 -17.3355 -17.3349 -17.3246 -17.2328 -17.1505 -17.0296 -16.9164
   -16.8304 -15.4010 -15.3434 -15.3405  -7.7260  -7.6992  -6.0467  -5.8223
    -5.8098  -5.7024  -5.3362  -5.2706  -5.2546  -5.2481  -5.1887  -5.1711
    -5.1478  -5.1241  -5.0905  -5.0294  -5.0104  -5.0046  -4.9506  -4.8859
    -4.8637  -4.8389  -4.7851  -4.7527  -4.7322  -4.7142  -4.6840  -4.6576
    -4.6102  -4.5915  -4.5507  -4.5411  -4.4637  -4.4289  -4.2896  -4.2346
    -4.2221  -4.1662  -4.1526  -4.1418  -4.0825  -4.0577  -4.0279  -4.0005
    -3.9591  -3.9539  -3.8724  -3.8128  -3.6939  -3.6395  -3.6198  -3.6043
    -3.5205  -3.5069  -3.4570  -3.3269  -3.3219  -3.2498  -3.2267  -3.1835
    -3.1404  -3.0817  -3.0012  -2.9688  -2.9194  -2.8981  -2.8375  -2.7869
    -2.7450  -2.7193  -2.6711  -2.6664  -2.6119  -2.5705  -2.5691  -2.5371
    -2.5103  -2.4648  -2.4562  -2.3967  -2.3606  -2.3166  -2.2537  -2.2409
    -2.2110  -2.1873  -2.1335  -2.1028  -2.0661  -2.0547  -2.0385  -1.9289
    -1.7610  -1.7580  -1.7529  -1.7406  -1.6359  -1.6067  -1.5050  -1.3330
    -1.1308  -0.9770  -0.6881  -0.6397  -0.6382  -0.3720  -0.3697  -0.2395
     1.1087   1.2976   1.3262   1.5237   1.5455   1.5922   1.6844   1.7035
     1.7654   1.8548   1.8625

[...]

          k = 0.0380-0.0280 0.0000 ( 26873 PWs)   bands (ev):

[...]

          k =-0.0760-0.0000 0.0000 ( 26902 PWs)   bands (ev):

[...]

          k =-0.0760-0.0559 0.0000 ( 26868 PWs)   bands (ev):

   -57.9212 -57.8965 -57.8905 -57.8668 -57.8396 -57.7377 -57.7347 -57.7137
   -57.6914 -57.6863 -57.6570 -57.6187 -57.4788 -57.4660 -57.3989 -56.9270
   -56.9252 -56.9005 -34.3759 -34.3326 -34.2574 -34.2331 -34.2313 -34.2231
   -34.2189 -34.1778 -34.1655 -34.1281 -34.1184 -34.0937 -34.0875 -34.0615
   -34.0595 -34.0454 -34.0404 -34.0312 -34.0220 -34.0200 -33.9869 -33.9806
   -33.9773 -33.9748 -33.9573 -33.9562 -33.9503 -33.9500 -33.9436 -33.9292
   -33.9190 -33.9160 -33.9144 -33.9135 -33.8846 -33.8830 -33.8672 -33.8607
   -33.8352 -33.7078 -33.6982 -33.6771 -33.6643 -33.6529 -33.5667 -33.3393
   -33.2476 -33.2462 -33.2225 -33.1410 -33.1389 -33.0753 -33.0591 -33.0571
   -18.3998 -18.3327 -18.0666 -18.0250 -18.0073 -18.0056 -17.9416 -17.9073
   -17.8324 -17.8158 -17.7320 -17.6837 -17.6641 -17.6611 -17.6378 -17.6037
   -17.6023 -17.5886 -17.5795 -17.5429 -17.5364 -17.5230 -17.4981 -17.3985
   -17.3468 -17.3127 -17.2738 -17.2656 -17.2274 -17.1236 -17.0632 -17.0577
   -16.7218 -15.3992 -15.3963 -15.2799  -7.7095  -7.6976  -5.6541  -5.6452
    -5.5893  -5.5212  -5.3392  -5.2144  -5.1899  -5.1865  -5.1066  -5.0714
    -5.0474  -5.0406  -5.0332  -5.0181  -5.0057  -4.9913  -4.9339  -4.8972
    -4.8396  -4.8224  -4.8176  -4.8093  -4.7816  -4.7563  -4.6170  -4.6157
    -4.5579  -4.5386  -4.4498  -4.4454  -4.4012  -4.3983  -4.3565  -4.3092
    -4.2700  -4.2600  -4.0670  -4.0425  -3.9972  -3.9874  -3.9820  -3.9298
    -3.8853  -3.7754  -3.6831  -3.6031  -3.5659  -3.5399  -3.5314  -3.5189
    -3.4854  -3.4428  -3.3908  -3.3779  -3.3636  -3.3451  -3.3200  -3.2650
    -3.1831  -3.1197  -3.0869  -3.0771  -3.0479  -3.0288  -3.0174  -3.0105
    -2.9435  -2.9420  -2.8773  -2.8488  -2.8086  -2.7883  -2.7545  -2.7224
    -2.6559  -2.6393  -2.6125  -2.4773  -2.4525  -2.4466  -2.4285  -2.3990
    -2.3016  -2.1759  -2.1577  -2.1309  -1.9834  -1.9471  -1.9431  -1.9257
    -1.8626  -1.7966  -1.6786  -1.6704  -1.5519  -1.5105  -1.4815  -1.4713
    -1.4612  -1.2577  -0.8502  -0.5724  -0.5554  -0.5294  -0.3715  -0.3694
     1.2440   1.3365   1.3704   1.4023   1.4454   1.4530   1.4672   1.5199
     1.5846   1.6194   1.8390

     the Fermi energy is     1.1859 ev

!    total energy              =   -3272.09873306 Ry
     estimated scf accuracy    <       0.00000004 Ry
     smearing contrib. (-TS)   =      -0.03416334 Ry
     internal energy E=F+TS    =   -3272.06456972 Ry

     The total energy is F=E-TS. E is the sum of the following terms:
     one-electron contribution =  -34227.87205699 Ry
     hartree contribution      =   17175.09249569 Ry
     xc contribution           =    -536.09684440 Ry
     ewald contribution        =   14316.80936426 Ry
     electric field correction =       0.00247172 Ry

     convergence has been achieved in  50 iterations

     Forces acting on atoms (cartesian axes, Ry/au):

     atom    1 type  1   force =     0.00003608    0.00678498    0.05074441
     atom    2 type  1   force =     0.00000733    0.00017775   -0.00010260
     atom    3 type  1   force =     0.00000212    0.00094907    0.00020486
     atom    4 type  1   force =     0.00005959    0.00003247    0.10706737
     atom    5 type  1   force =    -0.00000524   -0.00020710    0.00742200
     atom    6 type  1   force =    -0.00001492   -0.00257240    0.00290687
     atom    7 type  1   force =     0.06678368   -0.00010669   -0.02922276
     atom    8 type  1   force =     0.00532046   -0.02806713    0.00305168
     atom    9 type  1   force =     0.00871287   -0.01017773   -0.00351466
     atom   10 type  2   force =    -0.00005908   -0.00260394   -0.18470305
     atom   11 type  2   force =    -0.00000908    0.02119246   -0.00781283
     atom   12 type  2   force =     0.00005871    0.00854909    0.00651732
     atom   13 type  1   force =    -0.06688373   -0.00055978   -0.02920819
     atom   14 type  1   force =    -0.00535103   -0.02801443    0.00306550
     atom   15 type  1   force =    -0.00876769   -0.01018639   -0.00355671
     atom   16 type  2   force =     0.00011801    0.00034267    0.06938648
     atom   17 type  2   force =    -0.00001038    0.03413207    0.00272897
     atom   18 type  2   force =     0.00003687   -0.00325847   -0.00525684
     atom   19 type  1   force =     0.00003187    0.00400724    0.06217181
     atom   20 type  1   force =     0.00001115    0.00065790   -0.00575404
     atom   21 type  1   force =     0.00006050    0.00057183    0.10773020
     atom   22 type  1   force =     0.00000395   -0.00106913    0.00866104
     atom   23 type  1   force =    -0.00001497    0.00172492    0.00489222
     atom   24 type  1   force =     0.06724829    0.00040356   -0.02917479
     atom   25 type  1   force =     0.00511548   -0.03017032    0.00336792
     atom   26 type  1   force =     0.01019420    0.01538679   -0.00068350
     atom   27 type  2   force =    -0.00006092   -0.00058003   -0.18586798
     atom   28 type  2   force =    -0.00001448    0.02137019   -0.00695429
     atom   29 type  2   force =     0.00000477   -0.01798408   -0.00050934
     atom   30 type  1   force =    -0.06734614   -0.00005066   -0.02916255
     atom   31 type  1   force =    -0.00515630   -0.03010758    0.00337885
     atom   32 type  1   force =    -0.01020920    0.01537849   -0.00067852
     atom   33 type  2   force =     0.00010821   -0.00103068    0.07140754
     atom   34 type  2   force =     0.00000054    0.03677282    0.00393781
     atom   35 type  2   force =    -0.00000526   -0.02102033    0.01017142
     atom   36 type  1   force =     0.00004212    0.00352813    0.05350125
     atom   37 type  1   force =    -0.00000063    0.00214021   -0.00346279
     atom   38 type  1   force =     0.00000449    0.00362072    0.00116243
     atom   39 type  1   force =     0.00005687   -0.00014457    0.10729225
     atom   40 type  1   force =     0.00000075   -0.00048062    0.00806415
     atom   41 type  1   force =    -0.00000419    0.00234506    0.00211393
     atom   42 type  1   force =     0.06750353   -0.00105873   -0.02899817
     atom   43 type  1   force =     0.00379320   -0.02773970    0.00194183
     atom   44 type  1   force =     0.01107282    0.00347716    0.00292478
     atom   45 type  2   force =    -0.00004772   -0.00030014   -0.18503003
     atom   46 type  2   force =     0.00000840    0.01829434   -0.00605167
     atom   47 type  2   force =     0.00000600   -0.00314389   -0.01512362
     atom   48 type  1   force =    -0.06759515   -0.00150605   -0.02898935
     atom   49 type  1   force =    -0.00385768   -0.02768932    0.00195572
     atom   50 type  1   force =    -0.01107277    0.00346039    0.00292816
     atom   51 type  2   force =     0.00012900   -0.00224430    0.07048215
     atom   52 type  2   force =    -0.00003443    0.03273581    0.00639321
     atom   53 type  2   force =     0.00000722    0.01442881    0.00237588
     atom   54 type  3   force =     0.00008819    0.00079448   -0.00043247
     atom   55 type  4   force =    -0.00001417   -0.00061728   -0.00017191
     atom   56 type  4   force =    -0.00001971   -0.00026900    0.00025042
     atom   57 type  4   force =    -0.00007240   -0.00029895    0.00022221

     Total force =     0.455258     Total SCF correction =     0.000346
  @ DRIVER MODE: Message from server: STATUS
  @ DRIVER MODE: Message from server: GETFORCE
  @ DRIVER MODE: Returning v,forces,stress,ensemble

     Writing output data file ./calc.save/
  @ DRIVER MODE: Message from server: EXIT
  @ DRIVE MODE: Exiting

     General routines

     Parallel routines

   This run was terminated on:  11:52:12  18Oct2021

   JOB DONE.