     Program PWSCF v.6.7GPU starts on 22Sep2021 at 17:43:39

     R & G space division:  proc/nbgrp/npool/nimage =      10
     Reading input from /storage/home/hcoda1/3/ntian30/research/carbon/CxH_vib/H2O_calc/ads_slab/CH3NHO_a/out_0004/pw.inp
Warning: card &CELL ignored
Warning: card   CELL_DYNAMICS='IPI', ignored
Warning: card / ignored

     Current dimensions of program PWSCF are:
     Max number of different atomic species (ntypx) = 10
     Max number of k-points (npk) =  40000
     Max angular momentum in pseudopotentials (lmaxx) =  3
     Presently no symmetry can be used with electric field

     Message from routine cell_base_init:
     DEPRECATED: use true lattice parameter, not A to a.u. conversion factor

     IMPORTANT: XC functional enforced from input :
     Exchange-correlation= BEEF-VDW
                           (   1   4  43  14   2   0   0)
     Any further DFT definition will be discarded
     Please, verify this is what you really want

  @ DRIVER MODE: Connecting to
 qe_1139763_2937319.sched-torque.pace.gatech.edux8bbrtf6_scratch
  using UNIX socket
  @ DRIVER MODE: Message from server: STATUS
  @ DRIVER MODE: Message from server: INIT
  @ DRIVER MODE: Receiving replica           0          -1
  @ DRIVER MODE: Receiving encoded integer          25
  @ DRIVER MODE:  SCF:  T  FORCE:  T  STRESS:  F  VC:  F  ENSEMBLE:  F
  @ DRIVER MODE:  SCF:  T  FORCE:  T  STRESS:  F  VC:  F  ENSEMBLE:  F

     Using Slab Decomposition

     bravais-lattice index     =            0
     lattice parameter (alat)  =       1.8897  a.u.
     unit-cell volume          =    6658.9804 (a.u.)^3
     number of atoms/cell      =           54
     number of atomic types    =            5
     number of electrons       =       397.00
     number of Kohn-Sham states=          208
     kinetic-energy cutoff     =      29.3995  Ry
     charge density cutoff     =     293.9946  Ry
     scf convergence threshold =      7.3E-08
     mixing beta               =       0.0500
     number of iterations used =            8  plain     mixing
     Exchange-correlation= BEEF-VDW
                           (   1   4  43  14   2   0   0)

     celldm(1)=   1.889726  celldm(2)=   0.000000  celldm(3)=   0.000000
     celldm(4)=   0.000000  celldm(5)=   0.000000  celldm(6)=   0.000000

     crystal axes: (cart. coord. in units of alat)
               a(1) = (   6.579727   0.000000   0.000000 )
               a(2) = (  -0.000775   5.961596   0.000000 )
               a(3) = (   0.000000   0.000000  25.155947 )

     reciprocal axes: (cart. coord. in units 2 pi/alat)
               b(1) = (  0.151982  0.000020  0.000000 )
               b(2) = (  0.000000  0.167740  0.000000 )
               b(3) = (  0.000000  0.000000  0.039752 )

     PseudoPot. # 1 for Ti read from file:
     /storage/coda1/p-amedford6/0/shared/rich_project_chbe-medford/medford-share/data/pseudos_module/espresso/nninc/pbe/van/Ti.UPF
     MD5 check sum: 8e4df49b7f0d34bbd5052bf3f5ea0213
     Pseudo is Ultrasoft, Zval = 12.0
     Generated by new atomic code, or converted to UPF format
     Using radial grid of  851 points,  6 beta functions with:
                l(1) =   0
                l(2) =   0
                l(3) =   1
                l(4) =   1
                l(5) =   2
                l(6) =   2
     Q(r) pseudized with  8 coefficients,  rinner =    1.000   1.000   1.000
                                                       1.000   1.000

     PseudoPot. # 2 for O  read from file:
     /storage/coda1/p-amedford6/0/shared/rich_project_chbe-medford/medford-share/data/pseudos_module/espresso/nninc/pbe/van/O.UPF
     MD5 check sum: 78c19812648e8988a0fe644b0f25305e
     Pseudo is Ultrasoft, Zval =  6.0
     Generated by new atomic code, or converted to UPF format
     Using radial grid of  737 points,  4 beta functions with:
                l(1) =   0
                l(2) =   0
                l(3) =   1
                l(4) =   1
     Q(r) pseudized with  8 coefficients,  rinner =    0.800   0.800   0.800

     PseudoPot. # 3 for N  read from file:
     /storage/coda1/p-amedford6/0/shared/rich_project_chbe-medford/medford-share/data/pseudos_module/espresso/nninc/pbe/van/N.UPF
     MD5 check sum: 90d10febe142ad51ac9d5be1deb811c4
     Pseudo is Ultrasoft, Zval =  5.0
     Generated by new atomic code, or converted to UPF format
     Using radial grid of  729 points,  4 beta functions with:
                l(1) =   0
                l(2) =   0
                l(3) =   1
                l(4) =   1
     Q(r) pseudized with  8 coefficients,  rinner =    0.800   0.800   0.800

     PseudoPot. # 4 for C  read from file:
     /storage/coda1/p-amedford6/0/shared/rich_project_chbe-medford/medford-share/data/pseudos_module/espresso/nninc/pbe/van/C.UPF
     MD5 check sum: 1a69bf6b8db32088f5b2163dbdb77a27
     Pseudo is Ultrasoft, Zval =  4.0
     Generated by new atomic code, or converted to UPF format
     Using radial grid of  721 points,  4 beta functions with:
                l(1) =   0
                l(2) =   0
                l(3) =   1
                l(4) =   1
     Q(r) pseudized with  8 coefficients,  rinner =    0.800   0.800   0.800

     PseudoPot. # 5 for H  read from file:
     /storage/coda1/p-amedford6/0/shared/rich_project_chbe-medford/medford-share/data/pseudos_module/espresso/nninc/pbe/van/H.UPF
     MD5 check sum: b5ee9d7bfd3a09ee7748110bda690ff7
     Pseudo is Ultrasoft, Zval =  1.0
     Generated by new atomic code, or converted to UPF format
     Using radial grid of  615 points,  1 beta functions with:
                l(1) =   0
     Q(r) pseudized with  8 coefficients,  rinner =    0.800

     atomic species   valence    mass     pseudopotential
        Ti1           12.00    47.86700     Ti( 1.00)
        O1             6.00    15.99900     O ( 1.00)
        N1             5.00    14.00700     N ( 1.00)
        C1             4.00    12.01100     C ( 1.00)
        H1             1.00     1.00800     H ( 1.00)

     No symmetry found

   Cartesian axes

     site n.     atom                  positions (alat units)
         1           Ti1 tau(   1) = (   0.0004258   2.9801865   6.0000000  )
         2           Ti1 tau(   2) = (   3.2906075   1.4906267   6.0002472  )
         3           O1  tau(   3) = (   0.0006271   0.0005054   7.9858123  )
         4           O1  tau(   4) = (   3.2906025   0.0005020   7.3038282  )
         5           O1  tau(   5) = (   4.5942328   1.4918067   9.2879030  )
         6           O1  tau(   6) = (   1.9868534   1.4903216   9.2879459  )
         7           Ti1 tau(   7) = (   3.2907910   2.8959150   9.1758416  )
         8           Ti1 tau(   8) = (   0.0015273   1.4827037   9.2680791  )
         9           O1  tau(   9) = (   3.2880966   5.9442215  11.2779904  )
        10           O1  tau(  10) = (   0.0116148   5.9584955  10.6183126  )
        11           O1  tau(  11) = (   1.2901275   1.4920942  12.6240107  )
        12           O1  tau(  12) = (   5.2966278   1.4852543  12.6143030  )
        13           Ti1 tau(  13) = (   0.0031916   3.1007002  12.7073671  )
        14           Ti1 tau(  14) = (   3.2978183   1.3116672  12.6600973  )
        15           O1  tau(  15) = (   6.5743189   0.0224225  14.6379036  )
        16           O1  tau(  16) = (   3.2931419   0.0435670  13.8892854  )
        17           O1  tau(  17) = (   4.5409235   1.5821231  16.0748620  )
        18           O1  tau(  18) = (   2.0417342   1.5698890  16.0900686  )
        19           Ti1 tau(  19) = (   3.2746960   3.0378214  15.6558348  )
        20           Ti1 tau(  20) = (   6.4705883   1.5381531  15.9030332  )
        21           O1  tau(  21) = (   3.2904802   0.0005063   4.7018136  )
        22           O1  tau(  22) = (   6.5584422   0.0457650  17.1906971  )
        23           O1  tau(  23) = (   1.3043587   1.4918075   6.0039043  )
        24           O1  tau(  24) = (   5.2767064   1.4903225   6.0039473  )
        25           Ti1 tau(  25) = (   0.0000382   5.9609847   6.0000000  )
        26           Ti1 tau(  26) = (   3.2902200   4.4714249   6.0002472  )
        27           O1  tau(  27) = (   0.0002396   2.9813036   7.9858123  )
        28           O1  tau(  28) = (   3.2902150   2.9813002   7.3038282  )
        29           O1  tau(  29) = (   4.5938453   4.4726049   9.2879030  )
        30           O1  tau(  30) = (   1.9864658   4.4711199   9.2879459  )
        31           Ti1 tau(  31) = (   3.2891106   5.8743827   9.1763621  )
        32           Ti1 tau(  32) = (   0.0006254   4.4649316   9.2693709  )
        33           O1  tau(  33) = (   3.2918970   3.0256722  11.2465752  )
        34           O1  tau(  34) = (   0.0092240   2.9805883  10.6323155  )
        35           O1  tau(  35) = (   1.2932338   4.4650182  12.6342030  )
        36           O1  tau(  36) = (   5.2897350   4.4662865  12.6224893  )
        37           Ti1 tau(  37) = (   0.0112454   0.1207271  12.6557084  )
        38           Ti1 tau(  38) = (   3.2993242   4.4067673  12.4119285  )
        39           O1  tau(  39) = (   6.5542949   2.9732608  14.6543823  )
        40           O1  tau(  40) = (   3.2957262   2.9928748  13.8751945  )
        41           O1  tau(  41) = (   4.5169628   4.4726675  16.1294972  )
        42           O1  tau(  42) = (   2.0179035   4.4711894  16.0655614  )
        43           Ti1 tau(  43) = (   3.1791666   0.0518155  16.3463265  )
        44           Ti1 tau(  44) = (   6.5235282   4.6410908  16.0777984  )
        45           O1  tau(  45) = (   3.2900926   2.9813045   4.7018136  )
        46           O1  tau(  46) = (   1.3039711   4.4726057   6.0039043  )
        47           O1  tau(  47) = (   5.2763189   4.4711207   6.0039473  )
        48           N1  tau(  48) = (   0.0679940   2.9982472  17.3287890  )
        49           C1  tau(  49) = (   0.3445104   2.8919884  18.7043053  )
        50           H1  tau(  50) = (   0.5935414   3.8503421  19.1719745  )
        51           H1  tau(  51) = (   6.0379261   2.4644003  19.2136804  )
        52           H1  tau(  52) = (   1.1315070   2.1426081  18.8955932  )
        53           O1  tau(  53) = (   3.2362511   0.0690349  18.1809703  )
        54           H1  tau(  54) = (   3.8186072   5.4079590  18.6400750  )

     number of k points=    10  Fermi-Dirac smearing, width (Ry)=  0.0073
                       cart. coord. in units 2pi/alat
        k(    1) = (   0.0000000   0.0000000   0.0000000), wk =   0.1250000
        k(    2) = (   0.0000000   0.0419351   0.0000000), wk =   0.2500000
        k(    3) = (   0.0000000  -0.0838702   0.0000000), wk =   0.1250000
        k(    4) = (   0.0379955   0.0000049   0.0000000), wk =   0.2500000
        k(    5) = (   0.0379955   0.0419400   0.0000000), wk =   0.2500000
        k(    6) = (   0.0379955  -0.0838652   0.0000000), wk =   0.2500000
        k(    7) = (   0.0379955  -0.0419301   0.0000000), wk =   0.2500000
        k(    8) = (  -0.0759910  -0.0000099   0.0000000), wk =   0.1250000
        k(    9) = (  -0.0759910   0.0419252   0.0000000), wk =   0.2500000
        k(   10) = (  -0.0759910  -0.0838800   0.0000000), wk =   0.1250000

     Initial potential from superposition of free atoms

     starting charge  380.99916, renormalised to  397.00000

     negative rho (up, down):  1.676E-02 0.000E+00

     %%%%%%%%%%%%%%%%%%%%%%%%%%%%%%%%%%%%%%%%%%%%%%%%%%%%%%%%%%%%%%%%%%%%%%%%
     %                                                                      %
     % You are using vdW-DF, which was implemented by the Thonhauser group. %
     % Please cite the following two papers that made this development      %
     % possible and the two reviews that describe the various versions:     %
     %                                                                      %
     %   T. Thonhauser et al., PRL 115, 136402 (2015).                      %
     %   T. Thonhauser et al., PRB 76, 125112 (2007).                       %
     %   K. Berland et al., Rep. Prog. Phys. 78, 066501 (2015).             %
     %   D.C. Langreth et al., J. Phys.: Condens. Matter 21, 084203 (2009). %
     %                                                                      %
     %                                                                      %
     % If you are calculating the stress with vdW-DF, please also cite:     %
     %                                                                      %
     %   R. Sabatini et al., J. Phys.: Condens. Matter 24, 424209 (2012).   %
     %                                                                      %
     %%%%%%%%%%%%%%%%%%%%%%%%%%%%%%%%%%%%%%%%%%%%%%%%%%%%%%%%%%%%%%%%%%%%%%%%

     Adding external electric field

     Computed dipole along edir(3) :
        Dipole               -8.2921 Ry au,        -21.0764 Debye
        Dipole field         -0.0156 Ry au,

        Potential amp.        1.4506 Ry
        Total length         46.3494 bohr

     Starting wfcs are  300 atomic wfcs
  @ DRIVER MODE: Message from server: STATUS
  @ DRIVER MODE: Message from server: POSDATA
  @ DRIVER MODE: Reading and sharing cell
  @ DRIVER MODE: Reading and sharing positions
  @ DRIVER MODE: Received positions

     Self-consistent Calculation

     iteration #  1     ecut=    29.40 Ry     beta= 0.05
     Davidson diagonalization with overlap
     c_bands:  1 eigenvalues not converged
     c_bands:  1 eigenvalues not converged
     c_bands:  1 eigenvalues not converged
     c_bands:  3 eigenvalues not converged
     c_bands:  2 eigenvalues not converged
     c_bands:  1 eigenvalues not converged
     c_bands:  1 eigenvalues not converged
     ethr =  1.00E-05,  avg # of iterations = 19.2

[...]

     total energy              =   -2606.38336457 Ry
     estimated scf accuracy    <    3821.48820974 Ry

     iteration #  2     ecut=    29.40 Ry     beta= 0.05
     Davidson diagonalization with overlap
     ethr =  1.00E-02,  avg # of iterations = 23.4

[...]

     iteration # 43     ecut=    29.40 Ry     beta= 0.05
     Davidson diagonalization with overlap
     c_bands:  1 eigenvalues not converged
     c_bands:  1 eigenvalues not converged
     c_bands:  1 eigenvalues not converged
     ethr =  1.90E-06,  avg # of iterations = 14.6

[...]

     total energy              =   -2952.64742456 Ry
     estimated scf accuracy    <       0.00000056 Ry

     iteration # 72     ecut=    29.40 Ry     beta= 0.05
     Davidson diagonalization with overlap
     ethr =  3.06E-11,  avg # of iterations =  5.0

     negative rho (up, down):  1.696E-02 0.000E+00

     Adding external electric field

     Computed dipole along edir(3) :
        Dipole                0.3585 Ry au,          0.9111 Debye
        Dipole field          0.0007 Ry au,

        Potential amp.       -0.0627 Ry
        Total length         46.3494 bohr

     End of self-consistent calculation

          k = 0.0000 0.0000 0.0000 ( 18029 PWs)   bands (ev):

   -56.8770 -56.8435 -55.9471 -55.9116 -55.7366 -55.6719 -55.5495 -55.4286
   -55.3947 -55.3140 -55.3117 -55.2420 -55.2197 -55.1253 -55.0476 -54.9124
   -33.2958 -33.1473 -33.1193 -33.0568 -32.9666 -32.9228 -32.4283 -32.2119
   -32.1674 -32.1471 -32.0917 -32.0832 -32.0577 -31.9705 -31.9490 -31.9068
   -31.8909 -31.8744 -31.8341 -31.8064 -31.7954 -31.7943 -31.7807 -31.7755
   -31.7510 -31.7307 -31.6659 -31.6327 -31.5947 -31.5830 -31.5524 -31.5293
   -31.5164 -31.5087 -31.4754 -31.4668 -31.4409 -31.4319 -31.4092 -31.3949
   -31.3649 -31.3071 -31.3061 -31.2832 -31.2513 -31.1885 -31.1492 -31.0988
   -16.9798 -16.4631 -16.4177 -16.1933 -16.0708 -16.0650 -16.0195 -15.9573
   -15.7844 -15.7300 -15.6904 -15.6270 -15.4756 -15.3653 -15.2684 -15.0725
   -15.0368 -15.0056 -15.0036 -14.9903 -14.9595 -14.9471 -14.8713 -14.8206
   -14.7899 -14.7078 -14.7005 -14.5398 -14.3106 -14.2875 -13.9259 -13.8189
   -13.7871  -8.0329  -4.5556  -4.0901  -3.8862  -3.7111  -3.5617  -3.4907
    -3.4609  -3.3956  -3.3815  -3.2396  -3.2364  -3.2270  -3.2233  -3.1394
    -3.0739  -3.0167  -2.9275  -2.9119  -2.8212  -2.7706  -2.6116  -2.5769
    -2.4894  -2.4107  -2.4051  -2.3389  -2.3196  -2.2781  -2.2425  -2.2112
    -2.1815  -2.1390  -2.0842  -2.0748  -1.9794  -1.9727  -1.8914  -1.8754
    -1.8673  -1.7441  -1.7089  -1.6493  -1.5087  -1.4882  -1.4712  -1.4399
    -1.4004  -1.3413  -1.2403  -1.1786  -1.1495  -1.0963  -1.0260  -0.9693
    -0.9494  -0.8750  -0.8496  -0.7752  -0.7298  -0.7156  -0.6954  -0.6696
    -0.5324  -0.4503  -0.4155  -0.3632  -0.3482  -0.3090  -0.2840  -0.2287
    -0.1706  -0.1482  -0.0507  -0.0478   0.0886   0.1569   0.1596   0.2576
     0.3020   0.3085   0.3650   0.4338   0.4456   0.5091   0.5292   0.5875
     0.5929   0.6359   0.7195   0.7964   0.8395   0.8693   0.9098   0.9305
     1.0422   1.0671   1.1303   1.1866   1.5016   1.5694   2.1765   2.4175
     2.5895   2.8669   3.0623   3.3620   3.4035   3.4217   3.4218   3.7319

[...]

          k = 0.0380-0.0419 0.0000 ( 17876 PWs)   bands (ev):

[...]

          k =-0.0760-0.0000 0.0000 ( 17886 PWs)   bands (ev):

[...]

          k =-0.0760-0.0839 0.0000 ( 17948 PWs)   bands (ev):

   -56.8609 -56.8594 -55.9351 -55.9234 -55.7318 -55.6766 -55.5487 -55.4121
   -55.4109 -55.3147 -55.3071 -55.2462 -55.2182 -55.1239 -55.0491 -54.9137
   -33.1339 -33.1323 -33.1137 -33.1123 -33.0109 -33.0097 -32.2533 -32.2432
   -32.1297 -32.1255 -32.1177 -32.1166 -32.0300 -31.9894 -31.9636 -31.9498
   -31.9022 -31.9006 -31.8344 -31.7920 -31.7719 -31.7645 -31.7637 -31.6868
   -31.6367 -31.6324 -31.6309 -31.6056 -31.5954 -31.5923 -31.5911 -31.5853
   -31.5359 -31.5285 -31.5126 -31.4893 -31.4815 -31.4655 -31.4365 -31.4111
   -31.3942 -31.3679 -31.3084 -31.3002 -31.2588 -31.2571 -31.1515 -31.1339
   -16.4524 -16.3376 -16.3358 -16.2932 -16.2917 -16.0281 -16.0236 -15.7756
   -15.7465 -15.5704 -15.4588 -15.4366 -15.3950 -15.3545 -15.2766 -15.2262
   -15.2127 -15.1848 -15.1581 -15.0855 -15.0518 -14.9509 -14.9154 -14.8532
   -14.8185 -14.7460 -14.7061 -14.6767 -14.4805 -14.4206 -13.9234 -13.9228
   -13.8103  -8.0317  -4.0938  -3.4725  -3.4147  -3.4103  -3.3748  -3.3678
    -3.2842  -3.1634  -3.1600  -3.0388  -2.9591  -2.9323  -2.9024  -2.8485
    -2.8342  -2.7388  -2.6891  -2.6842  -2.6687  -2.6343  -2.6033  -2.5962
    -2.5384  -2.4117  -2.3678  -2.3303  -2.2897  -2.2208  -2.1905  -2.1827
    -2.1505  -2.1110  -2.0925  -2.0638  -2.0512  -2.0443  -2.0337  -1.9462
    -1.7997  -1.7728  -1.6797  -1.6769  -1.6667  -1.6271  -1.5974  -1.5834
    -1.5633  -1.5292  -1.4529  -1.4271  -1.3629  -1.2270  -1.2140  -1.1794
    -1.1263  -1.0229  -1.0079  -0.9124  -0.8945  -0.8847  -0.8193  -0.7978
    -0.7813  -0.7191  -0.6811  -0.5612  -0.4900  -0.4805  -0.4637  -0.4546
    -0.4027  -0.3551  -0.2845  -0.2805  -0.2637  -0.1555  -0.0596   0.0346
     0.0417   0.1094   0.1236   0.1799   0.3371   0.3479   0.3905   0.4501
     0.5679   0.6594   0.7128   0.8119   0.8460   0.9511   0.9699   0.9749
     0.9942   1.0029   1.0477   1.1026   1.1657   1.4810   1.9757   3.0102
     3.0134   3.0718   3.0774   3.3886   3.3908   3.5029   3.5078   3.8388

     the Fermi energy is     2.0737 ev

!    total energy              =   -2952.64743729 Ry
     estimated scf accuracy    <       0.00000003 Ry
     smearing contrib. (-TS)   =      -0.01069311 Ry
     internal energy E=F+TS    =   -2952.63674418 Ry

     The total energy is F=E-TS. E is the sum of the following terms:
     one-electron contribution =  -24061.16593709 Ry
     hartree contribution      =   12121.02565809 Ry
     xc contribution           =    -487.77643280 Ry
     ewald contribution        =    9475.27972511 Ry
     electric field correction =       0.00024250 Ry

     convergence has been achieved in  72 iterations

     Forces acting on atoms (cartesian axes, Ry/au):

     atom    1 type  1   force =     0.00006024   -0.00036902    0.12634059
     atom    2 type  1   force =    -0.00005959    0.00038543   -0.15474412
     atom    3 type  2   force =     0.00003769    0.00023021   -0.06867149
     atom    4 type  2   force =     0.00004331    0.00001319    0.01722768
     atom    5 type  2   force =    -0.00541923   -0.00183045   -0.01283324
     atom    6 type  2   force =     0.00700143   -0.00106975   -0.01373428
     atom    7 type  1   force =    -0.00030209   -0.00640610    0.05896132
     atom    8 type  1   force =     0.00058647    0.00673879    0.10097076
     atom    9 type  2   force =     0.00031978    0.00036340    0.00012283
     atom   10 type  2   force =    -0.00198544    0.00132466   -0.06339917
     atom   11 type  2   force =    -0.00015774   -0.00062543    0.00023102
     atom   12 type  2   force =    -0.00037292   -0.00037626    0.00005550
     atom   13 type  1   force =     0.00058433   -0.00075789    0.00015652
     atom   14 type  1   force =    -0.00003337   -0.00055543    0.00120940
     atom   15 type  2   force =     0.00000661    0.00113341   -0.00010567
     atom   16 type  2   force =     0.00005906   -0.00022157   -0.00086130
     atom   17 type  2   force =     0.00000344   -0.00049739   -0.00036698
     atom   18 type  2   force =    -0.00061095   -0.00055928   -0.00054608
     atom   19 type  1   force =     0.00123701    0.00043495   -0.00077203
     atom   20 type  1   force =    -0.00069702    0.00088040   -0.00015686
     atom   21 type  2   force =     0.00009596    0.00015257    0.09787880
     atom   22 type  2   force =    -0.00012027    0.00140687   -0.00036235
     atom   23 type  2   force =    -0.08274074    0.00003387   -0.03316042
     atom   24 type  2   force =     0.08270864    0.00046602   -0.03322527
     atom   25 type  1   force =     0.00004945   -0.00039649    0.12670025
     atom   26 type  1   force =    -0.00004482   -0.00139845   -0.15490654
     atom   27 type  2   force =     0.00012023   -0.00036890   -0.06707231
     atom   28 type  2   force =     0.00007142    0.00177044    0.01244714
     atom   29 type  2   force =    -0.00384257    0.00476747   -0.01597651
     atom   30 type  2   force =     0.00537053    0.00500655   -0.01690597
     atom   31 type  1   force =    -0.00028739    0.00188459    0.04205288
     atom   32 type  1   force =     0.00074856   -0.00885557    0.10189319
     atom   33 type  2   force =    -0.00004793   -0.00035525   -0.00059423
     atom   34 type  2   force =    -0.00187769    0.00206228   -0.07567442
     atom   35 type  2   force =     0.00013133   -0.00014560   -0.00046720
     atom   36 type  2   force =    -0.00030103    0.00005015   -0.00018890
     atom   37 type  1   force =     0.00046967    0.00057229    0.00045916
     atom   38 type  1   force =    -0.00034737   -0.00074093   -0.00035498
     atom   39 type  2   force =     0.00000801   -0.00072129    0.00084827
     atom   40 type  2   force =    -0.00008777   -0.00056628   -0.00047882
     atom   41 type  2   force =     0.00017492   -0.00032946   -0.00077765
     atom   42 type  2   force =    -0.00111114    0.00022168   -0.00020865
     atom   43 type  1   force =     0.00079469   -0.00069014   -0.00064648
     atom   44 type  1   force =    -0.00132874   -0.00040703   -0.00027716
     atom   45 type  2   force =     0.00008338   -0.00002831    0.09772900
     atom   46 type  2   force =    -0.08277595    0.00001673   -0.03317208
     atom   47 type  2   force =     0.08274027    0.00043046   -0.03321886
     atom   48 type  3   force =     0.00039898   -0.00539558   -0.00022243
     atom   49 type  4   force =    -0.00060571    0.00162098   -0.00083098
     atom   50 type  5   force =     0.00000849   -0.00040054    0.00169301
     atom   51 type  5   force =     0.00040844    0.00018651   -0.00064597
     atom   52 type  5   force =    -0.00072967    0.00070745   -0.00060370
     atom   53 type  2   force =     0.00033169    0.00029197   -0.00090823
     atom   54 type  5   force =     0.00123315    0.00091509    0.00009401

     Total force =     0.421232     Total SCF correction =     0.000440
  @ DRIVER MODE: Message from server: STATUS
  @ DRIVER MODE: Message from server: GETFORCE
  @ DRIVER MODE: Returning v,forces,stress,ensemble

     Writing output data file ./calc.save/
  @ DRIVER MODE: Message from server: EXIT
  @ DRIVE MODE: Exiting

     General routines

     Parallel routines

   This run was terminated on:  18: 3:14  22Sep2021

   JOB DONE.