     Program PWSCF v.6.7GPU starts on 22Sep2021 at 12:50: 3

     R & G space division:  proc/nbgrp/npool/nimage =      10
     Reading input from /storage/home/hcoda1/3/ntian30/research/carbon/CxH_vib/CH_calc/ads_slab/CHNHNHH2O_b/out_0041/pw.inp
Warning: card &CELL ignored
Warning: card   CELL_DYNAMICS='IPI', ignored
Warning: card / ignored

     Current dimensions of program PWSCF are:
     Max number of different atomic species (ntypx) = 10
     Max number of k-points (npk) =  40000
     Max angular momentum in pseudopotentials (lmaxx) =  3
     Presently no symmetry can be used with electric field

     Message from routine cell_base_init:
     DEPRECATED: use true lattice parameter, not A to a.u. conversion factor

     IMPORTANT: XC functional enforced from input :
     Exchange-correlation= BEEF-VDW
                           (   1   4  43  14   2   0   0)
     Any further DFT definition will be discarded
     Please, verify this is what you really want

  @ DRIVER MODE: Connecting to
 qe_1139763_2927424.sched-torque.pace.gatech.edu2dyly1m5_scratch
  using UNIX socket
  @ DRIVER MODE: Message from server: STATUS
  @ DRIVER MODE: Message from server: INIT
  @ DRIVER MODE: Receiving replica           0          -1
  @ DRIVER MODE: Receiving encoded integer          25
  @ DRIVER MODE:  SCF:  T  FORCE:  T  STRESS:  F  VC:  F  ENSEMBLE:  F
  @ DRIVER MODE:  SCF:  T  FORCE:  T  STRESS:  F  VC:  F  ENSEMBLE:  F

     Using Slab Decomposition

     bravais-lattice index     =            0
     lattice parameter (alat)  =       1.8897  a.u.
     unit-cell volume          =    6658.9804 (a.u.)^3
     number of atoms/cell      =           56
     number of atomic types    =            5
     number of electrons       =       403.00
     number of Kohn-Sham states=          211
     kinetic-energy cutoff     =      29.3995  Ry
     charge density cutoff     =     293.9946  Ry
     scf convergence threshold =      7.3E-08
     mixing beta               =       0.0500
     number of iterations used =            8  plain     mixing
     Exchange-correlation= BEEF-VDW
                           (   1   4  43  14   2   0   0)

     celldm(1)=   1.889726  celldm(2)=   0.000000  celldm(3)=   0.000000
     celldm(4)=   0.000000  celldm(5)=   0.000000  celldm(6)=   0.000000

     crystal axes: (cart. coord. in units of alat)
               a(1) = (   6.579727   0.000000   0.000000 )
               a(2) = (  -0.000775   5.961596   0.000000 )
               a(3) = (   0.000000   0.000000  25.155947 )

     reciprocal axes: (cart. coord. in units 2 pi/alat)
               b(1) = (  0.151982  0.000020  0.000000 )
               b(2) = (  0.000000  0.167740  0.000000 )
               b(3) = (  0.000000  0.000000  0.039752 )

     PseudoPot. # 1 for Ti read from file:
     /storage/coda1/p-amedford6/0/shared/rich_project_chbe-medford/medford-share/data/pseudos_module/espresso/nninc/pbe/van/Ti.UPF
     MD5 check sum: 8e4df49b7f0d34bbd5052bf3f5ea0213
     Pseudo is Ultrasoft, Zval = 12.0
     Generated by new atomic code, or converted to UPF format
     Using radial grid of  851 points,  6 beta functions with:
                l(1) =   0
                l(2) =   0
                l(3) =   1
                l(4) =   1
                l(5) =   2
                l(6) =   2
     Q(r) pseudized with  8 coefficients,  rinner =    1.000   1.000   1.000
                                                       1.000   1.000

     PseudoPot. # 2 for O  read from file:
     /storage/coda1/p-amedford6/0/shared/rich_project_chbe-medford/medford-share/data/pseudos_module/espresso/nninc/pbe/van/O.UPF
     MD5 check sum: 78c19812648e8988a0fe644b0f25305e
     Pseudo is Ultrasoft, Zval =  6.0
     Generated by new atomic code, or converted to UPF format
     Using radial grid of  737 points,  4 beta functions with:
                l(1) =   0
                l(2) =   0
                l(3) =   1
                l(4) =   1
     Q(r) pseudized with  8 coefficients,  rinner =    0.800   0.800   0.800

     PseudoPot. # 3 for N  read from file:
     /storage/coda1/p-amedford6/0/shared/rich_project_chbe-medford/medford-share/data/pseudos_module/espresso/nninc/pbe/van/N.UPF
     MD5 check sum: 90d10febe142ad51ac9d5be1deb811c4
     Pseudo is Ultrasoft, Zval =  5.0
     Generated by new atomic code, or converted to UPF format
     Using radial grid of  729 points,  4 beta functions with:
                l(1) =   0
                l(2) =   0
                l(3) =   1
                l(4) =   1
     Q(r) pseudized with  8 coefficients,  rinner =    0.800   0.800   0.800

     PseudoPot. # 4 for C  read from file:
     /storage/coda1/p-amedford6/0/shared/rich_project_chbe-medford/medford-share/data/pseudos_module/espresso/nninc/pbe/van/C.UPF
     MD5 check sum: 1a69bf6b8db32088f5b2163dbdb77a27
     Pseudo is Ultrasoft, Zval =  4.0
     Generated by new atomic code, or converted to UPF format
     Using radial grid of  721 points,  4 beta functions with:
                l(1) =   0
                l(2) =   0
                l(3) =   1
                l(4) =   1
     Q(r) pseudized with  8 coefficients,  rinner =    0.800   0.800   0.800

     PseudoPot. # 5 for H  read from file:
     /storage/coda1/p-amedford6/0/shared/rich_project_chbe-medford/medford-share/data/pseudos_module/espresso/nninc/pbe/van/H.UPF
     MD5 check sum: b5ee9d7bfd3a09ee7748110bda690ff7
     Pseudo is Ultrasoft, Zval =  1.0
     Generated by new atomic code, or converted to UPF format
     Using radial grid of  615 points,  1 beta functions with:
                l(1) =   0
     Q(r) pseudized with  8 coefficients,  rinner =    0.800

     atomic species   valence    mass     pseudopotential
        Ti1           12.00    47.86700     Ti( 1.00)
        O1             6.00    15.99900     O ( 1.00)
        N1             5.00    14.00700     N ( 1.00)
        C1             4.00    12.01100     C ( 1.00)
        H1             1.00     1.00800     H ( 1.00)

     No symmetry found

   Cartesian axes

     site n.     atom                  positions (alat units)
         1           Ti1 tau(   1) = (   0.0004258   2.9801865   6.0000000  )
         2           Ti1 tau(   2) = (   3.2906075   1.4906267   6.0002472  )
         3           O1  tau(   3) = (   0.0006271   0.0005054   7.9858123  )
         4           O1  tau(   4) = (   3.2906025   0.0005020   7.3038282  )
         5           O1  tau(   5) = (   4.5942328   1.4918067   9.2879030  )
         6           O1  tau(   6) = (   1.9868534   1.4903216   9.2879459  )
         7           Ti1 tau(   7) = (   3.2907910   2.8959150   9.1758416  )
         8           Ti1 tau(   8) = (   0.0015273   1.4827037   9.2680791  )
         9           O1  tau(   9) = (   3.2780774   5.9605562  11.3537357  )
        10           O1  tau(  10) = (   0.0116148   5.9584955  10.6183126  )
        11           O1  tau(  11) = (   1.2922713   1.4781662  12.6511241  )
        12           O1  tau(  12) = (   5.2965393   1.5043564  12.6031353  )
        13           Ti1 tau(  13) = (   6.5273184   3.0207086  12.5807821  )
        14           Ti1 tau(  14) = (   3.2344070   1.4559942  12.5004267  )
        15           O1  tau(  15) = (   6.4759410   0.0295824  14.6525783  )
        16           O1  tau(  16) = (   3.3604338   0.0238249  13.9383540  )
        17           O1  tau(  17) = (   4.5324113   1.5808541  16.1066768  )
        18           O1  tau(  18) = (   1.9684897   1.4712893  15.8817925  )
        19           Ti1 tau(  19) = (   3.2566353   3.0739815  15.8599551  )
        20           Ti1 tau(  20) = (   6.5466614   1.5318677  15.7800735  )
        21           O1  tau(  21) = (   3.2904802   0.0005063   4.7018136  )
        22           O1  tau(  22) = (   6.5744325   0.0155309  17.2227980  )
        23           O1  tau(  23) = (   1.3043587   1.4918075   6.0039043  )
        24           O1  tau(  24) = (   5.2767064   1.4903225   6.0039473  )
        25           Ti1 tau(  25) = (   0.0000382   5.9609847   6.0000000  )
        26           Ti1 tau(  26) = (   3.2902200   4.4714249   6.0002472  )
        27           O1  tau(  27) = (   0.0002396   2.9813036   7.9858123  )
        28           O1  tau(  28) = (   3.2902150   2.9813002   7.3038282  )
        29           O1  tau(  29) = (   4.5938453   4.4726049   9.2879030  )
        30           O1  tau(  30) = (   1.9864658   4.4711199   9.2879459  )
        31           Ti1 tau(  31) = (   3.2891106   5.8743827   9.1763621  )
        32           Ti1 tau(  32) = (   0.0006254   4.4649316   9.2693709  )
        33           O1  tau(  33) = (   3.2727763   2.9788165  11.3438337  )
        34           O1  tau(  34) = (   0.0092240   2.9805883  10.6323155  )
        35           O1  tau(  35) = (   1.2865780   4.4896361  12.6556599  )
        36           O1  tau(  36) = (   5.2967437   4.4749066  12.6066920  )
        37           Ti1 tau(  37) = (   6.5467059   0.0356701  12.5108493  )
        38           Ti1 tau(  38) = (   3.2305653   4.4019604  12.5605372  )
        39           O1  tau(  39) = (   6.5199767   2.9846217  14.6905747  )
        40           O1  tau(  40) = (   3.2851694   3.0254550  13.9321539  )
        41           O1  tau(  41) = (   4.5310495   4.4602642  16.1636806  )
        42           O1  tau(  42) = (   1.9842988   4.5744318  15.9411167  )
        43           Ti1 tau(  43) = (   3.2691225   0.1036042  15.7405456  )
        44           Ti1 tau(  44) = (   6.5697781   4.6877429  16.0360384  )
        45           O1  tau(  45) = (   3.2900926   2.9813045   4.7018136  )
        46           O1  tau(  46) = (   1.3039711   4.4726057   6.0039043  )
        47           O1  tau(  47) = (   5.2763189   4.4711207   6.0039473  )
        48           N1  tau(  48) = (   1.2792381   2.8578196  18.3696018  )
        49           N1  tau(  49) = (   0.1888888   2.9646215  17.5057353  )
        50           C1  tau(  50) = (   2.5352320   2.9081513  18.0382144  )
        51           H1  tau(  51) = (   3.1442446   2.7411670  18.9317345  )
        52           H1  tau(  52) = (   1.0014291   2.6635404  19.3302151  )
        53           H1  tau(  53) = (   5.9397212   2.8571719  18.0851170  )
        54           O1  tau(  54) = (   3.2630597   0.0341043  18.2248460  )
        55           H1  tau(  55) = (   4.0455299   5.4198958  18.2485053  )
        56           H1  tau(  56) = (   2.4923979   5.4091459  18.3156537  )

     number of k points=    10  Fermi-Dirac smearing, width (Ry)=  0.0073
                       cart. coord. in units 2pi/alat
        k(    1) = (   0.0000000   0.0000000   0.0000000), wk =   0.1250000
        k(    2) = (   0.0000000   0.0419351   0.0000000), wk =   0.2500000
        k(    3) = (   0.0000000  -0.0838702   0.0000000), wk =   0.1250000
        k(    4) = (   0.0379955   0.0000049   0.0000000), wk =   0.2500000
        k(    5) = (   0.0379955   0.0419400   0.0000000), wk =   0.2500000
        k(    6) = (   0.0379955  -0.0838652   0.0000000), wk =   0.2500000
        k(    7) = (   0.0379955  -0.0419301   0.0000000), wk =   0.2500000
        k(    8) = (  -0.0759910  -0.0000099   0.0000000), wk =   0.1250000
        k(    9) = (  -0.0759910   0.0419252   0.0000000), wk =   0.2500000
        k(   10) = (  -0.0759910  -0.0838800   0.0000000), wk =   0.1250000

     Initial potential from superposition of free atoms

     starting charge  386.99914, renormalised to  403.00000

     negative rho (up, down):  1.739E-02 0.000E+00

     %%%%%%%%%%%%%%%%%%%%%%%%%%%%%%%%%%%%%%%%%%%%%%%%%%%%%%%%%%%%%%%%%%%%%%%%
     %                                                                      %
     % You are using vdW-DF, which was implemented by the Thonhauser group. %
     % Please cite the following two papers that made this development      %
     % possible and the two reviews that describe the various versions:     %
     %                                                                      %
     %   T. Thonhauser et al., PRL 115, 136402 (2015).                      %
     %   T. Thonhauser et al., PRB 76, 125112 (2007).                       %
     %   K. Berland et al., Rep. Prog. Phys. 78, 066501 (2015).             %
     %   D.C. Langreth et al., J. Phys.: Condens. Matter 21, 084203 (2009). %
     %                                                                      %
     %                                                                      %
     % If you are calculating the stress with vdW-DF, please also cite:     %
     %                                                                      %
     %   R. Sabatini et al., J. Phys.: Condens. Matter 24, 424209 (2012).   %
     %                                                                      %
     %%%%%%%%%%%%%%%%%%%%%%%%%%%%%%%%%%%%%%%%%%%%%%%%%%%%%%%%%%%%%%%%%%%%%%%%

     Adding external electric field

     Computed dipole along edir(3) :
        Dipole              -12.3416 Ry au,        -31.3692 Debye
        Dipole field         -0.0233 Ry au,

        Potential amp.        2.1590 Ry
        Total length         46.3494 bohr

     Starting wfcs are  305 atomic wfcs
  @ DRIVER MODE: Message from server: STATUS
  @ DRIVER MODE: Message from server: POSDATA
  @ DRIVER MODE: Reading and sharing cell
  @ DRIVER MODE: Reading and sharing positions
  @ DRIVER MODE: Received positions

     Self-consistent Calculation

     iteration #  1     ecut=    29.40 Ry     beta= 0.05
     Davidson diagonalization with overlap
     c_bands:  5 eigenvalues not converged
     c_bands:  3 eigenvalues not converged
     c_bands:  3 eigenvalues not converged
     c_bands:  1 eigenvalues not converged
     c_bands:  2 eigenvalues not converged
     c_bands:  2 eigenvalues not converged
     c_bands:  5 eigenvalues not converged
     c_bands:  2 eigenvalues not converged
     c_bands:  4 eigenvalues not converged
     ethr =  1.00E-05,  avg # of iterations = 29.3

[...]

     total energy              =   -2358.71835245 Ry
     estimated scf accuracy    <    6971.19048074 Ry

     iteration #  2     ecut=    29.40 Ry     beta= 0.05
     Davidson diagonalization with overlap
     ethr =  1.00E-02,  avg # of iterations = 27.0

[...]

     iteration # 64     ecut=    29.40 Ry     beta= 0.05
     Davidson diagonalization with overlap
     c_bands:  1 eigenvalues not converged
     ethr =  1.82E-10,  avg # of iterations = 14.1

[...]

     total energy              =   -2973.94010517 Ry
     estimated scf accuracy    <       0.00000015 Ry

     iteration # 70     ecut=    29.40 Ry     beta= 0.05
     Davidson diagonalization with overlap
     ethr =  3.81E-11,  avg # of iterations =  5.8

     negative rho (up, down):  1.725E-02 0.000E+00

     Adding external electric field

     Computed dipole along edir(3) :
        Dipole                1.4082 Ry au,          3.5794 Debye
        Dipole field          0.0027 Ry au,

        Potential amp.       -0.2463 Ry
        Total length         46.3494 bohr

     End of self-consistent calculation

          k = 0.0000 0.0000 0.0000 ( 18029 PWs)   bands (ev):

   -55.3144 -55.2804 -55.2048 -55.1793 -55.1618 -55.1503 -55.1351 -55.1131
   -55.1012 -55.0990 -55.0923 -55.0578 -54.9877 -54.8300 -54.2947 -54.2607
   -31.7987 -31.7257 -31.6511 -31.6447 -31.6349 -31.6063 -31.5820 -31.5595
   -31.5133 -31.4970 -31.4668 -31.4585 -31.4496 -31.4350 -31.4206 -31.4162
   -31.3929 -31.3748 -31.3717 -31.3595 -31.3297 -31.3278 -31.3236 -31.3205
   -31.3176 -31.3140 -31.3099 -31.2916 -31.2839 -31.2739 -31.2671 -31.2663
   -31.2567 -31.2552 -31.2468 -31.2429 -31.2359 -31.2102 -31.2049 -31.0863
   -31.0710 -31.0454 -30.7015 -30.6135 -30.5911 -30.5185 -30.4321 -30.3208
   -18.8864 -18.6544 -15.9725 -15.7887 -15.6076 -15.4687 -15.3866 -15.1550
   -15.0969 -15.0583 -14.9772 -14.9542 -14.8538 -14.8348 -14.8333 -14.8150
   -14.8121 -14.7572 -14.7423 -14.7377 -14.6892 -14.6822 -14.6569 -14.6414
   -14.5887 -14.5103 -14.5015 -14.4553 -14.4099 -14.3634 -14.0195 -13.4153
   -12.7955 -12.6790  -8.8061  -7.2731  -6.6201  -4.3244  -3.7951  -3.3562
    -3.2797  -3.2440  -3.2192  -3.0847  -2.9682  -2.8775  -2.7526  -2.6694
    -2.5796  -2.4750  -2.4208  -2.3729  -2.3123  -2.2522  -2.2266  -2.1407
    -2.1207  -2.1013  -2.0792  -2.0532  -2.0240  -1.9882  -1.8643  -1.8531
    -1.7707  -1.7159  -1.6802  -1.6580  -1.6349  -1.6287  -1.5965  -1.5757
    -1.5675  -1.5563  -1.5552  -1.5202  -1.3799  -1.3574  -1.3275  -1.3066
    -1.1586  -1.0207  -0.9318  -0.9293  -0.8201  -0.7548  -0.7520  -0.7136
    -0.6978  -0.5965  -0.5101  -0.4741  -0.4489  -0.3712  -0.3138  -0.2578
    -0.2061  -0.1712  -0.1038  -0.0798  -0.0632  -0.0464   0.0219   0.0851
     0.1463   0.2319   0.2751   0.2996   0.3909   0.4045   0.4275   0.4923
     0.5244   0.5696   0.6047   0.6340   0.6575   0.6878   0.7131   0.7564
     0.7937   0.9200   0.9381   0.9667   0.9878   1.1623   1.2115   1.3129
     1.3449   1.4430   1.4882   1.6680   1.7292   1.8086   1.9211   2.2993
     2.3451   3.7948   3.9061   3.9403   3.9653   4.0046   4.0558   4.2624
     4.3355   4.3769   4.4343

[...]

          k = 0.0380-0.0419 0.0000 ( 17876 PWs)   bands (ev):

[...]

          k =-0.0760-0.0000 0.0000 ( 17886 PWs)   bands (ev):

[...]

          k =-0.0760-0.0839 0.0000 ( 17948 PWs)   bands (ev):

   -55.2976 -55.2970 -55.1953 -55.1760 -55.1704 -55.1389 -55.1248 -55.1182
   -55.1175 -55.1026 -55.0791 -55.0712 -54.9860 -54.8316 -54.2776 -54.2776
   -31.6142 -31.6138 -31.5920 -31.5915 -31.5599 -31.5271 -31.4962 -31.4837
   -31.4775 -31.4621 -31.4437 -31.4385 -31.4345 -31.4250 -31.4201 -31.4190
   -31.4170 -31.4167 -31.4114 -31.3953 -31.3841 -31.3706 -31.3599 -31.3577
   -31.3526 -31.3480 -31.3391 -31.3263 -31.3206 -31.3191 -31.3039 -31.2947
   -31.2914 -31.2908 -31.2890 -31.2863 -31.2562 -31.2291 -31.2151 -31.1423
   -31.0887 -31.0740 -30.6038 -30.6038 -30.5144 -30.5143 -30.4754 -30.4753
   -18.8759 -18.6605 -15.3502 -15.3140 -15.2768 -15.2497 -15.2338 -15.1125
   -15.0988 -15.0634 -15.0217 -15.0085 -14.9782 -14.9496 -14.9009 -14.8921
   -14.8581 -14.8386 -14.7995 -14.7726 -14.7536 -14.7493 -14.7324 -14.7109
   -14.6672 -14.6454 -14.6330 -14.6287 -14.5768 -14.4830 -14.2051 -13.4379
   -12.7809 -12.7808  -8.8019  -7.1983  -6.6211  -4.5335  -3.5740  -2.8889
    -2.6674  -2.6259  -2.5726  -2.4830  -2.4361  -2.3143  -2.3078  -2.2847
    -2.2395  -2.2264  -2.1861  -2.1454  -2.1401  -2.1116  -2.0996  -2.0545
    -2.0439  -2.0404  -2.0265  -1.9953  -1.9868  -1.9666  -1.9432  -1.9394
    -1.9287  -1.9124  -1.8795  -1.8723  -1.8450  -1.8261  -1.6772  -1.5998
    -1.5581  -1.4802  -1.4573  -1.4403  -1.4214  -1.3868  -1.3666  -1.3409
    -1.3128  -1.1673  -1.0302  -0.9913  -0.9673  -0.8682  -0.8530  -0.8340
    -0.7867  -0.7451  -0.7100  -0.6524  -0.6425  -0.5971  -0.5752  -0.4557
    -0.4174  -0.3186  -0.2828  -0.2811  -0.2638  -0.2486  -0.2321  -0.2059
    -0.1564  -0.0849  -0.0694  -0.0204   0.0030   0.0056   0.0188   0.1641
     0.2356   0.2558   0.3572   0.3881   0.5630   0.7273   0.7390   0.8069
     0.8698   0.9242   0.9587   0.9986   1.0087   1.0742   1.0991   1.2032
     1.2141   1.2628   1.2670   1.3437   1.3593   2.0929   2.0946   2.1650
     2.1652   4.1588   4.1735   4.2028   4.2656   4.3090   4.3207   4.3582
     4.3618   4.4650   4.4835

     the Fermi energy is     3.8129 ev

!    total energy              =   -2973.94012646 Ry
     estimated scf accuracy    <       0.00000005 Ry
     smearing contrib. (-TS)   =      -0.02072482 Ry
     internal energy E=F+TS    =   -2973.91940164 Ry

     The total energy is F=E-TS. E is the sum of the following terms:
     one-electron contribution =  -24342.22032443 Ry
     hartree contribution      =   12268.87003742 Ry
     xc contribution           =    -494.11789430 Ry
     ewald contribution        =    9593.54503725 Ry
     electric field correction =       0.00374243 Ry

     convergence has been achieved in  70 iterations

     Forces acting on atoms (cartesian axes, Ry/au):

     atom    1 type  1   force =     0.00002663   -0.00010433    0.09507028
     atom    2 type  1   force =     0.00017732   -0.00068964   -0.17565632
     atom    3 type  2   force =     0.00008863   -0.00004860   -0.02294104
     atom    4 type  2   force =     0.00002172   -0.00143126    0.05289468
     atom    5 type  2   force =    -0.00999999   -0.00031707    0.00381483
     atom    6 type  2   force =     0.01112411    0.00020101    0.00206983
     atom    7 type  1   force =    -0.00021056    0.00178480   -0.00588593
     atom    8 type  1   force =     0.00081105    0.01007463    0.01605309
     atom    9 type  2   force =    -0.00015852    0.00086666    0.00030798
     atom   10 type  2   force =    -0.00227359    0.00217618   -0.01800597
     atom   11 type  2   force =     0.00022034   -0.00002928    0.00008594
     atom   12 type  2   force =    -0.00032879   -0.00018028    0.00056873
     atom   13 type  1   force =    -0.00002837    0.00125451    0.00015566
     atom   14 type  1   force =    -0.00011373    0.00001760    0.00004578
     atom   15 type  2   force =     0.00011663    0.00022443    0.00006403
     atom   16 type  2   force =    -0.00036100    0.00040895   -0.00051602
     atom   17 type  2   force =    -0.00005003   -0.00010193   -0.00008574
     atom   18 type  2   force =    -0.00014260    0.00014168    0.00037562
     atom   19 type  1   force =    -0.00049405    0.00042125   -0.00045646
     atom   20 type  1   force =    -0.00026662   -0.00014862   -0.00000659
     atom   21 type  2   force =     0.00009084   -0.00008393    0.10316970
     atom   22 type  2   force =     0.00038373    0.00006328    0.00072371
     atom   23 type  2   force =    -0.07159590   -0.00016789   -0.02756268
     atom   24 type  2   force =     0.07155427    0.00024655   -0.02761004
     atom   25 type  1   force =     0.00023754   -0.00038802    0.09517445
     atom   26 type  1   force =    -0.00003820   -0.00020690   -0.17580401
     atom   27 type  2   force =     0.00012207   -0.00012064   -0.02196381
     atom   28 type  2   force =     0.00001500   -0.00139687    0.05322447
     atom   29 type  2   force =    -0.01034292   -0.00023062    0.00365640
     atom   30 type  2   force =     0.01138097    0.00042036    0.00192495
     atom   31 type  1   force =    -0.00029983    0.00266463   -0.00008179
     atom   32 type  1   force =     0.00067227   -0.01114031    0.01692892
     atom   33 type  2   force =     0.00037514   -0.00027276   -0.00000347
     atom   34 type  2   force =    -0.00033975    0.00144401   -0.01893782
     atom   35 type  2   force =    -0.00002622   -0.00035610   -0.00015875
     atom   36 type  2   force =     0.00002248   -0.00025031    0.00044309
     atom   37 type  1   force =    -0.00004804   -0.00122522    0.00031183
     atom   38 type  1   force =    -0.00039070    0.00096266    0.00010272
     atom   39 type  2   force =     0.00010357    0.00006541    0.00015506
     atom   40 type  2   force =    -0.00048150   -0.00059928    0.00003115
     atom   41 type  2   force =     0.00039659   -0.00041260    0.00008369
     atom   42 type  2   force =    -0.00038132   -0.00054667   -0.00036855
     atom   43 type  1   force =    -0.00027588   -0.00027258    0.00077006
     atom   44 type  1   force =     0.00006437   -0.00034601   -0.00001784
     atom   45 type  2   force =     0.00009971   -0.00010269    0.10318936
     atom   46 type  2   force =    -0.07157958   -0.00016810   -0.02755440
     atom   47 type  2   force =     0.07158136    0.00024514   -0.02756709
     atom   48 type  3   force =     0.00001171   -0.00048253    0.00028198
     atom   49 type  3   force =     0.00014168    0.00010703    0.00001781
     atom   50 type  4   force =     0.00042331   -0.00020810    0.00043228
     atom   51 type  5   force =    -0.00014187   -0.00052560   -0.00016711
     atom   52 type  5   force =    -0.00005163   -0.00103748   -0.00081895
     atom   53 type  5   force =     0.00017116   -0.00042098   -0.00061317
     atom   54 type  2   force =    -0.00114983   -0.00034529    0.00098765
     atom   55 type  5   force =     0.00005414    0.00018979   -0.00030364
     atom   56 type  5   force =     0.00108269    0.00037793   -0.00002857

     Total force =     0.365179     Total SCF correction =     0.000640
  @ DRIVER MODE: Message from server: STATUS
  @ DRIVER MODE: Message from server: GETFORCE
  @ DRIVER MODE: Returning v,forces,stress,ensemble

     Writing output data file ./calc.save/
  @ DRIVER MODE: Message from server: EXIT
  @ DRIVE MODE: Exiting

     General routines

     Parallel routines

   This run was terminated on:  13:11:17  22Sep2021

   JOB DONE.