     Program PWSCF v.6.7GPU starts on 23Sep2021 at  8:38: 2

     R & G space division:  proc/nbgrp/npool/nimage =       8
     Reading input from /storage/home/hcoda1/3/ntian30/research/carbon/CxH_vib/H2O_calc/ads_slab/CH3OHHO_e/out_0027/pw.inp
Warning: card &CELL ignored
Warning: card   CELL_DYNAMICS='IPI', ignored
Warning: card / ignored

     Current dimensions of program PWSCF are:
     Max number of different atomic species (ntypx) = 10
     Max number of k-points (npk) =  40000
     Max angular momentum in pseudopotentials (lmaxx) =  3
     Presently no symmetry can be used with electric field

     Message from routine cell_base_init:
     DEPRECATED: use true lattice parameter, not A to a.u. conversion factor

     IMPORTANT: XC functional enforced from input :
     Exchange-correlation= BEEF-VDW
                           (   1   4  43  14   2   0   0)
     Any further DFT definition will be discarded
     Please, verify this is what you really want

  @ DRIVER MODE: Connecting to
 qe_1139763_2941008.sched-torque.pace.gatech.edui0ownh8a_scratch
  using UNIX socket
  @ DRIVER MODE: Message from server: STATUS
  @ DRIVER MODE: Message from server: INIT
  @ DRIVER MODE: Receiving replica           0          -1
  @ DRIVER MODE: Receiving encoded integer          25
  @ DRIVER MODE:  SCF:  T  FORCE:  T  STRESS:  F  VC:  F  ENSEMBLE:  F
  @ DRIVER MODE:  SCF:  T  FORCE:  T  STRESS:  F  VC:  F  ENSEMBLE:  F

     Using Slab Decomposition

     bravais-lattice index     =            0
     lattice parameter (alat)  =       1.8897  a.u.
     unit-cell volume          =    6658.9804 (a.u.)^3
     number of atoms/cell      =           55
     number of atomic types    =            4
     number of electrons       =       399.00
     number of Kohn-Sham states=          209
     kinetic-energy cutoff     =      29.3995  Ry
     charge density cutoff     =     293.9946  Ry
     scf convergence threshold =      7.3E-08
     mixing beta               =       0.0500
     number of iterations used =            8  plain     mixing
     Exchange-correlation= BEEF-VDW
                           (   1   4  43  14   2   0   0)

     celldm(1)=   1.889726  celldm(2)=   0.000000  celldm(3)=   0.000000
     celldm(4)=   0.000000  celldm(5)=   0.000000  celldm(6)=   0.000000

     crystal axes: (cart. coord. in units of alat)
               a(1) = (   6.579727   0.000000   0.000000 )
               a(2) = (  -0.000775   5.961596   0.000000 )
               a(3) = (   0.000000   0.000000  25.155947 )

     reciprocal axes: (cart. coord. in units 2 pi/alat)
               b(1) = (  0.151982  0.000020  0.000000 )
               b(2) = (  0.000000  0.167740  0.000000 )
               b(3) = (  0.000000  0.000000  0.039752 )

     PseudoPot. # 1 for Ti read from file:
     /storage/coda1/p-amedford6/0/shared/rich_project_chbe-medford/medford-share/data/pseudos_module/espresso/nninc/pbe/van/Ti.UPF
     MD5 check sum: 8e4df49b7f0d34bbd5052bf3f5ea0213
     Pseudo is Ultrasoft, Zval = 12.0
     Generated by new atomic code, or converted to UPF format
     Using radial grid of  851 points,  6 beta functions with:
                l(1) =   0
                l(2) =   0
                l(3) =   1
                l(4) =   1
                l(5) =   2
                l(6) =   2
     Q(r) pseudized with  8 coefficients,  rinner =    1.000   1.000   1.000
                                                       1.000   1.000

     PseudoPot. # 2 for O  read from file:
     /storage/coda1/p-amedford6/0/shared/rich_project_chbe-medford/medford-share/data/pseudos_module/espresso/nninc/pbe/van/O.UPF
     MD5 check sum: 78c19812648e8988a0fe644b0f25305e
     Pseudo is Ultrasoft, Zval =  6.0
     Generated by new atomic code, or converted to UPF format
     Using radial grid of  737 points,  4 beta functions with:
                l(1) =   0
                l(2) =   0
                l(3) =   1
                l(4) =   1
     Q(r) pseudized with  8 coefficients,  rinner =    0.800   0.800   0.800

     PseudoPot. # 3 for C  read from file:
     /storage/coda1/p-amedford6/0/shared/rich_project_chbe-medford/medford-share/data/pseudos_module/espresso/nninc/pbe/van/C.UPF
     MD5 check sum: 1a69bf6b8db32088f5b2163dbdb77a27
     Pseudo is Ultrasoft, Zval =  4.0
     Generated by new atomic code, or converted to UPF format
     Using radial grid of  721 points,  4 beta functions with:
                l(1) =   0
                l(2) =   0
                l(3) =   1
                l(4) =   1
     Q(r) pseudized with  8 coefficients,  rinner =    0.800   0.800   0.800

     PseudoPot. # 4 for H  read from file:
     /storage/coda1/p-amedford6/0/shared/rich_project_chbe-medford/medford-share/data/pseudos_module/espresso/nninc/pbe/van/H.UPF
     MD5 check sum: b5ee9d7bfd3a09ee7748110bda690ff7
     Pseudo is Ultrasoft, Zval =  1.0
     Generated by new atomic code, or converted to UPF format
     Using radial grid of  615 points,  1 beta functions with:
                l(1) =   0
     Q(r) pseudized with  8 coefficients,  rinner =    0.800

     atomic species   valence    mass     pseudopotential
        Ti1           12.00    47.86700     Ti( 1.00)
        O1             6.00    15.99900     O ( 1.00)
        C1             4.00    12.01100     C ( 1.00)
        H1             1.00     1.00800     H ( 1.00)

     No symmetry found

   Cartesian axes

     site n.     atom                  positions (alat units)
         1           Ti1 tau(   1) = (   0.0004258   2.9801865   6.0000000  )
         2           Ti1 tau(   2) = (   3.2906075   1.4906267   6.0002472  )
         3           O1  tau(   3) = (   0.0006271   0.0005054   7.9858123  )
         4           O1  tau(   4) = (   3.2906025   0.0005020   7.3038282  )
         5           O1  tau(   5) = (   4.5942328   1.4918067   9.2879030  )
         6           O1  tau(   6) = (   1.9868534   1.4903216   9.2879459  )
         7           Ti1 tau(   7) = (   3.3364693   3.0244086   9.1899460  )
         8           Ti1 tau(   8) = (   0.0614121   1.5180315   9.2736979  )
         9           O1  tau(   9) = (   3.3192415   0.0109611  11.3574448  )
        10           O1  tau(  10) = (   0.0135824   0.0030625  10.5923660  )
        11           O1  tau(  11) = (   1.3113730   1.4888140  12.6397483  )
        12           O1  tau(  12) = (   5.3365169   1.4868518  12.6422516  )
        13           Ti1 tau(  13) = (   0.0249591   3.0356721  12.5595363  )
        14           Ti1 tau(  14) = (   3.3216347   1.5719315  12.4302660  )
        15           O1  tau(  15) = (   0.0475996   5.9320359  14.6592625  )
        16           O1  tau(  16) = (   3.3253441   5.8716044  14.0084122  )
        17           O1  tau(  17) = (   4.6294077   1.4993822  16.1384749  )
        18           O1  tau(  18) = (   2.0712093   1.5368213  16.0656395  )
        19           Ti1 tau(  19) = (   3.3420502   2.9337026  15.6791356  )
        20           Ti1 tau(  20) = (   0.0819182   1.3209985  15.9439250  )
        21           O1  tau(  21) = (   3.2904802   0.0005063   4.7018136  )
        22           O1  tau(  22) = (   0.1121901   0.0005398  17.1797988  )
        23           O1  tau(  23) = (   1.3043587   1.4918075   6.0039043  )
        24           O1  tau(  24) = (   5.2767064   1.4903225   6.0039473  )
        25           Ti1 tau(  25) = (   0.0000382   5.9609847   6.0000000  )
        26           Ti1 tau(  26) = (   3.2902200   4.4714249   6.0002472  )
        27           O1  tau(  27) = (   0.0002396   2.9813036   7.9858123  )
        28           O1  tau(  28) = (   3.2902150   2.9813002   7.3038282  )
        29           O1  tau(  29) = (   4.5938453   4.4726049   9.2879030  )
        30           O1  tau(  30) = (   1.9864658   4.4711199   9.2879459  )
        31           Ti1 tau(  31) = (   3.3365859   0.0383882   9.1683042  )
        32           Ti1 tau(  32) = (   0.0607984   4.4756772   9.2727477  )
        33           O1  tau(  33) = (   3.3154497   2.9528697  11.3100477  )
        34           O1  tau(  34) = (   0.0130381   2.9821538  10.6068333  )
        35           O1  tau(  35) = (   1.3079814   4.4632751  12.6339740  )
        36           O1  tau(  36) = (   5.3374838   4.4678533  12.6371107  )
        37           Ti1 tau(  37) = (   0.0367351   0.0553833  12.4739561  )
        38           Ti1 tau(  38) = (   3.3178111   4.6524667  12.7070490  )
        39           O1  tau(  39) = (   0.0226182   2.9861015  14.7894940  )
        40           O1  tau(  40) = (   3.3464301   2.9603322  13.9061577  )
        41           O1  tau(  41) = (   4.6320376   4.4053937  16.1659747  )
        42           O1  tau(  42) = (   2.0651706   4.3480327  16.1155179  )
        43           Ti1 tau(  43) = (   3.4032537   5.9185344  16.2710929  )
        44           Ti1 tau(  44) = (   0.0646745   4.5145260  15.8553686  )
        45           O1  tau(  45) = (   3.2900926   2.9813045   4.7018136  )
        46           O1  tau(  46) = (   1.3039711   4.4726057   6.0039043  )
        47           O1  tau(  47) = (   5.2763189   4.4711207   6.0039473  )
        48           C1  tau(  48) = (   5.9353497   3.0583042  18.8699169  )
        49           O1  tau(  49) = (   0.1856485   3.0014673  17.6677584  )
        50           H1  tau(  50) = (   4.9577780   2.6849493  18.5881267  )
        51           H1  tau(  51) = (   1.1185258   3.1466834  17.9024234  )
        52           H1  tau(  52) = (   6.3707541   2.3980388  19.6265123  )
        53           H1  tau(  53) = (   5.8722695   4.0904670  19.2075282  )
        54           O1  tau(  54) = (   3.1419305   5.9539177  18.1124628  )
        55           H1  tau(  55) = (   2.2021640   0.0520986  18.3490109  )

     number of k points=    10  Fermi-Dirac smearing, width (Ry)=  0.0073
                       cart. coord. in units 2pi/alat
        k(    1) = (   0.0000000   0.0000000   0.0000000), wk =   0.1250000
        k(    2) = (   0.0000000   0.0419351   0.0000000), wk =   0.2500000
        k(    3) = (   0.0000000  -0.0838702   0.0000000), wk =   0.1250000
        k(    4) = (   0.0379955   0.0000049   0.0000000), wk =   0.2500000
        k(    5) = (   0.0379955   0.0419400   0.0000000), wk =   0.2500000
        k(    6) = (   0.0379955  -0.0838652   0.0000000), wk =   0.2500000
        k(    7) = (   0.0379955  -0.0419301   0.0000000), wk =   0.2500000
        k(    8) = (  -0.0759910  -0.0000099   0.0000000), wk =   0.1250000
        k(    9) = (  -0.0759910   0.0419252   0.0000000), wk =   0.2500000
        k(   10) = (  -0.0759910  -0.0838800   0.0000000), wk =   0.1250000

     Initial potential from superposition of free atoms

     starting charge  382.99916, renormalised to  399.00000

     negative rho (up, down):  1.653E-02 0.000E+00

     %%%%%%%%%%%%%%%%%%%%%%%%%%%%%%%%%%%%%%%%%%%%%%%%%%%%%%%%%%%%%%%%%%%%%%%%
     %                                                                      %
     % You are using vdW-DF, which was implemented by the Thonhauser group. %
     % Please cite the following two papers that made this development      %
     % possible and the two reviews that describe the various versions:     %
     %                                                                      %
     %   T. Thonhauser et al., PRL 115, 136402 (2015).                      %
     %   T. Thonhauser et al., PRB 76, 125112 (2007).                       %
     %   K. Berland et al., Rep. Prog. Phys. 78, 066501 (2015).             %
     %   D.C. Langreth et al., J. Phys.: Condens. Matter 21, 084203 (2009). %
     %                                                                      %
     %                                                                      %
     % If you are calculating the stress with vdW-DF, please also cite:     %
     %                                                                      %
     %   R. Sabatini et al., J. Phys.: Condens. Matter 24, 424209 (2012).   %
     %                                                                      %
     %%%%%%%%%%%%%%%%%%%%%%%%%%%%%%%%%%%%%%%%%%%%%%%%%%%%%%%%%%%%%%%%%%%%%%%%

     Adding external electric field

     Computed dipole along edir(3) :
        Dipole              -10.2322 Ry au,        -26.0076 Debye
        Dipole field         -0.0193 Ry au,

        Potential amp.        1.7900 Ry
        Total length         46.3494 bohr

     Starting wfcs are  301 atomic wfcs
  @ DRIVER MODE: Message from server: STATUS
  @ DRIVER MODE: Message from server: POSDATA
  @ DRIVER MODE: Reading and sharing cell
  @ DRIVER MODE: Reading and sharing positions
  @ DRIVER MODE: Received positions

     Self-consistent Calculation

     iteration #  1     ecut=    29.40 Ry     beta= 0.05
     Davidson diagonalization with overlap
     c_bands:  3 eigenvalues not converged
     c_bands:  3 eigenvalues not converged
     c_bands:  4 eigenvalues not converged
     c_bands:  1 eigenvalues not converged
     c_bands:  5 eigenvalues not converged
     c_bands:  5 eigenvalues not converged
     c_bands:  4 eigenvalues not converged
     c_bands:  4 eigenvalues not converged
     c_bands:  4 eigenvalues not converged
     ethr =  1.00E-05,  avg # of iterations = 21.1

[...]

     total energy              =   -2463.86771561 Ry
     estimated scf accuracy    <    5598.07347213 Ry

     iteration #  2     ecut=    29.40 Ry     beta= 0.05
     Davidson diagonalization with overlap
     ethr =  1.00E-02,  avg # of iterations = 25.6

[...]

     iteration # 62     ecut=    29.40 Ry     beta= 0.05
     Davidson diagonalization with overlap
     c_bands:  1 eigenvalues not converged
     ethr =  3.17E-10,  avg # of iterations = 13.4

[...]

     total energy              =   -2966.27809744 Ry
     estimated scf accuracy    <       0.00000011 Ry

     iteration # 67     ecut=    29.40 Ry     beta= 0.05
     Davidson diagonalization with overlap
     ethr =  2.20E-11,  avg # of iterations = 10.8

     negative rho (up, down):  1.670E-02 0.000E+00

     Adding external electric field

     Computed dipole along edir(3) :
        Dipole                1.0438 Ry au,          2.6532 Debye
        Dipole field          0.0020 Ry au,

        Potential amp.       -0.1826 Ry
        Total length         46.3494 bohr

     End of self-consistent calculation

          k = 0.0000 0.0000 0.0000 ( 18029 PWs)   bands (ev):

   -55.7019 -55.6324 -55.5975 -55.5180 -55.4945 -55.4671 -55.4349 -55.4278
   -55.4236 -55.4109 -55.3985 -55.3713 -55.2852 -55.2130 -54.5906 -54.5566
   -32.1113 -32.0938 -32.0132 -32.0027 -31.9589 -31.9503 -31.9223 -31.9197
   -31.8929 -31.8760 -31.8670 -31.7945 -31.7917 -31.7859 -31.7585 -31.7408
   -31.7335 -31.7218 -31.7117 -31.6988 -31.6952 -31.6910 -31.6468 -31.6462
   -31.6446 -31.6369 -31.6322 -31.6251 -31.6130 -31.5972 -31.5921 -31.5822
   -31.5762 -31.5611 -31.5568 -31.5472 -31.5370 -31.5130 -31.4739 -31.4571
   -31.4249 -31.4175 -30.9967 -30.9108 -30.8882 -30.8138 -30.7274 -30.6158
   -20.0623 -16.5168 -16.2855 -16.1059 -15.9046 -15.8411 -15.7827 -15.5943
   -15.5190 -15.3782 -15.2333 -15.2210 -15.1667 -15.1662 -15.1573 -15.1342
   -15.1033 -15.0591 -15.0499 -15.0438 -15.0382 -14.9827 -14.9408 -14.9326
   -14.9260 -14.8852 -14.7569 -14.7166 -14.6604 -14.4896 -14.4468 -13.0906
   -12.9745 -10.9197  -6.7578  -4.9668  -4.7749  -4.0110  -3.6374  -3.5369
    -3.5191  -3.4561  -3.4000  -3.1880  -3.0606  -3.0162  -2.9036  -2.7771
    -2.7378  -2.6744  -2.6576  -2.5662  -2.5447  -2.5140  -2.4881  -2.4318
    -2.4023  -2.3940  -2.3808  -2.3097  -2.3002  -2.1700  -2.1660  -2.0931
    -2.0246  -2.0036  -1.9848  -1.9667  -1.9351  -1.9345  -1.8883  -1.8677
    -1.8463  -1.8137  -1.7428  -1.7216  -1.6610  -1.6209  -1.3870  -1.2259
    -1.2033  -1.1333  -1.1157  -1.0840  -1.0468  -1.0318  -1.0262  -0.9876
    -0.9712  -0.8628  -0.7664  -0.7542  -0.6939  -0.6546  -0.6533  -0.5195
    -0.4715  -0.3977  -0.3719  -0.3467  -0.3237  -0.2312  -0.1884  -0.1708
    -0.1076  -0.0775   0.0341   0.0738   0.0916   0.1303   0.1860   0.2540
     0.2841   0.3210   0.3288   0.3611   0.4101   0.4349   0.4676   0.4945
     0.5335   0.6382   0.6776   0.6930   0.8372   0.8381   0.9259   1.0532
     1.1013   1.3822   1.4343   1.4724   1.6272   2.0019   2.0480   3.4864
     3.6034   3.6140   3.6323   3.7027   3.7930   3.9486   3.9768   4.0480
     4.1427

[...]

          k = 0.0380-0.0419 0.0000 ( 17876 PWs)   bands (ev):

[...]

          k =-0.0760-0.0000 0.0000 ( 17886 PWs)   bands (ev):

[...]

          k =-0.0760-0.0839 0.0000 ( 17948 PWs)   bands (ev):

   -55.7011 -55.6188 -55.6109 -55.5112 -55.4898 -55.4737 -55.4286 -55.4281
   -55.4223 -55.4106 -55.4017 -55.3807 -55.2813 -55.2168 -54.5737 -54.5733
   -32.0132 -31.9540 -31.9449 -31.9306 -31.9229 -31.9189 -31.9150 -31.9011
   -31.8341 -31.8331 -31.7976 -31.7678 -31.7631 -31.7555 -31.7393 -31.7387
   -31.7338 -31.7308 -31.7282 -31.7181 -31.7154 -31.7130 -31.7010 -31.6993
   -31.6720 -31.6695 -31.6363 -31.6311 -31.6301 -31.6295 -31.6194 -31.6155
   -31.6090 -31.6070 -31.6000 -31.5990 -31.5971 -31.5604 -31.5407 -31.4782
   -31.4641 -31.4214 -30.9010 -30.9008 -30.8105 -30.8090 -30.7707 -30.7699
   -20.0586 -16.4919 -15.9011 -15.7571 -15.5945 -15.5763 -15.4987 -15.4031
   -15.3865 -15.3575 -15.3480 -15.3276 -15.3020 -15.2998 -15.2517 -15.1966
   -15.1548 -15.1319 -15.1275 -15.0814 -15.0721 -15.0685 -15.0128 -15.0002
   -14.9909 -14.9523 -14.8924 -14.8638 -14.7858 -14.7585 -14.6047 -13.0767
   -13.0761 -10.9219  -6.7587  -4.9480  -4.7678  -3.9739  -3.0509  -2.9771
    -2.8879  -2.8171  -2.7364  -2.6777  -2.6279  -2.6091  -2.5662  -2.5460
    -2.4756  -2.4417  -2.4342  -2.4127  -2.4105  -2.3839  -2.3681  -2.3557
    -2.3329  -2.3029  -2.2888  -2.2749  -2.2564  -2.2359  -2.2150  -2.1957
    -2.1829  -2.1722  -2.1524  -2.0449  -2.0213  -1.9848  -1.8313  -1.8198
    -1.7544  -1.7219  -1.6914  -1.6861  -1.6533  -1.6455  -1.6027  -1.4926
    -1.4648  -1.4174  -1.3623  -1.2694  -1.2642  -1.2176  -1.1651  -1.1256
    -1.0964  -1.0492  -1.0463  -1.0009  -0.8596  -0.8328  -0.7941  -0.6701
    -0.5979  -0.5826  -0.5686  -0.5516  -0.5255  -0.4784  -0.4729  -0.4164
    -0.3949  -0.3230  -0.3208  -0.2965  -0.2721  -0.1654  -0.0506   0.0407
     0.0751   0.1314   0.1713   0.2044   0.2873   0.3611   0.4446   0.5306
     0.5569   0.5677   0.6891   0.7161   0.7671   0.8199   0.8358   0.8956
     0.9285   0.9714   0.9996   1.7954   1.8087   1.8645   1.8693   3.6745
     3.9237   3.9756   3.9938   4.0064   4.0400   4.0599   4.1067   4.1246
     4.1504

     the Fermi energy is     3.4999 ev

!    total energy              =   -2966.27812435 Ry
     estimated scf accuracy    <       0.00000005 Ry
     smearing contrib. (-TS)   =      -0.02072859 Ry
     internal energy E=F+TS    =   -2966.25739576 Ry

     The total energy is F=E-TS. E is the sum of the following terms:
     one-electron contribution =  -24038.88497480 Ry
     hartree contribution      =   12111.94830473 Ry
     xc contribution           =    -490.93947645 Ry
     ewald contribution        =    9451.61669451 Ry
     electric field correction =       0.00205624 Ry

     convergence has been achieved in  67 iterations

     Forces acting on atoms (cartesian axes, Ry/au):

     atom    1 type  1   force =    -0.00039823    0.00005387    0.09456636
     atom    2 type  1   force =    -0.00032353    0.00499265   -0.17462681
     atom    3 type  2   force =     0.00082332   -0.00023644   -0.02594024
     atom    4 type  2   force =     0.00125426    0.00074874    0.05284599
     atom    5 type  2   force =    -0.01096891   -0.00285473    0.00049162
     atom    6 type  2   force =     0.01163562   -0.00410141    0.00186836
     atom    7 type  1   force =     0.00052291    0.00038645   -0.00015441
     atom    8 type  1   force =    -0.00045034    0.00019803    0.00076540
     atom    9 type  2   force =    -0.00044533    0.00028331   -0.00026777
     atom   10 type  2   force =     0.00031563   -0.00035251   -0.00046119
     atom   11 type  2   force =     0.00062260    0.00031804   -0.00022416
     atom   12 type  2   force =    -0.00039088   -0.00046443   -0.00037818
     atom   13 type  1   force =    -0.00130084   -0.00079569    0.00032150
     atom   14 type  1   force =     0.00029260    0.00009680    0.00056291
     atom   15 type  2   force =     0.00048492    0.00068074    0.00018612
     atom   16 type  2   force =    -0.00049056    0.00051980    0.00057553
     atom   17 type  2   force =     0.00004646    0.00031514    0.00005958
     atom   18 type  2   force =    -0.00028860   -0.00001477    0.00036626
     atom   19 type  1   force =    -0.00041307    0.00113186   -0.00020817
     atom   20 type  1   force =    -0.00016918   -0.00024105   -0.00071509
     atom   21 type  2   force =    -0.00001501    0.00005427    0.10307661
     atom   22 type  2   force =    -0.00038198   -0.00058811   -0.00043477
     atom   23 type  2   force =    -0.07204556    0.00005197   -0.02788791
     atom   24 type  2   force =     0.07190178    0.00054017   -0.02799363
     atom   25 type  1   force =    -0.00044221   -0.00000317    0.10114926
     atom   26 type  1   force =    -0.00006398   -0.00460891   -0.17488224
     atom   27 type  2   force =     0.00089664    0.00114489   -0.02442927
     atom   28 type  2   force =     0.00113681    0.00015154    0.05240990
     atom   29 type  2   force =    -0.01185537    0.00306259    0.00195940
     atom   30 type  2   force =     0.01325654    0.00116232    0.00309367
     atom   31 type  1   force =     0.00058469    0.00002346   -0.00054997
     atom   32 type  1   force =    -0.00036172    0.00070408    0.00046896
     atom   33 type  2   force =    -0.00020244    0.00093570    0.00016732
     atom   34 type  2   force =     0.00013724   -0.00012794   -0.00096747
     atom   35 type  2   force =     0.00034597    0.00007700    0.00054479
     atom   36 type  2   force =     0.00008747    0.00016538    0.00048125
     atom   37 type  1   force =    -0.00145888   -0.00060625    0.00029096
     atom   38 type  1   force =     0.00077921   -0.00026793   -0.00013700
     atom   39 type  2   force =     0.00045224   -0.00021204    0.00122149
     atom   40 type  2   force =    -0.00011154    0.00034379    0.00053640
     atom   41 type  2   force =    -0.00051867    0.00002179   -0.00067103
     atom   42 type  2   force =    -0.00002705   -0.00019030   -0.00055926
     atom   43 type  1   force =    -0.00003980   -0.00028274   -0.00058279
     atom   44 type  1   force =    -0.00023217   -0.00049123   -0.00118171
     atom   45 type  2   force =    -0.00001297    0.00012983    0.10265357
     atom   46 type  2   force =    -0.07201625   -0.00056547   -0.02787098
     atom   47 type  2   force =     0.07186904   -0.00007554   -0.02795228
     atom   48 type  3   force =     0.00257852   -0.00645216    0.00263073
     atom   49 type  2   force =    -0.00087971   -0.00025861   -0.00101052
     atom   50 type  4   force =    -0.00004894    0.00016772   -0.00036088
     atom   51 type  4   force =    -0.00010922   -0.00009814   -0.00026501
     atom   52 type  4   force =    -0.00274627    0.00556562   -0.00430287
     atom   53 type  4   force =    -0.00031649    0.00004702    0.00070012
     atom   54 type  2   force =     0.00107955    0.00007395    0.00066569
     atom   55 type  4   force =    -0.00157833   -0.00025893    0.00035586

     Total force =     0.364522     Total SCF correction =     0.000511
  @ DRIVER MODE: Message from server: STATUS
  @ DRIVER MODE: Message from server: GETFORCE
  @ DRIVER MODE: Returning v,forces,stress,ensemble

     Writing output data file ./calc.save/
  @ DRIVER MODE: Message from server: EXIT
  @ DRIVE MODE: Exiting

     General routines

     Parallel routines

   This run was terminated on:   9: 1:29  23Sep2021

   JOB DONE.