     Program PWSCF v.6.7GPU starts on 16Sep2021 at  8:11: 7

     R & G space division:  proc/nbgrp/npool/nimage =      10
     Reading input from /storage/home/hcoda1/3/ntian30/research/carbon/CxH_vib/H2O_calc/ads_slab/CH3NNHHHH2O_a/out_0047/pw.inp
Warning: card &CELL ignored
Warning: card   CELL_DYNAMICS='IPI', ignored
Warning: card / ignored

     Current dimensions of program PWSCF are:
     Max number of different atomic species (ntypx) = 10
     Max number of k-points (npk) =  40000
     Max angular momentum in pseudopotentials (lmaxx) =  3
     Presently no symmetry can be used with electric field

     Message from routine cell_base_init:
     DEPRECATED: use true lattice parameter, not A to a.u. conversion factor

     IMPORTANT: XC functional enforced from input :
     Exchange-correlation= BEEF-VDW
                           (   1   4  43  14   2   0   0)
     Any further DFT definition will be discarded
     Please, verify this is what you really want

  @ DRIVER MODE: Connecting to
 qe_1139763_2852622.sched-torque.pace.gatech.edu2v20qkci_scratch
  using UNIX socket
  @ DRIVER MODE: Message from server: STATUS
  @ DRIVER MODE: Message from server: INIT
  @ DRIVER MODE: Receiving replica           0          -1
  @ DRIVER MODE: Receiving encoded integer          25
  @ DRIVER MODE:  SCF:  T  FORCE:  T  STRESS:  F  VC:  F  ENSEMBLE:  F
  @ DRIVER MODE:  SCF:  T  FORCE:  T  STRESS:  F  VC:  F  ENSEMBLE:  F

     Using Slab Decomposition

     bravais-lattice index     =            0
     lattice parameter (alat)  =       1.8897  a.u.
     unit-cell volume          =    6658.9804 (a.u.)^3
     number of atoms/cell      =           59
     number of atomic types    =            5
     number of electrons       =       406.00
     number of Kohn-Sham states=          213
     kinetic-energy cutoff     =      29.3995  Ry
     charge density cutoff     =     293.9946  Ry
     scf convergence threshold =      7.3E-08
     mixing beta               =       0.0500
     number of iterations used =            8  plain     mixing
     Exchange-correlation= BEEF-VDW
                           (   1   4  43  14   2   0   0)

     celldm(1)=   1.889726  celldm(2)=   0.000000  celldm(3)=   0.000000
     celldm(4)=   0.000000  celldm(5)=   0.000000  celldm(6)=   0.000000

     crystal axes: (cart. coord. in units of alat)
               a(1) = (   6.579727   0.000000   0.000000 )
               a(2) = (  -0.000775   5.961596   0.000000 )
               a(3) = (   0.000000   0.000000  25.155947 )

     reciprocal axes: (cart. coord. in units 2 pi/alat)
               b(1) = (  0.151982  0.000020  0.000000 )
               b(2) = (  0.000000  0.167740  0.000000 )
               b(3) = (  0.000000  0.000000  0.039752 )

     PseudoPot. # 1 for Ti read from file:
     /storage/coda1/p-amedford6/0/shared/rich_project_chbe-medford/medford-share/data/pseudos_module/espresso/nninc/pbe/van/Ti.UPF
     MD5 check sum: 8e4df49b7f0d34bbd5052bf3f5ea0213
     Pseudo is Ultrasoft, Zval = 12.0
     Generated by new atomic code, or converted to UPF format
     Using radial grid of  851 points,  6 beta functions with:
                l(1) =   0
                l(2) =   0
                l(3) =   1
                l(4) =   1
                l(5) =   2
                l(6) =   2
     Q(r) pseudized with  8 coefficients,  rinner =    1.000   1.000   1.000
                                                       1.000   1.000

     PseudoPot. # 2 for O  read from file:
     /storage/coda1/p-amedford6/0/shared/rich_project_chbe-medford/medford-share/data/pseudos_module/espresso/nninc/pbe/van/O.UPF
     MD5 check sum: 78c19812648e8988a0fe644b0f25305e
     Pseudo is Ultrasoft, Zval =  6.0
     Generated by new atomic code, or converted to UPF format
     Using radial grid of  737 points,  4 beta functions with:
                l(1) =   0
                l(2) =   0
                l(3) =   1
                l(4) =   1
     Q(r) pseudized with  8 coefficients,  rinner =    0.800   0.800   0.800

     PseudoPot. # 3 for N  read from file:
     /storage/coda1/p-amedford6/0/shared/rich_project_chbe-medford/medford-share/data/pseudos_module/espresso/nninc/pbe/van/N.UPF
     MD5 check sum: 90d10febe142ad51ac9d5be1deb811c4
     Pseudo is Ultrasoft, Zval =  5.0
     Generated by new atomic code, or converted to UPF format
     Using radial grid of  729 points,  4 beta functions with:
                l(1) =   0
                l(2) =   0
                l(3) =   1
                l(4) =   1
     Q(r) pseudized with  8 coefficients,  rinner =    0.800   0.800   0.800

     PseudoPot. # 4 for C  read from file:
     /storage/coda1/p-amedford6/0/shared/rich_project_chbe-medford/medford-share/data/pseudos_module/espresso/nninc/pbe/van/C.UPF
     MD5 check sum: 1a69bf6b8db32088f5b2163dbdb77a27
     Pseudo is Ultrasoft, Zval =  4.0
     Generated by new atomic code, or converted to UPF format
     Using radial grid of  721 points,  4 beta functions with:
                l(1) =   0
                l(2) =   0
                l(3) =   1
                l(4) =   1
     Q(r) pseudized with  8 coefficients,  rinner =    0.800   0.800   0.800

     PseudoPot. # 5 for H  read from file:
     /storage/coda1/p-amedford6/0/shared/rich_project_chbe-medford/medford-share/data/pseudos_module/espresso/nninc/pbe/van/H.UPF
     MD5 check sum: b5ee9d7bfd3a09ee7748110bda690ff7
     Pseudo is Ultrasoft, Zval =  1.0
     Generated by new atomic code, or converted to UPF format
     Using radial grid of  615 points,  1 beta functions with:
                l(1) =   0
     Q(r) pseudized with  8 coefficients,  rinner =    0.800

     atomic species   valence    mass     pseudopotential
        Ti1           12.00    47.86700     Ti( 1.00)
        O1             6.00    15.99900     O ( 1.00)
        N1             5.00    14.00700     N ( 1.00)
        C1             4.00    12.01100     C ( 1.00)
        H1             1.00     1.00800     H ( 1.00)

     No symmetry found

   Cartesian axes

     site n.     atom                  positions (alat units)
         1           Ti1 tau(   1) = (   0.0004258   2.9801865   6.0000000  )
         2           Ti1 tau(   2) = (   3.2906075   1.4906267   6.0002472  )
         3           O1  tau(   3) = (   0.0006271   0.0005054   7.9858123  )
         4           O1  tau(   4) = (   3.2906025   0.0005020   7.3038282  )
         5           O1  tau(   5) = (   4.5942328   1.4918067   9.2879030  )
         6           O1  tau(   6) = (   1.9868534   1.4903216   9.2879459  )
         7           Ti1 tau(   7) = (   3.2907910   2.8959150   9.1758416  )
         8           Ti1 tau(   8) = (   0.0015273   1.4827037   9.2680791  )
         9           O1  tau(   9) = (   3.2800960   5.9426830  11.3808346  )
        10           O1  tau(  10) = (   0.0116148   5.9584955  10.6183126  )
        11           O1  tau(  11) = (   1.2797812   1.4911726  12.6624455  )
        12           O1  tau(  12) = (   5.2824698   1.4871998  12.6412817  )
        13           Ti1 tau(  13) = (   0.0041451   2.9720195  12.5119452  )
        14           Ti1 tau(  14) = (   3.3095611   1.4699318  12.5307708  )
        15           O1  tau(  15) = (   6.5436702   0.0697967  14.6864816  )
        16           O1  tau(  16) = (   3.2812162   5.9597207  14.0300411  )
        17           O1  tau(  17) = (   4.5129646   1.5046642  16.2361130  )
        18           O1  tau(  18) = (   1.9708392   1.5012857  16.1671103  )
        19           Ti1 tau(  19) = (   3.2655272   2.9480959  15.7331506  )
        20           Ti1 tau(  20) = (   6.5674642   1.4497656  15.9937491  )
        21           O1  tau(  21) = (   3.2904802   0.0005063   4.7018136  )
        22           O1  tau(  22) = (   6.5217933   5.8323795  17.2454964  )
        23           O1  tau(  23) = (   1.3043587   1.4918075   6.0039043  )
        24           O1  tau(  24) = (   5.2767064   1.4903225   6.0039473  )
        25           Ti1 tau(  25) = (   0.0000382   5.9609847   6.0000000  )
        26           Ti1 tau(  26) = (   3.2902200   4.4714249   6.0002472  )
        27           O1  tau(  27) = (   0.0002396   2.9813036   7.9858123  )
        28           O1  tau(  28) = (   3.2902150   2.9813002   7.3038282  )
        29           O1  tau(  29) = (   4.5938453   4.4726049   9.2879030  )
        30           O1  tau(  30) = (   1.9864658   4.4711199   9.2879459  )
        31           Ti1 tau(  31) = (   3.2891106   5.8743827   9.1763621  )
        32           Ti1 tau(  32) = (   0.0006254   4.4649316   9.2693709  )
        33           O1  tau(  33) = (   3.2830490   2.9749636  11.3746576  )
        34           O1  tau(  34) = (   0.0092240   2.9805883  10.6323155  )
        35           O1  tau(  35) = (   1.2760807   4.4612897  12.6946019  )
        36           O1  tau(  36) = (   5.2846406   4.4647657  12.6742532  )
        37           Ti1 tau(  37) = (   0.0173662   5.9591775  12.4970172  )
        38           Ti1 tau(  38) = (   3.3070294   4.4569304  12.5379467  )
        39           O1  tau(  39) = (   6.5190077   2.9374781  14.9220565  )
        40           O1  tau(  40) = (   3.2909943   2.9519766  13.9498127  )
        41           O1  tau(  41) = (   4.5146313   4.4149292  16.1460290  )
        42           O1  tau(  42) = (   1.9668235   4.4047650  16.1116202  )
        43           Ti1 tau(  43) = (   3.2426406   5.9218513  15.8539982  )
        44           Ti1 tau(  44) = (   6.5337747   4.6515477  15.8702276  )
        45           O1  tau(  45) = (   3.2900926   2.9813045   4.7018136  )
        46           O1  tau(  46) = (   1.3039711   4.4726057   6.0039043  )
        47           O1  tau(  47) = (   5.2763189   4.4711207   6.0039473  )
        48           N1  tau(  48) = (   1.0802268   3.0592680  18.8437747  )
        49           N1  tau(  49) = (   6.4825355   2.6367244  18.1156036  )
        50           C1  tau(  50) = (   0.7269815   3.7261681  20.0984356  )
        51           H1  tau(  51) = (   0.0344531   4.5672025  19.9493712  )
        52           H1  tau(  52) = (   0.2718923   3.0081313  20.7822053  )
        53           H1  tau(  53) = (   1.6424345   4.1087450  20.5485440  )
        54           H1  tau(  54) = (   5.7152520   3.3097272  18.2274121  )
        55           H1  tau(  55) = (   6.1788988   1.7551022  18.5168573  )
        56           H1  tau(  56) = (   1.5478348   3.7306874  18.2371031  )
        57           O1  tau(  57) = (   3.1661568   0.0027346  18.3937517  )
        58           H1  tau(  58) = (   4.0701885   0.3469208  18.4697374  )
        59           H1  tau(  59) = (   2.5798038   0.7742236  18.5044111  )

     number of k points=    10  Fermi-Dirac smearing, width (Ry)=  0.0073
                       cart. coord. in units 2pi/alat
        k(    1) = (   0.0000000   0.0000000   0.0000000), wk =   0.1250000
        k(    2) = (   0.0000000   0.0419351   0.0000000), wk =   0.2500000
        k(    3) = (   0.0000000  -0.0838702   0.0000000), wk =   0.1250000
        k(    4) = (   0.0379955   0.0000049   0.0000000), wk =   0.2500000
        k(    5) = (   0.0379955   0.0419400   0.0000000), wk =   0.2500000
        k(    6) = (   0.0379955  -0.0838652   0.0000000), wk =   0.2500000
        k(    7) = (   0.0379955  -0.0419301   0.0000000), wk =   0.2500000
        k(    8) = (  -0.0759910  -0.0000099   0.0000000), wk =   0.1250000
        k(    9) = (  -0.0759910   0.0419252   0.0000000), wk =   0.2500000
        k(   10) = (  -0.0759910  -0.0838800   0.0000000), wk =   0.1250000

     Initial potential from superposition of free atoms

     starting charge  389.99912, renormalised to  406.00000

     negative rho (up, down):  1.306E-02 0.000E+00

     %%%%%%%%%%%%%%%%%%%%%%%%%%%%%%%%%%%%%%%%%%%%%%%%%%%%%%%%%%%%%%%%%%%%%%%%
     %                                                                      %
     % You are using vdW-DF, which was implemented by the Thonhauser group. %
     % Please cite the following two papers that made this development      %
     % possible and the two reviews that describe the various versions:     %
     %                                                                      %
     %   T. Thonhauser et al., PRL 115, 136402 (2015).                      %
     %   T. Thonhauser et al., PRB 76, 125112 (2007).                       %
     %   K. Berland et al., Rep. Prog. Phys. 78, 066501 (2015).             %
     %   D.C. Langreth et al., J. Phys.: Condens. Matter 21, 084203 (2009). %
     %                                                                      %
     %                                                                      %
     % If you are calculating the stress with vdW-DF, please also cite:     %
     %                                                                      %
     %   R. Sabatini et al., J. Phys.: Condens. Matter 24, 424209 (2012).   %
     %                                                                      %
     %%%%%%%%%%%%%%%%%%%%%%%%%%%%%%%%%%%%%%%%%%%%%%%%%%%%%%%%%%%%%%%%%%%%%%%%

     Adding external electric field

     Computed dipole along edir(3) :
        Dipole              -16.1150 Ry au,        -40.9603 Debye
        Dipole field         -0.0304 Ry au,

        Potential amp.        2.8191 Ry
        Total length         46.3494 bohr

     Starting wfcs are  308 atomic wfcs
  @ DRIVER MODE: Message from server: STATUS
  @ DRIVER MODE: Message from server: POSDATA
  @ DRIVER MODE: Reading and sharing cell
  @ DRIVER MODE: Reading and sharing positions
  @ DRIVER MODE: Received positions

     Self-consistent Calculation

     iteration #  1     ecut=    29.40 Ry     beta= 0.05
     Davidson diagonalization with overlap
     c_bands:  2 eigenvalues not converged
     c_bands:  3 eigenvalues not converged
     c_bands:  2 eigenvalues not converged
     c_bands:  3 eigenvalues not converged
     c_bands:  4 eigenvalues not converged
     c_bands:  2 eigenvalues not converged
     c_bands:  1 eigenvalues not converged
     c_bands:  5 eigenvalues not converged
     c_bands:  1 eigenvalues not converged
     ethr =  1.00E-05,  avg # of iterations = 23.1

[...]

     total energy              =   -2140.63415753 Ry
     estimated scf accuracy    <    9598.75966976 Ry

     iteration #  2     ecut=    29.40 Ry     beta= 0.05
     Davidson diagonalization with overlap
     ethr =  1.00E-02,  avg # of iterations = 33.5

[...]

     iteration # 76     ecut=    29.40 Ry     beta= 0.05
     Davidson diagonalization with overlap
     ethr =  2.20E-11,  avg # of iterations =  6.8

[...]

     total energy              =   -2977.70009745 Ry
     estimated scf accuracy    <       0.00000011 Ry

     iteration # 77     ecut=    29.40 Ry     beta= 0.05
     Davidson diagonalization with overlap
     c_bands:  1 eigenvalues not converged
     ethr =  2.20E-11,  avg # of iterations = 13.0

     negative rho (up, down):  1.407E-02 0.000E+00

     Adding external electric field

     Computed dipole along edir(3) :
        Dipole                1.3342 Ry au,          3.3912 Debye
        Dipole field          0.0025 Ry au,

        Potential amp.       -0.2334 Ry
        Total length         46.3494 bohr

     End of self-consistent calculation

          k = 0.0000 0.0000 0.0000 ( 18029 PWs)   bands (ev):

   -55.1211 -55.0844 -55.0772 -55.0430 -55.0369 -55.0319 -55.0002 -54.9644
   -54.9461 -54.9113 -54.9072 -54.8903 -54.8735 -54.8399 -54.1066 -54.0725
   -31.6829 -31.5966 -31.5695 -31.4893 -31.4352 -31.4323 -31.4187 -31.4127
   -31.3660 -31.3430 -31.3327 -31.3218 -31.3151 -31.3121 -31.2939 -31.2856
   -31.2654 -31.2627 -31.2604 -31.2422 -31.2297 -31.2201 -31.2026 -31.1982
   -31.1909 -31.1790 -31.1762 -31.1471 -31.1344 -31.1311 -31.1263 -31.1057
   -31.1030 -31.0955 -31.0921 -31.0683 -31.0594 -31.0427 -31.0351 -31.0334
   -31.0182 -31.0172 -30.5160 -30.4217 -30.3996 -30.3324 -30.2456 -30.1347
   -18.8055 -17.8186 -15.9521 -15.6967 -15.5601 -15.4590 -15.3243 -15.2182
   -15.1369 -15.0228 -14.9729 -14.8574 -14.8253 -14.8207 -14.7813 -14.7499
   -14.7011 -14.6624 -14.6602 -14.6379 -14.6184 -14.6107 -14.5679 -14.5610
   -14.5215 -14.5195 -14.4995 -14.3635 -14.2819 -14.2118 -14.0303 -13.2108
   -12.6090 -12.4916  -9.7776  -6.5376  -6.4050  -5.4702  -4.9174  -3.5312
    -3.2857  -3.1410  -3.0879  -3.0526  -3.0172  -2.9610  -2.8830  -2.8010
    -2.6525  -2.5832  -2.5581  -2.4058  -2.3318  -2.3222  -2.2656  -2.1657
    -2.1410  -2.0942  -2.0519  -1.9875  -1.9500  -1.9266  -1.9048  -1.8697
    -1.8659  -1.8121  -1.7585  -1.6887  -1.5989  -1.5677  -1.5219  -1.4783
    -1.4558  -1.4530  -1.4131  -1.4067  -1.3953  -1.3517  -1.3454  -1.3155
    -1.2690  -1.1600  -1.0091  -0.9476  -0.8562  -0.7631  -0.7341  -0.7125
    -0.6924  -0.6303  -0.6079  -0.5771  -0.5030  -0.4547  -0.3755  -0.3287
    -0.3066  -0.2268  -0.1222  -0.1051  -0.0978  -0.0099   0.0824   0.0948
     0.1100   0.1195   0.2176   0.2830   0.3168   0.3584   0.4226   0.4317
     0.4897   0.5187   0.5702   0.6365   0.6691   0.7487   0.7880   0.8092
     0.8144   0.8371   0.8575   0.8689   0.9498   0.9584   0.9840   1.0727
     1.1772   1.3312   1.4775   1.4884   1.8217   1.8228   1.9163   2.0999
     2.4925   2.5408   3.9732   4.0489   4.1074   4.1186   4.1241   4.2090
     4.4581   4.4759   4.4873   4.4889   4.5238

[...]

          k = 0.0380-0.0419 0.0000 ( 17876 PWs)   bands (ev):

[...]

          k =-0.0760-0.0000 0.0000 ( 17886 PWs)   bands (ev):

[...]

          k =-0.0760-0.0839 0.0000 ( 17948 PWs)   bands (ev):

   -55.1067 -55.0986 -55.0601 -55.0599 -55.0341 -55.0308 -54.9874 -54.9771
   -54.9316 -54.9254 -54.8922 -54.8910 -54.8898 -54.8416 -54.0895 -54.0895
   -31.5119 -31.4926 -31.4828 -31.3847 -31.3846 -31.3789 -31.3723 -31.3513
   -31.3513 -31.3306 -31.3254 -31.3199 -31.3102 -31.2914 -31.2777 -31.2634
   -31.2589 -31.2579 -31.2542 -31.2478 -31.2458 -31.2419 -31.2300 -31.2290
   -31.1997 -31.1988 -31.1817 -31.1798 -31.1797 -31.1707 -31.1705 -31.1648
   -31.1564 -31.1440 -31.1385 -31.1227 -31.1211 -31.1052 -31.0711 -31.0705
   -31.0692 -31.0460 -30.4123 -30.4123 -30.3286 -30.3284 -30.2890 -30.2890
   -18.8040 -17.8152 -15.5320 -15.3936 -15.2545 -15.1508 -15.1359 -15.0824
   -15.0331 -14.9912 -14.9497 -14.9055 -14.8954 -14.8774 -14.8494 -14.8220
   -14.7977 -14.7385 -14.7221 -14.7065 -14.6843 -14.6374 -14.6296 -14.6268
   -14.6197 -14.5734 -14.5708 -14.5455 -14.4772 -14.4752 -14.2898 -13.2127
   -12.5931 -12.5930  -9.7745  -6.5897  -6.3264  -5.4677  -4.9283  -3.5049
    -2.9551  -2.8160  -2.6557  -2.6196  -2.4740  -2.3737  -2.3286  -2.3002
    -2.2467  -2.2009  -2.1408  -2.1257  -2.1074  -2.0486  -2.0230  -2.0045
    -1.9731  -1.9542  -1.9405  -1.9218  -1.9046  -1.8764  -1.8502  -1.8415
    -1.8369  -1.8075  -1.7921  -1.7527  -1.7459  -1.7381  -1.6949  -1.6828
    -1.6566  -1.5994  -1.4926  -1.4824  -1.3300  -1.3277  -1.2920  -1.2480
    -1.2276  -1.2176  -1.1573  -1.1493  -1.1371  -0.9000  -0.8742  -0.8642
    -0.8370  -0.7785  -0.7614  -0.6986  -0.6892  -0.6051  -0.5905  -0.4884
    -0.4726  -0.4124  -0.3330  -0.3249  -0.3127  -0.2012  -0.1517  -0.1143
    -0.0879  -0.0777  -0.0601  -0.0225  -0.0223   0.0676   0.1110   0.1413
     0.1566   0.1864   0.3509   0.3997   0.4085   0.5476   0.5613   0.7093
     0.7730   0.7873   0.8756   0.8956   0.9830   0.9928   1.0325   1.1720
     1.1835   1.2065   1.2538   1.2822   1.3341   1.3392   2.2726   2.2739
     2.3606   2.3609   4.1055   4.2310   4.2373   4.2980   4.4073   4.4408
     4.4866   4.5203   4.5575   4.5603   4.6300

     the Fermi energy is     4.0353 ev

!    total energy              =   -2977.70011593 Ry
     estimated scf accuracy    <       0.00000006 Ry
     smearing contrib. (-TS)   =      -0.03675048 Ry
     internal energy E=F+TS    =   -2977.66336545 Ry

     The total energy is F=E-TS. E is the sum of the following terms:
     one-electron contribution =  -23083.37134555 Ry
     hartree contribution      =   11640.81786295 Ry
     xc contribution           =    -496.62483787 Ry
     ewald contribution        =    8961.51159576 Ry
     electric field correction =       0.00335927 Ry

     convergence has been achieved in  77 iterations

     Forces acting on atoms (cartesian axes, Ry/au):

     atom    1 type  1   force =     0.00018022   -0.00018896    0.09313230
     atom    2 type  1   force =    -0.00010468   -0.00033426   -0.17822355
     atom    3 type  2   force =     0.00002069   -0.00017685   -0.02037591
     atom    4 type  2   force =    -0.00002662   -0.00200331    0.05898025
     atom    5 type  2   force =    -0.01058776   -0.00141792    0.00859297
     atom    6 type  2   force =     0.01185157   -0.00070135    0.00712551
     atom    7 type  1   force =    -0.00089226    0.00313421   -0.01229714
     atom    8 type  1   force =     0.00054785    0.00113695   -0.00449446
     atom    9 type  2   force =    -0.00007584   -0.00036921    0.00014196
     atom   10 type  2   force =    -0.00129301   -0.00050723   -0.00195315
     atom   11 type  2   force =    -0.00021057   -0.00021284   -0.00006174
     atom   12 type  2   force =     0.00060050   -0.00007037   -0.00024574
     atom   13 type  1   force =    -0.00103081   -0.00063157    0.00023547
     atom   14 type  1   force =     0.00011532   -0.00004335    0.00018806
     atom   15 type  2   force =    -0.00027740   -0.00050544   -0.00006322
     atom   16 type  2   force =    -0.00000621   -0.00007194    0.00065207
     atom   17 type  2   force =    -0.00021570    0.00025928    0.00061457
     atom   18 type  2   force =     0.00018676    0.00003931    0.00030530
     atom   19 type  1   force =     0.00019935    0.00007496    0.00061702
     atom   20 type  1   force =    -0.00006556   -0.00013066   -0.00016817
     atom   21 type  2   force =     0.00007081   -0.00001674    0.10399983
     atom   22 type  2   force =     0.00003147    0.00000068   -0.00102755
     atom   23 type  2   force =    -0.07039366   -0.00010121   -0.02689964
     atom   24 type  2   force =     0.07027185    0.00034364   -0.02694095
     atom   25 type  1   force =     0.00000215   -0.00022171    0.09277440
     atom   26 type  1   force =    -0.00019899   -0.00037308   -0.17833308
     atom   27 type  2   force =     0.00010425   -0.00028724   -0.01935155
     atom   28 type  2   force =     0.00003769   -0.00162413    0.05805683
     atom   29 type  2   force =    -0.01067027   -0.00080338    0.00798991
     atom   30 type  2   force =     0.01178950   -0.00047299    0.00651571
     atom   31 type  1   force =    -0.00072643    0.00504898   -0.01493014
     atom   32 type  1   force =     0.00039922   -0.00138977   -0.00477770
     atom   33 type  2   force =    -0.00011232    0.00021631    0.00029212
     atom   34 type  2   force =    -0.00128983    0.00140718   -0.00090964
     atom   35 type  2   force =     0.00020422    0.00013711    0.00001660
     atom   36 type  2   force =     0.00011004   -0.00001333   -0.00011916
     atom   37 type  1   force =    -0.00103488    0.00056517    0.00005274
     atom   38 type  1   force =     0.00014789   -0.00014928   -0.00002592
     atom   39 type  2   force =    -0.00003215   -0.00014274    0.00004762
     atom   40 type  2   force =    -0.00020633    0.00020451    0.00023980
     atom   41 type  2   force =    -0.00001340   -0.00014882    0.00038344
     atom   42 type  2   force =    -0.00013674   -0.00002878    0.00005111
     atom   43 type  1   force =     0.00008783    0.00027068    0.00046292
     atom   44 type  1   force =    -0.00009602   -0.00000904   -0.00025884
     atom   45 type  2   force =     0.00004023   -0.00004912    0.10398327
     atom   46 type  2   force =    -0.07038410   -0.00006003   -0.02692801
     atom   47 type  2   force =     0.07029278    0.00036769   -0.02695779
     atom   48 type  3   force =    -0.00041264   -0.00068177   -0.00022196
     atom   49 type  3   force =     0.00076788    0.00600214   -0.00332250
     atom   50 type  4   force =     0.00062449    0.00027486   -0.00040581
     atom   51 type  5   force =     0.00013982   -0.00027508    0.00008973
     atom   52 type  5   force =     0.00035242   -0.00057898    0.00047470
     atom   53 type  5   force =     0.00058904    0.00011592   -0.00021946
     atom   54 type  5   force =     0.00085873   -0.00057285   -0.00029994
     atom   55 type  5   force =    -0.00076305   -0.00433201    0.00373917
     atom   56 type  5   force =    -0.00001183    0.00025685    0.00017092
     atom   57 type  2   force =    -0.00034839    0.00060436   -0.00066328
     atom   58 type  5   force =     0.00075143   -0.00043425    0.00017347
     atom   59 type  5   force =     0.00024139   -0.00032921    0.00037621

     Total force =     0.366215     Total SCF correction =     0.000831
  @ DRIVER MODE: Message from server: STATUS
  @ DRIVER MODE: Message from server: GETFORCE
  @ DRIVER MODE: Returning v,forces,stress,ensemble

     Writing output data file ./calc.save/
  @ DRIVER MODE: Message from server: EXIT
  @ DRIVE MODE: Exiting

     General routines

     Parallel routines

   This run was terminated on:   8:32:31  16Sep2021

   JOB DONE.