     Program PWSCF v.6.7GPU starts on  9Sep2021 at  3: 6:44

     R & G space division:  proc/nbgrp/npool/nimage =      10
     Reading input from /storage/home/hcoda1/3/ntian30/research/carbon/CxH_vib/CH3_calc/ads_slab/CH3NHNH2_a/out_0016/pw.inp
Warning: card &CELL ignored
Warning: card   CELL_DYNAMICS='IPI', ignored
Warning: card / ignored

     Current dimensions of program PWSCF are:
     Max number of different atomic species (ntypx) = 10
     Max number of k-points (npk) =  40000
     Max angular momentum in pseudopotentials (lmaxx) =  3
     Presently no symmetry can be used with electric field

     Message from routine cell_base_init:
     DEPRECATED: use true lattice parameter, not A to a.u. conversion factor

     IMPORTANT: XC functional enforced from input :
     Exchange-correlation= BEEF-VDW
                           (   1   4  43  14   2   0   0)
     Any further DFT definition will be discarded
     Please, verify this is what you really want

  @ DRIVER MODE: Connecting to
 qe_1139763_2767398.sched-torque.pace.gatech.edueblc1dwg_scratch
  using UNIX socket
  @ DRIVER MODE: Message from server: STATUS
  @ DRIVER MODE: Message from server: INIT
  @ DRIVER MODE: Receiving replica           0          -1
  @ DRIVER MODE: Receiving encoded integer          25
  @ DRIVER MODE:  SCF:  T  FORCE:  T  STRESS:  F  VC:  F  ENSEMBLE:  F
  @ DRIVER MODE:  SCF:  T  FORCE:  T  STRESS:  F  VC:  F  ENSEMBLE:  F

     Using Slab Decomposition

     bravais-lattice index     =            0
     lattice parameter (alat)  =       1.8897  a.u.
     unit-cell volume          =    6658.9804 (a.u.)^3
     number of atoms/cell      =           56
     number of atomic types    =            5
     number of electrons       =       398.00
     number of Kohn-Sham states=          209
     kinetic-energy cutoff     =      29.3995  Ry
     charge density cutoff     =     293.9946  Ry
     scf convergence threshold =      7.3E-08
     mixing beta               =       0.0500
     number of iterations used =            8  plain     mixing
     Exchange-correlation= BEEF-VDW
                           (   1   4  43  14   2   0   0)

     celldm(1)=   1.889726  celldm(2)=   0.000000  celldm(3)=   0.000000
     celldm(4)=   0.000000  celldm(5)=   0.000000  celldm(6)=   0.000000

     crystal axes: (cart. coord. in units of alat)
               a(1) = (   6.579727   0.000000   0.000000 )
               a(2) = (  -0.000775   5.961596   0.000000 )
               a(3) = (   0.000000   0.000000  25.155947 )

     reciprocal axes: (cart. coord. in units 2 pi/alat)
               b(1) = (  0.151982  0.000020  0.000000 )
               b(2) = (  0.000000  0.167740  0.000000 )
               b(3) = (  0.000000  0.000000  0.039752 )

     PseudoPot. # 1 for Ti read from file:
     /storage/coda1/p-amedford6/0/shared/rich_project_chbe-medford/medford-share/data/pseudos_module/espresso/nninc/pbe/van/Ti.UPF
     MD5 check sum: 8e4df49b7f0d34bbd5052bf3f5ea0213
     Pseudo is Ultrasoft, Zval = 12.0
     Generated by new atomic code, or converted to UPF format
     Using radial grid of  851 points,  6 beta functions with:
                l(1) =   0
                l(2) =   0
                l(3) =   1
                l(4) =   1
                l(5) =   2
                l(6) =   2
     Q(r) pseudized with  8 coefficients,  rinner =    1.000   1.000   1.000
                                                       1.000   1.000

     PseudoPot. # 2 for O  read from file:
     /storage/coda1/p-amedford6/0/shared/rich_project_chbe-medford/medford-share/data/pseudos_module/espresso/nninc/pbe/van/O.UPF
     MD5 check sum: 78c19812648e8988a0fe644b0f25305e
     Pseudo is Ultrasoft, Zval =  6.0
     Generated by new atomic code, or converted to UPF format
     Using radial grid of  737 points,  4 beta functions with:
                l(1) =   0
                l(2) =   0
                l(3) =   1
                l(4) =   1
     Q(r) pseudized with  8 coefficients,  rinner =    0.800   0.800   0.800

     PseudoPot. # 3 for N  read from file:
     /storage/coda1/p-amedford6/0/shared/rich_project_chbe-medford/medford-share/data/pseudos_module/espresso/nninc/pbe/van/N.UPF
     MD5 check sum: 90d10febe142ad51ac9d5be1deb811c4
     Pseudo is Ultrasoft, Zval =  5.0
     Generated by new atomic code, or converted to UPF format
     Using radial grid of  729 points,  4 beta functions with:
                l(1) =   0
                l(2) =   0
                l(3) =   1
                l(4) =   1
     Q(r) pseudized with  8 coefficients,  rinner =    0.800   0.800   0.800

     PseudoPot. # 4 for C  read from file:
     /storage/coda1/p-amedford6/0/shared/rich_project_chbe-medford/medford-share/data/pseudos_module/espresso/nninc/pbe/van/C.UPF
     MD5 check sum: 1a69bf6b8db32088f5b2163dbdb77a27
     Pseudo is Ultrasoft, Zval =  4.0
     Generated by new atomic code, or converted to UPF format
     Using radial grid of  721 points,  4 beta functions with:
                l(1) =   0
                l(2) =   0
                l(3) =   1
                l(4) =   1
     Q(r) pseudized with  8 coefficients,  rinner =    0.800   0.800   0.800

     PseudoPot. # 5 for H  read from file:
     /storage/coda1/p-amedford6/0/shared/rich_project_chbe-medford/medford-share/data/pseudos_module/espresso/nninc/pbe/van/H.UPF
     MD5 check sum: b5ee9d7bfd3a09ee7748110bda690ff7
     Pseudo is Ultrasoft, Zval =  1.0
     Generated by new atomic code, or converted to UPF format
     Using radial grid of  615 points,  1 beta functions with:
                l(1) =   0
     Q(r) pseudized with  8 coefficients,  rinner =    0.800

     atomic species   valence    mass     pseudopotential
        Ti1           12.00    47.86700     Ti( 1.00)
        O1             6.00    15.99900     O ( 1.00)
        N1             5.00    14.00700     N ( 1.00)
        C1             4.00    12.01100     C ( 1.00)
        H1             1.00     1.00800     H ( 1.00)

     No symmetry found

   Cartesian axes

     site n.     atom                  positions (alat units)
         1           Ti1 tau(   1) = (   0.0004258   2.9801865   6.0000000  )
         2           Ti1 tau(   2) = (   3.2906075   1.4906267   6.0002472  )
         3           O1  tau(   3) = (   0.0006271   0.0005054   7.9858123  )
         4           O1  tau(   4) = (   3.2906025   0.0005020   7.3038282  )
         5           O1  tau(   5) = (   4.5942328   1.4918067   9.2879030  )
         6           O1  tau(   6) = (   1.9868534   1.4903216   9.2879459  )
         7           Ti1 tau(   7) = (   3.2907910   2.8959150   9.1758416  )
         8           Ti1 tau(   8) = (   0.0015273   1.4827037   9.2680791  )
         9           O1  tau(   9) = (   3.2714441   0.0289406  11.3813764  )
        10           O1  tau(  10) = (   0.0116148   5.9584955  10.6183126  )
        11           O1  tau(  11) = (   1.2692032   1.5162281  12.7122965  )
        12           O1  tau(  12) = (   5.2779133   1.5159715  12.6811497  )
        13           Ti1 tau(  13) = (   6.5579218   3.0031650  12.5037829  )
        14           Ti1 tau(  14) = (   3.2791490   1.5128154  12.5375672  )
        15           O1  tau(  15) = (   6.5208524   5.8954130  14.6845636  )
        16           O1  tau(  16) = (   3.2849572   0.0099931  14.0031570  )
        17           O1  tau(  17) = (   4.4884262   1.5607690  16.1641467  )
        18           O1  tau(  18) = (   1.9729656   1.5430890  16.0903287  )
        19           Ti1 tau(  19) = (   3.2372663   3.0309179  15.7728032  )
        20           Ti1 tau(  20) = (   6.5553692   1.3539605  15.8053163  )
        21           O1  tau(  21) = (   3.2904802   0.0005063   4.7018136  )
        22           O1  tau(  22) = (   6.5123495   0.2165906  17.2215032  )
        23           O1  tau(  23) = (   1.3043587   1.4918075   6.0039043  )
        24           O1  tau(  24) = (   5.2767064   1.4903225   6.0039473  )
        25           Ti1 tau(  25) = (   0.0000382   5.9609847   6.0000000  )
        26           Ti1 tau(  26) = (   3.2902200   4.4714249   6.0002472  )
        27           O1  tau(  27) = (   0.0002396   2.9813036   7.9858123  )
        28           O1  tau(  28) = (   3.2902150   2.9813002   7.3038282  )
        29           O1  tau(  29) = (   4.5938453   4.4726049   9.2879030  )
        30           O1  tau(  30) = (   1.9864658   4.4711199   9.2879459  )
        31           Ti1 tau(  31) = (   3.2891106   5.8743827   9.1763621  )
        32           Ti1 tau(  32) = (   0.0006254   4.4649316   9.2693709  )
        33           O1  tau(  33) = (   3.2699379   2.9911670  11.3762017  )
        34           O1  tau(  34) = (   0.0092240   2.9805883  10.6323155  )
        35           O1  tau(  35) = (   1.2730946   4.4825978  12.6662957  )
        36           O1  tau(  36) = (   5.2742290   4.4829497  12.6320226  )
        37           Ti1 tau(  37) = (   6.5783117   0.0079037  12.5026730  )
        38           Ti1 tau(  38) = (   3.2784283   4.4905194  12.5286134  )
        39           O1  tau(  39) = (   6.5033290   3.0824797  14.9867588  )
        40           O1  tau(  40) = (   3.2824109   3.0350539  13.9807796  )
        41           O1  tau(  41) = (   4.4804250   4.5097483  16.2808085  )
        42           O1  tau(  42) = (   1.9642025   4.5165872  16.2225063  )
        43           Ti1 tau(  43) = (   3.2609991   0.0502580  15.7998297  )
        44           Ti1 tau(  44) = (   6.5501253   4.5826093  16.0954727  )
        45           O1  tau(  45) = (   3.2900926   2.9813045   4.7018136  )
        46           O1  tau(  46) = (   1.3039711   4.4726057   6.0039043  )
        47           O1  tau(  47) = (   5.2763189   4.4711207   6.0039473  )
        48           N1  tau(  48) = (   0.8845045   3.2634721  19.1145209  )
        49           N1  tau(  49) = (   6.3504243   3.3997271  18.1887592  )
        50           C1  tau(  50) = (   1.2927081   4.5731590  19.6429350  )
        51           H1  tau(  51) = (   0.4658632   5.1229972  20.1056819  )
        52           H1  tau(  52) = (   2.0600825   4.3818216  20.3958833  )
        53           H1  tau(  53) = (   1.7018904   5.1738364  18.8453250  )
        54           H1  tau(  54) = (   0.5628611   2.6866381  19.8888112  )
        55           H1  tau(  55) = (   5.6051421   3.9827062  18.5884547  )
        56           H1  tau(  56) = (   5.9567982   2.4624696  18.0937858  )

     number of k points=    10  Fermi-Dirac smearing, width (Ry)=  0.0073
                       cart. coord. in units 2pi/alat
        k(    1) = (   0.0000000   0.0000000   0.0000000), wk =   0.1250000
        k(    2) = (   0.0000000   0.0419351   0.0000000), wk =   0.2500000
        k(    3) = (   0.0000000  -0.0838702   0.0000000), wk =   0.1250000
        k(    4) = (   0.0379955   0.0000049   0.0000000), wk =   0.2500000
        k(    5) = (   0.0379955   0.0419400   0.0000000), wk =   0.2500000
        k(    6) = (   0.0379955  -0.0838652   0.0000000), wk =   0.2500000
        k(    7) = (   0.0379955  -0.0419301   0.0000000), wk =   0.2500000
        k(    8) = (  -0.0759910  -0.0000099   0.0000000), wk =   0.1250000
        k(    9) = (  -0.0759910   0.0419252   0.0000000), wk =   0.2500000
        k(   10) = (  -0.0759910  -0.0838800   0.0000000), wk =   0.1250000

     Initial potential from superposition of free atoms

     starting charge  381.99914, renormalised to  398.00000

     negative rho (up, down):  1.416E-02 0.000E+00

     %%%%%%%%%%%%%%%%%%%%%%%%%%%%%%%%%%%%%%%%%%%%%%%%%%%%%%%%%%%%%%%%%%%%%%%%
     %                                                                      %
     % You are using vdW-DF, which was implemented by the Thonhauser group. %
     % Please cite the following two papers that made this development      %
     % possible and the two reviews that describe the various versions:     %
     %                                                                      %
     %   T. Thonhauser et al., PRL 115, 136402 (2015).                      %
     %   T. Thonhauser et al., PRB 76, 125112 (2007).                       %
     %   K. Berland et al., Rep. Prog. Phys. 78, 066501 (2015).             %
     %   D.C. Langreth et al., J. Phys.: Condens. Matter 21, 084203 (2009). %
     %                                                                      %
     %                                                                      %
     % If you are calculating the stress with vdW-DF, please also cite:     %
     %                                                                      %
     %   R. Sabatini et al., J. Phys.: Condens. Matter 24, 424209 (2012).   %
     %                                                                      %
     %%%%%%%%%%%%%%%%%%%%%%%%%%%%%%%%%%%%%%%%%%%%%%%%%%%%%%%%%%%%%%%%%%%%%%%%

     Adding external electric field

     Computed dipole along edir(3) :
        Dipole              -11.7171 Ry au,        -29.7818 Debye
        Dipole field         -0.0221 Ry au,

        Potential amp.        2.0497 Ry
        Total length         46.3494 bohr

     Starting wfcs are  302 atomic wfcs
  @ DRIVER MODE: Message from server: STATUS
  @ DRIVER MODE: Message from server: POSDATA
  @ DRIVER MODE: Reading and sharing cell
  @ DRIVER MODE: Reading and sharing positions
  @ DRIVER MODE: Received positions

     Self-consistent Calculation

     iteration #  1     ecut=    29.40 Ry     beta= 0.05
     Davidson diagonalization with overlap
     c_bands:  3 eigenvalues not converged
     c_bands:  1 eigenvalues not converged
     c_bands:  1 eigenvalues not converged
     c_bands:  4 eigenvalues not converged
     c_bands:  1 eigenvalues not converged
     c_bands:  4 eigenvalues not converged
     c_bands:  5 eigenvalues not converged
     c_bands:  2 eigenvalues not converged
     ethr =  1.00E-05,  avg # of iterations = 21.9

[...]

     total energy              =   -2424.51978080 Ry
     estimated scf accuracy    <    5830.75096022 Ry

     iteration #  2     ecut=    29.40 Ry     beta= 0.05
     Davidson diagonalization with overlap
     ethr =  1.00E-02,  avg # of iterations = 22.1

[...]

     iteration # 63     ecut=    29.40 Ry     beta= 0.05
     Davidson diagonalization with overlap
     c_bands:  1 eigenvalues not converged
     ethr =  1.41E-10,  avg # of iterations =  9.7

[...]

     total energy              =   -2942.84371704 Ry
     estimated scf accuracy    <       0.00000009 Ry

     iteration # 70     ecut=    29.40 Ry     beta= 0.05
     Davidson diagonalization with overlap
     ethr =  1.91E-11,  avg # of iterations = 11.1

     negative rho (up, down):  1.513E-02 0.000E+00

     Adding external electric field

     Computed dipole along edir(3) :
        Dipole                1.4967 Ry au,          3.8041 Debye
        Dipole field          0.0028 Ry au,

        Potential amp.       -0.2618 Ry
        Total length         46.3494 bohr

     End of self-consistent calculation

          k = 0.0000 0.0000 0.0000 ( 18029 PWs)   bands (ev):

   -55.2004 -55.1632 -55.1525 -55.1237 -55.1183 -55.0817 -55.0785 -55.0436
   -55.0245 -55.0116 -54.9901 -54.9851 -54.9515 -54.8549 -54.1847 -54.1507
   -31.7667 -31.6504 -31.6454 -31.5666 -31.5137 -31.5127 -31.5099 -31.4912
   -31.4414 -31.4379 -31.4100 -31.4079 -31.3975 -31.3806 -31.3676 -31.3620
   -31.3548 -31.3450 -31.3377 -31.3208 -31.3050 -31.3023 -31.2706 -31.2667
   -31.2561 -31.2552 -31.2366 -31.2271 -31.2096 -31.2090 -31.2047 -31.1840
   -31.1840 -31.1805 -31.1737 -31.1711 -31.1378 -31.1283 -31.1134 -31.0966
   -31.0681 -31.0488 -30.5943 -30.4996 -30.4776 -30.4106 -30.3238 -30.2130
   -17.9337 -16.0338 -15.7715 -15.6261 -15.5140 -15.4027 -15.2831 -15.2523
   -15.1326 -15.0565 -14.9226 -14.8963 -14.8740 -14.8503 -14.8384 -14.8258
   -14.7500 -14.7435 -14.7275 -14.6992 -14.6973 -14.6521 -14.6423 -14.6030
   -14.5780 -14.5568 -14.4522 -14.3639 -14.2900 -14.0735 -13.4022 -12.6874
   -12.5698  -9.7295  -6.5770  -6.0796  -4.5689  -3.3726  -3.2488  -3.2240
    -3.1348  -3.1040  -3.0947  -3.0304  -2.9539  -2.7909  -2.6488  -2.6231
    -2.4916  -2.4166  -2.4003  -2.3758  -2.2461  -2.2109  -2.1599  -2.1207
    -2.0616  -2.0311  -2.0072  -1.9915  -1.9606  -1.9514  -1.9262  -1.8371
    -1.7778  -1.6850  -1.6679  -1.5999  -1.5920  -1.5592  -1.5381  -1.4929
    -1.4826  -1.4331  -1.4258  -1.4132  -1.3931  -1.2651  -1.2216  -1.1119
    -1.0506  -0.9628  -0.8422  -0.8021  -0.7881  -0.6975  -0.6886  -0.6568
    -0.5801  -0.5773  -0.5463  -0.4381  -0.3731  -0.3095  -0.2506  -0.2243
    -0.1910  -0.1136  -0.0230   0.0134   0.0301   0.0531   0.1534   0.1884
     0.2440   0.3109   0.3224   0.3357   0.4150   0.4565   0.5317   0.5682
     0.5858   0.6746   0.7009   0.7289   0.7294   0.7672   0.7815   0.8211
     0.8699   0.8967   0.9831   1.0451   1.1039   1.3484   1.4012   1.4075
     1.7335   1.7415   1.8380   2.0214   2.4145   2.4628   3.8961   3.9649
     4.0406   4.0456   4.0680   4.1319   4.3698   4.3929   4.4018   4.4040
     4.4306

[...]

          k = 0.0380-0.0419 0.0000 ( 17876 PWs)   bands (ev):

[...]

          k =-0.0760-0.0000 0.0000 ( 17886 PWs)   bands (ev):

[...]

          k =-0.0760-0.0839 0.0000 ( 17948 PWs)   bands (ev):

   -55.1865 -55.1768 -55.1354 -55.1352 -55.1223 -55.0773 -55.0642 -55.0580
   -55.0159 -55.0086 -55.0055 -54.9686 -54.9682 -54.8560 -54.1678 -54.1675
   -31.5748 -31.5738 -31.5670 -31.4824 -31.4605 -31.4604 -31.4574 -31.4267
   -31.4266 -31.4112 -31.4003 -31.3988 -31.3901 -31.3644 -31.3552 -31.3420
   -31.3411 -31.3373 -31.3341 -31.3285 -31.3265 -31.3205 -31.2815 -31.2783
   -31.2780 -31.2768 -31.2589 -31.2576 -31.2551 -31.2549 -31.2500 -31.2417
   -31.2387 -31.2218 -31.2184 -31.2026 -31.2016 -31.1988 -31.1493 -31.1490
   -31.1247 -31.0725 -30.4904 -30.4901 -30.4069 -30.4067 -30.3673 -30.3671
   -17.9304 -15.5587 -15.4289 -15.3998 -15.2433 -15.2072 -15.1738 -15.1605
   -15.0395 -15.0024 -14.9778 -14.9683 -14.9506 -14.9103 -14.9046 -14.8977
   -14.8272 -14.8080 -14.8037 -14.7814 -14.7232 -14.7142 -14.7103 -14.7028
   -14.6522 -14.6485 -14.5680 -14.5579 -14.5546 -14.3752 -13.4053 -12.6713
   -12.6713  -9.7458  -6.5608  -6.0798  -4.5481  -3.2142  -2.9993  -2.6913
    -2.6868  -2.6584  -2.4572  -2.3946  -2.3639  -2.3583  -2.2610  -2.2245
    -2.1999  -2.1965  -2.1313  -2.1165  -2.0853  -2.0557  -2.0394  -2.0255
    -2.0098  -1.9955  -1.9703  -1.9327  -1.9246  -1.9163  -1.8842  -1.8630
    -1.8399  -1.8177  -1.8042  -1.7856  -1.7597  -1.7374  -1.6006  -1.5688
    -1.4988  -1.4556  -1.4120  -1.4077  -1.3360  -1.2996  -1.2495  -1.2373
    -1.2202  -1.0807  -1.0224  -0.9713  -0.9512  -0.9403  -0.8115  -0.7971
    -0.7243  -0.7065  -0.6902  -0.6159  -0.5645  -0.5263  -0.5127  -0.4194
    -0.4041  -0.3377  -0.2354  -0.2128  -0.1988  -0.1582  -0.1552  -0.1079
    -0.1008  -0.0167   0.0275   0.0626   0.0734   0.1092   0.3019   0.3180
     0.3280   0.4811   0.4967   0.6384   0.6821   0.7484   0.8075   0.8463
     0.9081   0.9453   1.0563   1.0880   1.1031   1.1108   1.1727   1.1846
     1.2474   1.2582   2.1941   2.1947   2.2827   2.2830   4.0421   4.1494
     4.1571   4.1987   4.3187   4.3488   4.4111   4.4384   4.4800   4.4833
     4.5478

     the Fermi energy is     3.9595 ev

!    total energy              =   -2942.84373624 Ry
     estimated scf accuracy    <       0.00000004 Ry
     smearing contrib. (-TS)   =      -0.03707673 Ry
     internal energy E=F+TS    =   -2942.80665950 Ry

     The total energy is F=E-TS. E is the sum of the following terms:
     one-electron contribution =  -23366.59052771 Ry
     hartree contribution      =   11777.49061231 Ry
     xc contribution           =    -487.73994707 Ry
     ewald contribution        =    9134.02897584 Ry
     electric field correction =       0.00422713 Ry

     convergence has been achieved in  70 iterations

     Forces acting on atoms (cartesian axes, Ry/au):

     atom    1 type  1   force =     0.00017134   -0.00032464    0.09329091
     atom    2 type  1   force =    -0.00006260   -0.00042100   -0.17823598
     atom    3 type  2   force =     0.00002482   -0.00031897   -0.02005477
     atom    4 type  2   force =     0.00002095   -0.00183141    0.05923318
     atom    5 type  2   force =    -0.01046213   -0.00026330    0.00863535
     atom    6 type  2   force =     0.01147546    0.00040797    0.00644770
     atom    7 type  1   force =    -0.00100196    0.00213423   -0.01398117
     atom    8 type  1   force =     0.00081627   -0.00094052   -0.00573011
     atom    9 type  2   force =    -0.00010000    0.00012647   -0.00001772
     atom   10 type  2   force =    -0.00185621    0.00411708    0.00027501
     atom   11 type  2   force =    -0.00006873   -0.00064442    0.00028536
     atom   12 type  2   force =    -0.00000986   -0.00041581    0.00053805
     atom   13 type  1   force =     0.00004280    0.00009870    0.00032861
     atom   14 type  1   force =    -0.00037894   -0.00000069    0.00007617
     atom   15 type  2   force =     0.00052115    0.00025041   -0.00033415
     atom   16 type  2   force =     0.00032076   -0.00035324   -0.00007318
     atom   17 type  2   force =    -0.00058442   -0.00003488   -0.00003268
     atom   18 type  2   force =     0.00053228   -0.00021527    0.00000356
     atom   19 type  1   force =    -0.00001316   -0.00055927    0.00026337
     atom   20 type  1   force =     0.00069648    0.00016370    0.00092852
     atom   21 type  2   force =     0.00012527   -0.00012546    0.10405259
     atom   22 type  2   force =    -0.00039494    0.00017685   -0.00021867
     atom   23 type  2   force =    -0.07028149   -0.00022515   -0.02686993
     atom   24 type  2   force =     0.07027320    0.00021254   -0.02689475
     atom   25 type  1   force =     0.00007905   -0.00032166    0.09260346
     atom   26 type  1   force =    -0.00003713   -0.00060113   -0.17835780
     atom   27 type  2   force =     0.00012889   -0.00017026   -0.01910746
     atom   28 type  2   force =     0.00005058   -0.00163533    0.05858743
     atom   29 type  2   force =    -0.01106650   -0.00055943    0.00931697
     atom   30 type  2   force =     0.01198524   -0.00002198    0.00720592
     atom   31 type  1   force =    -0.00093168    0.00646864   -0.01505175
     atom   32 type  1   force =     0.00086167    0.00101174   -0.00588019
     atom   33 type  2   force =     0.00017511   -0.00057233   -0.00004805
     atom   34 type  2   force =    -0.00186094   -0.00052576   -0.00048149
     atom   35 type  2   force =    -0.00045283    0.00006511   -0.00043570
     atom   36 type  2   force =     0.00035146   -0.00011517    0.00017961
     atom   37 type  1   force =    -0.00051515   -0.00025043    0.00020690
     atom   38 type  1   force =    -0.00004552   -0.00015356   -0.00008145
     atom   39 type  2   force =     0.00030013   -0.00060581   -0.00002052
     atom   40 type  2   force =    -0.00060357   -0.00051235    0.00024848
     atom   41 type  2   force =    -0.00024313   -0.00071154   -0.00069663
     atom   42 type  2   force =     0.00046189   -0.00004667   -0.00005255
     atom   43 type  1   force =     0.00025005   -0.00018854   -0.00023628
     atom   44 type  1   force =     0.00050350   -0.00004824    0.00085862
     atom   45 type  2   force =     0.00013482   -0.00014198    0.10401068
     atom   46 type  2   force =    -0.07028668   -0.00015678   -0.02684337
     atom   47 type  2   force =     0.07025497    0.00026484   -0.02690046
     atom   48 type  3   force =     0.00317539    0.00832889    0.00017718
     atom   49 type  3   force =    -0.00043449   -0.00101011    0.00009244
     atom   50 type  4   force =     0.00092919   -0.01956399    0.00284912
     atom   51 type  5   force =    -0.00377546    0.00503271    0.00219840
     atom   52 type  5   force =    -0.00085221    0.00190880   -0.00136651
     atom   53 type  5   force =     0.00286415    0.00507395   -0.00559199
     atom   54 type  5   force =    -0.00003177   -0.00081193    0.00136860
     atom   55 type  5   force =    -0.00000698   -0.00071279   -0.00034460
     atom   56 type  5   force =    -0.00116839    0.00026916   -0.00032227

     Total force =     0.367141     Total SCF correction =     0.000709
  @ DRIVER MODE: Message from server: STATUS
  @ DRIVER MODE: Message from server: GETFORCE
  @ DRIVER MODE: Returning v,forces,stress,ensemble

     Writing output data file ./calc.save/
  @ DRIVER MODE: Message from server: EXIT
  @ DRIVE MODE: Exiting

     General routines

     Parallel routines

   This run was terminated on:   3:24:53   9Sep2021

   JOB DONE.