     Program PWSCF v.6.7GPU starts on 15Sep2021 at 20:16:58

     R & G space division:  proc/nbgrp/npool/nimage =      10
     Reading input from /storage/home/hcoda1/3/ntian30/research/carbon/CxH_vib/H2O_calc/ads_slab/CH3NNH3H2O_a/out_0013/pw.inp
Warning: card &CELL ignored
Warning: card   CELL_DYNAMICS='IPI', ignored
Warning: card / ignored

     Current dimensions of program PWSCF are:
     Max number of different atomic species (ntypx) = 10
     Max number of k-points (npk) =  40000
     Max angular momentum in pseudopotentials (lmaxx) =  3
     Presently no symmetry can be used with electric field

     Message from routine cell_base_init:
     DEPRECATED: use true lattice parameter, not A to a.u. conversion factor

     IMPORTANT: XC functional enforced from input :
     Exchange-correlation= BEEF-VDW
                           (   1   4  43  14   2   0   0)
     Any further DFT definition will be discarded
     Please, verify this is what you really want

  @ DRIVER MODE: Connecting to
 qe_1139763_2852621.sched-torque.pace.gatech.edurmqm2fb9_scratch
  using UNIX socket
  @ DRIVER MODE: Message from server: STATUS
  @ DRIVER MODE: Message from server: INIT
  @ DRIVER MODE: Receiving replica           0          -1
  @ DRIVER MODE: Receiving encoded integer          25
  @ DRIVER MODE:  SCF:  T  FORCE:  T  STRESS:  F  VC:  F  ENSEMBLE:  F
  @ DRIVER MODE:  SCF:  T  FORCE:  T  STRESS:  F  VC:  F  ENSEMBLE:  F

     Using Slab Decomposition

     bravais-lattice index     =            0
     lattice parameter (alat)  =       1.8897  a.u.
     unit-cell volume          =    6658.9804 (a.u.)^3
     number of atoms/cell      =           59
     number of atomic types    =            5
     number of electrons       =       406.00
     number of Kohn-Sham states=          213
     kinetic-energy cutoff     =      29.3995  Ry
     charge density cutoff     =     293.9946  Ry
     scf convergence threshold =      7.3E-08
     mixing beta               =       0.0500
     number of iterations used =            8  plain     mixing
     Exchange-correlation= BEEF-VDW
                           (   1   4  43  14   2   0   0)

     celldm(1)=   1.889726  celldm(2)=   0.000000  celldm(3)=   0.000000
     celldm(4)=   0.000000  celldm(5)=   0.000000  celldm(6)=   0.000000

     crystal axes: (cart. coord. in units of alat)
               a(1) = (   6.579727   0.000000   0.000000 )
               a(2) = (  -0.000775   5.961596   0.000000 )
               a(3) = (   0.000000   0.000000  25.155947 )

     reciprocal axes: (cart. coord. in units 2 pi/alat)
               b(1) = (  0.151982  0.000020  0.000000 )
               b(2) = (  0.000000  0.167740  0.000000 )
               b(3) = (  0.000000  0.000000  0.039752 )

     PseudoPot. # 1 for Ti read from file:
     /storage/coda1/p-amedford6/0/shared/rich_project_chbe-medford/medford-share/data/pseudos_module/espresso/nninc/pbe/van/Ti.UPF
     MD5 check sum: 8e4df49b7f0d34bbd5052bf3f5ea0213
     Pseudo is Ultrasoft, Zval = 12.0
     Generated by new atomic code, or converted to UPF format
     Using radial grid of  851 points,  6 beta functions with:
                l(1) =   0
                l(2) =   0
                l(3) =   1
                l(4) =   1
                l(5) =   2
                l(6) =   2
     Q(r) pseudized with  8 coefficients,  rinner =    1.000   1.000   1.000
                                                       1.000   1.000

     PseudoPot. # 2 for O  read from file:
     /storage/coda1/p-amedford6/0/shared/rich_project_chbe-medford/medford-share/data/pseudos_module/espresso/nninc/pbe/van/O.UPF
     MD5 check sum: 78c19812648e8988a0fe644b0f25305e
     Pseudo is Ultrasoft, Zval =  6.0
     Generated by new atomic code, or converted to UPF format
     Using radial grid of  737 points,  4 beta functions with:
                l(1) =   0
                l(2) =   0
                l(3) =   1
                l(4) =   1
     Q(r) pseudized with  8 coefficients,  rinner =    0.800   0.800   0.800

     PseudoPot. # 3 for N  read from file:
     /storage/coda1/p-amedford6/0/shared/rich_project_chbe-medford/medford-share/data/pseudos_module/espresso/nninc/pbe/van/N.UPF
     MD5 check sum: 90d10febe142ad51ac9d5be1deb811c4
     Pseudo is Ultrasoft, Zval =  5.0
     Generated by new atomic code, or converted to UPF format
     Using radial grid of  729 points,  4 beta functions with:
                l(1) =   0
                l(2) =   0
                l(3) =   1
                l(4) =   1
     Q(r) pseudized with  8 coefficients,  rinner =    0.800   0.800   0.800

     PseudoPot. # 4 for C  read from file:
     /storage/coda1/p-amedford6/0/shared/rich_project_chbe-medford/medford-share/data/pseudos_module/espresso/nninc/pbe/van/C.UPF
     MD5 check sum: 1a69bf6b8db32088f5b2163dbdb77a27
     Pseudo is Ultrasoft, Zval =  4.0
     Generated by new atomic code, or converted to UPF format
     Using radial grid of  721 points,  4 beta functions with:
                l(1) =   0
                l(2) =   0
                l(3) =   1
                l(4) =   1
     Q(r) pseudized with  8 coefficients,  rinner =    0.800   0.800   0.800

     PseudoPot. # 5 for H  read from file:
     /storage/coda1/p-amedford6/0/shared/rich_project_chbe-medford/medford-share/data/pseudos_module/espresso/nninc/pbe/van/H.UPF
     MD5 check sum: b5ee9d7bfd3a09ee7748110bda690ff7
     Pseudo is Ultrasoft, Zval =  1.0
     Generated by new atomic code, or converted to UPF format
     Using radial grid of  615 points,  1 beta functions with:
                l(1) =   0
     Q(r) pseudized with  8 coefficients,  rinner =    0.800

     atomic species   valence    mass     pseudopotential
        Ti1           12.00    47.86700     Ti( 1.00)
        O1             6.00    15.99900     O ( 1.00)
        N1             5.00    14.00700     N ( 1.00)
        C1             4.00    12.01100     C ( 1.00)
        H1             1.00     1.00800     H ( 1.00)

     No symmetry found

   Cartesian axes

     site n.     atom                  positions (alat units)
         1           Ti1 tau(   1) = (   0.0004258   2.9801865   6.0000000  )
         2           Ti1 tau(   2) = (   3.2906075   1.4906267   6.0002472  )
         3           O1  tau(   3) = (   0.0006271   0.0005054   7.9858123  )
         4           O1  tau(   4) = (   3.2906025   0.0005020   7.3038282  )
         5           O1  tau(   5) = (   4.5942328   1.4918067   9.2879030  )
         6           O1  tau(   6) = (   1.9868534   1.4903216   9.2879459  )
         7           Ti1 tau(   7) = (   3.2907910   2.8959150   9.1758416  )
         8           Ti1 tau(   8) = (   0.0015273   1.4827037   9.2680791  )
         9           O1  tau(   9) = (   3.2954490   0.0159868  11.2922163  )
        10           O1  tau(  10) = (   0.0116148   5.9584955  10.6183126  )
        11           O1  tau(  11) = (   1.3242731   1.5050266  12.6143764  )
        12           O1  tau(  12) = (   5.3073597   1.5103589  12.6267567  )
        13           Ti1 tau(  13) = (   6.4831477   3.0011104  12.7364612  )
        14           Ti1 tau(  14) = (   3.1751638   1.4975352  12.4748964  )
        15           O1  tau(  15) = (   0.0212859   5.9607631  14.5987152  )
        16           O1  tau(  16) = (   3.3058086   0.0238703  13.8910224  )
        17           O1  tau(  17) = (   4.5539421   1.5574750  15.9960573  )
        18           O1  tau(  18) = (   2.0731809   1.5597727  15.9888445  )
        19           Ti1 tau(  19) = (   3.3176354   3.0289328  15.6523405  )
        20           Ti1 tau(  20) = (   0.0198791   1.6227889  16.0606591  )
        21           O1  tau(  21) = (   3.2904802   0.0005063   4.7018136  )
        22           O1  tau(  22) = (   0.0290054   0.0533443  17.2129705  )
        23           O1  tau(  23) = (   1.3043587   1.4918075   6.0039043  )
        24           O1  tau(  24) = (   5.2767064   1.4903225   6.0039473  )
        25           Ti1 tau(  25) = (   0.0000382   5.9609847   6.0000000  )
        26           Ti1 tau(  26) = (   3.2902200   4.4714249   6.0002472  )
        27           O1  tau(  27) = (   0.0002396   2.9813036   7.9858123  )
        28           O1  tau(  28) = (   3.2902150   2.9813002   7.3038282  )
        29           O1  tau(  29) = (   4.5938453   4.4726049   9.2879030  )
        30           O1  tau(  30) = (   1.9864658   4.4711199   9.2879459  )
        31           Ti1 tau(  31) = (   3.2891106   5.8743827   9.1763621  )
        32           Ti1 tau(  32) = (   0.0006254   4.4649316   9.2693709  )
        33           O1  tau(  33) = (   3.2918316   2.9938763  11.2915017  )
        34           O1  tau(  34) = (   0.0092240   2.9805883  10.6323155  )
        35           O1  tau(  35) = (   1.3226278   4.4784642  12.6110361  )
        36           O1  tau(  36) = (   5.3078083   4.4770455  12.6250823  )
        37           Ti1 tau(  37) = (   6.5141033   0.0190828  12.7620745  )
        38           Ti1 tau(  38) = (   3.1722404   4.4939287  12.4712879  )
        39           O1  tau(  39) = (   0.0035410   2.9850241  14.6487316  )
        40           O1  tau(  40) = (   3.3118331   3.0109266  13.8519036  )
        41           O1  tau(  41) = (   4.5522870   4.5059159  16.0259181  )
        42           O1  tau(  42) = (   2.0778134   4.5048723  16.0185459  )
        43           Ti1 tau(  43) = (   3.3116469   0.0596163  15.7453941  )
        44           Ti1 tau(  44) = (   0.0183239   4.5967015  16.1059876  )
        45           O1  tau(  45) = (   3.2900926   2.9813045   4.7018136  )
        46           O1  tau(  46) = (   1.3039711   4.4726057   6.0039043  )
        47           O1  tau(  47) = (   5.2763189   4.4711207   6.0039473  )
        48           N1  tau(  48) = (   0.0600715   3.0265251  17.3188267  )
        49           N1  tau(  49) = (   6.2826239   2.5295367  22.6224490  )
        50           C1  tau(  50) = (   0.2759397   3.0149959  18.7399364  )
        51           H1  tau(  51) = (   0.1411154   4.0060466  19.1894648  )
        52           H1  tau(  52) = (   6.1913215   2.3105648  19.2421896  )
        53           H1  tau(  53) = (   1.3125146   2.6868920  18.9691123  )
        54           H1  tau(  54) = (   6.1000088   3.2491606  23.3142794  )
        55           H1  tau(  55) = (   0.1456284   1.7586669  23.1118534  )
        56           H1  tau(  56) = (   0.3974265   2.9048463  21.9856970  )
        57           O1  tau(  57) = (   3.2908421   0.1144680  18.1630233  )
        58           H1  tau(  58) = (   4.0679411   5.5688996  18.4486002  )
        59           H1  tau(  59) = (   2.5060966   5.5711546  18.4327789  )

     number of k points=    10  Fermi-Dirac smearing, width (Ry)=  0.0073
                       cart. coord. in units 2pi/alat
        k(    1) = (   0.0000000   0.0000000   0.0000000), wk =   0.1250000
        k(    2) = (   0.0000000   0.0419351   0.0000000), wk =   0.2500000
        k(    3) = (   0.0000000  -0.0838702   0.0000000), wk =   0.1250000
        k(    4) = (   0.0379955   0.0000049   0.0000000), wk =   0.2500000
        k(    5) = (   0.0379955   0.0419400   0.0000000), wk =   0.2500000
        k(    6) = (   0.0379955  -0.0838652   0.0000000), wk =   0.2500000
        k(    7) = (   0.0379955  -0.0419301   0.0000000), wk =   0.2500000
        k(    8) = (  -0.0759910  -0.0000099   0.0000000), wk =   0.1250000
        k(    9) = (  -0.0759910   0.0419252   0.0000000), wk =   0.2500000
        k(   10) = (  -0.0759910  -0.0838800   0.0000000), wk =   0.1250000

     Initial potential from superposition of free atoms

     starting charge  389.99912, renormalised to  406.00000

     negative rho (up, down):  6.916E-03 0.000E+00

     %%%%%%%%%%%%%%%%%%%%%%%%%%%%%%%%%%%%%%%%%%%%%%%%%%%%%%%%%%%%%%%%%%%%%%%%
     %                                                                      %
     % You are using vdW-DF, which was implemented by the Thonhauser group. %
     % Please cite the following two papers that made this development      %
     % possible and the two reviews that describe the various versions:     %
     %                                                                      %
     %   T. Thonhauser et al., PRL 115, 136402 (2015).                      %
     %   T. Thonhauser et al., PRB 76, 125112 (2007).                       %
     %   K. Berland et al., Rep. Prog. Phys. 78, 066501 (2015).             %
     %   D.C. Langreth et al., J. Phys.: Condens. Matter 21, 084203 (2009). %
     %                                                                      %
     %                                                                      %
     % If you are calculating the stress with vdW-DF, please also cite:     %
     %                                                                      %
     %   R. Sabatini et al., J. Phys.: Condens. Matter 24, 424209 (2012).   %
     %                                                                      %
     %%%%%%%%%%%%%%%%%%%%%%%%%%%%%%%%%%%%%%%%%%%%%%%%%%%%%%%%%%%%%%%%%%%%%%%%

     Adding external electric field

     Computed dipole along edir(3) :
        Dipole              -16.2336 Ry au,        -41.2616 Debye
        Dipole field         -0.0306 Ry au,

        Potential amp.        2.8398 Ry
        Total length         46.3494 bohr

     Starting wfcs are  308 atomic wfcs
  @ DRIVER MODE: Message from server: STATUS
  @ DRIVER MODE: Message from server: POSDATA
  @ DRIVER MODE: Reading and sharing cell
  @ DRIVER MODE: Reading and sharing positions
  @ DRIVER MODE: Received positions

     Self-consistent Calculation

     iteration #  1     ecut=    29.40 Ry     beta= 0.05
     Davidson diagonalization with overlap
     c_bands:  2 eigenvalues not converged
     c_bands:  3 eigenvalues not converged
     c_bands:  5 eigenvalues not converged
     c_bands:  3 eigenvalues not converged
     c_bands:  4 eigenvalues not converged
     c_bands:  3 eigenvalues not converged
     c_bands:  1 eigenvalues not converged
     c_bands:  5 eigenvalues not converged
     c_bands:  3 eigenvalues not converged
     ethr =  1.00E-05,  avg # of iterations = 20.6

[...]

     total energy              =   -2253.47223222 Ry
     estimated scf accuracy    <    8262.93710665 Ry

     iteration #  2     ecut=    29.40 Ry     beta= 0.05
     Davidson diagonalization with overlap
     ethr =  1.00E-02,  avg # of iterations = 27.8

[...]

     iteration # 42     ecut=    29.40 Ry     beta= 0.05
     Davidson diagonalization with overlap
     c_bands:  1 eigenvalues not converged
     c_bands:  2 eigenvalues not converged
     c_bands:  3 eigenvalues not converged
     ethr =  2.76E-06,  avg # of iterations = 16.8

[...]

     total energy              =   -2977.74422147 Ry
     estimated scf accuracy    <       0.00000013 Ry

     iteration # 68     ecut=    29.40 Ry     beta= 0.05
     Davidson diagonalization with overlap
     ethr =  3.12E-11,  avg # of iterations =  4.7

     negative rho (up, down):  8.781E-03 0.000E+00

     Adding external electric field

     Computed dipole along edir(3) :
        Dipole                0.7662 Ry au,          1.9475 Debye
        Dipole field          0.0014 Ry au,

        Potential amp.       -0.1340 Ry
        Total length         46.3494 bohr

     End of self-consistent calculation

          k = 0.0000 0.0000 0.0000 ( 18029 PWs)   bands (ev):

   -56.2604 -56.2268 -55.3787 -55.3447 -55.3361 -55.3012 -55.1545 -55.1192
   -55.0326 -54.9105 -54.8940 -54.8924 -54.8766 -54.8076 -54.3926 -54.3431
   -32.6872 -32.5348 -32.5067 -32.4367 -32.3457 -32.3133 -31.8464 -31.8183
   -31.6898 -31.6443 -31.5956 -31.5775 -31.5476 -31.5382 -31.5094 -31.5043
   -31.4856 -31.4795 -31.4583 -31.4426 -31.4304 -31.3814 -31.3709 -31.3322
   -31.3198 -31.3015 -31.2943 -31.2807 -31.2568 -31.2560 -31.2500 -31.2258
   -31.1328 -31.1205 -31.0823 -31.0720 -31.0444 -31.0374 -31.0304 -31.0119
   -30.9811 -30.9265 -30.9074 -30.6362 -30.6136 -30.5825 -30.5624 -30.4535
   -18.4458 -16.4165 -15.9511 -15.7083 -15.6173 -15.5349 -15.4953 -15.4517
   -15.3011 -15.2322 -15.2096 -15.2091 -15.1395 -14.9915 -14.9434 -14.8455
   -14.7527 -14.6180 -14.6010 -14.5666 -14.5501 -14.5171 -14.5105 -14.4583
   -14.2949 -14.2592 -14.2103 -14.1482 -14.0624 -14.0420 -13.8388 -13.4089
   -13.2993 -12.6561  -7.4484  -6.2363  -4.1080  -4.0875  -3.9838  -3.4507
    -3.1821  -3.1539  -3.0252  -3.0213  -2.9765  -2.8399  -2.8306  -2.7561
    -2.7297  -2.7021  -2.6161  -2.5577  -2.5347  -2.4450  -2.4316  -2.4125
    -2.4098  -2.3834  -2.2623  -2.2207  -2.1688  -2.0644  -1.9566  -1.9142
    -1.8870  -1.8422  -1.8050  -1.7570  -1.7455  -1.7309  -1.7234  -1.6135
    -1.4972  -1.4657  -1.4510  -1.4036  -1.3870  -1.3773  -1.3560  -1.2722
    -1.1615  -1.0678  -0.9997  -0.9885  -0.9194  -0.9119  -0.8538  -0.7376
    -0.6767  -0.6729  -0.6554  -0.5515  -0.5263  -0.4550  -0.3924  -0.3338
    -0.2791  -0.2158  -0.1667  -0.1422  -0.1300  -0.0321   0.0401   0.0631
     0.1153   0.1236   0.1324   0.1545   0.2497   0.2860   0.3589   0.4043
     0.4403   0.4839   0.5662   0.6177   0.6853   0.7349   0.7581   0.8194
     0.8735   0.9287   1.0233   1.0713   1.0783   1.0868   1.1111   1.1705
     1.1841   1.2594   1.3430   1.3595   1.4304   1.4993   1.6612   1.7003
     1.9443   2.0201   2.6497   3.0166   3.1778   3.4731   3.6622   3.7996
     3.9957   4.0063   4.0133   4.2377   4.2621

[...]

          k = 0.0380-0.0419 0.0000 ( 17876 PWs)   bands (ev):

[...]

          k =-0.0760-0.0000 0.0000 ( 17886 PWs)   bands (ev):

[...]

          k =-0.0760-0.0839 0.0000 ( 17948 PWs)   bands (ev):

   -56.2438 -56.2433 -55.3637 -55.3593 -55.3235 -55.3138 -55.1379 -55.1356
   -55.0304 -54.8945 -54.8936 -54.8934 -54.8904 -54.8112 -54.3854 -54.3501
   -32.5207 -32.5203 -32.5042 -32.5039 -32.3899 -32.3895 -31.6701 -31.6642
   -31.6542 -31.6467 -31.5704 -31.5554 -31.5537 -31.5494 -31.5430 -31.5415
   -31.5355 -31.5268 -31.4958 -31.4794 -31.3834 -31.3814 -31.3478 -31.3420
   -31.3229 -31.2866 -31.2483 -31.2399 -31.2389 -31.2388 -31.2155 -31.1934
   -31.1506 -31.1184 -31.1182 -31.1165 -31.0935 -31.0792 -31.0791 -31.0663
   -31.0493 -31.0140 -30.7681 -30.7054 -30.6115 -30.5876 -30.5698 -30.5240
   -18.4449 -15.7672 -15.7652 -15.7299 -15.7292 -15.4625 -15.4592 -15.3664
   -15.3612 -15.2271 -15.1100 -15.0079 -14.9952 -14.9598 -14.9328 -14.8212
   -14.8005 -14.7916 -14.7815 -14.6701 -14.6500 -14.6047 -14.5934 -14.5772
   -14.5669 -14.2730 -14.2598 -14.1567 -14.1329 -14.0412 -13.9920 -13.4028
   -13.4028 -12.6748  -7.4421  -6.2287  -4.1180  -4.0892  -2.8634  -2.8565
    -2.8184  -2.8023  -2.8017  -2.7643  -2.6376  -2.5958  -2.5949  -2.5842
    -2.5045  -2.4462  -2.4383  -2.3698  -2.3338  -2.3147  -2.2567  -2.2520
    -2.1806  -2.1541  -2.1461  -2.1303  -2.1053  -2.1039  -2.0096  -1.9468
    -1.8949  -1.8914  -1.8246  -1.8059  -1.7420  -1.7216  -1.7095  -1.6770
    -1.6358  -1.6123  -1.5816  -1.5485  -1.5078  -1.4476  -1.2797  -1.2708
    -1.2621  -1.2407  -1.1151  -1.1084  -1.0768  -1.0460  -1.0402  -0.9674
    -0.9168  -0.8817  -0.8249  -0.7412  -0.7187  -0.6176  -0.5658  -0.5197
    -0.4635  -0.3572  -0.3399  -0.3300  -0.3203  -0.2905  -0.2240  -0.1951
    -0.1789  -0.0587  -0.0391   0.0135   0.0357   0.0916   0.1174   0.1826
     0.2097   0.2811   0.2936   0.3317   0.4046   0.4867   0.5204   0.5703
     0.5749   0.8505   0.9245   1.0539   1.0620   1.1217   1.1801   1.2520
     1.3108   1.3437   1.3705   1.4950   1.4993   1.5090   1.5095   1.5798
     1.5848   1.9222   2.5270   3.5924   3.5927   3.6592   3.6599   3.9806
     3.9869   4.0937   4.1040   4.2641   4.2791

     the Fermi energy is     2.8451 ev

!    total energy              =   -2977.74425166 Ry
     estimated scf accuracy    <       0.00000006 Ry
     smearing contrib. (-TS)   =      -0.00447622 Ry
     internal energy E=F+TS    =   -2977.73977544 Ry

     The total energy is F=E-TS. E is the sum of the following terms:
     one-electron contribution =  -22875.97604253 Ry
     hartree contribution      =   11535.70055081 Ry
     xc contribution           =    -496.32684221 Ry
     ewald contribution        =    8858.86145064 Ry
     electric field correction =       0.00110784 Ry

     convergence has been achieved in  68 iterations

     Forces acting on atoms (cartesian axes, Ry/au):

     atom    1 type  1   force =    -0.00003843   -0.00046219    0.12446919
     atom    2 type  1   force =    -0.00008325   -0.00048495   -0.15981935
     atom    3 type  2   force =     0.00019222   -0.00024268   -0.06786051
     atom    4 type  2   force =    -0.00000584   -0.00011714    0.02624882
     atom    5 type  2   force =    -0.01448977    0.00181846   -0.00989554
     atom    6 type  2   force =     0.01626944    0.00224219   -0.01024350
     atom    7 type  1   force =     0.00071585   -0.00386654    0.02882687
     atom    8 type  1   force =    -0.00034858   -0.00440082    0.10946471
     atom    9 type  2   force =     0.00023943   -0.00029148   -0.00048473
     atom   10 type  2   force =    -0.00231635    0.00256634   -0.07329598
     atom   11 type  2   force =    -0.00003557   -0.00033743    0.00001353
     atom   12 type  2   force =    -0.00014816   -0.00082507    0.00003757
     atom   13 type  1   force =     0.00107012   -0.00040846    0.00002095
     atom   14 type  1   force =    -0.00064838    0.00064658   -0.00014632
     atom   15 type  2   force =    -0.00032898   -0.00039491   -0.00065073
     atom   16 type  2   force =    -0.00001229   -0.00011399    0.00071048
     atom   17 type  2   force =     0.00016960   -0.00092644   -0.00015927
     atom   18 type  2   force =     0.00046047   -0.00049580    0.00012995
     atom   19 type  1   force =    -0.00116038   -0.00008877   -0.00092533
     atom   20 type  1   force =     0.00085344   -0.00025804   -0.00063718
     atom   21 type  2   force =     0.00004634   -0.00003740    0.09942114
     atom   22 type  2   force =    -0.00003270   -0.00025924   -0.00036020
     atom   23 type  2   force =    -0.07966353   -0.00005732   -0.03249374
     atom   24 type  2   force =     0.07950791    0.00038088   -0.03254373
     atom   25 type  1   force =    -0.00001146   -0.00056999    0.12411528
     atom   26 type  1   force =    -0.00008297   -0.00062137   -0.15996532
     atom   27 type  2   force =     0.00029967   -0.00036159   -0.06691498
     atom   28 type  2   force =    -0.00002011    0.00014921    0.02516693
     atom   29 type  2   force =    -0.01511186    0.00192745   -0.00983520
     atom   30 type  2   force =     0.01678786    0.00242715   -0.01014936
     atom   31 type  1   force =     0.00074360   -0.00074488    0.02399674
     atom   32 type  1   force =    -0.00027670    0.00204930    0.11010161
     atom   33 type  2   force =     0.00007696    0.00029473    0.00061196
     atom   34 type  2   force =    -0.00193629    0.00200106   -0.07160122
     atom   35 type  2   force =    -0.00003072    0.00034386    0.00000468
     atom   36 type  2   force =    -0.00052581    0.00061383   -0.00004023
     atom   37 type  1   force =     0.00119615    0.00043022    0.00021845
     atom   38 type  1   force =    -0.00054723   -0.00088438   -0.00026412
     atom   39 type  2   force =    -0.00019733   -0.00016332    0.00101455
     atom   40 type  2   force =     0.00018061   -0.00012831    0.00027161
     atom   41 type  2   force =     0.00104961    0.00016376    0.00022263
     atom   42 type  2   force =    -0.00050831   -0.00024138    0.00052747
     atom   43 type  1   force =    -0.00161873    0.00001010   -0.00027746
     atom   44 type  1   force =     0.00103554   -0.00003044   -0.00051411
     atom   45 type  2   force =     0.00002212   -0.00004716    0.09938418
     atom   46 type  2   force =    -0.07967813    0.00000381   -0.03250666
     atom   47 type  2   force =     0.07953147    0.00043853   -0.03253435
     atom   48 type  3   force =    -0.00281880   -0.00073455   -0.00106122
     atom   49 type  3   force =    -0.00034302   -0.00049338    0.00129057
     atom   50 type  4   force =     0.01761325    0.00030421   -0.00091529
     atom   51 type  5   force =    -0.00215033    0.00148293    0.00075022
     atom   52 type  5   force =    -0.00530097   -0.00436292    0.00323988
     atom   53 type  5   force =    -0.00831714    0.00220693   -0.00104786
     atom   54 type  5   force =     0.00006217   -0.00024975   -0.00061898
     atom   55 type  5   force =     0.00002558    0.00033463   -0.00031219
     atom   56 type  5   force =     0.00030095    0.00035758   -0.00181175
     atom   57 type  2   force =     0.00161434   -0.00052059   -0.00037195
     atom   58 type  5   force =    -0.00049573    0.00088790    0.00002933
     atom   59 type  5   force =    -0.00078085    0.00014105   -0.00003091

     Total force =     0.423954     Total SCF correction =     0.000739
  @ DRIVER MODE: Message from server: STATUS
  @ DRIVER MODE: Message from server: GETFORCE
  @ DRIVER MODE: Returning v,forces,stress,ensemble

     Writing output data file ./calc.save/
  @ DRIVER MODE: Message from server: EXIT
  @ DRIVE MODE: Exiting

     General routines

     Parallel routines

   This run was terminated on:  20:35:50  15Sep2021

   JOB DONE.