     Program PWSCF v.6.7GPU starts on 10Sep2021 at 18:15: 4

     R & G space division:  proc/nbgrp/npool/nimage =      10
     Reading input from /storage/home/hcoda1/3/ntian30/research/carbon/CxH_vib/CH_calc/ads_slab/CHNHNH_a/out_0024/pw.inp
Warning: card &CELL ignored
Warning: card   CELL_DYNAMICS='IPI', ignored
Warning: card / ignored

     Current dimensions of program PWSCF are:
     Max number of different atomic species (ntypx) = 10
     Max number of k-points (npk) =  40000
     Max angular momentum in pseudopotentials (lmaxx) =  3
     Presently no symmetry can be used with electric field

     Message from routine cell_base_init:
     DEPRECATED: use true lattice parameter, not A to a.u. conversion factor

     IMPORTANT: XC functional enforced from input :
     Exchange-correlation= BEEF-VDW
                           (   1   4  43  14   2   0   0)
     Any further DFT definition will be discarded
     Please, verify this is what you really want

  @ DRIVER MODE: Connecting to
 qe_1139763_2787518.sched-torque.pace.gatech.edut_pi2p2t_scratch
  using UNIX socket
  @ DRIVER MODE: Message from server: STATUS
  @ DRIVER MODE: Message from server: INIT
  @ DRIVER MODE: Receiving replica           0          -1
  @ DRIVER MODE: Receiving encoded integer          25
  @ DRIVER MODE:  SCF:  T  FORCE:  T  STRESS:  F  VC:  F  ENSEMBLE:  F
  @ DRIVER MODE:  SCF:  T  FORCE:  T  STRESS:  F  VC:  F  ENSEMBLE:  F

     Using Slab Decomposition

     bravais-lattice index     =            0
     lattice parameter (alat)  =       1.8897  a.u.
     unit-cell volume          =    6658.9804 (a.u.)^3
     number of atoms/cell      =           53
     number of atomic types    =            5
     number of electrons       =       395.00
     number of Kohn-Sham states=          207
     kinetic-energy cutoff     =      29.3995  Ry
     charge density cutoff     =     293.9946  Ry
     scf convergence threshold =      7.3E-08
     mixing beta               =       0.0500
     number of iterations used =            8  plain     mixing
     Exchange-correlation= BEEF-VDW
                           (   1   4  43  14   2   0   0)

     celldm(1)=   1.889726  celldm(2)=   0.000000  celldm(3)=   0.000000
     celldm(4)=   0.000000  celldm(5)=   0.000000  celldm(6)=   0.000000

     crystal axes: (cart. coord. in units of alat)
               a(1) = (   6.579727   0.000000   0.000000 )
               a(2) = (  -0.000775   5.961596   0.000000 )
               a(3) = (   0.000000   0.000000  25.155947 )

     reciprocal axes: (cart. coord. in units 2 pi/alat)
               b(1) = (  0.151982  0.000020  0.000000 )
               b(2) = (  0.000000  0.167740  0.000000 )
               b(3) = (  0.000000  0.000000  0.039752 )

     PseudoPot. # 1 for Ti read from file:
     /storage/coda1/p-amedford6/0/shared/rich_project_chbe-medford/medford-share/data/pseudos_module/espresso/nninc/pbe/van/Ti.UPF
     MD5 check sum: 8e4df49b7f0d34bbd5052bf3f5ea0213
     Pseudo is Ultrasoft, Zval = 12.0
     Generated by new atomic code, or converted to UPF format
     Using radial grid of  851 points,  6 beta functions with:
                l(1) =   0
                l(2) =   0
                l(3) =   1
                l(4) =   1
                l(5) =   2
                l(6) =   2
     Q(r) pseudized with  8 coefficients,  rinner =    1.000   1.000   1.000
                                                       1.000   1.000

     PseudoPot. # 2 for O  read from file:
     /storage/coda1/p-amedford6/0/shared/rich_project_chbe-medford/medford-share/data/pseudos_module/espresso/nninc/pbe/van/O.UPF
     MD5 check sum: 78c19812648e8988a0fe644b0f25305e
     Pseudo is Ultrasoft, Zval =  6.0
     Generated by new atomic code, or converted to UPF format
     Using radial grid of  737 points,  4 beta functions with:
                l(1) =   0
                l(2) =   0
                l(3) =   1
                l(4) =   1
     Q(r) pseudized with  8 coefficients,  rinner =    0.800   0.800   0.800

     PseudoPot. # 3 for N  read from file:
     /storage/coda1/p-amedford6/0/shared/rich_project_chbe-medford/medford-share/data/pseudos_module/espresso/nninc/pbe/van/N.UPF
     MD5 check sum: 90d10febe142ad51ac9d5be1deb811c4
     Pseudo is Ultrasoft, Zval =  5.0
     Generated by new atomic code, or converted to UPF format
     Using radial grid of  729 points,  4 beta functions with:
                l(1) =   0
                l(2) =   0
                l(3) =   1
                l(4) =   1
     Q(r) pseudized with  8 coefficients,  rinner =    0.800   0.800   0.800

     PseudoPot. # 4 for C  read from file:
     /storage/coda1/p-amedford6/0/shared/rich_project_chbe-medford/medford-share/data/pseudos_module/espresso/nninc/pbe/van/C.UPF
     MD5 check sum: 1a69bf6b8db32088f5b2163dbdb77a27
     Pseudo is Ultrasoft, Zval =  4.0
     Generated by new atomic code, or converted to UPF format
     Using radial grid of  721 points,  4 beta functions with:
                l(1) =   0
                l(2) =   0
                l(3) =   1
                l(4) =   1
     Q(r) pseudized with  8 coefficients,  rinner =    0.800   0.800   0.800

     PseudoPot. # 5 for H  read from file:
     /storage/coda1/p-amedford6/0/shared/rich_project_chbe-medford/medford-share/data/pseudos_module/espresso/nninc/pbe/van/H.UPF
     MD5 check sum: b5ee9d7bfd3a09ee7748110bda690ff7
     Pseudo is Ultrasoft, Zval =  1.0
     Generated by new atomic code, or converted to UPF format
     Using radial grid of  615 points,  1 beta functions with:
                l(1) =   0
     Q(r) pseudized with  8 coefficients,  rinner =    0.800

     atomic species   valence    mass     pseudopotential
        Ti1           12.00    47.86700     Ti( 1.00)
        O1             6.00    15.99900     O ( 1.00)
        N1             5.00    14.00700     N ( 1.00)
        C1             4.00    12.01100     C ( 1.00)
        H1             1.00     1.00800     H ( 1.00)

     No symmetry found

   Cartesian axes

     site n.     atom                  positions (alat units)
         1           Ti1 tau(   1) = (   0.0004258   2.9801865   6.0000000  )
         2           Ti1 tau(   2) = (   3.2906075   1.4906267   6.0002472  )
         3           O1  tau(   3) = (   0.0006271   0.0005054   7.9858123  )
         4           O1  tau(   4) = (   3.2906025   0.0005020   7.3038282  )
         5           O1  tau(   5) = (   4.5942328   1.4918067   9.2879030  )
         6           O1  tau(   6) = (   1.9868534   1.4903216   9.2879459  )
         7           Ti1 tau(   7) = (   3.2907910   2.8959150   9.1758416  )
         8           Ti1 tau(   8) = (   0.0015273   1.4827037   9.2680791  )
         9           O1  tau(   9) = (   3.2974950   5.9468587  11.3331085  )
        10           O1  tau(  10) = (   0.0116148   5.9584955  10.6183126  )
        11           O1  tau(  11) = (   1.3019594   1.4757037  12.6170356  )
        12           O1  tau(  12) = (   5.2841045   1.4688878  12.6073194  )
        13           Ti1 tau(  13) = (   0.0658538   3.0089988  12.6217963  )
        14           Ti1 tau(  14) = (   3.3903573   1.4765488  12.4775701  )
        15           O1  tau(  15) = (   6.5762050   0.0002902  14.6414759  )
        16           O1  tau(  16) = (   3.3078303   5.9588356  13.9306596  )
        17           O1  tau(  17) = (   4.5399328   1.5113171  16.0740780  )
        18           O1  tau(  18) = (   2.0525891   1.5105181  16.0861438  )
        19           Ti1 tau(  19) = (   3.3041007   2.9930787  15.6963055  )
        20           Ti1 tau(  20) = (   0.0280933   1.5113244  15.8467906  )
        21           O1  tau(  21) = (   3.2904802   0.0005063   4.7018136  )
        22           O1  tau(  22) = (   0.0368235   0.0128086  17.1990618  )
        23           O1  tau(  23) = (   1.3043587   1.4918075   6.0039043  )
        24           O1  tau(  24) = (   5.2767064   1.4903225   6.0039473  )
        25           Ti1 tau(  25) = (   0.0000382   5.9609847   6.0000000  )
        26           Ti1 tau(  26) = (   3.2902200   4.4714249   6.0002472  )
        27           O1  tau(  27) = (   0.0002396   2.9813036   7.9858123  )
        28           O1  tau(  28) = (   3.2902150   2.9813002   7.3038282  )
        29           O1  tau(  29) = (   4.5938453   4.4726049   9.2879030  )
        30           O1  tau(  30) = (   1.9864658   4.4711199   9.2879459  )
        31           Ti1 tau(  31) = (   3.2891106   5.8743827   9.1763621  )
        32           Ti1 tau(  32) = (   0.0006254   4.4649316   9.2693709  )
        33           O1  tau(  33) = (   3.3000731   2.9737533  11.3293525  )
        34           O1  tau(  34) = (   0.0092240   2.9805883  10.6323155  )
        35           O1  tau(  35) = (   1.3001503   4.4664650  12.6348062  )
        36           O1  tau(  36) = (   5.2875254   4.4541756  12.6228532  )
        37           Ti1 tau(  37) = (   0.0765437   0.0243871  12.5594496  )
        38           Ti1 tau(  38) = (   3.3883988   4.4566399  12.4818539  )
        39           O1  tau(  39) = (   0.0169469   2.9261715  14.6451004  )
        40           O1  tau(  40) = (   3.3035743   2.9719493  13.9037931  )
        41           O1  tau(  41) = (   4.5445893   4.4635849  16.0933648  )
        42           O1  tau(  42) = (   2.0554864   4.4706235  16.0676963  )
        43           Ti1 tau(  43) = (   3.3300396   0.0018144  15.7250798  )
        44           Ti1 tau(  44) = (   0.0441581   4.6348571  16.0952712  )
        45           O1  tau(  45) = (   3.2900926   2.9813045   4.7018136  )
        46           O1  tau(  46) = (   1.3039711   4.4726057   6.0039043  )
        47           O1  tau(  47) = (   5.2763189   4.4711207   6.0039473  )
        48           N1  tau(  48) = (   1.0252718   2.8101955  18.5330041  )
        49           N1  tau(  49) = (   6.5702222   2.9467621  17.4444712  )
        50           C1  tau(  50) = (   1.2122298   3.5280882  19.5702009  )
        51           H1  tau(  51) = (   0.5037382   4.3646449  19.6322421  )
        52           H1  tau(  52) = (   1.5845460   1.9874866  18.3412699  )
        53           H1  tau(  53) = (   5.6894004   2.9582294  17.9538253  )

     number of k points=    10  Fermi-Dirac smearing, width (Ry)=  0.0073
                       cart. coord. in units 2pi/alat
        k(    1) = (   0.0000000   0.0000000   0.0000000), wk =   0.1250000
        k(    2) = (   0.0000000   0.0419351   0.0000000), wk =   0.2500000
        k(    3) = (   0.0000000  -0.0838702   0.0000000), wk =   0.1250000
        k(    4) = (   0.0379955   0.0000049   0.0000000), wk =   0.2500000
        k(    5) = (   0.0379955   0.0419400   0.0000000), wk =   0.2500000
        k(    6) = (   0.0379955  -0.0838652   0.0000000), wk =   0.2500000
        k(    7) = (   0.0379955  -0.0419301   0.0000000), wk =   0.2500000
        k(    8) = (  -0.0759910  -0.0000099   0.0000000), wk =   0.1250000
        k(    9) = (  -0.0759910   0.0419252   0.0000000), wk =   0.2500000
        k(   10) = (  -0.0759910  -0.0838800   0.0000000), wk =   0.1250000

     Initial potential from superposition of free atoms

     starting charge  378.99916, renormalised to  395.00000

     negative rho (up, down):  1.642E-02 0.000E+00

     %%%%%%%%%%%%%%%%%%%%%%%%%%%%%%%%%%%%%%%%%%%%%%%%%%%%%%%%%%%%%%%%%%%%%%%%
     %                                                                      %
     % You are using vdW-DF, which was implemented by the Thonhauser group. %
     % Please cite the following two papers that made this development      %
     % possible and the two reviews that describe the various versions:     %
     %                                                                      %
     %   T. Thonhauser et al., PRL 115, 136402 (2015).                      %
     %   T. Thonhauser et al., PRB 76, 125112 (2007).                       %
     %   K. Berland et al., Rep. Prog. Phys. 78, 066501 (2015).             %
     %   D.C. Langreth et al., J. Phys.: Condens. Matter 21, 084203 (2009). %
     %                                                                      %
     %                                                                      %
     % If you are calculating the stress with vdW-DF, please also cite:     %
     %                                                                      %
     %   R. Sabatini et al., J. Phys.: Condens. Matter 24, 424209 (2012).   %
     %                                                                      %
     %%%%%%%%%%%%%%%%%%%%%%%%%%%%%%%%%%%%%%%%%%%%%%%%%%%%%%%%%%%%%%%%%%%%%%%%

     Adding external electric field

     Computed dipole along edir(3) :
        Dipole               -8.5025 Ry au,        -21.6113 Debye
        Dipole field         -0.0160 Ry au,

        Potential amp.        1.4874 Ry
        Total length         46.3494 bohr

     Starting wfcs are  299 atomic wfcs
  @ DRIVER MODE: Message from server: STATUS
  @ DRIVER MODE: Message from server: POSDATA
  @ DRIVER MODE: Reading and sharing cell
  @ DRIVER MODE: Reading and sharing positions
  @ DRIVER MODE: Received positions

     Self-consistent Calculation

     iteration #  1     ecut=    29.40 Ry     beta= 0.05
     Davidson diagonalization with overlap
     c_bands:  1 eigenvalues not converged
     c_bands:  1 eigenvalues not converged
     c_bands:  2 eigenvalues not converged
     c_bands:  3 eigenvalues not converged
     c_bands:  3 eigenvalues not converged
     c_bands:  1 eigenvalues not converged
     c_bands:  1 eigenvalues not converged
     ethr =  1.00E-05,  avg # of iterations = 19.2

[...]

     total energy              =   -2621.18465590 Ry
     estimated scf accuracy    <    3530.44259654 Ry

[...]

     iteration #  3     ecut=    29.40 Ry     beta= 0.05
     Davidson diagonalization with overlap
     ethr =  1.00E-02,  avg # of iterations = 14.5

[...]

     iteration # 55     ecut=    29.40 Ry     beta= 0.05
     Davidson diagonalization with overlap
     c_bands:  1 eigenvalues not converged
     c_bands:  1 eigenvalues not converged
     ethr =  2.61E-10,  avg # of iterations = 14.3

[...]

     total energy              =   -2939.04804990 Ry
     estimated scf accuracy    <       0.00000009 Ry

     iteration # 61     ecut=    29.40 Ry     beta= 0.05
     Davidson diagonalization with overlap
     ethr =  2.21E-11,  avg # of iterations = 10.5

     negative rho (up, down):  1.569E-02 0.000E+00

     Adding external electric field

     Computed dipole along edir(3) :
        Dipole                0.0472 Ry au,          0.1201 Debye
        Dipole field          0.0001 Ry au,

        Potential amp.       -0.0083 Ry
        Total length         46.3494 bohr

     End of self-consistent calculation

          k = 0.0000 0.0000 0.0000 ( 18029 PWs)   bands (ev):

   -56.2370 -56.2313 -56.2030 -56.1953 -56.1462 -56.0747 -56.0739 -56.0457
   -56.0384 -56.0117 -56.0103 -55.9767 -55.7844 -55.5192 -55.2141 -55.1801
   -32.7877 -32.7190 -32.5877 -32.5753 -32.5556 -32.5443 -32.5302 -32.5010
   -32.4797 -32.4784 -32.4523 -32.4406 -32.4125 -32.3892 -32.3839 -32.3731
   -32.3724 -32.3409 -32.3267 -32.2942 -32.2868 -32.2843 -32.2603 -32.2411
   -32.2363 -32.2331 -32.2329 -32.2201 -32.2131 -32.1967 -32.1905 -32.1886
   -32.1851 -32.1761 -32.1633 -32.1526 -32.1225 -32.0366 -31.9739 -31.7976
   -31.7809 -31.7205 -31.6212 -31.5329 -31.5104 -31.4379 -31.3514 -31.2404
   -17.3043 -16.9865 -16.7141 -16.5055 -16.3933 -16.3613 -16.2616 -16.0785
   -15.9547 -15.9244 -15.8247 -15.7974 -15.7734 -15.7629 -15.7405 -15.7308
   -15.6837 -15.6793 -15.6666 -15.6512 -15.5982 -15.5733 -15.5442 -15.4353
   -15.4288 -15.3955 -15.3695 -15.2936 -15.2872 -14.8269 -13.7168 -13.6004
   -12.7649  -8.6563  -5.3288  -4.3619  -4.2186  -4.1899  -4.1425  -4.0909
    -3.8735  -3.8100  -3.7550  -3.6157  -3.4666  -3.4250  -3.4121  -3.3961
    -3.3666  -3.1405  -3.1148  -3.0512  -3.0278  -3.0221  -3.0111  -3.0013
    -2.9806  -2.9631  -2.8909  -2.7861  -2.7133  -2.6644  -2.6165  -2.6081
    -2.5491  -2.5043  -2.4985  -2.4812  -2.4765  -2.4686  -2.4302  -2.4216
    -2.2854  -2.2246  -2.0918  -2.0550  -2.0349  -1.8870  -1.8444  -1.7497
    -1.6833  -1.6661  -1.6566  -1.6278  -1.5426  -1.5219  -1.4008  -1.3784
    -1.3378  -1.2665  -1.2530  -1.2318  -1.1292  -1.1138  -1.0088  -1.0012
    -0.9951  -0.9777  -0.9207  -0.7311  -0.7103  -0.6789  -0.6596  -0.6264
    -0.5498  -0.5193  -0.4288  -0.4161  -0.3573  -0.3377  -0.3128  -0.2630
    -0.2570  -0.2451  -0.2413  -0.2254  -0.0498   0.0115   0.0687   0.1196
     0.1349   0.2920   0.3413   0.4200   0.5053   0.7332   0.8077   0.8428
     0.8960   0.9998   1.3790   1.4246   2.4433   2.9033   2.9837   3.0333
     3.0436   3.1376   3.1440   3.3519   3.3731   3.3790   3.4430

[...]

          k = 0.0380-0.0419 0.0000 ( 17876 PWs)   bands (ev):

[...]

          k =-0.0760-0.0000 0.0000 ( 17886 PWs)   bands (ev):

[...]

          k =-0.0760-0.0839 0.0000 ( 17948 PWs)   bands (ev):

   -56.2204 -56.2194 -56.2140 -56.2124 -56.1417 -56.0790 -56.0606 -56.0516
   -56.0297 -56.0273 -55.9939 -55.9934 -55.7833 -55.5201 -55.1973 -55.1968
   -32.5927 -32.5899 -32.5347 -32.5339 -32.5241 -32.5161 -32.5150 -32.4969
   -32.4393 -32.4380 -32.4322 -32.4292 -32.4043 -32.3691 -32.3582 -32.3538
   -32.3467 -32.3429 -32.3407 -32.3399 -32.3389 -32.3330 -32.3308 -32.2823
   -32.2813 -32.2704 -32.2524 -32.2422 -32.2284 -32.2279 -32.2255 -32.2251
   -32.2088 -32.2080 -32.1997 -32.1974 -32.1281 -32.0390 -31.9691 -31.8545
   -31.7899 -31.7455 -31.5234 -31.5229 -31.4342 -31.4337 -31.3949 -31.3945
   -17.2869 -16.4373 -16.4057 -16.1795 -16.1692 -16.1546 -16.1511 -16.0138
   -15.9462 -15.9432 -15.9362 -15.9046 -15.8768 -15.8388 -15.7940 -15.7719
   -15.7713 -15.7596 -15.7529 -15.6997 -15.6945 -15.6728 -15.6659 -15.5639
   -15.5530 -15.5495 -15.4959 -15.4074 -15.2783 -15.0013 -13.7023 -13.7021
   -12.7757  -8.6617  -5.3263  -3.8786  -3.7283  -3.6911  -3.5469  -3.4089
    -3.4051  -3.3941  -3.3209  -3.1534  -3.1390  -3.1164  -3.0922  -3.0652
    -3.0651  -3.0504  -3.0448  -3.0258  -3.0021  -2.9667  -2.9277  -2.9242
    -2.9024  -2.8924  -2.8664  -2.8525  -2.8229  -2.8109  -2.7953  -2.7770
    -2.7585  -2.7430  -2.5899  -2.4696  -2.4362  -2.3740  -2.3657  -2.3461
    -2.3118  -2.3006  -2.2876  -2.2258  -2.1248  -1.9889  -1.9411  -1.9349
    -1.9026  -1.8229  -1.8105  -1.6650  -1.6509  -1.6230  -1.5848  -1.5314
    -1.5143  -1.4634  -1.4016  -1.3883  -1.3567  -1.3276  -1.2509  -1.2002
    -1.1975  -1.1804  -1.1204  -1.0327  -1.0245  -1.0073  -0.9996  -0.9498
    -0.8723  -0.8585  -0.8269  -0.7418  -0.7244  -0.6265  -0.5427  -0.3442
    -0.2583  -0.2113  -0.1650  -0.1319  -0.0286   0.0174   0.0333   0.0697
     0.0827   0.1295   0.1883   0.2950   0.3019   0.3632   0.4726   0.8078
     1.1713   1.1722   1.2443   1.2445   2.4011   3.1630   3.1715   3.2272
     3.2495   3.4001   3.4058   3.4305   3.4318   3.5515   3.5690

     the Fermi energy is     2.8980 ev

!    total energy              =   -2939.04809482 Ry
     estimated scf accuracy    <       0.00000005 Ry
     smearing contrib. (-TS)   =      -0.02298528 Ry
     internal energy E=F+TS    =   -2939.02510954 Ry

     The total energy is F=E-TS. E is the sum of the following terms:
     one-electron contribution =  -24314.43657656 Ry
     hartree contribution      =   12241.08411679 Ry
     xc contribution           =    -485.12628339 Ry
     ewald contribution        =    9619.45362940 Ry
     electric field correction =       0.00000421 Ry

     convergence has been achieved in  61 iterations

     Forces acting on atoms (cartesian axes, Ry/au):

     atom    1 type  1   force =     0.00025410   -0.00023129    0.09664709
     atom    2 type  1   force =    -0.00018385   -0.00053077   -0.17531402
     atom    3 type  2   force =    -0.00000539   -0.00007970   -0.02502854
     atom    4 type  2   force =     0.00005801   -0.00155568    0.05299582
     atom    5 type  2   force =    -0.01219485   -0.00104443    0.00344156
     atom    6 type  2   force =     0.01406828   -0.00028959    0.00273138
     atom    7 type  1   force =    -0.00094671    0.00050656   -0.01193022
     atom    8 type  1   force =     0.00044103    0.00876262    0.02925306
     atom    9 type  2   force =     0.00051363    0.00030643   -0.00016388
     atom   10 type  2   force =    -0.00090572   -0.00020383   -0.01711154
     atom   11 type  2   force =     0.00035902    0.00018034    0.00035504
     atom   12 type  2   force =    -0.00105478    0.00082451    0.00049212
     atom   13 type  1   force =     0.00146380    0.00082036   -0.00002350
     atom   14 type  1   force =    -0.00124553    0.00035341   -0.00025939
     atom   15 type  2   force =    -0.00065528    0.00069332    0.00052424
     atom   16 type  2   force =     0.00031892   -0.00036480   -0.00018516
     atom   17 type  2   force =     0.00059517    0.00019640   -0.00015376
     atom   18 type  2   force =    -0.00064767    0.00008092   -0.00022308
     atom   19 type  1   force =    -0.00006261   -0.00054234   -0.00006286
     atom   20 type  1   force =     0.00001011   -0.00003298    0.00033522
     atom   21 type  2   force =     0.00008006   -0.00006841    0.10319601
     atom   22 type  2   force =     0.00001507    0.00163547    0.00046716
     atom   23 type  2   force =    -0.07147462   -0.00015742   -0.02776446
     atom   24 type  2   force =     0.07142183    0.00026099   -0.02776863
     atom   25 type  1   force =     0.00007963   -0.00023575    0.09649614
     atom   26 type  1   force =    -0.00013198   -0.00033108   -0.17548374
     atom   27 type  2   force =     0.00006283   -0.00023507   -0.02405245
     atom   28 type  2   force =     0.00011851   -0.00127242    0.05276801
     atom   29 type  2   force =    -0.01230636    0.00002327    0.00300213
     atom   30 type  2   force =     0.01407052    0.00039841    0.00237386
     atom   31 type  1   force =    -0.00093463    0.00316280   -0.01288240
     atom   32 type  1   force =     0.00028826   -0.01001898    0.02994506
     atom   33 type  2   force =     0.00025870   -0.00013666    0.00048500
     atom   34 type  2   force =    -0.00003296   -0.00000024   -0.02438594
     atom   35 type  2   force =    -0.00034512    0.00021969   -0.00027483
     atom   36 type  2   force =    -0.00114180    0.00053662   -0.00006646
     atom   37 type  1   force =     0.00122807   -0.00093365    0.00047529
     atom   38 type  1   force =    -0.00091507   -0.00056604   -0.00004537
     atom   39 type  2   force =    -0.00020414   -0.00059095    0.00065945
     atom   40 type  2   force =     0.00008649    0.00054950    0.00013257
     atom   41 type  2   force =    -0.00110670   -0.00009031   -0.00024556
     atom   42 type  2   force =     0.00160910   -0.00024407   -0.00021086
     atom   43 type  1   force =    -0.00050907    0.00030734   -0.00050321
     atom   44 type  1   force =    -0.00011932    0.00000909   -0.00002312
     atom   45 type  2   force =     0.00005474   -0.00008042    0.10319475
     atom   46 type  2   force =    -0.07149726   -0.00015811   -0.02775456
     atom   47 type  2   force =     0.07146798    0.00034186   -0.02779027
     atom   48 type  3   force =    -0.00103117    0.00230862    0.00085190
     atom   49 type  3   force =    -0.00074307   -0.00050421   -0.00022385
     atom   50 type  4   force =     0.00103245    0.00005479    0.00106384
     atom   51 type  5   force =     0.00025893   -0.00011419   -0.00190065
     atom   52 type  5   force =     0.00093988   -0.00127488   -0.00067161
     atom   53 type  5   force =    -0.00075946   -0.00064508    0.00061721

     Total force =     0.368388     Total SCF correction =     0.000648
  @ DRIVER MODE: Message from server: STATUS
  @ DRIVER MODE: Message from server: GETFORCE
  @ DRIVER MODE: Returning v,forces,stress,ensemble

     Writing output data file ./calc.save/
  @ DRIVER MODE: Message from server: EXIT
  @ DRIVE MODE: Exiting

     General routines

     Parallel routines

   This run was terminated on:  18:31:55  10Sep2021

   JOB DONE.