     Program PWSCF v.6.7GPU starts on 23Sep2021 at 10:29:22

     R & G space division:  proc/nbgrp/npool/nimage =      10
     Reading input from /storage/home/hcoda1/3/ntian30/research/carbon/CxH_vib/H2O_calc/ads_slab/CH3NHHH2O_a/out_0057/pw.inp
Warning: card &CELL ignored
Warning: card   CELL_DYNAMICS='IPI', ignored
Warning: card / ignored

     Current dimensions of program PWSCF are:
     Max number of different atomic species (ntypx) = 10
     Max number of k-points (npk) =  40000
     Max angular momentum in pseudopotentials (lmaxx) =  3
     Presently no symmetry can be used with electric field

     Message from routine cell_base_init:
     DEPRECATED: use true lattice parameter, not A to a.u. conversion factor

     IMPORTANT: XC functional enforced from input :
     Exchange-correlation= BEEF-VDW
                           (   1   4  43  14   2   0   0)
     Any further DFT definition will be discarded
     Please, verify this is what you really want

  @ DRIVER MODE: Connecting to
 qe_1139763_2937309.sched-torque.pace.gatech.edujhe3splw_scratch
  using UNIX socket
  @ DRIVER MODE: Message from server: STATUS
  @ DRIVER MODE: Message from server: INIT
  @ DRIVER MODE: Receiving replica           0          -1
  @ DRIVER MODE: Receiving encoded integer          25
  @ DRIVER MODE:  SCF:  T  FORCE:  T  STRESS:  F  VC:  F  ENSEMBLE:  F
  @ DRIVER MODE:  SCF:  T  FORCE:  T  STRESS:  F  VC:  F  ENSEMBLE:  F

     Using Slab Decomposition

     bravais-lattice index     =            0
     lattice parameter (alat)  =       1.8897  a.u.
     unit-cell volume          =    6658.9804 (a.u.)^3
     number of atoms/cell      =           57
     number of atomic types    =            5
     number of electrons       =       400.00
     number of Kohn-Sham states=          210
     kinetic-energy cutoff     =      29.3995  Ry
     charge density cutoff     =     293.9946  Ry
     scf convergence threshold =      7.3E-08
     mixing beta               =       0.0500
     number of iterations used =            8  plain     mixing
     Exchange-correlation= BEEF-VDW
                           (   1   4  43  14   2   0   0)

     celldm(1)=   1.889726  celldm(2)=   0.000000  celldm(3)=   0.000000
     celldm(4)=   0.000000  celldm(5)=   0.000000  celldm(6)=   0.000000

     crystal axes: (cart. coord. in units of alat)
               a(1) = (   6.579727   0.000000   0.000000 )
               a(2) = (  -0.000775   5.961596   0.000000 )
               a(3) = (   0.000000   0.000000  25.155947 )

     reciprocal axes: (cart. coord. in units 2 pi/alat)
               b(1) = (  0.151982  0.000020  0.000000 )
               b(2) = (  0.000000  0.167740  0.000000 )
               b(3) = (  0.000000  0.000000  0.039752 )

     PseudoPot. # 1 for Ti read from file:
     /storage/coda1/p-amedford6/0/shared/rich_project_chbe-medford/medford-share/data/pseudos_module/espresso/nninc/pbe/van/Ti.UPF
     MD5 check sum: 8e4df49b7f0d34bbd5052bf3f5ea0213
     Pseudo is Ultrasoft, Zval = 12.0
     Generated by new atomic code, or converted to UPF format
     Using radial grid of  851 points,  6 beta functions with:
                l(1) =   0
                l(2) =   0
                l(3) =   1
                l(4) =   1
                l(5) =   2
                l(6) =   2
     Q(r) pseudized with  8 coefficients,  rinner =    1.000   1.000   1.000
                                                       1.000   1.000

     PseudoPot. # 2 for O  read from file:
     /storage/coda1/p-amedford6/0/shared/rich_project_chbe-medford/medford-share/data/pseudos_module/espresso/nninc/pbe/van/O.UPF
     MD5 check sum: 78c19812648e8988a0fe644b0f25305e
     Pseudo is Ultrasoft, Zval =  6.0
     Generated by new atomic code, or converted to UPF format
     Using radial grid of  737 points,  4 beta functions with:
                l(1) =   0
                l(2) =   0
                l(3) =   1
                l(4) =   1
     Q(r) pseudized with  8 coefficients,  rinner =    0.800   0.800   0.800

     PseudoPot. # 3 for N  read from file:
     /storage/coda1/p-amedford6/0/shared/rich_project_chbe-medford/medford-share/data/pseudos_module/espresso/nninc/pbe/van/N.UPF
     MD5 check sum: 90d10febe142ad51ac9d5be1deb811c4
     Pseudo is Ultrasoft, Zval =  5.0
     Generated by new atomic code, or converted to UPF format
     Using radial grid of  729 points,  4 beta functions with:
                l(1) =   0
                l(2) =   0
                l(3) =   1
                l(4) =   1
     Q(r) pseudized with  8 coefficients,  rinner =    0.800   0.800   0.800

     PseudoPot. # 4 for C  read from file:
     /storage/coda1/p-amedford6/0/shared/rich_project_chbe-medford/medford-share/data/pseudos_module/espresso/nninc/pbe/van/C.UPF
     MD5 check sum: 1a69bf6b8db32088f5b2163dbdb77a27
     Pseudo is Ultrasoft, Zval =  4.0
     Generated by new atomic code, or converted to UPF format
     Using radial grid of  721 points,  4 beta functions with:
                l(1) =   0
                l(2) =   0
                l(3) =   1
                l(4) =   1
     Q(r) pseudized with  8 coefficients,  rinner =    0.800   0.800   0.800

     PseudoPot. # 5 for H  read from file:
     /storage/coda1/p-amedford6/0/shared/rich_project_chbe-medford/medford-share/data/pseudos_module/espresso/nninc/pbe/van/H.UPF
     MD5 check sum: b5ee9d7bfd3a09ee7748110bda690ff7
     Pseudo is Ultrasoft, Zval =  1.0
     Generated by new atomic code, or converted to UPF format
     Using radial grid of  615 points,  1 beta functions with:
                l(1) =   0
     Q(r) pseudized with  8 coefficients,  rinner =    0.800

     atomic species   valence    mass     pseudopotential
        Ti1           12.00    47.86700     Ti( 1.00)
        O1             6.00    15.99900     O ( 1.00)
        N1             5.00    14.00700     N ( 1.00)
        C1             4.00    12.01100     C ( 1.00)
        H1             1.00     1.00800     H ( 1.00)

     No symmetry found

   Cartesian axes

     site n.     atom                  positions (alat units)
         1           Ti1 tau(   1) = (   0.0004258   2.9801865   6.0000000  )
         2           Ti1 tau(   2) = (   3.2906075   1.4906267   6.0002472  )
         3           O1  tau(   3) = (   0.0006271   0.0005054   7.9858123  )
         4           O1  tau(   4) = (   3.2906025   0.0005020   7.3038282  )
         5           O1  tau(   5) = (   4.5942328   1.4918067   9.2879030  )
         6           O1  tau(   6) = (   1.9868534   1.4903216   9.2879459  )
         7           Ti1 tau(   7) = (   3.2907910   2.8959150   9.1758416  )
         8           Ti1 tau(   8) = (   0.0015273   1.4827037   9.2680791  )
         9           O1  tau(   9) = (   3.2912042   0.0294118  11.3810798  )
        10           O1  tau(  10) = (   0.0116148   5.9584955  10.6183126  )
        11           O1  tau(  11) = (   1.2906363   1.5151137  12.6946382  )
        12           O1  tau(  12) = (   5.2977377   1.5118052  12.6897239  )
        13           Ti1 tau(  13) = (   0.0154927   3.0055723  12.5114375  )
        14           Ti1 tau(  14) = (   3.3120461   1.5076926  12.5412499  )
        15           O1  tau(  15) = (   0.0087391   5.9056098  14.6936070  )
        16           O1  tau(  16) = (   3.3000944   0.0090435  14.0218108  )
        17           O1  tau(  17) = (   4.5606481   1.5918460  16.0876707  )
        18           O1  tau(  18) = (   2.0070218   1.5857768  16.0794533  )
        19           Ti1 tau(  19) = (   3.2835068   3.0412122  15.7371975  )
        20           Ti1 tau(  20) = (   0.0166266   1.3536260  15.8406240  )
        21           O1  tau(  21) = (   3.2904802   0.0005063   4.7018136  )
        22           O1  tau(  22) = (   6.5628702   0.1917167  17.2472498  )
        23           O1  tau(  23) = (   1.3043587   1.4918075   6.0039043  )
        24           O1  tau(  24) = (   5.2767064   1.4903225   6.0039473  )
        25           Ti1 tau(  25) = (   0.0000382   5.9609847   6.0000000  )
        26           Ti1 tau(  26) = (   3.2902200   4.4714249   6.0002472  )
        27           O1  tau(  27) = (   0.0002396   2.9813036   7.9858123  )
        28           O1  tau(  28) = (   3.2902150   2.9813002   7.3038282  )
        29           O1  tau(  29) = (   4.5938453   4.4726049   9.2879030  )
        30           O1  tau(  30) = (   1.9864658   4.4711199   9.2879459  )
        31           Ti1 tau(  31) = (   3.2891106   5.8743827   9.1763621  )
        32           Ti1 tau(  32) = (   0.0006254   4.4649316   9.2693709  )
        33           O1  tau(  33) = (   3.2975917   2.9887808  11.3748511  )
        34           O1  tau(  34) = (   0.0092240   2.9805883  10.6323155  )
        35           O1  tau(  35) = (   1.2927870   4.4849180  12.6503915  )
        36           O1  tau(  36) = (   5.2959677   4.4879952  12.6460094  )
        37           Ti1 tau(  37) = (   0.0189062   0.0134437  12.4995343  )
        38           Ti1 tau(  38) = (   3.3131396   4.4925875  12.5257625  )
        39           O1  tau(  39) = (   6.5658147   3.0796170  14.9398047  )
        40           O1  tau(  40) = (   3.2912769   3.0351834  13.9531456  )
        41           O1  tau(  41) = (   4.5372935   4.5058929  16.2491503  )
        42           O1  tau(  42) = (   2.0060561   4.4992570  16.2466123  )
        43           Ti1 tau(  43) = (   3.3106529   0.0781036  15.8389635  )
        44           Ti1 tau(  44) = (   0.0259428   4.5566345  16.0434284  )
        45           O1  tau(  45) = (   3.2900926   2.9813045   4.7018136  )
        46           O1  tau(  46) = (   1.3039711   4.4726057   6.0039043  )
        47           O1  tau(  47) = (   5.2763189   4.4711207   6.0039473  )
        48           N1  tau(  48) = (   6.3514164   3.3085518  18.1544664  )
        49           C1  tau(  49) = (   0.8695967   3.1501053  19.1301808  )
        50           H1  tau(  50) = (   1.3785670   4.1052268  19.2416751  )
        51           H1  tau(  51) = (   0.5086663   2.8389580  20.1145987  )
        52           H1  tau(  52) = (   1.5779067   2.4119510  18.7640910  )
        53           H1  tau(  53) = (   5.7211048   4.0382881  18.4729098  )
        54           H1  tau(  54) = (   5.7931489   2.4557210  18.1309407  )
        55           O1  tau(  55) = (   3.2817172   0.3149129  18.3340421  )
        56           H1  tau(  56) = (   4.0380937   5.6864266  18.4726034  )
        57           H1  tau(  57) = (   2.4816286   5.7271253  18.4434621  )

     number of k points=    10  Fermi-Dirac smearing, width (Ry)=  0.0073
                       cart. coord. in units 2pi/alat
        k(    1) = (   0.0000000   0.0000000   0.0000000), wk =   0.1250000
        k(    2) = (   0.0000000   0.0419351   0.0000000), wk =   0.2500000
        k(    3) = (   0.0000000  -0.0838702   0.0000000), wk =   0.1250000
        k(    4) = (   0.0379955   0.0000049   0.0000000), wk =   0.2500000
        k(    5) = (   0.0379955   0.0419400   0.0000000), wk =   0.2500000
        k(    6) = (   0.0379955  -0.0838652   0.0000000), wk =   0.2500000
        k(    7) = (   0.0379955  -0.0419301   0.0000000), wk =   0.2500000
        k(    8) = (  -0.0759910  -0.0000099   0.0000000), wk =   0.1250000
        k(    9) = (  -0.0759910   0.0419252   0.0000000), wk =   0.2500000
        k(   10) = (  -0.0759910  -0.0838800   0.0000000), wk =   0.1250000

     Initial potential from superposition of free atoms

     starting charge  383.99913, renormalised to  400.00000

     negative rho (up, down):  1.554E-02 0.000E+00

     %%%%%%%%%%%%%%%%%%%%%%%%%%%%%%%%%%%%%%%%%%%%%%%%%%%%%%%%%%%%%%%%%%%%%%%%
     %                                                                      %
     % You are using vdW-DF, which was implemented by the Thonhauser group. %
     % Please cite the following two papers that made this development      %
     % possible and the two reviews that describe the various versions:     %
     %                                                                      %
     %   T. Thonhauser et al., PRL 115, 136402 (2015).                      %
     %   T. Thonhauser et al., PRB 76, 125112 (2007).                       %
     %   K. Berland et al., Rep. Prog. Phys. 78, 066501 (2015).             %
     %   D.C. Langreth et al., J. Phys.: Condens. Matter 21, 084203 (2009). %
     %                                                                      %
     %                                                                      %
     % If you are calculating the stress with vdW-DF, please also cite:     %
     %                                                                      %
     %   R. Sabatini et al., J. Phys.: Condens. Matter 24, 424209 (2012).   %
     %                                                                      %
     %%%%%%%%%%%%%%%%%%%%%%%%%%%%%%%%%%%%%%%%%%%%%%%%%%%%%%%%%%%%%%%%%%%%%%%%

     Adding external electric field

     Computed dipole along edir(3) :
        Dipole              -12.0858 Ry au,        -30.7189 Debye
        Dipole field         -0.0228 Ry au,

        Potential amp.        2.1142 Ry
        Total length         46.3494 bohr

     Starting wfcs are  303 atomic wfcs
  @ DRIVER MODE: Message from server: STATUS
  @ DRIVER MODE: Message from server: POSDATA
  @ DRIVER MODE: Reading and sharing cell
  @ DRIVER MODE: Reading and sharing positions
  @ DRIVER MODE: Received positions

     Self-consistent Calculation

     iteration #  1     ecut=    29.40 Ry     beta= 0.05
     Davidson diagonalization with overlap
     c_bands:  2 eigenvalues not converged
     c_bands:  2 eigenvalues not converged
     c_bands:  3 eigenvalues not converged
     c_bands:  4 eigenvalues not converged
     c_bands:  2 eigenvalues not converged
     c_bands:  1 eigenvalues not converged
     c_bands:  4 eigenvalues not converged
     c_bands:  4 eigenvalues not converged
     c_bands:  5 eigenvalues not converged
     ethr =  1.00E-05,  avg # of iterations = 22.0

[...]

     total energy              =   -2384.83580112 Ry
     estimated scf accuracy    <    6450.51212264 Ry

     iteration #  2     ecut=    29.40 Ry     beta= 0.05
     Davidson diagonalization with overlap
     ethr =  1.00E-02,  avg # of iterations = 26.0

[...]

     iteration # 66     ecut=    29.40 Ry     beta= 0.05
     Davidson diagonalization with overlap
     c_bands:  1 eigenvalues not converged
     c_bands:  1 eigenvalues not converged
     ethr =  7.18E-11,  avg # of iterations = 16.5

[...]

     total energy              =   -2956.45481702 Ry
     estimated scf accuracy    <       0.00000007 Ry

     iteration # 68     ecut=    29.40 Ry     beta= 0.05
     Davidson diagonalization with overlap
     ethr =  1.86E-11,  avg # of iterations =  6.7

     negative rho (up, down):  1.589E-02 0.000E+00

     Adding external electric field

     Computed dipole along edir(3) :
        Dipole                1.4043 Ry au,          3.5693 Debye
        Dipole field          0.0027 Ry au,

        Potential amp.       -0.2457 Ry
        Total length         46.3494 bohr

     End of self-consistent calculation

          k = 0.0000 0.0000 0.0000 ( 18029 PWs)   bands (ev):

   -55.2161 -55.1788 -55.1732 -55.1475 -55.1391 -55.1188 -55.0973 -55.0624
   -55.0418 -55.0071 -55.0041 -54.9948 -54.9705 -54.9349 -54.2032 -54.1692
   -31.7795 -31.6897 -31.6657 -31.5860 -31.5307 -31.5257 -31.5172 -31.5096
   -31.4622 -31.4387 -31.4272 -31.4180 -31.4137 -31.4119 -31.3880 -31.3848
   -31.3625 -31.3613 -31.3540 -31.3385 -31.3257 -31.3180 -31.3027 -31.2935
   -31.2870 -31.2747 -31.2721 -31.2431 -31.2304 -31.2282 -31.2228 -31.2028
   -31.2000 -31.1921 -31.1881 -31.1712 -31.1550 -31.1409 -31.1332 -31.1322
   -31.1152 -31.1128 -30.6126 -30.5183 -30.4962 -30.4290 -30.3422 -30.2313
   -19.2088 -16.1567 -16.0250 -15.7762 -15.6346 -15.5401 -15.4198 -15.3045
   -15.2399 -15.1259 -15.0677 -14.9325 -14.9171 -14.9054 -14.8809 -14.8473
   -14.8086 -14.7607 -14.7594 -14.7360 -14.7153 -14.7067 -14.6649 -14.6575
   -14.6177 -14.5965 -14.5959 -14.4603 -14.3788 -14.3085 -14.1229 -12.7059
   -12.5885 -10.2757  -6.9772  -6.2731  -4.8298  -3.9428  -3.4064  -3.3494
    -3.2379  -3.1490  -3.1268  -3.1135  -2.9766  -2.8842  -2.7482  -2.6671
    -2.6347  -2.4983  -2.4249  -2.4139  -2.3810  -2.2658  -2.2135  -2.1868
    -2.1538  -2.0826  -2.0346  -2.0239  -2.0059  -1.9753  -1.9603  -1.9259
    -1.8720  -1.7872  -1.7552  -1.6531  -1.6155  -1.5848  -1.5756  -1.5512
    -1.5341  -1.5094  -1.5029  -1.4427  -1.4391  -1.4092  -1.3630  -1.2482
    -1.0858  -1.0227  -0.9506  -0.8581  -0.8102  -0.7968  -0.7273  -0.7169
    -0.7033  -0.5995  -0.5670  -0.5543  -0.4572  -0.4249  -0.3871  -0.3146
    -0.2432  -0.2152  -0.2022  -0.0868  -0.0219  -0.0037   0.0160   0.0231
     0.1128   0.1859   0.2334   0.2850   0.3261   0.3332   0.3990   0.4312
     0.4988   0.5508   0.5688   0.6561   0.7010   0.7136   0.7197   0.7530
     0.7650   0.8266   0.8630   0.8874   0.9739   1.0892   1.2418   1.3830
     1.3910   1.7241   1.7249   1.8194   2.0032   2.3957   2.4440   3.8770
     3.9497   4.0089   4.0223   4.0278   4.1130   4.3594   4.3814   4.3872
     4.3973   4.4258

[...]

          k = 0.0380-0.0419 0.0000 ( 17876 PWs)   bands (ev):

[...]

          k =-0.0760-0.0000 0.0000 ( 17886 PWs)   bands (ev):

[...]

          k =-0.0760-0.0839 0.0000 ( 17948 PWs)   bands (ev):

   -55.2025 -55.1922 -55.1563 -55.1559 -55.1458 -55.1166 -55.0831 -55.0765
   -55.0273 -55.0212 -54.9971 -54.9875 -54.9872 -54.9364 -54.1864 -54.1859
   -31.6083 -31.5883 -31.5795 -31.4809 -31.4806 -31.4770 -31.4695 -31.4475
   -31.4473 -31.4278 -31.4200 -31.4133 -31.4059 -31.3914 -31.3739 -31.3589
   -31.3563 -31.3538 -31.3520 -31.3500 -31.3426 -31.3400 -31.3229 -31.3169
   -31.2965 -31.2959 -31.2773 -31.2759 -31.2756 -31.2738 -31.2688 -31.2604
   -31.2528 -31.2402 -31.2343 -31.2200 -31.2172 -31.1992 -31.1725 -31.1681
   -31.1674 -31.1465 -30.5090 -30.5087 -30.4253 -30.4249 -30.3858 -30.3855
   -19.2080 -16.1109 -15.5986 -15.4846 -15.3587 -15.2489 -15.2280 -15.1816
   -15.1329 -15.0825 -15.0309 -15.0020 -14.9813 -14.9724 -14.9297 -14.9190
   -14.9000 -14.8345 -14.8190 -14.8079 -14.7841 -14.7365 -14.7283 -14.7206
   -14.7166 -14.6707 -14.6666 -14.6190 -14.5751 -14.5713 -14.3914 -12.6900
   -12.6899 -10.2774  -7.0059  -6.2036  -4.8305  -3.9595  -3.2528  -2.9818
    -2.7500  -2.6981  -2.6098  -2.4661  -2.4222  -2.3774  -2.3463  -2.2846
    -2.2340  -2.2191  -2.2072  -2.1310  -2.1041  -2.0959  -2.0629  -2.0513
    -2.0413  -2.0031  -1.9826  -1.9573  -1.9486  -1.9381  -1.9353  -1.9247
    -1.8679  -1.8549  -1.8444  -1.8405  -1.7820  -1.7706  -1.7558  -1.7412
    -1.5973  -1.5790  -1.4280  -1.4246  -1.4016  -1.3500  -1.3383  -1.2976
    -1.2542  -1.2450  -1.2184  -0.9740  -0.9650  -0.9619  -0.9302  -0.8959
    -0.8587  -0.7970  -0.7681  -0.6980  -0.6898  -0.5741  -0.5578  -0.4425
    -0.4339  -0.4214  -0.3386  -0.2892  -0.2412  -0.2023  -0.1853  -0.1745
    -0.1581  -0.1214  -0.1191  -0.0218   0.0143   0.0452   0.0585   0.0980
     0.2747   0.3033   0.3191   0.4633   0.4709   0.6299   0.6811   0.7092
     0.7996   0.8598   0.8945   0.9384   1.0743   1.0875   1.1055   1.1596
     1.1827   1.2322   1.2453   2.1755   2.1769   2.2639   2.2640   4.0221
     4.1314   4.1406   4.1983   4.3096   4.3185   4.3922   4.4232   4.4608
     4.4647   4.5288

     the Fermi energy is     3.9393 ev

!    total energy              =   -2956.45484419 Ry
     estimated scf accuracy    <       0.00000004 Ry
     smearing contrib. (-TS)   =      -0.03685266 Ry
     internal energy E=F+TS    =   -2956.41799153 Ry

     The total energy is F=E-TS. E is the sum of the following terms:
     one-electron contribution =  -23693.55243753 Ry
     hartree contribution      =   11942.27477669 Ry
     xc contribution           =    -490.60840033 Ry
     ewald contribution        =    9285.46434819 Ry
     electric field correction =       0.00372144 Ry

     convergence has been achieved in  68 iterations

     Forces acting on atoms (cartesian axes, Ry/au):

     atom    1 type  1   force =    -0.00000489   -0.00026061    0.09337695
     atom    2 type  1   force =    -0.00007123   -0.00035549   -0.17813352
     atom    3 type  2   force =     0.00004522   -0.00030505   -0.02033451
     atom    4 type  2   force =    -0.00003510   -0.00185003    0.05914392
     atom    5 type  2   force =    -0.01022214   -0.00060739    0.00751251
     atom    6 type  2   force =     0.01174852    0.00022141    0.00684222
     atom    7 type  1   force =    -0.00030783    0.00188239   -0.01239869
     atom    8 type  1   force =     0.00016548    0.00082001   -0.00451060
     atom    9 type  2   force =     0.00038538   -0.00015771   -0.00081347
     atom   10 type  2   force =    -0.00141810    0.00415253   -0.00108186
     atom   11 type  2   force =    -0.00088213   -0.00030457    0.00018154
     atom   12 type  2   force =     0.00089249   -0.00005762    0.00004451
     atom   13 type  1   force =    -0.00012726   -0.00022598    0.00011147
     atom   14 type  1   force =    -0.00004947   -0.00010143    0.00003871
     atom   15 type  2   force =    -0.00066279   -0.00004372   -0.00008025
     atom   16 type  2   force =    -0.00010812    0.00022159   -0.00041492
     atom   17 type  2   force =     0.00026649   -0.00070865    0.00003180
     atom   18 type  2   force =     0.00081671   -0.00060076   -0.00029909
     atom   19 type  1   force =    -0.00078925    0.00009529    0.00143170
     atom   20 type  1   force =     0.00081721   -0.00080002    0.00044023
     atom   21 type  2   force =     0.00002226   -0.00010748    0.10397216
     atom   22 type  2   force =     0.00005898   -0.00064864    0.00025577
     atom   23 type  2   force =    -0.07040466   -0.00020564   -0.02691418
     atom   24 type  2   force =     0.07023876    0.00023339   -0.02697049
     atom   25 type  1   force =    -0.00005545   -0.00022460    0.09288316
     atom   26 type  1   force =    -0.00020224   -0.00052861   -0.17839959
     atom   27 type  2   force =     0.00007122   -0.00013848   -0.01930814
     atom   28 type  2   force =     0.00005428   -0.00157651    0.05815611
     atom   29 type  2   force =    -0.01092591   -0.00006631    0.00843637
     atom   30 type  2   force =     0.01233182    0.00012200    0.00771936
     atom   31 type  1   force =    -0.00029547    0.00668920   -0.01507167
     atom   32 type  1   force =     0.00010998   -0.00071983   -0.00471575
     atom   33 type  2   force =    -0.00022059    0.00035274   -0.00052783
     atom   34 type  2   force =    -0.00111211   -0.00023517   -0.00040272
     atom   35 type  2   force =    -0.00020920   -0.00011970   -0.00016504
     atom   36 type  2   force =     0.00028851   -0.00036471   -0.00026521
     atom   37 type  1   force =     0.00023643   -0.00018714    0.00021878
     atom   38 type  1   force =    -0.00011584    0.00068444    0.00063885
     atom   39 type  2   force =     0.00013373   -0.00110039    0.00100606
     atom   40 type  2   force =     0.00026265    0.00100260   -0.00060646
     atom   41 type  2   force =    -0.00022935    0.00017153   -0.00027160
     atom   42 type  2   force =     0.00119284    0.00016642   -0.00038887
     atom   43 type  1   force =    -0.00115236    0.00009485    0.00042409
     atom   44 type  1   force =     0.00030026   -0.00114101    0.00105638
     atom   45 type  2   force =     0.00001384   -0.00011562    0.10392847
     atom   46 type  2   force =    -0.07036461   -0.00012497   -0.02687822
     atom   47 type  2   force =     0.07022054    0.00028561   -0.02694325
     atom   48 type  3   force =     0.00075470    0.00011815   -0.00052453
     atom   49 type  4   force =    -0.00002196   -0.00019428   -0.00002402
     atom   50 type  5   force =    -0.00021117   -0.00074329    0.00018684
     atom   51 type  5   force =    -0.00001872   -0.00054926   -0.00061571
     atom   52 type  5   force =    -0.00003747    0.00003757   -0.00046544
     atom   53 type  5   force =     0.00001854    0.00014981   -0.00062854
     atom   54 type  5   force =     0.00008203   -0.00019394   -0.00066674
     atom   55 type  2   force =    -0.00844997   -0.00782542    0.00210022
     atom   56 type  5   force =     0.00033354    0.00023894    0.00005733
     atom   57 type  5   force =     0.00684303    0.00574956   -0.00137461

     Total force =     0.366536     Total SCF correction =     0.000632
  @ DRIVER MODE: Message from server: STATUS
  @ DRIVER MODE: Message from server: GETFORCE
  @ DRIVER MODE: Returning v,forces,stress,ensemble

     Writing output data file ./calc.save/
  @ DRIVER MODE: Message from server: EXIT
  @ DRIVE MODE: Exiting

     General routines

     Parallel routines

   This run was terminated on:  10:47:50  23Sep2021

   JOB DONE.