     Program PWSCF v.6.7GPU starts on 15Sep2021 at 20:50:47

     R & G space division:  proc/nbgrp/npool/nimage =      10
     Reading input from /storage/home/hcoda1/3/ntian30/research/carbon/CxH_vib/H2O_calc/ads_slab/CHNH2O_a/out_0016/pw.inp
Warning: card &CELL ignored
Warning: card   CELL_DYNAMICS='IPI', ignored
Warning: card / ignored

     Current dimensions of program PWSCF are:
     Max number of different atomic species (ntypx) = 10
     Max number of k-points (npk) =  40000
     Max angular momentum in pseudopotentials (lmaxx) =  3
     Presently no symmetry can be used with electric field

     Message from routine cell_base_init:
     DEPRECATED: use true lattice parameter, not A to a.u. conversion factor

     IMPORTANT: XC functional enforced from input :
     Exchange-correlation= BEEF-VDW
                           (   1   4  43  14   2   0   0)
     Any further DFT definition will be discarded
     Please, verify this is what you really want

  @ DRIVER MODE: Connecting to
 qe_1139763_2852627.sched-torque.pace.gatech.eduqch_jfts_scratch
  using UNIX socket
  @ DRIVER MODE: Message from server: STATUS
  @ DRIVER MODE: Message from server: INIT
  @ DRIVER MODE: Receiving replica           0          -1
  @ DRIVER MODE: Receiving encoded integer          25
  @ DRIVER MODE:  SCF:  T  FORCE:  T  STRESS:  F  VC:  F  ENSEMBLE:  F
  @ DRIVER MODE:  SCF:  T  FORCE:  T  STRESS:  F  VC:  F  ENSEMBLE:  F

     Using Slab Decomposition

     bravais-lattice index     =            0
     lattice parameter (alat)  =       1.8897  a.u.
     unit-cell volume          =    6658.9804 (a.u.)^3
     number of atoms/cell      =           53
     number of atomic types    =            5
     number of electrons       =       396.00
     number of Kohn-Sham states=          208
     kinetic-energy cutoff     =      29.3995  Ry
     charge density cutoff     =     293.9946  Ry
     scf convergence threshold =      7.3E-08
     mixing beta               =       0.0500
     number of iterations used =            8  plain     mixing
     Exchange-correlation= BEEF-VDW
                           (   1   4  43  14   2   0   0)

     celldm(1)=   1.889726  celldm(2)=   0.000000  celldm(3)=   0.000000
     celldm(4)=   0.000000  celldm(5)=   0.000000  celldm(6)=   0.000000

     crystal axes: (cart. coord. in units of alat)
               a(1) = (   6.579727   0.000000   0.000000 )
               a(2) = (  -0.000775   5.961596   0.000000 )
               a(3) = (   0.000000   0.000000  25.155947 )

     reciprocal axes: (cart. coord. in units 2 pi/alat)
               b(1) = (  0.151982  0.000020  0.000000 )
               b(2) = (  0.000000  0.167740  0.000000 )
               b(3) = (  0.000000  0.000000  0.039752 )

     PseudoPot. # 1 for Ti read from file:
     /storage/coda1/p-amedford6/0/shared/rich_project_chbe-medford/medford-share/data/pseudos_module/espresso/nninc/pbe/van/Ti.UPF
     MD5 check sum: 8e4df49b7f0d34bbd5052bf3f5ea0213
     Pseudo is Ultrasoft, Zval = 12.0
     Generated by new atomic code, or converted to UPF format
     Using radial grid of  851 points,  6 beta functions with:
                l(1) =   0
                l(2) =   0
                l(3) =   1
                l(4) =   1
                l(5) =   2
                l(6) =   2
     Q(r) pseudized with  8 coefficients,  rinner =    1.000   1.000   1.000
                                                       1.000   1.000

     PseudoPot. # 2 for O  read from file:
     /storage/coda1/p-amedford6/0/shared/rich_project_chbe-medford/medford-share/data/pseudos_module/espresso/nninc/pbe/van/O.UPF
     MD5 check sum: 78c19812648e8988a0fe644b0f25305e
     Pseudo is Ultrasoft, Zval =  6.0
     Generated by new atomic code, or converted to UPF format
     Using radial grid of  737 points,  4 beta functions with:
                l(1) =   0
                l(2) =   0
                l(3) =   1
                l(4) =   1
     Q(r) pseudized with  8 coefficients,  rinner =    0.800   0.800   0.800

     PseudoPot. # 3 for N  read from file:
     /storage/coda1/p-amedford6/0/shared/rich_project_chbe-medford/medford-share/data/pseudos_module/espresso/nninc/pbe/van/N.UPF
     MD5 check sum: 90d10febe142ad51ac9d5be1deb811c4
     Pseudo is Ultrasoft, Zval =  5.0
     Generated by new atomic code, or converted to UPF format
     Using radial grid of  729 points,  4 beta functions with:
                l(1) =   0
                l(2) =   0
                l(3) =   1
                l(4) =   1
     Q(r) pseudized with  8 coefficients,  rinner =    0.800   0.800   0.800

     PseudoPot. # 4 for C  read from file:
     /storage/coda1/p-amedford6/0/shared/rich_project_chbe-medford/medford-share/data/pseudos_module/espresso/nninc/pbe/van/C.UPF
     MD5 check sum: 1a69bf6b8db32088f5b2163dbdb77a27
     Pseudo is Ultrasoft, Zval =  4.0
     Generated by new atomic code, or converted to UPF format
     Using radial grid of  721 points,  4 beta functions with:
                l(1) =   0
                l(2) =   0
                l(3) =   1
                l(4) =   1
     Q(r) pseudized with  8 coefficients,  rinner =    0.800   0.800   0.800

     PseudoPot. # 5 for H  read from file:
     /storage/coda1/p-amedford6/0/shared/rich_project_chbe-medford/medford-share/data/pseudos_module/espresso/nninc/pbe/van/H.UPF
     MD5 check sum: b5ee9d7bfd3a09ee7748110bda690ff7
     Pseudo is Ultrasoft, Zval =  1.0
     Generated by new atomic code, or converted to UPF format
     Using radial grid of  615 points,  1 beta functions with:
                l(1) =   0
     Q(r) pseudized with  8 coefficients,  rinner =    0.800

     atomic species   valence    mass     pseudopotential
        Ti1           12.00    47.86700     Ti( 1.00)
        O1             6.00    15.99900     O ( 1.00)
        N1             5.00    14.00700     N ( 1.00)
        C1             4.00    12.01100     C ( 1.00)
        H1             1.00     1.00800     H ( 1.00)

     No symmetry found

   Cartesian axes

     site n.     atom                  positions (alat units)
         1           Ti1 tau(   1) = (   0.0004258   2.9801865   6.0000000  )
         2           Ti1 tau(   2) = (   3.2906075   1.4906267   6.0002472  )
         3           O1  tau(   3) = (   0.0006271   0.0005054   7.9858123  )
         4           O1  tau(   4) = (   3.2906025   0.0005020   7.3038282  )
         5           O1  tau(   5) = (   4.5942328   1.4918067   9.2879030  )
         6           O1  tau(   6) = (   1.9868534   1.4903216   9.2879459  )
         7           Ti1 tau(   7) = (   3.2907910   2.8959150   9.1758416  )
         8           Ti1 tau(   8) = (   0.0015273   1.4827037   9.2680791  )
         9           O1  tau(   9) = (   3.3001320   0.0223556  11.3750156  )
        10           O1  tau(  10) = (   0.0116148   5.9584955  10.6183126  )
        11           O1  tau(  11) = (   1.2984793   1.5070296  12.6822906  )
        12           O1  tau(  12) = (   5.3053048   1.5066133  12.6782214  )
        13           Ti1 tau(  13) = (   0.0240538   2.9928608  12.5236668  )
        14           Ti1 tau(  14) = (   3.3205759   1.5163330  12.5292614  )
        15           O1  tau(  15) = (   0.0116174   5.9170763  14.6754219  )
        16           O1  tau(  16) = (   3.3074613   5.9602333  14.0123823  )
        17           O1  tau(  17) = (   4.5729729   1.5428591  16.1031931  )
        18           O1  tau(  18) = (   2.0357456   1.5455963  16.0959954  )
        19           Ti1 tau(  19) = (   3.3038618   3.0179751  15.7376193  )
        20           Ti1 tau(  20) = (   0.0182819   1.3639466  15.8252938  )
        21           O1  tau(  21) = (   3.2904802   0.0005063   4.7018136  )
        22           O1  tau(  22) = (   0.0233993   0.1148627  17.2261141  )
        23           O1  tau(  23) = (   1.3043587   1.4918075   6.0039043  )
        24           O1  tau(  24) = (   5.2767064   1.4903225   6.0039473  )
        25           Ti1 tau(  25) = (   0.0000382   5.9609847   6.0000000  )
        26           Ti1 tau(  26) = (   3.2902200   4.4714249   6.0002472  )
        27           O1  tau(  27) = (   0.0002396   2.9813036   7.9858123  )
        28           O1  tau(  28) = (   3.2902150   2.9813002   7.3038282  )
        29           O1  tau(  29) = (   4.5938453   4.4726049   9.2879030  )
        30           O1  tau(  30) = (   1.9864658   4.4711199   9.2879459  )
        31           Ti1 tau(  31) = (   3.2891106   5.8743827   9.1763621  )
        32           Ti1 tau(  32) = (   0.0006254   4.4649316   9.2693709  )
        33           O1  tau(  33) = (   3.3008157   2.9919736  11.3713264  )
        34           O1  tau(  34) = (   0.0092240   2.9805883  10.6323155  )
        35           O1  tau(  35) = (   1.3007438   4.4795902  12.6508594  )
        36           O1  tau(  36) = (   5.3032704   4.4808111  12.6474791  )
        37           Ti1 tau(  37) = (   0.0257871   0.0021926  12.5000826  )
        38           Ti1 tau(  38) = (   3.3207303   4.5031034  12.5344522  )
        39           O1  tau(  39) = (   0.0087802   3.0322157  14.9253570  )
        40           O1  tau(  40) = (   3.3068524   3.0154938  13.9499554  )
        41           O1  tau(  41) = (   4.5633958   4.4699756  16.2119971  )
        42           O1  tau(  42) = (   2.0378630   4.4655417  16.1963084  )
        43           Ti1 tau(  43) = (   3.3121544   0.0541299  15.8353365  )
        44           Ti1 tau(  44) = (   0.0163097   4.5868159  16.0488687  )
        45           O1  tau(  45) = (   3.2900926   2.9813045   4.7018136  )
        46           O1  tau(  46) = (   1.3039711   4.4726057   6.0039043  )
        47           O1  tau(  47) = (   5.2763189   4.4711207   6.0039473  )
        48           N1  tau(  48) = (   0.0062226   3.2377968  17.9635855  )
        49           C1  tau(  49) = (   6.5597590   2.5083335  18.8557918  )
        50           H1  tau(  50) = (   6.5336154   1.8092569  19.6484373  )
        51           O1  tau(  51) = (   3.2480284   5.9531242  18.4006015  )
        52           H1  tau(  52) = (   3.9795166   5.3132839  18.3896481  )
        53           H1  tau(  53) = (   2.4340588   5.4237150  18.3412978  )

     number of k points=    10  Fermi-Dirac smearing, width (Ry)=  0.0073
                       cart. coord. in units 2pi/alat
        k(    1) = (   0.0000000   0.0000000   0.0000000), wk =   0.1250000
        k(    2) = (   0.0000000   0.0419351   0.0000000), wk =   0.2500000
        k(    3) = (   0.0000000  -0.0838702   0.0000000), wk =   0.1250000
        k(    4) = (   0.0379955   0.0000049   0.0000000), wk =   0.2500000
        k(    5) = (   0.0379955   0.0419400   0.0000000), wk =   0.2500000
        k(    6) = (   0.0379955  -0.0838652   0.0000000), wk =   0.2500000
        k(    7) = (   0.0379955  -0.0419301   0.0000000), wk =   0.2500000
        k(    8) = (  -0.0759910  -0.0000099   0.0000000), wk =   0.1250000
        k(    9) = (  -0.0759910   0.0419252   0.0000000), wk =   0.2500000
        k(   10) = (  -0.0759910  -0.0838800   0.0000000), wk =   0.1250000

     Initial potential from superposition of free atoms

     starting charge  379.99917, renormalised to  396.00000

     negative rho (up, down):  1.670E-02 0.000E+00

     %%%%%%%%%%%%%%%%%%%%%%%%%%%%%%%%%%%%%%%%%%%%%%%%%%%%%%%%%%%%%%%%%%%%%%%%
     %                                                                      %
     % You are using vdW-DF, which was implemented by the Thonhauser group. %
     % Please cite the following two papers that made this development      %
     % possible and the two reviews that describe the various versions:     %
     %                                                                      %
     %   T. Thonhauser et al., PRL 115, 136402 (2015).                      %
     %   T. Thonhauser et al., PRB 76, 125112 (2007).                       %
     %   K. Berland et al., Rep. Prog. Phys. 78, 066501 (2015).             %
     %   D.C. Langreth et al., J. Phys.: Condens. Matter 21, 084203 (2009). %
     %                                                                      %
     %                                                                      %
     % If you are calculating the stress with vdW-DF, please also cite:     %
     %                                                                      %
     %   R. Sabatini et al., J. Phys.: Condens. Matter 24, 424209 (2012).   %
     %                                                                      %
     %%%%%%%%%%%%%%%%%%%%%%%%%%%%%%%%%%%%%%%%%%%%%%%%%%%%%%%%%%%%%%%%%%%%%%%%

     Adding external electric field

     Computed dipole along edir(3) :
        Dipole               -9.4938 Ry au,        -24.1308 Debye
        Dipole field         -0.0179 Ry au,

        Potential amp.        1.6608 Ry
        Total length         46.3494 bohr

     Starting wfcs are  299 atomic wfcs
  @ DRIVER MODE: Message from server: STATUS
  @ DRIVER MODE: Message from server: POSDATA
  @ DRIVER MODE: Reading and sharing cell
  @ DRIVER MODE: Reading and sharing positions
  @ DRIVER MODE: Received positions

     Self-consistent Calculation

     iteration #  1     ecut=    29.40 Ry     beta= 0.05
     Davidson diagonalization with overlap
     c_bands:  1 eigenvalues not converged
     c_bands:  1 eigenvalues not converged
     c_bands:  2 eigenvalues not converged
     c_bands:  3 eigenvalues not converged
     c_bands:  3 eigenvalues not converged
     c_bands:  2 eigenvalues not converged
     c_bands:  3 eigenvalues not converged
     c_bands:  1 eigenvalues not converged
     c_bands:  2 eigenvalues not converged
     c_bands:  2 eigenvalues not converged
     ethr =  1.00E-05,  avg # of iterations = 20.0

[...]

     total energy              =   -2563.39859700 Ry
     estimated scf accuracy    <    4341.72505576 Ry

     iteration #  2     ecut=    29.40 Ry     beta= 0.05
     Davidson diagonalization with overlap
     ethr =  1.00E-02,  avg # of iterations = 24.4

[...]

     iteration # 78     ecut=    29.40 Ry     beta= 0.05
     Davidson diagonalization with overlap
     c_bands:  1 eigenvalues not converged
     ethr =  3.95E-10,  avg # of iterations = 15.7

[...]

     total energy              =   -2951.44736302 Ry
     estimated scf accuracy    <       0.00000025 Ry

     iteration # 85     ecut=    29.40 Ry     beta= 0.05
     Davidson diagonalization with overlap
     ethr =  6.40E-11,  avg # of iterations = 10.5

     negative rho (up, down):  1.631E-02 0.000E+00

     Adding external electric field

     Computed dipole along edir(3) :
        Dipole                1.4830 Ry au,          3.7695 Debye
        Dipole field          0.0028 Ry au,

        Potential amp.       -0.2594 Ry
        Total length         46.3494 bohr

     End of self-consistent calculation

          k = 0.0000 0.0000 0.0000 ( 18029 PWs)   bands (ev):

   -55.3155 -55.2796 -55.2785 -55.2443 -55.2261 -55.1936 -55.1563 -55.1379
   -55.1179 -55.1072 -55.1032 -55.0926 -55.0736 -55.0070 -54.3032 -54.2691
   -31.8752 -31.7701 -31.7106 -31.6825 -31.6343 -31.6267 -31.6120 -31.6112
   -31.5676 -31.5329 -31.5263 -31.5230 -31.5005 -31.4873 -31.4633 -31.4605
   -31.4561 -31.4539 -31.4367 -31.4305 -31.4022 -31.3915 -31.3858 -31.3735
   -31.3673 -31.3386 -31.3375 -31.3356 -31.3245 -31.3230 -31.3215 -31.3043
   -31.2964 -31.2902 -31.2862 -31.2626 -31.2515 -31.2402 -31.2353 -31.2172
   -31.2161 -31.1244 -30.7124 -30.6186 -30.5965 -30.5287 -30.4420 -30.3311
   -18.9167 -17.3420 -16.1212 -15.8665 -15.7134 -15.6128 -15.5140 -15.3724
   -15.3182 -15.2085 -15.1429 -15.0023 -14.9653 -14.9471 -14.9292 -14.9272
   -14.8822 -14.8551 -14.8490 -14.8156 -14.8131 -14.7869 -14.7509 -14.7419
   -14.7117 -14.6959 -14.6492 -14.5409 -14.4716 -14.4086 -14.1122 -12.8057
   -12.6884  -9.0334  -6.6454  -4.6267  -3.4665  -3.4343  -3.3266  -3.2210
    -3.2136  -3.1901  -3.1698  -3.0603  -3.0244  -2.7749  -2.7185  -2.6601
    -2.5708  -2.4984  -2.4871  -2.4475  -2.3194  -2.2769  -2.2364  -2.1679
    -2.1504  -2.1240  -2.1000  -2.0908  -2.0312  -2.0246  -2.0009  -1.8840
    -1.8431  -1.7758  -1.7259  -1.7091  -1.6561  -1.6349  -1.6041  -1.6032
    -1.5983  -1.5530  -1.5516  -1.4966  -1.4856  -1.3802  -1.3390  -1.1507
    -1.0563  -0.9982  -0.9541  -0.8870  -0.8727  -0.7991  -0.7591  -0.7040
    -0.7019  -0.6449  -0.5245  -0.4340  -0.4118  -0.3836  -0.2979  -0.2616
    -0.1997  -0.1832  -0.0956  -0.0827  -0.0762  -0.0686   0.0605   0.1095
     0.1903   0.1959   0.2454   0.2658   0.3438   0.3585   0.4289   0.4671
     0.5229   0.5670   0.6233   0.6315   0.6567   0.6768   0.6935   0.7834
     0.7968   0.8242   0.8983   1.0351   1.2257   1.2961   1.3182   1.6270
     1.6480   1.7195   1.9044   2.2953   2.3433   3.7784   3.8574   3.9198
     3.9291   3.9414   4.0144   4.2610   4.2779   4.2789   4.2944   4.3216

[...]

          k = 0.0380-0.0419 0.0000 ( 17876 PWs)   bands (ev):

[...]

          k =-0.0760-0.0000 0.0000 ( 17886 PWs)   bands (ev):

[...]

          k =-0.0760-0.0839 0.0000 ( 17948 PWs)   bands (ev):

   -55.2991 -55.2958 -55.2614 -55.2613 -55.2238 -55.1822 -55.1677 -55.1227
   -55.1179 -55.1149 -55.0948 -55.0909 -55.0901 -55.0098 -54.2862 -54.2860
   -31.6841 -31.6761 -31.6330 -31.5853 -31.5851 -31.5710 -31.5628 -31.5530
   -31.5529 -31.5264 -31.5158 -31.5132 -31.5036 -31.4715 -31.4551 -31.4508
   -31.4465 -31.4440 -31.4422 -31.4360 -31.4310 -31.3981 -31.3955 -31.3949
   -31.3810 -31.3809 -31.3785 -31.3745 -31.3620 -31.3552 -31.3488 -31.3428
   -31.3360 -31.3314 -31.3199 -31.3182 -31.3115 -31.2785 -31.2706 -31.2701
   -31.2238 -31.2156 -30.6093 -30.6091 -30.5249 -30.5248 -30.4854 -30.4853
   -18.9158 -17.3371 -15.6573 -15.5524 -15.4427 -15.3228 -15.3147 -15.2581
   -15.2104 -15.1300 -15.0887 -15.0763 -15.0557 -15.0414 -15.0107 -15.0067
   -14.9863 -14.9119 -14.9012 -14.8909 -14.8677 -14.8262 -14.8155 -14.8129
   -14.7956 -14.7702 -14.7661 -14.6714 -14.6684 -14.5734 -14.4481 -12.7899
   -12.7898  -9.0313  -6.6386  -4.6133  -3.3366  -3.2571  -2.9287  -2.8194
    -2.7750  -2.6843  -2.5341  -2.5046  -2.4337  -2.4276  -2.3606  -2.3084
    -2.2941  -2.2749  -2.1918  -2.1751  -2.1644  -2.1523  -2.1394  -2.1110
    -2.0880  -2.0405  -2.0373  -2.0358  -2.0268  -2.0059  -1.9703  -1.9507
    -1.9113  -1.9021  -1.8810  -1.8339  -1.7917  -1.7742  -1.7570  -1.6516
    -1.6251  -1.5187  -1.5140  -1.4141  -1.4094  -1.3819  -1.3572  -1.3475
    -1.2792  -1.2124  -1.0604  -1.0509  -1.0182  -0.9403  -0.9284  -0.8712
    -0.8645  -0.7795  -0.7625  -0.7340  -0.6392  -0.6090  -0.5055  -0.4917
    -0.4835  -0.3463  -0.3426  -0.2863  -0.2747  -0.2717  -0.2036  -0.1976
    -0.1915  -0.1104  -0.0760  -0.0490  -0.0379   0.0156   0.2039   0.2311
     0.2611   0.3839   0.4318   0.5718   0.6655   0.6704   0.7410   0.8035
     0.8222   0.8825   0.9797   0.9930   1.0498   1.0798   1.1282   1.1431
     1.1532   2.0766   2.0776   2.1632   2.1633   3.8941   3.9942   4.0612
     4.1117   4.1256   4.2144   4.2995   4.3281   4.3609   4.3632   4.4381

     the Fermi energy is     3.8361 ev

!    total energy              =   -2951.44736894 Ry
     estimated scf accuracy    <       0.00000006 Ry
     smearing contrib. (-TS)   =      -0.03730261 Ry
     internal energy E=F+TS    =   -2951.41006634 Ry

     The total energy is F=E-TS. E is the sum of the following terms:
     one-electron contribution =  -24061.05613062 Ry
     hartree contribution      =   12123.59172906 Ry
     xc contribution           =    -487.23292615 Ry
     ewald contribution        =    9473.28311078 Ry
     electric field correction =       0.00415060 Ry

     convergence has been achieved in  85 iterations

     Forces acting on atoms (cartesian axes, Ry/au):

     atom    1 type  1   force =    -0.00003596   -0.00026454    0.09359762
     atom    2 type  1   force =    -0.00016474   -0.00045414   -0.17786202
     atom    3 type  2   force =     0.00002587   -0.00025814   -0.02077691
     atom    4 type  2   force =    -0.00003109   -0.00180003    0.05843511
     atom    5 type  2   force =    -0.01030384   -0.00058364    0.00698698
     atom    6 type  2   force =     0.01196662    0.00004981    0.00669872
     atom    7 type  1   force =    -0.00012999    0.00221816   -0.01160849
     atom    8 type  1   force =    -0.00007236    0.00223100   -0.00160958
     atom    9 type  2   force =     0.00007291    0.00060918    0.00060366
     atom   10 type  2   force =    -0.00107256    0.00321310   -0.00392847
     atom   11 type  2   force =     0.00037135   -0.00031575   -0.00029576
     atom   12 type  2   force =    -0.00040833   -0.00031971   -0.00017235
     atom   13 type  1   force =     0.00001062    0.00014738    0.00023257
     atom   14 type  1   force =    -0.00000123   -0.00047321    0.00042794
     atom   15 type  2   force =    -0.00024778   -0.00064786    0.00067127
     atom   16 type  2   force =    -0.00002007    0.00043768    0.00023543
     atom   17 type  2   force =     0.00004175   -0.00025536   -0.00025739
     atom   18 type  2   force =     0.00017563   -0.00028750   -0.00048820
     atom   19 type  1   force =    -0.00042075   -0.00121157   -0.00020807
     atom   20 type  1   force =     0.00013820   -0.00001092   -0.00078941
     atom   21 type  2   force =    -0.00001274   -0.00011877    0.10390446
     atom   22 type  2   force =    -0.00001823    0.00052045   -0.00051234
     atom   23 type  2   force =    -0.07054586   -0.00022652   -0.02694268
     atom   24 type  2   force =     0.07033819    0.00020772   -0.02699440
     atom   25 type  1   force =    -0.00001148   -0.00027265    0.09312960
     atom   26 type  1   force =    -0.00019531   -0.00051117   -0.17812850
     atom   27 type  2   force =     0.00007101   -0.00021014   -0.01970263
     atom   28 type  2   force =     0.00001825   -0.00155524    0.05764514
     atom   29 type  2   force =    -0.01083674   -0.00007656    0.00742160
     atom   30 type  2   force =     0.01236270    0.00026014    0.00710210
     atom   31 type  1   force =    -0.00009325    0.00572199   -0.01414714
     atom   32 type  1   force =    -0.00008919   -0.00263196   -0.00139415
     atom   33 type  2   force =     0.00010888   -0.00051602    0.00032713
     atom   34 type  2   force =    -0.00048203   -0.00028948   -0.00099890
     atom   35 type  2   force =    -0.00032952   -0.00017168   -0.00031858
     atom   36 type  2   force =     0.00033178   -0.00029484   -0.00011180
     atom   37 type  1   force =     0.00011669   -0.00043209    0.00056974
     atom   38 type  1   force =    -0.00002748   -0.00060058   -0.00028366
     atom   39 type  2   force =     0.00001333    0.00017281    0.00018056
     atom   40 type  2   force =    -0.00007676   -0.00013974   -0.00003318
     atom   41 type  2   force =     0.00003630    0.00013981    0.00039287
     atom   42 type  2   force =     0.00019507    0.00022346    0.00041796
     atom   43 type  1   force =    -0.00043247    0.00064484   -0.00042519
     atom   44 type  1   force =     0.00031312    0.00037784   -0.00042478
     atom   45 type  2   force =    -0.00002069   -0.00015008    0.10387253
     atom   46 type  2   force =    -0.07053141   -0.00014841   -0.02693407
     atom   47 type  2   force =     0.07033593    0.00028444   -0.02699093
     atom   48 type  3   force =    -0.00004032   -0.00147708    0.00097188
     atom   49 type  4   force =     0.00014846    0.00766577   -0.00782745
     atom   50 type  5   force =    -0.00031296   -0.00813052    0.00714995
     atom   51 type  2   force =     0.00028248    0.00047326   -0.00058687
     atom   52 type  5   force =    -0.00000108   -0.00057884   -0.00023260
     atom   53 type  5   force =    -0.00050894   -0.00018408    0.00001167

     Total force =     0.366184     Total SCF correction =     0.000576
  @ DRIVER MODE: Message from server: STATUS
  @ DRIVER MODE: Message from server: GETFORCE
  @ DRIVER MODE: Returning v,forces,stress,ensemble

     Writing output data file ./calc.save/
  @ DRIVER MODE: Message from server: EXIT
  @ DRIVE MODE: Exiting

     General routines

     Parallel routines

   This run was terminated on:  21:11:14  15Sep2021

   JOB DONE.