     Program PWSCF v.6.7GPU starts on 15Sep2021 at 18:12:56

     R & G space division:  proc/nbgrp/npool/nimage =      10
     Reading input from /storage/home/hcoda1/3/ntian30/research/carbon/CxH_vib/H2O_calc/ads_slab/CHH2O_a/out_0011/pw.inp
Warning: card &CELL ignored
Warning: card   CELL_DYNAMICS='IPI', ignored
Warning: card / ignored

     Current dimensions of program PWSCF are:
     Max number of different atomic species (ntypx) = 10
     Max number of k-points (npk) =  40000
     Max angular momentum in pseudopotentials (lmaxx) =  3
     Presently no symmetry can be used with electric field

     Message from routine cell_base_init:
     DEPRECATED: use true lattice parameter, not A to a.u. conversion factor

     IMPORTANT: XC functional enforced from input :
     Exchange-correlation= BEEF-VDW
                           (   1   4  43  14   2   0   0)
     Any further DFT definition will be discarded
     Please, verify this is what you really want

  @ DRIVER MODE: Connecting to
 qe_1139763_2852624.sched-torque.pace.gatech.eduegj708zl_scratch
  using UNIX socket
  @ DRIVER MODE: Message from server: STATUS
  @ DRIVER MODE: Message from server: INIT
  @ DRIVER MODE: Receiving replica           0          -1
  @ DRIVER MODE: Receiving encoded integer          25
  @ DRIVER MODE:  SCF:  T  FORCE:  T  STRESS:  F  VC:  F  ENSEMBLE:  F
  @ DRIVER MODE:  SCF:  T  FORCE:  T  STRESS:  F  VC:  F  ENSEMBLE:  F

     Using Slab Decomposition

     bravais-lattice index     =            0
     lattice parameter (alat)  =       1.8897  a.u.
     unit-cell volume          =    6658.9804 (a.u.)^3
     number of atoms/cell      =           52
     number of atomic types    =            4
     number of electrons       =       391.00
     number of Kohn-Sham states=          205
     kinetic-energy cutoff     =      29.3995  Ry
     charge density cutoff     =     293.9946  Ry
     scf convergence threshold =      7.3E-08
     mixing beta               =       0.0500
     number of iterations used =            8  plain     mixing
     Exchange-correlation= BEEF-VDW
                           (   1   4  43  14   2   0   0)

     celldm(1)=   1.889726  celldm(2)=   0.000000  celldm(3)=   0.000000
     celldm(4)=   0.000000  celldm(5)=   0.000000  celldm(6)=   0.000000

     crystal axes: (cart. coord. in units of alat)
               a(1) = (   6.579727   0.000000   0.000000 )
               a(2) = (  -0.000775   5.961596   0.000000 )
               a(3) = (   0.000000   0.000000  25.155947 )

     reciprocal axes: (cart. coord. in units 2 pi/alat)
               b(1) = (  0.151982  0.000020  0.000000 )
               b(2) = (  0.000000  0.167740  0.000000 )
               b(3) = (  0.000000  0.000000  0.039752 )

     PseudoPot. # 1 for Ti read from file:
     /storage/coda1/p-amedford6/0/shared/rich_project_chbe-medford/medford-share/data/pseudos_module/espresso/nninc/pbe/van/Ti.UPF
     MD5 check sum: 8e4df49b7f0d34bbd5052bf3f5ea0213
     Pseudo is Ultrasoft, Zval = 12.0
     Generated by new atomic code, or converted to UPF format
     Using radial grid of  851 points,  6 beta functions with:
                l(1) =   0
                l(2) =   0
                l(3) =   1
                l(4) =   1
                l(5) =   2
                l(6) =   2
     Q(r) pseudized with  8 coefficients,  rinner =    1.000   1.000   1.000
                                                       1.000   1.000

     PseudoPot. # 2 for O  read from file:
     /storage/coda1/p-amedford6/0/shared/rich_project_chbe-medford/medford-share/data/pseudos_module/espresso/nninc/pbe/van/O.UPF
     MD5 check sum: 78c19812648e8988a0fe644b0f25305e
     Pseudo is Ultrasoft, Zval =  6.0
     Generated by new atomic code, or converted to UPF format
     Using radial grid of  737 points,  4 beta functions with:
                l(1) =   0
                l(2) =   0
                l(3) =   1
                l(4) =   1
     Q(r) pseudized with  8 coefficients,  rinner =    0.800   0.800   0.800

     PseudoPot. # 3 for C  read from file:
     /storage/coda1/p-amedford6/0/shared/rich_project_chbe-medford/medford-share/data/pseudos_module/espresso/nninc/pbe/van/C.UPF
     MD5 check sum: 1a69bf6b8db32088f5b2163dbdb77a27
     Pseudo is Ultrasoft, Zval =  4.0
     Generated by new atomic code, or converted to UPF format
     Using radial grid of  721 points,  4 beta functions with:
                l(1) =   0
                l(2) =   0
                l(3) =   1
                l(4) =   1
     Q(r) pseudized with  8 coefficients,  rinner =    0.800   0.800   0.800

     PseudoPot. # 4 for H  read from file:
     /storage/coda1/p-amedford6/0/shared/rich_project_chbe-medford/medford-share/data/pseudos_module/espresso/nninc/pbe/van/H.UPF
     MD5 check sum: b5ee9d7bfd3a09ee7748110bda690ff7
     Pseudo is Ultrasoft, Zval =  1.0
     Generated by new atomic code, or converted to UPF format
     Using radial grid of  615 points,  1 beta functions with:
                l(1) =   0
     Q(r) pseudized with  8 coefficients,  rinner =    0.800

     atomic species   valence    mass     pseudopotential
        Ti1           12.00    47.86700     Ti( 1.00)
        O1             6.00    15.99900     O ( 1.00)
        C1             4.00    12.01100     C ( 1.00)
        H1             1.00     1.00800     H ( 1.00)

     No symmetry found

   Cartesian axes

     site n.     atom                  positions (alat units)
         1           Ti1 tau(   1) = (   0.0004258   2.9801865   6.0000000  )
         2           Ti1 tau(   2) = (   3.2906075   1.4906267   6.0002472  )
         3           O1  tau(   3) = (   0.0006271   0.0005054   7.9858123  )
         4           O1  tau(   4) = (   3.2906025   0.0005020   7.3038282  )
         5           O1  tau(   5) = (   4.5942328   1.4918067   9.2879030  )
         6           O1  tau(   6) = (   1.9868534   1.4903216   9.2879459  )
         7           Ti1 tau(   7) = (   3.2871774   2.8648350   9.1721854  )
         8           Ti1 tau(   8) = (  -0.0000353   1.4301884   9.3769680  )
         9           O1  tau(   9) = (   3.2813214   0.0053726  11.3480220  )
        10           O1  tau(  10) = (  -0.0004909   5.9494466  10.5591019  )
        11           O1  tau(  11) = (   1.2709337   1.5062281  12.6398922  )
        12           O1  tau(  12) = (   5.2659652   1.5004022  12.6256763  )
        13           Ti1 tau(  13) = (   0.0747037   2.9811850  12.8215060  )
        14           Ti1 tau(  14) = (   3.3904977   1.4744036  12.5039750  )
        15           O1  tau(  15) = (   6.5763451   5.9564350  14.6046450  )
        16           O1  tau(  16) = (   3.2806839   0.0238217  13.9603601  )
        17           O1  tau(  17) = (   4.5226094   1.5694261  16.0518702  )
        18           O1  tau(  18) = (   2.0202940   1.5641231  16.0352509  )
        19           Ti1 tau(  19) = (   3.2640091   3.0260151  15.6942499  )
        20           Ti1 tau(  20) = (   6.5358820   1.5903963  16.1090211  )
        21           O1  tau(  21) = (   3.2904802   0.0005063   4.7018136  )
        22           O1  tau(  22) = (   6.5569505   0.0478586  17.2430089  )
        23           O1  tau(  23) = (   1.3043587   1.4918075   6.0039043  )
        24           O1  tau(  24) = (   5.2767064   1.4903225   6.0039473  )
        25           Ti1 tau(  25) = (   0.0000382   5.9609847   6.0000000  )
        26           Ti1 tau(  26) = (   3.2902200   4.4714249   6.0002472  )
        27           O1  tau(  27) = (   0.0002396   2.9813036   7.9858123  )
        28           O1  tau(  28) = (   3.2902150   2.9813002   7.3038282  )
        29           O1  tau(  29) = (   4.5938453   4.4726049   9.2879030  )
        30           O1  tau(  30) = (   1.9864658   4.4711199   9.2879459  )
        31           Ti1 tau(  31) = (   3.2859829   5.8469316   9.1661464  )
        32           Ti1 tau(  32) = (  -0.0001559   4.4089299   9.3799519  )
        33           O1  tau(  33) = (   3.2865236   2.9807090  11.3458169  )
        34           O1  tau(  34) = (   6.5781283   2.9667683  10.5610256  )
        35           O1  tau(  35) = (   1.2712900   4.4620179  12.6345536  )
        36           O1  tau(  36) = (   5.2651022   4.4720110  12.6184623  )
        37           Ti1 tau(  37) = (   0.0601624   5.9591143  12.7910897  )
        38           Ti1 tau(  38) = (   3.3902089   4.4660181  12.4873354  )
        39           O1  tau(  39) = (   6.5660314   2.9936061  14.6787526  )
        40           O1  tau(  40) = (   3.2777068   3.0094971  13.9036223  )
        41           O1  tau(  41) = (   4.5190982   4.4944638  16.0861991  )
        42           O1  tau(  42) = (   2.0255100   4.4980322  16.0740450  )
        43           Ti1 tau(  43) = (   3.2415938   0.0554625  15.8014791  )
        44           Ti1 tau(  44) = (   6.5310484   4.6110724  16.1360643  )
        45           O1  tau(  45) = (   3.2900926   2.9813045   4.7018136  )
        46           O1  tau(  46) = (   1.3039711   4.4726057   6.0039043  )
        47           O1  tau(  47) = (   5.2763189   4.4711207   6.0039473  )
        48           C1  tau(  48) = (   0.0160176   3.0093394  17.4896075  )
        49           H1  tau(  49) = (   0.0793418   3.1169436  18.5637113  )
        50           O1  tau(  50) = (   3.2580281   0.1500328  18.1801156  )
        51           H1  tau(  51) = (   4.0450954   5.6463884  18.5036456  )
        52           H1  tau(  52) = (   2.4770123   5.6427573  18.5175526  )

     number of k points=    10  Fermi-Dirac smearing, width (Ry)=  0.0073
                       cart. coord. in units 2pi/alat
        k(    1) = (   0.0000000   0.0000000   0.0000000), wk =   0.1250000
        k(    2) = (   0.0000000   0.0419351   0.0000000), wk =   0.2500000
        k(    3) = (   0.0000000  -0.0838702   0.0000000), wk =   0.1250000
        k(    4) = (   0.0379955   0.0000049   0.0000000), wk =   0.2500000
        k(    5) = (   0.0379955   0.0419400   0.0000000), wk =   0.2500000
        k(    6) = (   0.0379955  -0.0838652   0.0000000), wk =   0.2500000
        k(    7) = (   0.0379955  -0.0419301   0.0000000), wk =   0.2500000
        k(    8) = (  -0.0759910  -0.0000099   0.0000000), wk =   0.1250000
        k(    9) = (  -0.0759910   0.0419252   0.0000000), wk =   0.2500000
        k(   10) = (  -0.0759910  -0.0838800   0.0000000), wk =   0.1250000

     Initial potential from superposition of free atoms

     starting charge  374.99918, renormalised to  391.00000

     negative rho (up, down):  1.888E-02 0.000E+00

     %%%%%%%%%%%%%%%%%%%%%%%%%%%%%%%%%%%%%%%%%%%%%%%%%%%%%%%%%%%%%%%%%%%%%%%%
     %                                                                      %
     % You are using vdW-DF, which was implemented by the Thonhauser group. %
     % Please cite the following two papers that made this development      %
     % possible and the two reviews that describe the various versions:     %
     %                                                                      %
     %   T. Thonhauser et al., PRL 115, 136402 (2015).                      %
     %   T. Thonhauser et al., PRB 76, 125112 (2007).                       %
     %   K. Berland et al., Rep. Prog. Phys. 78, 066501 (2015).             %
     %   D.C. Langreth et al., J. Phys.: Condens. Matter 21, 084203 (2009). %
     %                                                                      %
     %                                                                      %
     % If you are calculating the stress with vdW-DF, please also cite:     %
     %                                                                      %
     %   R. Sabatini et al., J. Phys.: Condens. Matter 24, 424209 (2012).   %
     %                                                                      %
     %%%%%%%%%%%%%%%%%%%%%%%%%%%%%%%%%%%%%%%%%%%%%%%%%%%%%%%%%%%%%%%%%%%%%%%%

     Adding external electric field

     Computed dipole along edir(3) :
        Dipole               -4.6199 Ry au,        -11.7425 Debye
        Dipole field         -0.0087 Ry au,

        Potential amp.        0.8082 Ry
        Total length         46.3494 bohr

     Starting wfcs are  295 atomic wfcs
  @ DRIVER MODE: Message from server: STATUS
  @ DRIVER MODE: Message from server: POSDATA
  @ DRIVER MODE: Reading and sharing cell
  @ DRIVER MODE: Reading and sharing positions
  @ DRIVER MODE: Received positions

     Self-consistent Calculation

     iteration #  1     ecut=    29.40 Ry     beta= 0.05
     Davidson diagonalization with overlap
     c_bands:  4 eigenvalues not converged
     c_bands:  1 eigenvalues not converged
     c_bands:  3 eigenvalues not converged
     c_bands:  1 eigenvalues not converged
     c_bands:  2 eigenvalues not converged
     c_bands:  1 eigenvalues not converged
     c_bands:  2 eigenvalues not converged
     c_bands:  2 eigenvalues not converged
     ethr =  1.00E-05,  avg # of iterations = 19.4

[...]

     total energy              =   -2878.23801283 Ry
     estimated scf accuracy    <     604.84462511 Ry

     iteration #  2     ecut=    29.40 Ry     beta= 0.05
     Davidson diagonalization with overlap
     ethr =  1.00E-02,  avg # of iterations = 13.8

[...]

     iteration # 43     ecut=    29.40 Ry     beta= 0.05
     Davidson diagonalization with overlap
     c_bands:  3 eigenvalues not converged
     c_bands:  2 eigenvalues not converged
     c_bands:  2 eigenvalues not converged
     c_bands:  1 eigenvalues not converged
     ethr =  2.03E-07,  avg # of iterations = 11.5

[...]

     total energy              =   -2931.21617249 Ry
     estimated scf accuracy    <       0.00000014 Ry

     iteration # 62     ecut=    29.40 Ry     beta= 0.05
     Davidson diagonalization with overlap
     ethr =  2.47E-11,  avg # of iterations =  2.5

     negative rho (up, down):  1.828E-02 0.000E+00

     Adding external electric field

     Computed dipole along edir(3) :
        Dipole                0.7875 Ry au,          2.0017 Debye
        Dipole field          0.0015 Ry au,

        Potential amp.       -0.1378 Ry
        Total length         46.3494 bohr

     End of self-consistent calculation

          k = 0.0000 0.0000 0.0000 ( 18029 PWs)   bands (ev):

   -56.2775 -56.2438 -55.9074 -55.8884 -55.8688 -55.7086 -55.6569 -55.6498
   -55.6157 -55.5704 -55.5670 -55.5350 -55.0495 -55.0264 -55.0156 -54.9673
   -32.7044 -32.5257 -32.4975 -32.4686 -32.4434 -32.3775 -32.3313 -32.3006
   -32.2081 -32.1401 -32.1331 -32.1310 -32.1182 -32.1136 -32.0894 -32.0758
   -32.0725 -32.0643 -32.0291 -31.9244 -31.9037 -31.8931 -31.8872 -31.8821
   -31.8755 -31.8626 -31.8208 -31.8072 -31.7962 -31.7869 -31.7654 -31.7495
   -31.7454 -31.7343 -31.7283 -31.6743 -31.5623 -31.4490 -31.3768 -31.3530
   -31.2957 -31.2672 -31.2627 -31.2591 -31.1822 -31.1678 -31.0705 -31.0363
   -19.2374 -16.5784 -16.4281 -16.1898 -16.0543 -15.9599 -15.7844 -15.6418
   -15.6144 -15.5210 -15.5169 -15.4319 -15.4225 -15.3804 -15.3738 -15.3701
   -15.3535 -15.3235 -15.2840 -15.2747 -15.2676 -15.2364 -15.1749 -15.0826
   -15.0555 -15.0088 -14.9046 -14.8927 -14.8600 -14.6822 -13.5437 -13.4304
    -7.5931  -7.0620  -4.0221  -3.9390  -3.8226  -3.7795  -3.6921  -3.5848
    -3.3541  -3.3467  -3.0733  -3.0368  -2.9824  -2.9551  -2.9414  -2.8749
    -2.8039  -2.7576  -2.7194  -2.7004  -2.6816  -2.6583  -2.6534  -2.5878
    -2.5462  -2.4902  -2.4791  -2.4600  -2.3739  -2.3045  -2.2494  -2.2203
    -2.2132  -2.1737  -2.0962  -2.0785  -2.0653  -2.0131  -1.8982  -1.8160
    -1.7451  -1.7142  -1.6455  -1.6121  -1.5328  -1.4350  -1.3859  -1.3081
    -1.2898  -1.2849  -1.2226  -1.2051  -1.1290  -1.0394  -0.9834  -0.9272
    -0.8382  -0.8162  -0.7887  -0.7407  -0.7241  -0.6858  -0.6578  -0.6210
    -0.5672  -0.5576  -0.4715  -0.3234  -0.3065  -0.2814  -0.2655  -0.2238
    -0.1893  -0.1287  -0.1062  -0.0576  -0.0373   0.0062   0.0187   0.0576
     0.0863   0.1455   0.2622   0.2824   0.3011   0.3763   0.4904   0.5367
     0.5896   0.6917   0.7041   0.9054   0.9291   0.9776   1.1926   1.2339
     1.5628   1.6355   1.8897   2.6357   2.9944   3.1779   3.4671   3.4826
     3.5154   3.5883   3.7154   3.7495   3.8161

[...]

          k = 0.0380-0.0419 0.0000 ( 17876 PWs)   bands (ev):

[...]

          k =-0.0760-0.0000 0.0000 ( 17886 PWs)   bands (ev):

[...]

          k =-0.0760-0.0839 0.0000 ( 17948 PWs)   bands (ev):

   -56.2622 -56.2590 -55.8954 -55.8867 -55.8807 -55.7102 -55.6534 -55.6341
   -55.6311 -55.5705 -55.5550 -55.5504 -55.0325 -55.0325 -55.0210 -54.9726
   -32.5233 -32.5206 -32.5130 -32.5093 -32.4226 -32.4201 -32.2585 -32.2393
   -32.1775 -32.1680 -32.1523 -32.1042 -32.1033 -32.0960 -32.0840 -32.0593
   -32.0169 -31.9696 -31.9628 -31.9610 -31.9119 -31.9017 -31.8924 -31.8878
   -31.8818 -31.8713 -31.8695 -31.8613 -31.8445 -31.8417 -31.8114 -31.8041
   -31.7700 -31.7649 -31.7608 -31.7563 -31.4517 -31.3659 -31.3659 -31.3243
   -31.2920 -31.2654 -31.2633 -31.2631 -31.2249 -31.2247 -31.1828 -31.0759
   -19.2366 -16.0566 -15.9567 -15.8154 -15.7815 -15.7438 -15.7428 -15.6971
   -15.6630 -15.6339 -15.6295 -15.5416 -15.5118 -15.4869 -15.4820 -15.4163
   -15.4094 -15.4034 -15.3998 -15.3299 -15.3244 -15.2263 -15.2174 -15.1365
   -15.1291 -15.0940 -15.0757 -15.0321 -15.0298 -14.8284 -13.5328 -13.5327
    -7.5986  -7.0535  -3.6547  -3.3498  -3.1573  -3.0263  -2.9847  -2.8981
    -2.8712  -2.8619  -2.8614  -2.7986  -2.7555  -2.7435  -2.7032  -2.6771
    -2.6709  -2.6484  -2.6441  -2.6130  -2.6110  -2.6058  -2.6035  -2.5904
    -2.5551  -2.5063  -2.5034  -2.4914  -2.4843  -2.4359  -2.3670  -2.3307
    -2.2558  -2.1618  -2.1607  -2.0887  -2.0530  -1.9790  -1.9696  -1.9641
    -1.9453  -1.9193  -1.7814  -1.6781  -1.6499  -1.6335  -1.5824  -1.5739
    -1.5207  -1.3269  -1.3095  -1.2503  -1.1828  -1.1595  -1.1204  -1.1089
    -1.0481  -1.0439  -1.0237  -0.9881  -0.9796  -0.9342  -0.9066  -0.8197
    -0.7967  -0.7687  -0.7489  -0.6808  -0.6541  -0.6126  -0.5746  -0.5472
    -0.5292  -0.5050  -0.4351  -0.3909  -0.3258  -0.2816  -0.2167   0.0252
     0.0329   0.2223   0.2987   0.3885   0.4545   0.4745   0.4886   0.5510
     0.6199   0.6266   0.6424   0.6637   0.7382   0.7429   1.3637   1.3662
     1.4171   1.4176   2.1049   2.5288   3.5395   3.5443   3.5590   3.5799
     3.5879   3.6329   3.6486   3.6820   3.9512

     the Fermi energy is     2.4975 ev

!    total energy              =   -2931.21620341 Ry
     estimated scf accuracy    <       0.00000007 Ry
     smearing contrib. (-TS)   =      -0.01053913 Ry
     internal energy E=F+TS    =   -2931.20566428 Ry

     The total energy is F=E-TS. E is the sum of the following terms:
     one-electron contribution =  -24526.37589563 Ry
     hartree contribution      =   12349.67206346 Ry
     xc contribution           =    -481.85579036 Ry
     ewald contribution        =    9727.35278783 Ry
     electric field correction =       0.00117042 Ry

     convergence has been achieved in  62 iterations

     Forces acting on atoms (cartesian axes, Ry/au):

     atom    1 type  1   force =     0.00017147   -0.00008917    0.14780581
     atom    2 type  1   force =     0.00000960    0.00055559   -0.16852329
     atom    3 type  2   force =     0.00012221    0.00257545   -0.06041675
     atom    4 type  2   force =    -0.00023321   -0.00139751    0.04036364
     atom    5 type  2   force =    -0.02184152    0.00009035    0.00384302
     atom    6 type  2   force =     0.02068808   -0.00003836    0.00305166
     atom    7 type  1   force =     0.00105378    0.00043726    0.00002021
     atom    8 type  1   force =    -0.00060100    0.00113112   -0.00044864
     atom    9 type  2   force =    -0.00007576    0.00015507   -0.00040222
     atom   10 type  2   force =     0.00022734   -0.00015999    0.00047900
     atom   11 type  2   force =     0.00011765   -0.00023719    0.00008412
     atom   12 type  2   force =    -0.00027567   -0.00027535   -0.00007522
     atom   13 type  1   force =     0.00016074   -0.00046352   -0.00051549
     atom   14 type  1   force =     0.00022061   -0.00025215    0.00054270
     atom   15 type  2   force =     0.00005676   -0.00021456    0.00020143
     atom   16 type  2   force =    -0.00003668    0.00011516   -0.00000592
     atom   17 type  2   force =    -0.00017586    0.00012934   -0.00040603
     atom   18 type  2   force =    -0.00034718   -0.00014451   -0.00000778
     atom   19 type  1   force =     0.00053177    0.00087505   -0.00015996
     atom   20 type  1   force =    -0.00046439   -0.00045825    0.00120489
     atom   21 type  2   force =     0.00009072   -0.00009827    0.10203223
     atom   22 type  2   force =    -0.00000125    0.00034556   -0.00017748
     atom   23 type  2   force =    -0.07526605    0.00017918   -0.03468834
     atom   24 type  2   force =     0.07529060    0.00061878   -0.03478098
     atom   25 type  1   force =    -0.00002924   -0.00011611    0.14835343
     atom   26 type  1   force =     0.00006359   -0.00187312   -0.16844724
     atom   27 type  2   force =     0.00016126    0.00246271   -0.05952536
     atom   28 type  2   force =    -0.00017044   -0.00144762    0.04096925
     atom   29 type  2   force =    -0.02194790    0.00144533    0.00420722
     atom   30 type  2   force =     0.02064602    0.00073099    0.00338605
     atom   31 type  1   force =     0.00109843   -0.00045737    0.00003763
     atom   32 type  1   force =    -0.00066435   -0.00066620   -0.00040629
     atom   33 type  2   force =     0.00011253   -0.00014289   -0.00062852
     atom   34 type  2   force =     0.00021847    0.00062208   -0.00051612
     atom   35 type  2   force =    -0.00013488    0.00016280   -0.00016642
     atom   36 type  2   force =     0.00053136   -0.00030858   -0.00013510
     atom   37 type  1   force =     0.00007136    0.00047792    0.00009229
     atom   38 type  1   force =    -0.00006728    0.00035135    0.00042215
     atom   39 type  2   force =     0.00001154   -0.00058616    0.00042604
     atom   40 type  2   force =    -0.00006456   -0.00043211    0.00044810
     atom   41 type  2   force =    -0.00063772   -0.00090441   -0.00021874
     atom   42 type  2   force =     0.00042303   -0.00058640    0.00013487
     atom   43 type  1   force =     0.00088673   -0.00101289   -0.00019425
     atom   44 type  1   force =    -0.00058469   -0.00033574    0.00004620
     atom   45 type  2   force =     0.00008391   -0.00009201    0.10196928
     atom   46 type  2   force =    -0.07528576    0.00010146   -0.03470264
     atom   47 type  2   force =     0.07531523    0.00054079   -0.03480119
     atom   48 type  3   force =    -0.00070049   -0.00212469   -0.01294583
     atom   49 type  4   force =     0.00100568    0.00107819    0.01286653
     atom   50 type  2   force =    -0.00042625    0.00015392    0.00052349
     atom   51 type  4   force =     0.00023358   -0.00039323    0.00016541
     atom   52 type  4   force =     0.00042810   -0.00002713   -0.00038085

     Total force =     0.402109     Total SCF correction =     0.000717
  @ DRIVER MODE: Message from server: STATUS
  @ DRIVER MODE: Message from server: GETFORCE
  @ DRIVER MODE: Returning v,forces,stress,ensemble

     Writing output data file ./calc.save/
  @ DRIVER MODE: Message from server: EXIT
  @ DRIVE MODE: Exiting

     General routines

     Parallel routines

   This run was terminated on:  18:28: 5  15Sep2021

   JOB DONE.