     Program PWSCF v.6.7GPU starts on 18Oct2021 at 22:49:21

     R & G space division:  proc/nbgrp/npool/nimage =       8
     Reading input from /storage/home/hcoda1/3/ntian30/research/carbon/CxH_vib/Thiel_calc/ads_slab/NH3NH2H_perslab/out_0022/pw.inp
Warning: card &CELL ignored
Warning: card   CELL_DYNAMICS='IPI', ignored
Warning: card / ignored

     Current dimensions of program PWSCF are:
     Max number of different atomic species (ntypx) = 10
     Max number of k-points (npk) =  40000
     Max angular momentum in pseudopotentials (lmaxx) =  3
     Presently no symmetry can be used with electric field

     Message from routine cell_base_init:
     DEPRECATED: use true lattice parameter, not A to a.u. conversion factor

     IMPORTANT: XC functional enforced from input :
     Exchange-correlation= BEEF-VDW
                           (   1   4  43  14   2   0   0)
     Any further DFT definition will be discarded
     Please, verify this is what you really want

  @ DRIVER MODE: Connecting to
 qe_1139763_3255139.sched-torque.pace.gatech.eduofai_5hw_scratch
  using UNIX socket
  @ DRIVER MODE: Message from server: STATUS
  @ DRIVER MODE: Message from server: INIT
  @ DRIVER MODE: Receiving replica           0          -1
  @ DRIVER MODE: Receiving encoded integer          25
  @ DRIVER MODE:  SCF:  T  FORCE:  T  STRESS:  F  VC:  F  ENSEMBLE:  F
  @ DRIVER MODE:  SCF:  T  FORCE:  T  STRESS:  F  VC:  F  ENSEMBLE:  F

     Using Slab Decomposition

     bravais-lattice index     =            0
     lattice parameter (alat)  =       1.8897  a.u.
     unit-cell volume          =    9988.4706 (a.u.)^3
     number of atoms/cell      =           61
     number of atomic types    =            4
     number of electrons       =       442.00
     number of Kohn-Sham states=          231
     kinetic-energy cutoff     =      29.3995  Ry
     charge density cutoff     =     293.9946  Ry
     scf convergence threshold =      7.3E-08
     mixing beta               =       0.0500
     number of iterations used =            8  plain     mixing
     Exchange-correlation= BEEF-VDW
                           (   1   4  43  14   2   0   0)

     celldm(1)=   1.889726  celldm(2)=   0.000000  celldm(3)=   0.000000
     celldm(4)=   0.000000  celldm(5)=   0.000000  celldm(6)=   0.000000

     crystal axes: (cart. coord. in units of alat)
               a(1) = (   6.579727   0.000000   0.000000 )
               a(2) = (  -0.001163   8.942395   0.000000 )
               a(3) = (   0.000000   0.000000  25.155947 )

     reciprocal axes: (cart. coord. in units 2 pi/alat)
               b(1) = (  0.151982  0.000020  0.000000 )
               b(2) = (  0.000000  0.111827  0.000000 )
               b(3) = (  0.000000  0.000000  0.039752 )

     PseudoPot. # 1 for O  read from file:
     /storage/coda1/p-amedford6/0/shared/rich_project_chbe-medford/medford-share/data/pseudos_module/espresso/nninc/pbe/van/O.UPF
     MD5 check sum: 78c19812648e8988a0fe644b0f25305e
     Pseudo is Ultrasoft, Zval =  6.0
     Generated by new atomic code, or converted to UPF format
     Using radial grid of  737 points,  4 beta functions with:
                l(1) =   0
                l(2) =   0
                l(3) =   1
                l(4) =   1
     Q(r) pseudized with  8 coefficients,  rinner =    0.800   0.800   0.800

     PseudoPot. # 2 for Ti read from file:
     /storage/coda1/p-amedford6/0/shared/rich_project_chbe-medford/medford-share/data/pseudos_module/espresso/nninc/pbe/van/Ti.UPF
     MD5 check sum: 8e4df49b7f0d34bbd5052bf3f5ea0213
     Pseudo is Ultrasoft, Zval = 12.0
     Generated by new atomic code, or converted to UPF format
     Using radial grid of  851 points,  6 beta functions with:
                l(1) =   0
                l(2) =   0
                l(3) =   1
                l(4) =   1
                l(5) =   2
                l(6) =   2
     Q(r) pseudized with  8 coefficients,  rinner =    1.000   1.000   1.000
                                                       1.000   1.000

     PseudoPot. # 3 for H  read from file:
     /storage/coda1/p-amedford6/0/shared/rich_project_chbe-medford/medford-share/data/pseudos_module/espresso/nninc/pbe/van/H.UPF
     MD5 check sum: b5ee9d7bfd3a09ee7748110bda690ff7
     Pseudo is Ultrasoft, Zval =  1.0
     Generated by new atomic code, or converted to UPF format
     Using radial grid of  615 points,  1 beta functions with:
                l(1) =   0
     Q(r) pseudized with  8 coefficients,  rinner =    0.800

     PseudoPot. # 4 for N  read from file:
     /storage/coda1/p-amedford6/0/shared/rich_project_chbe-medford/medford-share/data/pseudos_module/espresso/nninc/pbe/van/N.UPF
     MD5 check sum: 90d10febe142ad51ac9d5be1deb811c4
     Pseudo is Ultrasoft, Zval =  5.0
     Generated by new atomic code, or converted to UPF format
     Using radial grid of  729 points,  4 beta functions with:
                l(1) =   0
                l(2) =   0
                l(3) =   1
                l(4) =   1
     Q(r) pseudized with  8 coefficients,  rinner =    0.800   0.800   0.800

     atomic species   valence    mass     pseudopotential
        O1             6.00    15.99900     O ( 1.00)
        Ti1           12.00    47.86700     Ti( 1.00)
        H1             1.00     1.00800     H ( 1.00)
        N1             5.00    14.00700     N ( 1.00)

     No symmetry found

   Cartesian axes

     site n.     atom                  positions (alat units)
         1           O1  tau(   1) = (   0.0007354   0.0005023  10.5931620  )
         2           O1  tau(   2) = (   3.2892937   8.9423630  13.8814308  )
         3           O1  tau(   3) = (   6.5785080   0.0907754  17.2996570  )
         4           O1  tau(   4) = (   0.0006271   0.0005054   7.9858123  )
         5           O1  tau(   5) = (   3.2892617   8.9274694  11.1867540  )
         6           O1  tau(   6) = (   0.0001068   0.0384811  14.5856928  )
         7           O1  tau(   7) = (   1.9868534   1.4903216   9.2879459  )
         8           O1  tau(   8) = (   5.2392332   1.6199063  12.5840971  )
         9           O1  tau(   9) = (   2.0046145   1.5651943  16.0652335  )
        10           Ti1 tau(  10) = (   0.0007404   1.4906270   9.2895810  )
        11           Ti1 tau(  11) = (   3.2903033   1.3475644  12.4784176  )
        12           Ti1 tau(  12) = (   0.0002083   1.2954417  15.7753146  )
        13           O1  tau(  13) = (   4.5942328   1.4918067   9.2879030  )
        14           O1  tau(  14) = (   1.3408909   1.6195689  12.5841697  )
        15           O1  tau(  15) = (   4.5747373   1.5650701  16.0650860  )
        16           Ti1 tau(  16) = (   3.2902859   2.9801868   9.2893338  )
        17           Ti1 tau(  17) = (   0.0003213   2.8429885  12.4272127  )
        18           Ti1 tau(  18) = (   3.2894782   2.8703589  15.6911549  )
        19           O1  tau(  19) = (   0.0003479   2.9813005  10.5931620  )
        20           O1  tau(  20) = (   3.2897922   2.9583395  13.9032781  )
        21           O1  tau(  21) = (   0.0002396   2.9813036   7.9858123  )
        22           O1  tau(  22) = (   3.2900450   2.9730570  11.1907869  )
        23           O1  tau(  23) = (   0.0001206   2.9807552  14.9070210  )
        24           O1  tau(  24) = (   1.9864658   4.4711199   9.2879459  )
        25           O1  tau(  25) = (   5.2482068   4.5640541  12.6028892  )
        26           O1  tau(  26) = (   2.0118887   4.5193519  16.0312246  )
        27           Ti1 tau(  27) = (   0.0003529   4.4714252   9.2895810  )
        28           Ti1 tau(  28) = (   3.2901403   4.3402809  12.5217819  )
        29           Ti1 tau(  29) = (   0.0009811   4.3515161  16.1888847  )
        30           O1  tau(  30) = (   4.5938453   4.4726049   9.2879030  )
        31           O1  tau(  31) = (   1.3314901   4.5639303  12.6028828  )
        32           O1  tau(  32) = (   4.5682806   4.5188618  16.0312494  )
        33           Ti1 tau(  33) = (   3.2898983   5.9609850   9.2893338  )
        34           Ti1 tau(  34) = (   0.0001002   5.8006911  12.4939615  )
        35           Ti1 tau(  35) = (   3.2910898   5.8128663  15.8108673  )
        36           O1  tau(  36) = (  -0.0000397   5.9620987  10.5931620  )
        37           O1  tau(  37) = (   3.2898758   5.9691391  13.9384534  )
        38           O1  tau(  38) = (   0.0001572   5.9906873  17.2924393  )
        39           O1  tau(  39) = (  -0.0001480   5.9621018   7.9858123  )
        40           O1  tau(  40) = (   3.2897271   5.9334558  11.2049738  )
        41           O1  tau(  41) = (   0.0000685   5.9641935  14.6703060  )
        42           O1  tau(  42) = (   1.9860782   7.4519181   9.2879459  )
        43           O1  tau(  43) = (   5.2398882   7.5535610  12.5750285  )
        44           O1  tau(  44) = (   1.9879998   7.5809304  16.0172394  )
        45           Ti1 tau(  45) = (  -0.0000347   7.4522234   9.2895810  )
        46           Ti1 tau(  46) = (   3.2896426   7.2731609  12.5447809  )
        47           Ti1 tau(  47) = (   0.0002275   7.1890881  15.9781391  )
        48           O1  tau(  48) = (   4.5934577   7.4534031   9.2879030  )
        49           O1  tau(  49) = (   1.3388943   7.5534522  12.5751898  )
        50           O1  tau(  50) = (   4.5903976   7.5792304  16.0166626  )
        51           Ti1 tau(  51) = (   3.2895107   8.9417832   9.2893338  )
        52           Ti1 tau(  52) = (  -0.0003648   8.7758640  12.4444508  )
        53           Ti1 tau(  53) = (   3.2897763   8.8353469  15.6829021  )
        54           H1  tau(  54) = (   0.0028024   0.0378429  18.2586218  )
        55           N1  tau(  55) = (   0.0000016   3.3024973  17.8430138  )
        56           H1  tau(  56) = (   6.5772996   2.3364033  18.1430564  )
        57           H1  tau(  57) = (   6.5785254   3.9021159  18.6668881  )
        58           N1  tau(  58) = (   3.2892544   5.9906839  18.1401779  )
        59           H1  tau(  59) = (   3.2890604   5.0659402  18.5578254  )
        60           H1  tau(  60) = (   2.4549486   6.4784715  18.4500629  )
        61           H1  tau(  61) = (   4.1227990   6.4789769  18.4516084  )

     number of k points=    10  Fermi-Dirac smearing, width (Ry)=  0.0073
                       cart. coord. in units 2pi/alat
        k(    1) = (   0.0000000   0.0000000   0.0000000), wk =   0.1250000
        k(    2) = (   0.0000000   0.0279567   0.0000000), wk =   0.2500000
        k(    3) = (   0.0000000  -0.0559134   0.0000000), wk =   0.1250000
        k(    4) = (   0.0379955   0.0000049   0.0000000), wk =   0.2500000
        k(    5) = (   0.0379955   0.0279617   0.0000000), wk =   0.2500000
        k(    6) = (   0.0379955  -0.0559085   0.0000000), wk =   0.2500000
        k(    7) = (   0.0379955  -0.0279518   0.0000000), wk =   0.2500000
        k(    8) = (  -0.0759910  -0.0000099   0.0000000), wk =   0.1250000
        k(    9) = (  -0.0759910   0.0279468   0.0000000), wk =   0.2500000
        k(   10) = (  -0.0759910  -0.0559233   0.0000000), wk =   0.1250000

     Initial potential from superposition of free atoms

     starting charge  423.99908, renormalised to  442.00000

     negative rho (up, down):  3.654E-02 0.000E+00

     %%%%%%%%%%%%%%%%%%%%%%%%%%%%%%%%%%%%%%%%%%%%%%%%%%%%%%%%%%%%%%%%%%%%%%%%
     %                                                                      %
     % You are using vdW-DF, which was implemented by the Thonhauser group. %
     % Please cite the following two papers that made this development      %
     % possible and the two reviews that describe the various versions:     %
     %                                                                      %
     %   T. Thonhauser et al., PRL 115, 136402 (2015).                      %
     %   T. Thonhauser et al., PRB 76, 125112 (2007).                       %
     %   K. Berland et al., Rep. Prog. Phys. 78, 066501 (2015).             %
     %   D.C. Langreth et al., J. Phys.: Condens. Matter 21, 084203 (2009). %
     %                                                                      %
     %                                                                      %
     % If you are calculating the stress with vdW-DF, please also cite:     %
     %                                                                      %
     %   R. Sabatini et al., J. Phys.: Condens. Matter 24, 424209 (2012).   %
     %                                                                      %
     %%%%%%%%%%%%%%%%%%%%%%%%%%%%%%%%%%%%%%%%%%%%%%%%%%%%%%%%%%%%%%%%%%%%%%%%

     Adding external electric field

     Computed dipole along edir(3) :
        Dipole               -6.3674 Ry au,        -16.1843 Debye
        Dipole field         -0.0080 Ry au,

        Potential amp.        0.7426 Ry
        Total length         46.3494 bohr

     Starting wfcs are  334 atomic wfcs
  @ DRIVER MODE: Message from server: STATUS
  @ DRIVER MODE: Message from server: POSDATA
  @ DRIVER MODE: Reading and sharing cell
  @ DRIVER MODE: Reading and sharing positions
  @ DRIVER MODE: Received positions

     Self-consistent Calculation

     iteration #  1     ecut=    29.40 Ry     beta= 0.05
     Davidson diagonalization with overlap
     c_bands:  2 eigenvalues not converged
     c_bands:  3 eigenvalues not converged
     c_bands:  3 eigenvalues not converged
     c_bands:  2 eigenvalues not converged
     c_bands:  1 eigenvalues not converged
     c_bands:  4 eigenvalues not converged
     c_bands:  1 eigenvalues not converged
     c_bands:  1 eigenvalues not converged
     c_bands:  5 eigenvalues not converged
     ethr =  1.00E-05,  avg # of iterations = 20.0

[...]

     total energy              =   -3277.06257455 Ry
     estimated scf accuracy    <     252.60850625 Ry

     iteration #  2     ecut=    29.40 Ry     beta= 0.05
     Davidson diagonalization with overlap
     ethr =  1.00E-02,  avg # of iterations = 15.7

[...]

     iteration # 52     ecut=    29.40 Ry     beta= 0.05
     Davidson diagonalization with overlap
     c_bands:  1 eigenvalues not converged
     ethr =  3.45E-11,  avg # of iterations = 13.0

[...]

     total energy              =   -3295.81874344 Ry
     estimated scf accuracy    <       0.00000010 Ry

     iteration # 54     ecut=    29.40 Ry     beta= 0.05
     Davidson diagonalization with overlap
     ethr =  2.26E-11,  avg # of iterations =  8.2

     negative rho (up, down):  3.513E-02 0.000E+00

     Adding external electric field

     Computed dipole along edir(3) :
        Dipole                2.0084 Ry au,          5.1047 Debye
        Dipole field          0.0025 Ry au,

        Potential amp.       -0.2342 Ry
        Total length         46.3494 bohr

     End of self-consistent calculation

          k = 0.0000 0.0000 0.0000 ( 26871 PWs)   bands (ev):

   -57.4456 -57.4224 -57.4139 -57.4067 -57.3634 -57.3519 -57.3118 -57.3068
   -57.2925 -57.2629 -57.2426 -57.2340 -57.2253 -57.1903 -57.0111 -56.5108
   -56.4841 -56.4676 -33.8432 -33.8318 -33.8248 -33.8205 -33.8112 -33.7787
   -33.7677 -33.7613 -33.7525 -33.7382 -33.7344 -33.7141 -33.6931 -33.6800
   -33.6526 -33.6494 -33.6373 -33.6340 -33.6137 -33.6122 -33.5916 -33.5803
   -33.5568 -33.5536 -33.5528 -33.5435 -33.5398 -33.5372 -33.5349 -33.5261
   -33.5175 -33.5051 -33.4898 -33.4742 -33.4667 -33.4554 -33.4407 -33.4387
   -33.4344 -33.4317 -33.4033 -33.3799 -33.3406 -33.3052 -33.2325 -32.8303
   -32.8230 -32.8094 -32.8023 -32.7881 -32.7352 -32.6764 -32.6564 -32.5314
   -19.1406 -18.3008 -17.9738 -17.7572 -17.7101 -17.6874 -17.6068 -17.5418
   -17.5350 -17.4640 -17.3848 -17.3049 -17.2769 -17.2721 -17.2373 -17.2094
   -17.1903 -17.1662 -17.1649 -17.1247 -17.1139 -17.0945 -17.0677 -17.0201
   -16.9470 -16.9344 -16.9000 -16.8927 -16.8872 -16.8870 -16.7433 -16.6661
   -16.5846 -15.2394 -14.9710 -14.9146 -14.9073  -7.7073  -7.6439  -7.2343
    -6.7497  -5.6244  -5.4643  -5.3787  -5.2766  -4.9380  -4.8719  -4.8502
    -4.8370  -4.7914  -4.7528  -4.7518  -4.6942  -4.6850  -4.6664  -4.5855
    -4.5719  -4.5493  -4.4979  -4.4753  -4.4252  -4.4248  -4.3749  -4.3188
    -4.2691  -4.2615  -4.2604  -4.2346  -4.2324  -4.2107  -4.2069  -4.0936
    -4.0879  -4.0136  -3.9061  -3.8932  -3.8484  -3.7765  -3.7643  -3.7408
    -3.7133  -3.6501  -3.6047  -3.5510  -3.5431  -3.5300  -3.4655  -3.4411
    -3.3621  -3.2564  -3.2446  -3.2114  -3.1670  -3.1528  -3.1067  -3.0756
    -3.0014  -2.9279  -2.8487  -2.8223  -2.7175  -2.6719  -2.6526  -2.6197
    -2.6123  -2.5388  -2.5345  -2.5096  -2.3577  -2.2550  -2.2441  -2.2246
    -2.2134  -2.1863  -2.1828  -2.1551  -2.0901  -2.0441  -2.0366  -2.0203
    -2.0003  -1.9885  -1.8991  -1.8402  -1.8128  -1.7839  -1.7681  -1.6742
    -1.6353  -1.5997  -1.5887  -1.4840  -1.4293  -1.3226  -1.3178  -1.3039
    -1.2329  -1.1866  -1.1145  -0.7971  -0.6271  -0.5559  -0.2689  -0.2108
    -0.2028   0.0572   0.0694   0.1976   1.5432   1.7743   1.9749   1.9772
     1.9929   2.0636   2.1315   2.1443   2.2088   2.2634   2.2851

[...]

          k = 0.0380-0.0280 0.0000 ( 26873 PWs)   bands (ev):

[...]

          k =-0.0760-0.0000 0.0000 ( 26902 PWs)   bands (ev):

[...]

          k =-0.0760-0.0559 0.0000 ( 26868 PWs)   bands (ev):

   -57.4401 -57.4328 -57.4089 -57.4060 -57.3642 -57.3520 -57.3108 -57.3075
   -57.2916 -57.2614 -57.2453 -57.2360 -57.2236 -57.1897 -57.0111 -56.5082
   -56.4894 -56.4649 -33.9221 -33.9043 -33.8538 -33.8229 -33.8067 -33.7827
   -33.7737 -33.7653 -33.7235 -33.7078 -33.6938 -33.6640 -33.6411 -33.6371
   -33.6329 -33.6124 -33.5988 -33.5982 -33.5971 -33.5891 -33.5871 -33.5810
   -33.5695 -33.5606 -33.5565 -33.5522 -33.5357 -33.5293 -33.5231 -33.5174
   -33.5165 -33.5133 -33.5045 -33.5017 -33.4946 -33.4868 -33.4563 -33.4554
   -33.4471 -33.4352 -33.4335 -33.3948 -33.3616 -33.3048 -33.2359 -32.9117
   -32.8259 -32.8084 -32.7854 -32.7233 -32.7021 -32.6465 -32.6367 -32.6177
   -19.1341 -17.9943 -17.9229 -17.6837 -17.6273 -17.6147 -17.5995 -17.5636
   -17.5082 -17.4773 -17.4387 -17.4114 -17.3727 -17.3277 -17.3138 -17.2393
   -17.2345 -17.2308 -17.1646 -17.1626 -17.1451 -17.1002 -17.0868 -17.0643
   -17.0151 -16.9743 -16.9604 -16.8813 -16.8562 -16.8158 -16.7210 -16.6529
   -16.6179 -15.2369 -14.9723 -14.9619 -14.8491  -7.6893  -7.6421  -7.2249
    -6.7525  -5.2463  -5.2149  -5.1802  -5.1517  -5.0468  -4.8606  -4.7849
    -4.7518  -4.7474  -4.6827  -4.6626  -4.6560  -4.6117  -4.5995  -4.5746
    -4.5516  -4.5212  -4.4875  -4.4796  -4.4434  -4.4114  -4.3963  -4.3749
    -4.3573  -4.3512  -4.3378  -4.2497  -4.1874  -4.1696  -4.1161  -4.0896
    -4.0638  -4.0197  -4.0084  -3.9663  -3.9368  -3.7124  -3.6251  -3.6095
    -3.6079  -3.5822  -3.5459  -3.4903  -3.4320  -3.4021  -3.3702  -3.2438
    -3.2044  -3.1909  -3.1852  -3.1517  -3.0678  -3.0418  -3.0126  -2.9780
    -2.9646  -2.9150  -2.9024  -2.8620  -2.8217  -2.7501  -2.7065  -2.6691
    -2.6368  -2.6035  -2.5924  -2.5659  -2.5367  -2.5325  -2.5055  -2.4862
    -2.4139  -2.4118  -2.3731  -2.3163  -2.2431  -2.2096  -2.1915  -2.1129
    -2.0345  -1.9834  -1.9600  -1.9396  -1.8620  -1.7449  -1.7190  -1.7103
    -1.6767  -1.6283  -1.5772  -1.5435  -1.4934  -1.4029  -1.2707  -1.2504
    -1.1822  -1.0861  -1.0650  -1.0447  -0.8237  -0.7319  -0.4197  -0.1608
    -0.1161  -0.0969   0.0621   0.0697   1.7038   1.7708   1.8334   1.8666
     1.8830   1.9142   1.9169   1.9860   2.0416   2.1108   2.1287

     the Fermi energy is     1.6428 ev

!    total energy              =   -3295.81881553 Ry
     estimated scf accuracy    <       0.00000006 Ry
     smearing contrib. (-TS)   =      -0.03294941 Ry
     internal energy E=F+TS    =   -3295.78586611 Ry

     The total energy is F=E-TS. E is the sum of the following terms:
     one-electron contribution =  -34382.78016142 Ry
     hartree contribution      =   17260.68663684 Ry
     xc contribution           =    -543.89208940 Ry
     ewald contribution        =   14370.19467338 Ry
     electric field correction =       0.00507449 Ry

     convergence has been achieved in  54 iterations

     Forces acting on atoms (cartesian axes, Ry/au):

     atom    1 type  1   force =     0.00000548    0.00790574    0.05044176
     atom    2 type  1   force =    -0.00000895    0.00034781   -0.00969123
     atom    3 type  1   force =    -0.00002835   -0.00464593   -0.00050053
     atom    4 type  1   force =     0.00005789    0.00281750    0.10764150
     atom    5 type  1   force =     0.00000377    0.00070007    0.00921343
     atom    6 type  1   force =    -0.00000571   -0.00163279    0.00014629
     atom    7 type  1   force =     0.06466023    0.00007461   -0.02900125
     atom    8 type  1   force =     0.00391153   -0.02786609    0.00323367
     atom    9 type  1   force =     0.00825341   -0.01832512    0.00243463
     atom   10 type  2   force =    -0.00004937   -0.00798226   -0.19369944
     atom   11 type  2   force =    -0.00002552    0.02061987   -0.00635749
     atom   12 type  2   force =    -0.00005141    0.02209337   -0.00310899
     atom   13 type  1   force =    -0.06475508   -0.00038154   -0.02895086
     atom   14 type  1   force =    -0.00390946   -0.02784652    0.00322829
     atom   15 type  1   force =    -0.00824260   -0.01830895    0.00242217
     atom   16 type  2   force =     0.00010074    0.00058624    0.06675170
     atom   17 type  2   force =     0.00002232    0.03325812    0.00613845
     atom   18 type  2   force =     0.00000775    0.02089733    0.00187098
     atom   19 type  1   force =     0.00000532    0.00225299    0.05629177
     atom   20 type  1   force =    -0.00000528   -0.00132396   -0.00685660
     atom   21 type  1   force =     0.00005934   -0.00139440    0.10888101
     atom   22 type  1   force =     0.00000846   -0.00023812    0.00985619
     atom   23 type  1   force =     0.00000840   -0.00481831    0.00115182
     atom   24 type  1   force =     0.06621962   -0.00050770   -0.02950585
     atom   25 type  1   force =     0.00419694   -0.03008422    0.00218949
     atom   26 type  1   force =     0.00999261   -0.02415121    0.00224646
     atom   27 type  2   force =    -0.00006889    0.01376556   -0.18653239
     atom   28 type  2   force =    -0.00001929    0.02336463   -0.00580989
     atom   29 type  2   force =    -0.00004648    0.01708508   -0.00921107
     atom   30 type  1   force =    -0.06632701   -0.00095984   -0.02946150
     atom   31 type  1   force =    -0.00419223   -0.03005579    0.00219054
     atom   32 type  1   force =    -0.00993055   -0.02412798    0.00223857
     atom   33 type  2   force =     0.00009377   -0.00141183    0.06834260
     atom   34 type  2   force =     0.00002454    0.03783102    0.00401906
     atom   35 type  2   force =    -0.00002284    0.03581827    0.00771389
     atom   36 type  1   force =     0.00001554    0.00056751    0.06525310
     atom   37 type  1   force =    -0.00001063    0.00228016   -0.01099420
     atom   38 type  1   force =    -0.00000318   -0.00078003    0.00178288
     atom   39 type  1   force =     0.00005837   -0.00143429    0.10682403
     atom   40 type  1   force =     0.00000140   -0.00039213    0.00776359
     atom   41 type  1   force =    -0.00000063   -0.00026846    0.00576108
     atom   42 type  1   force =     0.06735070   -0.00097141   -0.02907364
     atom   43 type  1   force =     0.00312667   -0.02830301    0.00236781
     atom   44 type  1   force =     0.00711883   -0.02150763    0.00456097
     atom   45 type  2   force =    -0.00006932   -0.00849665   -0.18085593
     atom   46 type  2   force =    -0.00000484    0.01744510   -0.00235220
     atom   47 type  2   force =    -0.00004506    0.02045209   -0.00645490
     atom   48 type  1   force =    -0.06744538   -0.00141901   -0.02902903
     atom   49 type  1   force =    -0.00309505   -0.02830317    0.00236621
     atom   50 type  1   force =    -0.00709181   -0.02146835    0.00453077
     atom   51 type  2   force =     0.00012292   -0.00304306    0.06675049
     atom   52 type  2   force =     0.00000906    0.03510568    0.00726633
     atom   53 type  2   force =    -0.00002261    0.02417206    0.00299877
     atom   54 type  3   force =     0.00011020   -0.00018447    0.00058332
     atom   55 type  4   force =    -0.00002259    0.00612514    0.00688736
     atom   56 type  3   force =    -0.00003706    0.00144135    0.00157020
     atom   57 type  3   force =     0.00001094   -0.00647521   -0.00626058
     atom   58 type  4   force =     0.00012475    0.00075320   -0.00142910
     atom   59 type  3   force =    -0.00000125   -0.00006369    0.00004200
     atom   60 type  3   force =    -0.00053278    0.00074343   -0.00038846
     atom   61 type  3   force =     0.00038974    0.00066919   -0.00042805

     Total force =     0.461804     Total SCF correction =     0.000621
  @ DRIVER MODE: Message from server: STATUS
  @ DRIVER MODE: Message from server: GETFORCE
  @ DRIVER MODE: Returning v,forces,stress,ensemble

     Writing output data file ./calc.save/
  @ DRIVER MODE: Message from server: EXIT
  @ DRIVE MODE: Exiting

     General routines

     Parallel routines

   This run was terminated on:  23:18: 3  18Oct2021

   JOB DONE.