     Program PWSCF v.6.7GPU starts on 23Sep2021 at 13: 4: 8

     R & G space division:  proc/nbgrp/npool/nimage =       8
     Reading input from /storage/home/hcoda1/3/ntian30/research/carbon/CxH_vib/H2O_calc/ads_slab/CH2N2HO_b/out_0006/pw.inp
Warning: card &CELL ignored
Warning: card   CELL_DYNAMICS='IPI', ignored
Warning: card / ignored

     Current dimensions of program PWSCF are:
     Max number of different atomic species (ntypx) = 10
     Max number of k-points (npk) =  40000
     Max angular momentum in pseudopotentials (lmaxx) =  3
     Presently no symmetry can be used with electric field

     Message from routine cell_base_init:
     DEPRECATED: use true lattice parameter, not A to a.u. conversion factor

     IMPORTANT: XC functional enforced from input :
     Exchange-correlation= BEEF-VDW
                           (   1   4  43  14   2   0   0)
     Any further DFT definition will be discarded
     Please, verify this is what you really want

  @ DRIVER MODE: Connecting to
 qe_1139763_2947312.sched-torque.pace.gatech.eduanxicns9_scratch
  using UNIX socket
  @ DRIVER MODE: Message from server: STATUS
  @ DRIVER MODE: Message from server: INIT
  @ DRIVER MODE: Receiving replica           0          -1
  @ DRIVER MODE: Receiving encoded integer          25
  @ DRIVER MODE:  SCF:  T  FORCE:  T  STRESS:  F  VC:  F  ENSEMBLE:  F
  @ DRIVER MODE:  SCF:  T  FORCE:  T  STRESS:  F  VC:  F  ENSEMBLE:  F

     Using Slab Decomposition

     bravais-lattice index     =            0
     lattice parameter (alat)  =       1.8897  a.u.
     unit-cell volume          =    6658.9804 (a.u.)^3
     number of atoms/cell      =           54
     number of atomic types    =            5
     number of electrons       =       401.00
     number of Kohn-Sham states=          210
     kinetic-energy cutoff     =      29.3995  Ry
     charge density cutoff     =     293.9946  Ry
     scf convergence threshold =      7.3E-08
     mixing beta               =       0.0500
     number of iterations used =            8  plain     mixing
     Exchange-correlation= BEEF-VDW
                           (   1   4  43  14   2   0   0)

     celldm(1)=   1.889726  celldm(2)=   0.000000  celldm(3)=   0.000000
     celldm(4)=   0.000000  celldm(5)=   0.000000  celldm(6)=   0.000000

     crystal axes: (cart. coord. in units of alat)
               a(1) = (   6.579727   0.000000   0.000000 )
               a(2) = (  -0.000775   5.961596   0.000000 )
               a(3) = (   0.000000   0.000000  25.155947 )

     reciprocal axes: (cart. coord. in units 2 pi/alat)
               b(1) = (  0.151982  0.000020  0.000000 )
               b(2) = (  0.000000  0.167740  0.000000 )
               b(3) = (  0.000000  0.000000  0.039752 )

     PseudoPot. # 1 for Ti read from file:
     /storage/coda1/p-amedford6/0/shared/rich_project_chbe-medford/medford-share/data/pseudos_module/espresso/nninc/pbe/van/Ti.UPF
     MD5 check sum: 8e4df49b7f0d34bbd5052bf3f5ea0213
     Pseudo is Ultrasoft, Zval = 12.0
     Generated by new atomic code, or converted to UPF format
     Using radial grid of  851 points,  6 beta functions with:
                l(1) =   0
                l(2) =   0
                l(3) =   1
                l(4) =   1
                l(5) =   2
                l(6) =   2
     Q(r) pseudized with  8 coefficients,  rinner =    1.000   1.000   1.000
                                                       1.000   1.000

     PseudoPot. # 2 for O  read from file:
     /storage/coda1/p-amedford6/0/shared/rich_project_chbe-medford/medford-share/data/pseudos_module/espresso/nninc/pbe/van/O.UPF
     MD5 check sum: 78c19812648e8988a0fe644b0f25305e
     Pseudo is Ultrasoft, Zval =  6.0
     Generated by new atomic code, or converted to UPF format
     Using radial grid of  737 points,  4 beta functions with:
                l(1) =   0
                l(2) =   0
                l(3) =   1
                l(4) =   1
     Q(r) pseudized with  8 coefficients,  rinner =    0.800   0.800   0.800

     PseudoPot. # 3 for N  read from file:
     /storage/coda1/p-amedford6/0/shared/rich_project_chbe-medford/medford-share/data/pseudos_module/espresso/nninc/pbe/van/N.UPF
     MD5 check sum: 90d10febe142ad51ac9d5be1deb811c4
     Pseudo is Ultrasoft, Zval =  5.0
     Generated by new atomic code, or converted to UPF format
     Using radial grid of  729 points,  4 beta functions with:
                l(1) =   0
                l(2) =   0
                l(3) =   1
                l(4) =   1
     Q(r) pseudized with  8 coefficients,  rinner =    0.800   0.800   0.800

     PseudoPot. # 4 for C  read from file:
     /storage/coda1/p-amedford6/0/shared/rich_project_chbe-medford/medford-share/data/pseudos_module/espresso/nninc/pbe/van/C.UPF
     MD5 check sum: 1a69bf6b8db32088f5b2163dbdb77a27
     Pseudo is Ultrasoft, Zval =  4.0
     Generated by new atomic code, or converted to UPF format
     Using radial grid of  721 points,  4 beta functions with:
                l(1) =   0
                l(2) =   0
                l(3) =   1
                l(4) =   1
     Q(r) pseudized with  8 coefficients,  rinner =    0.800   0.800   0.800

     PseudoPot. # 5 for H  read from file:
     /storage/coda1/p-amedford6/0/shared/rich_project_chbe-medford/medford-share/data/pseudos_module/espresso/nninc/pbe/van/H.UPF
     MD5 check sum: b5ee9d7bfd3a09ee7748110bda690ff7
     Pseudo is Ultrasoft, Zval =  1.0
     Generated by new atomic code, or converted to UPF format
     Using radial grid of  615 points,  1 beta functions with:
                l(1) =   0
     Q(r) pseudized with  8 coefficients,  rinner =    0.800

     atomic species   valence    mass     pseudopotential
        Ti1           12.00    47.86700     Ti( 1.00)
        O1             6.00    15.99900     O ( 1.00)
        N1             5.00    14.00700     N ( 1.00)
        C1             4.00    12.01100     C ( 1.00)
        H1             1.00     1.00800     H ( 1.00)

     No symmetry found

   Cartesian axes

     site n.     atom                  positions (alat units)
         1           Ti1 tau(   1) = (   0.0004258   2.9801865   6.0000000  )
         2           Ti1 tau(   2) = (   3.2906075   1.4906267   6.0002472  )
         3           O1  tau(   3) = (   0.0006271   0.0005054   7.9858123  )
         4           O1  tau(   4) = (   3.2906025   0.0005020   7.3038282  )
         5           O1  tau(   5) = (   4.5942328   1.4918067   9.2879030  )
         6           O1  tau(   6) = (   1.9868534   1.4903216   9.2879459  )
         7           Ti1 tau(   7) = (   3.2907910   2.8959150   9.1758416  )
         8           Ti1 tau(   8) = (   0.0015273   1.4827037   9.2680791  )
         9           O1  tau(   9) = (   3.2935892   5.9488104  11.3374186  )
        10           O1  tau(  10) = (   0.0116148   5.9584955  10.6183126  )
        11           O1  tau(  11) = (   1.2908913   1.5070562  12.6495475  )
        12           O1  tau(  12) = (   5.3136790   1.4931969  12.6373367  )
        13           Ti1 tau(  13) = (   0.0127878   2.8868139  12.6015941  )
        14           Ti1 tau(  14) = (   3.2987545   1.3040885  12.7026746  )
        15           O1  tau(  15) = (   0.0175227   0.0240941  14.6538407  )
        16           O1  tau(  16) = (   3.3064676   0.0741613  13.9771881  )
        17           O1  tau(  17) = (   4.5827780   1.5498142  16.1449436  )
        18           O1  tau(  18) = (   2.0366442   1.5898792  16.0867183  )
        19           Ti1 tau(  19) = (   3.3102262   3.0030951  15.6784192  )
        20           Ti1 tau(  20) = (   0.0574396   1.3488835  16.0050117  )
        21           O1  tau(  21) = (   3.2904802   0.0005063   4.7018136  )
        22           O1  tau(  22) = (   0.0721820   0.0083530  17.1768217  )
        23           O1  tau(  23) = (   1.3043587   1.4918075   6.0039043  )
        24           O1  tau(  24) = (   5.2767064   1.4903225   6.0039473  )
        25           Ti1 tau(  25) = (   0.0000382   5.9609847   6.0000000  )
        26           Ti1 tau(  26) = (   3.2902200   4.4714249   6.0002472  )
        27           O1  tau(  27) = (   0.0002396   2.9813036   7.9858123  )
        28           O1  tau(  28) = (   3.2902150   2.9813002   7.3038282  )
        29           O1  tau(  29) = (   4.5938453   4.4726049   9.2879030  )
        30           O1  tau(  30) = (   1.9864658   4.4711199   9.2879459  )
        31           Ti1 tau(  31) = (   3.2891106   5.8743827   9.1763621  )
        32           Ti1 tau(  32) = (   0.0006254   4.4649316   9.2693709  )
        33           O1  tau(  33) = (   3.2934580   3.0155445  11.2926531  )
        34           O1  tau(  34) = (   0.0092240   2.9805883  10.6323155  )
        35           O1  tau(  35) = (   1.2931599   4.4792858  12.6478595  )
        36           O1  tau(  36) = (   5.3056662   4.4876152  12.6363886  )
        37           Ti1 tau(  37) = (   6.5746511   5.8741161  12.5153022  )
        38           Ti1 tau(  38) = (   3.2863760   4.3878630  12.4273393  )
        39           O1  tau(  39) = (   6.5684735   3.0099032  14.7382625  )
        40           O1  tau(  40) = (   3.3273571   2.9915841  13.8999870  )
        41           O1  tau(  41) = (   4.5754576   4.4629145  16.1269992  )
        42           O1  tau(  42) = (   2.0375947   4.4358961  16.0236521  )
        43           Ti1 tau(  43) = (   3.3857405   0.0156461  16.2930207  )
        44           Ti1 tau(  44) = (   0.0840152   4.5257857  15.8004899  )
        45           O1  tau(  45) = (   3.2900926   2.9813045   4.7018136  )
        46           O1  tau(  46) = (   1.3039711   4.4726057   6.0039043  )
        47           O1  tau(  47) = (   5.2763189   4.4711207   6.0039473  )
        48           N1  tau(  48) = (   6.4876325   3.2951735  18.7021505  )
        49           N1  tau(  49) = (   0.0139976   3.0420413  17.5569154  )
        50           C1  tau(  50) = (   6.3059459   3.6199554  19.9036174  )
        51           H1  tau(  51) = (   5.2963100   3.8231348  20.2372398  )
        52           H1  tau(  52) = (   0.5840524   3.7151184  20.5547593  )
        53           O1  tau(  53) = (   3.1058724   5.9363815  18.1230642  )
        54           H1  tau(  54) = (   2.1709728   0.0855973  18.3648350  )

     number of k points=    10  Fermi-Dirac smearing, width (Ry)=  0.0073
                       cart. coord. in units 2pi/alat
        k(    1) = (   0.0000000   0.0000000   0.0000000), wk =   0.1250000
        k(    2) = (   0.0000000   0.0419351   0.0000000), wk =   0.2500000
        k(    3) = (   0.0000000  -0.0838702   0.0000000), wk =   0.1250000
        k(    4) = (   0.0379955   0.0000049   0.0000000), wk =   0.2500000
        k(    5) = (   0.0379955   0.0419400   0.0000000), wk =   0.2500000
        k(    6) = (   0.0379955  -0.0838652   0.0000000), wk =   0.2500000
        k(    7) = (   0.0379955  -0.0419301   0.0000000), wk =   0.2500000
        k(    8) = (  -0.0759910  -0.0000099   0.0000000), wk =   0.1250000
        k(    9) = (  -0.0759910   0.0419252   0.0000000), wk =   0.2500000
        k(   10) = (  -0.0759910  -0.0838800   0.0000000), wk =   0.1250000

     Initial potential from superposition of free atoms

     starting charge  384.99916, renormalised to  401.00000

     negative rho (up, down):  1.407E-02 0.000E+00

     %%%%%%%%%%%%%%%%%%%%%%%%%%%%%%%%%%%%%%%%%%%%%%%%%%%%%%%%%%%%%%%%%%%%%%%%
     %                                                                      %
     % You are using vdW-DF, which was implemented by the Thonhauser group. %
     % Please cite the following two papers that made this development      %
     % possible and the two reviews that describe the various versions:     %
     %                                                                      %
     %   T. Thonhauser et al., PRL 115, 136402 (2015).                      %
     %   T. Thonhauser et al., PRB 76, 125112 (2007).                       %
     %   K. Berland et al., Rep. Prog. Phys. 78, 066501 (2015).             %
     %   D.C. Langreth et al., J. Phys.: Condens. Matter 21, 084203 (2009). %
     %                                                                      %
     %                                                                      %
     % If you are calculating the stress with vdW-DF, please also cite:     %
     %                                                                      %
     %   R. Sabatini et al., J. Phys.: Condens. Matter 24, 424209 (2012).   %
     %                                                                      %
     %%%%%%%%%%%%%%%%%%%%%%%%%%%%%%%%%%%%%%%%%%%%%%%%%%%%%%%%%%%%%%%%%%%%%%%%

     Adding external electric field

     Computed dipole along edir(3) :
        Dipole              -11.8245 Ry au,        -30.0548 Debye
        Dipole field         -0.0223 Ry au,

        Potential amp.        2.0685 Ry
        Total length         46.3494 bohr

     Starting wfcs are  303 atomic wfcs
  @ DRIVER MODE: Message from server: STATUS
  @ DRIVER MODE: Message from server: POSDATA
  @ DRIVER MODE: Reading and sharing cell
  @ DRIVER MODE: Reading and sharing positions
  @ DRIVER MODE: Received positions

     Self-consistent Calculation

     iteration #  1     ecut=    29.40 Ry     beta= 0.05
     Davidson diagonalization with overlap
     c_bands:  3 eigenvalues not converged
     c_bands:  4 eigenvalues not converged
     c_bands:  1 eigenvalues not converged
     c_bands:  4 eigenvalues not converged
     c_bands:  4 eigenvalues not converged
     c_bands:  1 eigenvalues not converged
     c_bands:  2 eigenvalues not converged
     ethr =  1.00E-05,  avg # of iterations = 22.9

[...]

     total energy              =   -2411.65102053 Ry
     estimated scf accuracy    <    6295.82441783 Ry

     iteration #  2     ecut=    29.40 Ry     beta= 0.05
     Davidson diagonalization with overlap
     ethr =  1.00E-02,  avg # of iterations = 23.2

[...]

     iteration # 58     ecut=    29.40 Ry     beta= 0.05
     Davidson diagonalization with overlap
     c_bands:  1 eigenvalues not converged
     c_bands:  1 eigenvalues not converged
     c_bands:  1 eigenvalues not converged
     ethr =  3.14E-06,  avg # of iterations = 12.8

[...]

     total energy              =   -2971.49113195 Ry
     estimated scf accuracy    <       0.00000016 Ry

     iteration # 85     ecut=    29.40 Ry     beta= 0.05
     Davidson diagonalization with overlap
     ethr =  3.29E-11,  avg # of iterations =  6.2

     negative rho (up, down):  1.461E-02 0.000E+00

     Adding external electric field

     Computed dipole along edir(3) :
        Dipole                1.0609 Ry au,          2.6966 Debye
        Dipole field          0.0020 Ry au,

        Potential amp.       -0.1856 Ry
        Total length         46.3494 bohr

     End of self-consistent calculation

          k = 0.0000 0.0000 0.0000 ( 18029 PWs)   bands (ev):

   -55.6999 -55.6659 -55.4840 -55.4670 -55.4501 -55.3398 -55.3175 -55.2879
   -55.2823 -55.2197 -55.1726 -55.0872 -55.0867 -54.9796 -54.6066 -54.5725
   -32.1736 -31.9951 -31.9931 -31.9369 -31.8526 -31.8231 -31.8126 -31.7962
   -31.7852 -31.7584 -31.7475 -31.7405 -31.7202 -31.7030 -31.6751 -31.6575
   -31.6438 -31.6187 -31.5917 -31.5774 -31.5765 -31.5568 -31.5485 -31.5394
   -31.4996 -31.4874 -31.4863 -31.4718 -31.4517 -31.4464 -31.4377 -31.4256
   -31.4183 -31.3614 -31.3589 -31.3575 -31.2865 -31.2825 -31.2499 -31.2291
   -31.2042 -31.1906 -31.0095 -30.9310 -30.9081 -30.8274 -30.7415 -30.6296
   -20.5658 -16.2448 -16.1767 -15.9666 -15.7917 -15.6342 -15.5846 -15.4463
   -15.3805 -15.2709 -15.2013 -15.1008 -15.0818 -15.0381 -15.0021 -14.9932
   -14.9610 -14.9364 -14.9338 -14.9046 -14.8990 -14.8480 -14.7952 -14.7707
   -14.7290 -14.7002 -14.6810 -14.6367 -14.6230 -14.5160 -14.2451 -14.2228
   -13.1043 -12.9892  -7.3980  -6.0780  -5.6314  -4.9564  -3.7534  -3.5869
    -3.5107  -3.3571  -3.2822  -3.1897  -2.9889  -2.9851  -2.9134  -2.7504
    -2.6658  -2.6312  -2.5830  -2.5329  -2.4675  -2.4410  -2.3983  -2.3762
    -2.2896  -2.2466  -2.2292  -2.2060  -2.1534  -2.1268  -2.0845  -2.0037
    -1.9834  -1.9426  -1.8731  -1.8592  -1.8373  -1.8179  -1.7849  -1.7646
    -1.7552  -1.7230  -1.5955  -1.5908  -1.5081  -1.4687  -1.3240  -1.2070
    -1.1366  -1.0737  -1.0557  -0.9751  -0.9333  -0.8511  -0.8249  -0.8011
    -0.7625  -0.7038  -0.6360  -0.6167  -0.5659  -0.5309  -0.4004  -0.3763
    -0.3266  -0.3158  -0.3049  -0.2291  -0.1627  -0.0873  -0.0691  -0.0048
     0.0135   0.0968   0.1797   0.1852   0.2353   0.2582   0.3109   0.3327
     0.3550   0.3874   0.4203   0.4863   0.5475   0.5978   0.6026   0.6368
     0.7036   0.7690   0.8103   0.8434   0.9985   1.0280   1.0468   1.1285
     1.1400   1.2484   1.3990   1.4198   1.6240   1.6303   1.9796   2.0220
     3.4475   3.5773   3.6116   3.6813   3.7720   3.9028   3.9166   4.0411
     4.1549   4.1640

[...]

          k = 0.0380-0.0419 0.0000 ( 17876 PWs)   bands (ev):

[...]

          k =-0.0760-0.0000 0.0000 ( 17886 PWs)   bands (ev):

[...]

          k =-0.0760-0.0839 0.0000 ( 17948 PWs)   bands (ev):

   -55.6833 -55.6824 -55.4683 -55.4662 -55.4656 -55.3335 -55.3036 -55.2960
   -55.2941 -55.2203 -55.1691 -55.0901 -55.0846 -54.9821 -54.5900 -54.5889
   -31.9893 -31.9890 -31.9794 -31.9787 -31.8039 -31.8028 -31.7896 -31.7840
   -31.7347 -31.7143 -31.7020 -31.6918 -31.6802 -31.6656 -31.6568 -31.6559
   -31.6324 -31.6231 -31.6192 -31.6054 -31.5998 -31.5574 -31.5530 -31.5260
   -31.5248 -31.5188 -31.5166 -31.5117 -31.5092 -31.4874 -31.4657 -31.4482
   -31.4231 -31.3800 -31.3681 -31.3534 -31.3317 -31.3255 -31.2898 -31.2866
   -31.2353 -31.1941 -30.9212 -30.9205 -30.8234 -30.8222 -30.7849 -30.7842
   -20.5646 -16.2184 -15.6181 -15.5567 -15.5290 -15.5169 -15.4111 -15.3792
   -15.2451 -15.2439 -15.2198 -15.1621 -15.1493 -15.1215 -15.1015 -15.0771
   -15.0493 -15.0249 -15.0025 -14.9722 -14.9603 -14.9194 -14.8967 -14.8902
   -14.8794 -14.8268 -14.7422 -14.6789 -14.6471 -14.5772 -14.4797 -14.3646
   -13.0918 -13.0911  -7.3985  -6.0815  -5.6335  -4.9348  -3.7261  -3.0238
    -2.8984  -2.7477  -2.7286  -2.5976  -2.5778  -2.4859  -2.4775  -2.4322
    -2.4171  -2.3737  -2.3520  -2.3362  -2.2948  -2.2755  -2.2621  -2.2540
    -2.2386  -2.2087  -2.2000  -2.1955  -2.1876  -2.1526  -2.1195  -2.1055
    -2.0850  -2.0476  -2.0150  -1.9078  -1.8145  -1.7872  -1.7207  -1.7203
    -1.7119  -1.7044  -1.6800  -1.6535  -1.5692  -1.4784  -1.4397  -1.3827
    -1.2069  -1.1924  -1.1714  -1.1482  -1.0962  -1.0404  -1.0188  -0.9670
    -0.9584  -0.9281  -0.8479  -0.7927  -0.7199  -0.7019  -0.6308  -0.5895
    -0.5717  -0.4771  -0.4617  -0.4295  -0.3919  -0.3768  -0.3441  -0.2966
    -0.2786  -0.2629  -0.2275  -0.1898  -0.1563   0.0128   0.1503   0.2115
     0.2302   0.2663   0.3208   0.3885   0.4118   0.5917   0.6040   0.6072
     0.6544   0.7024   0.7295   0.7497   0.8471   0.9647   0.9833   1.0234
     1.0466   1.0643   1.1510   1.2069   1.7908   1.7990   1.8416   1.8423
     3.4492   3.9845   4.0036   4.0045   4.0058   4.1030   4.1275   4.1381
     4.2001   4.2615

     the Fermi energy is     3.4411 ev

!    total energy              =   -2971.49113718 Ry
     estimated scf accuracy    <       0.00000005 Ry
     smearing contrib. (-TS)   =      -0.01884839 Ry
     internal energy E=F+TS    =   -2971.47228880 Ry

     The total energy is F=E-TS. E is the sum of the following terms:
     one-electron contribution =  -23615.82382220 Ry
     hartree contribution      =   11901.77905561 Ry
     xc contribution           =    -492.36266113 Ry
     ewald contribution        =    9234.93301492 Ry
     electric field correction =       0.00212400 Ry

     convergence has been achieved in  85 iterations

     Forces acting on atoms (cartesian axes, Ry/au):

     atom    1 type  1   force =     0.00001905   -0.00040834    0.09772702
     atom    2 type  1   force =    -0.00004025    0.00022722   -0.17207578
     atom    3 type  2   force =     0.00004954   -0.00004719   -0.02540740
     atom    4 type  2   force =     0.00001510   -0.00144035    0.04751541
     atom    5 type  2   force =    -0.00612882   -0.00239959   -0.00091235
     atom    6 type  2   force =     0.00775004   -0.00181674   -0.00157600
     atom    7 type  1   force =    -0.00009245   -0.00485107    0.01911578
     atom    8 type  1   force =     0.00021808    0.01221528    0.02719997
     atom    9 type  2   force =    -0.00010446   -0.00019520   -0.00035781
     atom   10 type  2   force =    -0.00111901    0.00132925   -0.02542089
     atom   11 type  2   force =     0.00009027   -0.00002239   -0.00005788
     atom   12 type  2   force =     0.00011124   -0.00003347   -0.00013109
     atom   13 type  1   force =     0.00035013   -0.00028417    0.00047278
     atom   14 type  1   force =     0.00005180   -0.00009984    0.00020006
     atom   15 type  2   force =    -0.00034849   -0.00014071   -0.00082363
     atom   16 type  2   force =    -0.00003191   -0.00006296   -0.00078516
     atom   17 type  2   force =    -0.00045207   -0.00023471   -0.00032740
     atom   18 type  2   force =     0.00029568   -0.00028568   -0.00035518
     atom   19 type  1   force =    -0.00018620    0.00000103    0.00021751
     atom   20 type  1   force =    -0.00018513    0.00035339    0.00200787
     atom   21 type  2   force =     0.00005609    0.00008682    0.10227173
     atom   22 type  2   force =     0.00009558    0.00022455   -0.00056206
     atom   23 type  2   force =    -0.07356230   -0.00016097   -0.02811340
     atom   24 type  2   force =     0.07347852    0.00028269   -0.02818908
     atom   25 type  1   force =     0.00014094   -0.00032233    0.09753442
     atom   26 type  1   force =    -0.00003671   -0.00131043   -0.17221821
     atom   27 type  2   force =     0.00009392   -0.00030487   -0.02404107
     atom   28 type  2   force =     0.00004127    0.00031617    0.04313345
     atom   29 type  2   force =    -0.00501591    0.00403799   -0.00283967
     atom   30 type  2   force =     0.00652506    0.00442653   -0.00339587
     atom   31 type  1   force =     0.00001106    0.00578981    0.00714673
     atom   32 type  1   force =     0.00029112   -0.01520149    0.02680546
     atom   33 type  2   force =     0.00038023   -0.00007144   -0.00015114
     atom   34 type  2   force =    -0.00138849    0.00101603   -0.02716457
     atom   35 type  2   force =     0.00035242    0.00008765   -0.00009056
     atom   36 type  2   force =    -0.00025931   -0.00002171   -0.00020976
     atom   37 type  1   force =     0.00009390   -0.00056891    0.00048214
     atom   38 type  1   force =     0.00023723    0.00009147    0.00041552
     atom   39 type  2   force =    -0.00013371   -0.00018039   -0.00058357
     atom   40 type  2   force =     0.00006152    0.00003455   -0.00058169
     atom   41 type  2   force =    -0.00050169    0.00026071   -0.00046266
     atom   42 type  2   force =    -0.00001730    0.00001233   -0.00030011
     atom   43 type  1   force =    -0.00007177    0.00018924   -0.00030464
     atom   44 type  1   force =    -0.00021315   -0.00040736    0.00215264
     atom   45 type  2   force =     0.00004799   -0.00007963    0.10206787
     atom   46 type  2   force =    -0.07359889   -0.00007660   -0.02814920
     atom   47 type  2   force =     0.07350279    0.00036345   -0.02819748
     atom   48 type  3   force =     0.00531174   -0.01139845   -0.05189354
     atom   49 type  3   force =    -0.00282319    0.00580201    0.02813857
     atom   50 type  4   force =    -0.00286472    0.00451722    0.01837876
     atom   51 type  5   force =    -0.00059844    0.00031490    0.00150996
     atom   52 type  5   force =    -0.00018694    0.00039240    0.00175279
     atom   53 type  2   force =     0.00047539    0.00069808   -0.00029871
     atom   54 type  5   force =    -0.00018642   -0.00064378   -0.00026887

     Total force =     0.370632     Total SCF correction =     0.000797
  @ DRIVER MODE: Message from server: STATUS
  @ DRIVER MODE: Message from server: GETFORCE
  @ DRIVER MODE: Returning v,forces,stress,ensemble

     Writing output data file ./calc.save/
  @ DRIVER MODE: Message from server: EXIT
  @ DRIVE MODE: Exiting

     General routines

     Parallel routines

   This run was terminated on:  13:30:13  23Sep2021

   JOB DONE.