     Program PWSCF v.6.7GPU starts on 16Jul2021 at 15:49:27

     R & G space division:  proc/nbgrp/npool/nimage =      16
     Reading input from /storage/home/hcoda1/3/ntian30/research/carbon/15Jul_vib/ads_slab/CH3N2H_a/out_0032/pw.inp
Warning: card &CELL ignored
Warning: card   CELL_DYNAMICS='IPI', ignored
Warning: card / ignored

     Current dimensions of program PWSCF are:
     Max number of different atomic species (ntypx) = 10
     Max number of k-points (npk) =  40000
     Max angular momentum in pseudopotentials (lmaxx) =  3
     Presently no symmetry can be used with electric field

     Message from routine cell_base_init:
     DEPRECATED: use true lattice parameter, not A to a.u. conversion factor

     IMPORTANT: XC functional enforced from input :
     Exchange-correlation= BEEF-VDW
                           (   1   4  43  14   2   0   0)
     Any further DFT definition will be discarded
     Please, verify this is what you really want

  @ DRIVER MODE: Connecting to
 qe_1139763_2351646.sched-torque.pace.gatech.edu4nug2wca_scratch
  using UNIX socket
  @ DRIVER MODE: Message from server: STATUS
  @ DRIVER MODE: Message from server: INIT
  @ DRIVER MODE: Receiving replica           0          -1
  @ DRIVER MODE: Receiving encoded integer          25
  @ DRIVER MODE:  SCF:  T  FORCE:  T  STRESS:  F  VC:  F  ENSEMBLE:  F
  @ DRIVER MODE:  SCF:  T  FORCE:  T  STRESS:  F  VC:  F  ENSEMBLE:  F

     Using Slab Decomposition

     bravais-lattice index     =            0
     lattice parameter (alat)  =       1.8897  a.u.
     unit-cell volume          =    6658.9804 (a.u.)^3
     number of atoms/cell      =           54
     number of atomic types    =            5
     number of electrons       =       396.00
     number of Kohn-Sham states=          208
     kinetic-energy cutoff     =      29.3995  Ry
     charge density cutoff     =     293.9946  Ry
     scf convergence threshold =      7.3E-08
     mixing beta               =       0.0500
     number of iterations used =            8  plain     mixing
     Exchange-correlation= BEEF-VDW
                           (   1   4  43  14   2   0   0)

     celldm(1)=   1.889726  celldm(2)=   0.000000  celldm(3)=   0.000000
     celldm(4)=   0.000000  celldm(5)=   0.000000  celldm(6)=   0.000000

     crystal axes: (cart. coord. in units of alat)
               a(1) = (   6.579727   0.000000   0.000000 )
               a(2) = (  -0.000775   5.961596   0.000000 )
               a(3) = (   0.000000   0.000000  25.155947 )

     reciprocal axes: (cart. coord. in units 2 pi/alat)
               b(1) = (  0.151982  0.000020  0.000000 )
               b(2) = (  0.000000  0.167740  0.000000 )
               b(3) = (  0.000000  0.000000  0.039752 )

     PseudoPot. # 1 for Ti read from file:
     /storage/coda1/p-amedford6/0/shared/rich_project_chbe-medford/medford-share/data/pseudos_module/espresso/nninc/pbe/van/Ti.UPF
     MD5 check sum: 8e4df49b7f0d34bbd5052bf3f5ea0213
     Pseudo is Ultrasoft, Zval = 12.0
     Generated by new atomic code, or converted to UPF format
     Using radial grid of  851 points,  6 beta functions with:
                l(1) =   0
                l(2) =   0
                l(3) =   1
                l(4) =   1
                l(5) =   2
                l(6) =   2
     Q(r) pseudized with  8 coefficients,  rinner =    1.000   1.000   1.000
                                                       1.000   1.000

     PseudoPot. # 2 for O  read from file:
     /storage/coda1/p-amedford6/0/shared/rich_project_chbe-medford/medford-share/data/pseudos_module/espresso/nninc/pbe/van/O.UPF
     MD5 check sum: 78c19812648e8988a0fe644b0f25305e
     Pseudo is Ultrasoft, Zval =  6.0
     Generated by new atomic code, or converted to UPF format
     Using radial grid of  737 points,  4 beta functions with:
                l(1) =   0
                l(2) =   0
                l(3) =   1
                l(4) =   1
     Q(r) pseudized with  8 coefficients,  rinner =    0.800   0.800   0.800

     PseudoPot. # 3 for N  read from file:
     /storage/coda1/p-amedford6/0/shared/rich_project_chbe-medford/medford-share/data/pseudos_module/espresso/nninc/pbe/van/N.UPF
     MD5 check sum: 90d10febe142ad51ac9d5be1deb811c4
     Pseudo is Ultrasoft, Zval =  5.0
     Generated by new atomic code, or converted to UPF format
     Using radial grid of  729 points,  4 beta functions with:
                l(1) =   0
                l(2) =   0
                l(3) =   1
                l(4) =   1
     Q(r) pseudized with  8 coefficients,  rinner =    0.800   0.800   0.800

     PseudoPot. # 4 for C  read from file:
     /storage/coda1/p-amedford6/0/shared/rich_project_chbe-medford/medford-share/data/pseudos_module/espresso/nninc/pbe/van/C.UPF
     MD5 check sum: 1a69bf6b8db32088f5b2163dbdb77a27
     Pseudo is Ultrasoft, Zval =  4.0
     Generated by new atomic code, or converted to UPF format
     Using radial grid of  721 points,  4 beta functions with:
                l(1) =   0
                l(2) =   0
                l(3) =   1
                l(4) =   1
     Q(r) pseudized with  8 coefficients,  rinner =    0.800   0.800   0.800

     PseudoPot. # 5 for H  read from file:
     /storage/coda1/p-amedford6/0/shared/rich_project_chbe-medford/medford-share/data/pseudos_module/espresso/nninc/pbe/van/H.UPF
     MD5 check sum: b5ee9d7bfd3a09ee7748110bda690ff7
     Pseudo is Ultrasoft, Zval =  1.0
     Generated by new atomic code, or converted to UPF format
     Using radial grid of  615 points,  1 beta functions with:
                l(1) =   0
     Q(r) pseudized with  8 coefficients,  rinner =    0.800

     atomic species   valence    mass     pseudopotential
        Ti1           12.00    47.86700     Ti( 1.00)
        O1             6.00    15.99900     O ( 1.00)
        N1             5.00    14.00700     N ( 1.00)
        C1             4.00    12.01100     C ( 1.00)
        H1             1.00     1.00800     H ( 1.00)

     Starting magnetic structure
     atomic species   magnetization
        Ti1          0.000
        O1           0.000
        N1           0.000
        C1           0.025
        H1           0.000

     No symmetry found

   Cartesian axes

     site n.     atom                  positions (alat units)
         1           Ti1 tau(   1) = (   0.0004258   2.9801865   6.0000000  )
         2           Ti1 tau(   2) = (   3.2906075   1.4906267   6.0002472  )
         3           O1  tau(   3) = (   0.0006271   0.0005054   7.9858123  )
         4           O1  tau(   4) = (   3.2906025   0.0005020   7.3038282  )
         5           O1  tau(   5) = (   4.5942328   1.4918067   9.2879030  )
         6           O1  tau(   6) = (   1.9868534   1.4903216   9.2879459  )
         7           Ti1 tau(   7) = (   3.2907910   2.8959150   9.1758416  )
         8           Ti1 tau(   8) = (   0.0015273   1.4827037   9.2680791  )
         9           O1  tau(   9) = (   3.3106937   0.0084137  11.2927479  )
        10           O1  tau(  10) = (   0.0116148   5.9584955  10.6183126  )
        11           O1  tau(  11) = (   1.3255326   1.5151957  12.5859258  )
        12           O1  tau(  12) = (   5.3246634   1.4871208  12.6441624  )
        13           Ti1 tau(  13) = (   6.5358624   2.9940264  12.7507449  )
        14           Ti1 tau(  14) = (   3.1828407   1.5032771  12.4528579  )
        15           O1  tau(  15) = (   0.1336207   0.0073438  14.6266748  )
        16           O1  tau(  16) = (   3.2550344   0.0288700  13.8306396  )
        17           O1  tau(  17) = (   4.6334483   1.5013943  15.9792279  )
        18           O1  tau(  18) = (   2.1409664   1.5470880  15.9954950  )
        19           Ti1 tau(  19) = (   3.4798582   3.0305884  15.6593850  )
        20           Ti1 tau(  20) = (   0.1386493   1.3724552  15.8613965  )
        21           O1  tau(  21) = (   3.2904802   0.0005063   4.7018136  )
        22           O1  tau(  22) = (   0.1429122   0.0333940  17.1908172  )
        23           O1  tau(  23) = (   1.3043587   1.4918075   6.0039043  )
        24           O1  tau(  24) = (   5.2767064   1.4903225   6.0039473  )
        25           Ti1 tau(  25) = (   0.0000382   5.9609847   6.0000000  )
        26           Ti1 tau(  26) = (   3.2902200   4.4714249   6.0002472  )
        27           O1  tau(  27) = (   0.0002396   2.9813036   7.9858123  )
        28           O1  tau(  28) = (   3.2902150   2.9813002   7.3038282  )
        29           O1  tau(  29) = (   4.5938453   4.4726049   9.2879030  )
        30           O1  tau(  30) = (   1.9864658   4.4711199   9.2879459  )
        31           Ti1 tau(  31) = (   3.2891106   5.8743827   9.1763621  )
        32           Ti1 tau(  32) = (   0.0006254   4.4649316   9.2693709  )
        33           O1  tau(  33) = (   3.3137399   2.9960163  11.2943833  )
        34           O1  tau(  34) = (   0.0092240   2.9805883  10.6323155  )
        35           O1  tau(  35) = (   1.3234708   4.4688006  12.5930975  )
        36           O1  tau(  36) = (   5.3222282   4.4932535  12.6449723  )
        37           Ti1 tau(  37) = (   6.5041614   0.0053836  12.5833808  )
        38           Ti1 tau(  38) = (   3.1843229   4.4812189  12.4522442  )
        39           O1  tau(  39) = (   0.0584892   2.9792810  14.6723703  )
        40           O1  tau(  40) = (   3.3232524   2.9928384  13.8523860  )
        41           O1  tau(  41) = (   4.6237859   4.5837569  15.7472905  )
        42           O1  tau(  42) = (   2.1882403   4.4693611  16.1038286  )
        43           Ti1 tau(  43) = (   3.3015484   0.0242660  15.6383815  )
        44           Ti1 tau(  44) = (   0.0181797   4.4930750  16.1931172  )
        45           O1  tau(  45) = (   3.2900926   2.9813045   4.7018136  )
        46           O1  tau(  46) = (   1.3039711   4.4726057   6.0039043  )
        47           O1  tau(  47) = (   5.2763189   4.4711207   6.0039473  )
        48           N1  tau(  48) = (   0.2677213   2.8760844  17.5655548  )
        49           C1  tau(  49) = (   1.2271684   2.7639891  18.6598760  )
        50           H1  tau(  50) = (   1.2930054   3.7106696  19.2072709  )
        51           H1  tau(  51) = (   0.8976878   1.9730418  19.3402421  )
        52           H1  tau(  52) = (   2.2102292   2.4972526  18.2850250  )
        53           N1  tau(  53) = (   5.6832178   3.4927010  17.8452151  )
        54           H1  tau(  54) = (   5.7345573   4.0058295  18.7343860  )

     number of k points=    10  Fermi-Dirac smearing, width (Ry)=  0.0073
                       cart. coord. in units 2pi/alat
        k(    1) = (   0.0000000   0.0000000   0.0000000), wk =   0.0625000
        k(    2) = (   0.0000000   0.0419351   0.0000000), wk =   0.1250000
        k(    3) = (   0.0000000  -0.0838702   0.0000000), wk =   0.0625000
        k(    4) = (   0.0379955   0.0000049   0.0000000), wk =   0.1250000
        k(    5) = (   0.0379955   0.0419400   0.0000000), wk =   0.1250000
        k(    6) = (   0.0379955  -0.0838652   0.0000000), wk =   0.1250000
        k(    7) = (   0.0379955  -0.0419301   0.0000000), wk =   0.1250000
[...]
     %                                                                      %
     % You are using vdW-DF, which was implemented by the Thonhauser group. %
     % Please cite the following two papers that made this development      %
     % possible and the two reviews that describe the various versions:     %
     %                                                                      %
     %   T. Thonhauser et al., PRL 115, 136402 (2015).                      %
     %   T. Thonhauser et al., PRB 76, 125112 (2007).                       %
     %   K. Berland et al., Rep. Prog. Phys. 78, 066501 (2015).             %
     %   D.C. Langreth et al., J. Phys.: Condens. Matter 21, 084203 (2009). %
     %                                                                      %
     %                                                                      %
     % If you are calculating the stress with vdW-DF, please also cite:     %
     %                                                                      %
     %   R. Sabatini et al., J. Phys.: Condens. Matter 24, 424209 (2012).   %
     %                                                                      %
     %%%%%%%%%%%%%%%%%%%%%%%%%%%%%%%%%%%%%%%%%%%%%%%%%%%%%%%%%%%%%%%%%%%%%%%%

     Adding external electric field

     Computed dipole along edir(3) :
        Dipole               -8.2222 Ry au,        -20.8988 Debye
        Dipole field         -0.0155 Ry au,

        Potential amp.        1.4384 Ry
        Total length         46.3494 bohr

[...]

     Starting wfcs are  300 atomic wfcs
  @ DRIVER MODE: Message from server: STATUS
  @ DRIVER MODE: Message from server: POSDATA
  @ DRIVER MODE: Reading and sharing cell
  @ DRIVER MODE: Reading and sharing positions
  @ DRIVER MODE: Received positions

     Self-consistent Calculation

     iteration #  1     ecut=    29.40 Ry     beta= 0.05
     Davidson diagonalization with overlap
     c_bands:  1 eigenvalues not converged
     c_bands:  1 eigenvalues not converged
     c_bands:  1 eigenvalues not converged
     c_bands:  1 eigenvalues not converged
     c_bands:  4 eigenvalues not converged
     c_bands:  1 eigenvalues not converged
     c_bands:  4 eigenvalues not converged
     c_bands:  2 eigenvalues not converged
     c_bands:  1 eigenvalues not converged
     c_bands:  1 eigenvalues not converged
     c_bands:  1 eigenvalues not converged
     c_bands:  1 eigenvalues not converged
     c_bands:  1 eigenvalues not converged
     c_bands:  1 eigenvalues not converged
     c_bands:  4 eigenvalues not converged
     c_bands:  1 eigenvalues not converged
     c_bands:  4 eigenvalues not converged
     c_bands:  2 eigenvalues not converged
     c_bands:  1 eigenvalues not converged
     c_bands:  1 eigenvalues not converged
     ethr =  1.00E-05,  avg # of iterations = 20.0

[...]

     total energy              =   -2607.55378169 Ry
     estimated scf accuracy    <    3675.47812874 Ry

     total magnetization       =     0.00 Bohr mag/cell
     absolute magnetization    =     0.03 Bohr mag/cell

[...]

     iteration #  3     ecut=    29.40 Ry     beta= 0.05
     Davidson diagonalization with overlap
     ethr =  1.00E-02,  avg # of iterations = 14.1

[...]

     iteration # 62     ecut=    29.40 Ry     beta= 0.05
     Davidson diagonalization with overlap
     c_bands:  1 eigenvalues not converged
     ethr =  5.91E-07,  avg # of iterations =  8.7

[...]

     total energy              =   -2940.35264847 Ry
     estimated scf accuracy    <       0.00000009 Ry

[...]

     iteration #101     ecut=    29.40 Ry     beta= 0.05
     Davidson diagonalization with overlap
     ethr =  2.15E-11,  avg # of iterations =  8.6

     negative rho (up, down):  8.758E-03 8.758E-03

[...]

     Adding external electric field

     Computed dipole along edir(3) :
        Dipole                0.7504 Ry au,          1.9074 Debye
        Dipole field          0.0014 Ry au,

        Potential amp.       -0.1313 Ry
        Total length         46.3494 bohr

     Magnetic moment per site  (integrated on atomic sphere of radius R)
     atom   1 (R=0.746)  charge=  8.1023  magn=  0.0003
     atom   2 (R=0.746)  charge=  8.0882  magn=  0.0003
     atom   3 (R=0.746)  charge=  5.0689  magn= -0.0000
     atom   4 (R=0.746)  charge=  5.1050  magn= -0.0000
     atom   5 (R=0.746)  charge=  5.0706  magn= -0.0000
     atom   6 (R=0.746)  charge=  5.0718  magn= -0.0000
     atom   7 (R=0.746)  charge=  8.0835  magn=  0.0000
     atom   8 (R=0.746)  charge=  8.0701  magn=  0.0001
     atom   9 (R=0.746)  charge=  5.0892  magn=  0.0000
     atom  10 (R=0.746)  charge=  5.0576  magn= -0.0000
     atom  11 (R=0.746)  charge=  5.0764  magn=  0.0000
     atom  12 (R=0.746)  charge=  5.0718  magn= -0.0000
     atom  13 (R=0.746)  charge=  8.0706  magn= -0.0000
     atom  14 (R=0.746)  charge=  8.0891  magn= -0.0000
     atom  15 (R=0.746)  charge=  5.0553  magn= -0.0000
     atom  16 (R=0.746)  charge=  5.0986  magn= -0.0000
     atom  17 (R=0.746)  charge=  5.0495  magn=  0.0000
     atom  18 (R=0.746)  charge=  5.0673  magn= -0.0000
     atom  19 (R=0.746)  charge=  8.1080  magn= -0.0000
     atom  20 (R=0.746)  charge=  8.0963  magn=  0.0000
     atom  21 (R=0.746)  charge=  4.9490  magn= -0.0004
     atom  22 (R=0.746)  charge=  5.0411  magn= -0.0000
     atom  23 (R=0.746)  charge=  5.0611  magn=  0.0000
     atom  24 (R=0.746)  charge=  5.0612  magn=  0.0001
     atom  25 (R=0.746)  charge=  8.1022  magn=  0.0003
     atom  26 (R=0.746)  charge=  8.0882  magn=  0.0003
     atom  27 (R=0.746)  charge=  5.0670  magn= -0.0000
     atom  28 (R=0.746)  charge=  5.1051  magn= -0.0000
     atom  29 (R=0.746)  charge=  5.0714  magn= -0.0000
     atom  30 (R=0.746)  charge=  5.0726  magn= -0.0000
     atom  31 (R=0.746)  charge=  8.0844  magn=  0.0000
     atom  32 (R=0.746)  charge=  8.0705  magn=  0.0001
     atom  33 (R=0.746)  charge=  5.0889  magn=  0.0000
     atom  34 (R=0.746)  charge=  5.0200  magn= -0.0000
     atom  35 (R=0.746)  charge=  5.0760  magn=  0.0000
     atom  36 (R=0.746)  charge=  5.0724  magn= -0.0000
     atom  37 (R=0.746)  charge=  8.0777  magn=  0.0000
     atom  38 (R=0.746)  charge=  8.0891  magn= -0.0000
     atom  39 (R=0.746)  charge=  5.0527  magn=  0.0000
     atom  40 (R=0.746)  charge=  5.0890  magn=  0.0000
     atom  41 (R=0.746)  charge=  5.0851  magn= -0.0000
     atom  42 (R=0.746)  charge=  5.0438  magn=  0.0000
     atom  43 (R=0.746)  charge=  8.1145  magn=  0.0000
     atom  44 (R=0.746)  charge=  8.1357  magn=  0.0002
     atom  45 (R=0.746)  charge=  4.9490  magn= -0.0006
     atom  46 (R=0.746)  charge=  5.0611  magn=  0.0000
     atom  47 (R=0.746)  charge=  5.0612  magn=  0.0000
     atom  48 (R=0.424)  charge=  1.3498  magn=  0.0000
     atom  49 (R=0.448)  charge=  0.8423  magn=  0.0000
     atom  50 (R=0.424)  charge=  0.4501  magn= -0.0000
     atom  51 (R=0.424)  charge=  0.4487  magn= -0.0000
     atom  52 (R=0.424)  charge=  0.4554  magn= -0.0000
     atom  53 (R=0.424)  charge=  1.3515  magn=  0.0001
     atom  54 (R=0.424)  charge=  0.4589  magn=  0.0000

     End of self-consistent calculation

 ------ SPIN UP ------------

          k = 0.0000 0.0000 0.0000 ( 18029 PWs)   bands (ev):

   -56.0101 -55.9761 -55.7963 -55.7575 -55.7129 -55.6785 -55.6558 -55.6277
   -55.6216 -55.5931 -55.5751 -55.4959 -55.2394 -54.9076 -54.8736 -54.7887
   -32.4765 -32.3385 -32.3040 -32.2806 -32.1797 -32.1648 -32.1585 -32.1172
   -32.0993 -32.0916 -32.0708 -32.0372 -32.0206 -31.9746 -31.9652 -31.9637
   -31.9297 -31.9230 -31.9186 -31.8842 -31.8791 -31.8637 -31.8529 -31.8516
   -31.8297 -31.8280 -31.8175 -31.8169 -31.8072 -31.8008 -31.7871 -31.7818
   -31.7684 -31.7403 -31.6920 -31.6636 -31.6164 -31.4662 -31.4629 -31.3109
   -31.2315 -31.2085 -31.2064 -31.1281 -31.0421 -30.9954 -30.9309 -30.9118
   -17.4241 -16.5512 -16.3580 -16.0682 -15.9194 -15.9079 -15.7824 -15.6816
   -15.6016 -15.5014 -15.4539 -15.3946 -15.3817 -15.3614 -15.3035 -15.2770
   -15.2395 -15.2183 -15.1818 -15.1688 -15.1297 -15.0954 -15.0784 -15.0519
   -14.9790 -14.9110 -14.8929 -14.7483 -14.5992 -14.4535 -13.4071 -13.2922
   -11.5661  -8.3710  -5.0645  -4.0395  -3.9371  -3.8734  -3.8628  -3.7657
    -3.6835  -3.4349  -3.4164  -3.3531  -3.0597  -3.0147  -2.9908  -2.9860
    -2.8897  -2.7460  -2.7161  -2.6572  -2.6523  -2.6293  -2.6138  -2.5946
    -2.5392  -2.4896  -2.4700  -2.4260  -2.2852  -2.2687  -2.2597  -2.2381
    -2.1692  -2.1585  -2.0953  -2.0741  -2.0531  -2.0318  -1.9995  -1.8686
    -1.8353  -1.7714  -1.6923  -1.5962  -1.5151  -1.4841  -1.4047  -1.3738
    -1.3609  -1.2609  -1.2490  -1.1745  -1.1361  -1.0699  -1.0427  -1.0003
    -0.8891  -0.8684  -0.8100  -0.7529  -0.7010  -0.6926  -0.6470  -0.6227
    -0.6210  -0.6069  -0.5926  -0.4032  -0.3655  -0.2248  -0.1781  -0.1550
    -0.1131  -0.0928  -0.0340  -0.0059  -0.0038   0.0403   0.0581   0.0993
     0.1527   0.1665   0.1945   0.2841   0.3156   0.3727   0.4995   0.5157
     0.6007   0.6712   0.7702   0.7920   0.8407   0.9688   1.0716   1.0874
     1.1162   1.3210   1.4210   1.6803   1.7227   3.0374   3.1834   3.2781
     3.3864   3.5063   3.5780   3.6211   3.7912   3.8239   3.8677   3.9398

[...]

          k =-0.0760-0.0000 0.0000 ( 17886 PWs)   bands (ev):

[...]

 ------ SPIN DOWN ----------

[...]

          k = 0.0380-0.0419 0.0000 ( 17876 PWs)   bands (ev):

[...]

          k =-0.0760-0.0839 0.0000 ( 17948 PWs)   bands (ev):

   -55.9935 -55.9915 -55.7842 -55.7695 -55.6991 -55.6917 -55.6401 -55.6373
   -55.6143 -55.6064 -55.5712 -55.4996 -55.2387 -54.8897 -54.8897 -54.7889
   -32.2928 -32.2918 -32.2892 -32.2874 -32.1460 -32.1339 -32.1161 -32.1139
   -32.0428 -32.0301 -32.0193 -32.0114 -32.0071 -32.0032 -31.9589 -31.9534
   -31.9478 -31.9358 -31.9115 -31.8904 -31.8782 -31.8758 -31.8736 -31.8722
   -31.8686 -31.8639 -31.8456 -31.8440 -31.8363 -31.8288 -31.8238 -31.8086
   -31.7970 -31.7870 -31.7641 -31.7061 -31.6054 -31.4686 -31.4623 -31.2565
   -31.2207 -31.2206 -31.1233 -31.1231 -31.0844 -31.0843 -31.0071 -30.9155
   -17.4067 -15.9698 -15.9410 -15.8285 -15.8088 -15.7239 -15.7102 -15.5942
   -15.5871 -15.5754 -15.5090 -15.4607 -15.4504 -15.3753 -15.3447 -15.3341
   -15.3062 -15.2964 -15.2903 -15.2802 -15.2739 -15.1896 -15.1851 -15.1798
   -15.1132 -15.0830 -14.9034 -14.8591 -14.6656 -14.6089 -13.3962 -13.3961
   -11.5692  -8.3511  -5.0710  -3.9439  -3.8651  -3.2720  -3.2358  -3.0155
    -2.9924  -2.9718  -2.9390  -2.7562  -2.7432  -2.7347  -2.7189  -2.7067
    -2.6701  -2.6513  -2.6392  -2.5725  -2.5647  -2.5399  -2.5343  -2.5268
    -2.5077  -2.4921  -2.4852  -2.4649  -2.4561  -2.4115  -2.3572  -2.3325
    -2.2863  -2.1914  -2.0872  -2.0344  -2.0173  -2.0101  -1.9880  -1.9786
    -1.9420  -1.9290  -1.8420  -1.6681  -1.6186  -1.5525  -1.5465  -1.5416
    -1.4824  -1.4223  -1.3975  -1.3126  -1.2413  -1.1855  -1.1584  -1.1305
    -1.1002  -1.0314  -0.9662  -0.9472  -0.9340  -0.9006  -0.8946  -0.8824
    -0.8053  -0.7257  -0.6805  -0.6483  -0.6253  -0.6096  -0.5934  -0.5739
    -0.4732  -0.3963  -0.3494  -0.3056  -0.2683  -0.2214  -0.1034  -0.0871
     0.0972   0.1744   0.2026   0.2763   0.3726   0.4024   0.4147   0.4716
     0.5476   0.6094   0.6433   0.6999   0.7189   0.7385   0.8057   1.0172
     1.0777   1.4889   1.4905   1.5397   1.5405   3.0037   3.6806   3.6898
     3.6933   3.7044   3.7227   3.7446   3.7956   3.8302   3.9378   3.9736

     the Fermi energy is     3.1483 ev

!    total energy              =   -2940.35264985 Ry
     estimated scf accuracy    <       0.00000005 Ry
     smearing contrib. (-TS)   =      -0.01881205 Ry
     internal energy E=F+TS    =   -2940.33383780 Ry

     The total energy is F=E-TS. E is the sum of the following terms:
     one-electron contribution =  -24662.17482773 Ry
     hartree contribution      =   12420.28765992 Ry
     xc contribution           =    -486.06278279 Ry
     ewald contribution        =    9787.61505010 Ry
     electric field correction =       0.00106271 Ry

     total magnetization       =     0.00 Bohr mag/cell
     absolute magnetization    =     0.00 Bohr mag/cell

     convergence has been achieved in 101 iterations

     Forces acting on atoms (cartesian axes, Ry/au):

     atom    1 type  1   force =     0.00023825   -0.00036426    0.10149735
     atom    2 type  1   force =     0.00001235   -0.00085956   -0.17143379
     atom    3 type  2   force =     0.00029136    0.00021794   -0.03318785
     atom    4 type  2   force =     0.00003131   -0.00079182    0.04489167
     atom    5 type  2   force =    -0.01197045   -0.00021266   -0.00228541
     atom    6 type  2   force =     0.01440132    0.00037951   -0.00108489
     atom    7 type  1   force =     0.00140129   -0.00130233   -0.00445840
     atom    8 type  1   force =    -0.00077639    0.02220164    0.05602870
     atom    9 type  2   force =     0.00001737   -0.00032008    0.00063734
     atom   10 type  2   force =    -0.00267542    0.00206922   -0.02566777
     atom   11 type  2   force =     0.00004550    0.00024636    0.00003053
     atom   12 type  2   force =     0.00005254    0.00075605    0.00010407
     atom   13 type  1   force =    -0.00005652    0.00013711   -0.00022568
     atom   14 type  1   force =     0.00030448    0.00031272   -0.00033631
     atom   15 type  2   force =     0.00014000   -0.00015112    0.00046557
     atom   16 type  2   force =    -0.00000371   -0.00014560    0.00123130
     atom   17 type  2   force =    -0.00001885   -0.00062241    0.00037494
     atom   18 type  2   force =     0.00051244   -0.00069096    0.00044416
     atom   19 type  1   force =    -0.00036537   -0.00055379   -0.00059362
     atom   20 type  1   force =     0.00007529   -0.00006199   -0.00119470
     atom   21 type  2   force =     0.00006420   -0.00001218    0.10212723
     atom   22 type  2   force =     0.00006779   -0.00014906    0.00077686
     atom   23 type  2   force =    -0.07327909   -0.00015891   -0.02886679
     atom   24 type  2   force =     0.07322970    0.00033557   -0.02891685
     atom   25 type  1   force =    -0.00027030   -0.00029545    0.10192872
     atom   26 type  1   force =     0.00003331   -0.00020196   -0.17142523
     atom   27 type  2   force =     0.00036411   -0.00022848   -0.03190770
     atom   28 type  2   force =     0.00009302   -0.00057644    0.04550740
     atom   29 type  2   force =    -0.01211801    0.00212766   -0.00284114
     atom   30 type  2   force =     0.01442826    0.00228942   -0.00158278
     atom   31 type  1   force =     0.00159130    0.00093617   -0.00576203
     atom   32 type  1   force =    -0.00059359   -0.02475853    0.05705929
     atom   33 type  2   force =     0.00014161    0.00035565    0.00079973
     atom   34 type  2   force =    -0.00421366    0.00212004   -0.04808197
     atom   35 type  2   force =     0.00064092   -0.00058792    0.00009378
     atom   36 type  2   force =    -0.00044175   -0.00076462    0.00022388
     atom   37 type  1   force =     0.00007008    0.00061801   -0.00050399
     atom   38 type  1   force =     0.00005439   -0.00012277   -0.00045242
     atom   39 type  2   force =     0.00019098   -0.00007722   -0.00025252
     atom   40 type  2   force =    -0.00004490   -0.00002779    0.00009781
     atom   41 type  2   force =     0.00025167    0.00019689    0.00058953
     atom   42 type  2   force =    -0.00001056    0.00032472    0.00087787
     atom   43 type  1   force =    -0.00036783   -0.00003171   -0.00033882
     atom   44 type  1   force =     0.00053272    0.00081006   -0.00143316
     atom   45 type  2   force =     0.00004708   -0.00004957    0.10219064
     atom   46 type  2   force =    -0.07328646   -0.00009313   -0.02883954
     atom   47 type  2   force =     0.07323693    0.00028060   -0.02887623
     atom   48 type  3   force =     0.00820878   -0.00319589    0.00125888
     atom   49 type  4   force =     0.00134087   -0.00115468   -0.00012014
     atom   50 type  5   force =    -0.00017870   -0.00018368   -0.00025646
     atom   51 type  5   force =    -0.00058955   -0.00047853    0.00045436
     atom   52 type  5   force =    -0.00016651   -0.00053322    0.00033964
     atom   53 type  3   force =    -0.01201388    0.00356376    0.00062908
     atom   54 type  5   force =     0.00133030   -0.00052079    0.00026586

     Total force =     0.378032     Total SCF correction =     0.000429
  @ DRIVER MODE: Message from server: STATUS
  @ DRIVER MODE: Message from server: GETFORCE
  @ DRIVER MODE: Returning v,forces,stress,ensemble

     Writing output data file ./calc.save/
  @ DRIVER MODE: Message from server: EXIT
  @ DRIVE MODE: Exiting

     General routines

     Parallel routines

   This run was terminated on:  16:27:27  16Jul2021

   JOB DONE.