     Program PWSCF v.6.7GPU starts on 23Sep2021 at 20:23: 3

     R & G space division:  proc/nbgrp/npool/nimage =       8
     Reading input from /storage/home/hcoda1/3/ntian30/research/carbon/CxH_vib/H2O_calc/ads_slab/CH3ON2HO_a/out_0020/pw.inp
Warning: card &CELL ignored
Warning: card   CELL_DYNAMICS='IPI', ignored
Warning: card / ignored

     Current dimensions of program PWSCF are:
     Max number of different atomic species (ntypx) = 10
     Max number of k-points (npk) =  40000
     Max angular momentum in pseudopotentials (lmaxx) =  3
     Presently no symmetry can be used with electric field

     Message from routine cell_base_init:
     DEPRECATED: use true lattice parameter, not A to a.u. conversion factor

     IMPORTANT: XC functional enforced from input :
     Exchange-correlation= BEEF-VDW
                           (   1   4  43  14   2   0   0)
     Any further DFT definition will be discarded
     Please, verify this is what you really want

  @ DRIVER MODE: Connecting to
 qe_1139763_2947306.sched-torque.pace.gatech.edu4cet09ta_scratch
  using UNIX socket
  @ DRIVER MODE: Message from server: STATUS
  @ DRIVER MODE: Message from server: INIT
  @ DRIVER MODE: Receiving replica           0          -1
  @ DRIVER MODE: Receiving encoded integer          25
  @ DRIVER MODE:  SCF:  T  FORCE:  T  STRESS:  F  VC:  F  ENSEMBLE:  F
  @ DRIVER MODE:  SCF:  T  FORCE:  T  STRESS:  F  VC:  F  ENSEMBLE:  F

     Using Slab Decomposition

     bravais-lattice index     =            0
     lattice parameter (alat)  =       1.8897  a.u.
     unit-cell volume          =    6658.9804 (a.u.)^3
     number of atoms/cell      =           56
     number of atomic types    =            5
     number of electrons       =       408.00
     number of Kohn-Sham states=          214
     kinetic-energy cutoff     =      29.3995  Ry
     charge density cutoff     =     293.9946  Ry
     scf convergence threshold =      7.3E-08
     mixing beta               =       0.0500
     number of iterations used =            8  plain     mixing
     Exchange-correlation= BEEF-VDW
                           (   1   4  43  14   2   0   0)

     celldm(1)=   1.889726  celldm(2)=   0.000000  celldm(3)=   0.000000
     celldm(4)=   0.000000  celldm(5)=   0.000000  celldm(6)=   0.000000

     crystal axes: (cart. coord. in units of alat)
               a(1) = (   6.579727   0.000000   0.000000 )
               a(2) = (  -0.000775   5.961596   0.000000 )
               a(3) = (   0.000000   0.000000  25.155947 )

     reciprocal axes: (cart. coord. in units 2 pi/alat)
               b(1) = (  0.151982  0.000020  0.000000 )
               b(2) = (  0.000000  0.167740  0.000000 )
               b(3) = (  0.000000  0.000000  0.039752 )

     PseudoPot. # 1 for Ti read from file:
     /storage/coda1/p-amedford6/0/shared/rich_project_chbe-medford/medford-share/data/pseudos_module/espresso/nninc/pbe/van/Ti.UPF
     MD5 check sum: 8e4df49b7f0d34bbd5052bf3f5ea0213
     Pseudo is Ultrasoft, Zval = 12.0
     Generated by new atomic code, or converted to UPF format
     Using radial grid of  851 points,  6 beta functions with:
                l(1) =   0
                l(2) =   0
                l(3) =   1
                l(4) =   1
                l(5) =   2
                l(6) =   2
     Q(r) pseudized with  8 coefficients,  rinner =    1.000   1.000   1.000
                                                       1.000   1.000

     PseudoPot. # 2 for O  read from file:
     /storage/coda1/p-amedford6/0/shared/rich_project_chbe-medford/medford-share/data/pseudos_module/espresso/nninc/pbe/van/O.UPF
     MD5 check sum: 78c19812648e8988a0fe644b0f25305e
     Pseudo is Ultrasoft, Zval =  6.0
     Generated by new atomic code, or converted to UPF format
     Using radial grid of  737 points,  4 beta functions with:
                l(1) =   0
                l(2) =   0
                l(3) =   1
                l(4) =   1
     Q(r) pseudized with  8 coefficients,  rinner =    0.800   0.800   0.800

     PseudoPot. # 3 for C  read from file:
     /storage/coda1/p-amedford6/0/shared/rich_project_chbe-medford/medford-share/data/pseudos_module/espresso/nninc/pbe/van/C.UPF
     MD5 check sum: 1a69bf6b8db32088f5b2163dbdb77a27
     Pseudo is Ultrasoft, Zval =  4.0
     Generated by new atomic code, or converted to UPF format
     Using radial grid of  721 points,  4 beta functions with:
                l(1) =   0
                l(2) =   0
                l(3) =   1
                l(4) =   1
     Q(r) pseudized with  8 coefficients,  rinner =    0.800   0.800   0.800

     PseudoPot. # 4 for H  read from file:
     /storage/coda1/p-amedford6/0/shared/rich_project_chbe-medford/medford-share/data/pseudos_module/espresso/nninc/pbe/van/H.UPF
     MD5 check sum: b5ee9d7bfd3a09ee7748110bda690ff7
     Pseudo is Ultrasoft, Zval =  1.0
     Generated by new atomic code, or converted to UPF format
     Using radial grid of  615 points,  1 beta functions with:
                l(1) =   0
     Q(r) pseudized with  8 coefficients,  rinner =    0.800

     PseudoPot. # 5 for N  read from file:
     /storage/coda1/p-amedford6/0/shared/rich_project_chbe-medford/medford-share/data/pseudos_module/espresso/nninc/pbe/van/N.UPF
     MD5 check sum: 90d10febe142ad51ac9d5be1deb811c4
     Pseudo is Ultrasoft, Zval =  5.0
     Generated by new atomic code, or converted to UPF format
     Using radial grid of  729 points,  4 beta functions with:
                l(1) =   0
                l(2) =   0
                l(3) =   1
                l(4) =   1
     Q(r) pseudized with  8 coefficients,  rinner =    0.800   0.800   0.800

     atomic species   valence    mass     pseudopotential
        Ti1           12.00    47.86700     Ti( 1.00)
        O1             6.00    15.99900     O ( 1.00)
        C1             4.00    12.01100     C ( 1.00)
        H1             1.00     1.00800     H ( 1.00)
        N1             5.00    14.00700     N ( 1.00)

     No symmetry found

   Cartesian axes

     site n.     atom                  positions (alat units)
         1           Ti1 tau(   1) = (   0.0004258   2.9801865   6.0000000  )
         2           Ti1 tau(   2) = (   3.2906075   1.4906267   6.0002472  )
         3           O1  tau(   3) = (   0.0006271   0.0005054   7.9858123  )
         4           O1  tau(   4) = (   3.2906025   0.0005020   7.3038282  )
         5           O1  tau(   5) = (   4.5942328   1.4918067   9.2879030  )
         6           O1  tau(   6) = (   1.9868534   1.4903216   9.2879459  )
         7           Ti1 tau(   7) = (   3.3138730   3.1023225   9.2183157  )
         8           Ti1 tau(   8) = (   0.0392070   1.5780841   9.3433077  )
         9           O1  tau(   9) = (   3.2868017   0.0212601  11.3135411  )
        10           O1  tau(  10) = (   0.0022550   0.0140515  10.5858881  )
        11           O1  tau(  11) = (   1.2767464   1.5002397  12.6205121  )
        12           O1  tau(  12) = (   5.2993684   1.4943797  12.6172415  )
        13           Ti1 tau(  13) = (   0.0200588   3.0780815  12.7918821  )
        14           Ti1 tau(  14) = (   3.2574684   1.5637424  12.4212484  )
        15           O1  tau(  15) = (   6.5768379   0.0158506  14.6682411  )
        16           O1  tau(  16) = (   3.2886937   5.9311801  13.9109749  )
        17           O1  tau(  17) = (   4.5620935   1.5260772  16.0398494  )
        18           O1  tau(  18) = (   2.0292830   1.5431627  16.0187044  )
        19           Ti1 tau(  19) = (   3.3027642   2.9567202  15.6520962  )
        20           Ti1 tau(  20) = (   0.0552782   1.4362356  15.9688716  )
        21           O1  tau(  21) = (   3.2904802   0.0005063   4.7018136  )
        22           O1  tau(  22) = (   0.0488089   0.0211857  17.1900833  )
        23           O1  tau(  23) = (   1.3043587   1.4918075   6.0039043  )
        24           O1  tau(  24) = (   5.2767064   1.4903225   6.0039473  )
        25           Ti1 tau(  25) = (   0.0000382   5.9609847   6.0000000  )
        26           Ti1 tau(  26) = (   3.2902200   4.4714249   6.0002472  )
        27           O1  tau(  27) = (   0.0002396   2.9813036   7.9858123  )
        28           O1  tau(  28) = (   3.2902150   2.9813002   7.3038282  )
        29           O1  tau(  29) = (   4.5938453   4.4726049   9.2879030  )
        30           O1  tau(  30) = (   1.9864658   4.4711199   9.2879459  )
        31           Ti1 tau(  31) = (   3.3219941   0.1169887   9.1790125  )
        32           Ti1 tau(  32) = (   0.0373256   4.5280481   9.3594506  )
        33           O1  tau(  33) = (   3.2887547   2.9594671  11.2851190  )
        34           O1  tau(  34) = (   0.0046902   2.9985155  10.5475055  )
        35           O1  tau(  35) = (   1.2817606   4.4707209  12.6310527  )
        36           O1  tau(  36) = (   5.3098963   4.4869072  12.6241852  )
        37           Ti1 tau(  37) = (   6.5328698   0.0937101  12.6083326  )
        38           Ti1 tau(  38) = (   3.2790761   4.6595539  12.6693962  )
        39           O1  tau(  39) = (   0.0062896   2.9920245  14.6683812  )
        40           O1  tau(  40) = (   3.3079832   2.9813091  13.8732900  )
        41           O1  tau(  41) = (   4.5514670   4.4448635  16.0695425  )
        42           O1  tau(  42) = (   2.0242163   4.4286948  16.0089506  )
        43           Ti1 tau(  43) = (   3.3772342   5.9382356  16.2476532  )
        44           Ti1 tau(  44) = (   0.0845355   4.5653432  16.0322982  )
        45           O1  tau(  45) = (   3.2900926   2.9813045   4.7018136  )
        46           O1  tau(  46) = (   1.3039711   4.4726057   6.0039043  )
        47           O1  tau(  47) = (   5.2763189   4.4711207   6.0039473  )
        48           C1  tau(  48) = (   6.0101766   2.9784267  18.6088694  )
        49           O1  tau(  49) = (   6.5649008   2.9952511  17.2928482  )
        50           H1  tau(  50) = (   4.9185495   2.9407445  18.5675634  )
        51           H1  tau(  51) = (   6.3803738   2.0936667  19.1370987  )
        52           H1  tau(  52) = (   6.3118891   3.8824302  19.1399426  )
        53           N1  tau(  53) = (   6.0262039   3.1690275  22.5535725  )
        54           N1  tau(  54) = (   5.1417247   3.1052473  21.8962875  )
        55           O1  tau(  55) = (   3.2068502   5.9581871  18.0710493  )
        56           H1  tau(  56) = (   2.3500504   0.2277792  18.4614507  )

     number of k points=    10  Fermi-Dirac smearing, width (Ry)=  0.0073
                       cart. coord. in units 2pi/alat
        k(    1) = (   0.0000000   0.0000000   0.0000000), wk =   0.1250000
        k(    2) = (   0.0000000   0.0419351   0.0000000), wk =   0.2500000
        k(    3) = (   0.0000000  -0.0838702   0.0000000), wk =   0.1250000
        k(    4) = (   0.0379955   0.0000049   0.0000000), wk =   0.2500000
        k(    5) = (   0.0379955   0.0419400   0.0000000), wk =   0.2500000
        k(    6) = (   0.0379955  -0.0838652   0.0000000), wk =   0.2500000
        k(    7) = (   0.0379955  -0.0419301   0.0000000), wk =   0.2500000
        k(    8) = (  -0.0759910  -0.0000099   0.0000000), wk =   0.1250000
        k(    9) = (  -0.0759910   0.0419252   0.0000000), wk =   0.2500000
        k(   10) = (  -0.0759910  -0.0838800   0.0000000), wk =   0.1250000

     Initial potential from superposition of free atoms

     starting charge  391.99915, renormalised to  408.00000

     negative rho (up, down):  9.975E-03 0.000E+00

     %%%%%%%%%%%%%%%%%%%%%%%%%%%%%%%%%%%%%%%%%%%%%%%%%%%%%%%%%%%%%%%%%%%%%%%%
     %                                                                      %
     % You are using vdW-DF, which was implemented by the Thonhauser group. %
     % Please cite the following two papers that made this development      %
     % possible and the two reviews that describe the various versions:     %
     %                                                                      %
     %   T. Thonhauser et al., PRL 115, 136402 (2015).                      %
     %   T. Thonhauser et al., PRB 76, 125112 (2007).                       %
     %   K. Berland et al., Rep. Prog. Phys. 78, 066501 (2015).             %
     %   D.C. Langreth et al., J. Phys.: Condens. Matter 21, 084203 (2009). %
     %                                                                      %
     %                                                                      %
     % If you are calculating the stress with vdW-DF, please also cite:     %
     %                                                                      %
     %   R. Sabatini et al., J. Phys.: Condens. Matter 24, 424209 (2012).   %
     %                                                                      %
     %%%%%%%%%%%%%%%%%%%%%%%%%%%%%%%%%%%%%%%%%%%%%%%%%%%%%%%%%%%%%%%%%%%%%%%%

     Adding external electric field

     Computed dipole along edir(3) :
        Dipole              -16.8152 Ry au,        -42.7399 Debye
        Dipole field         -0.0317 Ry au,

        Potential amp.        2.9416 Ry
        Total length         46.3494 bohr

     Starting wfcs are  308 atomic wfcs
  @ DRIVER MODE: Message from server: STATUS
  @ DRIVER MODE: Message from server: POSDATA
  @ DRIVER MODE: Reading and sharing cell
  @ DRIVER MODE: Reading and sharing positions
  @ DRIVER MODE: Received positions

     Self-consistent Calculation

     iteration #  1     ecut=    29.40 Ry     beta= 0.05
     Davidson diagonalization with overlap
     c_bands:  4 eigenvalues not converged
     c_bands:  1 eigenvalues not converged
     c_bands:  5 eigenvalues not converged
     c_bands:  1 eigenvalues not converged
     c_bands:  2 eigenvalues not converged
     c_bands:  2 eigenvalues not converged
     c_bands:  1 eigenvalues not converged
     c_bands:  5 eigenvalues not converged
     ethr =  1.00E-05,  avg # of iterations = 27.4

[...]

     total energy              =   -2248.47734166 Ry
     estimated scf accuracy    <    8688.98738507 Ry

     iteration #  2     ecut=    29.40 Ry     beta= 0.05
     Davidson diagonalization with overlap
     ethr =  1.00E-02,  avg # of iterations = 31.0

[...]

     iteration # 46     ecut=    29.40 Ry     beta= 0.05
     Davidson diagonalization with overlap
     c_bands:  2 eigenvalues not converged
     c_bands:  2 eigenvalues not converged
     c_bands:  1 eigenvalues not converged
     ethr =  1.79E-07,  avg # of iterations = 12.5

[...]

     total energy              =   -3005.28914625 Ry
     estimated scf accuracy    <       0.00000009 Ry

     iteration # 70     ecut=    29.40 Ry     beta= 0.05
     Davidson diagonalization with overlap
     ethr =  2.21E-11,  avg # of iterations =  3.1

     negative rho (up, down):  1.141E-02 0.000E+00

     Adding external electric field

     Computed dipole along edir(3) :
        Dipole                0.5462 Ry au,          1.3882 Debye
        Dipole field          0.0010 Ry au,

        Potential amp.       -0.0955 Ry
        Total length         46.3494 bohr

     End of self-consistent calculation

          k = 0.0000 0.0000 0.0000 ( 18029 PWs)   bands (ev):

   -56.1301 -56.0825 -55.5722 -55.5528 -55.5391 -55.5150 -55.4812 -55.4578
   -55.4229 -55.3970 -55.3633 -55.3214 -55.3202 -55.1842 -54.7430 -54.7090
   -32.5430 -32.3943 -32.3438 -32.3096 -32.2148 -32.1693 -32.0754 -32.0194
   -32.0108 -31.9047 -31.8607 -31.8430 -31.8380 -31.8158 -31.8135 -31.7755
   -31.7728 -31.7594 -31.7390 -31.7320 -31.7282 -31.6866 -31.6772 -31.6624
   -31.6592 -31.6411 -31.6381 -31.6286 -31.6213 -31.6116 -31.6045 -31.5873
   -31.5727 -31.5673 -31.5611 -31.5263 -31.5171 -31.5144 -31.4841 -31.4389
   -31.4008 -31.3894 -31.1374 -31.0831 -31.0587 -30.9543 -30.8694 -30.7585
   -20.8555 -17.3371 -16.3429 -16.2869 -16.1457 -15.9091 -15.7647 -15.6872
   -15.4577 -15.4471 -15.3324 -15.3254 -15.2906 -15.1596 -15.1421 -15.1345
   -15.0834 -15.0688 -15.0457 -15.0437 -15.0398 -15.0315 -14.9739 -14.9548
   -14.9152 -14.8564 -14.7802 -14.7600 -14.7108 -14.6998 -14.6581 -14.4327
   -13.2444 -13.1358  -9.0789  -6.0161  -4.1071  -3.9927  -3.9792  -3.9284
    -3.8135  -3.7539  -3.5885  -3.4898  -3.4675  -3.3925  -3.2917  -3.1865
    -2.9722  -2.8206  -2.7577  -2.7192  -2.7151  -2.6767  -2.6355  -2.5737
    -2.5191  -2.4769  -2.4433  -2.4092  -2.3488  -2.3371  -2.3208  -2.2904
    -2.2706  -2.2496  -2.2136  -2.2019  -2.0706  -2.0340  -2.0044  -1.9929
    -1.9396  -1.9209  -1.9020  -1.8924  -1.8475  -1.7510  -1.6531  -1.6393
    -1.5950  -1.4085  -1.3334  -1.2870  -1.2090  -1.1435  -1.0665  -1.0457
    -1.0359  -0.9810  -0.9430  -0.8417  -0.8076  -0.7684  -0.7009  -0.6955
    -0.6564  -0.5947  -0.5709  -0.5101  -0.4823  -0.4488  -0.3100  -0.2745
    -0.2571  -0.1946  -0.1940  -0.1019  -0.0421   0.0104   0.0294   0.0848
     0.1251   0.1474   0.1981   0.2287   0.2428   0.3260   0.3753   0.3822
     0.4159   0.4556   0.4744   0.5068   0.5947   0.6425   0.6690   0.6945
     0.8387   0.8529   0.9072   1.0137   1.0228   1.2048   1.2746   1.3102
     1.4968   1.5349   1.8263   1.8720   3.1702   3.3334   3.6127   3.7251
     3.7692   3.8091   3.8846   3.9117   4.0662   4.1028

[...]

          k = 0.0380-0.0419 0.0000 ( 17876 PWs)   bands (ev):

[...]

          k =-0.0760-0.0000 0.0000 ( 17886 PWs)   bands (ev):

[...]

          k =-0.0760-0.0839 0.0000 ( 17948 PWs)   bands (ev):

   -56.1231 -56.0893 -55.5702 -55.5479 -55.5380 -55.5091 -55.4856 -55.4635
   -55.4247 -55.3983 -55.3547 -55.3297 -55.3184 -55.1862 -54.7261 -54.7257
   -32.3898 -32.3742 -32.3478 -32.3454 -32.2751 -32.2463 -31.9640 -31.8840
   -31.8554 -31.8380 -31.8152 -31.8057 -31.7921 -31.7866 -31.7771 -31.7622
   -31.7569 -31.7470 -31.7467 -31.7390 -31.7298 -31.7210 -31.7075 -31.7058
   -31.7043 -31.6871 -31.6822 -31.6570 -31.6488 -31.6474 -31.6299 -31.6238
   -31.6008 -31.5940 -31.5786 -31.5666 -31.5640 -31.5364 -31.5212 -31.5035
   -31.4394 -31.3929 -31.0718 -31.0717 -30.9530 -30.9513 -30.9115 -30.9106
   -20.8554 -17.2996 -16.3168 -15.6936 -15.6038 -15.5946 -15.5871 -15.5542
   -15.5184 -15.4536 -15.4391 -15.3710 -15.2989 -15.2683 -15.2276 -15.2026
   -15.1866 -15.1498 -15.1453 -15.0833 -15.0396 -15.0307 -15.0161 -15.0023
   -14.9577 -14.9498 -14.9410 -14.9248 -14.9157 -14.8549 -14.7552 -14.5775
   -13.2400 -13.2389  -9.0790  -6.0176  -4.0444  -3.9955  -3.9741  -3.8546
    -3.6950  -3.4689  -2.9265  -2.8459  -2.7675  -2.7653  -2.7014  -2.6765
    -2.6286  -2.6055  -2.5693  -2.5540  -2.5316  -2.4663  -2.4416  -2.4272
    -2.4236  -2.4150  -2.3989  -2.3800  -2.3376  -2.3284  -2.3158  -2.3061
    -2.2871  -2.2827  -2.2700  -2.2493  -2.2085  -2.1465  -2.0898  -1.9485
    -1.9404  -1.9148  -1.8953  -1.8710  -1.8460  -1.7950  -1.7134  -1.6934
    -1.6747  -1.5988  -1.5401  -1.3354  -1.3147  -1.2965  -1.2267  -1.1583
    -1.0917  -1.0742  -1.0395  -1.0053  -0.9820  -0.9422  -0.8856  -0.8512
    -0.8079  -0.7952  -0.7572  -0.7196  -0.6689  -0.6092  -0.6010  -0.5682
    -0.5184  -0.4941  -0.4043  -0.3962  -0.3721  -0.3546  -0.3201  -0.2296
    -0.1770  -0.1311  -0.0426  -0.0024   0.0375   0.1707   0.2362   0.2725
     0.3453   0.3863   0.4932   0.5152   0.5943   0.6159   0.6450   0.6705
     0.7355   0.8068   0.8583   0.9072   0.9479   0.9628   1.0138   1.0633
     1.6680   1.6706   1.6781   1.6844   3.7131   3.7393   3.7472   3.7804
     3.9845   4.0145   4.0876   4.1042   4.1248   4.1864

     the Fermi energy is     2.5784 ev

!    total energy              =   -3005.28916544 Ry
     estimated scf accuracy    <       0.00000005 Ry
     smearing contrib. (-TS)   =      -0.00015435 Ry
     internal energy E=F+TS    =   -3005.28901109 Ry

     The total energy is F=E-TS. E is the sum of the following terms:
     one-electron contribution =  -22581.84391302 Ry
     hartree contribution      =   11387.21796105 Ry
     xc contribution           =    -500.23915593 Ry
     ewald contribution        =    8689.57553386 Ry
     electric field correction =       0.00056295 Ry

     convergence has been achieved in  70 iterations

     Forces acting on atoms (cartesian axes, Ry/au):

     atom    1 type  1   force =     0.00012018    0.00010215    0.13278578
     atom    2 type  1   force =    -0.00011536    0.00820437   -0.15823921
     atom    3 type  2   force =     0.00029910   -0.00362400   -0.05308076
     atom    4 type  2   force =     0.00059153    0.00105096    0.04009863
     atom    5 type  2   force =    -0.00787087   -0.00195392   -0.00034321
     atom    6 type  2   force =     0.00846595   -0.00490687   -0.00004825
     atom    7 type  1   force =    -0.00017319   -0.00031865   -0.00005249
     atom    8 type  1   force =    -0.00000516   -0.00026622    0.00022120
     atom    9 type  2   force =     0.00013229    0.00010161    0.00003373
     atom   10 type  2   force =    -0.00003247    0.00020441    0.00008145
     atom   11 type  2   force =    -0.00003877    0.00013130   -0.00000567
     atom   12 type  2   force =     0.00036199   -0.00010827   -0.00005062
     atom   13 type  1   force =    -0.00018192    0.00002140    0.00018263
     atom   14 type  1   force =     0.00011769    0.00057402    0.00009538
     atom   15 type  2   force =    -0.00011228    0.00013956   -0.00004956
     atom   16 type  2   force =     0.00002322    0.00005863   -0.00042936
     atom   17 type  2   force =     0.00011489   -0.00045227    0.00021506
     atom   18 type  2   force =    -0.00008488   -0.00055234    0.00012867
     atom   19 type  1   force =    -0.00040013    0.00031374   -0.00008534
     atom   20 type  1   force =     0.00041740    0.00005928   -0.00007218
     atom   21 type  2   force =    -0.00006549    0.00009283    0.09919975
     atom   22 type  2   force =    -0.00022082    0.00014786    0.00000504
     atom   23 type  2   force =    -0.08059781    0.00058050   -0.03417457
     atom   24 type  2   force =     0.08037098    0.00110319   -0.03421424
     atom   25 type  1   force =    -0.00021643   -0.00018155    0.14169130
     atom   26 type  1   force =    -0.00019159   -0.00685830   -0.15775371
     atom   27 type  2   force =     0.00043928    0.00017829   -0.05212247
     atom   28 type  2   force =     0.00043875    0.00035910    0.04188017
     atom   29 type  2   force =    -0.00940662    0.00598079    0.00164583
     atom   30 type  2   force =     0.00931491    0.00235300    0.00175521
     atom   31 type  1   force =    -0.00002913    0.00010960    0.00014298
     atom   32 type  1   force =     0.00002086   -0.00012569   -0.00009825
     atom   33 type  2   force =    -0.00006570   -0.00033497    0.00028736
     atom   34 type  2   force =    -0.00009761   -0.00005609    0.00001789
     atom   35 type  2   force =     0.00062248    0.00026333   -0.00006910
     atom   36 type  2   force =    -0.00019206    0.00015398    0.00005593
     atom   37 type  1   force =    -0.00039234    0.00047458   -0.00061278
     atom   38 type  1   force =     0.00024232   -0.00034322   -0.00012230
     atom   39 type  2   force =    -0.00002946   -0.00000479    0.00026358
     atom   40 type  2   force =     0.00012753   -0.00008902   -0.00033616
     atom   41 type  2   force =     0.00071850    0.00013923    0.00020274
     atom   42 type  2   force =    -0.00037340    0.00035605    0.00001164
     atom   43 type  1   force =    -0.00058398   -0.00032873   -0.00000380
     atom   44 type  1   force =     0.00004226   -0.00041296   -0.00039111
     atom   45 type  2   force =    -0.00007791    0.00018464    0.09877217
     atom   46 type  2   force =    -0.08056187   -0.00156329   -0.03412935
     atom   47 type  2   force =     0.08036598   -0.00103010   -0.03421211
     atom   48 type  3   force =     0.00332392   -0.00285036    0.00201518
     atom   49 type  2   force =    -0.00035851    0.00014876    0.00003217
     atom   50 type  4   force =    -0.00004208   -0.00081544    0.00020403
     atom   51 type  4   force =    -0.00317836    0.00286208   -0.00133863
     atom   52 type  4   force =     0.00003865    0.00066786   -0.00045799
     atom   53 type  5   force =     0.00099811    0.00010865    0.00074026
     atom   54 type  5   force =    -0.00130096    0.00000435   -0.00084228
     atom   55 type  2   force =    -0.00111684    0.00082017    0.00027848
     atom   56 type  4   force =     0.00040522   -0.00087323    0.00029124

     Total force =     0.383773     Total SCF correction =     0.000588
  @ DRIVER MODE: Message from server: STATUS
  @ DRIVER MODE: Message from server: GETFORCE
  @ DRIVER MODE: Returning v,forces,stress,ensemble

     Writing output data file ./calc.save/
  @ DRIVER MODE: Message from server: EXIT
  @ DRIVE MODE: Exiting

     General routines

     Parallel routines

   This run was terminated on:  20:49:31  23Sep2021

   JOB DONE.