     Program PWSCF v.6.7GPU starts on 15Sep2021 at 20: 6: 4

     R & G space division:  proc/nbgrp/npool/nimage =      10
     Reading input from /storage/home/hcoda1/3/ntian30/research/carbon/CxH_vib/H2O_calc/ads_slab/CH2NNHHHH2O_a/out_0013/pw.inp
Warning: card &CELL ignored
Warning: card   CELL_DYNAMICS='IPI', ignored
Warning: card / ignored

     Current dimensions of program PWSCF are:
     Max number of different atomic species (ntypx) = 10
     Max number of k-points (npk) =  40000
     Max angular momentum in pseudopotentials (lmaxx) =  3
     Presently no symmetry can be used with electric field

     Message from routine cell_base_init:
     DEPRECATED: use true lattice parameter, not A to a.u. conversion factor

     IMPORTANT: XC functional enforced from input :
     Exchange-correlation= BEEF-VDW
                           (   1   4  43  14   2   0   0)
     Any further DFT definition will be discarded
     Please, verify this is what you really want

  @ DRIVER MODE: Connecting to
 qe_1139763_2852612.sched-torque.pace.gatech.eduv0xg9tnj_scratch
  using UNIX socket
  @ DRIVER MODE: Message from server: STATUS
  @ DRIVER MODE: Message from server: INIT
  @ DRIVER MODE: Receiving replica           0          -1
  @ DRIVER MODE: Receiving encoded integer          25
  @ DRIVER MODE:  SCF:  T  FORCE:  T  STRESS:  F  VC:  F  ENSEMBLE:  F
  @ DRIVER MODE:  SCF:  T  FORCE:  T  STRESS:  F  VC:  F  ENSEMBLE:  F

     Using Slab Decomposition

     bravais-lattice index     =            0
     lattice parameter (alat)  =       1.8897  a.u.
     unit-cell volume          =    6658.9804 (a.u.)^3
     number of atoms/cell      =           58
     number of atomic types    =            5
     number of electrons       =       405.00
     number of Kohn-Sham states=          212
     kinetic-energy cutoff     =      29.3995  Ry
     charge density cutoff     =     293.9946  Ry
     scf convergence threshold =      7.3E-08
     mixing beta               =       0.0500
     number of iterations used =            8  plain     mixing
     Exchange-correlation= BEEF-VDW
                           (   1   4  43  14   2   0   0)

     celldm(1)=   1.889726  celldm(2)=   0.000000  celldm(3)=   0.000000
     celldm(4)=   0.000000  celldm(5)=   0.000000  celldm(6)=   0.000000

     crystal axes: (cart. coord. in units of alat)
               a(1) = (   6.579727   0.000000   0.000000 )
               a(2) = (  -0.000775   5.961596   0.000000 )
               a(3) = (   0.000000   0.000000  25.155947 )

     reciprocal axes: (cart. coord. in units 2 pi/alat)
               b(1) = (  0.151982  0.000020  0.000000 )
               b(2) = (  0.000000  0.167740  0.000000 )
               b(3) = (  0.000000  0.000000  0.039752 )

     PseudoPot. # 1 for Ti read from file:
     /storage/coda1/p-amedford6/0/shared/rich_project_chbe-medford/medford-share/data/pseudos_module/espresso/nninc/pbe/van/Ti.UPF
     MD5 check sum: 8e4df49b7f0d34bbd5052bf3f5ea0213
     Pseudo is Ultrasoft, Zval = 12.0
     Generated by new atomic code, or converted to UPF format
     Using radial grid of  851 points,  6 beta functions with:
                l(1) =   0
                l(2) =   0
                l(3) =   1
                l(4) =   1
                l(5) =   2
                l(6) =   2
     Q(r) pseudized with  8 coefficients,  rinner =    1.000   1.000   1.000
                                                       1.000   1.000

     PseudoPot. # 2 for O  read from file:
     /storage/coda1/p-amedford6/0/shared/rich_project_chbe-medford/medford-share/data/pseudos_module/espresso/nninc/pbe/van/O.UPF
     MD5 check sum: 78c19812648e8988a0fe644b0f25305e
     Pseudo is Ultrasoft, Zval =  6.0
     Generated by new atomic code, or converted to UPF format
     Using radial grid of  737 points,  4 beta functions with:
                l(1) =   0
                l(2) =   0
                l(3) =   1
                l(4) =   1
     Q(r) pseudized with  8 coefficients,  rinner =    0.800   0.800   0.800

     PseudoPot. # 3 for N  read from file:
     /storage/coda1/p-amedford6/0/shared/rich_project_chbe-medford/medford-share/data/pseudos_module/espresso/nninc/pbe/van/N.UPF
     MD5 check sum: 90d10febe142ad51ac9d5be1deb811c4
     Pseudo is Ultrasoft, Zval =  5.0
     Generated by new atomic code, or converted to UPF format
     Using radial grid of  729 points,  4 beta functions with:
                l(1) =   0
                l(2) =   0
                l(3) =   1
                l(4) =   1
     Q(r) pseudized with  8 coefficients,  rinner =    0.800   0.800   0.800

     PseudoPot. # 4 for C  read from file:
     /storage/coda1/p-amedford6/0/shared/rich_project_chbe-medford/medford-share/data/pseudos_module/espresso/nninc/pbe/van/C.UPF
     MD5 check sum: 1a69bf6b8db32088f5b2163dbdb77a27
     Pseudo is Ultrasoft, Zval =  4.0
     Generated by new atomic code, or converted to UPF format
     Using radial grid of  721 points,  4 beta functions with:
                l(1) =   0
                l(2) =   0
                l(3) =   1
                l(4) =   1
     Q(r) pseudized with  8 coefficients,  rinner =    0.800   0.800   0.800

     PseudoPot. # 5 for H  read from file:
     /storage/coda1/p-amedford6/0/shared/rich_project_chbe-medford/medford-share/data/pseudos_module/espresso/nninc/pbe/van/H.UPF
     MD5 check sum: b5ee9d7bfd3a09ee7748110bda690ff7
     Pseudo is Ultrasoft, Zval =  1.0
     Generated by new atomic code, or converted to UPF format
     Using radial grid of  615 points,  1 beta functions with:
                l(1) =   0
     Q(r) pseudized with  8 coefficients,  rinner =    0.800

     atomic species   valence    mass     pseudopotential
        Ti1           12.00    47.86700     Ti( 1.00)
        O1             6.00    15.99900     O ( 1.00)
        N1             5.00    14.00700     N ( 1.00)
        C1             4.00    12.01100     C ( 1.00)
        H1             1.00     1.00800     H ( 1.00)

     No symmetry found

   Cartesian axes

     site n.     atom                  positions (alat units)
         1           Ti1 tau(   1) = (   0.0004258   2.9801865   6.0000000  )
         2           Ti1 tau(   2) = (   3.2906075   1.4906267   6.0002472  )
         3           O1  tau(   3) = (   0.0006271   0.0005054   7.9858123  )
         4           O1  tau(   4) = (   3.2906025   0.0005020   7.3038282  )
         5           O1  tau(   5) = (   4.5942328   1.4918067   9.2879030  )
         6           O1  tau(   6) = (   1.9868534   1.4903216   9.2879459  )
         7           Ti1 tau(   7) = (   3.2907910   2.8959150   9.1758416  )
         8           Ti1 tau(   8) = (   0.0015273   1.4827037   9.2680791  )
         9           O1  tau(   9) = (   3.2987819   5.9401718  11.3551833  )
        10           O1  tau(  10) = (   0.0116148   5.9584955  10.6183126  )
        11           O1  tau(  11) = (   1.3094369   1.4889762  12.6418845  )
        12           O1  tau(  12) = (   5.3041503   1.4933078  12.6143371  )
        13           Ti1 tau(  13) = (   0.0302489   2.9730182  12.5448133  )
        14           Ti1 tau(  14) = (   3.3273137   1.4751619  12.4920661  )
        15           O1  tau(  15) = (   6.5331299   0.0759724  14.6728253  )
        16           O1  tau(  16) = (   3.3443954   0.0128112  13.9985917  )
        17           O1  tau(  17) = (   4.5384157   1.5150964  16.2525342  )
        18           O1  tau(  18) = (   2.0107438   1.5096167  16.1239609  )
        19           Ti1 tau(  19) = (   3.2468703   2.9375149  15.6823127  )
        20           Ti1 tau(  20) = (   6.5402329   1.3810098  16.1103674  )
        21           O1  tau(  21) = (   3.2904802   0.0005063   4.7018136  )
        22           O1  tau(  22) = (   0.0855018   5.8309792  17.2460454  )
        23           O1  tau(  23) = (   1.3043587   1.4918075   6.0039043  )
        24           O1  tau(  24) = (   5.2767064   1.4903225   6.0039473  )
        25           Ti1 tau(  25) = (   0.0000382   5.9609847   6.0000000  )
        26           Ti1 tau(  26) = (   3.2902200   4.4714249   6.0002472  )
        27           O1  tau(  27) = (   0.0002396   2.9813036   7.9858123  )
        28           O1  tau(  28) = (   3.2902150   2.9813002   7.3038282  )
        29           O1  tau(  29) = (   4.5938453   4.4726049   9.2879030  )
        30           O1  tau(  30) = (   1.9864658   4.4711199   9.2879459  )
        31           Ti1 tau(  31) = (   3.2891106   5.8743827   9.1763621  )
        32           Ti1 tau(  32) = (   0.0006254   4.4649316   9.2693709  )
        33           O1  tau(  33) = (   3.2978634   2.9839445  11.3486163  )
        34           O1  tau(  34) = (   0.0092240   2.9805883  10.6323155  )
        35           O1  tau(  35) = (   1.3057425   4.4725738  12.6940039  )
        36           O1  tau(  36) = (   5.3035974   4.4670288  12.6562451  )
        37           Ti1 tau(  37) = (   0.0240142   0.0094741  12.5095027  )
        38           Ti1 tau(  38) = (   3.3290383   4.4615466  12.5202027  )
        39           O1  tau(  39) = (   6.5484913   2.9337383  14.8377676  )
        40           O1  tau(  40) = (   3.3243726   2.9440003  13.9069550  )
        41           O1  tau(  41) = (   4.5478640   4.3999133  16.1372545  )
        42           O1  tau(  42) = (   2.0209518   4.4226222  15.9786897  )
        43           Ti1 tau(  43) = (   3.3220059   5.9437776  15.8132296  )
        44           Ti1 tau(  44) = (   0.0730556   4.5544523  15.7304118  )
        45           O1  tau(  45) = (   3.2900926   2.9813045   4.7018136  )
        46           O1  tau(  46) = (   1.3039711   4.4726057   6.0039043  )
        47           O1  tau(  47) = (   5.2763189   4.4711207   6.0039473  )
        48           N1  tau(  48) = (   0.0453545   2.8788619  17.9090770  )
        49           C1  tau(  49) = (   1.0089482   2.8008358  18.8431878  )
        50           H1  tau(  50) = (   0.9980222   3.4413729  19.7168629  )
        51           H1  tau(  51) = (   1.8954070   2.2543435  18.5800802  )
        52           N1  tau(  52) = (   5.5320326   3.6725468  18.4365114  )
        53           H1  tau(  53) = (   5.8975581   4.6271042  18.6377988  )
        54           H1  tau(  54) = (   4.8553295   3.8628436  17.6443034  )
        55           H1  tau(  55) = (   5.1025442   3.2364756  19.2632064  )
        56           O1  tau(  56) = (   2.8928424   5.6518753  18.2681889  )
        57           H1  tau(  57) = (   3.0708471   0.5134993  18.7460362  )
        58           H1  tau(  58) = (   1.9180978   5.6479514  18.1114729  )

     number of k points=    10  Fermi-Dirac smearing, width (Ry)=  0.0073
                       cart. coord. in units 2pi/alat
        k(    1) = (   0.0000000   0.0000000   0.0000000), wk =   0.1250000
        k(    2) = (   0.0000000   0.0419351   0.0000000), wk =   0.2500000
        k(    3) = (   0.0000000  -0.0838702   0.0000000), wk =   0.1250000
        k(    4) = (   0.0379955   0.0000049   0.0000000), wk =   0.2500000
        k(    5) = (   0.0379955   0.0419400   0.0000000), wk =   0.2500000
        k(    6) = (   0.0379955  -0.0838652   0.0000000), wk =   0.2500000
        k(    7) = (   0.0379955  -0.0419301   0.0000000), wk =   0.2500000
        k(    8) = (  -0.0759910  -0.0000099   0.0000000), wk =   0.1250000
        k(    9) = (  -0.0759910   0.0419252   0.0000000), wk =   0.2500000
        k(   10) = (  -0.0759910  -0.0838800   0.0000000), wk =   0.1250000

     Initial potential from superposition of free atoms

     starting charge  388.99913, renormalised to  405.00000

     negative rho (up, down):  1.580E-02 0.000E+00

     %%%%%%%%%%%%%%%%%%%%%%%%%%%%%%%%%%%%%%%%%%%%%%%%%%%%%%%%%%%%%%%%%%%%%%%%
     %                                                                      %
     % You are using vdW-DF, which was implemented by the Thonhauser group. %
     % Please cite the following two papers that made this development      %
     % possible and the two reviews that describe the various versions:     %
     %                                                                      %
     %   T. Thonhauser et al., PRL 115, 136402 (2015).                      %
     %   T. Thonhauser et al., PRB 76, 125112 (2007).                       %
     %   K. Berland et al., Rep. Prog. Phys. 78, 066501 (2015).             %
     %   D.C. Langreth et al., J. Phys.: Condens. Matter 21, 084203 (2009). %
     %                                                                      %
     %                                                                      %
     % If you are calculating the stress with vdW-DF, please also cite:     %
     %                                                                      %
     %   R. Sabatini et al., J. Phys.: Condens. Matter 24, 424209 (2012).   %
     %                                                                      %
     %%%%%%%%%%%%%%%%%%%%%%%%%%%%%%%%%%%%%%%%%%%%%%%%%%%%%%%%%%%%%%%%%%%%%%%%

     Adding external electric field

     Computed dipole along edir(3) :
        Dipole              -14.4816 Ry au,        -36.8086 Debye
        Dipole field         -0.0273 Ry au,

        Potential amp.        2.5333 Ry
        Total length         46.3494 bohr

     Starting wfcs are  307 atomic wfcs
  @ DRIVER MODE: Message from server: STATUS
  @ DRIVER MODE: Message from server: POSDATA
  @ DRIVER MODE: Reading and sharing cell
  @ DRIVER MODE: Reading and sharing positions
  @ DRIVER MODE: Received positions

     Self-consistent Calculation

     iteration #  1     ecut=    29.40 Ry     beta= 0.05
     Davidson diagonalization with overlap
     c_bands:  2 eigenvalues not converged
     c_bands:  5 eigenvalues not converged
     c_bands:  1 eigenvalues not converged
     c_bands:  3 eigenvalues not converged
     c_bands:  3 eigenvalues not converged
     c_bands:  4 eigenvalues not converged
     ethr =  1.00E-05,  avg # of iterations = 27.0

[...]

     total energy              =   -2173.26035214 Ry
     estimated scf accuracy    <    9121.39552320 Ry

     iteration #  2     ecut=    29.40 Ry     beta= 0.05
     Davidson diagonalization with overlap
     ethr =  1.00E-02,  avg # of iterations = 27.8

[...]

     iteration # 68     ecut=    29.40 Ry     beta= 0.05
     Davidson diagonalization with overlap
     c_bands:  1 eigenvalues not converged
     ethr =  6.75E-11,  avg # of iterations = 14.8

[...]

     total energy              =   -2976.32716897 Ry
     estimated scf accuracy    <       0.00000014 Ry

     iteration # 72     ecut=    29.40 Ry     beta= 0.05
     Davidson diagonalization with overlap
     ethr =  3.35E-11,  avg # of iterations = 11.2

     negative rho (up, down):  1.316E-02 0.000E+00

     Adding external electric field

     Computed dipole along edir(3) :
        Dipole                1.3398 Ry au,          3.4055 Debye
        Dipole field          0.0025 Ry au,

        Potential amp.       -0.2344 Ry
        Total length         46.3494 bohr

     End of self-consistent calculation

          k = 0.0000 0.0000 0.0000 ( 18029 PWs)   bands (ev):

   -55.1711 -55.1418 -55.1301 -55.1077 -55.0915 -55.0483 -55.0074 -54.9809
   -54.9699 -54.9547 -54.9453 -54.9371 -54.8712 -54.7247 -54.1536 -54.1196
   -31.7378 -31.6316 -31.5357 -31.5020 -31.4807 -31.4731 -31.4700 -31.4316
   -31.4086 -31.3868 -31.3809 -31.3786 -31.3666 -31.3454 -31.3189 -31.3160
   -31.3061 -31.2945 -31.2888 -31.2840 -31.2531 -31.2360 -31.2295 -31.2100
   -31.1987 -31.1810 -31.1792 -31.1784 -31.1692 -31.1667 -31.1502 -31.1410
   -31.1309 -31.1297 -31.1077 -31.1001 -31.0961 -31.0784 -31.0526 -31.0165
   -31.0014 -30.8704 -30.5620 -30.4701 -30.4479 -30.3787 -30.2920 -30.1809
   -19.0915 -18.8010 -16.0081 -15.7504 -15.6231 -15.4456 -15.3657 -15.2121
   -15.1421 -15.0596 -15.0324 -14.9678 -14.9295 -14.8987 -14.7859 -14.7786
   -14.7055 -14.7050 -14.6966 -14.6643 -14.6605 -14.6568 -14.6004 -14.5976
   -14.5582 -14.5470 -14.5347 -14.3928 -14.3177 -14.2607 -14.0916 -13.9758
   -12.6558 -12.5387  -9.0022  -7.6892  -6.9473  -6.5506  -5.7575  -3.8152
    -3.3461  -3.2141  -3.1747  -3.1149  -3.0711  -2.9875  -2.8940  -2.7725
    -2.5540  -2.4777  -2.4369  -2.3877  -2.3795  -2.3326  -2.2442  -2.1602
    -2.1276  -2.0920  -2.0426  -2.0272  -1.9860  -1.9598  -1.9405  -1.8992
    -1.8906  -1.7437  -1.6839  -1.6286  -1.5799  -1.5598  -1.5580  -1.5011
    -1.4871  -1.4654  -1.4626  -1.4522  -1.4218  -1.3850  -1.3807  -1.3271
    -1.2896  -1.1636  -1.0897  -0.9741  -0.9154  -0.8836  -0.7996  -0.7311
    -0.7148  -0.6426  -0.5786  -0.5589  -0.5016  -0.4644  -0.3737  -0.3398
    -0.2904  -0.2640  -0.1556  -0.1426  -0.1269  -0.0562   0.0333   0.0421
     0.0663   0.1115   0.1959   0.2308   0.2845   0.3109   0.4108   0.4420
     0.4840   0.5018   0.5271   0.6085   0.6795   0.7166   0.7774   0.7867
     0.8215   0.8265   0.8495   0.9438   0.9745   0.9793   1.0273   1.1942
     1.2512   1.4509   1.4527   1.7833   1.8187   1.8694   2.0557   2.4433
     2.4905   3.9281   3.9942   4.0429   4.0598   4.0782   4.1363   4.1707
     4.3984   4.4214   4.4355   4.4489

[...]

          k = 0.0380-0.0419 0.0000 ( 17876 PWs)   bands (ev):

[...]

          k =-0.0760-0.0000 0.0000 ( 17886 PWs)   bands (ev):

[...]

          k =-0.0760-0.0839 0.0000 ( 17948 PWs)   bands (ev):

   -55.1603 -55.1407 -55.1247 -55.1247 -55.0893 -55.0390 -55.0167 -54.9653
   -54.9596 -54.9567 -54.9549 -54.9531 -54.8695 -54.7264 -54.1365 -54.1365
   -31.5488 -31.5340 -31.4468 -31.4466 -31.4465 -31.4370 -31.4171 -31.4170
   -31.3826 -31.3771 -31.3676 -31.3658 -31.3356 -31.3074 -31.3000 -31.2979
   -31.2953 -31.2917 -31.2892 -31.2844 -31.2753 -31.2616 -31.2474 -31.2440
   -31.2440 -31.2419 -31.2394 -31.2134 -31.1985 -31.1905 -31.1795 -31.1750
   -31.1746 -31.1740 -31.1551 -31.1541 -31.1348 -31.1324 -31.0707 -31.0087
   -31.0051 -30.9444 -30.4606 -30.4606 -30.3747 -30.3745 -30.3354 -30.3353
   -19.0840 -18.8040 -15.5100 -15.3738 -15.3350 -15.2449 -15.1630 -15.1468
   -15.1391 -15.1050 -15.0527 -14.9930 -14.9481 -14.9133 -14.8725 -14.8710
   -14.8582 -14.7579 -14.7467 -14.7393 -14.7224 -14.6741 -14.6644 -14.6476
   -14.6223 -14.6207 -14.5955 -14.5149 -14.5139 -14.4156 -14.3105 -14.0385
   -12.6403 -12.6402  -8.9898  -7.7049  -6.9038  -6.5402  -5.7716  -3.8971
    -3.0074  -2.7678  -2.5731  -2.5451  -2.4261  -2.3743  -2.3283  -2.3073
    -2.2205  -2.1802  -2.1635  -2.1578  -2.1380  -2.0813  -2.0595  -2.0203
    -2.0004  -1.9863  -1.9778  -1.9534  -1.9486  -1.9170  -1.9009  -1.8821
    -1.8762  -1.8397  -1.8008  -1.7898  -1.7521  -1.7318  -1.7232  -1.6660
    -1.5667  -1.5336  -1.4898  -1.4242  -1.3608  -1.3571  -1.2889  -1.2680
    -1.2491  -1.2307  -1.1950  -1.1829  -1.0710  -1.0135  -0.9089  -0.8961
    -0.8903  -0.7861  -0.7513  -0.7099  -0.6795  -0.6424  -0.5867  -0.5081
    -0.5015  -0.4258  -0.3885  -0.3769  -0.3581  -0.2183  -0.1864  -0.1534
    -0.1292  -0.1246  -0.0710  -0.0277   0.0026   0.0400   0.0671   0.0999
     0.1161   0.1919   0.3288   0.3609   0.4027   0.5353   0.5630   0.6778
     0.7038   0.8240   0.8976   0.9421   0.9625   1.0402   1.1171   1.1389
     1.1447   1.2554   1.3062   1.3083   1.3256   2.2282   2.2297   2.3105
     2.3107   3.7818   4.0737   4.1988   4.2155   4.2563   4.3802   4.4455
     4.4807   4.5029   4.5058   4.5883

     the Fermi energy is     3.9769 ev

!    total energy              =   -2976.32719148 Ry
     estimated scf accuracy    <       0.00000004 Ry
     smearing contrib. (-TS)   =      -0.04070851 Ry
     internal energy E=F+TS    =   -2976.28648297 Ry

     The total energy is F=E-TS. E is the sum of the following terms:
     one-electron contribution =  -23820.72774706 Ry
     hartree contribution      =   12009.22052582 Ry
     xc contribution           =    -495.75872416 Ry
     ewald contribution        =    9330.97607478 Ry
     electric field correction =       0.00338765 Ry

     convergence has been achieved in  72 iterations

     Forces acting on atoms (cartesian axes, Ry/au):

     atom    1 type  1   force =     0.00015349   -0.00020129    0.09424371
     atom    2 type  1   force =    -0.00011264   -0.00035305   -0.17725271
     atom    3 type  2   force =     0.00008496    0.00003561   -0.02131948
     atom    4 type  2   force =     0.00001907   -0.00174316    0.05668178
     atom    5 type  2   force =    -0.01043247   -0.00127914    0.00673035
     atom    6 type  2   force =     0.01219108   -0.00072274    0.00624372
     atom    7 type  1   force =    -0.00028385    0.00287784   -0.01266017
     atom    8 type  1   force =    -0.00014558    0.00438350    0.00453499
     atom    9 type  2   force =    -0.00036343    0.00008483    0.00074421
     atom   10 type  2   force =    -0.00008370   -0.00089364   -0.00642261
     atom   11 type  2   force =    -0.00041511   -0.00031858    0.00006051
     atom   12 type  2   force =    -0.00032106   -0.00041380    0.00014812
     atom   13 type  1   force =    -0.00035120   -0.00016805   -0.00034288
     atom   14 type  1   force =     0.00003542   -0.00043008   -0.00035661
     atom   15 type  2   force =    -0.00019474   -0.00011278    0.00006781
     atom   16 type  2   force =    -0.00065669    0.00023371   -0.00030549
     atom   17 type  2   force =    -0.00012644    0.00005641    0.00020842
     atom   18 type  2   force =     0.00033640   -0.00006892    0.00038986
     atom   19 type  1   force =     0.00026215   -0.00097067   -0.00001599
     atom   20 type  1   force =     0.00018388   -0.00017998    0.00062500
     atom   21 type  2   force =     0.00004737    0.00001646    0.10365355
     atom   22 type  2   force =    -0.00031284    0.00015086    0.00060281
     atom   23 type  2   force =    -0.07081836   -0.00011013   -0.02716028
     atom   24 type  2   force =     0.07071754    0.00032836   -0.02718976
     atom   25 type  1   force =    -0.00006669   -0.00022700    0.09367224
     atom   26 type  1   force =    -0.00013127   -0.00042628   -0.17738324
     atom   27 type  2   force =     0.00014869   -0.00039141   -0.02027630
     atom   28 type  2   force =     0.00005397   -0.00137945    0.05583130
     atom   29 type  2   force =    -0.01029696   -0.00029863    0.00538422
     atom   30 type  2   force =     0.01196857    0.00009905    0.00502257
     atom   31 type  1   force =    -0.00017397    0.00358684   -0.01532772
     atom   32 type  1   force =    -0.00018723   -0.00484861    0.00438198
     atom   33 type  2   force =    -0.00006650   -0.00016652    0.00030732
     atom   34 type  2   force =     0.00120477    0.00258946   -0.00431284
     atom   35 type  2   force =    -0.00070108   -0.00017371    0.00017542
     atom   36 type  2   force =    -0.00002140   -0.00004143    0.00045171
     atom   37 type  1   force =     0.00038571    0.00041379   -0.00032202
     atom   38 type  1   force =    -0.00000332    0.00051997   -0.00159077
     atom   39 type  2   force =     0.00027098   -0.00047019   -0.00018875
     atom   40 type  2   force =     0.00004710    0.00005143    0.00059463
     atom   41 type  2   force =    -0.00020322   -0.00027476   -0.00012895
     atom   42 type  2   force =     0.00046554   -0.00035307    0.00006910
     atom   43 type  1   force =    -0.00065234    0.00067739    0.00058489
     atom   44 type  1   force =    -0.00009115    0.00005259   -0.00009205
     atom   45 type  2   force =     0.00004073   -0.00002483    0.10365715
     atom   46 type  2   force =    -0.07085422   -0.00006375   -0.02715952
     atom   47 type  2   force =     0.07074886    0.00033921   -0.02718937
     atom   48 type  3   force =     0.00022257   -0.00004620   -0.00103467
     atom   49 type  4   force =    -0.00110794    0.00027306    0.00048766
     atom   50 type  5   force =     0.00294437   -0.00085112    0.00002636
     atom   51 type  5   force =    -0.00067835    0.00118923    0.00016725
     atom   52 type  3   force =     0.00071313   -0.00030767    0.00007440
     atom   53 type  5   force =    -0.00132707   -0.00005353    0.00035075
     atom   54 type  5   force =     0.00023643   -0.00037365    0.00049582
     atom   55 type  5   force =    -0.00066062   -0.00003783    0.00021865
     atom   56 type  2   force =    -0.00029429    0.00128874   -0.00053079
     atom   57 type  5   force =    -0.00024785   -0.00079805    0.00038715
     atom   58 type  5   force =    -0.00109922    0.00032536    0.00128757

     Total force =     0.365343     Total SCF correction =     0.000704
  @ DRIVER MODE: Message from server: STATUS
  @ DRIVER MODE: Message from server: GETFORCE
  @ DRIVER MODE: Returning v,forces,stress,ensemble

     Writing output data file ./calc.save/
  @ DRIVER MODE: Message from server: EXIT
  @ DRIVE MODE: Exiting

     General routines

     Parallel routines

   This run was terminated on:  20:27:21  15Sep2021

   JOB DONE.