     Program PWSCF v.6.7GPU starts on 18Oct2021 at 20: 8:53

     R & G space division:  proc/nbgrp/npool/nimage =       8
     Reading input from /storage/home/hcoda1/3/ntian30/research/carbon/CxH_vib/Thiel_calc/ads_slab/NH2NH3H_perslab/out_0018/pw.inp
Warning: card &CELL ignored
Warning: card   CELL_DYNAMICS='IPI', ignored
Warning: card / ignored

     Current dimensions of program PWSCF are:
     Max number of different atomic species (ntypx) = 10
     Max number of k-points (npk) =  40000
     Max angular momentum in pseudopotentials (lmaxx) =  3
     Presently no symmetry can be used with electric field

     Message from routine cell_base_init:
     DEPRECATED: use true lattice parameter, not A to a.u. conversion factor

     IMPORTANT: XC functional enforced from input :
     Exchange-correlation= BEEF-VDW
                           (   1   4  43  14   2   0   0)
     Any further DFT definition will be discarded
     Please, verify this is what you really want

  @ DRIVER MODE: Connecting to
 qe_1139763_3255138.sched-torque.pace.gatech.eduz1r7wsj1_scratch
  using UNIX socket
  @ DRIVER MODE: Message from server: STATUS
  @ DRIVER MODE: Message from server: INIT
  @ DRIVER MODE: Receiving replica           0          -1
  @ DRIVER MODE: Receiving encoded integer          25
  @ DRIVER MODE:  SCF:  T  FORCE:  T  STRESS:  F  VC:  F  ENSEMBLE:  F
  @ DRIVER MODE:  SCF:  T  FORCE:  T  STRESS:  F  VC:  F  ENSEMBLE:  F

     Using Slab Decomposition

     bravais-lattice index     =            0
     lattice parameter (alat)  =       1.8897  a.u.
     unit-cell volume          =    9988.4706 (a.u.)^3
     number of atoms/cell      =           61
     number of atomic types    =            4
     number of electrons       =       442.00
     number of Kohn-Sham states=          231
     kinetic-energy cutoff     =      29.3995  Ry
     charge density cutoff     =     293.9946  Ry
     scf convergence threshold =      7.3E-08
     mixing beta               =       0.0500
     number of iterations used =            8  plain     mixing
     Exchange-correlation= BEEF-VDW
                           (   1   4  43  14   2   0   0)

     celldm(1)=   1.889726  celldm(2)=   0.000000  celldm(3)=   0.000000
     celldm(4)=   0.000000  celldm(5)=   0.000000  celldm(6)=   0.000000

     crystal axes: (cart. coord. in units of alat)
               a(1) = (   6.579727   0.000000   0.000000 )
               a(2) = (  -0.001163   8.942395   0.000000 )
               a(3) = (   0.000000   0.000000  25.155947 )

     reciprocal axes: (cart. coord. in units 2 pi/alat)
               b(1) = (  0.151982  0.000020  0.000000 )
               b(2) = (  0.000000  0.111827  0.000000 )
               b(3) = (  0.000000  0.000000  0.039752 )

     PseudoPot. # 1 for O  read from file:
     /storage/coda1/p-amedford6/0/shared/rich_project_chbe-medford/medford-share/data/pseudos_module/espresso/nninc/pbe/van/O.UPF
     MD5 check sum: 78c19812648e8988a0fe644b0f25305e
     Pseudo is Ultrasoft, Zval =  6.0
     Generated by new atomic code, or converted to UPF format
     Using radial grid of  737 points,  4 beta functions with:
                l(1) =   0
                l(2) =   0
                l(3) =   1
                l(4) =   1
     Q(r) pseudized with  8 coefficients,  rinner =    0.800   0.800   0.800

     PseudoPot. # 2 for Ti read from file:
     /storage/coda1/p-amedford6/0/shared/rich_project_chbe-medford/medford-share/data/pseudos_module/espresso/nninc/pbe/van/Ti.UPF
     MD5 check sum: 8e4df49b7f0d34bbd5052bf3f5ea0213
     Pseudo is Ultrasoft, Zval = 12.0
     Generated by new atomic code, or converted to UPF format
     Using radial grid of  851 points,  6 beta functions with:
                l(1) =   0
                l(2) =   0
                l(3) =   1
                l(4) =   1
                l(5) =   2
                l(6) =   2
     Q(r) pseudized with  8 coefficients,  rinner =    1.000   1.000   1.000
                                                       1.000   1.000

     PseudoPot. # 3 for N  read from file:
     /storage/coda1/p-amedford6/0/shared/rich_project_chbe-medford/medford-share/data/pseudos_module/espresso/nninc/pbe/van/N.UPF
     MD5 check sum: 90d10febe142ad51ac9d5be1deb811c4
     Pseudo is Ultrasoft, Zval =  5.0
     Generated by new atomic code, or converted to UPF format
     Using radial grid of  729 points,  4 beta functions with:
                l(1) =   0
                l(2) =   0
                l(3) =   1
                l(4) =   1
     Q(r) pseudized with  8 coefficients,  rinner =    0.800   0.800   0.800

     PseudoPot. # 4 for H  read from file:
     /storage/coda1/p-amedford6/0/shared/rich_project_chbe-medford/medford-share/data/pseudos_module/espresso/nninc/pbe/van/H.UPF
     MD5 check sum: b5ee9d7bfd3a09ee7748110bda690ff7
     Pseudo is Ultrasoft, Zval =  1.0
     Generated by new atomic code, or converted to UPF format
     Using radial grid of  615 points,  1 beta functions with:
                l(1) =   0
     Q(r) pseudized with  8 coefficients,  rinner =    0.800

     atomic species   valence    mass     pseudopotential
        O1             6.00    15.99900     O ( 1.00)
        Ti1           12.00    47.86700     Ti( 1.00)
        N1             5.00    14.00700     N ( 1.00)
        H1             1.00     1.00800     H ( 1.00)

     No symmetry found

   Cartesian axes

     site n.     atom                  positions (alat units)
         1           O1  tau(   1) = (   0.0007354   0.0005023  10.5931620  )
         2           O1  tau(   2) = (   3.2893251   8.9324977  13.8850595  )
         3           O1  tau(   3) = (   0.0000810   0.0519898  17.3357851  )
         4           O1  tau(   4) = (   0.0006271   0.0005054   7.9858123  )
         5           O1  tau(   5) = (   3.2891750   8.9291278  11.1853435  )
         6           O1  tau(   6) = (   0.0004222   0.0485762  14.6167438  )
         7           O1  tau(   7) = (   1.9868534   1.4903216   9.2879459  )
         8           O1  tau(   8) = (   5.2393499   1.5905449  12.5682489  )
         9           O1  tau(   9) = (   1.9991366   1.5492019  16.1124644  )
        10           Ti1 tau(  10) = (   0.0007404   1.4906270   9.2895810  )
        11           Ti1 tau(  11) = (   3.2902999   1.3249318  12.4520864  )
        12           Ti1 tau(  12) = (   0.0005939   1.3452645  15.7597600  )
        13           O1  tau(  13) = (   4.5942328   1.4918067   9.2879030  )
        14           O1  tau(  14) = (   1.3411764   1.5910169  12.5684512  )
        15           O1  tau(  15) = (   4.5798538   1.5480364  16.1129854  )
        16           Ti1 tau(  16) = (   3.2902859   2.9801868   9.2893338  )
        17           Ti1 tau(  17) = (   0.0006295   2.8174385  12.4372122  )
        18           Ti1 tau(  18) = (   3.2897038   2.9127836  15.6935398  )
        19           O1  tau(  19) = (   0.0003479   2.9813005  10.5931620  )
        20           O1  tau(  20) = (   3.2904107   2.9319293  13.8952334  )
        21           O1  tau(  21) = (   0.0002396   2.9813036   7.9858123  )
        22           O1  tau(  22) = (   3.2903884   2.9732875  11.2024877  )
        23           O1  tau(  23) = (   6.5791771   2.9400465  14.7470945  )
        24           O1  tau(  24) = (   1.9864658   4.4711199   9.2879459  )
        25           O1  tau(  25) = (   5.2507180   4.5586503  12.6053682  )
        26           O1  tau(  26) = (   1.9989508   4.4013585  16.0758979  )
        27           Ti1 tau(  27) = (   0.0003529   4.4714252   9.2895810  )
        28           Ti1 tau(  28) = (   3.2908498   4.3294621  12.5515864  )
        29           Ti1 tau(  29) = (   0.0012874   4.5361023  15.7587160  )
        30           O1  tau(  30) = (   4.5938453   4.4726049   9.2879030  )
        31           O1  tau(  31) = (   1.3295807   4.5581274  12.6051842  )
        32           O1  tau(  32) = (   4.5807093   4.4011557  16.0767203  )
        33           Ti1 tau(  33) = (   3.2898983   5.9609850   9.2893338  )
        34           Ti1 tau(  34) = (   0.0011720   5.8030845  12.4395124  )
        35           Ti1 tau(  35) = (   3.2913837   5.8399099  16.1904745  )
        36           O1  tau(  36) = (  -0.0000397   5.9620987  10.5931620  )
        37           O1  tau(  37) = (   3.2897076   5.9457256  13.9643012  )
        38           O1  tau(  38) = (   0.0001823   5.8979554  17.1998916  )
        39           O1  tau(  39) = (  -0.0001480   5.9621018   7.9858123  )
        40           O1  tau(  40) = (   3.2897623   5.9362706  11.2341171  )
        41           O1  tau(  41) = (   0.0004469   5.9800359  14.6665197  )
        42           O1  tau(  42) = (   1.9860782   7.4519181   9.2879459  )
        43           O1  tau(  43) = (   5.2507221   7.5245448  12.5933772  )
        44           O1  tau(  44) = (   1.9799843   7.5745874  16.0532815  )
        45           Ti1 tau(  45) = (  -0.0000347   7.4522234   9.2895810  )
        46           Ti1 tau(  46) = (   3.2894177   7.1911746  12.6495270  )
        47           Ti1 tau(  47) = (   0.0007314   7.2822180  16.1322395  )
        48           O1  tau(  48) = (   4.5934577   7.4534031   9.2879030  )
        49           O1  tau(  49) = (   1.3275845   7.5244469  12.5935105  )
        50           O1  tau(  50) = (   4.5990354   7.5728923  16.0522427  )
        51           Ti1 tau(  51) = (   3.2895107   8.9417832   9.2893338  )
        52           Ti1 tau(  52) = (  -0.0007012   8.7603021  12.4499776  )
        53           Ti1 tau(  53) = (   3.2901857   8.8509785  15.6953962  )
        54           N1  tau(  54) = (   3.2899770   5.9827455  18.1265562  )
        55           H1  tau(  55) = (   3.2886311   5.2071789  18.7771882  )
        56           H1  tau(  56) = (   3.2869209   6.8541504  18.6518389  )
        57           H1  tau(  57) = (   6.5771076   8.8877891  18.2917622  )
        58           N1  tau(  58) = (   6.5788838   3.2021548  17.9140464  )
        59           H1  tau(  59) = (   6.5785461   2.2502248  18.2648563  )
        60           H1  tau(  60) = (   5.7591345   3.6762813  18.2792932  )
        61           H1  tau(  61) = (   0.8178175   3.6764091  18.2810048  )

     number of k points=    10  Fermi-Dirac smearing, width (Ry)=  0.0073
                       cart. coord. in units 2pi/alat
        k(    1) = (   0.0000000   0.0000000   0.0000000), wk =   0.1250000
        k(    2) = (   0.0000000   0.0279567   0.0000000), wk =   0.2500000
        k(    3) = (   0.0000000  -0.0559134   0.0000000), wk =   0.1250000
        k(    4) = (   0.0379955   0.0000049   0.0000000), wk =   0.2500000
        k(    5) = (   0.0379955   0.0279617   0.0000000), wk =   0.2500000
        k(    6) = (   0.0379955  -0.0559085   0.0000000), wk =   0.2500000
        k(    7) = (   0.0379955  -0.0279518   0.0000000), wk =   0.2500000
        k(    8) = (  -0.0759910  -0.0000099   0.0000000), wk =   0.1250000
        k(    9) = (  -0.0759910   0.0279468   0.0000000), wk =   0.2500000
        k(   10) = (  -0.0759910  -0.0559233   0.0000000), wk =   0.1250000

     Initial potential from superposition of free atoms

     starting charge  423.99908, renormalised to  442.00000

     negative rho (up, down):  3.660E-02 0.000E+00

     %%%%%%%%%%%%%%%%%%%%%%%%%%%%%%%%%%%%%%%%%%%%%%%%%%%%%%%%%%%%%%%%%%%%%%%%
     %                                                                      %
     % You are using vdW-DF, which was implemented by the Thonhauser group. %
     % Please cite the following two papers that made this development      %
     % possible and the two reviews that describe the various versions:     %
     %                                                                      %
     %   T. Thonhauser et al., PRL 115, 136402 (2015).                      %
     %   T. Thonhauser et al., PRB 76, 125112 (2007).                       %
     %   K. Berland et al., Rep. Prog. Phys. 78, 066501 (2015).             %
     %   D.C. Langreth et al., J. Phys.: Condens. Matter 21, 084203 (2009). %
     %                                                                      %
     %                                                                      %
     % If you are calculating the stress with vdW-DF, please also cite:     %
     %                                                                      %
     %   R. Sabatini et al., J. Phys.: Condens. Matter 24, 424209 (2012).   %
     %                                                                      %
     %%%%%%%%%%%%%%%%%%%%%%%%%%%%%%%%%%%%%%%%%%%%%%%%%%%%%%%%%%%%%%%%%%%%%%%%

     Adding external electric field

     Computed dipole along edir(3) :
        Dipole               -6.2851 Ry au,        -15.9752 Debye
        Dipole field         -0.0079 Ry au,

        Potential amp.        0.7330 Ry
        Total length         46.3494 bohr

     Starting wfcs are  334 atomic wfcs
  @ DRIVER MODE: Message from server: STATUS
  @ DRIVER MODE: Message from server: POSDATA
  @ DRIVER MODE: Reading and sharing cell
  @ DRIVER MODE: Reading and sharing positions
  @ DRIVER MODE: Received positions

     Self-consistent Calculation

     iteration #  1     ecut=    29.40 Ry     beta= 0.05
     Davidson diagonalization with overlap
     c_bands:  2 eigenvalues not converged
     c_bands:  4 eigenvalues not converged
     c_bands:  3 eigenvalues not converged
     c_bands:  4 eigenvalues not converged
     c_bands:  5 eigenvalues not converged
     c_bands:  4 eigenvalues not converged
     c_bands:  2 eigenvalues not converged
     c_bands:  2 eigenvalues not converged
     ethr =  1.00E-05,  avg # of iterations = 21.4

[...]

     total energy              =   -3276.11047855 Ry
     estimated scf accuracy    <     260.24803043 Ry

     iteration #  2     ecut=    29.40 Ry     beta= 0.05
     Davidson diagonalization with overlap
     ethr =  1.00E-02,  avg # of iterations = 14.8

[...]

     iteration # 47     ecut=    29.40 Ry     beta= 0.05
     Davidson diagonalization with overlap
     c_bands:  1 eigenvalues not converged
     ethr =  7.87E-11,  avg # of iterations = 16.1

[...]

     total energy              =   -3295.82439300 Ry
     estimated scf accuracy    <       0.00000010 Ry

     iteration # 52     ecut=    29.40 Ry     beta= 0.05
     Davidson diagonalization with overlap
     ethr =  2.27E-11,  avg # of iterations = 11.7

     negative rho (up, down):  3.544E-02 0.000E+00

     Adding external electric field

     Computed dipole along edir(3) :
        Dipole                1.9343 Ry au,          4.9165 Debye
        Dipole field          0.0024 Ry au,

        Potential amp.       -0.2256 Ry
        Total length         46.3494 bohr

     End of self-consistent calculation

          k = 0.0000 0.0000 0.0000 ( 26871 PWs)   bands (ev):

   -57.4683 -57.4329 -57.4202 -57.3808 -57.3718 -57.3639 -57.3533 -57.3421
   -57.3215 -57.2826 -57.2762 -57.2395 -57.2181 -57.2014 -57.1819 -56.5420
   -56.5177 -56.5117 -33.9389 -33.8523 -33.8519 -33.8291 -33.8094 -33.7918
   -33.7739 -33.7701 -33.7665 -33.7531 -33.7278 -33.7068 -33.7020 -33.6872
   -33.6854 -33.6808 -33.6602 -33.6514 -33.6297 -33.6244 -33.5927 -33.5783
   -33.5605 -33.5564 -33.5489 -33.5477 -33.5440 -33.5365 -33.5249 -33.5220
   -33.5148 -33.5005 -33.4920 -33.4912 -33.4843 -33.4827 -33.4738 -33.4721
   -33.4640 -33.4531 -33.4413 -33.4244 -33.4087 -33.4023 -33.3876 -32.8607
   -32.8525 -32.8515 -32.8348 -32.8294 -32.7700 -32.7088 -32.7014 -32.5698
   -19.3423 -18.2725 -17.9730 -17.7755 -17.7256 -17.6920 -17.5762 -17.5482
   -17.4955 -17.4418 -17.4052 -17.3617 -17.2875 -17.2471 -17.2454 -17.2211
   -17.1673 -17.1434 -17.1353 -17.1252 -17.1234 -17.0987 -17.0491 -17.0447
   -16.9887 -16.9474 -16.9156 -16.9052 -16.8968 -16.8642 -16.8563 -16.8038
   -16.6048 -15.0085 -15.0077 -14.9490 -14.9455  -7.8643  -7.6266  -7.3893
    -6.4213  -5.5811  -5.4291  -5.3980  -5.2344  -4.9630  -4.9112  -4.8679
    -4.8216  -4.7842  -4.7457  -4.7227  -4.6934  -4.6621  -4.6102  -4.5797
    -4.5632  -4.5296  -4.5097  -4.4788  -4.4491  -4.4435  -4.4142  -4.3254
    -4.3161  -4.2924  -4.2746  -4.2392  -4.2207  -4.2180  -4.1692  -4.1575
    -4.0687  -3.9864  -3.8969  -3.8433  -3.8180  -3.7939  -3.7466  -3.7092
    -3.6820  -3.6356  -3.6160  -3.5474  -3.5201  -3.5085  -3.4326  -3.3978
    -3.3025  -3.2641  -3.2526  -3.2318  -3.1893  -3.1779  -3.0938  -3.0824
    -2.9739  -2.9543  -2.8641  -2.7909  -2.7411  -2.7134  -2.6755  -2.6136
    -2.5943  -2.5494  -2.5209  -2.4603  -2.4466  -2.3204  -2.2527  -2.2492
    -2.2292  -2.1907  -2.1613  -2.1475  -2.1249  -2.1217  -2.0434  -2.0345
    -1.9848  -1.9096  -1.8835  -1.8472  -1.8344  -1.7993  -1.7568  -1.6922
    -1.6866  -1.6510  -1.5630  -1.5023  -1.5012  -1.3551  -1.3491  -1.3155
    -1.2670  -1.2135  -1.1830  -0.7806  -0.6048  -0.4337  -0.3093  -0.2486
    -0.2472   0.0275   0.0325   0.1649   1.6138   1.7649   1.8254   1.9593
     1.9778   2.0369   2.1185   2.1407   2.2074   2.2351   2.2437

[...]

          k = 0.0380-0.0280 0.0000 ( 26873 PWs)   bands (ev):

[...]

          k =-0.0760-0.0000 0.0000 ( 26902 PWs)   bands (ev):

[...]

          k =-0.0760-0.0559 0.0000 ( 26868 PWs)   bands (ev):

   -57.4667 -57.4375 -57.4172 -57.3783 -57.3675 -57.3658 -57.3619 -57.3386
   -57.3210 -57.2823 -57.2765 -57.2357 -57.2248 -57.1985 -57.1819 -56.5368
   -56.5287 -56.5059 -33.9838 -33.9349 -33.8632 -33.8188 -33.8030 -33.7906
   -33.7837 -33.7758 -33.7654 -33.7439 -33.7150 -33.6967 -33.6592 -33.6573
   -33.6373 -33.6241 -33.6093 -33.5958 -33.5948 -33.5902 -33.5857 -33.5765
   -33.5724 -33.5655 -33.5633 -33.5508 -33.5424 -33.5277 -33.5221 -33.5200
   -33.5158 -33.5150 -33.5113 -33.5082 -33.5060 -33.4951 -33.4883 -33.4843
   -33.4815 -33.4746 -33.4469 -33.4408 -33.4354 -33.4236 -33.3994 -32.9481
   -32.8533 -32.8452 -32.8235 -32.7528 -32.7441 -32.6837 -32.6706 -32.6629
   -19.3357 -17.9698 -17.8310 -17.8252 -17.6479 -17.6030 -17.6000 -17.5302
   -17.4843 -17.4387 -17.4347 -17.4029 -17.3541 -17.3299 -17.3007 -17.2749
   -17.2591 -17.2241 -17.1828 -17.1818 -17.1481 -17.1146 -17.0883 -17.0461
   -17.0396 -16.9850 -16.9209 -16.8838 -16.8594 -16.8569 -16.8202 -16.7955
   -16.6380 -15.0089 -15.0058 -15.0015 -14.8856  -7.8723  -7.6442  -7.3784
    -6.4128  -5.2155  -5.1780  -5.1323  -5.0392  -5.0015  -4.9696  -4.8338
    -4.7734  -4.7319  -4.6865  -4.6441  -4.6363  -4.6221  -4.5665  -4.5489
    -4.5333  -4.4874  -4.4465  -4.4260  -4.4034  -4.4020  -4.3984  -4.3952
    -4.2641  -4.2511  -4.1987  -4.1784  -4.1561  -4.1332  -4.1302  -4.0764
    -4.0344  -3.9977  -3.9811  -3.9555  -3.8953  -3.8362  -3.7554  -3.6582
    -3.6469  -3.5901  -3.5806  -3.4871  -3.4818  -3.3888  -3.3260  -3.2809
    -3.2538  -3.2272  -3.1507  -3.1455  -3.1367  -3.0861  -3.0524  -3.0239
    -2.9755  -2.9652  -2.9206  -2.8177  -2.7825  -2.7240  -2.6985  -2.6933
    -2.6365  -2.6321  -2.5952  -2.5934  -2.5867  -2.5419  -2.4872  -2.4530
    -2.4362  -2.4047  -2.3157  -2.2924  -2.2389  -2.2310  -2.1656  -2.1489
    -2.1365  -2.0729  -2.0213  -1.9899  -1.9819  -1.9081  -1.8046  -1.7463
    -1.7239  -1.7032  -1.5972  -1.5487  -1.4924  -1.4501  -1.2680  -1.2557
    -1.1833  -1.1437  -1.0908  -1.0421  -0.8550  -0.4564  -0.4031  -0.1870
    -0.1716  -0.1342   0.0322   0.0379   1.7063   1.7181   1.8156   1.8569
     1.9188   1.9296   1.9739   1.9911   2.0008   2.0469   2.0528

     the Fermi energy is     1.6454 ev

!    total energy              =   -3295.82448221 Ry
     estimated scf accuracy    <       0.00000005 Ry
     smearing contrib. (-TS)   =      -0.03669911 Ry
     internal energy E=F+TS    =   -3295.78778310 Ry

     The total energy is F=E-TS. E is the sum of the following terms:
     one-electron contribution =  -34289.38667313 Ry
     hartree contribution      =   17213.69432739 Ry
     xc contribution           =    -543.76919936 Ry
     ewald contribution        =   14323.66905486 Ry
     electric field correction =       0.00470714 Ry

     convergence has been achieved in  52 iterations

     Forces acting on atoms (cartesian axes, Ry/au):

     atom    1 type  1   force =     0.00001460    0.00239573    0.05212593
     atom    2 type  1   force =    -0.00004232   -0.00060654   -0.00562757
     atom    3 type  1   force =     0.00003194   -0.00286781   -0.00287078
     atom    4 type  1   force =     0.00005460   -0.00037311    0.10761301
     atom    5 type  1   force =    -0.00002319    0.00171875    0.00530529
     atom    6 type  1   force =     0.00000852   -0.00049182    0.00054931
     atom    7 type  1   force =     0.06435221    0.00077649   -0.03001861
     atom    8 type  1   force =     0.00532145   -0.02658917    0.00244693
     atom    9 type  1   force =     0.00844111   -0.01287807   -0.00075927
     atom   10 type  2   force =    -0.00006304   -0.00537775   -0.18728224
     atom   11 type  2   force =     0.00012259    0.02014060   -0.00479777
     atom   12 type  2   force =    -0.00010953    0.01845182   -0.00054749
     atom   13 type  1   force =    -0.06445630    0.00030110   -0.02997740
     atom   14 type  1   force =    -0.00513698   -0.02679739    0.00247391
     atom   15 type  1   force =    -0.00838491   -0.01278583   -0.00074334
     atom   16 type  2   force =     0.00009449   -0.00106566    0.07211301
     atom   17 type  2   force =    -0.00026701    0.03303570    0.00615544
     atom   18 type  2   force =     0.00002289    0.00456019   -0.00755721
     atom   19 type  1   force =     0.00001579    0.00395458    0.05310266
     atom   20 type  1   force =    -0.00004026   -0.00054789   -0.00171470
     atom   21 type  1   force =     0.00005438    0.00130512    0.10846337
     atom   22 type  1   force =    -0.00002550   -0.00119218    0.00630252
     atom   23 type  1   force =     0.00002932   -0.00517753    0.00191867
     atom   24 type  1   force =     0.06587565    0.00139798   -0.02848588
     atom   25 type  1   force =     0.00547416   -0.02924405    0.00263027
     atom   26 type  1   force =     0.00975109   -0.00193763   -0.00020715
     atom   27 type  2   force =    -0.00006842   -0.00075494   -0.19124496
     atom   28 type  2   force =     0.00014669    0.02480752   -0.00470789
     atom   29 type  2   force =    -0.00009543   -0.00421702    0.00934403
     atom   30 type  1   force =    -0.06598008    0.00095816   -0.02845732
     atom   31 type  1   force =    -0.00532449   -0.02936541    0.00266836
     atom   32 type  1   force =    -0.00966286   -0.00194065   -0.00020528
     atom   33 type  2   force =     0.00013645    0.00070055    0.08050440
     atom   34 type  2   force =    -0.00029087    0.03539264    0.00621486
     atom   35 type  2   force =     0.00004753    0.01580565    0.00200975
     atom   36 type  1   force =     0.00006594    0.00027237    0.05321474
     atom   37 type  1   force =    -0.00003311    0.00175880   -0.00880700
     atom   38 type  1   force =     0.00001112    0.00136673   -0.00014800
     atom   39 type  1   force =     0.00005453   -0.00117350    0.10819017
     atom   40 type  1   force =    -0.00003534   -0.00137930    0.00603493
     atom   41 type  1   force =     0.00001796    0.00389735    0.00141970
     atom   42 type  1   force =     0.06613442   -0.00349712   -0.02908173
     atom   43 type  1   force =     0.00367161   -0.02410465    0.00085384
     atom   44 type  1   force =     0.01419954   -0.01859928    0.00304684
     atom   45 type  2   force =    -0.00009511    0.00310996   -0.18716826
     atom   46 type  2   force =     0.00013726    0.01625813    0.00220977
     atom   47 type  2   force =    -0.00007239    0.01859643   -0.00289243
     atom   48 type  1   force =    -0.06623282   -0.00393460   -0.02904004
     atom   49 type  1   force =    -0.00342195   -0.02429606    0.00086787
     atom   50 type  1   force =    -0.01419433   -0.01854550    0.00304712
     atom   51 type  2   force =     0.00012809   -0.00295768    0.07341895
     atom   52 type  2   force =    -0.00027688    0.03102686    0.00786781
     atom   53 type  2   force =     0.00000757    0.02017964    0.00059455
     atom   54 type  3   force =    -0.00002564    0.00623472    0.00274508
     atom   55 type  4   force =     0.00000470   -0.00137121    0.00032723
     atom   56 type  4   force =    -0.00001086   -0.00595909   -0.00558698
     atom   57 type  4   force =    -0.00005579   -0.00019838   -0.00005056
     atom   58 type  3   force =    -0.00026238    0.00027483    0.00007789
     atom   59 type  4   force =     0.00000811    0.00025218    0.00046385
     atom   60 type  4   force =     0.00009966    0.00058272    0.00076070
     atom   61 type  4   force =     0.00015183    0.00071354    0.00089710

     Total force =     0.459486     Total SCF correction =     0.000702
  @ DRIVER MODE: Message from server: STATUS
  @ DRIVER MODE: Message from server: GETFORCE
  @ DRIVER MODE: Returning v,forces,stress,ensemble

     Writing output data file ./calc.save/
  @ DRIVER MODE: Message from server: EXIT
  @ DRIVE MODE: Exiting

     General routines

     Parallel routines

   This run was terminated on:  20:36:39  18Oct2021

   JOB DONE.