     Program PWSCF v.6.7GPU starts on 15Jul2021 at 19:27:57

     R & G space division:  proc/nbgrp/npool/nimage =      16
     Reading input from /storage/home/hcoda1/3/ntian30/research/carbon/15Jul_vib/ads_slab/CH3NH_a/out_0006/pw.inp
Warning: card &CELL ignored
Warning: card   CELL_DYNAMICS='IPI', ignored
Warning: card / ignored

     Current dimensions of program PWSCF are:
     Max number of different atomic species (ntypx) = 10
     Max number of k-points (npk) =  40000
     Max angular momentum in pseudopotentials (lmaxx) =  3
     Presently no symmetry can be used with electric field

     Message from routine cell_base_init:
     DEPRECATED: use true lattice parameter, not A to a.u. conversion factor

     IMPORTANT: XC functional enforced from input :
     Exchange-correlation= BEEF-VDW
                           (   1   4  43  14   2   0   0)
     Any further DFT definition will be discarded
     Please, verify this is what you really want

  @ DRIVER MODE: Connecting to
 qe_1139763_2351648.sched-torque.pace.gatech.edubr4ih5qw_scratch
  using UNIX socket
  @ DRIVER MODE: Message from server: STATUS
  @ DRIVER MODE: Message from server: INIT
  @ DRIVER MODE: Receiving replica           0          -1
  @ DRIVER MODE: Receiving encoded integer          25
  @ DRIVER MODE:  SCF:  T  FORCE:  T  STRESS:  F  VC:  F  ENSEMBLE:  F
  @ DRIVER MODE:  SCF:  T  FORCE:  T  STRESS:  F  VC:  F  ENSEMBLE:  F

     Using Slab Decomposition

     bravais-lattice index     =            0
     lattice parameter (alat)  =       1.8897  a.u.
     unit-cell volume          =    6658.9804 (a.u.)^3
     number of atoms/cell      =           53
     number of atomic types    =            5
     number of electrons       =       391.00
     number of Kohn-Sham states=          205
     kinetic-energy cutoff     =      29.3995  Ry
     charge density cutoff     =     293.9946  Ry
     scf convergence threshold =      7.3E-08
     mixing beta               =       0.0500
     number of iterations used =            8  plain     mixing
     Exchange-correlation= BEEF-VDW
                           (   1   4  43  14   2   0   0)

     celldm(1)=   1.889726  celldm(2)=   0.000000  celldm(3)=   0.000000
     celldm(4)=   0.000000  celldm(5)=   0.000000  celldm(6)=   0.000000

     crystal axes: (cart. coord. in units of alat)
               a(1) = (   6.579727   0.000000   0.000000 )
               a(2) = (  -0.000775   5.961596   0.000000 )
               a(3) = (   0.000000   0.000000  25.155947 )

     reciprocal axes: (cart. coord. in units 2 pi/alat)
               b(1) = (  0.151982  0.000020  0.000000 )
               b(2) = (  0.000000  0.167740  0.000000 )
               b(3) = (  0.000000  0.000000  0.039752 )

     PseudoPot. # 1 for Ti read from file:
     /storage/coda1/p-amedford6/0/shared/rich_project_chbe-medford/medford-share/data/pseudos_module/espresso/nninc/pbe/van/Ti.UPF
     MD5 check sum: 8e4df49b7f0d34bbd5052bf3f5ea0213
     Pseudo is Ultrasoft, Zval = 12.0
     Generated by new atomic code, or converted to UPF format
     Using radial grid of  851 points,  6 beta functions with:
                l(1) =   0
                l(2) =   0
                l(3) =   1
                l(4) =   1
                l(5) =   2
                l(6) =   2
     Q(r) pseudized with  8 coefficients,  rinner =    1.000   1.000   1.000
                                                       1.000   1.000

     PseudoPot. # 2 for O  read from file:
     /storage/coda1/p-amedford6/0/shared/rich_project_chbe-medford/medford-share/data/pseudos_module/espresso/nninc/pbe/van/O.UPF
     MD5 check sum: 78c19812648e8988a0fe644b0f25305e
     Pseudo is Ultrasoft, Zval =  6.0
     Generated by new atomic code, or converted to UPF format
     Using radial grid of  737 points,  4 beta functions with:
                l(1) =   0
                l(2) =   0
                l(3) =   1
                l(4) =   1
     Q(r) pseudized with  8 coefficients,  rinner =    0.800   0.800   0.800

     PseudoPot. # 3 for H  read from file:
     /storage/coda1/p-amedford6/0/shared/rich_project_chbe-medford/medford-share/data/pseudos_module/espresso/nninc/pbe/van/H.UPF
     MD5 check sum: b5ee9d7bfd3a09ee7748110bda690ff7
     Pseudo is Ultrasoft, Zval =  1.0
     Generated by new atomic code, or converted to UPF format
     Using radial grid of  615 points,  1 beta functions with:
                l(1) =   0
     Q(r) pseudized with  8 coefficients,  rinner =    0.800

     PseudoPot. # 4 for N  read from file:
     /storage/coda1/p-amedford6/0/shared/rich_project_chbe-medford/medford-share/data/pseudos_module/espresso/nninc/pbe/van/N.UPF
     MD5 check sum: 90d10febe142ad51ac9d5be1deb811c4
     Pseudo is Ultrasoft, Zval =  5.0
     Generated by new atomic code, or converted to UPF format
     Using radial grid of  729 points,  4 beta functions with:
                l(1) =   0
                l(2) =   0
                l(3) =   1
                l(4) =   1
     Q(r) pseudized with  8 coefficients,  rinner =    0.800   0.800   0.800

     PseudoPot. # 5 for C  read from file:
     /storage/coda1/p-amedford6/0/shared/rich_project_chbe-medford/medford-share/data/pseudos_module/espresso/nninc/pbe/van/C.UPF
     MD5 check sum: 1a69bf6b8db32088f5b2163dbdb77a27
     Pseudo is Ultrasoft, Zval =  4.0
     Generated by new atomic code, or converted to UPF format
     Using radial grid of  721 points,  4 beta functions with:
                l(1) =   0
                l(2) =   0
                l(3) =   1
                l(4) =   1
     Q(r) pseudized with  8 coefficients,  rinner =    0.800   0.800   0.800

     atomic species   valence    mass     pseudopotential
        Ti1           12.00    47.86700     Ti( 1.00)
        O1             6.00    15.99900     O ( 1.00)
        H1             1.00     1.00800     H ( 1.00)
        N1             5.00    14.00700     N ( 1.00)
        C1             4.00    12.01100     C ( 1.00)

     Starting magnetic structure
     atomic species   magnetization
        Ti1          0.000
        O1           0.000
        H1           0.000
        N1           0.000
        C1           0.025

     No symmetry found

   Cartesian axes

     site n.     atom                  positions (alat units)
         1           Ti1 tau(   1) = (   0.0004258   2.9801865   6.0000000  )
         2           Ti1 tau(   2) = (   3.2906075   1.4906267   6.0002472  )
         3           O1  tau(   3) = (   0.0006271   0.0005054   7.9858123  )
         4           O1  tau(   4) = (   3.2906025   0.0005020   7.3038282  )
         5           O1  tau(   5) = (   4.5942328   1.4918067   9.2879030  )
         6           O1  tau(   6) = (   1.9868534   1.4903216   9.2879459  )
         7           Ti1 tau(   7) = (   3.2907910   2.8959150   9.1758416  )
         8           Ti1 tau(   8) = (   0.0015273   1.4827037   9.2680791  )
         9           O1  tau(   9) = (   3.2884659   0.0075485  11.3235732  )
        10           O1  tau(  10) = (   0.0116148   5.9584955  10.6183126  )
        11           O1  tau(  11) = (   1.3171120   1.5008813  12.6157184  )
        12           O1  tau(  12) = (   5.2946386   1.4924346  12.6071097  )
        13           Ti1 tau(  13) = (   6.5241923   2.9548932  12.6217359  )
        14           Ti1 tau(  14) = (   3.2094326   1.4975571  12.4685497  )
        15           O1  tau(  15) = (   6.5712017   0.0435206  14.6415704  )
        16           O1  tau(  16) = (   3.3105969   0.0188825  13.9167609  )
        17           O1  tau(  17) = (   4.5276945   1.5520673  16.0775932  )
        18           O1  tau(  18) = (   2.0451199   1.5488911  16.0433559  )
        19           Ti1 tau(  19) = (   3.3056363   3.0248959  15.6834923  )
        20           Ti1 tau(  20) = (   0.0598299   1.5678558  15.8702049  )
        21           O1  tau(  21) = (   3.2904802   0.0005063   4.7018136  )
        22           O1  tau(  22) = (   0.0261329   0.0581799  17.1997403  )
        23           O1  tau(  23) = (   1.3043587   1.4918075   6.0039043  )
        24           O1  tau(  24) = (   5.2767064   1.4903225   6.0039473  )
        25           Ti1 tau(  25) = (   0.0000382   5.9609847   6.0000000  )
        26           Ti1 tau(  26) = (   3.2902200   4.4714249   6.0002472  )
        27           O1  tau(  27) = (   0.0002396   2.9813036   7.9858123  )
        28           O1  tau(  28) = (   3.2902150   2.9813002   7.3038282  )
        29           O1  tau(  29) = (   4.5938453   4.4726049   9.2879030  )
        30           O1  tau(  30) = (   1.9864658   4.4711199   9.2879459  )
        31           Ti1 tau(  31) = (   3.2891106   5.8743827   9.1763621  )
        32           Ti1 tau(  32) = (   0.0006254   4.4649316   9.2693709  )
        33           O1  tau(  33) = (   3.2900467   2.9919642  11.3219399  )
        34           O1  tau(  34) = (   0.0092240   2.9805883  10.6323155  )
        35           O1  tau(  35) = (   1.3109590   4.4888342  12.6262493  )
        36           O1  tau(  36) = (   5.2962169   4.4808628  12.6191006  )
        37           Ti1 tau(  37) = (   6.5213093   5.9327278  12.5667326  )
        38           Ti1 tau(  38) = (   3.2063601   4.4772876  12.4706241  )
        39           O1  tau(  39) = (   6.5765807   2.9606619  14.6437028  )
        40           O1  tau(  40) = (   3.3047873   3.0036736  13.8926904  )
        41           O1  tau(  41) = (   4.5386289   4.5058657  16.0833063  )
        42           O1  tau(  42) = (   2.0584685   4.5123608  16.0729366  )
        43           Ti1 tau(  43) = (   3.3398093   0.0384087  15.7085799  )
        44           Ti1 tau(  44) = (   0.0478225   4.6849499  16.0879628  )
        45           O1  tau(  45) = (   3.2900926   2.9813045   4.7018136  )
        46           O1  tau(  46) = (   1.3039711   4.4726057   6.0039043  )
        47           O1  tau(  47) = (   5.2763189   4.4711207   6.0039473  )
        48           H1  tau(  48) = (   5.6109407   2.9912845  17.7981963  )
        49           N1  tau(  49) = (   6.5652763   3.0051276  17.4431066  )
        50           C1  tau(  50) = (   0.8863280   2.9891452  18.6126320  )
        51           H1  tau(  51) = (   1.3596840   3.9617220  18.7724638  )
        52           H1  tau(  52) = (   0.3315535   2.7344040  19.5171108  )
        53           H1  tau(  53) = (   1.6705027   2.2407838  18.4910999  )

     number of k points=    10  Fermi-Dirac smearing, width (Ry)=  0.0073
                       cart. coord. in units 2pi/alat
        k(    1) = (   0.0000000   0.0000000   0.0000000), wk =   0.0625000
        k(    2) = (   0.0000000   0.0419351   0.0000000), wk =   0.1250000
        k(    3) = (   0.0000000  -0.0838702   0.0000000), wk =   0.0625000
        k(    4) = (   0.0379955   0.0000049   0.0000000), wk =   0.1250000
        k(    5) = (   0.0379955   0.0419400   0.0000000), wk =   0.1250000
        k(    6) = (   0.0379955  -0.0838652   0.0000000), wk =   0.1250000
        k(    7) = (   0.0379955  -0.0419301   0.0000000), wk =   0.1250000
        k(    8) = (  -0.0759910  -0.0000099   0.0000000), wk =   0.0625000
[...]

     Initial potential from superposition of free atoms

     starting charge  374.99916, renormalised to  391.00000

     negative rho (up, down):  8.889E-03 8.896E-03

     %%%%%%%%%%%%%%%%%%%%%%%%%%%%%%%%%%%%%%%%%%%%%%%%%%%%%%%%%%%%%%%%%%%%%%%%
     %                                                                      %
     % You are using vdW-DF, which was implemented by the Thonhauser group. %
     % Please cite the following two papers that made this development      %
     % possible and the two reviews that describe the various versions:     %
     %                                                                      %
     %   T. Thonhauser et al., PRL 115, 136402 (2015).                      %
     %   T. Thonhauser et al., PRB 76, 125112 (2007).                       %
     %   K. Berland et al., Rep. Prog. Phys. 78, 066501 (2015).             %
     %   D.C. Langreth et al., J. Phys.: Condens. Matter 21, 084203 (2009). %
     %                                                                      %
     %                                                                      %
     % If you are calculating the stress with vdW-DF, please also cite:     %
     %                                                                      %
     %   R. Sabatini et al., J. Phys.: Condens. Matter 24, 424209 (2012).   %
     %                                                                      %
     %%%%%%%%%%%%%%%%%%%%%%%%%%%%%%%%%%%%%%%%%%%%%%%%%%%%%%%%%%%%%%%%%%%%%%%%

     Adding external electric field

     Computed dipole along edir(3) :
        Dipole               -5.8092 Ry au,        -14.7655 Debye
        Dipole field         -0.0110 Ry au,

        Potential amp.        1.0162 Ry
        Total length         46.3494 bohr

[...]

     Starting wfcs are  296 atomic wfcs
  @ DRIVER MODE: Message from server: STATUS
  @ DRIVER MODE: Message from server: POSDATA
  @ DRIVER MODE: Reading and sharing cell
  @ DRIVER MODE: Reading and sharing positions
  @ DRIVER MODE: Received positions

     Self-consistent Calculation

     iteration #  1     ecut=    29.40 Ry     beta= 0.05
     Davidson diagonalization with overlap
     c_bands:  3 eigenvalues not converged
     c_bands:  1 eigenvalues not converged
     c_bands:  1 eigenvalues not converged
     c_bands:  2 eigenvalues not converged
     c_bands:  4 eigenvalues not converged
     c_bands:  2 eigenvalues not converged
     c_bands:  1 eigenvalues not converged
     c_bands:  1 eigenvalues not converged
     c_bands:  2 eigenvalues not converged
     c_bands:  3 eigenvalues not converged
     c_bands:  1 eigenvalues not converged
     c_bands:  1 eigenvalues not converged
     c_bands:  2 eigenvalues not converged
     c_bands:  4 eigenvalues not converged
     c_bands:  2 eigenvalues not converged
     c_bands:  1 eigenvalues not converged
     c_bands:  1 eigenvalues not converged
     c_bands:  2 eigenvalues not converged
     ethr =  1.00E-05,  avg # of iterations = 19.5

[...]

     total energy              =   -2770.85329498 Ry
     estimated scf accuracy    <    1639.33455575 Ry

     total magnetization       =     0.01 Bohr mag/cell
     absolute magnetization    =     0.02 Bohr mag/cell

[...]

     iteration #  3     ecut=    29.40 Ry     beta= 0.05
     Davidson diagonalization with overlap
     ethr =  1.00E-02,  avg # of iterations = 15.2

[...]

     iteration # 69     ecut=    29.40 Ry     beta= 0.05
     Davidson diagonalization with overlap
     ethr =  4.35E-11,  avg # of iterations = 11.1

[...]

     total energy              =   -2920.42043805 Ry
     estimated scf accuracy    <       0.00000016 Ry

[...]

     iteration # 71     ecut=    29.40 Ry     beta= 0.05
     Davidson diagonalization with overlap
     c_bands:  2 eigenvalues not converged
     ethr =  2.37E-11,  avg # of iterations = 12.0

     negative rho (up, down):  9.149E-03 9.150E-03

[...]

     Adding external electric field

     Computed dipole along edir(3) :
        Dipole                0.6972 Ry au,          1.7720 Debye
        Dipole field          0.0013 Ry au,

        Potential amp.       -0.1220 Ry
        Total length         46.3494 bohr

     Magnetic moment per site  (integrated on atomic sphere of radius R)
     atom   1 (R=0.717)  charge=  7.8575  magn=  0.0025
     atom   2 (R=0.717)  charge=  7.8411  magn=  0.0000
     atom   3 (R=0.717)  charge=  4.8648  magn= -0.0002
     atom   4 (R=0.717)  charge=  4.9003  magn=  0.0000
     atom   5 (R=0.717)  charge=  4.8705  magn= -0.0000
     atom   6 (R=0.717)  charge=  4.8712  magn= -0.0000
     atom   7 (R=0.717)  charge=  7.8399  magn=  0.0001
     atom   8 (R=0.717)  charge=  7.8316  magn=  0.0008
     atom   9 (R=0.717)  charge=  4.8873  magn= -0.0000
     atom  10 (R=0.717)  charge=  4.8598  magn= -0.0001
     atom  11 (R=0.717)  charge=  4.8722  magn= -0.0000
     atom  12 (R=0.717)  charge=  4.8711  magn= -0.0000
     atom  13 (R=0.717)  charge=  7.8297  magn=  0.0001
     atom  14 (R=0.717)  charge=  7.8426  magn=  0.0000
     atom  15 (R=0.717)  charge=  4.8599  magn= -0.0000
     atom  16 (R=0.717)  charge=  4.8822  magn= -0.0000
     atom  17 (R=0.717)  charge=  4.8579  magn= -0.0000
     atom  18 (R=0.717)  charge=  4.8644  magn= -0.0000
     atom  19 (R=0.717)  charge=  7.8684  magn=  0.0000
     atom  20 (R=0.717)  charge=  7.8397  magn=  0.0000
     atom  21 (R=0.717)  charge=  4.7571  magn=  0.0003
     atom  22 (R=0.717)  charge=  4.8380  magn= -0.0000
     atom  23 (R=0.717)  charge=  4.8628  magn= -0.0003
     atom  24 (R=0.717)  charge=  4.8628  magn= -0.0003
     atom  25 (R=0.717)  charge=  7.8575  magn=  0.0026
     atom  26 (R=0.717)  charge=  7.8411  magn= -0.0000
     atom  27 (R=0.717)  charge=  4.8641  magn= -0.0002
     atom  28 (R=0.717)  charge=  4.9005  magn= -0.0000
     atom  29 (R=0.717)  charge=  4.8713  magn= -0.0000
     atom  30 (R=0.717)  charge=  4.8719  magn= -0.0000
     atom  31 (R=0.717)  charge=  7.8400  magn=  0.0001
     atom  32 (R=0.717)  charge=  7.8317  magn=  0.0008
     atom  33 (R=0.717)  charge=  4.8864  magn= -0.0000
     atom  34 (R=0.717)  charge=  4.8464  magn= -0.0001
     atom  35 (R=0.717)  charge=  4.8727  magn= -0.0000
     atom  36 (R=0.717)  charge=  4.8718  magn= -0.0000
     atom  37 (R=0.717)  charge=  7.8315  magn=  0.0001
     atom  38 (R=0.717)  charge=  7.8429  magn=  0.0000
     atom  39 (R=0.717)  charge=  4.8524  magn=  0.0000
     atom  40 (R=0.717)  charge=  4.8881  magn= -0.0000
     atom  41 (R=0.717)  charge=  4.8602  magn= -0.0000
     atom  42 (R=0.717)  charge=  4.8622  magn= -0.0000
     atom  43 (R=0.717)  charge=  7.8658  magn=  0.0000
     atom  44 (R=0.717)  charge=  7.8696  magn=  0.0000
     atom  45 (R=0.717)  charge=  4.7571  magn= -0.0001
     atom  46 (R=0.717)  charge=  4.8628  magn= -0.0003
     atom  47 (R=0.717)  charge=  4.8628  magn= -0.0003
     atom  48 (R=0.420)  charge=  0.4547  magn=  0.0000
     atom  49 (R=0.420)  charge=  1.3329  magn= -0.0000
     atom  50 (R=0.450)  charge=  0.8490  magn=  0.0000
     atom  51 (R=0.420)  charge=  0.4452  magn= -0.0000
     atom  52 (R=0.420)  charge=  0.4470  magn= -0.0000
     atom  53 (R=0.420)  charge=  0.4464  magn= -0.0000

     End of self-consistent calculation

 ------ SPIN UP ------------

          k = 0.0000 0.0000 0.0000 ( 18029 PWs)   bands (ev):

   -55.9833 -55.9722 -55.9492 -55.9361 -55.8843 -55.8234 -55.8189 -55.7865
   -55.7843 -55.7525 -55.7450 -55.7114 -55.5551 -55.2753 -54.9530 -54.9190
   -32.5321 -32.4631 -32.3331 -32.3200 -32.2993 -32.2862 -32.2764 -32.2360
   -32.2242 -32.2195 -32.1951 -32.1881 -32.1553 -32.1358 -32.1238 -32.1169
   -32.1151 -32.0851 -32.0640 -32.0409 -32.0300 -32.0261 -32.0098 -31.9891
   -31.9788 -31.9766 -31.9725 -31.9623 -31.9483 -31.9417 -31.9397 -31.9342
   -31.9221 -31.9165 -31.8983 -31.8933 -31.8576 -31.8196 -31.7238 -31.5494
   -31.5427 -31.4719 -31.3595 -31.2721 -31.2496 -31.1764 -31.0899 -30.9787
   -16.7414 -16.4578 -16.2784 -16.1354 -16.1026 -16.0175 -15.8168 -15.6916
   -15.6789 -15.5757 -15.5380 -15.5146 -15.5074 -15.4796 -15.4770 -15.4186
   -15.4152 -15.4028 -15.3903 -15.3341 -15.3103 -15.2709 -15.1762 -15.1526
   -15.1368 -15.1100 -15.0293 -15.0223 -14.5829 -14.0967 -13.4555 -13.3392
    -8.9176  -4.3658  -4.1122  -3.9353  -3.8954  -3.8830  -3.8345  -3.5829
    -3.5666  -3.3116  -3.1903  -3.1746  -3.1665  -3.1500  -3.1364  -3.1165
    -2.8796  -2.8093  -2.7955  -2.7730  -2.7660  -2.7628  -2.7509  -2.7465
    -2.7042  -2.6440  -2.5267  -2.5134  -2.4077  -2.3605  -2.3357  -2.2902
    -2.2461  -2.2397  -2.2271  -2.2101  -2.1944  -2.1766  -2.1587  -2.0243
    -1.9608  -1.8329  -1.7851  -1.7790  -1.5809  -1.5368  -1.4467  -1.4233
    -1.4069  -1.3995  -1.3673  -1.2871  -1.1957  -1.1387  -1.1256  -1.0722
    -0.9957  -0.9841  -0.8738  -0.8691  -0.8084  -0.7493  -0.7400  -0.7305
    -0.6855  -0.6165  -0.5392  -0.4648  -0.4151  -0.3941  -0.3669  -0.2881
    -0.2581  -0.1616  -0.1433  -0.0967  -0.0932  -0.0439  -0.0019   0.0077
     0.0142   0.0289   0.0465   0.1952   0.3023   0.3585   0.3918   0.4025
     0.5587   0.5945   0.6829   0.7704   0.9960   1.0690   1.1626   1.2620
     1.3260   1.6397   1.6850   3.1607   3.2388   3.2938   3.3030   3.4044
     3.4068   3.6107   3.6245   3.6349   3.7042

[...]

          k =-0.0760-0.0000 0.0000 ( 17886 PWs)   bands (ev):

[...]

 ------ SPIN DOWN ----------

[...]

          k = 0.0380-0.0419 0.0000 ( 17876 PWs)   bands (ev):

[...]

          k =-0.0760-0.0839 0.0000 ( 17948 PWs)   bands (ev):

   -55.9616 -55.9608 -55.9550 -55.9530 -55.8788 -55.8286 -55.8036 -55.7993
   -55.7686 -55.7667 -55.7288 -55.7276 -55.5541 -55.2761 -54.9361 -54.9360
   -32.3364 -32.3336 -32.2765 -32.2759 -32.2648 -32.2568 -32.2561 -32.2443
   -32.1821 -32.1810 -32.1746 -32.1708 -32.1475 -32.1192 -32.1008 -32.0967
   -32.0852 -32.0825 -32.0802 -32.0797 -32.0795 -32.0685 -32.0661 -32.0346
   -32.0239 -32.0180 -31.9933 -31.9840 -31.9656 -31.9651 -31.9615 -31.9604
   -31.9436 -31.9429 -31.9403 -31.9386 -31.8879 -31.8222 -31.7190 -31.6127
   -31.5448 -31.4972 -31.2624 -31.2624 -31.1726 -31.1725 -31.1334 -31.1333
   -16.1933 -16.1600 -15.9244 -15.9149 -15.9059 -15.8898 -15.7454 -15.6934
   -15.6846 -15.6781 -15.6537 -15.6298 -15.5785 -15.5481 -15.5146 -15.5080
   -15.5014 -15.4961 -15.4397 -15.4332 -15.4110 -15.4035 -15.2898 -15.2856
   -15.2845 -15.2086 -15.1440 -15.0109 -14.7530 -14.1177 -13.4407 -13.4403
    -8.9213  -4.3764  -3.4878  -3.4497  -3.2759  -3.1881  -3.1642  -3.1512
    -3.1297  -3.0498  -2.8909  -2.8763  -2.8578  -2.8448  -2.8047  -2.7995
    -2.7877  -2.7739  -2.7668  -2.7491  -2.7153  -2.6747  -2.6462  -2.6391
    -2.6300  -2.6054  -2.5931  -2.5669  -2.5611  -2.5283  -2.5202  -2.5012
    -2.4777  -2.2136  -2.1959  -2.1797  -2.1107  -2.1039  -2.0692  -2.0607
    -2.0419  -2.0286  -1.9766  -1.8755  -1.7123  -1.6792  -1.6667  -1.6498
    -1.5847  -1.5641  -1.4153  -1.3870  -1.3699  -1.3298  -1.2814  -1.2513
    -1.2147  -1.1752  -1.1375  -1.0774  -1.0693  -0.9901  -0.9401  -0.9395
    -0.9125  -0.8424  -0.7633  -0.7463  -0.7345  -0.6936  -0.6804  -0.5983
    -0.5756  -0.4773  -0.4645  -0.3970  -0.3631  -0.2967  -0.0961   0.0048
     0.0635   0.0875   0.1404   0.2377   0.2918   0.3052   0.3390   0.3439
     0.4036   0.4444   0.5591   0.5667   0.6350   0.7386   1.2741   1.4338
     1.4344   1.5050   1.5056   3.4246   3.4303   3.4797   3.5105   3.6635
     3.6680   3.6904   3.6915   3.8119   3.8302

     the Fermi energy is     3.1557 ev

!    total energy              =   -2920.42045250 Ry
     estimated scf accuracy    <       0.00000005 Ry
     smearing contrib. (-TS)   =      -0.02203100 Ry
     internal energy E=F+TS    =   -2920.39842150 Ry

     The total energy is F=E-TS. E is the sum of the following terms:
     one-electron contribution =  -24727.18183323 Ry
     hartree contribution      =   12448.27172353 Ry
     xc contribution           =    -480.87351731 Ry
     ewald contribution        =    9839.38428832 Ry
     electric field correction =       0.00091719 Ry

     total magnetization       =     0.01 Bohr mag/cell
     absolute magnetization    =     0.02 Bohr mag/cell

     convergence has been achieved in  71 iterations

     Forces acting on atoms (cartesian axes, Ry/au):

     atom    1 type  1   force =     0.00009720   -0.00018801    0.09688434
     atom    2 type  1   force =     0.00004791   -0.00049638   -0.17506788
     atom    3 type  2   force =     0.00012828    0.00000972   -0.02535044
     atom    4 type  2   force =    -0.00003258   -0.00128384    0.05236689
     atom    5 type  2   force =    -0.01222213   -0.00001068    0.00299381
     atom    6 type  2   force =     0.01364973    0.00058354    0.00232991
     atom    7 type  1   force =     0.00058965    0.00033988   -0.01305838
     atom    8 type  1   force =     0.00047823    0.00729389    0.03066690
     atom    9 type  2   force =     0.00055886    0.00003912   -0.00019946
     atom   10 type  2   force =    -0.00267936    0.00211153   -0.01737450
     atom   11 type  2   force =    -0.00013543    0.00007304   -0.00002608
     atom   12 type  2   force =     0.00045998    0.00034308    0.00018121
     atom   13 type  1   force =    -0.00011714   -0.00056459   -0.00020304
     atom   14 type  1   force =    -0.00042211    0.00005094    0.00080925
     atom   15 type  2   force =    -0.00000543   -0.00075747    0.00088135
     atom   16 type  2   force =     0.00025452    0.00063283   -0.00049485
     atom   17 type  2   force =     0.00057789    0.00000915    0.00058382
     atom   18 type  2   force =    -0.00018867   -0.00004208    0.00007644
     atom   19 type  1   force =     0.00019346    0.00047681   -0.00016406
     atom   20 type  1   force =    -0.00050489   -0.00054216    0.00011292
     atom   21 type  2   force =     0.00005548   -0.00002587    0.10309784
     atom   22 type  2   force =     0.00015204   -0.00091878    0.00103216
     atom   23 type  2   force =    -0.07164266   -0.00015088   -0.02781143
     atom   24 type  2   force =     0.07154624    0.00034435   -0.02786848
     atom   25 type  1   force =     0.00009024   -0.00014284    0.09659471
     atom   26 type  1   force =     0.00009340   -0.00024420   -0.17519953
     atom   27 type  2   force =     0.00011804   -0.00011618   -0.02441615
     atom   28 type  2   force =     0.00004332   -0.00104169    0.05228079
     atom   29 type  2   force =    -0.01242014    0.00063616    0.00278837
     atom   30 type  2   force =     0.01372123    0.00097978    0.00213583
     atom   31 type  1   force =     0.00045342    0.00314023   -0.01360450
     atom   32 type  1   force =     0.00033452   -0.00951545    0.03105862
     atom   33 type  2   force =    -0.00007201    0.00031236   -0.00058961
     atom   34 type  2   force =    -0.00206529    0.00181771   -0.02537100
     atom   35 type  2   force =    -0.00017722   -0.00029125    0.00037774
     atom   36 type  2   force =     0.00025251   -0.00078189    0.00040369
     atom   37 type  1   force =     0.00002582    0.00022987    0.00096553
     atom   38 type  1   force =    -0.00020920    0.00041303    0.00077844
     atom   39 type  2   force =    -0.00001756   -0.00017040   -0.00053033
     atom   40 type  2   force =     0.00042310    0.00007736    0.00056402
     atom   41 type  2   force =     0.00022683   -0.00016752   -0.00008183
     atom   42 type  2   force =    -0.00059364   -0.00044892   -0.00030972
     atom   43 type  1   force =    -0.00064711   -0.00017472    0.00046105
     atom   44 type  1   force =    -0.00058179   -0.00063205    0.00056306
     atom   45 type  2   force =     0.00003875   -0.00004839    0.10312089
     atom   46 type  2   force =    -0.07163958   -0.00006773   -0.02781015
     atom   47 type  2   force =     0.07155940    0.00034621   -0.02787351
     atom   48 type  3   force =     0.00436662   -0.00029174   -0.00385661
     atom   49 type  4   force =    -0.00567374   -0.00024232    0.00305789
     atom   50 type  5   force =     0.00170324   -0.00058014    0.00052709
     atom   51 type  3   force =    -0.00079281    0.00027696    0.00032447
     atom   52 type  3   force =     0.00029710   -0.00059574   -0.00048393
     atom   53 type  3   force =     0.00030348   -0.00000362   -0.00027355

     Total force =     0.368549     Total SCF correction =     0.000581
  @ DRIVER MODE: Message from server: STATUS
  @ DRIVER MODE: Message from server: GETFORCE
  @ DRIVER MODE: Returning v,forces,stress,ensemble

     Writing output data file ./calc.save/
  @ DRIVER MODE: Message from server: EXIT
  @ DRIVE MODE: Exiting

     General routines

     Parallel routines

   This run was terminated on:  20: 0:12  15Jul2021

   JOB DONE.