     Program PWSCF v.6.7GPU starts on 15Sep2021 at 21:26:20

     R & G space division:  proc/nbgrp/npool/nimage =      10
     Reading input from /storage/home/hcoda1/3/ntian30/research/carbon/CxH_vib/H2O_calc/ads_slab/CHNHHH2O_a/out_0018/pw.inp
Warning: card &CELL ignored
Warning: card   CELL_DYNAMICS='IPI', ignored
Warning: card / ignored

     Current dimensions of program PWSCF are:
     Max number of different atomic species (ntypx) = 10
     Max number of k-points (npk) =  40000
     Max angular momentum in pseudopotentials (lmaxx) =  3
     Presently no symmetry can be used with electric field

     Message from routine cell_base_init:
     DEPRECATED: use true lattice parameter, not A to a.u. conversion factor

     IMPORTANT: XC functional enforced from input :
     Exchange-correlation= BEEF-VDW
                           (   1   4  43  14   2   0   0)
     Any further DFT definition will be discarded
     Please, verify this is what you really want

  @ DRIVER MODE: Connecting to
 qe_1139763_2852629.sched-torque.pace.gatech.edusk719kx7_scratch
  using UNIX socket
  @ DRIVER MODE: Message from server: STATUS
  @ DRIVER MODE: Message from server: INIT
  @ DRIVER MODE: Receiving replica           0          -1
  @ DRIVER MODE: Receiving encoded integer          25
  @ DRIVER MODE:  SCF:  T  FORCE:  T  STRESS:  F  VC:  F  ENSEMBLE:  F
  @ DRIVER MODE:  SCF:  T  FORCE:  T  STRESS:  F  VC:  F  ENSEMBLE:  F

     Using Slab Decomposition

     bravais-lattice index     =            0
     lattice parameter (alat)  =       1.8897  a.u.
     unit-cell volume          =    6658.9804 (a.u.)^3
     number of atoms/cell      =           55
     number of atomic types    =            5
     number of electrons       =       398.00
     number of Kohn-Sham states=          209
     kinetic-energy cutoff     =      29.3995  Ry
     charge density cutoff     =     293.9946  Ry
     scf convergence threshold =      7.3E-08
     mixing beta               =       0.0500
     number of iterations used =            8  plain     mixing
     Exchange-correlation= BEEF-VDW
                           (   1   4  43  14   2   0   0)

     celldm(1)=   1.889726  celldm(2)=   0.000000  celldm(3)=   0.000000
     celldm(4)=   0.000000  celldm(5)=   0.000000  celldm(6)=   0.000000

     crystal axes: (cart. coord. in units of alat)
               a(1) = (   6.579727   0.000000   0.000000 )
               a(2) = (  -0.000775   5.961596   0.000000 )
               a(3) = (   0.000000   0.000000  25.155947 )

     reciprocal axes: (cart. coord. in units 2 pi/alat)
               b(1) = (  0.151982  0.000020  0.000000 )
               b(2) = (  0.000000  0.167740  0.000000 )
               b(3) = (  0.000000  0.000000  0.039752 )

     PseudoPot. # 1 for Ti read from file:
     /storage/coda1/p-amedford6/0/shared/rich_project_chbe-medford/medford-share/data/pseudos_module/espresso/nninc/pbe/van/Ti.UPF
     MD5 check sum: 8e4df49b7f0d34bbd5052bf3f5ea0213
     Pseudo is Ultrasoft, Zval = 12.0
     Generated by new atomic code, or converted to UPF format
     Using radial grid of  851 points,  6 beta functions with:
                l(1) =   0
                l(2) =   0
                l(3) =   1
                l(4) =   1
                l(5) =   2
                l(6) =   2
     Q(r) pseudized with  8 coefficients,  rinner =    1.000   1.000   1.000
                                                       1.000   1.000

     PseudoPot. # 2 for O  read from file:
     /storage/coda1/p-amedford6/0/shared/rich_project_chbe-medford/medford-share/data/pseudos_module/espresso/nninc/pbe/van/O.UPF
     MD5 check sum: 78c19812648e8988a0fe644b0f25305e
     Pseudo is Ultrasoft, Zval =  6.0
     Generated by new atomic code, or converted to UPF format
     Using radial grid of  737 points,  4 beta functions with:
                l(1) =   0
                l(2) =   0
                l(3) =   1
                l(4) =   1
     Q(r) pseudized with  8 coefficients,  rinner =    0.800   0.800   0.800

     PseudoPot. # 3 for N  read from file:
     /storage/coda1/p-amedford6/0/shared/rich_project_chbe-medford/medford-share/data/pseudos_module/espresso/nninc/pbe/van/N.UPF
     MD5 check sum: 90d10febe142ad51ac9d5be1deb811c4
     Pseudo is Ultrasoft, Zval =  5.0
     Generated by new atomic code, or converted to UPF format
     Using radial grid of  729 points,  4 beta functions with:
                l(1) =   0
                l(2) =   0
                l(3) =   1
                l(4) =   1
     Q(r) pseudized with  8 coefficients,  rinner =    0.800   0.800   0.800

     PseudoPot. # 4 for C  read from file:
     /storage/coda1/p-amedford6/0/shared/rich_project_chbe-medford/medford-share/data/pseudos_module/espresso/nninc/pbe/van/C.UPF
     MD5 check sum: 1a69bf6b8db32088f5b2163dbdb77a27
     Pseudo is Ultrasoft, Zval =  4.0
     Generated by new atomic code, or converted to UPF format
     Using radial grid of  721 points,  4 beta functions with:
                l(1) =   0
                l(2) =   0
                l(3) =   1
                l(4) =   1
     Q(r) pseudized with  8 coefficients,  rinner =    0.800   0.800   0.800

     PseudoPot. # 5 for H  read from file:
     /storage/coda1/p-amedford6/0/shared/rich_project_chbe-medford/medford-share/data/pseudos_module/espresso/nninc/pbe/van/H.UPF
     MD5 check sum: b5ee9d7bfd3a09ee7748110bda690ff7
     Pseudo is Ultrasoft, Zval =  1.0
     Generated by new atomic code, or converted to UPF format
     Using radial grid of  615 points,  1 beta functions with:
                l(1) =   0
     Q(r) pseudized with  8 coefficients,  rinner =    0.800

     atomic species   valence    mass     pseudopotential
        Ti1           12.00    47.86700     Ti( 1.00)
        O1             6.00    15.99900     O ( 1.00)
        N1             5.00    14.00700     N ( 1.00)
        C1             4.00    12.01100     C ( 1.00)
        H1             1.00     1.00800     H ( 1.00)

     No symmetry found

   Cartesian axes

     site n.     atom                  positions (alat units)
         1           Ti1 tau(   1) = (   0.0004258   2.9801865   6.0000000  )
         2           Ti1 tau(   2) = (   3.2906075   1.4906267   6.0002472  )
         3           O1  tau(   3) = (   0.0006271   0.0005054   7.9858123  )
         4           O1  tau(   4) = (   3.2906025   0.0005020   7.3038282  )
         5           O1  tau(   5) = (   4.5942328   1.4918067   9.2879030  )
         6           O1  tau(   6) = (   1.9868534   1.4903216   9.2879459  )
         7           Ti1 tau(   7) = (   3.2907910   2.8959150   9.1758416  )
         8           Ti1 tau(   8) = (   0.0015273   1.4827037   9.2680791  )
         9           O1  tau(   9) = (   3.2943807   5.9438157  11.3430345  )
        10           O1  tau(  10) = (   0.0116148   5.9584955  10.6183126  )
        11           O1  tau(  11) = (   1.2953376   1.4759649  12.6292060  )
        12           O1  tau(  12) = (   5.2846356   1.4785235  12.6176154  )
        13           Ti1 tau(  13) = (   0.0556596   2.9564334  12.6140783  )
        14           Ti1 tau(  14) = (   3.3658323   1.4657407  12.4949608  )
        15           O1  tau(  15) = (   6.5664030   0.0209144  14.6477191  )
        16           O1  tau(  16) = (   3.3113265   5.9542485  13.9698242  )
        17           O1  tau(  17) = (   4.5454210   1.5146250  16.1225105  )
        18           O1  tau(  18) = (   2.0305911   1.5113983  16.0894517  )
        19           Ti1 tau(  19) = (   3.2587399   2.9544808  15.6767922  )
        20           Ti1 tau(  20) = (   6.5654577   1.5458692  15.9193722  )
        21           O1  tau(  21) = (   3.2904802   0.0005063   4.7018136  )
        22           O1  tau(  22) = (   0.0418464   5.8849155  17.2380659  )
        23           O1  tau(  23) = (   1.3043587   1.4918075   6.0039043  )
        24           O1  tau(  24) = (   5.2767064   1.4903225   6.0039473  )
        25           Ti1 tau(  25) = (   0.0000382   5.9609847   6.0000000  )
        26           Ti1 tau(  26) = (   3.2902200   4.4714249   6.0002472  )
        27           O1  tau(  27) = (   0.0002396   2.9813036   7.9858123  )
        28           O1  tau(  28) = (   3.2902150   2.9813002   7.3038282  )
        29           O1  tau(  29) = (   4.5938453   4.4726049   9.2879030  )
        30           O1  tau(  30) = (   1.9864658   4.4711199   9.2879459  )
        31           Ti1 tau(  31) = (   3.2891106   5.8743827   9.1763621  )
        32           Ti1 tau(  32) = (   0.0006254   4.4649316   9.2693709  )
        33           O1  tau(  33) = (   3.2978316   2.9705197  11.3397625  )
        34           O1  tau(  34) = (   0.0092240   2.9805883  10.6323155  )
        35           O1  tau(  35) = (   1.2936985   4.4655287  12.6460247  )
        36           O1  tau(  36) = (   5.2856521   4.4646452  12.6308247  )
        37           Ti1 tau(  37) = (   0.0515089   5.9379728  12.5308627  )
        38           Ti1 tau(  38) = (   3.3654372   4.4547101  12.4935900  )
        39           O1  tau(  39) = (   6.5748852   2.9443291  14.6951209  )
        40           O1  tau(  40) = (   3.2957406   2.9584624  13.8938737  )
        41           O1  tau(  41) = (   4.5486474   4.4154460  16.0876977  )
        42           O1  tau(  42) = (   2.0388008   4.4257786  16.0448984  )
        43           Ti1 tau(  43) = (   3.3137362   5.9209902  15.7922403  )
        44           Ti1 tau(  44) = (   0.0032603   4.6697478  15.9558853  )
        45           O1  tau(  45) = (   3.2900926   2.9813045   4.7018136  )
        46           O1  tau(  46) = (   1.3039711   4.4726057   6.0039043  )
        47           O1  tau(  47) = (   5.2763189   4.4711207   6.0039473  )
        48           N1  tau(  48) = (   5.6270067   3.1633449  18.6203826  )
        49           C1  tau(  49) = (   0.0237924   2.7940403  17.7774691  )
        50           H1  tau(  50) = (   0.9584034   2.6460975  18.3347808  )
        51           H1  tau(  51) = (   4.7713523   3.5531088  18.2436842  )
        52           H1  tau(  52) = (   5.8168525   3.4166350  19.5804594  )
        53           O1  tau(  53) = (   3.2115967   5.9081562  18.2546127  )
        54           H1  tau(  54) = (   3.8106726   0.6855978  18.4519937  )
        55           H1  tau(  55) = (   2.3006756   0.2828797  18.3268221  )

     number of k points=    10  Fermi-Dirac smearing, width (Ry)=  0.0073
                       cart. coord. in units 2pi/alat
        k(    1) = (   0.0000000   0.0000000   0.0000000), wk =   0.1250000
        k(    2) = (   0.0000000   0.0419351   0.0000000), wk =   0.2500000
        k(    3) = (   0.0000000  -0.0838702   0.0000000), wk =   0.1250000
        k(    4) = (   0.0379955   0.0000049   0.0000000), wk =   0.2500000
        k(    5) = (   0.0379955   0.0419400   0.0000000), wk =   0.2500000
        k(    6) = (   0.0379955  -0.0838652   0.0000000), wk =   0.2500000
        k(    7) = (   0.0379955  -0.0419301   0.0000000), wk =   0.2500000
        k(    8) = (  -0.0759910  -0.0000099   0.0000000), wk =   0.1250000
        k(    9) = (  -0.0759910   0.0419252   0.0000000), wk =   0.2500000
        k(   10) = (  -0.0759910  -0.0838800   0.0000000), wk =   0.1250000

     Initial potential from superposition of free atoms

     starting charge  381.99915, renormalised to  398.00000

     negative rho (up, down):  1.708E-02 0.000E+00

     %%%%%%%%%%%%%%%%%%%%%%%%%%%%%%%%%%%%%%%%%%%%%%%%%%%%%%%%%%%%%%%%%%%%%%%%
     %                                                                      %
     % You are using vdW-DF, which was implemented by the Thonhauser group. %
     % Please cite the following two papers that made this development      %
     % possible and the two reviews that describe the various versions:     %
     %                                                                      %
     %   T. Thonhauser et al., PRL 115, 136402 (2015).                      %
     %   T. Thonhauser et al., PRB 76, 125112 (2007).                       %
     %   K. Berland et al., Rep. Prog. Phys. 78, 066501 (2015).             %
     %   D.C. Langreth et al., J. Phys.: Condens. Matter 21, 084203 (2009). %
     %                                                                      %
     %                                                                      %
     % If you are calculating the stress with vdW-DF, please also cite:     %
     %                                                                      %
     %   R. Sabatini et al., J. Phys.: Condens. Matter 24, 424209 (2012).   %
     %                                                                      %
     %%%%%%%%%%%%%%%%%%%%%%%%%%%%%%%%%%%%%%%%%%%%%%%%%%%%%%%%%%%%%%%%%%%%%%%%

     Adding external electric field

     Computed dipole along edir(3) :
        Dipole              -10.1360 Ry au,        -25.7632 Debye
        Dipole field         -0.0191 Ry au,

        Potential amp.        1.7731 Ry
        Total length         46.3494 bohr

     Starting wfcs are  301 atomic wfcs
  @ DRIVER MODE: Message from server: STATUS
  @ DRIVER MODE: Message from server: POSDATA
  @ DRIVER MODE: Reading and sharing cell
  @ DRIVER MODE: Reading and sharing positions
  @ DRIVER MODE: Received positions

     Self-consistent Calculation

     iteration #  1     ecut=    29.40 Ry     beta= 0.05
     Davidson diagonalization with overlap
     c_bands:  2 eigenvalues not converged
     c_bands:  1 eigenvalues not converged
     c_bands:  1 eigenvalues not converged
     c_bands:  3 eigenvalues not converged
     c_bands:  1 eigenvalues not converged
     c_bands:  3 eigenvalues not converged
     c_bands:  3 eigenvalues not converged
     c_bands:  3 eigenvalues not converged
     c_bands:  1 eigenvalues not converged
     ethr =  1.00E-05,  avg # of iterations = 19.8

[...]

     total energy              =   -2497.72161451 Ry
     estimated scf accuracy    <    5094.12832124 Ry

     iteration #  2     ecut=    29.40 Ry     beta= 0.05
     Davidson diagonalization with overlap
     ethr =  1.00E-02,  avg # of iterations = 25.7

[...]

     iteration # 63     ecut=    29.40 Ry     beta= 0.05
     Davidson diagonalization with overlap
     c_bands:  1 eigenvalues not converged
     ethr =  2.64E-08,  avg # of iterations = 14.7

[...]

     total energy              =   -2953.88254450 Ry
     estimated scf accuracy    <       0.00000015 Ry

     iteration # 85     ecut=    29.40 Ry     beta= 0.05
     Davidson diagonalization with overlap
     ethr =  2.31E-11,  avg # of iterations = 10.0

     negative rho (up, down):  1.666E-02 0.000E+00

     Adding external electric field

     Computed dipole along edir(3) :
        Dipole                1.2955 Ry au,          3.2928 Debye
        Dipole field          0.0024 Ry au,

        Potential amp.       -0.2266 Ry
        Total length         46.3494 bohr

     End of self-consistent calculation

          k = 0.0000 0.0000 0.0000 ( 18029 PWs)   bands (ev):

   -55.4426 -55.4360 -55.4166 -55.4085 -55.3998 -55.2986 -55.2567 -55.2503
   -55.2348 -55.2328 -55.2157 -55.1994 -54.8599 -54.7675 -54.4288 -54.3948
   -31.9920 -31.9265 -31.8176 -31.7937 -31.7531 -31.7492 -31.7339 -31.7234
   -31.6851 -31.6837 -31.6537 -31.6378 -31.6266 -31.6161 -31.5955 -31.5827
   -31.5734 -31.5483 -31.5439 -31.5087 -31.5003 -31.4973 -31.4631 -31.4518
   -31.4453 -31.4429 -31.4347 -31.4340 -31.4338 -31.4080 -31.4078 -31.4022
   -31.3854 -31.3816 -31.3571 -31.3508 -31.3425 -31.1916 -31.0772 -31.0250
   -30.9663 -30.9295 -30.8363 -30.7470 -30.7246 -30.6530 -30.5664 -30.4554
   -19.0609 -16.4604 -16.1998 -15.9385 -15.7548 -15.6256 -15.5982 -15.4243
   -15.2893 -15.1874 -15.1250 -15.0691 -15.0483 -15.0007 -14.9979 -14.9858
   -14.9831 -14.9519 -14.9037 -14.8829 -14.8632 -14.8219 -14.8127 -14.7958
   -14.7470 -14.7078 -14.6132 -14.5814 -14.5551 -14.5148 -14.0311 -12.9311
   -12.8145  -9.0107  -6.8701  -6.6915  -4.2268  -3.5707  -3.4085  -3.3544
    -3.3439  -3.3198  -3.2300  -3.0913  -2.9537  -2.7208  -2.6585  -2.6227
    -2.5903  -2.5529  -2.4370  -2.3858  -2.3740  -2.3084  -2.2612  -2.2531
    -2.2402  -2.2188  -2.2035  -2.1428  -2.1298  -2.0296  -1.9873  -1.9177
    -1.8570  -1.8250  -1.7745  -1.7595  -1.7158  -1.7126  -1.6975  -1.6789
    -1.6649  -1.6492  -1.5902  -1.5296  -1.4519  -1.2668  -1.2348  -1.1183
    -1.0892  -1.0578  -1.0141  -0.9302  -0.9033  -0.8810  -0.8417  -0.7508
    -0.7256  -0.6783  -0.5894  -0.4998  -0.4533  -0.4280  -0.3485  -0.3136
    -0.2849  -0.2186  -0.2111  -0.1996  -0.1235  -0.0734   0.0383   0.0744
     0.1090   0.1240   0.1386   0.2240   0.2625   0.3198   0.3637   0.4160
     0.4529   0.4677   0.5031   0.5249   0.5397   0.5666   0.5786   0.7614
     0.8026   0.8318   0.8621   0.9439   1.0489   1.1155   1.1993   1.2687
     1.5161   1.5935   1.6464   1.7840   2.1656   2.2119   3.6286   3.7571
     3.7754   3.7938   3.8251   3.8878   3.9508   4.1397   4.1624   4.1834
     4.2119

[...]

          k = 0.0380-0.0419 0.0000 ( 17876 PWs)   bands (ev):

[...]

          k =-0.0760-0.0000 0.0000 ( 17886 PWs)   bands (ev):

[...]

          k =-0.0760-0.0839 0.0000 ( 17948 PWs)   bands (ev):

   -55.4260 -55.4249 -55.4196 -55.4164 -55.4145 -55.2898 -55.2655 -55.2363
   -55.2351 -55.2301 -55.2179 -55.2149 -54.8568 -54.7705 -54.4118 -54.4117
   -31.8015 -31.7908 -31.7421 -31.7414 -31.7263 -31.7198 -31.7187 -31.7022
   -31.6871 -31.6461 -31.6385 -31.6333 -31.6234 -31.6050 -31.5693 -31.5589
   -31.5543 -31.5542 -31.5517 -31.5460 -31.5454 -31.5449 -31.5413 -31.5024
   -31.4814 -31.4756 -31.4645 -31.4507 -31.4454 -31.4415 -31.4395 -31.4393
   -31.4324 -31.4291 -31.4103 -31.4049 -31.2529 -31.1935 -31.0707 -31.0433
   -31.0262 -30.9662 -30.7374 -30.7372 -30.6491 -30.6489 -30.6098 -30.6097
   -19.0599 -16.4502 -15.6896 -15.5603 -15.4318 -15.3740 -15.3686 -15.3102
   -15.3061 -15.1923 -15.1832 -15.1545 -15.1296 -15.1126 -15.0846 -15.0651
   -15.0033 -14.9827 -14.9793 -14.9491 -14.9199 -14.9070 -14.9026 -14.8876
   -14.8837 -14.8295 -14.7735 -14.7703 -14.6595 -14.5570 -14.1877 -12.9164
   -12.9161  -9.0203  -6.8540  -6.7106  -4.1934  -3.2349  -2.9738  -2.7926
    -2.6873  -2.6310  -2.5676  -2.5490  -2.3828  -2.3677  -2.3578  -2.3210
    -2.3044  -2.2832  -2.2728  -2.2681  -2.2419  -2.2298  -2.2117  -2.1803
    -2.1470  -2.1289  -2.1208  -2.1145  -2.0980  -2.0792  -2.0564  -2.0356
    -2.0308  -2.0044  -1.9647  -1.9409  -1.8820  -1.7455  -1.7086  -1.6680
    -1.5979  -1.5913  -1.5380  -1.5218  -1.4948  -1.4671  -1.4033  -1.3803
    -1.2333  -1.1677  -1.1516  -1.1359  -1.1215  -0.9997  -0.9590  -0.8900
    -0.8635  -0.7942  -0.7637  -0.7518  -0.7053  -0.6036  -0.5909  -0.5390
    -0.5274  -0.4305  -0.4079  -0.3969  -0.3620  -0.3174  -0.2489  -0.2081
    -0.1934  -0.1837  -0.1507  -0.1435  -0.1032   0.0170   0.0771   0.1384
     0.2082   0.3094   0.4227   0.4361   0.5857   0.6120   0.6259   0.7319
     0.8174   0.8486   0.8686   0.8937   0.8989   1.0236   1.0713   1.0809
     1.0826   1.2333   1.9557   1.9571   2.0314   2.0319   3.7367   3.9367
     3.9580   4.0001   4.0465   4.1781   4.1870   4.2215   4.2226   4.3060
     4.3413

     the Fermi energy is     3.6881 ev

!    total energy              =   -2953.88255471 Ry
     estimated scf accuracy    <       0.00000003 Ry
     smearing contrib. (-TS)   =      -0.03290756 Ry
     internal energy E=F+TS    =   -2953.84964716 Ry

     The total energy is F=E-TS. E is the sum of the following terms:
     one-electron contribution =  -24257.93943637 Ry
     hartree contribution      =   12222.52921427 Ry
     xc contribution           =    -488.83982301 Ry
     ewald contribution        =    9570.39723087 Ry
     electric field correction =       0.00316708 Ry

     convergence has been achieved in  85 iterations

     Forces acting on atoms (cartesian axes, Ry/au):

     atom    1 type  1   force =     0.00021149   -0.00019804    0.09613388
     atom    2 type  1   force =    -0.00011601   -0.00027320   -0.17607136
     atom    3 type  2   force =     0.00002729    0.00001965   -0.02490215
     atom    4 type  2   force =     0.00003464   -0.00160062    0.05416599
     atom    5 type  2   force =    -0.01177427   -0.00148817    0.00427608
     atom    6 type  2   force =     0.01354062   -0.00071001    0.00348290
     atom    7 type  1   force =    -0.00083969    0.00086869   -0.01026742
     atom    8 type  1   force =     0.00025193    0.01223086    0.02352913
     atom    9 type  2   force =    -0.00035964   -0.00008446   -0.00025618
     atom   10 type  2   force =    -0.00087998   -0.00045131   -0.01484349
     atom   11 type  2   force =     0.00042482    0.00008314    0.00018410
     atom   12 type  2   force =    -0.00039947   -0.00007695    0.00003414
     atom   13 type  1   force =    -0.00066773   -0.00007255   -0.00162081
     atom   14 type  1   force =     0.00057690    0.00018577    0.00033451
     atom   15 type  2   force =     0.00058263    0.00048227    0.00016606
     atom   16 type  2   force =    -0.00027630    0.00005622    0.00036439
     atom   17 type  2   force =    -0.00005286   -0.00022507   -0.00038282
     atom   18 type  2   force =     0.00013834   -0.00016167   -0.00012443
     atom   19 type  1   force =     0.00068680    0.00002959    0.00061277
     atom   20 type  1   force =    -0.00019359   -0.00080332    0.00010033
     atom   21 type  2   force =     0.00006107    0.00004432    0.10336596
     atom   22 type  2   force =     0.00035210    0.00075192   -0.00029494
     atom   23 type  2   force =    -0.07131671   -0.00007916   -0.02763971
     atom   24 type  2   force =     0.07127428    0.00035863   -0.02767740
     atom   25 type  1   force =    -0.00006568   -0.00014214    0.09564663
     atom   26 type  1   force =    -0.00020096   -0.00030459   -0.17601696
     atom   27 type  2   force =     0.00012373   -0.00040136   -0.02390675
     atom   28 type  2   force =     0.00009761   -0.00126752    0.05363160
     atom   29 type  2   force =    -0.01200540    0.00044982    0.00380208
     atom   30 type  2   force =     0.01365226    0.00069345    0.00308351
     atom   31 type  1   force =    -0.00061153    0.00369431   -0.01330640
     atom   32 type  1   force =     0.00020788   -0.01324955    0.02339762
     atom   33 type  2   force =    -0.00007777   -0.00005527   -0.00031450
     atom   34 type  2   force =    -0.00008503    0.00022104   -0.01831574
     atom   35 type  2   force =     0.00034415   -0.00048442    0.00025718
     atom   36 type  2   force =    -0.00030805   -0.00015776    0.00011975
     atom   37 type  1   force =    -0.00083495   -0.00023689   -0.00012833
     atom   38 type  1   force =     0.00047486    0.00008984    0.00065770
     atom   39 type  2   force =    -0.00004346    0.00082793    0.00006665
     atom   40 type  2   force =    -0.00022881   -0.00018102   -0.00063116
     atom   41 type  2   force =     0.00042645    0.00040686    0.00007375
     atom   42 type  2   force =    -0.00077798    0.00023069    0.00002927
     atom   43 type  1   force =     0.00070424    0.00015294   -0.00004496
     atom   44 type  1   force =    -0.00027628   -0.00078818    0.00042297
     atom   45 type  2   force =     0.00006129    0.00003645    0.10332705
     atom   46 type  2   force =    -0.07130177   -0.00001836   -0.02760958
     atom   47 type  2   force =     0.07124747    0.00040626   -0.02762959
     atom   48 type  3   force =    -0.00136781    0.00135310   -0.00059764
     atom   49 type  4   force =     0.00497157    0.00006550    0.00400111
     atom   50 type  5   force =    -0.00345903    0.00045841   -0.00325362
     atom   51 type  5   force =     0.00043552    0.00046034    0.00013449
     atom   52 type  5   force =    -0.00013881    0.00006230    0.00016542
     atom   53 type  2   force =    -0.00147908   -0.00111273   -0.00066563
     atom   54 type  5   force =    -0.00074326    0.00081897    0.00047983
     atom   55 type  5   force =    -0.00002803   -0.00091494    0.00045474

     Total force =     0.367698     Total SCF correction =     0.000510
  @ DRIVER MODE: Message from server: STATUS
  @ DRIVER MODE: Message from server: GETFORCE
  @ DRIVER MODE: Returning v,forces,stress,ensemble

     Writing output data file ./calc.save/
  @ DRIVER MODE: Message from server: EXIT
  @ DRIVE MODE: Exiting

     General routines

     Parallel routines

   This run was terminated on:  21:50: 6  15Sep2021

   JOB DONE.