     Program PWSCF v.6.7GPU starts on 23Sep2021 at  6: 1:47

     R & G space division:  proc/nbgrp/npool/nimage =       8
     Reading input from /storage/home/hcoda1/3/ntian30/research/carbon/CxH_vib/H2O_calc/ads_slab/CH2OHO_c/out_0020/pw.inp
Warning: card &CELL ignored
Warning: card   CELL_DYNAMICS='IPI', ignored
Warning: card / ignored

     Current dimensions of program PWSCF are:
     Max number of different atomic species (ntypx) = 10
     Max number of k-points (npk) =  40000
     Max angular momentum in pseudopotentials (lmaxx) =  3
     Presently no symmetry can be used with electric field

     Message from routine cell_base_init:
     DEPRECATED: use true lattice parameter, not A to a.u. conversion factor

     IMPORTANT: XC functional enforced from input :
     Exchange-correlation= BEEF-VDW
                           (   1   4  43  14   2   0   0)
     Any further DFT definition will be discarded
     Please, verify this is what you really want

  @ DRIVER MODE: Connecting to
 qe_1139763_2941011.sched-torque.pace.gatech.eduhj2li6hy_scratch
  using UNIX socket
  @ DRIVER MODE: Message from server: STATUS
  @ DRIVER MODE: Message from server: INIT
  @ DRIVER MODE: Receiving replica           0          -1
  @ DRIVER MODE: Receiving encoded integer          25
  @ DRIVER MODE:  SCF:  T  FORCE:  T  STRESS:  F  VC:  F  ENSEMBLE:  F
  @ DRIVER MODE:  SCF:  T  FORCE:  T  STRESS:  F  VC:  F  ENSEMBLE:  F

     Using Slab Decomposition

     bravais-lattice index     =            0
     lattice parameter (alat)  =       1.8897  a.u.
     unit-cell volume          =    6658.9804 (a.u.)^3
     number of atoms/cell      =           53
     number of atomic types    =            4
     number of electrons       =       397.00
     number of Kohn-Sham states=          208
     kinetic-energy cutoff     =      29.3995  Ry
     charge density cutoff     =     293.9946  Ry
     scf convergence threshold =      7.3E-08
     mixing beta               =       0.0500
     number of iterations used =            8  plain     mixing
     Exchange-correlation= BEEF-VDW
                           (   1   4  43  14   2   0   0)

     celldm(1)=   1.889726  celldm(2)=   0.000000  celldm(3)=   0.000000
     celldm(4)=   0.000000  celldm(5)=   0.000000  celldm(6)=   0.000000

     crystal axes: (cart. coord. in units of alat)
               a(1) = (   6.579727   0.000000   0.000000 )
               a(2) = (  -0.000775   5.961596   0.000000 )
               a(3) = (   0.000000   0.000000  25.155947 )

     reciprocal axes: (cart. coord. in units 2 pi/alat)
               b(1) = (  0.151982  0.000020  0.000000 )
               b(2) = (  0.000000  0.167740  0.000000 )
               b(3) = (  0.000000  0.000000  0.039752 )

     PseudoPot. # 1 for O  read from file:
     /storage/coda1/p-amedford6/0/shared/rich_project_chbe-medford/medford-share/data/pseudos_module/espresso/nninc/pbe/van/O.UPF
     MD5 check sum: 78c19812648e8988a0fe644b0f25305e
     Pseudo is Ultrasoft, Zval =  6.0
     Generated by new atomic code, or converted to UPF format
     Using radial grid of  737 points,  4 beta functions with:
                l(1) =   0
                l(2) =   0
                l(3) =   1
                l(4) =   1
     Q(r) pseudized with  8 coefficients,  rinner =    0.800   0.800   0.800

     PseudoPot. # 2 for Ti read from file:
     /storage/coda1/p-amedford6/0/shared/rich_project_chbe-medford/medford-share/data/pseudos_module/espresso/nninc/pbe/van/Ti.UPF
     MD5 check sum: 8e4df49b7f0d34bbd5052bf3f5ea0213
     Pseudo is Ultrasoft, Zval = 12.0
     Generated by new atomic code, or converted to UPF format
     Using radial grid of  851 points,  6 beta functions with:
                l(1) =   0
                l(2) =   0
                l(3) =   1
                l(4) =   1
                l(5) =   2
                l(6) =   2
     Q(r) pseudized with  8 coefficients,  rinner =    1.000   1.000   1.000
                                                       1.000   1.000

     PseudoPot. # 3 for C  read from file:
     /storage/coda1/p-amedford6/0/shared/rich_project_chbe-medford/medford-share/data/pseudos_module/espresso/nninc/pbe/van/C.UPF
     MD5 check sum: 1a69bf6b8db32088f5b2163dbdb77a27
     Pseudo is Ultrasoft, Zval =  4.0
     Generated by new atomic code, or converted to UPF format
     Using radial grid of  721 points,  4 beta functions with:
                l(1) =   0
                l(2) =   0
                l(3) =   1
                l(4) =   1
     Q(r) pseudized with  8 coefficients,  rinner =    0.800   0.800   0.800

     PseudoPot. # 4 for H  read from file:
     /storage/coda1/p-amedford6/0/shared/rich_project_chbe-medford/medford-share/data/pseudos_module/espresso/nninc/pbe/van/H.UPF
     MD5 check sum: b5ee9d7bfd3a09ee7748110bda690ff7
     Pseudo is Ultrasoft, Zval =  1.0
     Generated by new atomic code, or converted to UPF format
     Using radial grid of  615 points,  1 beta functions with:
                l(1) =   0
     Q(r) pseudized with  8 coefficients,  rinner =    0.800

     atomic species   valence    mass     pseudopotential
        O1             6.00    15.99900     O ( 1.00)
        Ti1           12.00    47.86700     Ti( 1.00)
        C1             4.00    12.01100     C ( 1.00)
        H1             1.00     1.00800     H ( 1.00)

     No symmetry found

   Cartesian axes

     site n.     atom                  positions (alat units)
         1           O1  tau(   1) = (   3.2904802   0.0005063   4.7018136  )
         2           O1  tau(   2) = (   3.2900926   2.9813045   4.7018136  )
         3           Ti1 tau(   3) = (   0.0004258   2.9801865   6.0000000  )
         4           Ti1 tau(   4) = (   0.0000382   5.9609847   6.0000000  )
         5           Ti1 tau(   5) = (   3.2906075   1.4906267   6.0002472  )
         6           Ti1 tau(   6) = (   3.2902200   4.4714249   6.0002472  )
         7           O1  tau(   7) = (   1.3043587   1.4918075   6.0039043  )
         8           O1  tau(   8) = (   1.3039711   4.4726057   6.0039043  )
         9           O1  tau(   9) = (   5.2767064   1.4903225   6.0039473  )
        10           O1  tau(  10) = (   5.2763189   4.4711207   6.0039473  )
        11           O1  tau(  11) = (   3.2906025   0.0005020   7.3038282  )
        12           O1  tau(  12) = (   3.2902150   2.9813002   7.3038282  )
        13           O1  tau(  13) = (   0.0006271   0.0005054   7.9858123  )
        14           O1  tau(  14) = (   0.0002396   2.9813036   7.9858123  )
        15           Ti1 tau(  15) = (   3.3202697   0.0919879   9.1698383  )
        16           Ti1 tau(  16) = (   3.3215697   3.0759731   9.1987478  )
        17           Ti1 tau(  17) = (   0.0419684   4.5271873   9.2680259  )
        18           Ti1 tau(  18) = (   0.0391189   1.6041453   9.3419098  )
        19           O1  tau(  19) = (   4.5942328   1.4918067   9.2879030  )
        20           O1  tau(  20) = (   4.5938453   4.4726049   9.2879030  )
        21           O1  tau(  21) = (   1.9868534   1.4903216   9.2879459  )
        22           O1  tau(  22) = (   1.9864658   4.4711199   9.2879459  )
        23           O1  tau(  23) = (   0.0125722   0.0097687  10.5830051  )
        24           O1  tau(  24) = (   0.0081120   2.9918398  10.5664780  )
        25           O1  tau(  25) = (   3.3077729   2.9680546  11.3050536  )
        26           O1  tau(  26) = (   3.3059260   0.0232323  11.3367354  )
        27           Ti1 tau(  27) = (   0.0233359   0.0627999  12.4784840  )
        28           Ti1 tau(  28) = (   3.3058864   4.6637881  12.6801991  )
        29           Ti1 tau(  29) = (   3.3037148   1.5793570  12.4293313  )
        30           Ti1 tau(  30) = (   0.0089448   3.0481173  12.7472709  )
        31           O1  tau(  31) = (   1.2933882   4.4692258  12.6303221  )
        32           O1  tau(  32) = (   1.2985301   1.4993897  12.6236677  )
        33           O1  tau(  33) = (   5.3274268   4.4793405  12.6275207  )
        34           O1  tau(  34) = (   5.3265499   1.4915365  12.6220616  )
        35           O1  tau(  35) = (   3.3295878   2.9786622  13.8932268  )
        36           O1  tau(  36) = (   3.3104420   5.9098017  13.9586718  )
        37           O1  tau(  37) = (   0.0385923   0.0024916  14.6531765  )
        38           O1  tau(  38) = (   0.0086518   2.9873893  14.7004014  )
        39           Ti1 tau(  39) = (   3.3201234   2.9526136  15.6695435  )
        40           Ti1 tau(  40) = (   3.4185286   5.9334276  16.2343674  )
        41           Ti1 tau(  41) = (   0.1049196   4.5923083  15.9423708  )
        42           Ti1 tau(  42) = (   0.0892020   1.3980244  15.8930203  )
        43           O1  tau(  43) = (   4.5900789   4.4270775  16.0984088  )
        44           O1  tau(  44) = (   4.5919070   1.5192920  16.0669747  )
        45           O1  tau(  45) = (   2.0372030   1.5514537  16.0349210  )
        46           O1  tau(  46) = (   2.0392294   4.4021701  16.0428288  )
        47           O1  tau(  47) = (   0.0638787   0.0130652  17.1658208  )
        48           O1  tau(  48) = (   6.5756481   2.9829514  17.4361268  )
        49           C1  tau(  49) = (   6.2652767   2.9703434  18.6584371  )
        50           H1  tau(  50) = (   6.1492679   3.9148029  19.1865895  )
        51           H1  tau(  51) = (   6.1098186   2.0156765  19.1535163  )
        52           O1  tau(  52) = (   3.1909063   0.0039016  18.0657888  )
        53           H1  tau(  53) = (   2.2823347   0.1153277  18.3895531  )

     number of k points=    10  Fermi-Dirac smearing, width (Ry)=  0.0073
                       cart. coord. in units 2pi/alat
        k(    1) = (   0.0000000   0.0000000   0.0000000), wk =   0.1250000
        k(    2) = (   0.0000000   0.0419351   0.0000000), wk =   0.2500000
        k(    3) = (   0.0000000  -0.0838702   0.0000000), wk =   0.1250000
        k(    4) = (   0.0379955   0.0000049   0.0000000), wk =   0.2500000
        k(    5) = (   0.0379955   0.0419400   0.0000000), wk =   0.2500000
        k(    6) = (   0.0379955  -0.0838652   0.0000000), wk =   0.2500000
        k(    7) = (   0.0379955  -0.0419301   0.0000000), wk =   0.2500000
        k(    8) = (  -0.0759910  -0.0000099   0.0000000), wk =   0.1250000
        k(    9) = (  -0.0759910   0.0419252   0.0000000), wk =   0.2500000
        k(   10) = (  -0.0759910  -0.0838800   0.0000000), wk =   0.1250000

     Initial potential from superposition of free atoms

     starting charge  380.99918, renormalised to  397.00000

     negative rho (up, down):  1.768E-02 0.000E+00

     %%%%%%%%%%%%%%%%%%%%%%%%%%%%%%%%%%%%%%%%%%%%%%%%%%%%%%%%%%%%%%%%%%%%%%%%
     %                                                                      %
     % You are using vdW-DF, which was implemented by the Thonhauser group. %
     % Please cite the following two papers that made this development      %
     % possible and the two reviews that describe the various versions:     %
     %                                                                      %
     %   T. Thonhauser et al., PRL 115, 136402 (2015).                      %
     %   T. Thonhauser et al., PRB 76, 125112 (2007).                       %
     %   K. Berland et al., Rep. Prog. Phys. 78, 066501 (2015).             %
     %   D.C. Langreth et al., J. Phys.: Condens. Matter 21, 084203 (2009). %
     %                                                                      %
     %                                                                      %
     % If you are calculating the stress with vdW-DF, please also cite:     %
     %                                                                      %
     %   R. Sabatini et al., J. Phys.: Condens. Matter 24, 424209 (2012).   %
     %                                                                      %
     %%%%%%%%%%%%%%%%%%%%%%%%%%%%%%%%%%%%%%%%%%%%%%%%%%%%%%%%%%%%%%%%%%%%%%%%

     Adding external electric field

     Computed dipole along edir(3) :
        Dipole               -8.4002 Ry au,        -21.3511 Debye
        Dipole field         -0.0159 Ry au,

        Potential amp.        1.4695 Ry
        Total length         46.3494 bohr

     Starting wfcs are  299 atomic wfcs
  @ DRIVER MODE: Message from server: STATUS
  @ DRIVER MODE: Message from server: POSDATA
  @ DRIVER MODE: Reading and sharing cell
  @ DRIVER MODE: Reading and sharing positions
  @ DRIVER MODE: Received positions

     Self-consistent Calculation

     iteration #  1     ecut=    29.40 Ry     beta= 0.05
     Davidson diagonalization with overlap
     c_bands:  1 eigenvalues not converged
     c_bands:  1 eigenvalues not converged
     c_bands:  1 eigenvalues not converged
     c_bands:  1 eigenvalues not converged
     ethr =  1.00E-05,  avg # of iterations = 18.2

[...]

     total energy              =   -2610.75110983 Ry
     estimated scf accuracy    <    3908.84754286 Ry

     iteration #  2     ecut=    29.40 Ry     beta= 0.05
     Davidson diagonalization with overlap
     ethr =  1.00E-02,  avg # of iterations = 23.7

[...]

     iteration # 50     ecut=    29.40 Ry     beta= 0.05
     Davidson diagonalization with overlap
     c_bands:  1 eigenvalues not converged
     c_bands:  1 eigenvalues not converged
     c_bands:  2 eigenvalues not converged
     c_bands:  1 eigenvalues not converged
     ethr =  1.26E-06,  avg # of iterations = 16.2

[...]

     total energy              =   -2963.78478686 Ry
     estimated scf accuracy    <       0.00000007 Ry

     iteration # 72     ecut=    29.40 Ry     beta= 0.05
     Davidson diagonalization with overlap
     ethr =  1.86E-11,  avg # of iterations =  9.1

     negative rho (up, down):  1.717E-02 0.000E+00

     Adding external electric field

     Computed dipole along edir(3) :
        Dipole                0.8865 Ry au,          2.2532 Debye
        Dipole field          0.0017 Ry au,

        Potential amp.       -0.1551 Ry
        Total length         46.3494 bohr

     End of self-consistent calculation

          k = 0.0000 0.0000 0.0000 ( 18029 PWs)   bands (ev):

   -55.9286 -55.8875 -55.7856 -55.7080 -55.6740 -55.6675 -55.6562 -55.6013
   -55.5646 -55.5442 -55.5224 -55.4861 -55.4656 -55.3737 -54.7736 -54.7396
   -32.3808 -32.2480 -32.2225 -32.1864 -32.1851 -32.1358 -32.1241 -32.0871
   -32.0676 -32.0149 -32.0118 -32.0040 -31.9997 -31.9925 -31.9736 -31.9568
   -31.9402 -31.9291 -31.8873 -31.8836 -31.8701 -31.8539 -31.8496 -31.8372
   -31.8095 -31.8057 -31.7777 -31.7711 -31.7688 -31.7585 -31.7466 -31.7407
   -31.7354 -31.7243 -31.7006 -31.6879 -31.6825 -31.6576 -31.6383 -31.6206
   -31.5798 -31.5785 -31.1760 -31.1002 -31.0769 -30.9930 -30.9071 -30.7958
   -20.2068 -16.5710 -16.4243 -16.2526 -16.0622 -15.9679 -15.9061 -15.6920
   -15.6373 -15.5392 -15.4181 -15.3830 -15.3388 -15.3123 -15.2941 -15.2799
   -15.2632 -15.2445 -15.2114 -15.1901 -15.1844 -15.1403 -15.0719 -15.0257
   -15.0174 -14.9775 -14.9187 -14.8768 -14.8396 -14.7998 -14.6229 -13.2743
   -13.1606  -9.4720  -5.7878  -5.7238  -4.1619  -3.7944  -3.7676  -3.7368
    -3.6511  -3.6128  -3.5084  -3.3438  -3.1623  -3.0343  -2.9448  -2.9267
    -2.8880  -2.7752  -2.7243  -2.6927  -2.6489  -2.6199  -2.6014  -2.5594
    -2.5368  -2.4962  -2.4637  -2.4355  -2.3442  -2.3371  -2.2767  -2.2158
    -2.1831  -2.1742  -2.1690  -2.1456  -2.1105  -2.0561  -2.0206  -1.9860
    -1.9487  -1.8306  -1.8132  -1.7975  -1.7257  -1.4837  -1.3534  -1.3131
    -1.2590  -1.2167  -1.1933  -1.1686  -1.1632  -1.1442  -1.1117  -1.0626
    -0.9590  -0.9006  -0.8306  -0.8247  -0.8081  -0.7453  -0.6656  -0.5947
    -0.5564  -0.5261  -0.5024  -0.4273  -0.4264  -0.3528  -0.3221  -0.2505
    -0.1362  -0.0883  -0.0646  -0.0463  -0.0336   0.0200   0.0665   0.1344
     0.1538   0.1700   0.1983   0.2780   0.2877   0.3106   0.3289   0.4253
     0.4893   0.4977   0.5665   0.6580   0.6910   0.7739   0.9018   0.9780
     1.2240   1.2485   1.3338   1.4640   1.8099   1.8539   3.2868   3.3577
     3.3949   3.4956   3.5786   3.5980   3.6762   3.7359   3.8236   3.8673

[...]

          k = 0.0380-0.0419 0.0000 ( 17876 PWs)   bands (ev):

[...]

          k =-0.0760-0.0000 0.0000 ( 17886 PWs)   bands (ev):

[...]

          k =-0.0760-0.0839 0.0000 ( 17948 PWs)   bands (ev):

   -55.9197 -55.8963 -55.7846 -55.6947 -55.6870 -55.6650 -55.6500 -55.6074
   -55.5655 -55.5464 -55.5110 -55.4976 -55.4624 -55.3767 -54.7570 -54.7561
   -32.2167 -32.2058 -32.1862 -32.1800 -32.1580 -32.0582 -32.0463 -32.0444
   -32.0294 -32.0176 -32.0105 -32.0028 -32.0006 -31.9554 -31.9497 -31.9225
   -31.9059 -31.9035 -31.8975 -31.8843 -31.8813 -31.8757 -31.8730 -31.8668
   -31.8569 -31.8432 -31.8202 -31.8110 -31.8032 -31.8003 -31.7728 -31.7624
   -31.7509 -31.7302 -31.7267 -31.7251 -31.7212 -31.7194 -31.6810 -31.6610
   -31.6230 -31.5823 -31.0902 -31.0893 -30.9904 -30.9887 -30.9503 -30.9491
   -20.2010 -16.5373 -15.9355 -15.8810 -15.7310 -15.7043 -15.6605 -15.6059
   -15.5478 -15.5060 -15.4959 -15.4600 -15.4409 -15.4163 -15.3950 -15.3669
   -15.3412 -15.2948 -15.2872 -15.2404 -15.2311 -15.2114 -15.1852 -15.1533
   -15.0996 -15.0865 -15.0671 -15.0348 -15.0138 -14.9248 -14.7597 -13.2640
   -13.2620  -9.4739  -5.7744  -5.7099  -4.1255  -3.7886  -3.1721  -3.0998
    -2.9544  -2.8766  -2.8101  -2.7886  -2.7727  -2.7418  -2.6765  -2.6560
    -2.6012  -2.5964  -2.5880  -2.5778  -2.5638  -2.5209  -2.4919  -2.4766
    -2.4699  -2.4515  -2.4235  -2.4094  -2.3958  -2.3839  -2.3738  -2.3672
    -2.3151  -2.2519  -2.1717  -2.1238  -2.1047  -1.9812  -1.9635  -1.9034
    -1.8905  -1.8832  -1.8519  -1.8480  -1.7754  -1.7207  -1.5666  -1.5502
    -1.5106  -1.4487  -1.4164  -1.3302  -1.3144  -1.2787  -1.2320  -1.2209
    -1.1969  -1.1762  -1.0780  -0.9989  -0.9576  -0.9182  -0.8056  -0.7896
    -0.7744  -0.7106  -0.6887  -0.6794  -0.6711  -0.6068  -0.5450  -0.4969
    -0.4788  -0.4423  -0.4218  -0.3740  -0.3156  -0.2375  -0.1666  -0.0966
    -0.0660   0.0411   0.1182   0.1554   0.2697   0.3261   0.3557   0.3838
     0.4525   0.5081   0.5261   0.6103   0.6808   0.7005   0.7584   0.7914
     0.8307   0.8655   1.6202   1.6331   1.6648   1.6755   3.2502   3.7769
     3.7867   3.8005   3.8192   3.8443   3.8674   3.9537   4.0028   4.0069

     the Fermi energy is     3.2270 ev

!    total energy              =   -2963.78480513 Ry
     estimated scf accuracy    <       0.00000007 Ry
     smearing contrib. (-TS)   =      -0.01873953 Ry
     internal energy E=F+TS    =   -2963.76606560 Ry

     The total energy is F=E-TS. E is the sum of the following terms:
     one-electron contribution =  -24352.13028169 Ry
     hartree contribution      =   12266.18541123 Ry
     xc contribution           =    -489.27553120 Ry
     ewald contribution        =    9611.45285302 Ry
     electric field correction =       0.00148304 Ry

     convergence has been achieved in  72 iterations

     Forces acting on atoms (cartesian axes, Ry/au):

     atom    1 type  1   force =    -0.00006783    0.00012559    0.10164846
     atom    2 type  1   force =    -0.00006554    0.00016176    0.10132077
     atom    3 type  2   force =    -0.00029213   -0.00136598    0.10431636
     atom    4 type  2   force =    -0.00023179    0.00134100    0.11680198
     atom    5 type  2   force =    -0.00034263    0.00599490   -0.16905949
     atom    6 type  2   force =    -0.00007465   -0.00499308   -0.16912535
     atom    7 type  1   force =    -0.07475442    0.00067863   -0.03018708
     atom    8 type  1   force =    -0.07428304   -0.00133080   -0.03018990
     atom    9 type  1   force =     0.07443025    0.00121421   -0.03023492
     atom   10 type  1   force =     0.07409962   -0.00091377   -0.03025618
     atom   11 type  1   force =     0.00083370    0.00105750    0.04729486
     atom   12 type  1   force =     0.00077895    0.00082776    0.04929413
     atom   13 type  1   force =     0.00026567   -0.00562616   -0.03767363
     atom   14 type  1   force =     0.00053964    0.00416667   -0.03206390
     atom   15 type  2   force =    -0.00044448    0.00078328   -0.00013927
     atom   16 type  2   force =    -0.00038964   -0.00082358   -0.00014860
     atom   17 type  2   force =     0.00030151   -0.00003826    0.00052991
     atom   18 type  2   force =     0.00026780    0.00013368    0.00105919
     atom   19 type  1   force =    -0.00989837   -0.00202199    0.00042184
     atom   20 type  1   force =    -0.00988657    0.00493544    0.00133759
     atom   21 type  1   force =     0.01190825   -0.00463086    0.00142764
     atom   22 type  1   force =     0.01108569    0.00175332    0.00191149
     atom   23 type  1   force =    -0.00024968    0.00003131    0.00019210
     atom   24 type  1   force =    -0.00026889    0.00003426   -0.00038430
     atom   25 type  1   force =    -0.00036644   -0.00040275   -0.00040128
     atom   26 type  1   force =    -0.00021349   -0.00007154   -0.00008822
     atom   27 type  2   force =    -0.00031268   -0.00022814   -0.00003958
     atom   28 type  2   force =     0.00016168   -0.00023020    0.00053043
     atom   29 type  2   force =     0.00033269   -0.00042696   -0.00077274
     atom   30 type  2   force =    -0.00015886    0.00029826    0.00010878
     atom   31 type  1   force =     0.00002152    0.00057168    0.00025787
     atom   32 type  1   force =     0.00039354    0.00018536   -0.00004870
     atom   33 type  1   force =    -0.00031749    0.00031466    0.00062368
     atom   34 type  1   force =    -0.00087815    0.00054171    0.00014958
     atom   35 type  1   force =    -0.00045979   -0.00045674   -0.00081485
     atom   36 type  1   force =    -0.00019334   -0.00020244   -0.00002467
     atom   37 type  1   force =    -0.00013055   -0.00036974    0.00040974
     atom   38 type  1   force =     0.00039864    0.00030138    0.00014562
     atom   39 type  2   force =     0.00000845    0.00025855    0.00065027
     atom   40 type  2   force =    -0.00004947   -0.00039610    0.00028603
     atom   41 type  2   force =    -0.00026224    0.00019360    0.00032721
     atom   42 type  2   force =    -0.00027855   -0.00019704    0.00003172
     atom   43 type  1   force =     0.00020883   -0.00005942   -0.00023279
     atom   44 type  1   force =    -0.00043169   -0.00003211   -0.00029711
     atom   45 type  1   force =     0.00078827   -0.00002239   -0.00017272
     atom   46 type  1   force =    -0.00039095   -0.00007447   -0.00021913
     atom   47 type  1   force =     0.00028890   -0.00058786    0.00029526
     atom   48 type  1   force =    -0.00044890    0.00054494   -0.00017598
     atom   49 type  3   force =     0.00119793    0.00124190   -0.00088570
     atom   50 type  4   force =    -0.00106369    0.00006317    0.00024448
     atom   51 type  4   force =    -0.00120084   -0.00188119    0.00159557
     atom   52 type  1   force =    -0.00078043    0.00027566    0.00125388
     atom   53 type  4   force =     0.00087566   -0.00064659   -0.00083033

     Total force =     0.368623     Total SCF correction =     0.000691
  @ DRIVER MODE: Message from server: STATUS
  @ DRIVER MODE: Message from server: GETFORCE
  @ DRIVER MODE: Returning v,forces,stress,ensemble

     Writing output data file ./calc.save/
  @ DRIVER MODE: Message from server: EXIT
  @ DRIVE MODE: Exiting

     General routines

     Parallel routines

   This run was terminated on:   6:25:35  23Sep2021

   JOB DONE.