     Program PWSCF v.6.7GPU starts on 15Jul2021 at 23:22:43

     R & G space division:  proc/nbgrp/npool/nimage =      16
     Reading input from /storage/home/hcoda1/3/ntian30/research/carbon/15Jul_vib/ads_slab/CH3N2H_a/out_0010/pw.inp
Warning: card &CELL ignored
Warning: card   CELL_DYNAMICS='IPI', ignored
Warning: card / ignored

     Current dimensions of program PWSCF are:
     Max number of different atomic species (ntypx) = 10
     Max number of k-points (npk) =  40000
     Max angular momentum in pseudopotentials (lmaxx) =  3
     Presently no symmetry can be used with electric field

     Message from routine cell_base_init:
     DEPRECATED: use true lattice parameter, not A to a.u. conversion factor

     IMPORTANT: XC functional enforced from input :
     Exchange-correlation= BEEF-VDW
                           (   1   4  43  14   2   0   0)
     Any further DFT definition will be discarded
     Please, verify this is what you really want

  @ DRIVER MODE: Connecting to
 qe_1139763_2351646.sched-torque.pace.gatech.edurzote7ry_scratch
  using UNIX socket
  @ DRIVER MODE: Message from server: STATUS
  @ DRIVER MODE: Message from server: INIT
  @ DRIVER MODE: Receiving replica           0          -1
  @ DRIVER MODE: Receiving encoded integer          25
  @ DRIVER MODE:  SCF:  T  FORCE:  T  STRESS:  F  VC:  F  ENSEMBLE:  F
  @ DRIVER MODE:  SCF:  T  FORCE:  T  STRESS:  F  VC:  F  ENSEMBLE:  F

     Using Slab Decomposition

     bravais-lattice index     =            0
     lattice parameter (alat)  =       1.8897  a.u.
     unit-cell volume          =    6658.9804 (a.u.)^3
     number of atoms/cell      =           54
     number of atomic types    =            5
     number of electrons       =       396.00
     number of Kohn-Sham states=          208
     kinetic-energy cutoff     =      29.3995  Ry
     charge density cutoff     =     293.9946  Ry
     scf convergence threshold =      7.3E-08
     mixing beta               =       0.0500
     number of iterations used =            8  plain     mixing
     Exchange-correlation= BEEF-VDW
                           (   1   4  43  14   2   0   0)

     celldm(1)=   1.889726  celldm(2)=   0.000000  celldm(3)=   0.000000
     celldm(4)=   0.000000  celldm(5)=   0.000000  celldm(6)=   0.000000

     crystal axes: (cart. coord. in units of alat)
               a(1) = (   6.579727   0.000000   0.000000 )
               a(2) = (  -0.000775   5.961596   0.000000 )
               a(3) = (   0.000000   0.000000  25.155947 )

     reciprocal axes: (cart. coord. in units 2 pi/alat)
               b(1) = (  0.151982  0.000020  0.000000 )
               b(2) = (  0.000000  0.167740  0.000000 )
               b(3) = (  0.000000  0.000000  0.039752 )

     PseudoPot. # 1 for Ti read from file:
     /storage/coda1/p-amedford6/0/shared/rich_project_chbe-medford/medford-share/data/pseudos_module/espresso/nninc/pbe/van/Ti.UPF
     MD5 check sum: 8e4df49b7f0d34bbd5052bf3f5ea0213
     Pseudo is Ultrasoft, Zval = 12.0
     Generated by new atomic code, or converted to UPF format
     Using radial grid of  851 points,  6 beta functions with:
                l(1) =   0
                l(2) =   0
                l(3) =   1
                l(4) =   1
                l(5) =   2
                l(6) =   2
     Q(r) pseudized with  8 coefficients,  rinner =    1.000   1.000   1.000
                                                       1.000   1.000

     PseudoPot. # 2 for O  read from file:
     /storage/coda1/p-amedford6/0/shared/rich_project_chbe-medford/medford-share/data/pseudos_module/espresso/nninc/pbe/van/O.UPF
     MD5 check sum: 78c19812648e8988a0fe644b0f25305e
     Pseudo is Ultrasoft, Zval =  6.0
     Generated by new atomic code, or converted to UPF format
     Using radial grid of  737 points,  4 beta functions with:
                l(1) =   0
                l(2) =   0
                l(3) =   1
                l(4) =   1
     Q(r) pseudized with  8 coefficients,  rinner =    0.800   0.800   0.800

     PseudoPot. # 3 for N  read from file:
     /storage/coda1/p-amedford6/0/shared/rich_project_chbe-medford/medford-share/data/pseudos_module/espresso/nninc/pbe/van/N.UPF
     MD5 check sum: 90d10febe142ad51ac9d5be1deb811c4
     Pseudo is Ultrasoft, Zval =  5.0
     Generated by new atomic code, or converted to UPF format
     Using radial grid of  729 points,  4 beta functions with:
                l(1) =   0
                l(2) =   0
                l(3) =   1
                l(4) =   1
     Q(r) pseudized with  8 coefficients,  rinner =    0.800   0.800   0.800

     PseudoPot. # 4 for C  read from file:
     /storage/coda1/p-amedford6/0/shared/rich_project_chbe-medford/medford-share/data/pseudos_module/espresso/nninc/pbe/van/C.UPF
     MD5 check sum: 1a69bf6b8db32088f5b2163dbdb77a27
     Pseudo is Ultrasoft, Zval =  4.0
     Generated by new atomic code, or converted to UPF format
     Using radial grid of  721 points,  4 beta functions with:
                l(1) =   0
                l(2) =   0
                l(3) =   1
                l(4) =   1
     Q(r) pseudized with  8 coefficients,  rinner =    0.800   0.800   0.800

     PseudoPot. # 5 for H  read from file:
     /storage/coda1/p-amedford6/0/shared/rich_project_chbe-medford/medford-share/data/pseudos_module/espresso/nninc/pbe/van/H.UPF
     MD5 check sum: b5ee9d7bfd3a09ee7748110bda690ff7
     Pseudo is Ultrasoft, Zval =  1.0
     Generated by new atomic code, or converted to UPF format
     Using radial grid of  615 points,  1 beta functions with:
                l(1) =   0
     Q(r) pseudized with  8 coefficients,  rinner =    0.800

     atomic species   valence    mass     pseudopotential
        Ti1           12.00    47.86700     Ti( 1.00)
        O1             6.00    15.99900     O ( 1.00)
        N1             5.00    14.00700     N ( 1.00)
        C1             4.00    12.01100     C ( 1.00)
        H1             1.00     1.00800     H ( 1.00)

     Starting magnetic structure
     atomic species   magnetization
        Ti1          0.000
        O1           0.000
        N1           0.000
        C1           0.025
        H1           0.000

     No symmetry found

   Cartesian axes

     site n.     atom                  positions (alat units)
         1           Ti1 tau(   1) = (   0.0004258   2.9801865   6.0000000  )
         2           Ti1 tau(   2) = (   3.2906075   1.4906267   6.0002472  )
         3           O1  tau(   3) = (   0.0006271   0.0005054   7.9858123  )
         4           O1  tau(   4) = (   3.2906025   0.0005020   7.3038282  )
         5           O1  tau(   5) = (   4.5942328   1.4918067   9.2879030  )
         6           O1  tau(   6) = (   1.9868534   1.4903216   9.2879459  )
         7           Ti1 tau(   7) = (   3.2907910   2.8959150   9.1758416  )
         8           Ti1 tau(   8) = (   0.0015273   1.4827037   9.2680791  )
         9           O1  tau(   9) = (   3.3106937   0.0084137  11.2927479  )
        10           O1  tau(  10) = (   0.0116148   5.9584955  10.6183126  )
        11           O1  tau(  11) = (   1.3255326   1.5151957  12.5859258  )
        12           O1  tau(  12) = (   5.3246634   1.4871208  12.6441624  )
        13           Ti1 tau(  13) = (   6.5358624   2.9940264  12.7507449  )
        14           Ti1 tau(  14) = (   3.1828407   1.5032771  12.4528579  )
        15           O1  tau(  15) = (   0.1336207   0.0073438  14.6266748  )
        16           O1  tau(  16) = (   3.2550344   0.0288700  13.8306396  )
        17           O1  tau(  17) = (   4.6334483   1.5013943  15.9792279  )
        18           O1  tau(  18) = (   2.1409664   1.5470880  15.9954950  )
        19           Ti1 tau(  19) = (   3.4798582   3.0305884  15.6593850  )
        20           Ti1 tau(  20) = (   0.1386493   1.3724552  15.8613965  )
        21           O1  tau(  21) = (   3.2904802   0.0005063   4.7018136  )
        22           O1  tau(  22) = (   0.1429122   0.0333940  17.1908172  )
        23           O1  tau(  23) = (   1.3043587   1.4918075   6.0039043  )
        24           O1  tau(  24) = (   5.2767064   1.4903225   6.0039473  )
        25           Ti1 tau(  25) = (   0.0000382   5.9609847   6.0000000  )
        26           Ti1 tau(  26) = (   3.2902200   4.4714249   6.0002472  )
        27           O1  tau(  27) = (   0.0002396   2.9813036   7.9858123  )
        28           O1  tau(  28) = (   3.2902150   2.9813002   7.3038282  )
        29           O1  tau(  29) = (   4.5938453   4.4726049   9.2879030  )
        30           O1  tau(  30) = (   1.9864658   4.4711199   9.2879459  )
        31           Ti1 tau(  31) = (   3.2891106   5.8743827   9.1763621  )
        32           Ti1 tau(  32) = (   0.0006254   4.4649316   9.2693709  )
        33           O1  tau(  33) = (   3.3137399   2.9960163  11.2943833  )
        34           O1  tau(  34) = (   0.0092240   2.9805883  10.6323155  )
        35           O1  tau(  35) = (   1.3234708   4.4688006  12.5930975  )
        36           O1  tau(  36) = (   5.3222282   4.4932535  12.6449723  )
        37           Ti1 tau(  37) = (   6.5041614   0.0053836  12.5833808  )
        38           Ti1 tau(  38) = (   3.1843229   4.4812189  12.4522442  )
        39           O1  tau(  39) = (   0.0584892   2.9792810  14.6723703  )
        40           O1  tau(  40) = (   3.3232524   2.9928384  13.8523860  )
        41           O1  tau(  41) = (   4.6237859   4.5837569  15.7472905  )
        42           O1  tau(  42) = (   2.1882403   4.4693611  16.1038286  )
        43           Ti1 tau(  43) = (   3.3015484   0.0242660  15.6383815  )
        44           Ti1 tau(  44) = (   0.0181797   4.4930750  16.1931172  )
        45           O1  tau(  45) = (   3.2900926   2.9813045   4.7018136  )
        46           O1  tau(  46) = (   1.3039711   4.4726057   6.0039043  )
        47           O1  tau(  47) = (   5.2763189   4.4711207   6.0039473  )
        48           N1  tau(  48) = (   0.2677213   2.8760844  17.5655548  )
        49           C1  tau(  49) = (   1.2271684   2.7739891  18.6598760  )
        50           H1  tau(  50) = (   1.2930054   3.7106696  19.2072709  )
        51           H1  tau(  51) = (   0.8976878   1.9730418  19.3402421  )
        52           H1  tau(  52) = (   2.2102292   2.4972526  18.2850250  )
        53           N1  tau(  53) = (   5.6732178   3.4927010  17.8452151  )
        54           H1  tau(  54) = (   5.7345573   4.0058295  18.7343860  )

     number of k points=    10  Fermi-Dirac smearing, width (Ry)=  0.0073
                       cart. coord. in units 2pi/alat
        k(    1) = (   0.0000000   0.0000000   0.0000000), wk =   0.0625000
        k(    2) = (   0.0000000   0.0419351   0.0000000), wk =   0.1250000
        k(    3) = (   0.0000000  -0.0838702   0.0000000), wk =   0.0625000
        k(    4) = (   0.0379955   0.0000049   0.0000000), wk =   0.1250000
        k(    5) = (   0.0379955   0.0419400   0.0000000), wk =   0.1250000
        k(    6) = (   0.0379955  -0.0838652   0.0000000), wk =   0.1250000
        k(    7) = (   0.0379955  -0.0419301   0.0000000), wk =   0.1250000
[...]
     %   T. Thonhauser et al., PRL 115, 136402 (2015).                      %
     %   T. Thonhauser et al., PRB 76, 125112 (2007).                       %
     %   K. Berland et al., Rep. Prog. Phys. 78, 066501 (2015).             %
     %   D.C. Langreth et al., J. Phys.: Condens. Matter 21, 084203 (2009). %
     %                                                                      %
     %                                                                      %
     % If you are calculating the stress with vdW-DF, please also cite:     %
     %                                                                      %
     %   R. Sabatini et al., J. Phys.: Condens. Matter 24, 424209 (2012).   %
     %                                                                      %
     %%%%%%%%%%%%%%%%%%%%%%%%%%%%%%%%%%%%%%%%%%%%%%%%%%%%%%%%%%%%%%%%%%%%%%%%

     Adding external electric field

     Computed dipole along edir(3) :
        Dipole               -8.2222 Ry au,        -20.8988 Debye
        Dipole field         -0.0155 Ry au,

        Potential amp.        1.4384 Ry
        Total length         46.3494 bohr

[...]

     Starting wfcs are  300 atomic wfcs
  @ DRIVER MODE: Message from server: STATUS
  @ DRIVER MODE: Message from server: POSDATA
  @ DRIVER MODE: Reading and sharing cell
  @ DRIVER MODE: Reading and sharing positions
  @ DRIVER MODE: Received positions

     Self-consistent Calculation

     iteration #  1     ecut=    29.40 Ry     beta= 0.05
     Davidson diagonalization with overlap
     c_bands:  1 eigenvalues not converged
     c_bands:  1 eigenvalues not converged
     c_bands:  1 eigenvalues not converged
     c_bands:  1 eigenvalues not converged
     c_bands:  4 eigenvalues not converged
     c_bands:  1 eigenvalues not converged
     c_bands:  4 eigenvalues not converged
     c_bands:  2 eigenvalues not converged
     c_bands:  1 eigenvalues not converged
     c_bands:  1 eigenvalues not converged
     c_bands:  1 eigenvalues not converged
     c_bands:  1 eigenvalues not converged
     c_bands:  1 eigenvalues not converged
     c_bands:  1 eigenvalues not converged
     c_bands:  4 eigenvalues not converged
     c_bands:  1 eigenvalues not converged
     c_bands:  4 eigenvalues not converged
     c_bands:  2 eigenvalues not converged
     c_bands:  1 eigenvalues not converged
     c_bands:  1 eigenvalues not converged
     ethr =  1.00E-05,  avg # of iterations = 20.0

[...]

     total energy              =   -2607.57526018 Ry
     estimated scf accuracy    <    3675.43047143 Ry

     total magnetization       =     0.00 Bohr mag/cell
     absolute magnetization    =     0.03 Bohr mag/cell

[...]

     iteration #  3     ecut=    29.40 Ry     beta= 0.05
     Davidson diagonalization with overlap
     ethr =  1.00E-02,  avg # of iterations = 13.8

[...]

     iteration # 47     ecut=    29.40 Ry     beta= 0.05
     Davidson diagonalization with overlap
     c_bands:  1 eigenvalues not converged
     c_bands:  2 eigenvalues not converged
     c_bands:  1 eigenvalues not converged
     c_bands:  1 eigenvalues not converged
     c_bands:  1 eigenvalues not converged
     c_bands:  1 eigenvalues not converged
     c_bands:  2 eigenvalues not converged
     c_bands:  1 eigenvalues not converged
     c_bands:  1 eigenvalues not converged
     c_bands:  1 eigenvalues not converged
     ethr =  1.22E-06,  avg # of iterations = 16.6

[...]

     total energy              =   -2940.35256018 Ry
     estimated scf accuracy    <       0.00000008 Ry

[...]

     iteration # 95     ecut=    29.40 Ry     beta= 0.05
     Davidson diagonalization with overlap
     ethr =  2.12E-11,  avg # of iterations =  5.9

     negative rho (up, down):  8.759E-03 8.760E-03

[...]

     Adding external electric field

     Computed dipole along edir(3) :
        Dipole                0.7389 Ry au,          1.8781 Debye
        Dipole field          0.0014 Ry au,

        Potential amp.       -0.1293 Ry
        Total length         46.3494 bohr

     Magnetic moment per site  (integrated on atomic sphere of radius R)
     atom   1 (R=0.746)  charge=  8.1023  magn=  0.0073
     atom   2 (R=0.746)  charge=  8.0882  magn=  0.0005
     atom   3 (R=0.746)  charge=  5.0689  magn= -0.0005
     atom   4 (R=0.746)  charge=  5.1050  magn= -0.0001
     atom   5 (R=0.746)  charge=  5.0706  magn= -0.0000
     atom   6 (R=0.746)  charge=  5.0718  magn= -0.0000
     atom   7 (R=0.746)  charge=  8.0835  magn=  0.0002
     atom   8 (R=0.746)  charge=  8.0700  magn=  0.0011
     atom   9 (R=0.746)  charge=  5.0893  magn= -0.0000
     atom  10 (R=0.746)  charge=  5.0576  magn= -0.0000
     atom  11 (R=0.746)  charge=  5.0764  magn= -0.0000
     atom  12 (R=0.746)  charge=  5.0718  magn= -0.0000
     atom  13 (R=0.746)  charge=  8.0706  magn=  0.0001
     atom  14 (R=0.746)  charge=  8.0890  magn=  0.0001
     atom  15 (R=0.746)  charge=  5.0553  magn=  0.0000
     atom  16 (R=0.746)  charge=  5.0986  magn= -0.0000
     atom  17 (R=0.746)  charge=  5.0495  magn=  0.0000
     atom  18 (R=0.746)  charge=  5.0673  magn=  0.0000
     atom  19 (R=0.746)  charge=  8.1077  magn= -0.0000
     atom  20 (R=0.746)  charge=  8.0960  magn=  0.0000
     atom  21 (R=0.746)  charge=  4.9490  magn= -0.0005
     atom  22 (R=0.746)  charge=  5.0409  magn=  0.0001
     atom  23 (R=0.746)  charge=  5.0611  magn= -0.0010
     atom  24 (R=0.746)  charge=  5.0612  magn= -0.0010
     atom  25 (R=0.746)  charge=  8.1022  magn=  0.0073
     atom  26 (R=0.746)  charge=  8.0882  magn=  0.0005
     atom  27 (R=0.746)  charge=  5.0670  magn= -0.0005
     atom  28 (R=0.746)  charge=  5.1051  magn= -0.0001
     atom  29 (R=0.746)  charge=  5.0714  magn= -0.0001
     atom  30 (R=0.746)  charge=  5.0726  magn= -0.0001
     atom  31 (R=0.746)  charge=  8.0844  magn=  0.0002
     atom  32 (R=0.746)  charge=  8.0704  magn=  0.0011
     atom  33 (R=0.746)  charge=  5.0889  magn= -0.0000
     atom  34 (R=0.746)  charge=  5.0199  magn= -0.0000
     atom  35 (R=0.746)  charge=  5.0760  magn= -0.0000
     atom  36 (R=0.746)  charge=  5.0724  magn= -0.0000
     atom  37 (R=0.746)  charge=  8.0776  magn=  0.0002
     atom  38 (R=0.746)  charge=  8.0890  magn=  0.0001
     atom  39 (R=0.746)  charge=  5.0527  magn=  0.0000
     atom  40 (R=0.746)  charge=  5.0891  magn= -0.0000
     atom  41 (R=0.746)  charge=  5.0851  magn=  0.0000
     atom  42 (R=0.746)  charge=  5.0438  magn=  0.0000
     atom  43 (R=0.746)  charge=  8.1144  magn=  0.0000
     atom  44 (R=0.746)  charge=  8.1353  magn= -0.0001
     atom  45 (R=0.746)  charge=  4.9491  magn= -0.0006
     atom  46 (R=0.746)  charge=  5.0611  magn= -0.0010
     atom  47 (R=0.746)  charge=  5.0612  magn= -0.0010
     atom  48 (R=0.424)  charge=  1.3500  magn=  0.0000
     atom  49 (R=0.448)  charge=  0.8461  magn=  0.0000
     atom  50 (R=0.424)  charge=  0.4555  magn= -0.0000
     atom  51 (R=0.424)  charge=  0.4450  magn= -0.0000
     atom  52 (R=0.424)  charge=  0.4544  magn= -0.0000
     atom  53 (R=0.424)  charge=  1.3505  magn=  0.0001
     atom  54 (R=0.424)  charge=  0.4593  magn=  0.0000

     End of self-consistent calculation

 ------ SPIN UP ------------

          k = 0.0000 0.0000 0.0000 ( 18029 PWs)   bands (ev):

   -56.0294 -55.9954 -55.8037 -55.7648 -55.7255 -55.6910 -55.6630 -55.6389
   -55.6288 -55.6043 -55.5753 -55.4956 -55.2410 -54.9194 -54.8854 -54.7867
   -32.4920 -32.3457 -32.3241 -32.3002 -32.1929 -32.1854 -32.1655 -32.1283
   -32.1149 -32.0984 -32.0916 -32.0445 -32.0210 -31.9813 -31.9757 -31.9725
   -31.9418 -31.9303 -31.9193 -31.8966 -31.8864 -31.8689 -31.8640 -31.8586
   -31.8392 -31.8368 -31.8291 -31.8244 -31.8197 -31.8012 -31.7935 -31.7930
   -31.7755 -31.7515 -31.6917 -31.6645 -31.6161 -31.4675 -31.4642 -31.3225
   -31.2434 -31.2204 -31.2046 -31.1399 -31.0539 -30.9913 -30.9425 -30.9109
   -17.3149 -16.5584 -16.3674 -16.0775 -15.9267 -15.9073 -15.7878 -15.6906
   -15.6129 -15.5127 -15.4603 -15.4056 -15.3930 -15.3681 -15.3095 -15.2876
   -15.2462 -15.2286 -15.1862 -15.1754 -15.1296 -15.1067 -15.0849 -15.0508
   -14.9858 -14.9155 -14.9028 -14.7465 -14.6071 -14.4544 -13.4189 -13.3041
   -11.5487  -8.3401  -5.0151  -3.9982  -3.9453  -3.8760  -3.8592  -3.7734
    -3.6922  -3.4405  -3.4160  -3.3568  -3.0702  -3.0227  -2.9987  -2.9941
    -2.8962  -2.7572  -2.7262  -2.6662  -2.6603  -2.6395  -2.6196  -2.6029
    -2.5457  -2.4888  -2.4721  -2.4319  -2.2980  -2.2717  -2.2671  -2.2448
    -2.1740  -2.1660  -2.1009  -2.0837  -2.0606  -2.0424  -2.0051  -1.8724
    -1.8387  -1.7724  -1.6933  -1.6035  -1.5239  -1.4890  -1.4055  -1.3861
    -1.3305  -1.2601  -1.2465  -1.1795  -1.1451  -1.0697  -1.0436  -1.0075
    -0.8984  -0.8719  -0.8104  -0.7571  -0.7095  -0.6983  -0.6551  -0.6308
    -0.6253  -0.6109  -0.5978  -0.4024  -0.3728  -0.2306  -0.1849  -0.1605
    -0.1196  -0.0971  -0.0386  -0.0148  -0.0093   0.0306   0.0485   0.0909
     0.1470   0.1629   0.1877   0.2812   0.3131   0.3683   0.4949   0.5083
     0.5965   0.6630   0.7689   0.7820   0.8328   0.9643   1.0608   1.0830
     1.1042   1.3094   1.4141   1.6685   1.7107   3.0250   3.1669   3.2573
     3.3738   3.4949   3.5708   3.6043   3.7840   3.8214   3.8624   3.9312

[...]

          k =-0.0760-0.0000 0.0000 ( 17886 PWs)   bands (ev):

[...]

 ------ SPIN DOWN ----------

[...]

          k = 0.0380-0.0419 0.0000 ( 17876 PWs)   bands (ev):

[...]

          k =-0.0760-0.0839 0.0000 ( 17948 PWs)   bands (ev):

   -55.9994 -55.9975 -55.7914 -55.7766 -55.7099 -55.7024 -55.6473 -55.6439
   -55.6252 -55.6172 -55.5713 -55.4993 -55.2404 -54.9012 -54.9010 -54.7875
   -32.3021 -32.3011 -32.2946 -32.2928 -32.1530 -32.1409 -32.1207 -32.1187
   -32.0494 -32.0367 -32.0264 -32.0219 -32.0152 -32.0128 -31.9697 -31.9642
   -31.9548 -31.9427 -31.9123 -31.9012 -31.8890 -31.8846 -31.8803 -31.8791
   -31.8748 -31.8707 -31.8548 -31.8492 -31.8434 -31.8397 -31.8347 -31.8160
   -31.7968 -31.7934 -31.7642 -31.7056 -31.6066 -31.4699 -31.4636 -31.2549
   -31.2321 -31.2319 -31.1350 -31.1347 -31.0959 -31.0957 -31.0035 -30.9152
   -17.2958 -15.9756 -15.9472 -15.8404 -15.8210 -15.7321 -15.7189 -15.6045
   -15.5966 -15.5834 -15.5171 -15.4720 -15.4613 -15.3783 -15.3516 -15.3401
   -15.3158 -15.3060 -15.2995 -15.2885 -15.2759 -15.1964 -15.1912 -15.1886
   -15.1134 -15.0907 -14.9046 -14.8613 -14.6630 -14.6178 -13.4081 -13.4078
   -11.5521  -8.3199  -5.0214  -3.8923  -3.8546  -3.2777  -3.2415  -3.0260
    -3.0000  -2.9796  -2.9503  -2.7656  -2.7517  -2.7454  -2.7280  -2.7150
    -2.6779  -2.6588  -2.6461  -2.5801  -2.5711  -2.5501  -2.5452  -2.5356
    -2.5164  -2.5011  -2.4934  -2.4737  -2.4589  -2.4141  -2.3600  -2.3374
    -2.2864  -2.1928  -2.0868  -2.0428  -2.0291  -2.0210  -1.9979  -1.9888
    -1.9481  -1.9355  -1.8495  -1.6660  -1.6179  -1.5566  -1.5507  -1.5439
    -1.4811  -1.4271  -1.3815  -1.3083  -1.2436  -1.1916  -1.1620  -1.1374
    -1.1048  -1.0377  -0.9707  -0.9509  -0.9381  -0.9094  -0.9064  -0.8878
    -0.8092  -0.7252  -0.6842  -0.6543  -0.6323  -0.6187  -0.6029  -0.5807
    -0.4717  -0.4047  -0.3573  -0.3119  -0.2697  -0.2272  -0.1085  -0.0936
     0.1007   0.1666   0.1918   0.2710   0.3674   0.3926   0.4028   0.4680
     0.5440   0.6055   0.6408   0.6953   0.7103   0.7317   0.7988   1.0140
     1.0694   1.4772   1.4789   1.5279   1.5289   2.9897   3.6737   3.6828
     3.6859   3.6970   3.7155   3.7379   3.7916   3.8255   3.9270   3.9474

     the Fermi energy is     3.1356 ev

!    total energy              =   -2940.35256168 Ry
     estimated scf accuracy    <       0.00000007 Ry
     smearing contrib. (-TS)   =      -0.01867878 Ry
     internal energy E=F+TS    =   -2940.33388290 Ry

     The total energy is F=E-TS. E is the sum of the following terms:
     one-electron contribution =  -24661.72635370 Ry
     hartree contribution      =   12420.00505696 Ry
     xc contribution           =    -486.05153172 Ry
     ewald contribution        =    9787.43791523 Ry
     electric field correction =       0.00103034 Ry

     total magnetization       =     0.02 Bohr mag/cell
     absolute magnetization    =     0.04 Bohr mag/cell

     convergence has been achieved in  95 iterations

     Forces acting on atoms (cartesian axes, Ry/au):

     atom    1 type  1   force =     0.00023629   -0.00036659    0.10151799
     atom    2 type  1   force =     0.00001784   -0.00085733   -0.17139198
     atom    3 type  2   force =     0.00029094    0.00021921   -0.03324943
     atom    4 type  2   force =     0.00003248   -0.00078718    0.04482393
     atom    5 type  2   force =    -0.01195093   -0.00021105   -0.00232627
     atom    6 type  2   force =     0.01438415    0.00038269   -0.00112680
     atom    7 type  1   force =     0.00140472   -0.00131186   -0.00429096
     atom    8 type  1   force =    -0.00076956    0.02220081    0.05620967
     atom    9 type  2   force =     0.00002863   -0.00032722    0.00045659
     atom   10 type  2   force =    -0.00266527    0.00207315   -0.02594192
     atom   11 type  2   force =     0.00002971    0.00024433   -0.00006120
     atom   12 type  2   force =     0.00009456    0.00073204    0.00001605
     atom   13 type  1   force =    -0.00003408    0.00014387    0.00026063
     atom   14 type  1   force =     0.00028745    0.00030096    0.00001496
     atom   15 type  2   force =     0.00022561   -0.00014140    0.00001345
     atom   16 type  2   force =    -0.00002321   -0.00013286    0.00075091
     atom   17 type  2   force =    -0.00007934   -0.00077497    0.00002267
     atom   18 type  2   force =     0.00049098   -0.00071860    0.00033506
     atom   19 type  1   force =    -0.00012373   -0.00047912    0.00028024
     atom   20 type  1   force =     0.00004496    0.00001412   -0.00006108
     atom   21 type  2   force =     0.00006405   -0.00000786    0.10210267
     atom   22 type  2   force =     0.00001996   -0.00029732    0.00036924
     atom   23 type  2   force =    -0.07328580   -0.00015841   -0.02888637
     atom   24 type  2   force =     0.07323673    0.00033623   -0.02893399
     atom   25 type  1   force =    -0.00027300   -0.00029963    0.10194790
     atom   26 type  1   force =     0.00003594   -0.00020288   -0.17138868
     atom   27 type  2   force =     0.00036566   -0.00022978   -0.03196522
     atom   28 type  2   force =     0.00009325   -0.00057340    0.04544245
     atom   29 type  2   force =    -0.01209909    0.00212880   -0.00288264
     atom   30 type  2   force =     0.01441019    0.00228902   -0.00162492
     atom   31 type  1   force =     0.00158895    0.00092759   -0.00559832
     atom   32 type  1   force =    -0.00059560   -0.02476255    0.05723665
     atom   33 type  2   force =     0.00015188    0.00036039    0.00061904
     atom   34 type  2   force =    -0.00420810    0.00211937   -0.04832751
     atom   35 type  2   force =     0.00061907   -0.00058274    0.00000973
     atom   36 type  2   force =    -0.00039728   -0.00074297    0.00013927
     atom   37 type  1   force =     0.00005606    0.00061517   -0.00002712
     atom   38 type  1   force =     0.00003763   -0.00011723   -0.00012198
     atom   39 type  2   force =     0.00017950   -0.00003432   -0.00069042
     atom   40 type  2   force =    -0.00008577   -0.00003375   -0.00034863
     atom   41 type  2   force =     0.00005006    0.00049275   -0.00008623
     atom   42 type  2   force =    -0.00000257    0.00040682    0.00066975
     atom   43 type  1   force =    -0.00024922   -0.00013123    0.00016203
     atom   44 type  1   force =    -0.00023602    0.00038090   -0.00002160
     atom   45 type  2   force =     0.00004655   -0.00005028    0.10215727
     atom   46 type  2   force =    -0.07329077   -0.00009354   -0.02885689
     atom   47 type  2   force =     0.07324274    0.00028124   -0.02889421
     atom   48 type  3   force =    -0.00043340    0.00273000    0.00120685
     atom   49 type  4   force =     0.00031367   -0.02084983   -0.00110238
     atom   50 type  5   force =     0.00022766    0.00876814    0.00378712
     atom   51 type  5   force =     0.00162630    0.00604197   -0.00336714
     atom   52 type  5   force =    -0.00234300    0.00187495    0.00116169
     atom   53 type  3   force =    -0.00068306   -0.00040253    0.00046939
     atom   54 type  5   force =    -0.00010540   -0.00038604   -0.00060932

     Total force =     0.378554     Total SCF correction =     0.000348
  @ DRIVER MODE: Message from server: STATUS
  @ DRIVER MODE: Message from server: GETFORCE
  @ DRIVER MODE: Returning v,forces,stress,ensemble

     Writing output data file ./calc.save/
  @ DRIVER MODE: Message from server: EXIT
  @ DRIVE MODE: Exiting

     General routines

     Parallel routines

   This run was terminated on:  23:57:31  15Jul2021

   JOB DONE.