     Program PWSCF v.6.7GPU starts on 23Sep2021 at  8:41:23

     R & G space division:  proc/nbgrp/npool/nimage =      10
     Reading input from /storage/home/hcoda1/3/ntian30/research/carbon/CxH_vib/H2O_calc/ads_slab/CHNHNH2H2O_b/out_0046/pw.inp
Warning: card &CELL ignored
Warning: card   CELL_DYNAMICS='IPI', ignored
Warning: card / ignored

     Current dimensions of program PWSCF are:
     Max number of different atomic species (ntypx) = 10
     Max number of k-points (npk) =  40000
     Max angular momentum in pseudopotentials (lmaxx) =  3
     Presently no symmetry can be used with electric field

     Message from routine cell_base_init:
     DEPRECATED: use true lattice parameter, not A to a.u. conversion factor

     IMPORTANT: XC functional enforced from input :
     Exchange-correlation= BEEF-VDW
                           (   1   4  43  14   2   0   0)
     Any further DFT definition will be discarded
     Please, verify this is what you really want

  @ DRIVER MODE: Connecting to
 qe_1139763_2937312.sched-torque.pace.gatech.edu6i8it8sa_scratch
  using UNIX socket
  @ DRIVER MODE: Message from server: STATUS
  @ DRIVER MODE: Message from server: INIT
  @ DRIVER MODE: Receiving replica           0          -1
  @ DRIVER MODE: Receiving encoded integer          25
  @ DRIVER MODE:  SCF:  T  FORCE:  T  STRESS:  F  VC:  F  ENSEMBLE:  F
  @ DRIVER MODE:  SCF:  T  FORCE:  T  STRESS:  F  VC:  F  ENSEMBLE:  F

     Using Slab Decomposition

     bravais-lattice index     =            0
     lattice parameter (alat)  =       1.8897  a.u.
     unit-cell volume          =    6658.9804 (a.u.)^3
     number of atoms/cell      =           57
     number of atomic types    =            5
     number of electrons       =       404.00
     number of Kohn-Sham states=          212
     kinetic-energy cutoff     =      29.3995  Ry
     charge density cutoff     =     293.9946  Ry
     scf convergence threshold =      7.3E-08
     mixing beta               =       0.0500
     number of iterations used =            8  plain     mixing
     Exchange-correlation= BEEF-VDW
                           (   1   4  43  14   2   0   0)

     celldm(1)=   1.889726  celldm(2)=   0.000000  celldm(3)=   0.000000
     celldm(4)=   0.000000  celldm(5)=   0.000000  celldm(6)=   0.000000

     crystal axes: (cart. coord. in units of alat)
               a(1) = (   6.579727   0.000000   0.000000 )
               a(2) = (  -0.000775   5.961596   0.000000 )
               a(3) = (   0.000000   0.000000  25.155947 )

     reciprocal axes: (cart. coord. in units 2 pi/alat)
               b(1) = (  0.151982  0.000020  0.000000 )
               b(2) = (  0.000000  0.167740  0.000000 )
               b(3) = (  0.000000  0.000000  0.039752 )

     PseudoPot. # 1 for Ti read from file:
     /storage/coda1/p-amedford6/0/shared/rich_project_chbe-medford/medford-share/data/pseudos_module/espresso/nninc/pbe/van/Ti.UPF
     MD5 check sum: 8e4df49b7f0d34bbd5052bf3f5ea0213
     Pseudo is Ultrasoft, Zval = 12.0
     Generated by new atomic code, or converted to UPF format
     Using radial grid of  851 points,  6 beta functions with:
                l(1) =   0
                l(2) =   0
                l(3) =   1
                l(4) =   1
                l(5) =   2
                l(6) =   2
     Q(r) pseudized with  8 coefficients,  rinner =    1.000   1.000   1.000
                                                       1.000   1.000

     PseudoPot. # 2 for O  read from file:
     /storage/coda1/p-amedford6/0/shared/rich_project_chbe-medford/medford-share/data/pseudos_module/espresso/nninc/pbe/van/O.UPF
     MD5 check sum: 78c19812648e8988a0fe644b0f25305e
     Pseudo is Ultrasoft, Zval =  6.0
     Generated by new atomic code, or converted to UPF format
     Using radial grid of  737 points,  4 beta functions with:
                l(1) =   0
                l(2) =   0
                l(3) =   1
                l(4) =   1
     Q(r) pseudized with  8 coefficients,  rinner =    0.800   0.800   0.800

     PseudoPot. # 3 for N  read from file:
     /storage/coda1/p-amedford6/0/shared/rich_project_chbe-medford/medford-share/data/pseudos_module/espresso/nninc/pbe/van/N.UPF
     MD5 check sum: 90d10febe142ad51ac9d5be1deb811c4
     Pseudo is Ultrasoft, Zval =  5.0
     Generated by new atomic code, or converted to UPF format
     Using radial grid of  729 points,  4 beta functions with:
                l(1) =   0
                l(2) =   0
                l(3) =   1
                l(4) =   1
     Q(r) pseudized with  8 coefficients,  rinner =    0.800   0.800   0.800

     PseudoPot. # 4 for C  read from file:
     /storage/coda1/p-amedford6/0/shared/rich_project_chbe-medford/medford-share/data/pseudos_module/espresso/nninc/pbe/van/C.UPF
     MD5 check sum: 1a69bf6b8db32088f5b2163dbdb77a27
     Pseudo is Ultrasoft, Zval =  4.0
     Generated by new atomic code, or converted to UPF format
     Using radial grid of  721 points,  4 beta functions with:
                l(1) =   0
                l(2) =   0
                l(3) =   1
                l(4) =   1
     Q(r) pseudized with  8 coefficients,  rinner =    0.800   0.800   0.800

     PseudoPot. # 5 for H  read from file:
     /storage/coda1/p-amedford6/0/shared/rich_project_chbe-medford/medford-share/data/pseudos_module/espresso/nninc/pbe/van/H.UPF
     MD5 check sum: b5ee9d7bfd3a09ee7748110bda690ff7
     Pseudo is Ultrasoft, Zval =  1.0
     Generated by new atomic code, or converted to UPF format
     Using radial grid of  615 points,  1 beta functions with:
                l(1) =   0
     Q(r) pseudized with  8 coefficients,  rinner =    0.800

     atomic species   valence    mass     pseudopotential
        Ti1           12.00    47.86700     Ti( 1.00)
        O1             6.00    15.99900     O ( 1.00)
        N1             5.00    14.00700     N ( 1.00)
        C1             4.00    12.01100     C ( 1.00)
        H1             1.00     1.00800     H ( 1.00)

     No symmetry found

   Cartesian axes

     site n.     atom                  positions (alat units)
         1           Ti1 tau(   1) = (   0.0004258   2.9801865   6.0000000  )
         2           Ti1 tau(   2) = (   3.2906075   1.4906267   6.0002472  )
         3           O1  tau(   3) = (   0.0006271   0.0005054   7.9858123  )
         4           O1  tau(   4) = (   3.2906025   0.0005020   7.3038282  )
         5           O1  tau(   5) = (   4.5942328   1.4918067   9.2879030  )
         6           O1  tau(   6) = (   1.9868534   1.4903216   9.2879459  )
         7           Ti1 tau(   7) = (   3.2907910   2.8959150   9.1758416  )
         8           Ti1 tau(   8) = (   0.0015273   1.4827037   9.2680791  )
         9           O1  tau(   9) = (   3.3066417   5.9496923  11.3845403  )
        10           O1  tau(  10) = (   0.0116148   5.9584955  10.6183126  )
        11           O1  tau(  11) = (   1.3010148   1.4986442  12.6442229  )
        12           O1  tau(  12) = (   5.3085967   1.5001388  12.6592367  )
        13           Ti1 tau(  13) = (   0.0282779   2.9853959  12.5065338  )
        14           Ti1 tau(  14) = (   3.3279724   1.4707331  12.5413945  )
        15           O1  tau(  15) = (   0.0378505   0.0859181  14.6860672  )
        16           O1  tau(  16) = (   3.3018867   0.0259462  14.0338077  )
        17           O1  tau(  17) = (   4.5998927   1.5484098  16.1661054  )
        18           O1  tau(  18) = (   2.0454451   1.5021798  16.2221046  )
        19           Ti1 tau(  19) = (   3.3206312   2.9825829  15.7321521  )
        20           Ti1 tau(  20) = (   0.0140791   1.4435866  15.9983415  )
        21           O1  tau(  21) = (   3.2904802   0.0005063   4.7018136  )
        22           O1  tau(  22) = (   6.5273045   5.8164216  17.2577718  )
        23           O1  tau(  23) = (   1.3043587   1.4918075   6.0039043  )
        24           O1  tau(  24) = (   5.2767064   1.4903225   6.0039473  )
        25           Ti1 tau(  25) = (   0.0000382   5.9609847   6.0000000  )
        26           Ti1 tau(  26) = (   3.2902200   4.4714249   6.0002472  )
        27           O1  tau(  27) = (   0.0002396   2.9813036   7.9858123  )
        28           O1  tau(  28) = (   3.2902150   2.9813002   7.3038282  )
        29           O1  tau(  29) = (   4.5938453   4.4726049   9.2879030  )
        30           O1  tau(  30) = (   1.9864658   4.4711199   9.2879459  )
        31           Ti1 tau(  31) = (   3.2891106   5.8743827   9.1763621  )
        32           Ti1 tau(  32) = (   0.0006254   4.4649316   9.2693709  )
        33           O1  tau(  33) = (   3.3068470   2.9864458  11.3814114  )
        34           O1  tau(  34) = (   0.0092240   2.9805883  10.6323155  )
        35           O1  tau(  35) = (   1.2982948   4.4740332  12.6840172  )
        36           O1  tau(  36) = (   5.3097620   4.4704985  12.6972095  )
        37           Ti1 tau(  37) = (   0.0348817   0.0130325  12.4954113  )
        38           Ti1 tau(  38) = (   3.3270268   4.4633798  12.5435021  )
        39           O1  tau(  39) = (   0.0563025   2.9439880  14.9425960  )
        40           O1  tau(  40) = (   3.2900316   2.9661073  13.9503945  )
        41           O1  tau(  41) = (   4.5967999   4.4093095  16.0633277  )
        42           O1  tau(  42) = (   2.0412097   4.4536800  16.1303113  )
        43           Ti1 tau(  43) = (   3.2964201   5.9600488  15.8742613  )
        44           Ti1 tau(  44) = (   0.0241369   4.6516137  15.8518307  )
        45           O1  tau(  45) = (   3.2900926   2.9813045   4.7018136  )
        46           O1  tau(  46) = (   1.3039711   4.4726057   6.0039043  )
        47           O1  tau(  47) = (   5.2763189   4.4711207   6.0039473  )
        48           N1  tau(  48) = (   1.4509408   2.7109095  18.7602185  )
        49           N1  tau(  49) = (   0.0917387   2.5303350  18.2207845  )
        50           C1  tau(  50) = (   1.9503960   3.7723240  19.2784661  )
        51           H1  tau(  51) = (   1.1612915   4.5273475  19.4152495  )
        52           H1  tau(  52) = (   2.0208952   1.9183395  18.4664618  )
        53           H1  tau(  53) = (   6.1377449   3.3539424  18.4987646  )
        54           H1  tau(  54) = (   6.2616785   1.7135167  18.6767212  )
        55           O1  tau(  55) = (   3.7012217   5.9596235  18.2853534  )
        56           H1  tau(  56) = (   4.6684668   5.8470116  18.1670174  )
        57           H1  tau(  57) = (   3.3852657   5.1278045  18.7338684  )

     number of k points=    10  Fermi-Dirac smearing, width (Ry)=  0.0073
                       cart. coord. in units 2pi/alat
        k(    1) = (   0.0000000   0.0000000   0.0000000), wk =   0.1250000
        k(    2) = (   0.0000000   0.0419351   0.0000000), wk =   0.2500000
        k(    3) = (   0.0000000  -0.0838702   0.0000000), wk =   0.1250000
        k(    4) = (   0.0379955   0.0000049   0.0000000), wk =   0.2500000
        k(    5) = (   0.0379955   0.0419400   0.0000000), wk =   0.2500000
        k(    6) = (   0.0379955  -0.0838652   0.0000000), wk =   0.2500000
        k(    7) = (   0.0379955  -0.0419301   0.0000000), wk =   0.2500000
        k(    8) = (  -0.0759910  -0.0000099   0.0000000), wk =   0.1250000
        k(    9) = (  -0.0759910   0.0419252   0.0000000), wk =   0.2500000
        k(   10) = (  -0.0759910  -0.0838800   0.0000000), wk =   0.1250000

     Initial potential from superposition of free atoms

     starting charge  387.99913, renormalised to  404.00000

     negative rho (up, down):  1.598E-02 0.000E+00

     %%%%%%%%%%%%%%%%%%%%%%%%%%%%%%%%%%%%%%%%%%%%%%%%%%%%%%%%%%%%%%%%%%%%%%%%
     %                                                                      %
     % You are using vdW-DF, which was implemented by the Thonhauser group. %
     % Please cite the following two papers that made this development      %
     % possible and the two reviews that describe the various versions:     %
     %                                                                      %
     %   T. Thonhauser et al., PRL 115, 136402 (2015).                      %
     %   T. Thonhauser et al., PRB 76, 125112 (2007).                       %
     %   K. Berland et al., Rep. Prog. Phys. 78, 066501 (2015).             %
     %   D.C. Langreth et al., J. Phys.: Condens. Matter 21, 084203 (2009). %
     %                                                                      %
     %                                                                      %
     % If you are calculating the stress with vdW-DF, please also cite:     %
     %                                                                      %
     %   R. Sabatini et al., J. Phys.: Condens. Matter 24, 424209 (2012).   %
     %                                                                      %
     %%%%%%%%%%%%%%%%%%%%%%%%%%%%%%%%%%%%%%%%%%%%%%%%%%%%%%%%%%%%%%%%%%%%%%%%

     Adding external electric field

     Computed dipole along edir(3) :
        Dipole              -14.3585 Ry au,        -36.4957 Debye
        Dipole field         -0.0271 Ry au,

        Potential amp.        2.5118 Ry
        Total length         46.3494 bohr

     Starting wfcs are  306 atomic wfcs
  @ DRIVER MODE: Message from server: STATUS
  @ DRIVER MODE: Message from server: POSDATA
  @ DRIVER MODE: Reading and sharing cell
  @ DRIVER MODE: Reading and sharing positions
  @ DRIVER MODE: Received positions

     Self-consistent Calculation

     iteration #  1     ecut=    29.40 Ry     beta= 0.05
     Davidson diagonalization with overlap
     c_bands:  3 eigenvalues not converged
     c_bands:  5 eigenvalues not converged
     c_bands:  4 eigenvalues not converged
     c_bands:  5 eigenvalues not converged
     c_bands:  4 eigenvalues not converged
     c_bands:  5 eigenvalues not converged
     c_bands:  3 eigenvalues not converged
     c_bands:  2 eigenvalues not converged
     c_bands:  4 eigenvalues not converged
     ethr =  1.00E-05,  avg # of iterations = 20.6

[...]

     total energy              =   -2220.97394069 Ry
     estimated scf accuracy    <    8587.32193139 Ry

     iteration #  2     ecut=    29.40 Ry     beta= 0.05
     Davidson diagonalization with overlap
     ethr =  1.00E-02,  avg # of iterations = 29.6

[...]

     iteration # 80     ecut=    29.40 Ry     beta= 0.05
     Davidson diagonalization with overlap
     c_bands:  2 eigenvalues not converged
     ethr =  4.14E-11,  avg # of iterations = 16.2

[...]

     total energy              =   -2975.10516278 Ry
     estimated scf accuracy    <       0.00000013 Ry

     iteration # 81     ecut=    29.40 Ry     beta= 0.05
     Davidson diagonalization with overlap
     ethr =  3.25E-11,  avg # of iterations = 13.6

     negative rho (up, down):  1.579E-02 0.000E+00

     Adding external electric field

     Computed dipole along edir(3) :
        Dipole                1.0248 Ry au,          2.6047 Debye
        Dipole field          0.0019 Ry au,

        Potential amp.       -0.1793 Ry
        Total length         46.3494 bohr

     End of self-consistent calculation

          k = 0.0000 0.0000 0.0000 ( 18029 PWs)   bands (ev):

   -55.3847 -55.3489 -55.3448 -55.3107 -55.3074 -55.3018 -55.2668 -55.2314
   -55.2162 -55.1814 -55.1747 -55.1595 -55.1410 -55.1119 -54.3761 -54.3421
   -31.9437 -31.8797 -31.8375 -31.7565 -31.7074 -31.7048 -31.6806 -31.6777
   -31.6336 -31.5978 -31.5905 -31.5894 -31.5824 -31.5790 -31.5607 -31.5587
   -31.5341 -31.5260 -31.5231 -31.5117 -31.4975 -31.4910 -31.4719 -31.4673
   -31.4589 -31.4458 -31.4453 -31.4164 -31.4021 -31.3984 -31.3953 -31.3731
   -31.3693 -31.3651 -31.3616 -31.3405 -31.3293 -31.3173 -31.3026 -31.3024
   -31.2922 -31.2858 -30.7855 -30.6912 -30.6691 -30.6019 -30.5151 -30.4042
   -18.8825 -18.4152 -16.2195 -15.9721 -15.8362 -15.7316 -15.5944 -15.4962
   -15.3870 -15.2737 -15.2506 -15.1567 -15.0826 -15.0787 -15.0415 -15.0160
   -14.9531 -14.9318 -14.9080 -14.9021 -14.8876 -14.8773 -14.8407 -14.8299
   -14.7971 -14.7858 -14.7687 -14.6503 -14.6263 -14.5514 -14.4808 -14.3437
   -12.8786 -12.7611  -9.8377  -7.0012  -6.3072  -6.0812  -4.4267  -3.7331
    -3.5433  -3.4098  -3.3321  -3.3027  -3.2852  -3.1536  -3.0706  -2.9021
    -2.8639  -2.8075  -2.6732  -2.5973  -2.5905  -2.5037  -2.4304  -2.4071
    -2.3740  -2.2637  -2.2586  -2.2097  -2.1917  -2.1683  -2.1591  -2.1125
    -2.0665  -2.0394  -1.9543  -1.8528  -1.8099  -1.7894  -1.7528  -1.7302
    -1.7255  -1.6818  -1.6756  -1.6513  -1.6133  -1.5887  -1.5435  -1.4311
    -1.3899  -1.2317  -1.1944  -1.0390  -1.0184  -0.9794  -0.9596  -0.9239
    -0.8931  -0.8768  -0.8620  -0.7717  -0.7133  -0.6469  -0.5829  -0.4925
    -0.4816  -0.4045  -0.3819  -0.3169  -0.2297  -0.1848  -0.1752  -0.1506
    -0.1472  -0.0335   0.0115   0.0716   0.0904   0.1477   0.1636   0.1858
     0.2558   0.3093   0.3788   0.4090   0.4887   0.5069   0.5420   0.5512
     0.5835   0.5939   0.6700   0.6850   0.7132   0.8159   0.9135   1.0062
     1.2164   1.2189   1.2476   1.5515   1.5536   1.6469   1.8303   2.2231
     2.2715   3.7051   3.7835   3.8331   3.8506   3.8552   3.9400   4.1946
     4.2089   4.2216   4.2278   4.2686

[...]

          k = 0.0380-0.0419 0.0000 ( 17876 PWs)   bands (ev):

[...]

          k =-0.0760-0.0000 0.0000 ( 17886 PWs)   bands (ev):

[...]

          k =-0.0760-0.0839 0.0000 ( 17948 PWs)   bands (ev):

   -55.3679 -55.3655 -55.3278 -55.3276 -55.3044 -55.3009 -55.2531 -55.2451
   -55.2019 -55.1953 -55.1613 -55.1587 -55.1571 -55.1136 -54.3590 -54.3590
   -31.7944 -31.7562 -31.7421 -31.6527 -31.6525 -31.6381 -31.6259 -31.6189
   -31.6187 -31.5980 -31.5928 -31.5898 -31.5667 -31.5590 -31.5472 -31.5332
   -31.5302 -31.5275 -31.5236 -31.5155 -31.5107 -31.5088 -31.5077 -31.5000
   -31.4681 -31.4668 -31.4476 -31.4474 -31.4471 -31.4421 -31.4394 -31.4348
   -31.4254 -31.4140 -31.4083 -31.3916 -31.3899 -31.3800 -31.3387 -31.3377
   -31.3371 -31.3184 -30.6818 -30.6818 -30.5981 -30.5979 -30.5586 -30.5585
   -18.8769 -18.4173 -15.8391 -15.6525 -15.5011 -15.4292 -15.4089 -15.3258
   -15.2705 -15.2669 -15.1939 -15.1759 -15.1636 -15.1419 -15.1321 -15.0850
   -15.0478 -15.0113 -14.9926 -14.9699 -14.9267 -14.9040 -14.9024 -14.8956
   -14.8879 -14.8475 -14.8423 -14.8390 -14.7472 -14.7453 -14.7090 -14.5602
   -12.8626 -12.8625  -9.8469  -6.9900  -6.2805  -6.0576  -4.4434  -3.6607
    -3.0334  -2.9107  -2.9004  -2.6735  -2.6526  -2.5917  -2.5793  -2.4911
    -2.4754  -2.4149  -2.3914  -2.3415  -2.3183  -2.2801  -2.2664  -2.2448
    -2.2236  -2.2100  -2.1832  -2.1672  -2.1493  -2.1305  -2.1197  -2.1084
    -2.0525  -2.0474  -2.0388  -2.0132  -1.9904  -1.9540  -1.9442  -1.9277
    -1.7725  -1.7573  -1.7362  -1.5998  -1.5955  -1.5614  -1.5213  -1.4937
    -1.4353  -1.4273  -1.3989  -1.3411  -1.1468  -1.1361  -1.1239  -1.1059
    -1.0346  -0.9788  -0.9655  -0.9476  -0.8936  -0.8154  -0.7825  -0.7297
    -0.6412  -0.5886  -0.5789  -0.5529  -0.4319  -0.4081  -0.3654  -0.3485
    -0.3313  -0.2977  -0.2961  -0.2397  -0.1862  -0.1507  -0.1277  -0.1135
    -0.0765   0.0781   0.1301   0.1463   0.2611   0.2903   0.4684   0.5111
     0.5325   0.6377   0.7213   0.7491   0.7637   0.8889   0.9112   0.9137
     0.9820   1.0041   1.0644   1.0701   1.2042   2.0029   2.0042   2.0913
     2.0915   3.8302   3.9530   3.9973   4.0330   4.1090   4.1618   4.2189
     4.2779   4.2897   4.2930   4.3613

     the Fermi energy is     3.7671 ev

!    total energy              =   -2975.10518274 Ry
     estimated scf accuracy    <       0.00000006 Ry
     smearing contrib. (-TS)   =      -0.03671996 Ry
     internal energy E=F+TS    =   -2975.06846279 Ry

     The total energy is F=E-TS. E is the sum of the following terms:
     one-electron contribution =  -23505.35520779 Ry
     hartree contribution      =   11848.70222390 Ry
     xc contribution           =    -494.90978381 Ry
     ewald contribution        =    9176.49232315 Ry
     electric field correction =       0.00198177 Ry

     convergence has been achieved in  81 iterations

     Forces acting on atoms (cartesian axes, Ry/au):

     atom    1 type  1   force =     0.00003216   -0.00025012    0.09309340
     atom    2 type  1   force =    -0.00018919   -0.00032404   -0.17837565
     atom    3 type  2   force =     0.00006116   -0.00016910   -0.02025194
     atom    4 type  2   force =     0.00001767   -0.00203806    0.05925750
     atom    5 type  2   force =    -0.01034542   -0.00110214    0.00807911
     atom    6 type  2   force =     0.01218900   -0.00054570    0.00815786
     atom    7 type  1   force =     0.00015192    0.00329299   -0.01113716
     atom    8 type  1   force =    -0.00030421    0.00053651   -0.00563093
     atom    9 type  2   force =     0.00004172    0.00017256   -0.00016157
     atom   10 type  2   force =    -0.00146326   -0.00003449   -0.00172299
     atom   11 type  2   force =     0.00038303   -0.00003543   -0.00005792
     atom   12 type  2   force =    -0.00009733    0.00010607   -0.00008850
     atom   13 type  1   force =    -0.00009409   -0.00017301   -0.00023842
     atom   14 type  1   force =    -0.00020702   -0.00037368    0.00035152
     atom   15 type  2   force =     0.00006741   -0.00049743    0.00008536
     atom   16 type  2   force =     0.00022437    0.00009635    0.00020204
     atom   17 type  2   force =     0.00049295    0.00004446   -0.00012824
     atom   18 type  2   force =    -0.00013507   -0.00007854   -0.00021563
     atom   19 type  1   force =    -0.00028301   -0.00067295    0.00000566
     atom   20 type  1   force =     0.00006039    0.00023606    0.00054247
     atom   21 type  2   force =    -0.00000478   -0.00007591    0.10402475
     atom   22 type  2   force =    -0.00005976   -0.00011917   -0.00011311
     atom   23 type  2   force =    -0.07033701   -0.00016143   -0.02681454
     atom   24 type  2   force =     0.07020620    0.00028406   -0.02689305
     atom   25 type  1   force =     0.00002244   -0.00015390    0.09276109
     atom   26 type  1   force =    -0.00016323   -0.00039493   -0.17832101
     atom   27 type  2   force =     0.00011208   -0.00031122   -0.01919469
     atom   28 type  2   force =     0.00004731   -0.00163579    0.05841046
     atom   29 type  2   force =    -0.01029977   -0.00064024    0.00728481
     atom   30 type  2   force =     0.01203441   -0.00030787    0.00741871
     atom   31 type  1   force =     0.00007545    0.00514763   -0.01467929
     atom   32 type  1   force =    -0.00014098   -0.00052928   -0.00597640
     atom   33 type  2   force =     0.00012796   -0.00039100   -0.00024752
     atom   34 type  2   force =    -0.00078572    0.00260352   -0.00103945
     atom   35 type  2   force =    -0.00006579   -0.00011418   -0.00011800
     atom   36 type  2   force =     0.00023332    0.00000381   -0.00014323
     atom   37 type  1   force =    -0.00044345    0.00008271    0.00003396
     atom   38 type  1   force =    -0.00003229   -0.00023943   -0.00024446
     atom   39 type  2   force =    -0.00030255   -0.00015466   -0.00016963
     atom   40 type  2   force =    -0.00013443   -0.00004998   -0.00003999
     atom   41 type  2   force =    -0.00024264   -0.00000749    0.00068045
     atom   42 type  2   force =    -0.00002395   -0.00020902    0.00024535
     atom   43 type  1   force =     0.00005949    0.00000979    0.00016537
     atom   44 type  1   force =     0.00006084    0.00001901    0.00014937
     atom   45 type  2   force =     0.00001012   -0.00011065    0.10399355
     atom   46 type  2   force =    -0.07036009   -0.00011871   -0.02683823
     atom   47 type  2   force =     0.07020504    0.00031800   -0.02689659
     atom   48 type  3   force =     0.00008623    0.00077942    0.00027228
     atom   49 type  3   force =    -0.00066941   -0.00068132    0.00040582
     atom   50 type  4   force =     0.00056743    0.00165174    0.00032289
     atom   51 type  5   force =     0.00004274   -0.00066362   -0.00036693
     atom   52 type  5   force =     0.00001861   -0.00101967   -0.00028533
     atom   53 type  5   force =    -0.00008431    0.00004262    0.00000821
     atom   54 type  5   force =     0.00019856    0.00051656   -0.00006068
     atom   55 type  2   force =    -0.00152039   -0.01347967    0.00652602
     atom   56 type  5   force =    -0.00091876    0.00130718   -0.00089926
     atom   57 type  5   force =     0.00187791    0.01061278   -0.00512767

     Total force =     0.366693     Total SCF correction =     0.000677
  @ DRIVER MODE: Message from server: STATUS
  @ DRIVER MODE: Message from server: GETFORCE
  @ DRIVER MODE: Returning v,forces,stress,ensemble

     Writing output data file ./calc.save/
  @ DRIVER MODE: Message from server: EXIT
  @ DRIVE MODE: Exiting

     General routines

     Parallel routines

   This run was terminated on:   9: 4:37  23Sep2021

   JOB DONE.