     Program PWSCF v.6.7GPU starts on 10Sep2021 at 11:27:52

     R & G space division:  proc/nbgrp/npool/nimage =      10
     Reading input from /storage/home/hcoda1/3/ntian30/research/carbon/CxH_vib/CH_calc/ads_slab/CHNHNH_a/out_0003/pw.inp
Warning: card &CELL ignored
Warning: card   CELL_DYNAMICS='IPI', ignored
Warning: card / ignored

     Current dimensions of program PWSCF are:
     Max number of different atomic species (ntypx) = 10
     Max number of k-points (npk) =  40000
     Max angular momentum in pseudopotentials (lmaxx) =  3
     Presently no symmetry can be used with electric field

     Message from routine cell_base_init:
     DEPRECATED: use true lattice parameter, not A to a.u. conversion factor

     IMPORTANT: XC functional enforced from input :
     Exchange-correlation= BEEF-VDW
                           (   1   4  43  14   2   0   0)
     Any further DFT definition will be discarded
     Please, verify this is what you really want

  @ DRIVER MODE: Connecting to
 qe_1139763_2787518.sched-torque.pace.gatech.edujzhuhj0p_scratch
  using UNIX socket
  @ DRIVER MODE: Message from server: STATUS
  @ DRIVER MODE: Message from server: INIT
  @ DRIVER MODE: Receiving replica           0          -1
  @ DRIVER MODE: Receiving encoded integer          25
  @ DRIVER MODE:  SCF:  T  FORCE:  T  STRESS:  F  VC:  F  ENSEMBLE:  F
  @ DRIVER MODE:  SCF:  T  FORCE:  T  STRESS:  F  VC:  F  ENSEMBLE:  F

     Using Slab Decomposition

     bravais-lattice index     =            0
     lattice parameter (alat)  =       1.8897  a.u.
     unit-cell volume          =    6658.9804 (a.u.)^3
     number of atoms/cell      =           53
     number of atomic types    =            5
     number of electrons       =       395.00
     number of Kohn-Sham states=          207
     kinetic-energy cutoff     =      29.3995  Ry
     charge density cutoff     =     293.9946  Ry
     scf convergence threshold =      7.3E-08
     mixing beta               =       0.0500
     number of iterations used =            8  plain     mixing
     Exchange-correlation= BEEF-VDW
                           (   1   4  43  14   2   0   0)

     celldm(1)=   1.889726  celldm(2)=   0.000000  celldm(3)=   0.000000
     celldm(4)=   0.000000  celldm(5)=   0.000000  celldm(6)=   0.000000

     crystal axes: (cart. coord. in units of alat)
               a(1) = (   6.579727   0.000000   0.000000 )
               a(2) = (  -0.000775   5.961596   0.000000 )
               a(3) = (   0.000000   0.000000  25.155947 )

     reciprocal axes: (cart. coord. in units 2 pi/alat)
               b(1) = (  0.151982  0.000020  0.000000 )
               b(2) = (  0.000000  0.167740  0.000000 )
               b(3) = (  0.000000  0.000000  0.039752 )

     PseudoPot. # 1 for Ti read from file:
     /storage/coda1/p-amedford6/0/shared/rich_project_chbe-medford/medford-share/data/pseudos_module/espresso/nninc/pbe/van/Ti.UPF
     MD5 check sum: 8e4df49b7f0d34bbd5052bf3f5ea0213
     Pseudo is Ultrasoft, Zval = 12.0
     Generated by new atomic code, or converted to UPF format
     Using radial grid of  851 points,  6 beta functions with:
                l(1) =   0
                l(2) =   0
                l(3) =   1
                l(4) =   1
                l(5) =   2
                l(6) =   2
     Q(r) pseudized with  8 coefficients,  rinner =    1.000   1.000   1.000
                                                       1.000   1.000

     PseudoPot. # 2 for O  read from file:
     /storage/coda1/p-amedford6/0/shared/rich_project_chbe-medford/medford-share/data/pseudos_module/espresso/nninc/pbe/van/O.UPF
     MD5 check sum: 78c19812648e8988a0fe644b0f25305e
     Pseudo is Ultrasoft, Zval =  6.0
     Generated by new atomic code, or converted to UPF format
     Using radial grid of  737 points,  4 beta functions with:
                l(1) =   0
                l(2) =   0
                l(3) =   1
                l(4) =   1
     Q(r) pseudized with  8 coefficients,  rinner =    0.800   0.800   0.800

     PseudoPot. # 3 for N  read from file:
     /storage/coda1/p-amedford6/0/shared/rich_project_chbe-medford/medford-share/data/pseudos_module/espresso/nninc/pbe/van/N.UPF
     MD5 check sum: 90d10febe142ad51ac9d5be1deb811c4
     Pseudo is Ultrasoft, Zval =  5.0
     Generated by new atomic code, or converted to UPF format
     Using radial grid of  729 points,  4 beta functions with:
                l(1) =   0
                l(2) =   0
                l(3) =   1
                l(4) =   1
     Q(r) pseudized with  8 coefficients,  rinner =    0.800   0.800   0.800

     PseudoPot. # 4 for C  read from file:
     /storage/coda1/p-amedford6/0/shared/rich_project_chbe-medford/medford-share/data/pseudos_module/espresso/nninc/pbe/van/C.UPF
     MD5 check sum: 1a69bf6b8db32088f5b2163dbdb77a27
     Pseudo is Ultrasoft, Zval =  4.0
     Generated by new atomic code, or converted to UPF format
     Using radial grid of  721 points,  4 beta functions with:
                l(1) =   0
                l(2) =   0
                l(3) =   1
                l(4) =   1
     Q(r) pseudized with  8 coefficients,  rinner =    0.800   0.800   0.800

     PseudoPot. # 5 for H  read from file:
     /storage/coda1/p-amedford6/0/shared/rich_project_chbe-medford/medford-share/data/pseudos_module/espresso/nninc/pbe/van/H.UPF
     MD5 check sum: b5ee9d7bfd3a09ee7748110bda690ff7
     Pseudo is Ultrasoft, Zval =  1.0
     Generated by new atomic code, or converted to UPF format
     Using radial grid of  615 points,  1 beta functions with:
                l(1) =   0
     Q(r) pseudized with  8 coefficients,  rinner =    0.800

     atomic species   valence    mass     pseudopotential
        Ti1           12.00    47.86700     Ti( 1.00)
        O1             6.00    15.99900     O ( 1.00)
        N1             5.00    14.00700     N ( 1.00)
        C1             4.00    12.01100     C ( 1.00)
        H1             1.00     1.00800     H ( 1.00)

     No symmetry found

   Cartesian axes

     site n.     atom                  positions (alat units)
         1           Ti1 tau(   1) = (   0.0004258   2.9801865   6.0000000  )
         2           Ti1 tau(   2) = (   3.2906075   1.4906267   6.0002472  )
         3           O1  tau(   3) = (   0.0006271   0.0005054   7.9858123  )
         4           O1  tau(   4) = (   3.2906025   0.0005020   7.3038282  )
         5           O1  tau(   5) = (   4.5942328   1.4918067   9.2879030  )
         6           O1  tau(   6) = (   1.9868534   1.4903216   9.2879459  )
         7           Ti1 tau(   7) = (   3.2907910   2.8959150   9.1758416  )
         8           Ti1 tau(   8) = (   0.0015273   1.4827037   9.2680791  )
         9           O1  tau(   9) = (   3.2974950   5.9468587  11.3331085  )
        10           O1  tau(  10) = (   0.0116148   5.9584955  10.6183126  )
        11           O1  tau(  11) = (   1.3019594   1.4757037  12.6170356  )
        12           O1  tau(  12) = (   5.2841045   1.4688878  12.6073194  )
        13           Ti1 tau(  13) = (   0.0658538   3.0089988  12.6217963  )
        14           Ti1 tau(  14) = (   3.3903573   1.4765488  12.4775701  )
        15           O1  tau(  15) = (   6.5762050   0.0002902  14.6414759  )
        16           O1  tau(  16) = (   3.3078303   5.9588356  13.9306596  )
        17           O1  tau(  17) = (   4.5399328   1.5113171  16.0740780  )
        18           O1  tau(  18) = (   2.0525891   1.5105181  16.0861438  )
        19           Ti1 tau(  19) = (   3.3041007   2.9930787  15.6963055  )
        20           Ti1 tau(  20) = (   0.0280933   1.5113244  15.8467906  )
        21           O1  tau(  21) = (   3.2904802   0.0005063   4.7018136  )
        22           O1  tau(  22) = (   0.0368235   0.0128086  17.1990618  )
        23           O1  tau(  23) = (   1.3043587   1.4918075   6.0039043  )
        24           O1  tau(  24) = (   5.2767064   1.4903225   6.0039473  )
        25           Ti1 tau(  25) = (   0.0000382   5.9609847   6.0000000  )
        26           Ti1 tau(  26) = (   3.2902200   4.4714249   6.0002472  )
        27           O1  tau(  27) = (   0.0002396   2.9813036   7.9858123  )
        28           O1  tau(  28) = (   3.2902150   2.9813002   7.3038282  )
        29           O1  tau(  29) = (   4.5938453   4.4726049   9.2879030  )
        30           O1  tau(  30) = (   1.9864658   4.4711199   9.2879459  )
        31           Ti1 tau(  31) = (   3.2891106   5.8743827   9.1763621  )
        32           Ti1 tau(  32) = (   0.0006254   4.4649316   9.2693709  )
        33           O1  tau(  33) = (   3.3000731   2.9737533  11.3293525  )
        34           O1  tau(  34) = (   0.0092240   2.9805883  10.6323155  )
        35           O1  tau(  35) = (   1.3001503   4.4664650  12.6348062  )
        36           O1  tau(  36) = (   5.2875254   4.4541756  12.6228532  )
        37           Ti1 tau(  37) = (   0.0765437   0.0243871  12.5594496  )
        38           Ti1 tau(  38) = (   3.3883988   4.4566399  12.4818539  )
        39           O1  tau(  39) = (   0.0169469   2.9261715  14.6451004  )
        40           O1  tau(  40) = (   3.3035743   2.9719493  13.9037931  )
        41           O1  tau(  41) = (   4.5445893   4.4635849  16.0933648  )
        42           O1  tau(  42) = (   2.0554864   4.4706235  16.0676963  )
        43           Ti1 tau(  43) = (   3.3300396   0.0018144  15.7250798  )
        44           Ti1 tau(  44) = (   0.0441581   4.6348571  16.0952712  )
        45           O1  tau(  45) = (   3.2900926   2.9813045   4.7018136  )
        46           O1  tau(  46) = (   1.3039711   4.4726057   6.0039043  )
        47           O1  tau(  47) = (   5.2763189   4.4711207   6.0039473  )
        48           N1  tau(  48) = (   1.0252718   2.8001955  18.5330041  )
        49           N1  tau(  49) = (   6.5702222   2.9467621  17.4444712  )
        50           C1  tau(  50) = (   1.2122298   3.5280882  19.5702009  )
        51           H1  tau(  51) = (   0.5037382   4.3646449  19.6222421  )
        52           H1  tau(  52) = (   1.5845460   1.9874866  18.3412699  )
        53           H1  tau(  53) = (   5.6894004   2.9582294  17.9538253  )

     number of k points=    10  Fermi-Dirac smearing, width (Ry)=  0.0073
                       cart. coord. in units 2pi/alat
        k(    1) = (   0.0000000   0.0000000   0.0000000), wk =   0.1250000
        k(    2) = (   0.0000000   0.0419351   0.0000000), wk =   0.2500000
        k(    3) = (   0.0000000  -0.0838702   0.0000000), wk =   0.1250000
        k(    4) = (   0.0379955   0.0000049   0.0000000), wk =   0.2500000
        k(    5) = (   0.0379955   0.0419400   0.0000000), wk =   0.2500000
        k(    6) = (   0.0379955  -0.0838652   0.0000000), wk =   0.2500000
        k(    7) = (   0.0379955  -0.0419301   0.0000000), wk =   0.2500000
        k(    8) = (  -0.0759910  -0.0000099   0.0000000), wk =   0.1250000
        k(    9) = (  -0.0759910   0.0419252   0.0000000), wk =   0.2500000
        k(   10) = (  -0.0759910  -0.0838800   0.0000000), wk =   0.1250000

     Initial potential from superposition of free atoms

     starting charge  378.99916, renormalised to  395.00000

     negative rho (up, down):  1.643E-02 0.000E+00

     %%%%%%%%%%%%%%%%%%%%%%%%%%%%%%%%%%%%%%%%%%%%%%%%%%%%%%%%%%%%%%%%%%%%%%%%
     %                                                                      %
     % You are using vdW-DF, which was implemented by the Thonhauser group. %
     % Please cite the following two papers that made this development      %
     % possible and the two reviews that describe the various versions:     %
     %                                                                      %
     %   T. Thonhauser et al., PRL 115, 136402 (2015).                      %
     %   T. Thonhauser et al., PRB 76, 125112 (2007).                       %
     %   K. Berland et al., Rep. Prog. Phys. 78, 066501 (2015).             %
     %   D.C. Langreth et al., J. Phys.: Condens. Matter 21, 084203 (2009). %
     %                                                                      %
     %                                                                      %
     % If you are calculating the stress with vdW-DF, please also cite:     %
     %                                                                      %
     %   R. Sabatini et al., J. Phys.: Condens. Matter 24, 424209 (2012).   %
     %                                                                      %
     %%%%%%%%%%%%%%%%%%%%%%%%%%%%%%%%%%%%%%%%%%%%%%%%%%%%%%%%%%%%%%%%%%%%%%%%

     Adding external electric field

     Computed dipole along edir(3) :
        Dipole               -8.5017 Ry au,        -21.6093 Debye
        Dipole field         -0.0160 Ry au,

        Potential amp.        1.4872 Ry
        Total length         46.3494 bohr

     Starting wfcs are  299 atomic wfcs
  @ DRIVER MODE: Message from server: STATUS
  @ DRIVER MODE: Message from server: POSDATA
  @ DRIVER MODE: Reading and sharing cell
  @ DRIVER MODE: Reading and sharing positions
  @ DRIVER MODE: Received positions

     Self-consistent Calculation

     iteration #  1     ecut=    29.40 Ry     beta= 0.05
     Davidson diagonalization with overlap
     c_bands:  1 eigenvalues not converged
     c_bands:  1 eigenvalues not converged
     c_bands:  2 eigenvalues not converged
     c_bands:  3 eigenvalues not converged
     c_bands:  3 eigenvalues not converged
     c_bands:  1 eigenvalues not converged
     c_bands:  1 eigenvalues not converged
     ethr =  1.00E-05,  avg # of iterations = 19.2

[...]

     total energy              =   -2621.16875506 Ry
     estimated scf accuracy    <    3530.58074347 Ry

[...]

     iteration #  3     ecut=    29.40 Ry     beta= 0.05
     Davidson diagonalization with overlap
     ethr =  1.00E-02,  avg # of iterations = 15.3

[...]

     iteration # 68     ecut=    29.40 Ry     beta= 0.05
     Davidson diagonalization with overlap
     c_bands:  1 eigenvalues not converged
     ethr =  1.38E-09,  avg # of iterations =  4.1

[...]

     total energy              =   -2939.04787477 Ry
     estimated scf accuracy    <       0.00000007 Ry

     iteration # 83     ecut=    29.40 Ry     beta= 0.05
     Davidson diagonalization with overlap
     ethr =  1.87E-11,  avg # of iterations =  8.3

     negative rho (up, down):  1.568E-02 0.000E+00

     Adding external electric field

     Computed dipole along edir(3) :
        Dipole                0.0426 Ry au,          0.1082 Debye
        Dipole field          0.0001 Ry au,

        Potential amp.       -0.0074 Ry
        Total length         46.3494 bohr

     End of self-consistent calculation

          k = 0.0000 0.0000 0.0000 ( 18029 PWs)   bands (ev):

   -56.2401 -56.2338 -56.2061 -56.1978 -56.1485 -56.0772 -56.0763 -56.0481
   -56.0408 -56.0141 -56.0122 -55.9786 -55.7856 -55.5229 -55.2169 -55.1829
   -32.7903 -32.7223 -32.5901 -32.5778 -32.5581 -32.5469 -32.5331 -32.5029
   -32.4825 -32.4808 -32.4549 -32.4431 -32.4150 -32.3922 -32.3865 -32.3755
   -32.3750 -32.3442 -32.3288 -32.2972 -32.2893 -32.2867 -32.2627 -32.2431
   -32.2385 -32.2355 -32.2354 -32.2225 -32.2151 -32.1991 -32.1928 -32.1909
   -32.1872 -32.1785 -32.1651 -32.1550 -32.1244 -32.0381 -31.9753 -31.8010
   -31.7842 -31.7240 -31.6240 -31.5357 -31.5133 -31.4407 -31.3542 -31.2431
   -17.2885 -16.9887 -16.7165 -16.5073 -16.3958 -16.3637 -16.2641 -16.0810
   -15.9572 -15.9268 -15.8272 -15.7999 -15.7763 -15.7652 -15.7430 -15.7333
   -15.6860 -15.6816 -15.6691 -15.6539 -15.6006 -15.5755 -15.5466 -15.4378
   -15.4312 -15.3980 -15.3723 -15.2959 -15.2896 -14.8290 -13.7195 -13.6031
   -12.7425  -8.6918  -5.3246  -4.3643  -4.2203  -4.1923  -4.1454  -4.0932
    -3.8757  -3.8127  -3.7584  -3.6158  -3.4691  -3.4274  -3.4147  -3.3985
    -3.3691  -3.1428  -3.1174  -3.0539  -3.0303  -3.0245  -3.0135  -3.0038
    -2.9828  -2.9656  -2.8930  -2.7890  -2.7157  -2.6665  -2.6190  -2.6085
    -2.5520  -2.5050  -2.5013  -2.4837  -2.4789  -2.4699  -2.4328  -2.4242
    -2.2879  -2.2267  -2.0940  -2.0575  -2.0371  -1.8891  -1.8470  -1.7521
    -1.6857  -1.6685  -1.6590  -1.6305  -1.5451  -1.5226  -1.4033  -1.3809
    -1.3400  -1.2683  -1.2555  -1.2343  -1.1316  -1.1163  -1.0113  -1.0039
    -0.9975  -0.9804  -0.9222  -0.7322  -0.7103  -0.6815  -0.6620  -0.6277
    -0.5519  -0.5218  -0.4310  -0.4185  -0.3598  -0.3378  -0.3153  -0.2655
    -0.2595  -0.2475  -0.2438  -0.2278  -0.0522   0.0093   0.0664   0.1172
     0.1335   0.2896   0.3390   0.4174   0.5028   0.7306   0.8050   0.8423
     0.8935   0.9972   1.3763   1.4219   2.4405   2.9006   2.9809   3.0309
     3.0412   3.1354   3.1417   3.3490   3.3708   3.3767   3.4408

[...]

          k = 0.0380-0.0419 0.0000 ( 17876 PWs)   bands (ev):

[...]

          k =-0.0760-0.0000 0.0000 ( 17886 PWs)   bands (ev):

[...]

          k =-0.0760-0.0839 0.0000 ( 17948 PWs)   bands (ev):

   -56.2234 -56.2226 -56.2166 -56.2149 -56.1440 -56.0815 -56.0631 -56.0541
   -56.0320 -56.0297 -55.9958 -55.9952 -55.7846 -55.5238 -55.1999 -55.1998
   -32.5953 -32.5924 -32.5379 -32.5373 -32.5265 -32.5189 -32.5181 -32.4995
   -32.4418 -32.4404 -32.4348 -32.4317 -32.4067 -32.3715 -32.3607 -32.3563
   -32.3491 -32.3453 -32.3431 -32.3429 -32.3420 -32.3349 -32.3327 -32.2848
   -32.2838 -32.2729 -32.2549 -32.2446 -32.2306 -32.2301 -32.2275 -32.2272
   -32.2107 -32.2099 -32.2022 -32.1999 -32.1298 -32.0405 -31.9704 -31.8577
   -31.7937 -31.7490 -31.5261 -31.5260 -31.4368 -31.4366 -31.3975 -31.3974
   -17.2703 -16.4398 -16.4082 -16.1820 -16.1717 -16.1570 -16.1536 -16.0162
   -15.9486 -15.9457 -15.9389 -15.9070 -15.8794 -15.8412 -15.7963 -15.7744
   -15.7739 -15.7621 -15.7553 -15.7021 -15.6969 -15.6753 -15.6684 -15.5663
   -15.5554 -15.5519 -15.4983 -15.4099 -15.2808 -15.0033 -13.7050 -13.7048
   -12.7533  -8.6970  -5.3221  -3.8819  -3.7308  -3.6936  -3.5440  -3.4115
    -3.4075  -3.3966  -3.3234  -3.1560  -3.1414  -3.1189  -3.0946  -3.0678
    -3.0676  -3.0530  -3.0474  -3.0285  -3.0046  -2.9691  -2.9300  -2.9266
    -2.9047  -2.8948  -2.8690  -2.8552  -2.8251  -2.8133  -2.7977  -2.7797
    -2.7608  -2.7456  -2.5922  -2.4722  -2.4387  -2.3764  -2.3680  -2.3486
    -2.3143  -2.3034  -2.2905  -2.2283  -2.1270  -1.9913  -1.9434  -1.9369
    -1.9044  -1.8251  -1.8125  -1.6675  -1.6528  -1.6256  -1.5872  -1.5338
    -1.5165  -1.4659  -1.4028  -1.3907  -1.3589  -1.3276  -1.2533  -1.2029
    -1.2000  -1.1813  -1.1228  -1.0347  -1.0271  -1.0099  -1.0022  -0.9521
    -0.8748  -0.8612  -0.8292  -0.7443  -0.7269  -0.6282  -0.5443  -0.3419
    -0.2608  -0.2138  -0.1676  -0.1343  -0.0311   0.0153   0.0312   0.0671
     0.0801   0.1270   0.1860   0.2926   0.2995   0.3607   0.4702   0.8074
     1.1687   1.1695   1.2415   1.2418   2.3985   3.1606   3.1694   3.2248
     3.2471   3.3976   3.4033   3.4278   3.4290   3.5490   3.5668

     the Fermi energy is     2.8955 ev

!    total energy              =   -2939.04787927 Ry
     estimated scf accuracy    <       0.00000002 Ry
     smearing contrib. (-TS)   =      -0.02297807 Ry
     internal energy E=F+TS    =   -2939.02490120 Ry

     The total energy is F=E-TS. E is the sum of the following terms:
     one-electron contribution =  -24314.72637658 Ry
     hartree contribution      =   12241.20253555 Ry
     xc contribution           =    -485.12527051 Ry
     ewald contribution        =    9619.62420692 Ry
     electric field correction =       0.00000342 Ry

     convergence has been achieved in  83 iterations

     Forces acting on atoms (cartesian axes, Ry/au):

     atom    1 type  1   force =     0.00026286   -0.00024096    0.09663628
     atom    2 type  1   force =    -0.00018227   -0.00051813   -0.17530770
     atom    3 type  2   force =    -0.00000297   -0.00007871   -0.02503670
     atom    4 type  2   force =     0.00005830   -0.00154535    0.05297583
     atom    5 type  2   force =    -0.01217082   -0.00104349    0.00344482
     atom    6 type  2   force =     0.01405279   -0.00028422    0.00273392
     atom    7 type  1   force =    -0.00095396    0.00049145   -0.01192352
     atom    8 type  1   force =     0.00044345    0.00876685    0.02925432
     atom    9 type  2   force =     0.00051169    0.00030280   -0.00017533
     atom   10 type  2   force =    -0.00090002   -0.00020457   -0.01711148
     atom   11 type  2   force =     0.00036503    0.00018358    0.00035199
     atom   12 type  2   force =    -0.00105769    0.00082040    0.00049176
     atom   13 type  1   force =     0.00146366    0.00081179   -0.00003861
     atom   14 type  1   force =    -0.00124373    0.00035138   -0.00026277
     atom   15 type  2   force =    -0.00064657    0.00058424    0.00052134
     atom   16 type  2   force =     0.00032076   -0.00037080   -0.00017079
     atom   17 type  2   force =     0.00050927    0.00017086   -0.00020557
     atom   18 type  2   force =    -0.00056129    0.00006538   -0.00025691
     atom   19 type  1   force =    -0.00008675   -0.00062430   -0.00005858
     atom   20 type  1   force =    -0.00008820   -0.00001459    0.00025209
     atom   21 type  2   force =     0.00008139   -0.00006169    0.10318673
     atom   22 type  2   force =    -0.00000080    0.00165646    0.00036367
     atom   23 type  2   force =    -0.07149717   -0.00015691   -0.02775865
     atom   24 type  2   force =     0.07144429    0.00026595   -0.02775937
     atom   25 type  1   force =     0.00007163   -0.00022582    0.09648797
     atom   26 type  1   force =    -0.00013250   -0.00034919   -0.17548014
     atom   27 type  2   force =     0.00006347   -0.00024055   -0.02406527
     atom   28 type  2   force =     0.00011806   -0.00128254    0.05274722
     atom   29 type  2   force =    -0.01228332    0.00002190    0.00301168
     atom   30 type  2   force =     0.01405266    0.00040283    0.00237975
     atom   31 type  1   force =    -0.00094802    0.00315083   -0.01286948
     atom   32 type  1   force =     0.00028657   -0.01002220    0.02994337
     atom   33 type  2   force =     0.00025808   -0.00013935    0.00046744
     atom   34 type  2   force =    -0.00003363   -0.00000176   -0.02438048
     atom   35 type  2   force =    -0.00033801    0.00022241   -0.00027848
     atom   36 type  2   force =    -0.00115408    0.00053652   -0.00008063
     atom   37 type  1   force =     0.00123044   -0.00092971    0.00046964
     atom   38 type  1   force =    -0.00090986   -0.00057766   -0.00004251
     atom   39 type  2   force =    -0.00022107   -0.00058882    0.00066630
     atom   40 type  2   force =     0.00008604    0.00055386    0.00014528
     atom   41 type  2   force =    -0.00099287   -0.00014342   -0.00018478
     atom   42 type  2   force =     0.00161960   -0.00024600   -0.00020394
     atom   43 type  1   force =    -0.00051209    0.00037711   -0.00048358
     atom   44 type  1   force =    -0.00002757    0.00010745    0.00007729
     atom   45 type  2   force =     0.00005244   -0.00008740    0.10318806
     atom   46 type  2   force =    -0.07152253   -0.00016127   -0.02774329
     atom   47 type  2   force =     0.07149325    0.00033944   -0.02778428
     atom   48 type  3   force =    -0.00942583    0.02432158    0.01123687
     atom   49 type  3   force =     0.00096880   -0.00271533    0.00038034
     atom   50 type  4   force =     0.00146756   -0.00848878   -0.00776494
     atom   51 type  5   force =    -0.00036819    0.00002920   -0.00185240
     atom   52 type  5   force =     0.00754664   -0.01243542   -0.00284462
     atom   53 type  5   force =    -0.00056693   -0.00075533    0.00071082

     Total force =     0.369947     Total SCF correction =     0.000374
  @ DRIVER MODE: Message from server: STATUS
  @ DRIVER MODE: Message from server: GETFORCE
  @ DRIVER MODE: Returning v,forces,stress,ensemble

     Writing output data file ./calc.save/
  @ DRIVER MODE: Message from server: EXIT
  @ DRIVE MODE: Exiting

     General routines

     Parallel routines

   This run was terminated on:  11:49:29  10Sep2021

   JOB DONE.