     Program PWSCF v.6.7GPU starts on  2Aug2021 at 17:54:14

     R & G space division:  proc/nbgrp/npool/nimage =      16
     Reading input from /storage/home/hcoda1/3/ntian30/research/carbon/02Aug_vib_paired/ads_slab/CH3N_a/out_0029/pw.inp
Warning: card &CELL ignored
Warning: card   CELL_DYNAMICS='IPI', ignored
Warning: card / ignored

     Current dimensions of program PWSCF are:
     Max number of different atomic species (ntypx) = 10
     Max number of k-points (npk) =  40000
     Max angular momentum in pseudopotentials (lmaxx) =  3
     Presently no symmetry can be used with electric field

     Message from routine cell_base_init:
     DEPRECATED: use true lattice parameter, not A to a.u. conversion factor

     IMPORTANT: XC functional enforced from input :
     Exchange-correlation= BEEF-VDW
                           (   1   4  43  14   2   0   0)
     Any further DFT definition will be discarded
     Please, verify this is what you really want

  @ DRIVER MODE: Connecting to
 qe_1139763_2482542.sched-torque.pace.gatech.eduwlgkpvlo_scratch
  using UNIX socket
  @ DRIVER MODE: Message from server: STATUS
  @ DRIVER MODE: Message from server: INIT
  @ DRIVER MODE: Receiving replica           0          -1
  @ DRIVER MODE: Receiving encoded integer          25
  @ DRIVER MODE:  SCF:  T  FORCE:  T  STRESS:  F  VC:  F  ENSEMBLE:  F
  @ DRIVER MODE:  SCF:  T  FORCE:  T  STRESS:  F  VC:  F  ENSEMBLE:  F

     Using Slab Decomposition

     bravais-lattice index     =            0
     lattice parameter (alat)  =       1.8897  a.u.
     unit-cell volume          =    6658.9804 (a.u.)^3
     number of atoms/cell      =           52
     number of atomic types    =            5
     number of electrons       =       390.00
     number of Kohn-Sham states=          205
     kinetic-energy cutoff     =      29.3995  Ry
     charge density cutoff     =     293.9946  Ry
     scf convergence threshold =      7.3E-08
     mixing beta               =       0.0500
     number of iterations used =            8  plain     mixing
     Exchange-correlation= BEEF-VDW
                           (   1   4  43  14   2   0   0)

     celldm(1)=   1.889726  celldm(2)=   0.000000  celldm(3)=   0.000000
     celldm(4)=   0.000000  celldm(5)=   0.000000  celldm(6)=   0.000000

     crystal axes: (cart. coord. in units of alat)
               a(1) = (   6.579727   0.000000   0.000000 )
               a(2) = (  -0.000775   5.961596   0.000000 )
               a(3) = (   0.000000   0.000000  25.155947 )

     reciprocal axes: (cart. coord. in units 2 pi/alat)
               b(1) = (  0.151982  0.000020  0.000000 )
               b(2) = (  0.000000  0.167740  0.000000 )
               b(3) = (  0.000000  0.000000  0.039752 )

     PseudoPot. # 1 for Ti read from file:
     /storage/coda1/p-amedford6/0/shared/rich_project_chbe-medford/medford-share/data/pseudos_module/espresso/nninc/pbe/van/Ti.UPF
     MD5 check sum: 8e4df49b7f0d34bbd5052bf3f5ea0213
     Pseudo is Ultrasoft, Zval = 12.0
     Generated by new atomic code, or converted to UPF format
     Using radial grid of  851 points,  6 beta functions with:
                l(1) =   0
                l(2) =   0
                l(3) =   1
                l(4) =   1
                l(5) =   2
                l(6) =   2
     Q(r) pseudized with  8 coefficients,  rinner =    1.000   1.000   1.000
                                                       1.000   1.000

     PseudoPot. # 2 for O  read from file:
     /storage/coda1/p-amedford6/0/shared/rich_project_chbe-medford/medford-share/data/pseudos_module/espresso/nninc/pbe/van/O.UPF
     MD5 check sum: 78c19812648e8988a0fe644b0f25305e
     Pseudo is Ultrasoft, Zval =  6.0
     Generated by new atomic code, or converted to UPF format
     Using radial grid of  737 points,  4 beta functions with:
                l(1) =   0
                l(2) =   0
                l(3) =   1
                l(4) =   1
     Q(r) pseudized with  8 coefficients,  rinner =    0.800   0.800   0.800

     PseudoPot. # 3 for N  read from file:
     /storage/coda1/p-amedford6/0/shared/rich_project_chbe-medford/medford-share/data/pseudos_module/espresso/nninc/pbe/van/N.UPF
     MD5 check sum: 90d10febe142ad51ac9d5be1deb811c4
     Pseudo is Ultrasoft, Zval =  5.0
     Generated by new atomic code, or converted to UPF format
     Using radial grid of  729 points,  4 beta functions with:
                l(1) =   0
                l(2) =   0
                l(3) =   1
                l(4) =   1
     Q(r) pseudized with  8 coefficients,  rinner =    0.800   0.800   0.800

     PseudoPot. # 4 for C  read from file:
     /storage/coda1/p-amedford6/0/shared/rich_project_chbe-medford/medford-share/data/pseudos_module/espresso/nninc/pbe/van/C.UPF
     MD5 check sum: 1a69bf6b8db32088f5b2163dbdb77a27
     Pseudo is Ultrasoft, Zval =  4.0
     Generated by new atomic code, or converted to UPF format
     Using radial grid of  721 points,  4 beta functions with:
                l(1) =   0
                l(2) =   0
                l(3) =   1
                l(4) =   1
     Q(r) pseudized with  8 coefficients,  rinner =    0.800   0.800   0.800

     PseudoPot. # 5 for H  read from file:
     /storage/coda1/p-amedford6/0/shared/rich_project_chbe-medford/medford-share/data/pseudos_module/espresso/nninc/pbe/van/H.UPF
     MD5 check sum: b5ee9d7bfd3a09ee7748110bda690ff7
     Pseudo is Ultrasoft, Zval =  1.0
     Generated by new atomic code, or converted to UPF format
     Using radial grid of  615 points,  1 beta functions with:
                l(1) =   0
     Q(r) pseudized with  8 coefficients,  rinner =    0.800

     atomic species   valence    mass     pseudopotential
        Ti1           12.00    47.86700     Ti( 1.00)
        O1             6.00    15.99900     O ( 1.00)
        N1             5.00    14.00700     N ( 1.00)
        C1             4.00    12.01100     C ( 1.00)
        H1             1.00     1.00800     H ( 1.00)

     No symmetry found

   Cartesian axes

     site n.     atom                  positions (alat units)
         1           Ti1 tau(   1) = (   0.0004258   2.9801865   6.0000000  )
         2           Ti1 tau(   2) = (   3.2906075   1.4906267   6.0002472  )
         3           O1  tau(   3) = (   0.0006271   0.0005054   7.9858123  )
         4           O1  tau(   4) = (   3.2906025   0.0005020   7.3038282  )
         5           O1  tau(   5) = (   4.5942328   1.4918067   9.2879030  )
         6           O1  tau(   6) = (   1.9868534   1.4903216   9.2879459  )
         7           Ti1 tau(   7) = (   3.2907910   2.8959150   9.1758416  )
         8           Ti1 tau(   8) = (   0.0015273   1.4827037   9.2680791  )
         9           O1  tau(   9) = (   3.2848820   0.0184509  11.2968037  )
        10           O1  tau(  10) = (   0.0116148   5.9584955  10.6183126  )
        11           O1  tau(  11) = (   1.3164307   1.5202202  12.6152053  )
        12           O1  tau(  12) = (   5.2938533   1.5248534  12.6363518  )
        13           Ti1 tau(  13) = (   6.4693392   3.0155455  12.7604093  )
        14           Ti1 tau(  14) = (   3.1621140   1.5165027  12.4659144  )
        15           O1  tau(  15) = (   0.0250032   0.0426882  14.5925537  )
        16           O1  tau(  16) = (   3.2896737   0.0171256  13.8799622  )
        17           O1  tau(  17) = (   4.5365032   1.4993634  16.0438468  )
        18           O1  tau(  18) = (   2.0814567   1.5015292  16.0591106  )
        19           Ti1 tau(  19) = (   3.3082904   2.9956922  15.6854367  )
        20           Ti1 tau(  20) = (   0.0032501   1.4479889  16.1249605  )
        21           O1  tau(  21) = (   3.2904802   0.0005063   4.7018136  )
        22           O1  tau(  22) = (   0.0161699   0.0004382  17.1970091  )
        23           O1  tau(  23) = (   1.3043587   1.4918075   6.0039043  )
        24           O1  tau(  24) = (   5.2767064   1.4903225   6.0039473  )
        25           Ti1 tau(  25) = (   0.0000382   5.9609847   6.0000000  )
        26           Ti1 tau(  26) = (   3.2902200   4.4714249   6.0002472  )
        27           O1  tau(  27) = (   0.0002396   2.9813036   7.9858123  )
        28           O1  tau(  28) = (   3.2902150   2.9813002   7.3038282  )
        29           O1  tau(  29) = (   4.5938453   4.4726049   9.2879030  )
        30           O1  tau(  30) = (   1.9864658   4.4711199   9.2879459  )
        31           Ti1 tau(  31) = (   3.2891106   5.8743827   9.1763621  )
        32           Ti1 tau(  32) = (   0.0006254   4.4649316   9.2693709  )
        33           O1  tau(  33) = (   3.2855107   2.9994495  11.2959752  )
        34           O1  tau(  34) = (   0.0092240   2.9805883  10.6323155  )
        35           O1  tau(  35) = (   1.3179678   4.4860142  12.6155112  )
        36           O1  tau(  36) = (   5.2920789   4.4901865  12.6316709  )
        37           Ti1 tau(  37) = (   6.5050993   0.0355131  12.7707974  )
        38           Ti1 tau(  38) = (   3.1594757   4.4963870  12.4672366  )
        39           O1  tau(  39) = (   6.5726527   3.0227966  14.6583025  )
        40           O1  tau(  40) = (   3.2932321   2.9979836  13.8792693  )
        41           O1  tau(  41) = (   4.5322310   4.4839795  16.0418810  )
        42           O1  tau(  42) = (   2.0800586   4.4799519  16.0553745  )
        43           Ti1 tau(  43) = (   3.2910362   0.0127607  15.6894215  )
        44           Ti1 tau(  44) = (   0.0049462   4.4269923  16.0943486  )
        45           O1  tau(  45) = (   3.2900926   2.9813045   4.7018136  )
        46           O1  tau(  46) = (   1.3039711   4.4726057   6.0039043  )
        47           O1  tau(  47) = (   5.2763189   4.4711207   6.0039473  )
        48           N1  tau(  48) = (   0.0596666   2.9942962  17.3216073  )
        49           C1  tau(  49) = (   0.3918855   2.9774893  18.7266025  )
        50           H1  tau(  50) = (   0.0017595   3.8652167  19.2343835  )
        51           H1  tau(  51) = (   0.0043965   2.0815098  19.2200810  )
        52           H1  tau(  52) = (   1.4843755   2.9788857  18.8481259  )

     number of k points=    10  Fermi-Dirac smearing, width (Ry)=  0.0073
                       cart. coord. in units 2pi/alat
        k(    1) = (   0.0000000   0.0000000   0.0000000), wk =   0.1250000
        k(    2) = (   0.0000000   0.0419351   0.0000000), wk =   0.2500000
        k(    3) = (   0.0000000  -0.0838702   0.0000000), wk =   0.1250000
        k(    4) = (   0.0379955   0.0000049   0.0000000), wk =   0.2500000
        k(    5) = (   0.0379955   0.0419400   0.0000000), wk =   0.2500000
        k(    6) = (   0.0379955  -0.0838652   0.0000000), wk =   0.2500000
        k(    7) = (   0.0379955  -0.0419301   0.0000000), wk =   0.2500000
        k(    8) = (  -0.0759910  -0.0000099   0.0000000), wk =   0.1250000
        k(    9) = (  -0.0759910   0.0419252   0.0000000), wk =   0.2500000
        k(   10) = (  -0.0759910  -0.0838800   0.0000000), wk =   0.1250000

     Initial potential from superposition of free atoms

     starting charge  373.99917, renormalised to  390.00000

     negative rho (up, down):  1.731E-02 0.000E+00

     %%%%%%%%%%%%%%%%%%%%%%%%%%%%%%%%%%%%%%%%%%%%%%%%%%%%%%%%%%%%%%%%%%%%%%%%
     %                                                                      %
     % You are using vdW-DF, which was implemented by the Thonhauser group. %
     % Please cite the following two papers that made this development      %
     % possible and the two reviews that describe the various versions:     %
     %                                                                      %
     %   T. Thonhauser et al., PRL 115, 136402 (2015).                      %
     %   T. Thonhauser et al., PRB 76, 125112 (2007).                       %
     %   K. Berland et al., Rep. Prog. Phys. 78, 066501 (2015).             %
     %   D.C. Langreth et al., J. Phys.: Condens. Matter 21, 084203 (2009). %
     %                                                                      %
     %                                                                      %
     % If you are calculating the stress with vdW-DF, please also cite:     %
     %                                                                      %
     %   R. Sabatini et al., J. Phys.: Condens. Matter 24, 424209 (2012).   %
     %                                                                      %
     %%%%%%%%%%%%%%%%%%%%%%%%%%%%%%%%%%%%%%%%%%%%%%%%%%%%%%%%%%%%%%%%%%%%%%%%

     Adding external electric field

     Computed dipole along edir(3) :
        Dipole               -4.6255 Ry au,        -11.7568 Debye
        Dipole field         -0.0087 Ry au,

        Potential amp.        0.8092 Ry
        Total length         46.3494 bohr

     Starting wfcs are  295 atomic wfcs
  @ DRIVER MODE: Message from server: STATUS
  @ DRIVER MODE: Message from server: POSDATA
  @ DRIVER MODE: Reading and sharing cell
  @ DRIVER MODE: Reading and sharing positions
  @ DRIVER MODE: Received positions

     Self-consistent Calculation

     iteration #  1     ecut=    29.40 Ry     beta= 0.05
     Davidson diagonalization with overlap
     c_bands:  3 eigenvalues not converged
     c_bands:  3 eigenvalues not converged
     c_bands:  2 eigenvalues not converged
     c_bands:  4 eigenvalues not converged
     c_bands:  4 eigenvalues not converged
     c_bands:  2 eigenvalues not converged
     c_bands:  3 eigenvalues not converged
     c_bands:  2 eigenvalues not converged
     ethr =  1.00E-05,  avg # of iterations = 19.7

[...]

     total energy              =   -2877.24196743 Ry
     estimated scf accuracy    <     483.00075762 Ry

     iteration #  2     ecut=    29.40 Ry     beta= 0.05
     Davidson diagonalization with overlap
     ethr =  1.00E-02,  avg # of iterations = 13.7

[...]

     iteration # 27     ecut=    29.40 Ry     beta= 0.05
     Davidson diagonalization with overlap
     c_bands:  1 eigenvalues not converged
     ethr =  2.41E-07,  avg # of iterations =  8.7

[...]

     total energy              =   -2919.13282347 Ry
     estimated scf accuracy    <       0.00000021 Ry

     iteration # 66     ecut=    29.40 Ry     beta= 0.05
     Davidson diagonalization with overlap
     ethr =  3.57E-11,  avg # of iterations =  5.0

     negative rho (up, down):  1.773E-02 0.000E+00

     Adding external electric field

     Computed dipole along edir(3) :
        Dipole                0.2521 Ry au,          0.6409 Debye
        Dipole field          0.0005 Ry au,

        Potential amp.       -0.0441 Ry
        Total length         46.3494 bohr

     End of self-consistent calculation

          k = 0.0000 0.0000 0.0000 ( 18029 PWs)   bands (ev):

   -56.8979 -56.8643 -56.0111 -56.0017 -55.9760 -55.9692 -55.8617 -55.8259
   -55.6446 -55.6093 -55.5600 -55.5383 -55.5260 -55.4406 -54.9950 -54.9420
   -33.3255 -33.1723 -33.1442 -33.0744 -32.9834 -32.9516 -32.4845 -32.4753
   -32.4045 -32.2970 -32.2515 -32.2247 -32.2095 -32.1856 -32.1527 -32.1496
   -32.1425 -32.1400 -32.1158 -32.1088 -32.1014 -32.0700 -32.0440 -32.0288
   -32.0151 -31.9979 -31.9897 -31.9662 -31.9521 -31.8986 -31.8762 -31.8745
   -31.7835 -31.7821 -31.7709 -31.7138 -31.7108 -31.6874 -31.6685 -31.6468
   -31.6226 -31.5765 -31.5175 -31.2383 -31.2197 -31.1918 -31.1635 -31.0451
   -17.0600 -16.6206 -16.3898 -16.2592 -16.1879 -16.1373 -16.0897 -15.9635
   -15.8919 -15.8884 -15.8511 -15.8122 -15.7442 -15.6044 -15.5071 -15.4478
   -15.4047 -15.2849 -15.2274 -15.1911 -15.1836 -15.1525 -15.1328 -14.9346
   -14.9120 -14.8162 -14.7998 -14.6754 -14.4485 -14.0586 -13.9486 -13.0939
    -7.8024  -4.6263  -4.1168  -3.8742  -3.7915  -3.6812  -3.6737  -3.5921
    -3.4775  -3.4267  -3.3811  -3.2654  -3.2615  -3.1158  -3.1023  -3.0727
    -3.0663  -3.0284  -3.0004  -2.9504  -2.9054  -2.8953  -2.8887  -2.7392
    -2.6373  -2.5677  -2.5449  -2.5279  -2.5000  -2.4074  -2.4030  -2.3877
    -2.3841  -2.2894  -2.1392  -2.1306  -2.0956  -2.0589  -2.0556  -2.0130
    -2.0023  -1.8453  -1.8014  -1.6847  -1.6730  -1.6379  -1.5718  -1.5682
    -1.4520  -1.3968  -1.3504  -1.3057  -1.1985  -1.1535  -1.1250  -1.0367
    -0.9755  -0.9386  -0.9201  -0.9005  -0.7938  -0.7854  -0.7696  -0.6786
    -0.6730  -0.6222  -0.5326  -0.5103  -0.5082  -0.4174  -0.4093  -0.3111
    -0.2766  -0.2241  -0.1939  -0.1142  -0.0835   0.0209   0.0595   0.0749
     0.2049   0.2198   0.2783   0.3451   0.4018   0.4454   0.4615   0.4959
     0.5050   0.5979   0.7060   0.7080   0.8193   0.8568   1.0144   1.0533
     1.3505   1.3600   2.0247   2.3772   2.5379   2.8361   3.0306   3.1433
     3.3539   3.3677   3.3735   3.5534   3.6015

[...]

          k = 0.0380-0.0419 0.0000 ( 17876 PWs)   bands (ev):

[...]

          k =-0.0760-0.0000 0.0000 ( 17886 PWs)   bands (ev):

[...]

          k =-0.0760-0.0839 0.0000 ( 17948 PWs)   bands (ev):

   -56.8812 -56.8809 -55.9949 -55.9905 -55.9863 -55.9859 -55.8467 -55.8407
   -55.6296 -55.6242 -55.5430 -55.5429 -55.5351 -55.4436 -54.9883 -54.9486
   -33.1582 -33.1579 -33.1425 -33.1422 -33.0275 -33.0272 -32.3142 -32.3118
   -32.2992 -32.2939 -32.2414 -32.2400 -32.1972 -32.1969 -32.1962 -32.1928
   -32.1847 -32.1822 -32.1812 -32.1792 -32.0986 -32.0935 -32.0472 -32.0435
   -31.9814 -31.9734 -31.9120 -31.9061 -31.8875 -31.8874 -31.8662 -31.8284
   -31.8270 -31.7927 -31.7685 -31.7684 -31.7599 -31.7294 -31.7293 -31.7087
   -31.6855 -31.6489 -31.3830 -31.3022 -31.2164 -31.1849 -31.1699 -31.1291
   -16.4081 -16.4061 -16.3744 -16.3741 -16.1031 -16.0995 -16.0505 -16.0484
   -15.8767 -15.8689 -15.6641 -15.6549 -15.6487 -15.6451 -15.5173 -15.5103
   -15.4466 -15.4338 -15.3458 -15.3391 -15.2776 -15.2713 -15.2351 -15.2138
   -14.8962 -14.8902 -14.7677 -14.7547 -14.6040 -14.0521 -14.0521 -13.1106
    -7.7930  -3.5071  -3.5063  -3.4401  -3.4391  -3.3146  -3.3078  -3.2386
    -3.2380  -3.1319  -3.1282  -3.0747  -3.0072  -2.9906  -2.9873  -2.9803
    -2.9738  -2.8359  -2.8325  -2.8196  -2.8046  -2.7531  -2.7506  -2.7347
    -2.6560  -2.6404  -2.6092  -2.5651  -2.4651  -2.4486  -2.4323  -2.4053
    -2.3473  -2.3357  -2.3218  -2.2762  -2.2581  -2.1550  -2.1048  -2.0631
    -1.9429  -1.9404  -1.9307  -1.9137  -1.7658  -1.7288  -1.6979  -1.6909
    -1.6824  -1.6334  -1.5409  -1.5328  -1.3983  -1.3935  -1.3220  -1.2386
    -1.2200  -1.1915  -1.0590  -1.0118  -0.9792  -0.9729  -0.9532  -0.9239
    -0.8960  -0.8686  -0.7239  -0.7049  -0.6804  -0.6429  -0.6302  -0.5773
    -0.5272  -0.4470  -0.3674  -0.3665  -0.2857  -0.2420  -0.1780  -0.0952
    -0.0835  -0.0773   0.2029   0.2807   0.3728   0.4574   0.5203   0.5839
     0.6073   0.6727   0.7049   0.8426   0.8457   0.8622   0.8625   0.9295
     0.9343   1.3315   1.9186   2.9511   2.9514   3.0188   3.0192   3.3427
     3.3482   3.4577   3.4671   3.5828   3.5847

     the Fermi energy is     2.2120 ev

!    total energy              =   -2919.13284312 Ry
     estimated scf accuracy    <       0.00000004 Ry
     smearing contrib. (-TS)   =      -0.00465417 Ry
     internal energy E=F+TS    =   -2919.12818895 Ry

     The total energy is F=E-TS. E is the sum of the following terms:
     one-electron contribution =  -24579.60812164 Ry
     hartree contribution      =   12373.99863980 Ry
     xc contribution           =    -479.90102492 Ry
     ewald contribution        =    9766.38219783 Ry
     electric field correction =       0.00011998 Ry

     convergence has been achieved in  66 iterations

     Forces acting on atoms (cartesian axes, Ry/au):

     atom    1 type  1   force =    -0.00003113   -0.00045732    0.12460041
     atom    2 type  1   force =    -0.00012199   -0.00052037   -0.16052363
     atom    3 type  2   force =     0.00015904   -0.00014252   -0.06865568
     atom    4 type  2   force =    -0.00004210   -0.00017661    0.02746270
     atom    5 type  2   force =    -0.01664506    0.00229469   -0.00876663
     atom    6 type  2   force =     0.01810109    0.00295909   -0.00971712
     atom    7 type  1   force =     0.00058420   -0.00361241    0.02216792
     atom    8 type  1   force =    -0.00014854   -0.00291789    0.11212856
     atom    9 type  2   force =     0.00047782   -0.00002540   -0.00025868
     atom   10 type  2   force =    -0.00265736    0.00369156   -0.07361409
     atom   11 type  2   force =     0.00132120   -0.00058397   -0.00042862
     atom   12 type  2   force =    -0.00058197   -0.00105608   -0.00077947
     atom   13 type  1   force =     0.00031500   -0.00067609    0.00066937
     atom   14 type  1   force =    -0.00082950   -0.00056888    0.00000945
     atom   15 type  2   force =    -0.00030054   -0.00011040   -0.00000471
     atom   16 type  2   force =     0.00028329    0.00011945   -0.00050342
     atom   17 type  2   force =     0.00017452   -0.00021095   -0.00013879
     atom   18 type  2   force =    -0.00042627   -0.00033622   -0.00042556
     atom   19 type  1   force =     0.00066284   -0.00038448   -0.00025502
     atom   20 type  1   force =    -0.00013689   -0.00012984   -0.00019666
     atom   21 type  2   force =     0.00006046   -0.00006190    0.09970464
     atom   22 type  2   force =     0.00006688   -0.00033697    0.00058776
     atom   23 type  2   force =    -0.07925992   -0.00009238   -0.03247003
     atom   24 type  2   force =     0.07913274    0.00035563   -0.03249025
     atom   25 type  1   force =     0.00001905   -0.00047972    0.12408384
     atom   26 type  1   force =    -0.00015120   -0.00045882   -0.16060705
     atom   27 type  2   force =     0.00029119   -0.00031751   -0.06767023
     atom   28 type  2   force =    -0.00002498   -0.00001438    0.02722600
     atom   29 type  2   force =    -0.01710753    0.00187431   -0.00887477
     atom   30 type  2   force =     0.01844169    0.00225773   -0.00977100
     atom   31 type  1   force =     0.00059263   -0.00091895    0.02171616
     atom   32 type  1   force =    -0.00010612    0.00052903    0.11256026
     atom   33 type  2   force =     0.00026176   -0.00063855   -0.00044654
     atom   34 type  2   force =    -0.00272921    0.00315966   -0.07277858
     atom   35 type  2   force =    -0.00108278    0.00023533    0.00016872
     atom   36 type  2   force =     0.00082617    0.00008732    0.00028357
     atom   37 type  1   force =    -0.00008183   -0.00004637   -0.00017488
     atom   38 type  1   force =     0.00088123   -0.00028627   -0.00018747
     atom   39 type  2   force =    -0.00007356   -0.00051506    0.00006928
     atom   40 type  2   force =     0.00007477   -0.00012449   -0.00009121
     atom   41 type  2   force =     0.00014982   -0.00043852   -0.00008057
     atom   42 type  2   force =    -0.00000628   -0.00014556   -0.00053739
     atom   43 type  1   force =     0.00018327    0.00066931    0.00057840
     atom   44 type  1   force =    -0.00059913   -0.00060945   -0.00030232
     atom   45 type  2   force =     0.00004495   -0.00006682    0.09973505
     atom   46 type  2   force =    -0.07926476   -0.00004762   -0.03246059
     atom   47 type  2   force =     0.07914075    0.00039600   -0.03247749
     atom   48 type  3   force =    -0.00052717   -0.00051475    0.00022236
     atom   49 type  4   force =    -0.00080348    0.00019356   -0.00121235
     atom   50 type  5   force =     0.00073200   -0.00004882    0.00004710
     atom   51 type  5   force =     0.00057203   -0.00045701    0.00047575
     atom   52 type  5   force =     0.00018892   -0.00029337    0.00240351

     Total force =     0.425540     Total SCF correction =     0.000429
  @ DRIVER MODE: Message from server: STATUS
  @ DRIVER MODE: Message from server: GETFORCE
  @ DRIVER MODE: Returning v,forces,stress,ensemble

     Writing output data file ./calc.save/
  @ DRIVER MODE: Message from server: EXIT
  @ DRIVE MODE: Exiting

     General routines

     Parallel routines

   This run was terminated on:  18: 6:41   2Aug2021

   JOB DONE.