     Program PWSCF v.6.7GPU starts on 23Sep2021 at  2:43:10

     R & G space division:  proc/nbgrp/npool/nimage =      10
     Reading input from /storage/home/hcoda1/3/ntian30/research/carbon/CxH_vib/H2O_calc/ads_slab/CH2NHO_a/out_0034/pw.inp
Warning: card &CELL ignored
Warning: card   CELL_DYNAMICS='IPI', ignored
Warning: card / ignored

     Current dimensions of program PWSCF are:
     Max number of different atomic species (ntypx) = 10
     Max number of k-points (npk) =  40000
     Max angular momentum in pseudopotentials (lmaxx) =  3
     Presently no symmetry can be used with electric field

     Message from routine cell_base_init:
     DEPRECATED: use true lattice parameter, not A to a.u. conversion factor

     IMPORTANT: XC functional enforced from input :
     Exchange-correlation= BEEF-VDW
                           (   1   4  43  14   2   0   0)
     Any further DFT definition will be discarded
     Please, verify this is what you really want

  @ DRIVER MODE: Connecting to
 qe_1139763_2937321.sched-torque.pace.gatech.eduuepwh9vs_scratch
  using UNIX socket
  @ DRIVER MODE: Message from server: STATUS
  @ DRIVER MODE: Message from server: INIT
  @ DRIVER MODE: Receiving replica           0          -1
  @ DRIVER MODE: Receiving encoded integer          25
  @ DRIVER MODE:  SCF:  T  FORCE:  T  STRESS:  F  VC:  F  ENSEMBLE:  F
  @ DRIVER MODE:  SCF:  T  FORCE:  T  STRESS:  F  VC:  F  ENSEMBLE:  F

     Using Slab Decomposition

     bravais-lattice index     =            0
     lattice parameter (alat)  =       1.8897  a.u.
     unit-cell volume          =    6658.9804 (a.u.)^3
     number of atoms/cell      =           53
     number of atomic types    =            5
     number of electrons       =       396.00
     number of Kohn-Sham states=          208
     kinetic-energy cutoff     =      29.3995  Ry
     charge density cutoff     =     293.9946  Ry
     scf convergence threshold =      7.3E-08
     mixing beta               =       0.0500
     number of iterations used =            8  plain     mixing
     Exchange-correlation= BEEF-VDW
                           (   1   4  43  14   2   0   0)

     celldm(1)=   1.889726  celldm(2)=   0.000000  celldm(3)=   0.000000
     celldm(4)=   0.000000  celldm(5)=   0.000000  celldm(6)=   0.000000

     crystal axes: (cart. coord. in units of alat)
               a(1) = (   6.579727   0.000000   0.000000 )
               a(2) = (  -0.000775   5.961596   0.000000 )
               a(3) = (   0.000000   0.000000  25.155947 )

     reciprocal axes: (cart. coord. in units 2 pi/alat)
               b(1) = (  0.151982  0.000020  0.000000 )
               b(2) = (  0.000000  0.167740  0.000000 )
               b(3) = (  0.000000  0.000000  0.039752 )

     PseudoPot. # 1 for Ti read from file:
     /storage/coda1/p-amedford6/0/shared/rich_project_chbe-medford/medford-share/data/pseudos_module/espresso/nninc/pbe/van/Ti.UPF
     MD5 check sum: 8e4df49b7f0d34bbd5052bf3f5ea0213
     Pseudo is Ultrasoft, Zval = 12.0
     Generated by new atomic code, or converted to UPF format
     Using radial grid of  851 points,  6 beta functions with:
                l(1) =   0
                l(2) =   0
                l(3) =   1
                l(4) =   1
                l(5) =   2
                l(6) =   2
     Q(r) pseudized with  8 coefficients,  rinner =    1.000   1.000   1.000
                                                       1.000   1.000

     PseudoPot. # 2 for O  read from file:
     /storage/coda1/p-amedford6/0/shared/rich_project_chbe-medford/medford-share/data/pseudos_module/espresso/nninc/pbe/van/O.UPF
     MD5 check sum: 78c19812648e8988a0fe644b0f25305e
     Pseudo is Ultrasoft, Zval =  6.0
     Generated by new atomic code, or converted to UPF format
     Using radial grid of  737 points,  4 beta functions with:
                l(1) =   0
                l(2) =   0
                l(3) =   1
                l(4) =   1
     Q(r) pseudized with  8 coefficients,  rinner =    0.800   0.800   0.800

     PseudoPot. # 3 for N  read from file:
     /storage/coda1/p-amedford6/0/shared/rich_project_chbe-medford/medford-share/data/pseudos_module/espresso/nninc/pbe/van/N.UPF
     MD5 check sum: 90d10febe142ad51ac9d5be1deb811c4
     Pseudo is Ultrasoft, Zval =  5.0
     Generated by new atomic code, or converted to UPF format
     Using radial grid of  729 points,  4 beta functions with:
                l(1) =   0
                l(2) =   0
                l(3) =   1
                l(4) =   1
     Q(r) pseudized with  8 coefficients,  rinner =    0.800   0.800   0.800

     PseudoPot. # 4 for C  read from file:
     /storage/coda1/p-amedford6/0/shared/rich_project_chbe-medford/medford-share/data/pseudos_module/espresso/nninc/pbe/van/C.UPF
     MD5 check sum: 1a69bf6b8db32088f5b2163dbdb77a27
     Pseudo is Ultrasoft, Zval =  4.0
     Generated by new atomic code, or converted to UPF format
     Using radial grid of  721 points,  4 beta functions with:
                l(1) =   0
                l(2) =   0
                l(3) =   1
                l(4) =   1
     Q(r) pseudized with  8 coefficients,  rinner =    0.800   0.800   0.800

     PseudoPot. # 5 for H  read from file:
     /storage/coda1/p-amedford6/0/shared/rich_project_chbe-medford/medford-share/data/pseudos_module/espresso/nninc/pbe/van/H.UPF
     MD5 check sum: b5ee9d7bfd3a09ee7748110bda690ff7
     Pseudo is Ultrasoft, Zval =  1.0
     Generated by new atomic code, or converted to UPF format
     Using radial grid of  615 points,  1 beta functions with:
                l(1) =   0
     Q(r) pseudized with  8 coefficients,  rinner =    0.800

     atomic species   valence    mass     pseudopotential
        Ti1           12.00    47.86700     Ti( 1.00)
        O1             6.00    15.99900     O ( 1.00)
        N1             5.00    14.00700     N ( 1.00)
        C1             4.00    12.01100     C ( 1.00)
        H1             1.00     1.00800     H ( 1.00)

     No symmetry found

   Cartesian axes

     site n.     atom                  positions (alat units)
         1           Ti1 tau(   1) = (   0.0004258   2.9801865   6.0000000  )
         2           Ti1 tau(   2) = (   3.2906075   1.4906267   6.0002472  )
         3           O1  tau(   3) = (   0.0006271   0.0005054   7.9858123  )
         4           O1  tau(   4) = (   3.2906025   0.0005020   7.3038282  )
         5           O1  tau(   5) = (   4.5942328   1.4918067   9.2879030  )
         6           O1  tau(   6) = (   1.9868534   1.4903216   9.2879459  )
         7           Ti1 tau(   7) = (   3.2907910   2.8959150   9.1758416  )
         8           Ti1 tau(   8) = (   0.0015273   1.4827037   9.2680791  )
         9           O1  tau(   9) = (   3.3049783   5.9490022  11.2668993  )
        10           O1  tau(  10) = (   0.0116148   5.9584955  10.6183126  )
        11           O1  tau(  11) = (   1.3054562   1.4902858  12.6165390  )
        12           O1  tau(  12) = (   5.3128925   1.4966897  12.6222362  )
        13           Ti1 tau(  13) = (   0.0227526   2.8513963  12.7011302  )
        14           Ti1 tau(  14) = (   3.3146314   1.3157910  12.6511296  )
        15           O1  tau(  15) = (   0.0292331   0.0037381  14.6451560  )
        16           O1  tau(  16) = (   3.3105559   0.0332628  13.8611824  )
        17           O1  tau(  17) = (   4.5798417   1.5533887  16.0574704  )
        18           O1  tau(  18) = (   2.0659959   1.5620864  16.0379710  )
        19           Ti1 tau(  19) = (   3.3199680   3.0150018  15.6455324  )
        20           Ti1 tau(  20) = (   6.5662113   1.5085715  15.8767718  )
        21           O1  tau(  21) = (   3.2904802   0.0005063   4.7018136  )
        22           O1  tau(  22) = (   0.0336757   0.0283057  17.1922241  )
        23           O1  tau(  23) = (   1.3043587   1.4918075   6.0039043  )
        24           O1  tau(  24) = (   5.2767064   1.4903225   6.0039473  )
        25           Ti1 tau(  25) = (   0.0000382   5.9609847   6.0000000  )
        26           Ti1 tau(  26) = (   3.2902200   4.4714249   6.0002472  )
        27           O1  tau(  27) = (   0.0002396   2.9813036   7.9858123  )
        28           O1  tau(  28) = (   3.2902150   2.9813002   7.3038282  )
        29           O1  tau(  29) = (   4.5938453   4.4726049   9.2879030  )
        30           O1  tau(  30) = (   1.9864658   4.4711199   9.2879459  )
        31           Ti1 tau(  31) = (   3.2891106   5.8743827   9.1763621  )
        32           Ti1 tau(  32) = (   0.0006254   4.4649316   9.2693709  )
        33           O1  tau(  33) = (   3.3044035   3.0314990  11.2389097  )
        34           O1  tau(  34) = (   0.0092240   2.9805883  10.6323155  )
        35           O1  tau(  35) = (   1.3090660   4.4724101  12.6204063  )
        36           O1  tau(  36) = (   5.3093727   4.4739031  12.6240458  )
        37           Ti1 tau(  37) = (   0.0315986   5.8296340  12.6341251  )
        38           Ti1 tau(  38) = (   3.3217628   4.4127071  12.4104736  )
        39           O1  tau(  39) = (   0.0286309   2.9529265  14.6620113  )
        40           O1  tau(  40) = (   3.3111648   2.9942334  13.8608864  )
        41           O1  tau(  41) = (   4.5850423   4.4544105  16.0703757  )
        42           O1  tau(  42) = (   2.0817017   4.4739285  16.0881885  )
        43           Ti1 tau(  43) = (   3.2564312   0.0343949  16.3346327  )
        44           Ti1 tau(  44) = (   6.5491996   4.6347227  16.0815441  )
        45           O1  tau(  45) = (   3.2900926   2.9813045   4.7018136  )
        46           O1  tau(  46) = (   1.3039711   4.4726057   6.0039043  )
        47           O1  tau(  47) = (   5.2763189   4.4711207   6.0039473  )
        48           N1  tau(  48) = (   0.0476609   2.9608057  17.4046342  )
        49           C1  tau(  49) = (   0.0744360   2.8714357  18.6596517  )
        50           H1  tau(  50) = (   0.0810575   3.7616739  19.3027278  )
        51           H1  tau(  51) = (   0.0872865   1.8968143  19.1621030  )
        52           O1  tau(  52) = (   3.2917830   0.0572188  18.1605702  )
        53           H1  tau(  53) = (   2.8914424   5.3241097  18.6896264  )

     number of k points=    10  Fermi-Dirac smearing, width (Ry)=  0.0073
                       cart. coord. in units 2pi/alat
        k(    1) = (   0.0000000   0.0000000   0.0000000), wk =   0.1250000
        k(    2) = (   0.0000000   0.0419351   0.0000000), wk =   0.2500000
        k(    3) = (   0.0000000  -0.0838702   0.0000000), wk =   0.1250000
        k(    4) = (   0.0379955   0.0000049   0.0000000), wk =   0.2500000
        k(    5) = (   0.0379955   0.0419400   0.0000000), wk =   0.2500000
        k(    6) = (   0.0379955  -0.0838652   0.0000000), wk =   0.2500000
        k(    7) = (   0.0379955  -0.0419301   0.0000000), wk =   0.2500000
        k(    8) = (  -0.0759910  -0.0000099   0.0000000), wk =   0.1250000
        k(    9) = (  -0.0759910   0.0419252   0.0000000), wk =   0.2500000
        k(   10) = (  -0.0759910  -0.0838800   0.0000000), wk =   0.1250000

     Initial potential from superposition of free atoms

     starting charge  379.99917, renormalised to  396.00000

     negative rho (up, down):  1.694E-02 0.000E+00

     %%%%%%%%%%%%%%%%%%%%%%%%%%%%%%%%%%%%%%%%%%%%%%%%%%%%%%%%%%%%%%%%%%%%%%%%
     %                                                                      %
     % You are using vdW-DF, which was implemented by the Thonhauser group. %
     % Please cite the following two papers that made this development      %
     % possible and the two reviews that describe the various versions:     %
     %                                                                      %
     %   T. Thonhauser et al., PRL 115, 136402 (2015).                      %
     %   T. Thonhauser et al., PRB 76, 125112 (2007).                       %
     %   K. Berland et al., Rep. Prog. Phys. 78, 066501 (2015).             %
     %   D.C. Langreth et al., J. Phys.: Condens. Matter 21, 084203 (2009). %
     %                                                                      %
     %                                                                      %
     % If you are calculating the stress with vdW-DF, please also cite:     %
     %                                                                      %
     %   R. Sabatini et al., J. Phys.: Condens. Matter 24, 424209 (2012).   %
     %                                                                      %
     %%%%%%%%%%%%%%%%%%%%%%%%%%%%%%%%%%%%%%%%%%%%%%%%%%%%%%%%%%%%%%%%%%%%%%%%

     Adding external electric field

     Computed dipole along edir(3) :
        Dipole               -7.7051 Ry au,        -19.5845 Debye
        Dipole field         -0.0145 Ry au,

        Potential amp.        1.3479 Ry
        Total length         46.3494 bohr

     Starting wfcs are  299 atomic wfcs
  @ DRIVER MODE: Message from server: STATUS
  @ DRIVER MODE: Message from server: POSDATA
  @ DRIVER MODE: Reading and sharing cell
  @ DRIVER MODE: Reading and sharing positions
  @ DRIVER MODE: Received positions

     Self-consistent Calculation

     iteration #  1     ecut=    29.40 Ry     beta= 0.05
     Davidson diagonalization with overlap
     c_bands:  1 eigenvalues not converged
     c_bands:  4 eigenvalues not converged
     c_bands:  2 eigenvalues not converged
     c_bands:  3 eigenvalues not converged
     c_bands:  2 eigenvalues not converged
     c_bands:  3 eigenvalues not converged
     c_bands:  2 eigenvalues not converged
     ethr =  1.00E-05,  avg # of iterations = 19.5

[...]

     total energy              =   -2658.45065093 Ry
     estimated scf accuracy    <    3232.57912523 Ry

     iteration #  2     ecut=    29.40 Ry     beta= 0.05
     Davidson diagonalization with overlap
     ethr =  1.00E-02,  avg # of iterations = 21.1

[...]

     iteration # 52     ecut=    29.40 Ry     beta= 0.05
     Davidson diagonalization with overlap
     c_bands:  1 eigenvalues not converged
     ethr =  3.60E-07,  avg # of iterations =  6.8

[...]

     total energy              =   -2951.50535558 Ry
     estimated scf accuracy    <       0.00000011 Ry

     iteration # 82     ecut=    29.40 Ry     beta= 0.05
     Davidson diagonalization with overlap
     ethr =  2.74E-11,  avg # of iterations =  2.9

     negative rho (up, down):  1.701E-02 0.000E+00

     Adding external electric field

     Computed dipole along edir(3) :
        Dipole                0.3624 Ry au,          0.9211 Debye
        Dipole field          0.0007 Ry au,

        Potential amp.       -0.0634 Ry
        Total length         46.3494 bohr

     End of self-consistent calculation

          k = 0.0000 0.0000 0.0000 ( 18029 PWs)   bands (ev):

   -56.8873 -56.8538 -56.0108 -55.9749 -55.7628 -55.6988 -55.5464 -55.4461
   -55.4122 -55.3932 -55.3299 -55.3062 -55.2773 -55.2586 -55.0762 -55.0137
   -33.3074 -33.1608 -33.1327 -33.0647 -32.9744 -32.9343 -32.4939 -32.2403
   -32.2313 -32.2029 -32.1510 -32.1486 -32.1220 -31.9958 -31.9808 -31.9318
   -31.9032 -31.8941 -31.8707 -31.8624 -31.8253 -31.7945 -31.7929 -31.7684
   -31.7652 -31.7621 -31.7187 -31.6912 -31.6601 -31.6506 -31.5946 -31.5700
   -31.5471 -31.5296 -31.5254 -31.5207 -31.5031 -31.4825 -31.4748 -31.4690
   -31.4585 -31.4285 -31.3389 -31.3176 -31.2827 -31.2764 -31.2543 -31.2157
   -16.9994 -16.4988 -16.4590 -16.2091 -16.1017 -16.0866 -16.0593 -15.9857
   -15.8002 -15.7294 -15.7021 -15.6510 -15.5269 -15.4036 -15.3070 -15.1598
   -15.0760 -15.0307 -15.0293 -15.0125 -14.9764 -14.9623 -14.9403 -14.8775
   -14.8572 -14.7864 -14.6486 -14.6093 -14.6026 -14.3335 -14.3245 -13.9432
   -13.8360  -7.2033  -4.5717  -4.1711  -3.9746  -3.9324  -3.7671  -3.5950
    -3.5822  -3.4445  -3.4107  -3.2695  -3.2651  -3.2509  -3.1659  -3.1510
    -3.0307  -2.9639  -2.9494  -2.8484  -2.8076  -2.6557  -2.6177  -2.5275
    -2.4748  -2.4540  -2.3912  -2.3418  -2.3150  -2.2908  -2.2658  -2.2095
    -2.1894  -2.1553  -2.0897  -2.0532  -1.9670  -1.9292  -1.9184  -1.9121
    -1.7986  -1.7716  -1.7314  -1.5919  -1.5331  -1.5147  -1.4923  -1.4401
    -1.3805  -1.3568  -1.3066  -1.2059  -1.1287  -1.1137  -1.0467  -1.0295
    -1.0167  -0.8924  -0.8382  -0.7452  -0.7360  -0.7207  -0.6534  -0.5948
    -0.5569  -0.4728  -0.3975  -0.3882  -0.3747  -0.3383  -0.3147  -0.2571
    -0.1470  -0.1053  -0.0571   0.0162   0.0384   0.1262   0.2207   0.2553
     0.2687   0.3136   0.3425   0.3633   0.4210   0.4850   0.4988   0.5675
     0.5757   0.5795   0.6654   0.7559   0.7938   0.8451   0.8689   0.8799
     1.0020   1.0878   1.1124   1.1576   1.5263   1.7503   2.4035   2.5729
     2.8490   3.0034   3.3266   3.3897   3.4028   3.4059   3.6734   3.8028

[...]

          k = 0.0380-0.0419 0.0000 ( 17876 PWs)   bands (ev):

[...]

          k =-0.0760-0.0000 0.0000 ( 17886 PWs)   bands (ev):

[...]

          k =-0.0760-0.0839 0.0000 ( 17948 PWs)   bands (ev):

   -56.8711 -56.8698 -55.9991 -55.9864 -55.7579 -55.7036 -55.5456 -55.4296
   -55.4285 -55.3896 -55.3305 -55.3096 -55.2760 -55.2575 -55.0775 -55.0148
   -33.1472 -33.1458 -33.1253 -33.1239 -33.0186 -33.0176 -32.3194 -32.3085
   -32.1937 -32.1813 -32.1808 -32.1727 -32.0634 -32.0206 -31.9891 -31.9779
   -31.9309 -31.9264 -31.8402 -31.7925 -31.7819 -31.7810 -31.7489 -31.7203
   -31.6996 -31.6517 -31.6500 -31.6498 -31.6474 -31.6365 -31.6161 -31.6111
   -31.6101 -31.6089 -31.5868 -31.5459 -31.5381 -31.5183 -31.5065 -31.4846
   -31.4773 -31.4262 -31.4249 -31.3478 -31.3406 -31.2867 -31.2564 -31.2356
   -16.4905 -16.3622 -16.3600 -16.3096 -16.3081 -16.0593 -16.0543 -15.8037
   -15.7727 -15.5886 -15.5117 -15.4796 -15.4297 -15.3886 -15.3539 -15.2523
   -15.2394 -15.1424 -15.1139 -15.1043 -15.0570 -15.0134 -14.9705 -14.9408
   -14.9015 -14.8110 -14.7518 -14.7164 -14.6125 -14.5169 -14.4674 -13.9406
   -13.9400  -7.1984  -4.1706  -3.9649  -3.4308  -3.4260  -3.4160  -3.4079
    -3.3525  -3.1841  -3.1763  -2.9907  -2.9631  -2.9606  -2.8897  -2.8833
    -2.7764  -2.7111  -2.7052  -2.7043  -2.6698  -2.6425  -2.6364  -2.5795
    -2.4725  -2.4212  -2.3965  -2.3747  -2.3455  -2.3172  -2.2632  -2.1738
    -2.1660  -2.1565  -2.1264  -2.1062  -2.0809  -2.0757  -1.9376  -1.8363
    -1.7648  -1.7158  -1.7059  -1.6909  -1.6640  -1.6285  -1.5978  -1.5844
    -1.5383  -1.4795  -1.4542  -1.3983  -1.3495  -1.3013  -1.2194  -1.1584
    -1.0906  -1.0697  -0.9370  -0.9215  -0.9021  -0.8635  -0.8302  -0.8208
    -0.7458  -0.6729  -0.6132  -0.5976  -0.5372  -0.5138  -0.4793  -0.4414
    -0.4323  -0.3769  -0.3546  -0.3056  -0.2908  -0.1701  -0.0868   0.0349
     0.0666   0.0847   0.1434   0.1748   0.3116   0.3211   0.3715   0.4853
     0.5216   0.6641   0.6816   0.7843   0.8333   0.8956   0.9522   0.9559
     0.9564   0.9826   1.0164   1.0375   1.1138   1.6879   2.9936   2.9965
     3.0535   3.0593   3.3660   3.3702   3.4746   3.4802   3.7844   3.7911

     the Fermi energy is     2.1411 ev

!    total energy              =   -2951.50536083 Ry
     estimated scf accuracy    <       0.00000007 Ry
     smearing contrib. (-TS)   =      -0.00232718 Ry
     internal energy E=F+TS    =   -2951.50303366 Ry

     The total energy is F=E-TS. E is the sum of the following terms:
     one-electron contribution =  -24181.85558387 Ry
     hartree contribution      =   12180.41976054 Ry
     xc contribution           =    -487.04474132 Ry
     ewald contribution        =    9536.97728317 Ry
     electric field correction =       0.00024783 Ry

     convergence has been achieved in  82 iterations

     Forces acting on atoms (cartesian axes, Ry/au):

     atom    1 type  1   force =     0.00000965   -0.00050992    0.12458015
     atom    2 type  1   force =    -0.00009272    0.00035230   -0.15488759
     atom    3 type  2   force =     0.00004593   -0.00012225   -0.06536157
     atom    4 type  2   force =     0.00007391    0.00024463    0.01707258
     atom    5 type  2   force =    -0.00337567   -0.00145182   -0.01348455
     atom    6 type  2   force =     0.00541664   -0.00094337   -0.01319997
     atom    7 type  1   force =     0.00030353   -0.00648233    0.05888623
     atom    8 type  1   force =     0.00011309    0.00855386    0.09585175
     atom    9 type  2   force =     0.00026833   -0.00011544    0.00024149
     atom   10 type  2   force =    -0.00166798    0.00093363   -0.05964582
     atom   11 type  2   force =     0.00079652   -0.00034033   -0.00033451
     atom   12 type  2   force =    -0.00102309   -0.00073792   -0.00007848
     atom   13 type  1   force =    -0.00020044   -0.00075079    0.00006377
     atom   14 type  1   force =     0.00003527   -0.00064552   -0.00013577
     atom   15 type  2   force =     0.00007936   -0.00025771   -0.00011003
     atom   16 type  2   force =    -0.00009040    0.00001092   -0.00038104
     atom   17 type  2   force =     0.00025366   -0.00014112   -0.00020305
     atom   18 type  2   force =    -0.00038432   -0.00026232   -0.00019038
     atom   19 type  1   force =    -0.00015959   -0.00138773    0.00020449
     atom   20 type  1   force =    -0.00016045   -0.00004719   -0.00019098
     atom   21 type  2   force =     0.00002411    0.00021827    0.09785617
     atom   22 type  2   force =    -0.00026685   -0.00033794    0.00023322
     atom   23 type  2   force =    -0.08253236    0.00005330   -0.03294330
     atom   24 type  2   force =     0.08241790    0.00049401   -0.03299739
     atom   25 type  1   force =     0.00002585   -0.00057381    0.12481355
     atom   26 type  1   force =    -0.00019549   -0.00146787   -0.15527579
     atom   27 type  2   force =     0.00011611   -0.00079761   -0.06367484
     atom   28 type  2   force =     0.00005679    0.00198309    0.01253147
     atom   29 type  2   force =    -0.00155039    0.00507599   -0.01679567
     atom   30 type  2   force =     0.00369804    0.00539929   -0.01640751
     atom   31 type  1   force =     0.00000682    0.00178821    0.04177439
     atom   32 type  1   force =     0.00011574   -0.01183761    0.09591282
     atom   33 type  2   force =     0.00001452   -0.00023260   -0.00029640
     atom   34 type  2   force =    -0.00105261    0.00154144   -0.07416430
     atom   35 type  2   force =    -0.00039702    0.00017970    0.00009480
     atom   36 type  2   force =     0.00110852    0.00044114    0.00016484
     atom   37 type  1   force =    -0.00029992    0.00059904    0.00026964
     atom   38 type  1   force =     0.00020607   -0.00054613    0.00002016
     atom   39 type  2   force =     0.00015973    0.00025662    0.00010326
     atom   40 type  2   force =    -0.00005006   -0.00048783   -0.00060321
     atom   41 type  2   force =     0.00049297    0.00014837   -0.00026160
     atom   42 type  2   force =    -0.00076089    0.00000724    0.00007783
     atom   43 type  1   force =     0.00006653    0.00108903   -0.00049911
     atom   44 type  1   force =    -0.00004072    0.00001637   -0.00048609
     atom   45 type  2   force =     0.00003967    0.00001843    0.09768756
     atom   46 type  2   force =    -0.08259088    0.00001477   -0.03295239
     atom   47 type  2   force =     0.08246806    0.00044535   -0.03300249
     atom   48 type  3   force =    -0.00015275   -0.00008731    0.00014054
     atom   49 type  4   force =    -0.00013624   -0.00007054    0.00015474
     atom   50 type  5   force =    -0.00010443   -0.00001948   -0.00012742
     atom   51 type  5   force =    -0.00013458    0.00003272    0.00014395
     atom   52 type  2   force =     0.00618207    0.01111231   -0.00823785
     atom   53 type  5   force =    -0.00717554   -0.01035554    0.00804968

     Total force =     0.416039     Total SCF correction =     0.000580
  @ DRIVER MODE: Message from server: STATUS
  @ DRIVER MODE: Message from server: GETFORCE
  @ DRIVER MODE: Returning v,forces,stress,ensemble

     Writing output data file ./calc.save/
  @ DRIVER MODE: Message from server: EXIT
  @ DRIVE MODE: Exiting

     General routines

     Parallel routines

   This run was terminated on:   3: 3:54  23Sep2021

   JOB DONE.