     Program PWSCF v.6.7GPU starts on  9Sep2021 at  8:39: 9

     R & G space division:  proc/nbgrp/npool/nimage =      10
     Reading input from /storage/home/hcoda1/3/ntian30/research/carbon/CxH_vib/CH3_calc/ads_slab/CH3NH2NH_c/out_0032/pw.inp
Warning: card &CELL ignored
Warning: card   CELL_DYNAMICS='IPI', ignored
Warning: card / ignored

     Current dimensions of program PWSCF are:
     Max number of different atomic species (ntypx) = 10
     Max number of k-points (npk) =  40000
     Max angular momentum in pseudopotentials (lmaxx) =  3
     Presently no symmetry can be used with electric field

     Message from routine cell_base_init:
     DEPRECATED: use true lattice parameter, not A to a.u. conversion factor

     IMPORTANT: XC functional enforced from input :
     Exchange-correlation= BEEF-VDW
                           (   1   4  43  14   2   0   0)
     Any further DFT definition will be discarded
     Please, verify this is what you really want

  @ DRIVER MODE: Connecting to
 qe_1139763_2767400.sched-torque.pace.gatech.edueabmwfk__scratch
  using UNIX socket
  @ DRIVER MODE: Message from server: STATUS
  @ DRIVER MODE: Message from server: INIT
  @ DRIVER MODE: Receiving replica           0          -1
  @ DRIVER MODE: Receiving encoded integer          25
  @ DRIVER MODE:  SCF:  T  FORCE:  T  STRESS:  F  VC:  F  ENSEMBLE:  F
  @ DRIVER MODE:  SCF:  T  FORCE:  T  STRESS:  F  VC:  F  ENSEMBLE:  F

     Using Slab Decomposition

     bravais-lattice index     =            0
     lattice parameter (alat)  =       1.8897  a.u.
     unit-cell volume          =    6658.9804 (a.u.)^3
     number of atoms/cell      =           56
     number of atomic types    =            5
     number of electrons       =       398.00
     number of Kohn-Sham states=          209
     kinetic-energy cutoff     =      29.3995  Ry
     charge density cutoff     =     293.9946  Ry
     scf convergence threshold =      7.3E-08
     mixing beta               =       0.0500
     number of iterations used =            8  plain     mixing
     Exchange-correlation= BEEF-VDW
                           (   1   4  43  14   2   0   0)

     celldm(1)=   1.889726  celldm(2)=   0.000000  celldm(3)=   0.000000
     celldm(4)=   0.000000  celldm(5)=   0.000000  celldm(6)=   0.000000

     crystal axes: (cart. coord. in units of alat)
               a(1) = (   6.579727   0.000000   0.000000 )
               a(2) = (  -0.000775   5.961596   0.000000 )
               a(3) = (   0.000000   0.000000  25.155947 )

     reciprocal axes: (cart. coord. in units 2 pi/alat)
               b(1) = (  0.151982  0.000020  0.000000 )
               b(2) = (  0.000000  0.167740  0.000000 )
               b(3) = (  0.000000  0.000000  0.039752 )

     PseudoPot. # 1 for Ti read from file:
     /storage/coda1/p-amedford6/0/shared/rich_project_chbe-medford/medford-share/data/pseudos_module/espresso/nninc/pbe/van/Ti.UPF
     MD5 check sum: 8e4df49b7f0d34bbd5052bf3f5ea0213
     Pseudo is Ultrasoft, Zval = 12.0
     Generated by new atomic code, or converted to UPF format
     Using radial grid of  851 points,  6 beta functions with:
                l(1) =   0
                l(2) =   0
                l(3) =   1
                l(4) =   1
                l(5) =   2
                l(6) =   2
     Q(r) pseudized with  8 coefficients,  rinner =    1.000   1.000   1.000
                                                       1.000   1.000

     PseudoPot. # 2 for O  read from file:
     /storage/coda1/p-amedford6/0/shared/rich_project_chbe-medford/medford-share/data/pseudos_module/espresso/nninc/pbe/van/O.UPF
     MD5 check sum: 78c19812648e8988a0fe644b0f25305e
     Pseudo is Ultrasoft, Zval =  6.0
     Generated by new atomic code, or converted to UPF format
     Using radial grid of  737 points,  4 beta functions with:
                l(1) =   0
                l(2) =   0
                l(3) =   1
                l(4) =   1
     Q(r) pseudized with  8 coefficients,  rinner =    0.800   0.800   0.800

     PseudoPot. # 3 for N  read from file:
     /storage/coda1/p-amedford6/0/shared/rich_project_chbe-medford/medford-share/data/pseudos_module/espresso/nninc/pbe/van/N.UPF
     MD5 check sum: 90d10febe142ad51ac9d5be1deb811c4
     Pseudo is Ultrasoft, Zval =  5.0
     Generated by new atomic code, or converted to UPF format
     Using radial grid of  729 points,  4 beta functions with:
                l(1) =   0
                l(2) =   0
                l(3) =   1
                l(4) =   1
     Q(r) pseudized with  8 coefficients,  rinner =    0.800   0.800   0.800

     PseudoPot. # 4 for C  read from file:
     /storage/coda1/p-amedford6/0/shared/rich_project_chbe-medford/medford-share/data/pseudos_module/espresso/nninc/pbe/van/C.UPF
     MD5 check sum: 1a69bf6b8db32088f5b2163dbdb77a27
     Pseudo is Ultrasoft, Zval =  4.0
     Generated by new atomic code, or converted to UPF format
     Using radial grid of  721 points,  4 beta functions with:
                l(1) =   0
                l(2) =   0
                l(3) =   1
                l(4) =   1
     Q(r) pseudized with  8 coefficients,  rinner =    0.800   0.800   0.800

     PseudoPot. # 5 for H  read from file:
     /storage/coda1/p-amedford6/0/shared/rich_project_chbe-medford/medford-share/data/pseudos_module/espresso/nninc/pbe/van/H.UPF
     MD5 check sum: b5ee9d7bfd3a09ee7748110bda690ff7
     Pseudo is Ultrasoft, Zval =  1.0
     Generated by new atomic code, or converted to UPF format
     Using radial grid of  615 points,  1 beta functions with:
                l(1) =   0
     Q(r) pseudized with  8 coefficients,  rinner =    0.800

     atomic species   valence    mass     pseudopotential
        Ti1           12.00    47.86700     Ti( 1.00)
        O1             6.00    15.99900     O ( 1.00)
        N1             5.00    14.00700     N ( 1.00)
        C1             4.00    12.01100     C ( 1.00)
        H1             1.00     1.00800     H ( 1.00)

     No symmetry found

   Cartesian axes

     site n.     atom                  positions (alat units)
         1           Ti1 tau(   1) = (   0.0004258   2.9801865   6.0000000  )
         2           Ti1 tau(   2) = (   3.2906075   1.4906267   6.0002472  )
         3           O1  tau(   3) = (   0.0006271   0.0005054   7.9858123  )
         4           O1  tau(   4) = (   3.2906025   0.0005020   7.3038282  )
         5           O1  tau(   5) = (   4.5942328   1.4918067   9.2879030  )
         6           O1  tau(   6) = (   1.9868534   1.4903216   9.2879459  )
         7           Ti1 tau(   7) = (   3.2907910   2.8959150   9.1758416  )
         8           Ti1 tau(   8) = (   0.0015273   1.4827037   9.2680791  )
         9           O1  tau(   9) = (   3.3032705   0.0110091  11.3485381  )
        10           O1  tau(  10) = (   0.0116148   5.9584955  10.6183126  )
        11           O1  tau(  11) = (   1.3020657   1.4959176  12.6398190  )
        12           O1  tau(  12) = (   5.2896457   1.4919019  12.6612249  )
        13           Ti1 tau(  13) = (   0.0353884   3.0012823  12.5523301  )
        14           Ti1 tau(  14) = (   3.3275346   1.5008247  12.4978572  )
        15           O1  tau(  15) = (   0.0424128   0.0047235  14.7277795  )
        16           O1  tau(  16) = (   3.2762846   0.0047332  13.9819514  )
        17           O1  tau(  17) = (   4.5591522   1.5298593  16.0930730  )
        18           O1  tau(  18) = (   2.0612242   1.5646392  16.2256692  )
        19           Ti1 tau(  19) = (   3.3170857   3.0293758  15.7013767  )
        20           Ti1 tau(  20) = (   6.5267591   1.5471840  15.7818195  )
        21           O1  tau(  21) = (   3.2904802   0.0005063   4.7018136  )
        22           O1  tau(  22) = (   0.0258072   0.0396315  17.3287798  )
        23           O1  tau(  23) = (   1.3043587   1.4918075   6.0039043  )
        24           O1  tau(  24) = (   5.2767064   1.4903225   6.0039473  )
        25           Ti1 tau(  25) = (   0.0000382   5.9609847   6.0000000  )
        26           Ti1 tau(  26) = (   3.2902200   4.4714249   6.0002472  )
        27           O1  tau(  27) = (   0.0002396   2.9813036   7.9858123  )
        28           O1  tau(  28) = (   3.2902150   2.9813002   7.3038282  )
        29           O1  tau(  29) = (   4.5938453   4.4726049   9.2879030  )
        30           O1  tau(  30) = (   1.9864658   4.4711199   9.2879459  )
        31           Ti1 tau(  31) = (   3.2891106   5.8743827   9.1763621  )
        32           Ti1 tau(  32) = (   0.0006254   4.4649316   9.2693709  )
        33           O1  tau(  33) = (   3.3047253   2.9863606  11.3412877  )
        34           O1  tau(  34) = (   0.0092240   2.9805883  10.6323155  )
        35           O1  tau(  35) = (   1.3023160   4.4818153  12.6295520  )
        36           O1  tau(  36) = (   5.2910779   4.4839738  12.6480862  )
        37           Ti1 tau(  37) = (   0.0306270   0.0097343  12.5156175  )
        38           Ti1 tau(  38) = (   3.3295341   4.4791655  12.4867326  )
        39           O1  tau(  39) = (   0.0319336   2.9935560  14.7343221  )
        40           O1  tau(  40) = (   3.2835893   3.0037955  13.9224844  )
        41           O1  tau(  41) = (   4.5669158   4.4809188  16.1713821  )
        42           O1  tau(  42) = (   2.0542530   4.4668402  16.2247519  )
        43           Ti1 tau(  43) = (   3.3000170   0.0150779  15.7669526  )
        44           Ti1 tau(  44) = (   0.0416703   4.6955124  16.1636639  )
        45           O1  tau(  45) = (   3.2900926   2.9813045   4.7018136  )
        46           O1  tau(  46) = (   1.3039711   4.4726057   6.0039043  )
        47           O1  tau(  47) = (   5.2763189   4.4711207   6.0039473  )
        48           N1  tau(  48) = (   0.9019483   2.4226080  18.4567899  )
        49           N1  tau(  49) = (   6.4923839   2.9153054  17.5348467  )
        50           C1  tau(  50) = (   1.2734633   3.3482217  19.5544901  )
        51           H1  tau(  51) = (   0.3921683   3.5464126  20.1615046  )
        52           H1  tau(  52) = (   2.0553077   2.8833093  20.1573268  )
        53           H1  tau(  53) = (   1.6339766   4.2728770  19.1044814  )
        54           H1  tau(  54) = (   0.5870980   1.4942747  18.7832689  )
        55           H1  tau(  55) = (   5.5983569   2.8486818  18.0159164  )
        56           H1  tau(  56) = (   1.7025450   2.1792920  17.8234971  )

     number of k points=    10  Fermi-Dirac smearing, width (Ry)=  0.0073
                       cart. coord. in units 2pi/alat
        k(    1) = (   0.0000000   0.0000000   0.0000000), wk =   0.1250000
        k(    2) = (   0.0000000   0.0419351   0.0000000), wk =   0.2500000
        k(    3) = (   0.0000000  -0.0838702   0.0000000), wk =   0.1250000
        k(    4) = (   0.0379955   0.0000049   0.0000000), wk =   0.2500000
        k(    5) = (   0.0379955   0.0419400   0.0000000), wk =   0.2500000
        k(    6) = (   0.0379955  -0.0838652   0.0000000), wk =   0.2500000
        k(    7) = (   0.0379955  -0.0419301   0.0000000), wk =   0.2500000
        k(    8) = (  -0.0759910  -0.0000099   0.0000000), wk =   0.1250000
        k(    9) = (  -0.0759910   0.0419252   0.0000000), wk =   0.2500000
        k(   10) = (  -0.0759910  -0.0838800   0.0000000), wk =   0.1250000

     Initial potential from superposition of free atoms

     starting charge  381.99914, renormalised to  398.00000

     negative rho (up, down):  1.484E-02 0.000E+00

     %%%%%%%%%%%%%%%%%%%%%%%%%%%%%%%%%%%%%%%%%%%%%%%%%%%%%%%%%%%%%%%%%%%%%%%%
     %                                                                      %
     % You are using vdW-DF, which was implemented by the Thonhauser group. %
     % Please cite the following two papers that made this development      %
     % possible and the two reviews that describe the various versions:     %
     %                                                                      %
     %   T. Thonhauser et al., PRL 115, 136402 (2015).                      %
     %   T. Thonhauser et al., PRB 76, 125112 (2007).                       %
     %   K. Berland et al., Rep. Prog. Phys. 78, 066501 (2015).             %
     %   D.C. Langreth et al., J. Phys.: Condens. Matter 21, 084203 (2009). %
     %                                                                      %
     %                                                                      %
     % If you are calculating the stress with vdW-DF, please also cite:     %
     %                                                                      %
     %   R. Sabatini et al., J. Phys.: Condens. Matter 24, 424209 (2012).   %
     %                                                                      %
     %%%%%%%%%%%%%%%%%%%%%%%%%%%%%%%%%%%%%%%%%%%%%%%%%%%%%%%%%%%%%%%%%%%%%%%%

     Adding external electric field

     Computed dipole along edir(3) :
        Dipole              -10.9106 Ry au,        -27.7320 Debye
        Dipole field         -0.0206 Ry au,

        Potential amp.        1.9086 Ry
        Total length         46.3494 bohr

     Starting wfcs are  302 atomic wfcs
  @ DRIVER MODE: Message from server: STATUS
  @ DRIVER MODE: Message from server: POSDATA
  @ DRIVER MODE: Reading and sharing cell
  @ DRIVER MODE: Reading and sharing positions
  @ DRIVER MODE: Received positions

     Self-consistent Calculation

     iteration #  1     ecut=    29.40 Ry     beta= 0.05
     Davidson diagonalization with overlap
     c_bands:  5 eigenvalues not converged
     c_bands:  3 eigenvalues not converged
     c_bands:  1 eigenvalues not converged
     c_bands:  2 eigenvalues not converged
     c_bands:  3 eigenvalues not converged
     c_bands:  4 eigenvalues not converged
     c_bands:  4 eigenvalues not converged
     ethr =  1.00E-05,  avg # of iterations = 24.4

[...]

     total energy              =   -2445.36526284 Ry
     estimated scf accuracy    <    5568.58119154 Ry

     iteration #  2     ecut=    29.40 Ry     beta= 0.05
     Davidson diagonalization with overlap
     ethr =  1.00E-02,  avg # of iterations = 22.4

[...]

     iteration # 70     ecut=    29.40 Ry     beta= 0.05
     Davidson diagonalization with overlap
     c_bands:  1 eigenvalues not converged
     ethr =  1.99E-11,  avg # of iterations = 12.3

[...]

     total energy              =   -2942.84151690 Ry
     estimated scf accuracy    <       0.00000007 Ry

     iteration # 71     ecut=    29.40 Ry     beta= 0.05
     Davidson diagonalization with overlap
     ethr =  1.87E-11,  avg # of iterations = 10.5

     negative rho (up, down):  1.048E-02 0.000E+00

     Adding external electric field

     Computed dipole along edir(3) :
        Dipole                1.5788 Ry au,          4.0129 Debye
        Dipole field          0.0030 Ry au,

        Potential amp.       -0.2762 Ry
        Total length         46.3494 bohr

     End of self-consistent calculation

          k = 0.0000 0.0000 0.0000 ( 18029 PWs)   bands (ev):

   -55.0910 -55.0555 -55.0519 -55.0214 -54.9682 -54.9657 -54.9281 -54.8914
   -54.8831 -54.8689 -54.8556 -54.8509 -54.8037 -54.7591 -54.0657 -54.0317
   -31.6650 -31.5449 -31.4551 -31.4253 -31.3863 -31.3817 -31.3800 -31.3503
   -31.3472 -31.3458 -31.3027 -31.3007 -31.3001 -31.2656 -31.2474 -31.2278
   -31.2080 -31.2042 -31.1950 -31.1931 -31.1665 -31.1491 -31.1477 -31.1216
   -31.1123 -31.0982 -31.0955 -31.0933 -31.0899 -31.0767 -31.0718 -31.0646
   -31.0520 -31.0413 -31.0226 -31.0148 -31.0071 -31.0011 -30.9969 -30.9911
   -30.9865 -30.9517 -30.4742 -30.3824 -30.3602 -30.2908 -30.2041 -30.0930
   -19.1626 -15.9337 -15.6592 -15.5366 -15.3259 -15.2765 -15.2034 -15.0082
   -14.9433 -14.8875 -14.8771 -14.8656 -14.8489 -14.7776 -14.6984 -14.6181
   -14.6156 -14.6085 -14.5976 -14.5799 -14.5728 -14.5102 -14.5030 -14.4712
   -14.4590 -14.4189 -14.3118 -14.2301 -14.1732 -14.0217 -13.3269 -12.5684
   -12.4514 -11.1038  -7.8807  -6.5528  -5.8637  -4.0907  -3.9541  -3.2789
    -3.0936  -3.0703  -3.0091  -2.9841  -2.8092  -2.7596  -2.5551  -2.4481
    -2.3607  -2.3217  -2.3094  -2.2928  -2.1425  -2.0748  -2.0404  -1.9931
    -1.9694  -1.9468  -1.9055  -1.8978  -1.8672  -1.8492  -1.8406  -1.6633
    -1.5874  -1.5387  -1.5087  -1.4707  -1.4211  -1.3928  -1.3746  -1.3700
    -1.3648  -1.3457  -1.3141  -1.2531  -1.2243  -1.1682  -1.1004  -1.0737
    -0.9840  -0.9019  -0.7146  -0.6688  -0.6510  -0.6149  -0.5548  -0.5059
    -0.4719  -0.4369  -0.4225  -0.3560  -0.2872  -0.2547  -0.1921  -0.1277
    -0.1171  -0.0542  -0.0470   0.1143   0.1261   0.1474   0.2387   0.3249
     0.3728   0.3809   0.4393   0.5133   0.5356   0.5453   0.5816   0.6021
     0.6786   0.7878   0.8125   0.8543   0.8657   0.8994   0.9225   0.9772
     1.0009   1.0636   1.0698   1.1744   1.2237   1.2562   1.5061   1.5389
     1.8693   1.9029   1.9567   2.1433   2.5306   2.5778   4.0172   4.0800
     4.0934   4.1430   4.1662   4.1851   4.2573   4.4780   4.5033   4.5095
     4.5169

[...]

          k = 0.0380-0.0419 0.0000 ( 17876 PWs)   bands (ev):

[...]

          k =-0.0760-0.0000 0.0000 ( 17886 PWs)   bands (ev):

[...]

          k =-0.0760-0.0839 0.0000 ( 17948 PWs)   bands (ev):

   -55.0789 -55.0639 -55.0385 -55.0383 -54.9651 -54.9546 -54.9390 -54.8743
   -54.8718 -54.8708 -54.8690 -54.8667 -54.7977 -54.7650 -54.0487 -54.0485
   -31.4726 -31.4630 -31.4002 -31.3602 -31.3600 -31.3588 -31.3314 -31.3310
   -31.3000 -31.2960 -31.2910 -31.2851 -31.2594 -31.2252 -31.2181 -31.2120
   -31.2099 -31.2061 -31.2054 -31.1966 -31.1645 -31.1634 -31.1597 -31.1577
   -31.1574 -31.1547 -31.1501 -31.1337 -31.1083 -31.1046 -31.0984 -31.0893
   -31.0875 -31.0854 -31.0845 -31.0684 -31.0501 -31.0488 -31.0376 -31.0319
   -31.0072 -30.9908 -30.3729 -30.3728 -30.2868 -30.2867 -30.2474 -30.2474
   -19.1587 -15.4169 -15.3266 -15.1782 -15.1587 -15.1097 -15.0616 -15.0452
   -15.0276 -14.9715 -14.9321 -14.8861 -14.8375 -14.7945 -14.7923 -14.7536
   -14.6816 -14.6601 -14.6581 -14.6435 -14.5926 -14.5819 -14.5544 -14.5356
   -14.5306 -14.4873 -14.4279 -14.4244 -14.3848 -14.2053 -13.3372 -12.5531
   -12.5529 -11.1062  -7.8908  -6.5365  -5.8528  -4.0617  -3.9485  -2.6859
    -2.5866  -2.5268  -2.4200  -2.3333  -2.2930  -2.2584  -2.1236  -2.1042
    -2.0856  -2.0596  -2.0466  -2.0124  -2.0046  -1.9566  -1.9274  -1.9171
    -1.9108  -1.8980  -1.8757  -1.8278  -1.8053  -1.7958  -1.7864  -1.7477
    -1.7338  -1.7018  -1.6959  -1.6569  -1.6354  -1.5503  -1.4611  -1.4214
    -1.3712  -1.3057  -1.2718  -1.2651  -1.1718  -1.1636  -1.1405  -1.1071
    -1.0616  -0.9411  -0.8838  -0.8210  -0.8171  -0.8039  -0.6971  -0.6594
    -0.6289  -0.5937  -0.5565  -0.5263  -0.4878  -0.4410  -0.3642  -0.3334
    -0.2939  -0.2576  -0.1852  -0.0973  -0.0781  -0.0471  -0.0429   0.0434
     0.0682   0.1066   0.1158   0.1350   0.1916   0.2047   0.2919   0.3819
     0.4466   0.5346   0.6481   0.6528   0.7301   0.8220   0.9096   0.9476
     0.9996   1.0647   1.0672   1.1007   1.2218   1.2290   1.3506   1.3893
     1.3981   1.4206   2.3157   2.3167   2.3979   2.3980   4.1463   4.2439
     4.2829   4.3241   4.3761   4.5215   4.5447   4.5907   4.5911   4.6624
     4.6747

     the Fermi energy is     4.0637 ev

!    total energy              =   -2942.84153648 Ry
     estimated scf accuracy    <       0.00000003 Ry
     smearing contrib. (-TS)   =      -0.03725024 Ry
     internal energy E=F+TS    =   -2942.80428624 Ry

     The total energy is F=E-TS. E is the sum of the following terms:
     one-electron contribution =  -23856.46920400 Ry
     hartree contribution      =   12023.56469250 Ry
     xc contribution           =    -487.75339521 Ry
     ewald contribution        =    9377.84891650 Ry
     electric field correction =       0.00470396 Ry

     convergence has been achieved in  71 iterations

     Forces acting on atoms (cartesian axes, Ry/au):

     atom    1 type  1   force =     0.00001717   -0.00023852    0.09430966
     atom    2 type  1   force =    -0.00015687   -0.00054520   -0.17709933
     atom    3 type  2   force =     0.00001790   -0.00024308   -0.02146176
     atom    4 type  2   force =    -0.00001425   -0.00167430    0.05643399
     atom    5 type  2   force =    -0.01050495   -0.00075386    0.00563157
     atom    6 type  2   force =     0.01227062   -0.00009775    0.00552494
     atom    7 type  1   force =    -0.00024184    0.00107327   -0.01569053
     atom    8 type  1   force =    -0.00007000    0.00525341    0.00657828
     atom    9 type  2   force =    -0.00030671    0.00055932    0.00021624
     atom   10 type  2   force =    -0.00199774    0.00266146   -0.00433248
     atom   11 type  2   force =     0.00039216   -0.00023221    0.00027877
     atom   12 type  2   force =    -0.00007523   -0.00030077   -0.00019493
     atom   13 type  1   force =    -0.00072944    0.00044084   -0.00004690
     atom   14 type  1   force =     0.00037990   -0.00016863    0.00003694
     atom   15 type  2   force =    -0.00018740   -0.00059720   -0.00039810
     atom   16 type  2   force =     0.00005077    0.00038110   -0.00030769
     atom   17 type  2   force =     0.00079020    0.00016263    0.00039553
     atom   18 type  2   force =    -0.00014637    0.00008945   -0.00013529
     atom   19 type  1   force =     0.00031253    0.00076299    0.00032836
     atom   20 type  1   force =    -0.00047094    0.00017928    0.00057001
     atom   21 type  2   force =    -0.00002032   -0.00011475    0.10364034
     atom   22 type  2   force =     0.00016496    0.00034533    0.00033810
     atom   23 type  2   force =    -0.07089606   -0.00021412   -0.02719262
     atom   24 type  2   force =     0.07069551    0.00023817   -0.02724227
     atom   25 type  1   force =     0.00001521   -0.00027638    0.09398256
     atom   26 type  1   force =    -0.00025325   -0.00055352   -0.17737508
     atom   27 type  2   force =     0.00005998   -0.00008201   -0.02059606
     atom   28 type  2   force =     0.00002528   -0.00136500    0.05572574
     atom   29 type  2   force =    -0.01080904   -0.00000290    0.00592698
     atom   30 type  2   force =     0.01249730    0.00028385    0.00577779
     atom   31 type  1   force =    -0.00017298    0.00517820   -0.01627023
     atom   32 type  1   force =    -0.00009080   -0.00625358    0.00671045
     atom   33 type  2   force =    -0.00009710   -0.00047897    0.00023909
     atom   34 type  2   force =    -0.00163626    0.00066598   -0.00773826
     atom   35 type  2   force =    -0.00033969    0.00006744    0.00042196
     atom   36 type  2   force =     0.00058676    0.00006606   -0.00006724
     atom   37 type  1   force =    -0.00082572   -0.00078136   -0.00009138
     atom   38 type  1   force =     0.00048623    0.00001776    0.00043398
     atom   39 type  2   force =    -0.00028771   -0.00018842    0.00058481
     atom   40 type  2   force =    -0.00005590   -0.00019599   -0.00022755
     atom   41 type  2   force =     0.00011536   -0.00047437    0.00028654
     atom   42 type  2   force =    -0.00017786   -0.00028746    0.00050633
     atom   43 type  1   force =     0.00002174   -0.00068847   -0.00020821
     atom   44 type  1   force =     0.00028190    0.00045640    0.00041164
     atom   45 type  2   force =    -0.00002419   -0.00011753    0.10363512
     atom   46 type  2   force =    -0.07090420   -0.00014045   -0.02716472
     atom   47 type  2   force =     0.07070661    0.00028125   -0.02723599
     atom   48 type  3   force =    -0.00005691    0.00136935    0.00044050
     atom   49 type  3   force =     0.00033476   -0.00090428    0.00071673
     atom   50 type  4   force =     0.00362321    0.00260772   -0.00149954
     atom   51 type  5   force =     0.00048577    0.00027520    0.00027443
     atom   52 type  5   force =    -0.00076863   -0.00036632    0.00040077
     atom   53 type  5   force =    -0.00250646   -0.00351320    0.00169822
     atom   54 type  5   force =     0.00016190   -0.00024611    0.00001835
     atom   55 type  5   force =    -0.00015462   -0.00054311    0.00016919
     atom   56 type  5   force =     0.00048569   -0.00077665   -0.00006774

     Total force =     0.365704     Total SCF correction =     0.000437
  @ DRIVER MODE: Message from server: STATUS
  @ DRIVER MODE: Message from server: GETFORCE
  @ DRIVER MODE: Returning v,forces,stress,ensemble

     Writing output data file ./calc.save/
  @ DRIVER MODE: Message from server: EXIT
  @ DRIVE MODE: Exiting

     General routines

     Parallel routines

   This run was terminated on:   8:59:21   9Sep2021

   JOB DONE.