     Program PWSCF v.6.7GPU starts on 16Sep2021 at  6: 1: 6

     R & G space division:  proc/nbgrp/npool/nimage =      10
     Reading input from /storage/home/hcoda1/3/ntian30/research/carbon/CxH_vib/H2O_calc/ads_slab/CH3N2H2O_c/out_0045/pw.inp
Warning: card &CELL ignored
Warning: card   CELL_DYNAMICS='IPI', ignored
Warning: card / ignored

     Current dimensions of program PWSCF are:
     Max number of different atomic species (ntypx) = 10
     Max number of k-points (npk) =  40000
     Max angular momentum in pseudopotentials (lmaxx) =  3
     Presently no symmetry can be used with electric field

     Message from routine cell_base_init:
     DEPRECATED: use true lattice parameter, not A to a.u. conversion factor

     IMPORTANT: XC functional enforced from input :
     Exchange-correlation= BEEF-VDW
                           (   1   4  43  14   2   0   0)
     Any further DFT definition will be discarded
     Please, verify this is what you really want

  @ DRIVER MODE: Connecting to
 qe_1139763_2852616.sched-torque.pace.gatech.edu2ad17lf3_scratch
  using UNIX socket
  @ DRIVER MODE: Message from server: STATUS
  @ DRIVER MODE: Message from server: INIT
  @ DRIVER MODE: Receiving replica           0          -1
  @ DRIVER MODE: Receiving encoded integer          25
  @ DRIVER MODE:  SCF:  T  FORCE:  T  STRESS:  F  VC:  F  ENSEMBLE:  F
  @ DRIVER MODE:  SCF:  T  FORCE:  T  STRESS:  F  VC:  F  ENSEMBLE:  F

     Using Slab Decomposition

     bravais-lattice index     =            0
     lattice parameter (alat)  =       1.8897  a.u.
     unit-cell volume          =    6658.9804 (a.u.)^3
     number of atoms/cell      =           56
     number of atomic types    =            5
     number of electrons       =       403.00
     number of Kohn-Sham states=          211
     kinetic-energy cutoff     =      29.3995  Ry
     charge density cutoff     =     293.9946  Ry
     scf convergence threshold =      7.3E-08
     mixing beta               =       0.0500
     number of iterations used =            8  plain     mixing
     Exchange-correlation= BEEF-VDW
                           (   1   4  43  14   2   0   0)

     celldm(1)=   1.889726  celldm(2)=   0.000000  celldm(3)=   0.000000
     celldm(4)=   0.000000  celldm(5)=   0.000000  celldm(6)=   0.000000

     crystal axes: (cart. coord. in units of alat)
               a(1) = (   6.579727   0.000000   0.000000 )
               a(2) = (  -0.000775   5.961596   0.000000 )
               a(3) = (   0.000000   0.000000  25.155947 )

     reciprocal axes: (cart. coord. in units 2 pi/alat)
               b(1) = (  0.151982  0.000020  0.000000 )
               b(2) = (  0.000000  0.167740  0.000000 )
               b(3) = (  0.000000  0.000000  0.039752 )

     PseudoPot. # 1 for Ti read from file:
     /storage/coda1/p-amedford6/0/shared/rich_project_chbe-medford/medford-share/data/pseudos_module/espresso/nninc/pbe/van/Ti.UPF
     MD5 check sum: 8e4df49b7f0d34bbd5052bf3f5ea0213
     Pseudo is Ultrasoft, Zval = 12.0
     Generated by new atomic code, or converted to UPF format
     Using radial grid of  851 points,  6 beta functions with:
                l(1) =   0
                l(2) =   0
                l(3) =   1
                l(4) =   1
                l(5) =   2
                l(6) =   2
     Q(r) pseudized with  8 coefficients,  rinner =    1.000   1.000   1.000
                                                       1.000   1.000

     PseudoPot. # 2 for O  read from file:
     /storage/coda1/p-amedford6/0/shared/rich_project_chbe-medford/medford-share/data/pseudos_module/espresso/nninc/pbe/van/O.UPF
     MD5 check sum: 78c19812648e8988a0fe644b0f25305e
     Pseudo is Ultrasoft, Zval =  6.0
     Generated by new atomic code, or converted to UPF format
     Using radial grid of  737 points,  4 beta functions with:
                l(1) =   0
                l(2) =   0
                l(3) =   1
                l(4) =   1
     Q(r) pseudized with  8 coefficients,  rinner =    0.800   0.800   0.800

     PseudoPot. # 3 for N  read from file:
     /storage/coda1/p-amedford6/0/shared/rich_project_chbe-medford/medford-share/data/pseudos_module/espresso/nninc/pbe/van/N.UPF
     MD5 check sum: 90d10febe142ad51ac9d5be1deb811c4
     Pseudo is Ultrasoft, Zval =  5.0
     Generated by new atomic code, or converted to UPF format
     Using radial grid of  729 points,  4 beta functions with:
                l(1) =   0
                l(2) =   0
                l(3) =   1
                l(4) =   1
     Q(r) pseudized with  8 coefficients,  rinner =    0.800   0.800   0.800

     PseudoPot. # 4 for C  read from file:
     /storage/coda1/p-amedford6/0/shared/rich_project_chbe-medford/medford-share/data/pseudos_module/espresso/nninc/pbe/van/C.UPF
     MD5 check sum: 1a69bf6b8db32088f5b2163dbdb77a27
     Pseudo is Ultrasoft, Zval =  4.0
     Generated by new atomic code, or converted to UPF format
     Using radial grid of  721 points,  4 beta functions with:
                l(1) =   0
                l(2) =   0
                l(3) =   1
                l(4) =   1
     Q(r) pseudized with  8 coefficients,  rinner =    0.800   0.800   0.800

     PseudoPot. # 5 for H  read from file:
     /storage/coda1/p-amedford6/0/shared/rich_project_chbe-medford/medford-share/data/pseudos_module/espresso/nninc/pbe/van/H.UPF
     MD5 check sum: b5ee9d7bfd3a09ee7748110bda690ff7
     Pseudo is Ultrasoft, Zval =  1.0
     Generated by new atomic code, or converted to UPF format
     Using radial grid of  615 points,  1 beta functions with:
                l(1) =   0
     Q(r) pseudized with  8 coefficients,  rinner =    0.800

     atomic species   valence    mass     pseudopotential
        Ti1           12.00    47.86700     Ti( 1.00)
        O1             6.00    15.99900     O ( 1.00)
        N1             5.00    14.00700     N ( 1.00)
        C1             4.00    12.01100     C ( 1.00)
        H1             1.00     1.00800     H ( 1.00)

     No symmetry found

   Cartesian axes

     site n.     atom                  positions (alat units)
         1           Ti1 tau(   1) = (   0.0004258   2.9801865   6.0000000  )
         2           Ti1 tau(   2) = (   3.2906075   1.4906267   6.0002472  )
         3           O1  tau(   3) = (   0.0006271   0.0005054   7.9858123  )
         4           O1  tau(   4) = (   3.2906025   0.0005020   7.3038282  )
         5           O1  tau(   5) = (   4.5942328   1.4918067   9.2879030  )
         6           O1  tau(   6) = (   1.9868534   1.4903216   9.2879459  )
         7           Ti1 tau(   7) = (   3.2907910   2.8959150   9.1758416  )
         8           Ti1 tau(   8) = (   0.0015273   1.4827037   9.2680791  )
         9           O1  tau(   9) = (   3.2828550   5.9398922  11.3444325  )
        10           O1  tau(  10) = (   0.0116148   5.9584955  10.6183126  )
        11           O1  tau(  11) = (   1.2785533   1.4626539  12.6279770  )
        12           O1  tau(  12) = (   5.2704455   1.4657548  12.6160130  )
        13           Ti1 tau(  13) = (   0.0600808   2.9393476  12.6134163  )
        14           Ti1 tau(  14) = (   3.3737088   1.4602624  12.5010433  )
        15           O1  tau(  15) = (   6.5684750   5.9323085  14.6353932  )
        16           O1  tau(  16) = (   3.2849856   5.9366180  13.9618146  )
        17           O1  tau(  17) = (   4.5362432   1.5114280  16.0576559  )
        18           O1  tau(  18) = (   2.0240554   1.5008084  16.0383298  )
        19           Ti1 tau(  19) = (   3.2703657   2.9522362  15.6888820  )
        20           Ti1 tau(  20) = (   6.5391562   1.4934284  15.8005638  )
        21           O1  tau(  21) = (   3.2904802   0.0005063   4.7018136  )
        22           O1  tau(  22) = (   6.5583345   5.9570231  17.1947061  )
        23           O1  tau(  23) = (   1.3043587   1.4918075   6.0039043  )
        24           O1  tau(  24) = (   5.2767064   1.4903225   6.0039473  )
        25           Ti1 tau(  25) = (   0.0000382   5.9609847   6.0000000  )
        26           Ti1 tau(  26) = (   3.2902200   4.4714249   6.0002472  )
        27           O1  tau(  27) = (   0.0002396   2.9813036   7.9858123  )
        28           O1  tau(  28) = (   3.2902150   2.9813002   7.3038282  )
        29           O1  tau(  29) = (   4.5938453   4.4726049   9.2879030  )
        30           O1  tau(  30) = (   1.9864658   4.4711199   9.2879459  )
        31           Ti1 tau(  31) = (   3.2891106   5.8743827   9.1763621  )
        32           Ti1 tau(  32) = (   0.0006254   4.4649316   9.2693709  )
        33           O1  tau(  33) = (   3.2888364   2.9620848  11.3424199  )
        34           O1  tau(  34) = (   0.0092240   2.9805883  10.6323155  )
        35           O1  tau(  35) = (   1.2785924   4.4508711  12.6313046  )
        36           O1  tau(  36) = (   5.2742027   4.4576360  12.6186982  )
        37           Ti1 tau(  37) = (   0.0560446   5.9134488  12.5469576  )
        38           Ti1 tau(  38) = (   3.3742563   4.4530221  12.5021653  )
        39           O1  tau(  39) = (   6.5655761   2.9369947  14.6516633  )
        40           O1  tau(  40) = (   3.2805149   2.9594171  13.8967751  )
        41           O1  tau(  41) = (   4.5308665   4.4203993  16.0704334  )
        42           O1  tau(  42) = (   2.0169005   4.4237906  16.0574931  )
        43           Ti1 tau(  43) = (   3.2493829   5.9208236  15.8028744  )
        44           Ti1 tau(  44) = (   6.5423592   4.6318136  16.0678394  )
        45           O1  tau(  45) = (   3.2900926   2.9813045   4.7018136  )
        46           O1  tau(  46) = (   1.3039711   4.4726057   6.0039043  )
        47           O1  tau(  47) = (   5.2763189   4.4711207   6.0039473  )
        48           N1  tau(  48) = (   0.1516996   2.6368831  18.6397825  )
        49           N1  tau(  49) = (   0.0343947   2.8734663  17.4441277  )
        50           C1  tau(  50) = (   0.1908864   3.7705318  19.5986308  )
        51           H1  tau(  51) = (   6.5333492   4.7333814  19.1494580  )
        52           H1  tau(  52) = (   6.0816938   3.5230213  20.4074400  )
        53           H1  tau(  53) = (   1.1988782   3.7880179  20.0220438  )
        54           O1  tau(  54) = (   3.2442500   5.9498283  18.2024067  )
        55           H1  tau(  55) = (   4.0366425   0.4767780  18.4672138  )
        56           H1  tau(  56) = (   2.4709518   0.5160301  18.4623371  )

     number of k points=    10  Fermi-Dirac smearing, width (Ry)=  0.0073
                       cart. coord. in units 2pi/alat
        k(    1) = (   0.0000000   0.0000000   0.0000000), wk =   0.1250000
        k(    2) = (   0.0000000   0.0419351   0.0000000), wk =   0.2500000
        k(    3) = (   0.0000000  -0.0838702   0.0000000), wk =   0.1250000
        k(    4) = (   0.0379955   0.0000049   0.0000000), wk =   0.2500000
        k(    5) = (   0.0379955   0.0419400   0.0000000), wk =   0.2500000
        k(    6) = (   0.0379955  -0.0838652   0.0000000), wk =   0.2500000
        k(    7) = (   0.0379955  -0.0419301   0.0000000), wk =   0.2500000
        k(    8) = (  -0.0759910  -0.0000099   0.0000000), wk =   0.1250000
        k(    9) = (  -0.0759910   0.0419252   0.0000000), wk =   0.2500000
        k(   10) = (  -0.0759910  -0.0838800   0.0000000), wk =   0.1250000

     Initial potential from superposition of free atoms

     starting charge  386.99914, renormalised to  403.00000

     negative rho (up, down):  1.444E-02 0.000E+00

     %%%%%%%%%%%%%%%%%%%%%%%%%%%%%%%%%%%%%%%%%%%%%%%%%%%%%%%%%%%%%%%%%%%%%%%%
     %                                                                      %
     % You are using vdW-DF, which was implemented by the Thonhauser group. %
     % Please cite the following two papers that made this development      %
     % possible and the two reviews that describe the various versions:     %
     %                                                                      %
     %   T. Thonhauser et al., PRL 115, 136402 (2015).                      %
     %   T. Thonhauser et al., PRB 76, 125112 (2007).                       %
     %   K. Berland et al., Rep. Prog. Phys. 78, 066501 (2015).             %
     %   D.C. Langreth et al., J. Phys.: Condens. Matter 21, 084203 (2009). %
     %                                                                      %
     %                                                                      %
     % If you are calculating the stress with vdW-DF, please also cite:     %
     %                                                                      %
     %   R. Sabatini et al., J. Phys.: Condens. Matter 24, 424209 (2012).   %
     %                                                                      %
     %%%%%%%%%%%%%%%%%%%%%%%%%%%%%%%%%%%%%%%%%%%%%%%%%%%%%%%%%%%%%%%%%%%%%%%%

     Adding external electric field

     Computed dipole along edir(3) :
        Dipole              -13.2286 Ry au,        -33.6236 Debye
        Dipole field         -0.0250 Ry au,

        Potential amp.        2.3141 Ry
        Total length         46.3494 bohr

     Starting wfcs are  305 atomic wfcs
  @ DRIVER MODE: Message from server: STATUS
  @ DRIVER MODE: Message from server: POSDATA
  @ DRIVER MODE: Reading and sharing cell
  @ DRIVER MODE: Reading and sharing positions
  @ DRIVER MODE: Received positions

     Self-consistent Calculation

     iteration #  1     ecut=    29.40 Ry     beta= 0.05
     Davidson diagonalization with overlap
     c_bands:  4 eigenvalues not converged
     c_bands:  2 eigenvalues not converged
     c_bands:  4 eigenvalues not converged
     c_bands:  1 eigenvalues not converged
     c_bands:  1 eigenvalues not converged
     c_bands:  1 eigenvalues not converged
     c_bands:  4 eigenvalues not converged
     c_bands:  1 eigenvalues not converged
     c_bands:  1 eigenvalues not converged
     ethr =  1.00E-05,  avg # of iterations = 29.9

[...]

     total energy              =   -2367.54119804 Ry
     estimated scf accuracy    <    6916.24593860 Ry

     iteration #  2     ecut=    29.40 Ry     beta= 0.05
     Davidson diagonalization with overlap
     ethr =  1.00E-02,  avg # of iterations = 23.0

[...]

     iteration # 64     ecut=    29.40 Ry     beta= 0.05
     Davidson diagonalization with overlap
     c_bands:  1 eigenvalues not converged
     ethr =  4.78E-11,  avg # of iterations = 14.6

[...]

     total energy              =   -2974.00305673 Ry
     estimated scf accuracy    <       0.00000009 Ry

     iteration # 67     ecut=    29.40 Ry     beta= 0.05
     Davidson diagonalization with overlap
     ethr =  2.31E-11,  avg # of iterations =  8.8

     negative rho (up, down):  1.457E-02 0.000E+00

     Adding external electric field

     Computed dipole along edir(3) :
        Dipole                0.9250 Ry au,          2.3510 Debye
        Dipole field          0.0017 Ry au,

        Potential amp.       -0.1618 Ry
        Total length         46.3494 bohr

     End of self-consistent calculation

          k = 0.0000 0.0000 0.0000 ( 18029 PWs)   bands (ev):

   -55.6019 -55.5679 -55.5608 -55.5535 -55.5247 -55.4349 -55.4119 -55.3947
   -55.3779 -55.3770 -55.3491 -55.3432 -55.0010 -54.8725 -54.5809 -54.5468
   -32.1029 -32.0845 -31.9526 -31.9349 -31.9107 -31.8947 -31.8667 -31.8641
   -31.8448 -31.7974 -31.7903 -31.7760 -31.7541 -31.7393 -31.7236 -31.7177
   -31.7064 -31.6935 -31.6879 -31.6591 -31.6520 -31.6393 -31.6044 -31.6004
   -31.5895 -31.5873 -31.5838 -31.5760 -31.5520 -31.5486 -31.5466 -31.5417
   -31.5298 -31.5284 -31.5187 -31.5105 -31.4888 -31.2704 -31.2000 -31.1299
   -31.1092 -31.0790 -30.9880 -30.8996 -30.8771 -30.8047 -30.7182 -30.6072
   -18.9234 -18.3020 -16.3008 -16.0680 -15.8424 -15.7509 -15.7095 -15.5030
   -15.4026 -15.3269 -15.2087 -15.1448 -15.1368 -15.1176 -15.1062 -15.1014
   -15.0425 -15.0386 -15.0366 -15.0231 -14.9973 -14.9499 -14.9351 -14.9310
   -14.8360 -14.7632 -14.7393 -14.7219 -14.6794 -14.6543 -14.2031 -13.0830
   -12.9666 -11.3168  -6.8644  -6.7378  -4.2051  -3.8568  -3.8268  -3.6751
    -3.5462  -3.5066  -3.4347  -3.3632  -3.2280  -3.2058  -3.0336  -2.8355
    -2.7754  -2.7468  -2.7008  -2.6291  -2.5147  -2.4587  -2.4081  -2.4055
    -2.3856  -2.3801  -2.3557  -2.3374  -2.2398  -2.2197  -2.1498  -2.1348
    -2.0852  -1.9850  -1.9551  -1.9144  -1.9049  -1.8771  -1.8634  -1.8498
    -1.8269  -1.8027  -1.7618  -1.6944  -1.6179  -1.5809  -1.5027  -1.4492
    -1.4080  -1.3472  -1.2121  -1.1370  -1.0895  -1.0563  -1.0467  -1.0284
    -0.9945  -0.9770  -0.8659  -0.7538  -0.7380  -0.6731  -0.6106  -0.5275
    -0.4948  -0.4331  -0.3690  -0.3511  -0.3460  -0.3096  -0.2680  -0.2221
    -0.0838  -0.0287   0.0049   0.0129   0.0746   0.1158   0.1471   0.2297
     0.2443   0.2841   0.3273   0.3585   0.3697   0.3795   0.4007   0.4314
     0.4361   0.6259   0.6688   0.7133   0.7480   0.7861   0.9321   0.9508
     1.0576   1.1632   1.3683   1.4415   1.5411   1.6336   2.0128   2.0586
     2.7604   3.5323   3.6200   3.6648   3.7026   3.7784   3.7894   3.9874
     4.0029   4.0420   4.1174

[...]

          k = 0.0380-0.0419 0.0000 ( 17876 PWs)   bands (ev):

[...]

          k =-0.0760-0.0000 0.0000 ( 17886 PWs)   bands (ev):

[...]

          k =-0.0760-0.0839 0.0000 ( 17948 PWs)   bands (ev):

   -55.5854 -55.5843 -55.5524 -55.5438 -55.5410 -55.4251 -55.4046 -55.3954
   -55.3937 -55.3621 -55.3583 -55.3505 -54.9989 -54.8745 -54.5639 -54.5637
   -31.9167 -31.9002 -31.9002 -31.8994 -31.8806 -31.8796 -31.8395 -31.8309
   -31.8039 -31.7828 -31.7712 -31.7630 -31.7581 -31.7145 -31.7109 -31.7083
   -31.7059 -31.7049 -31.7038 -31.6993 -31.6968 -31.6961 -31.6560 -31.6437
   -31.6229 -31.6168 -31.6097 -31.5952 -31.5946 -31.5918 -31.5856 -31.5769
   -31.5730 -31.5635 -31.5630 -31.5540 -31.4212 -31.2724 -31.2188 -31.1629
   -31.1317 -31.1060 -30.8899 -30.8898 -30.8008 -30.8006 -30.7615 -30.7614
   -18.9224 -18.2982 -15.7548 -15.6506 -15.5540 -15.5185 -15.4619 -15.4024
   -15.3876 -15.3062 -15.2827 -15.2792 -15.2179 -15.1962 -15.1611 -15.1488
   -15.1275 -15.1140 -15.1104 -15.0543 -15.0478 -15.0387 -15.0319 -15.0285
   -14.9616 -14.9193 -14.9157 -14.9111 -14.7865 -14.6610 -14.3829 -13.0685
   -13.0682 -11.3143  -6.8938  -6.7154  -4.1311  -3.8811  -3.7962  -3.2531
    -3.0377  -2.8339  -2.8072  -2.7122  -2.6975  -2.6673  -2.5351  -2.4952
    -2.4554  -2.4411  -2.4181  -2.4170  -2.4039  -2.3974  -2.3803  -2.3564
    -2.3286  -2.3032  -2.2735  -2.2653  -2.2532  -2.2350  -2.2217  -2.2046
    -2.2015  -2.1577  -2.1364  -2.1269  -2.0441  -1.9897  -1.8268  -1.7844
    -1.7400  -1.7305  -1.7055  -1.6993  -1.6681  -1.6541  -1.6017  -1.5901
    -1.4782  -1.3606  -1.3216  -1.2990  -1.2887  -1.2704  -1.1989  -1.0979
    -1.0736  -0.9987  -0.9943  -0.8912  -0.8769  -0.7962  -0.7860  -0.7613
    -0.7056  -0.6698  -0.6498  -0.5663  -0.5607  -0.5384  -0.4962  -0.4658
    -0.4079  -0.3522  -0.3228  -0.3137  -0.2760  -0.2514  -0.2106  -0.1596
    -0.0975  -0.0595   0.0359   0.1387   0.2221   0.3587   0.4688   0.4965
     0.5715   0.6078   0.6822   0.7116   0.7186   0.7800   0.7930   0.8818
     0.9393   0.9521   0.9881   1.1069   1.8049   1.8063   1.8782   1.8785
     2.7853   3.7575   3.8671   3.9100   3.9308   4.0058   4.0469   4.0666
     4.0692   4.1055   4.2083

     the Fermi energy is     3.5318 ev

!    total energy              =   -2974.00308621 Ry
     estimated scf accuracy    <       0.00000003 Ry
     smearing contrib. (-TS)   =      -0.02180847 Ry
     internal energy E=F+TS    =   -2973.98127774 Ry

     The total energy is F=E-TS. E is the sum of the following terms:
     one-electron contribution =  -23851.77781707 Ry
     hartree contribution      =   12020.47679012 Ry
     xc contribution           =    -494.04245672 Ry
     ewald contribution        =    9351.36059137 Ry
     electric field correction =       0.00161456 Ry

     convergence has been achieved in  67 iterations

     Forces acting on atoms (cartesian axes, Ry/au):

     atom    1 type  1   force =     0.00016673   -0.00021333    0.09633581
     atom    2 type  1   force =    -0.00018663   -0.00044381   -0.17540066
     atom    3 type  2   force =     0.00001911   -0.00014776   -0.02470877
     atom    4 type  2   force =     0.00005390   -0.00162043    0.05342923
     atom    5 type  2   force =    -0.01198709   -0.00148106    0.00369357
     atom    6 type  2   force =     0.01344118   -0.00064037    0.00223068
     atom    7 type  1   force =    -0.00108850    0.00055880   -0.00696341
     atom    8 type  1   force =     0.00064542    0.00917653    0.02676865
     atom    9 type  2   force =     0.00017587    0.00020283   -0.00047441
     atom   10 type  2   force =    -0.00157668   -0.00030606   -0.01790535
     atom   11 type  2   force =     0.00089825    0.00090036    0.00000270
     atom   12 type  2   force =    -0.00060265    0.00060310   -0.00003065
     atom   13 type  1   force =    -0.00026966    0.00024277   -0.00035003
     atom   14 type  1   force =     0.00026819    0.00027186    0.00005319
     atom   15 type  2   force =     0.00008597    0.00019054   -0.00026525
     atom   16 type  2   force =     0.00000966    0.00020459    0.00083384
     atom   17 type  2   force =     0.00104532    0.00001170    0.00008414
     atom   18 type  2   force =    -0.00138331   -0.00008132   -0.00002907
     atom   19 type  1   force =    -0.00005265    0.00126547   -0.00003686
     atom   20 type  1   force =    -0.00030876   -0.00008463   -0.00016743
     atom   21 type  2   force =     0.00009904    0.00001400    0.10319726
     atom   22 type  2   force =    -0.00014752    0.00031939    0.00060513
     atom   23 type  2   force =    -0.07146141   -0.00009123   -0.02778063
     atom   24 type  2   force =     0.07144859    0.00035416   -0.02777549
     atom   25 type  1   force =     0.00001737   -0.00032278    0.09608582
     atom   26 type  1   force =    -0.00030477   -0.00045142   -0.17576008
     atom   27 type  2   force =     0.00008885   -0.00025082   -0.02369889
     atom   28 type  2   force =     0.00012007   -0.00130049    0.05282928
     atom   29 type  2   force =    -0.01225728    0.00021655    0.00357180
     atom   30 type  2   force =     0.01359581    0.00042989    0.00207253
     atom   31 type  1   force =    -0.00117910    0.00349815   -0.01015656
     atom   32 type  1   force =     0.00082882   -0.01100063    0.02705680
     atom   33 type  2   force =     0.00010139   -0.00000213    0.00057312
     atom   34 type  2   force =    -0.00116183   -0.00123035   -0.02346465
     atom   35 type  2   force =     0.00081531   -0.00052271   -0.00011003
     atom   36 type  2   force =    -0.00058061   -0.00018612   -0.00013472
     atom   37 type  1   force =    -0.00056133    0.00020119   -0.00042316
     atom   38 type  1   force =     0.00028207   -0.00025590    0.00011147
     atom   39 type  2   force =     0.00011642    0.00044852    0.00011714
     atom   40 type  2   force =     0.00019762    0.00015134   -0.00054567
     atom   41 type  2   force =     0.00084364    0.00072506    0.00037544
     atom   42 type  2   force =    -0.00091839    0.00067550    0.00016693
     atom   43 type  1   force =    -0.00002101   -0.00089611   -0.00086707
     atom   44 type  1   force =    -0.00022600    0.00104167    0.00027734
     atom   45 type  2   force =     0.00008531   -0.00002549    0.10319863
     atom   46 type  2   force =    -0.07146615   -0.00001772   -0.02778778
     atom   47 type  2   force =     0.07145084    0.00039630   -0.02778640
     atom   48 type  3   force =     0.00022932   -0.00151255   -0.00052285
     atom   49 type  3   force =     0.00005975   -0.00021262    0.00032670
     atom   50 type  4   force =     0.00021494    0.00120272    0.00075671
     atom   51 type  5   force =     0.00011387   -0.00062581   -0.00097450
     atom   52 type  5   force =     0.00021651   -0.00005916   -0.00031497
     atom   53 type  5   force =     0.00004184   -0.00019686   -0.00047839
     atom   54 type  2   force =    -0.00658183   -0.00573816   -0.00347776
     atom   55 type  5   force =     0.00666938    0.00551551    0.00287679
     atom   56 type  5   force =    -0.00012321    0.00109934    0.00076079

     Total force =     0.367965     Total SCF correction =     0.000406
  @ DRIVER MODE: Message from server: STATUS
  @ DRIVER MODE: Message from server: GETFORCE
  @ DRIVER MODE: Returning v,forces,stress,ensemble

     Writing output data file ./calc.save/
  @ DRIVER MODE: Message from server: EXIT
  @ DRIVE MODE: Exiting

     General routines

     Parallel routines

   This run was terminated on:   6:21: 0  16Sep2021

   JOB DONE.