     Program PWSCF v.6.7GPU starts on 23Aug2021 at 13:36:57

     R & G space division:  proc/nbgrp/npool/nimage =       6
     Reading input from /storage/home/hcoda1/3/ntian30/research/carbon/CH2_vib/ads_slab/CH2N2_a/out_0002/pw.inp
Warning: card &CELL ignored
Warning: card   CELL_DYNAMICS='IPI', ignored
Warning: card / ignored

     Current dimensions of program PWSCF are:
     Max number of different atomic species (ntypx) = 10
     Max number of k-points (npk) =  40000
     Max angular momentum in pseudopotentials (lmaxx) =  3
     Presently no symmetry can be used with electric field

     Message from routine cell_base_init:
     DEPRECATED: use true lattice parameter, not A to a.u. conversion factor

     IMPORTANT: XC functional enforced from input :
     Exchange-correlation= BEEF-VDW
                           (   1   4  43  14   2   0   0)
     Any further DFT definition will be discarded
     Please, verify this is what you really want

  @ DRIVER MODE: Connecting to
 qe_1139763_2632803.sched-torque.pace.gatech.eduj2b44tut_scratch
  using UNIX socket
  @ DRIVER MODE: Message from server: STATUS
  @ DRIVER MODE: Message from server: INIT
  @ DRIVER MODE: Receiving replica           0          -1
  @ DRIVER MODE: Receiving encoded integer          25
  @ DRIVER MODE:  SCF:  T  FORCE:  T  STRESS:  F  VC:  F  ENSEMBLE:  F
  @ DRIVER MODE:  SCF:  T  FORCE:  T  STRESS:  F  VC:  F  ENSEMBLE:  F

     Using Slab Decomposition

     bravais-lattice index     =            0
     lattice parameter (alat)  =       1.8897  a.u.
     unit-cell volume          =    6658.9804 (a.u.)^3
     number of atoms/cell      =           52
     number of atomic types    =            5
     number of electrons       =       394.00
     number of Kohn-Sham states=          207
     kinetic-energy cutoff     =      29.3995  Ry
     charge density cutoff     =     293.9946  Ry
     scf convergence threshold =      7.3E-08
     mixing beta               =       0.0500
     number of iterations used =            8  plain     mixing
     Exchange-correlation= BEEF-VDW
                           (   1   4  43  14   2   0   0)

     celldm(1)=   1.889726  celldm(2)=   0.000000  celldm(3)=   0.000000
     celldm(4)=   0.000000  celldm(5)=   0.000000  celldm(6)=   0.000000

     crystal axes: (cart. coord. in units of alat)
               a(1) = (   6.579727   0.000000   0.000000 )
               a(2) = (  -0.000775   5.961596   0.000000 )
               a(3) = (   0.000000   0.000000  25.155947 )

     reciprocal axes: (cart. coord. in units 2 pi/alat)
               b(1) = (  0.151982  0.000020  0.000000 )
               b(2) = (  0.000000  0.167740  0.000000 )
               b(3) = (  0.000000  0.000000  0.039752 )

     PseudoPot. # 1 for Ti read from file:
     /storage/coda1/p-amedford6/0/shared/rich_project_chbe-medford/medford-share/data/pseudos_module/espresso/nninc/pbe/van/Ti.UPF
     MD5 check sum: 8e4df49b7f0d34bbd5052bf3f5ea0213
     Pseudo is Ultrasoft, Zval = 12.0
     Generated by new atomic code, or converted to UPF format
     Using radial grid of  851 points,  6 beta functions with:
                l(1) =   0
                l(2) =   0
                l(3) =   1
                l(4) =   1
                l(5) =   2
                l(6) =   2
     Q(r) pseudized with  8 coefficients,  rinner =    1.000   1.000   1.000
                                                       1.000   1.000

     PseudoPot. # 2 for O  read from file:
     /storage/coda1/p-amedford6/0/shared/rich_project_chbe-medford/medford-share/data/pseudos_module/espresso/nninc/pbe/van/O.UPF
     MD5 check sum: 78c19812648e8988a0fe644b0f25305e
     Pseudo is Ultrasoft, Zval =  6.0
     Generated by new atomic code, or converted to UPF format
     Using radial grid of  737 points,  4 beta functions with:
                l(1) =   0
                l(2) =   0
                l(3) =   1
                l(4) =   1
     Q(r) pseudized with  8 coefficients,  rinner =    0.800   0.800   0.800

     PseudoPot. # 3 for N  read from file:
     /storage/coda1/p-amedford6/0/shared/rich_project_chbe-medford/medford-share/data/pseudos_module/espresso/nninc/pbe/van/N.UPF
     MD5 check sum: 90d10febe142ad51ac9d5be1deb811c4
     Pseudo is Ultrasoft, Zval =  5.0
     Generated by new atomic code, or converted to UPF format
     Using radial grid of  729 points,  4 beta functions with:
                l(1) =   0
                l(2) =   0
                l(3) =   1
                l(4) =   1
     Q(r) pseudized with  8 coefficients,  rinner =    0.800   0.800   0.800

     PseudoPot. # 4 for C  read from file:
     /storage/coda1/p-amedford6/0/shared/rich_project_chbe-medford/medford-share/data/pseudos_module/espresso/nninc/pbe/van/C.UPF
     MD5 check sum: 1a69bf6b8db32088f5b2163dbdb77a27
     Pseudo is Ultrasoft, Zval =  4.0
     Generated by new atomic code, or converted to UPF format
     Using radial grid of  721 points,  4 beta functions with:
                l(1) =   0
                l(2) =   0
                l(3) =   1
                l(4) =   1
     Q(r) pseudized with  8 coefficients,  rinner =    0.800   0.800   0.800

     PseudoPot. # 5 for H  read from file:
     /storage/coda1/p-amedford6/0/shared/rich_project_chbe-medford/medford-share/data/pseudos_module/espresso/nninc/pbe/van/H.UPF
     MD5 check sum: b5ee9d7bfd3a09ee7748110bda690ff7
     Pseudo is Ultrasoft, Zval =  1.0
     Generated by new atomic code, or converted to UPF format
     Using radial grid of  615 points,  1 beta functions with:
                l(1) =   0
     Q(r) pseudized with  8 coefficients,  rinner =    0.800

     atomic species   valence    mass     pseudopotential
        Ti1           12.00    47.86700     Ti( 1.00)
        O1             6.00    15.99900     O ( 1.00)
        N1             5.00    14.00700     N ( 1.00)
        C1             4.00    12.01100     C ( 1.00)
        H1             1.00     1.00800     H ( 1.00)

     No symmetry found

   Cartesian axes

     site n.     atom                  positions (alat units)
         1           Ti1 tau(   1) = (   0.0004258   2.9801865   6.0000000  )
         2           Ti1 tau(   2) = (   3.2906075   1.4906267   6.0002472  )
         3           O1  tau(   3) = (   0.0006271   0.0005054   7.9858123  )
         4           O1  tau(   4) = (   3.2906025   0.0005020   7.3038282  )
         5           O1  tau(   5) = (   4.5942328   1.4918067   9.2879030  )
         6           O1  tau(   6) = (   1.9868534   1.4903216   9.2879459  )
         7           Ti1 tau(   7) = (   3.2907910   2.8959150   9.1758416  )
         8           Ti1 tau(   8) = (   0.0015273   1.4827037   9.2680791  )
         9           O1  tau(   9) = (   3.2817373   5.9460525  11.2946146  )
        10           O1  tau(  10) = (   0.0116148   5.9584955  10.6183126  )
        11           O1  tau(  11) = (   1.3133758   1.4766388  12.6259016  )
        12           O1  tau(  12) = (   5.2926964   1.4629885  12.6363546  )
        13           Ti1 tau(  13) = (   6.4867702   2.9530348  12.7875790  )
        14           Ti1 tau(  14) = (   3.1556433   1.4654666  12.4614878  )
        15           O1  tau(  15) = (   0.0119351   5.9170239  14.6319389  )
        16           O1  tau(  16) = (   3.2888796   5.9458463  13.8730829  )
        17           O1  tau(  17) = (   4.5050169   1.4765614  15.9709225  )
        18           O1  tau(  18) = (   2.0372034   1.4852366  16.0641042  )
        19           Ti1 tau(  19) = (   3.3196583   2.9724019  15.6708981  )
        20           Ti1 tau(  20) = (   6.5671717   1.4125937  15.9950936  )
        21           O1  tau(  21) = (   3.2904802   0.0005063   4.7018136  )
        22           O1  tau(  22) = (   6.4769187   0.0355975  17.2006351  )
        23           O1  tau(  23) = (   1.3043587   1.4918075   6.0039043  )
        24           O1  tau(  24) = (   5.2767064   1.4903225   6.0039473  )
        25           Ti1 tau(  25) = (   0.0000382   5.9609847   6.0000000  )
        26           Ti1 tau(  26) = (   3.2902200   4.4714249   6.0002472  )
        27           O1  tau(  27) = (   0.0002396   2.9813036   7.9858123  )
        28           O1  tau(  28) = (   3.2902150   2.9813002   7.3038282  )
        29           O1  tau(  29) = (   4.5938453   4.4726049   9.2879030  )
        30           O1  tau(  30) = (   1.9864658   4.4711199   9.2879459  )
        31           Ti1 tau(  31) = (   3.2891106   5.8743827   9.1763621  )
        32           Ti1 tau(  32) = (   0.0006254   4.4649316   9.2693709  )
        33           O1  tau(  33) = (   3.2830713   2.9620590  11.2933342  )
        34           O1  tau(  34) = (   0.0092240   2.9805883  10.6323155  )
        35           O1  tau(  35) = (   1.3110001   4.4530301  12.6158702  )
        36           O1  tau(  36) = (   5.2890030   4.4574094  12.6263766  )
        37           Ti1 tau(  37) = (   6.4749751   5.9256585  12.7408108  )
        38           Ti1 tau(  38) = (   3.1548284   4.4449468  12.4552140  )
        39           O1  tau(  39) = (   6.5563663   2.9679540  14.6355405  )
        40           O1  tau(  40) = (   3.2955455   2.9696487  13.8658995  )
        41           O1  tau(  41) = (   4.4874099   4.4549745  16.0617524  )
        42           O1  tau(  42) = (   2.0361269   4.4599000  15.9844638  )
        43           Ti1 tau(  43) = (   3.2961532   5.9498675  15.6757175  )
        44           Ti1 tau(  44) = (   0.0931452   4.4613781  16.2340760  )
        45           O1  tau(  45) = (   3.2900926   2.9813045   4.7018136  )
        46           O1  tau(  46) = (   1.3039711   4.4726057   6.0039043  )
        47           O1  tau(  47) = (   5.2763189   4.4711207   6.0039473  )
        48           N1  tau(  48) = (   0.6476139   3.5490058  18.1121658  )
        49           C1  tau(  49) = (   1.1877089   3.2859424  19.2441644  )
        50           H1  tau(  50) = (   1.7795953   4.0554207  19.7143479  )
        51           H1  tau(  51) = (   1.0443441   2.3179332  19.7136356  )
        52           N1  tau(  52) = (   6.4637678   2.8186144  17.3583733  )

     number of k points=    10  Fermi-Dirac smearing, width (Ry)=  0.0073
                       cart. coord. in units 2pi/alat
        k(    1) = (   0.0000000   0.0000000   0.0000000), wk =   0.1250000
        k(    2) = (   0.0000000   0.0419351   0.0000000), wk =   0.2500000
        k(    3) = (   0.0000000  -0.0838702   0.0000000), wk =   0.1250000
        k(    4) = (   0.0379955   0.0000049   0.0000000), wk =   0.2500000
        k(    5) = (   0.0379955   0.0419400   0.0000000), wk =   0.2500000
        k(    6) = (   0.0379955  -0.0838652   0.0000000), wk =   0.2500000
        k(    7) = (   0.0379955  -0.0419301   0.0000000), wk =   0.2500000
        k(    8) = (  -0.0759910  -0.0000099   0.0000000), wk =   0.1250000
        k(    9) = (  -0.0759910   0.0419252   0.0000000), wk =   0.2500000
        k(   10) = (  -0.0759910  -0.0838800   0.0000000), wk =   0.1250000

     Initial potential from superposition of free atoms

     starting charge  377.99917, renormalised to  394.00000

     negative rho (up, down):  1.612E-02 0.000E+00

     %%%%%%%%%%%%%%%%%%%%%%%%%%%%%%%%%%%%%%%%%%%%%%%%%%%%%%%%%%%%%%%%%%%%%%%%
     %                                                                      %
     % You are using vdW-DF, which was implemented by the Thonhauser group. %
     % Please cite the following two papers that made this development      %
     % possible and the two reviews that describe the various versions:     %
     %                                                                      %
     %   T. Thonhauser et al., PRL 115, 136402 (2015).                      %
     %   T. Thonhauser et al., PRB 76, 125112 (2007).                       %
     %   K. Berland et al., Rep. Prog. Phys. 78, 066501 (2015).             %
     %   D.C. Langreth et al., J. Phys.: Condens. Matter 21, 084203 (2009). %
     %                                                                      %
     %                                                                      %
     % If you are calculating the stress with vdW-DF, please also cite:     %
     %                                                                      %
     %   R. Sabatini et al., J. Phys.: Condens. Matter 24, 424209 (2012).   %
     %                                                                      %
     %%%%%%%%%%%%%%%%%%%%%%%%%%%%%%%%%%%%%%%%%%%%%%%%%%%%%%%%%%%%%%%%%%%%%%%%

     Adding external electric field

     Computed dipole along edir(3) :
        Dipole               -7.0538 Ry au,        -17.9290 Debye
        Dipole field         -0.0133 Ry au,

        Potential amp.        1.2340 Ry
        Total length         46.3494 bohr

     Starting wfcs are  298 atomic wfcs
  @ DRIVER MODE: Message from server: STATUS
  @ DRIVER MODE: Message from server: POSDATA
  @ DRIVER MODE: Reading and sharing cell
  @ DRIVER MODE: Reading and sharing positions
  @ DRIVER MODE: Received positions

     Self-consistent Calculation

     iteration #  1     ecut=    29.40 Ry     beta= 0.05
     Davidson diagonalization with overlap
     c_bands:  1 eigenvalues not converged
     c_bands:  1 eigenvalues not converged
     c_bands:  1 eigenvalues not converged
     c_bands:  2 eigenvalues not converged
     ethr =  1.00E-05,  avg # of iterations = 18.0

[...]

     total energy              =   -2722.16086387 Ry
     estimated scf accuracy    <    2381.09519763 Ry

[...]

     iteration #  3     ecut=    29.40 Ry     beta= 0.05
     Davidson diagonalization with overlap
     ethr =  1.00E-02,  avg # of iterations = 15.4

[...]

     iteration # 44     ecut=    29.40 Ry     beta= 0.05
     Davidson diagonalization with overlap
     c_bands:  2 eigenvalues not converged
     ethr =  1.48E-07,  avg # of iterations =  9.0

[...]

     total energy              =   -2937.87539055 Ry
     estimated scf accuracy    <       0.00000017 Ry

     iteration # 71     ecut=    29.40 Ry     beta= 0.05
     Davidson diagonalization with overlap
     ethr =  4.35E-11,  avg # of iterations =  5.0

     negative rho (up, down):  1.680E-02 0.000E+00

     Adding external electric field

     Computed dipole along edir(3) :
        Dipole                0.3903 Ry au,          0.9919 Debye
        Dipole field          0.0007 Ry au,

        Potential amp.       -0.0683 Ry
        Total length         46.3494 bohr

     End of self-consistent calculation

          k = 0.0000 0.0000 0.0000 ( 18029 PWs)   bands (ev):

   -56.6530 -56.6194 -55.8580 -55.8468 -55.8228 -55.8139 -55.7823 -55.7467
   -55.6052 -55.5599 -55.4647 -55.3998 -55.3534 -55.3194 -55.0558 -54.8066
   -33.0855 -32.9320 -32.9038 -32.8256 -32.7341 -32.7110 -32.3304 -32.3283
   -32.3217 -32.1429 -32.1135 -32.0717 -32.0709 -32.0551 -32.0535 -32.0326
   -31.9991 -31.9947 -31.9927 -31.9878 -31.9708 -31.9617 -31.9601 -31.9475
   -31.9461 -31.9418 -31.9190 -31.9163 -31.8379 -31.7480 -31.7447 -31.7125
   -31.6896 -31.6656 -31.6649 -31.6400 -31.6235 -31.5898 -31.5678 -31.5662
   -31.4821 -31.4782 -31.3711 -31.3163 -31.2678 -31.1548 -31.0460 -30.9547
   -17.9666 -16.8475 -16.5029 -16.2724 -16.0343 -16.0317 -15.9299 -15.9127
   -15.9021 -15.7905 -15.7348 -15.7107 -15.6264 -15.6111 -15.4536 -15.3734
   -15.3554 -15.3373 -15.2186 -15.1641 -15.1495 -15.1050 -15.0767 -15.0086
   -14.8651 -14.8273 -14.7545 -14.6876 -14.5558 -14.3261 -13.8526 -13.7417
   -12.1542  -6.5674  -4.5375  -4.4031  -4.3758  -3.9834  -3.7854  -3.6668
    -3.5576  -3.5314  -3.5037  -3.2912  -3.2556  -3.2198  -3.1832  -3.1287
    -3.0834  -2.9426  -2.9092  -2.8624  -2.8474  -2.8428  -2.8167  -2.7549
    -2.6523  -2.5233  -2.4974  -2.4817  -2.4544  -2.3748  -2.3571  -2.2858
    -2.2546  -2.2369  -2.2122  -2.1886  -2.0400  -2.0208  -1.9920  -1.9713
    -1.9127  -1.8692  -1.8592  -1.7387  -1.6643  -1.5724  -1.5442  -1.4200
    -1.4097  -1.3728  -1.2899  -1.2683  -1.1638  -1.1350  -1.0642  -1.0438
    -0.9841  -0.9583  -0.8423  -0.8262  -0.7940  -0.7816  -0.6624  -0.6499
    -0.6187  -0.5508  -0.5420  -0.4894  -0.3786  -0.3576  -0.3311  -0.2901
    -0.2653  -0.2173  -0.1555  -0.1431  -0.0925  -0.0532   0.0241   0.1356
     0.1397   0.2249   0.2980   0.3241   0.4218   0.4653   0.5323   0.5968
     0.6236   0.6680   0.6885   0.7147   0.8028   0.9001   0.9056   0.9752
     1.2220   1.2615   1.4535   1.8855   2.2640   2.6123   2.7626   3.0661
     3.1998   3.3042   3.5707   3.6031   3.6035   3.6551   3.7431

[...]

          k = 0.0380-0.0419 0.0000 ( 17876 PWs)   bands (ev):

[...]

          k =-0.0760-0.0000 0.0000 ( 17886 PWs)   bands (ev):

[...]

          k =-0.0760-0.0839 0.0000 ( 17948 PWs)   bands (ev):

   -56.6366 -56.6357 -55.8433 -55.8362 -55.8315 -55.8302 -55.7659 -55.7629
   -55.5969 -55.5681 -55.4596 -55.4047 -55.3364 -55.3363 -55.0546 -54.8077
   -32.9183 -32.9171 -32.9024 -32.9018 -32.7786 -32.7778 -32.1601 -32.1577
   -32.1469 -32.1397 -32.1393 -32.1368 -32.0717 -32.0704 -32.0421 -32.0413
   -32.0328 -32.0306 -32.0274 -32.0242 -32.0208 -32.0175 -31.9700 -31.9647
   -31.9380 -31.9212 -31.8810 -31.8612 -31.7974 -31.7911 -31.7703 -31.7437
   -31.6952 -31.6786 -31.6785 -31.6460 -31.6345 -31.5899 -31.5634 -31.5632
   -31.5243 -31.5243 -31.4013 -31.3084 -31.2690 -31.1749 -31.0679 -31.0070
   -17.9569 -16.1995 -16.1959 -16.1590 -16.1585 -15.9496 -15.9450 -15.9038
   -15.8983 -15.7635 -15.7574 -15.5328 -15.5322 -15.5145 -15.4999 -15.4156
   -15.4041 -15.3846 -15.3729 -15.3432 -15.3278 -15.2130 -15.1967 -15.1549
   -15.1135 -14.8326 -14.7638 -14.7050 -14.5837 -14.4725 -13.8451 -13.8450
   -12.1606  -6.5567  -4.5258  -4.3329  -3.3266  -3.3230  -3.2539  -3.2467
    -3.2111  -3.1937  -3.1893  -3.0214  -3.0202  -3.0198  -3.0173  -2.8416
    -2.8404  -2.8222  -2.8065  -2.6988  -2.6833  -2.6662  -2.6480  -2.5942
    -2.5746  -2.5339  -2.5297  -2.5200  -2.4993  -2.4726  -2.4173  -2.4140
    -2.3552  -2.3306  -2.2294  -2.1896  -2.1875  -2.1609  -2.1271  -2.0434
    -2.0082  -1.8571  -1.8496  -1.7853  -1.7846  -1.6800  -1.6242  -1.5918
    -1.5267  -1.4964  -1.4866  -1.4033  -1.3505  -1.3388  -1.2604  -1.2476
    -1.2256  -1.1148  -1.0916  -1.0316  -0.9568  -0.9190  -0.8670  -0.8604
    -0.8424  -0.8298  -0.7966  -0.7392  -0.6691  -0.6366  -0.5831  -0.5458
    -0.5139  -0.4495  -0.3854  -0.3223  -0.2263  -0.1770  -0.1706  -0.1152
    -0.1020   0.0820   0.0912   0.1689   0.3342   0.4111   0.5004   0.5209
     0.5870   0.7234   0.7432   0.7558   0.7898   0.9780   1.0240   1.0727
     1.0731   1.0755   1.0965   1.8412   2.1177   3.1755   3.1763   3.2400
     3.2407   3.5626   3.5665   3.6723   3.6774   3.6950   3.6997

     the Fermi energy is     2.4887 ev

!    total energy              =   -2937.87541033 Ry
     estimated scf accuracy    <       0.00000007 Ry
     smearing contrib. (-TS)   =      -0.00671082 Ry
     internal energy E=F+TS    =   -2937.86869951 Ry

     The total energy is F=E-TS. E is the sum of the following terms:
     one-electron contribution =  -24389.59174587 Ry
     hartree contribution      =   12281.81955233 Ry
     xc contribution           =    -484.38004337 Ry
     ewald contribution        =    9654.28324999 Ry
     electric field correction =       0.00028741 Ry

     convergence has been achieved in  71 iterations

     Forces acting on atoms (cartesian axes, Ry/au):

     atom    1 type  1   force =    -0.00000751   -0.00038479    0.12106505
     atom    2 type  1   force =    -0.00005969   -0.00058842   -0.16248483
     atom    3 type  2   force =     0.00018924   -0.00020832   -0.06352449
     atom    4 type  2   force =    -0.00005778   -0.00047208    0.03035869
     atom    5 type  2   force =    -0.01676531    0.00082527   -0.00764339
     atom    6 type  2   force =     0.01809356    0.00144324   -0.00864825
     atom    7 type  1   force =     0.00080495   -0.00399901    0.01564139
     atom    8 type  1   force =    -0.00025523    0.00469453    0.10609566
     atom    9 type  2   force =    -0.00027557   -0.00003685    0.00033915
     atom   10 type  2   force =    -0.00274877    0.00065059   -0.06158204
     atom   11 type  2   force =     0.00052390    0.00022068   -0.00019074
     atom   12 type  2   force =    -0.00021410    0.00014772   -0.00029112
     atom   13 type  1   force =     0.00030948   -0.00008424    0.00066252
     atom   14 type  1   force =    -0.00003463    0.00049012    0.00057825
     atom   15 type  2   force =    -0.00003401    0.00024294   -0.00028356
     atom   16 type  2   force =     0.00007884   -0.00019760   -0.00078732
     atom   17 type  2   force =     0.00024133    0.00010237    0.00002926
     atom   18 type  2   force =     0.00018562    0.00002652   -0.00011021
     atom   19 type  1   force =     0.00025581   -0.00020680    0.00019664
     atom   20 type  1   force =     0.00022112   -0.00004093    0.00012211
     atom   21 type  2   force =     0.00005479    0.00005504    0.10009768
     atom   22 type  2   force =     0.00000044    0.00013000   -0.00057086
     atom   23 type  2   force =    -0.07810732    0.00003602   -0.03199467
     atom   24 type  2   force =     0.07797711    0.00045473   -0.03199585
     atom   25 type  1   force =     0.00008425   -0.00039394    0.12064403
     atom   26 type  1   force =    -0.00010402   -0.00035174   -0.16262513
     atom   27 type  2   force =     0.00029544   -0.00046163   -0.06259628
     atom   28 type  2   force =    -0.00002844   -0.00027576    0.03021664
     atom   29 type  2   force =    -0.01725538    0.00115917   -0.00756335
     atom   30 type  2   force =     0.01853841    0.00141889   -0.00853643
     atom   31 type  1   force =     0.00073172   -0.00087756    0.01510900
     atom   32 type  1   force =    -0.00023378   -0.00734261    0.10685097
     atom   33 type  2   force =     0.00011358    0.00048099    0.00039058
     atom   34 type  2   force =    -0.00268011   -0.00007190   -0.07498038
     atom   35 type  2   force =     0.00063876   -0.00004973   -0.00005453
     atom   36 type  2   force =    -0.00046626    0.00022788   -0.00015942
     atom   37 type  1   force =    -0.00015471    0.00061826    0.00079169
     atom   38 type  1   force =    -0.00020268    0.00051581    0.00059037
     atom   39 type  2   force =    -0.00021702    0.00004035   -0.00013194
     atom   40 type  2   force =     0.00015221    0.00003221   -0.00028996
     atom   41 type  2   force =    -0.00028082   -0.00041164    0.00044195
     atom   42 type  2   force =     0.00088754    0.00005827   -0.00075468
     atom   43 type  1   force =    -0.00027364   -0.00051121    0.00016717
     atom   44 type  1   force =     0.00027652   -0.00050619    0.00062574
     atom   45 type  2   force =     0.00004731    0.00004359    0.10011689
     atom   46 type  2   force =    -0.07810198    0.00008972   -0.03195937
     atom   47 type  2   force =     0.07798056    0.00053417   -0.03197425
     atom   48 type  3   force =    -0.00931929   -0.00147454   -0.01098140
     atom   49 type  4   force =     0.00464256   -0.00103126    0.00594956
     atom   50 type  5   force =     0.00125652    0.00094104    0.00058547
     atom   51 type  5   force =    -0.00069215    0.00019846    0.00132828
     atom   52 type  3   force =     0.00398864    0.00410015    0.00371968

     Total force =     0.418168     Total SCF correction =     0.000954
  @ DRIVER MODE: Message from server: STATUS
  @ DRIVER MODE: Message from server: GETFORCE
  @ DRIVER MODE: Returning v,forces,stress,ensemble

     Writing output data file ./calc.save/
  @ DRIVER MODE: Message from server: EXIT
  @ DRIVE MODE: Exiting

     General routines

     Parallel routines

   This run was terminated on:  14: 8:46  23Aug2021

   JOB DONE.