     Program PWSCF v.6.7GPU starts on 22Sep2021 at 19:23:42

     R & G space division:  proc/nbgrp/npool/nimage =      10
     Reading input from /storage/home/hcoda1/3/ntian30/research/carbon/CxH_vib/H2O_calc/ads_slab/CH3NHHH2O_a/out_0011/pw.inp
Warning: card &CELL ignored
Warning: card   CELL_DYNAMICS='IPI', ignored
Warning: card / ignored

     Current dimensions of program PWSCF are:
     Max number of different atomic species (ntypx) = 10
     Max number of k-points (npk) =  40000
     Max angular momentum in pseudopotentials (lmaxx) =  3
     Presently no symmetry can be used with electric field

     Message from routine cell_base_init:
     DEPRECATED: use true lattice parameter, not A to a.u. conversion factor

     IMPORTANT: XC functional enforced from input :
     Exchange-correlation= BEEF-VDW
                           (   1   4  43  14   2   0   0)
     Any further DFT definition will be discarded
     Please, verify this is what you really want

  @ DRIVER MODE: Connecting to
 qe_1139763_2937309.sched-torque.pace.gatech.eduz0ahx4ks_scratch
  using UNIX socket
  @ DRIVER MODE: Message from server: STATUS
  @ DRIVER MODE: Message from server: INIT
  @ DRIVER MODE: Receiving replica           0          -1
  @ DRIVER MODE: Receiving encoded integer          25
  @ DRIVER MODE:  SCF:  T  FORCE:  T  STRESS:  F  VC:  F  ENSEMBLE:  F
  @ DRIVER MODE:  SCF:  T  FORCE:  T  STRESS:  F  VC:  F  ENSEMBLE:  F

     Using Slab Decomposition

     bravais-lattice index     =            0
     lattice parameter (alat)  =       1.8897  a.u.
     unit-cell volume          =    6658.9804 (a.u.)^3
     number of atoms/cell      =           57
     number of atomic types    =            5
     number of electrons       =       400.00
     number of Kohn-Sham states=          210
     kinetic-energy cutoff     =      29.3995  Ry
     charge density cutoff     =     293.9946  Ry
     scf convergence threshold =      7.3E-08
     mixing beta               =       0.0500
     number of iterations used =            8  plain     mixing
     Exchange-correlation= BEEF-VDW
                           (   1   4  43  14   2   0   0)

     celldm(1)=   1.889726  celldm(2)=   0.000000  celldm(3)=   0.000000
     celldm(4)=   0.000000  celldm(5)=   0.000000  celldm(6)=   0.000000

     crystal axes: (cart. coord. in units of alat)
               a(1) = (   6.579727   0.000000   0.000000 )
               a(2) = (  -0.000775   5.961596   0.000000 )
               a(3) = (   0.000000   0.000000  25.155947 )

     reciprocal axes: (cart. coord. in units 2 pi/alat)
               b(1) = (  0.151982  0.000020  0.000000 )
               b(2) = (  0.000000  0.167740  0.000000 )
               b(3) = (  0.000000  0.000000  0.039752 )

     PseudoPot. # 1 for Ti read from file:
     /storage/coda1/p-amedford6/0/shared/rich_project_chbe-medford/medford-share/data/pseudos_module/espresso/nninc/pbe/van/Ti.UPF
     MD5 check sum: 8e4df49b7f0d34bbd5052bf3f5ea0213
     Pseudo is Ultrasoft, Zval = 12.0
     Generated by new atomic code, or converted to UPF format
     Using radial grid of  851 points,  6 beta functions with:
                l(1) =   0
                l(2) =   0
                l(3) =   1
                l(4) =   1
                l(5) =   2
                l(6) =   2
     Q(r) pseudized with  8 coefficients,  rinner =    1.000   1.000   1.000
                                                       1.000   1.000

     PseudoPot. # 2 for O  read from file:
     /storage/coda1/p-amedford6/0/shared/rich_project_chbe-medford/medford-share/data/pseudos_module/espresso/nninc/pbe/van/O.UPF
     MD5 check sum: 78c19812648e8988a0fe644b0f25305e
     Pseudo is Ultrasoft, Zval =  6.0
     Generated by new atomic code, or converted to UPF format
     Using radial grid of  737 points,  4 beta functions with:
                l(1) =   0
                l(2) =   0
                l(3) =   1
                l(4) =   1
     Q(r) pseudized with  8 coefficients,  rinner =    0.800   0.800   0.800

     PseudoPot. # 3 for N  read from file:
     /storage/coda1/p-amedford6/0/shared/rich_project_chbe-medford/medford-share/data/pseudos_module/espresso/nninc/pbe/van/N.UPF
     MD5 check sum: 90d10febe142ad51ac9d5be1deb811c4
     Pseudo is Ultrasoft, Zval =  5.0
     Generated by new atomic code, or converted to UPF format
     Using radial grid of  729 points,  4 beta functions with:
                l(1) =   0
                l(2) =   0
                l(3) =   1
                l(4) =   1
     Q(r) pseudized with  8 coefficients,  rinner =    0.800   0.800   0.800

     PseudoPot. # 4 for C  read from file:
     /storage/coda1/p-amedford6/0/shared/rich_project_chbe-medford/medford-share/data/pseudos_module/espresso/nninc/pbe/van/C.UPF
     MD5 check sum: 1a69bf6b8db32088f5b2163dbdb77a27
     Pseudo is Ultrasoft, Zval =  4.0
     Generated by new atomic code, or converted to UPF format
     Using radial grid of  721 points,  4 beta functions with:
                l(1) =   0
                l(2) =   0
                l(3) =   1
                l(4) =   1
     Q(r) pseudized with  8 coefficients,  rinner =    0.800   0.800   0.800

     PseudoPot. # 5 for H  read from file:
     /storage/coda1/p-amedford6/0/shared/rich_project_chbe-medford/medford-share/data/pseudos_module/espresso/nninc/pbe/van/H.UPF
     MD5 check sum: b5ee9d7bfd3a09ee7748110bda690ff7
     Pseudo is Ultrasoft, Zval =  1.0
     Generated by new atomic code, or converted to UPF format
     Using radial grid of  615 points,  1 beta functions with:
                l(1) =   0
     Q(r) pseudized with  8 coefficients,  rinner =    0.800

     atomic species   valence    mass     pseudopotential
        Ti1           12.00    47.86700     Ti( 1.00)
        O1             6.00    15.99900     O ( 1.00)
        N1             5.00    14.00700     N ( 1.00)
        C1             4.00    12.01100     C ( 1.00)
        H1             1.00     1.00800     H ( 1.00)

     No symmetry found

   Cartesian axes

     site n.     atom                  positions (alat units)
         1           Ti1 tau(   1) = (   0.0004258   2.9801865   6.0000000  )
         2           Ti1 tau(   2) = (   3.2906075   1.4906267   6.0002472  )
         3           O1  tau(   3) = (   0.0006271   0.0005054   7.9858123  )
         4           O1  tau(   4) = (   3.2906025   0.0005020   7.3038282  )
         5           O1  tau(   5) = (   4.5942328   1.4918067   9.2879030  )
         6           O1  tau(   6) = (   1.9868534   1.4903216   9.2879459  )
         7           Ti1 tau(   7) = (   3.2907910   2.8959150   9.1758416  )
         8           Ti1 tau(   8) = (   0.0015273   1.4827037   9.2680791  )
         9           O1  tau(   9) = (   3.2912042   0.0294118  11.3810798  )
        10           O1  tau(  10) = (   0.0116148   5.9584955  10.6183126  )
        11           O1  tau(  11) = (   1.2906363   1.5151137  12.6946382  )
        12           O1  tau(  12) = (   5.2977377   1.5118052  12.6897239  )
        13           Ti1 tau(  13) = (   0.0154927   3.0055723  12.5114375  )
        14           Ti1 tau(  14) = (   3.3120461   1.5076926  12.5412499  )
        15           O1  tau(  15) = (   0.0087391   5.9056098  14.6936070  )
        16           O1  tau(  16) = (   3.3000944   0.0090435  14.0218108  )
        17           O1  tau(  17) = (   4.5606481   1.5918460  16.0876707  )
        18           O1  tau(  18) = (   2.0070218   1.5857768  16.0794533  )
        19           Ti1 tau(  19) = (   3.2835068   3.0412122  15.7371975  )
        20           Ti1 tau(  20) = (   0.0166266   1.3536260  15.8406240  )
        21           O1  tau(  21) = (   3.2904802   0.0005063   4.7018136  )
        22           O1  tau(  22) = (   6.5628702   0.1917167  17.2472498  )
        23           O1  tau(  23) = (   1.3043587   1.4918075   6.0039043  )
        24           O1  tau(  24) = (   5.2767064   1.4903225   6.0039473  )
        25           Ti1 tau(  25) = (   0.0000382   5.9609847   6.0000000  )
        26           Ti1 tau(  26) = (   3.2902200   4.4714249   6.0002472  )
        27           O1  tau(  27) = (   0.0002396   2.9813036   7.9858123  )
        28           O1  tau(  28) = (   3.2902150   2.9813002   7.3038282  )
        29           O1  tau(  29) = (   4.5938453   4.4726049   9.2879030  )
        30           O1  tau(  30) = (   1.9864658   4.4711199   9.2879459  )
        31           Ti1 tau(  31) = (   3.2891106   5.8743827   9.1763621  )
        32           Ti1 tau(  32) = (   0.0006254   4.4649316   9.2693709  )
        33           O1  tau(  33) = (   3.2975917   2.9887808  11.3748511  )
        34           O1  tau(  34) = (   0.0092240   2.9805883  10.6323155  )
        35           O1  tau(  35) = (   1.2927870   4.4849180  12.6503915  )
        36           O1  tau(  36) = (   5.2959677   4.4879952  12.6460094  )
        37           Ti1 tau(  37) = (   0.0189062   0.0134437  12.4995343  )
        38           Ti1 tau(  38) = (   3.3131396   4.4925875  12.5257625  )
        39           O1  tau(  39) = (   6.5658147   3.0796170  14.9398047  )
        40           O1  tau(  40) = (   3.2912769   3.0351834  13.9531456  )
        41           O1  tau(  41) = (   4.5372935   4.5058929  16.2491503  )
        42           O1  tau(  42) = (   2.0060561   4.4992570  16.2466123  )
        43           Ti1 tau(  43) = (   3.3106529   0.0781036  15.8389635  )
        44           Ti1 tau(  44) = (   0.0259428   4.5566345  16.0434284  )
        45           O1  tau(  45) = (   3.2900926   2.9813045   4.7018136  )
        46           O1  tau(  46) = (   1.3039711   4.4726057   6.0039043  )
        47           O1  tau(  47) = (   5.2763189   4.4711207   6.0039473  )
        48           N1  tau(  48) = (   6.3514164   3.3085518  18.1544664  )
        49           C1  tau(  49) = (   0.8695967   3.1501053  19.1201808  )
        50           H1  tau(  50) = (   1.3785670   4.1052268  19.2416751  )
        51           H1  tau(  51) = (   0.5086663   2.8389580  20.1145987  )
        52           H1  tau(  52) = (   1.5779067   2.4119510  18.7640910  )
        53           H1  tau(  53) = (   5.7211048   4.0382881  18.4729098  )
        54           H1  tau(  54) = (   5.7931489   2.4557210  18.1309407  )
        55           O1  tau(  55) = (   3.2817172   0.3149129  18.3340421  )
        56           H1  tau(  56) = (   4.0380937   5.6864266  18.4726034  )
        57           H1  tau(  57) = (   2.4816286   5.7371253  18.4434621  )

     number of k points=    10  Fermi-Dirac smearing, width (Ry)=  0.0073
                       cart. coord. in units 2pi/alat
        k(    1) = (   0.0000000   0.0000000   0.0000000), wk =   0.1250000
        k(    2) = (   0.0000000   0.0419351   0.0000000), wk =   0.2500000
        k(    3) = (   0.0000000  -0.0838702   0.0000000), wk =   0.1250000
        k(    4) = (   0.0379955   0.0000049   0.0000000), wk =   0.2500000
        k(    5) = (   0.0379955   0.0419400   0.0000000), wk =   0.2500000
        k(    6) = (   0.0379955  -0.0838652   0.0000000), wk =   0.2500000
        k(    7) = (   0.0379955  -0.0419301   0.0000000), wk =   0.2500000
        k(    8) = (  -0.0759910  -0.0000099   0.0000000), wk =   0.1250000
        k(    9) = (  -0.0759910   0.0419252   0.0000000), wk =   0.2500000
        k(   10) = (  -0.0759910  -0.0838800   0.0000000), wk =   0.1250000

     Initial potential from superposition of free atoms

     starting charge  383.99913, renormalised to  400.00000

     negative rho (up, down):  1.555E-02 0.000E+00

     %%%%%%%%%%%%%%%%%%%%%%%%%%%%%%%%%%%%%%%%%%%%%%%%%%%%%%%%%%%%%%%%%%%%%%%%
     %                                                                      %
     % You are using vdW-DF, which was implemented by the Thonhauser group. %
     % Please cite the following two papers that made this development      %
     % possible and the two reviews that describe the various versions:     %
     %                                                                      %
     %   T. Thonhauser et al., PRL 115, 136402 (2015).                      %
     %   T. Thonhauser et al., PRB 76, 125112 (2007).                       %
     %   K. Berland et al., Rep. Prog. Phys. 78, 066501 (2015).             %
     %   D.C. Langreth et al., J. Phys.: Condens. Matter 21, 084203 (2009). %
     %                                                                      %
     %                                                                      %
     % If you are calculating the stress with vdW-DF, please also cite:     %
     %                                                                      %
     %   R. Sabatini et al., J. Phys.: Condens. Matter 24, 424209 (2012).   %
     %                                                                      %
     %%%%%%%%%%%%%%%%%%%%%%%%%%%%%%%%%%%%%%%%%%%%%%%%%%%%%%%%%%%%%%%%%%%%%%%%

     Adding external electric field

     Computed dipole along edir(3) :
        Dipole              -12.0826 Ry au,        -30.7109 Debye
        Dipole field         -0.0228 Ry au,

        Potential amp.        2.1137 Ry
        Total length         46.3494 bohr

     Starting wfcs are  303 atomic wfcs
  @ DRIVER MODE: Message from server: STATUS
  @ DRIVER MODE: Message from server: POSDATA
  @ DRIVER MODE: Reading and sharing cell
  @ DRIVER MODE: Reading and sharing positions
  @ DRIVER MODE: Received positions

     Self-consistent Calculation

     iteration #  1     ecut=    29.40 Ry     beta= 0.05
     Davidson diagonalization with overlap
     c_bands:  2 eigenvalues not converged
     c_bands:  2 eigenvalues not converged
     c_bands:  3 eigenvalues not converged
     c_bands:  4 eigenvalues not converged
     c_bands:  2 eigenvalues not converged
     c_bands:  1 eigenvalues not converged
     c_bands:  4 eigenvalues not converged
     c_bands:  4 eigenvalues not converged
     c_bands:  5 eigenvalues not converged
     ethr =  1.00E-05,  avg # of iterations = 22.0

[...]

     total energy              =   -2385.46075883 Ry
     estimated scf accuracy    <    6443.81324078 Ry

     iteration #  2     ecut=    29.40 Ry     beta= 0.05
     Davidson diagonalization with overlap
     ethr =  1.00E-02,  avg # of iterations = 25.4

[...]

     iteration # 59     ecut=    29.40 Ry     beta= 0.05
     Davidson diagonalization with overlap
     c_bands:  1 eigenvalues not converged
     ethr =  1.90E-11,  avg # of iterations = 13.3

[...]

     total energy              =   -2956.45467153 Ry
     estimated scf accuracy    <       0.00000009 Ry

     iteration # 61     ecut=    29.40 Ry     beta= 0.05
     Davidson diagonalization with overlap
     ethr =  1.90E-11,  avg # of iterations =  8.7

     negative rho (up, down):  1.588E-02 0.000E+00

     Adding external electric field

     Computed dipole along edir(3) :
        Dipole                1.3993 Ry au,          3.5567 Debye
        Dipole field          0.0026 Ry au,

        Potential amp.       -0.2448 Ry
        Total length         46.3494 bohr

     End of self-consistent calculation

          k = 0.0000 0.0000 0.0000 ( 18029 PWs)   bands (ev):

   -55.2183 -55.1810 -55.1753 -55.1495 -55.1412 -55.1210 -55.0996 -55.0646
   -55.0442 -55.0094 -55.0062 -54.9970 -54.9726 -54.9372 -54.2058 -54.1717
   -31.7817 -31.6918 -31.6678 -31.5883 -31.5330 -31.5279 -31.5194 -31.5117
   -31.4643 -31.4410 -31.4294 -31.4201 -31.4159 -31.4140 -31.3902 -31.3870
   -31.3647 -31.3635 -31.3562 -31.3407 -31.3279 -31.3203 -31.3048 -31.2958
   -31.2892 -31.2769 -31.2744 -31.2455 -31.2326 -31.2304 -31.2250 -31.2049
   -31.2022 -31.1944 -31.1903 -31.1734 -31.1574 -31.1431 -31.1355 -31.1343
   -31.1173 -31.1151 -30.6152 -30.5208 -30.4987 -30.4315 -30.3447 -30.2339
   -19.2352 -16.1874 -16.0317 -15.7798 -15.6380 -15.5424 -15.4223 -15.3068
   -15.2422 -15.1283 -15.0701 -14.9350 -14.9195 -14.9076 -14.8830 -14.8496
   -14.8110 -14.7632 -14.7619 -14.7382 -14.7178 -14.7091 -14.6673 -14.6599
   -14.6203 -14.5989 -14.5981 -14.4626 -14.3813 -14.3110 -14.1260 -12.7082
   -12.5908 -10.2628  -7.0293  -6.2949  -4.8407  -3.9482  -3.4051  -3.3448
    -3.2402  -3.1505  -3.1273  -3.1159  -2.9789  -2.8852  -2.7495  -2.6684
    -2.6368  -2.5007  -2.4273  -2.4160  -2.3833  -2.2681  -2.2159  -2.1893
    -2.1562  -2.0851  -2.0367  -2.0262  -2.0083  -1.9776  -1.9624  -1.9282
    -1.8746  -1.7895  -1.7577  -1.6555  -1.6177  -1.5873  -1.5781  -1.5535
    -1.5358  -1.5118  -1.5054  -1.4449  -1.4414  -1.4117  -1.3649  -1.2507
    -1.0878  -1.0249  -0.9526  -0.8606  -0.8126  -0.7991  -0.7279  -0.7162
    -0.7056  -0.6019  -0.5604  -0.5514  -0.4592  -0.4279  -0.3896  -0.3170
    -0.2454  -0.2177  -0.2046  -0.0890  -0.0240  -0.0061   0.0136   0.0210
     0.1105   0.1835   0.2311   0.2828   0.3237   0.3309   0.3973   0.4288
     0.4966   0.5485   0.5665   0.6537   0.6987   0.7112   0.7174   0.7506
     0.7626   0.8243   0.8607   0.8850   0.9716   1.0868   1.2390   1.3806
     1.3887   1.7217   1.7225   1.8171   2.0009   2.3934   2.4417   3.8748
     3.9474   4.0066   4.0201   4.0255   4.1107   4.3571   4.3793   4.3850
     4.3951   4.4236

[...]

          k = 0.0380-0.0419 0.0000 ( 17876 PWs)   bands (ev):

[...]

          k =-0.0760-0.0000 0.0000 ( 17886 PWs)   bands (ev):

[...]

          k =-0.0760-0.0839 0.0000 ( 17948 PWs)   bands (ev):

   -55.2047 -55.1944 -55.1583 -55.1581 -55.1477 -55.1188 -55.0854 -55.0788
   -55.0295 -55.0236 -54.9992 -54.9897 -54.9892 -54.9386 -54.1889 -54.1884
   -31.6104 -31.5905 -31.5817 -31.4830 -31.4829 -31.4792 -31.4717 -31.4496
   -31.4495 -31.4301 -31.4222 -31.4155 -31.4081 -31.3935 -31.3761 -31.3612
   -31.3586 -31.3561 -31.3542 -31.3521 -31.3448 -31.3423 -31.3251 -31.3191
   -31.2985 -31.2981 -31.2796 -31.2781 -31.2778 -31.2759 -31.2710 -31.2627
   -31.2552 -31.2424 -31.2367 -31.2223 -31.2192 -31.2015 -31.1747 -31.1703
   -31.1694 -31.1487 -30.5115 -30.5112 -30.4279 -30.4275 -30.3883 -30.3880
   -19.2344 -16.1481 -15.6009 -15.4869 -15.3610 -15.2513 -15.2305 -15.1840
   -15.1352 -15.0850 -15.0330 -15.0045 -14.9836 -14.9747 -14.9320 -14.9215
   -14.9023 -14.8368 -14.8213 -14.8102 -14.7863 -14.7390 -14.7307 -14.7230
   -14.7190 -14.6731 -14.6691 -14.6212 -14.5777 -14.5739 -14.3946 -12.6923
   -12.6922 -10.2646  -7.0566  -6.2274  -4.8385  -3.9661  -3.2433  -2.9829
    -2.7523  -2.7003  -2.6119  -2.4684  -2.4245  -2.3795  -2.3486  -2.2869
    -2.2363  -2.2213  -2.2095  -2.1331  -2.1064  -2.0983  -2.0654  -2.0537
    -2.0436  -2.0054  -1.9846  -1.9594  -1.9510  -1.9402  -1.9376  -1.9277
    -1.8683  -1.8564  -1.8468  -1.8429  -1.7843  -1.7728  -1.7581  -1.7440
    -1.5996  -1.5813  -1.4304  -1.4270  -1.4045  -1.3515  -1.3401  -1.2987
    -1.2566  -1.2471  -1.2201  -0.9764  -0.9674  -0.9639  -0.9295  -0.8988
    -0.8612  -0.7993  -0.7699  -0.7004  -0.6923  -0.5763  -0.5600  -0.4424
    -0.4363  -0.4238  -0.3334  -0.2918  -0.2422  -0.2026  -0.1872  -0.1770
    -0.1602  -0.1238  -0.1215  -0.0241   0.0120   0.0428   0.0562   0.0957
     0.2726   0.3013   0.3168   0.4609   0.4685   0.6279   0.6787   0.7069
     0.7974   0.8575   0.8922   0.9360   1.0718   1.0851   1.1026   1.1572
     1.1804   1.2297   1.2428   2.1732   2.1746   2.2616   2.2617   4.0200
     4.1291   4.1383   4.1961   4.3074   4.3160   4.3899   4.4210   4.4587
     4.4623   4.5268

     the Fermi energy is     3.9370 ev

!    total energy              =   -2956.45471233 Ry
     estimated scf accuracy    <       0.00000007 Ry
     smearing contrib. (-TS)   =      -0.03685496 Ry
     internal energy E=F+TS    =   -2956.41785737 Ry

     The total energy is F=E-TS. E is the sum of the following terms:
     one-electron contribution =  -23695.43557090 Ry
     hartree contribution      =   11943.19270212 Ry
     xc contribution           =    -490.61414603 Ry
     ewald contribution        =    9286.43546228 Ry
     electric field correction =       0.00369515 Ry

     convergence has been achieved in  61 iterations

     Forces acting on atoms (cartesian axes, Ry/au):

     atom    1 type  1   force =    -0.00000582   -0.00026098    0.09335225
     atom    2 type  1   force =    -0.00007285   -0.00035349   -0.17815246
     atom    3 type  2   force =     0.00004537   -0.00030701   -0.02033810
     atom    4 type  2   force =    -0.00003402   -0.00185106    0.05914142
     atom    5 type  2   force =    -0.01021747   -0.00060626    0.00752455
     atom    6 type  2   force =     0.01174420    0.00022195    0.00685489
     atom    7 type  1   force =    -0.00030884    0.00188115   -0.01237754
     atom    8 type  1   force =     0.00016772    0.00083859   -0.00450882
     atom    9 type  2   force =     0.00038571   -0.00015678   -0.00080697
     atom   10 type  2   force =    -0.00141794    0.00414727   -0.00108434
     atom   11 type  2   force =    -0.00087393   -0.00030435    0.00019251
     atom   12 type  2   force =     0.00088582   -0.00005822    0.00005355
     atom   13 type  1   force =    -0.00012959   -0.00022599    0.00011385
     atom   14 type  1   force =    -0.00004390   -0.00010142    0.00003964
     atom   15 type  2   force =    -0.00066709    0.00000241   -0.00007913
     atom   16 type  2   force =    -0.00010670    0.00022851   -0.00040688
     atom   17 type  2   force =     0.00029811   -0.00071034   -0.00000194
     atom   18 type  2   force =     0.00077961   -0.00063230   -0.00029519
     atom   19 type  1   force =    -0.00079753    0.00014297    0.00146897
     atom   20 type  1   force =     0.00075277   -0.00079131    0.00027475
     atom   21 type  2   force =     0.00002070   -0.00010908    0.10396484
     atom   22 type  2   force =     0.00007561   -0.00063917    0.00039577
     atom   23 type  2   force =    -0.07040015   -0.00020819   -0.02692531
     atom   24 type  2   force =     0.07023675    0.00023092   -0.02698037
     atom   25 type  1   force =    -0.00005322   -0.00021477    0.09286164
     atom   26 type  1   force =    -0.00019998   -0.00053535   -0.17841090
     atom   27 type  2   force =     0.00007226   -0.00013754   -0.01931595
     atom   28 type  2   force =     0.00005462   -0.00157255    0.05815174
     atom   29 type  2   force =    -0.01091785   -0.00007016    0.00844464
     atom   30 type  2   force =     0.01232378    0.00011698    0.00772865
     atom   31 type  1   force =    -0.00029800    0.00669464   -0.01504365
     atom   32 type  1   force =     0.00010938   -0.00074117   -0.00470944
     atom   33 type  2   force =    -0.00022073    0.00035042   -0.00052149
     atom   34 type  2   force =    -0.00111143   -0.00023205   -0.00039433
     atom   35 type  2   force =    -0.00020226   -0.00011963   -0.00015744
     atom   36 type  2   force =     0.00028217   -0.00036672   -0.00025641
     atom   37 type  1   force =     0.00023796   -0.00019152    0.00021576
     atom   38 type  1   force =    -0.00011766    0.00068008    0.00064527
     atom   39 type  2   force =     0.00014009   -0.00113130    0.00101960
     atom   40 type  2   force =     0.00026391    0.00099808   -0.00061238
     atom   41 type  2   force =    -0.00023294    0.00020419   -0.00026247
     atom   42 type  2   force =     0.00114009    0.00016576   -0.00049237
     atom   43 type  1   force =    -0.00114326    0.00002820    0.00038439
     atom   44 type  1   force =     0.00025600   -0.00116204    0.00090016
     atom   45 type  2   force =     0.00001380   -0.00011261    0.10392465
     atom   46 type  2   force =    -0.07037337   -0.00012516   -0.02689671
     atom   47 type  2   force =     0.07022903    0.00028627   -0.02696438
     atom   48 type  3   force =    -0.00230976    0.00024127   -0.00527829
     atom   49 type  4   force =    -0.00192365    0.00075322    0.01865775
     atom   50 type  5   force =    -0.00052884   -0.00159566   -0.00168531
     atom   51 type  5   force =     0.00296889    0.00159021   -0.00923911
     atom   52 type  5   force =     0.00217240   -0.00231236   -0.00357427
     atom   53 type  5   force =     0.00040442    0.00013676   -0.00049036
     atom   54 type  5   force =     0.00005587   -0.00012178   -0.00091089
     atom   55 type  2   force =     0.00034250   -0.00080767    0.00056032
     atom   56 type  5   force =    -0.00077921   -0.00014835    0.00018377
     atom   57 type  5   force =    -0.00097159   -0.00092551    0.00011786

     Total force =     0.366939     Total SCF correction =     0.000521
  @ DRIVER MODE: Message from server: STATUS
  @ DRIVER MODE: Message from server: GETFORCE
  @ DRIVER MODE: Returning v,forces,stress,ensemble

     Writing output data file ./calc.save/
  @ DRIVER MODE: Message from server: EXIT
  @ DRIVE MODE: Exiting

     General routines

     Parallel routines

   This run was terminated on:  19:41: 8  22Sep2021

   JOB DONE.