     Program PWSCF v.6.7GPU starts on  9Sep2021 at 10:35:33

     R & G space division:  proc/nbgrp/npool/nimage =      10
     Reading input from /storage/home/hcoda1/3/ntian30/research/carbon/CxH_vib/CH2_calc/ads_slab/CH2NNHH_a/out_0038/pw.inp
Warning: card &CELL ignored
Warning: card   CELL_DYNAMICS='IPI', ignored
Warning: card / ignored

     Current dimensions of program PWSCF are:
     Max number of different atomic species (ntypx) = 10
     Max number of k-points (npk) =  40000
     Max angular momentum in pseudopotentials (lmaxx) =  3
     Presently no symmetry can be used with electric field

     Message from routine cell_base_init:
     DEPRECATED: use true lattice parameter, not A to a.u. conversion factor

     IMPORTANT: XC functional enforced from input :
     Exchange-correlation= BEEF-VDW
                           (   1   4  43  14   2   0   0)
     Any further DFT definition will be discarded
     Please, verify this is what you really want

  @ DRIVER MODE: Connecting to
 qe_1139763_2767391.sched-torque.pace.gatech.edupnwu5hh4_scratch
  using UNIX socket
  @ DRIVER MODE: Message from server: STATUS
  @ DRIVER MODE: Message from server: INIT
  @ DRIVER MODE: Receiving replica           0          -1
  @ DRIVER MODE: Receiving encoded integer          25
  @ DRIVER MODE:  SCF:  T  FORCE:  T  STRESS:  F  VC:  F  ENSEMBLE:  F
  @ DRIVER MODE:  SCF:  T  FORCE:  T  STRESS:  F  VC:  F  ENSEMBLE:  F

     Using Slab Decomposition

     bravais-lattice index     =            0
     lattice parameter (alat)  =       1.8897  a.u.
     unit-cell volume          =    6658.9804 (a.u.)^3
     number of atoms/cell      =           54
     number of atomic types    =            5
     number of electrons       =       396.00
     number of Kohn-Sham states=          208
     kinetic-energy cutoff     =      29.3995  Ry
     charge density cutoff     =     293.9946  Ry
     scf convergence threshold =      7.3E-08
     mixing beta               =       0.0500
     number of iterations used =            8  plain     mixing
     Exchange-correlation= BEEF-VDW
                           (   1   4  43  14   2   0   0)

     celldm(1)=   1.889726  celldm(2)=   0.000000  celldm(3)=   0.000000
     celldm(4)=   0.000000  celldm(5)=   0.000000  celldm(6)=   0.000000

     crystal axes: (cart. coord. in units of alat)
               a(1) = (   6.579727   0.000000   0.000000 )
               a(2) = (  -0.000775   5.961596   0.000000 )
               a(3) = (   0.000000   0.000000  25.155947 )

     reciprocal axes: (cart. coord. in units 2 pi/alat)
               b(1) = (  0.151982  0.000020  0.000000 )
               b(2) = (  0.000000  0.167740  0.000000 )
               b(3) = (  0.000000  0.000000  0.039752 )

     PseudoPot. # 1 for Ti read from file:
     /storage/coda1/p-amedford6/0/shared/rich_project_chbe-medford/medford-share/data/pseudos_module/espresso/nninc/pbe/van/Ti.UPF
     MD5 check sum: 8e4df49b7f0d34bbd5052bf3f5ea0213
     Pseudo is Ultrasoft, Zval = 12.0
     Generated by new atomic code, or converted to UPF format
     Using radial grid of  851 points,  6 beta functions with:
                l(1) =   0
                l(2) =   0
                l(3) =   1
                l(4) =   1
                l(5) =   2
                l(6) =   2
     Q(r) pseudized with  8 coefficients,  rinner =    1.000   1.000   1.000
                                                       1.000   1.000

     PseudoPot. # 2 for O  read from file:
     /storage/coda1/p-amedford6/0/shared/rich_project_chbe-medford/medford-share/data/pseudos_module/espresso/nninc/pbe/van/O.UPF
     MD5 check sum: 78c19812648e8988a0fe644b0f25305e
     Pseudo is Ultrasoft, Zval =  6.0
     Generated by new atomic code, or converted to UPF format
     Using radial grid of  737 points,  4 beta functions with:
                l(1) =   0
                l(2) =   0
                l(3) =   1
                l(4) =   1
     Q(r) pseudized with  8 coefficients,  rinner =    0.800   0.800   0.800

     PseudoPot. # 3 for N  read from file:
     /storage/coda1/p-amedford6/0/shared/rich_project_chbe-medford/medford-share/data/pseudos_module/espresso/nninc/pbe/van/N.UPF
     MD5 check sum: 90d10febe142ad51ac9d5be1deb811c4
     Pseudo is Ultrasoft, Zval =  5.0
     Generated by new atomic code, or converted to UPF format
     Using radial grid of  729 points,  4 beta functions with:
                l(1) =   0
                l(2) =   0
                l(3) =   1
                l(4) =   1
     Q(r) pseudized with  8 coefficients,  rinner =    0.800   0.800   0.800

     PseudoPot. # 4 for C  read from file:
     /storage/coda1/p-amedford6/0/shared/rich_project_chbe-medford/medford-share/data/pseudos_module/espresso/nninc/pbe/van/C.UPF
     MD5 check sum: 1a69bf6b8db32088f5b2163dbdb77a27
     Pseudo is Ultrasoft, Zval =  4.0
     Generated by new atomic code, or converted to UPF format
     Using radial grid of  721 points,  4 beta functions with:
                l(1) =   0
                l(2) =   0
                l(3) =   1
                l(4) =   1
     Q(r) pseudized with  8 coefficients,  rinner =    0.800   0.800   0.800

     PseudoPot. # 5 for H  read from file:
     /storage/coda1/p-amedford6/0/shared/rich_project_chbe-medford/medford-share/data/pseudos_module/espresso/nninc/pbe/van/H.UPF
     MD5 check sum: b5ee9d7bfd3a09ee7748110bda690ff7
     Pseudo is Ultrasoft, Zval =  1.0
     Generated by new atomic code, or converted to UPF format
     Using radial grid of  615 points,  1 beta functions with:
                l(1) =   0
     Q(r) pseudized with  8 coefficients,  rinner =    0.800

     atomic species   valence    mass     pseudopotential
        Ti1           12.00    47.86700     Ti( 1.00)
        O1             6.00    15.99900     O ( 1.00)
        N1             5.00    14.00700     N ( 1.00)
        C1             4.00    12.01100     C ( 1.00)
        H1             1.00     1.00800     H ( 1.00)

     No symmetry found

   Cartesian axes

     site n.     atom                  positions (alat units)
         1           Ti1 tau(   1) = (   0.0004258   2.9801865   6.0000000  )
         2           Ti1 tau(   2) = (   3.2906075   1.4906267   6.0002472  )
         3           O1  tau(   3) = (   0.0006271   0.0005054   7.9858123  )
         4           O1  tau(   4) = (   3.2906025   0.0005020   7.3038282  )
         5           O1  tau(   5) = (   4.5942328   1.4918067   9.2879030  )
         6           O1  tau(   6) = (   1.9868534   1.4903216   9.2879459  )
         7           Ti1 tau(   7) = (   3.2907910   2.8959150   9.1758416  )
         8           Ti1 tau(   8) = (   0.0015273   1.4827037   9.2680791  )
         9           O1  tau(   9) = (   3.2741875   5.9357071  11.3735532  )
        10           O1  tau(  10) = (   0.0116148   5.9584955  10.6183126  )
        11           O1  tau(  11) = (   1.2759687   1.4857368  12.6615302  )
        12           O1  tau(  12) = (   5.2764777   1.4850508  12.6403612  )
        13           Ti1 tau(  13) = (   6.5724762   2.9646551  12.5117882  )
        14           Ti1 tau(  14) = (   3.2886223   1.4652571  12.5194246  )
        15           O1  tau(  15) = (   6.5416971   0.0664024  14.6986244  )
        16           O1  tau(  16) = (   3.2828258   5.9593040  13.9967703  )
        17           O1  tau(  17) = (   4.5136565   1.4796660  16.2299008  )
        18           O1  tau(  18) = (   2.0038615   1.4742267  16.2123189  )
        19           Ti1 tau(  19) = (   3.2480181   2.9445974  15.7466143  )
        20           Ti1 tau(  20) = (   6.5118905   1.3801257  16.1190456  )
        21           O1  tau(  21) = (   3.2904802   0.0005063   4.7018136  )
        22           O1  tau(  22) = (   6.5538845   5.8109167  17.2256470  )
        23           O1  tau(  23) = (   1.3043587   1.4918075   6.0039043  )
        24           O1  tau(  24) = (   5.2767064   1.4903225   6.0039473  )
        25           Ti1 tau(  25) = (   0.0000382   5.9609847   6.0000000  )
        26           Ti1 tau(  26) = (   3.2902200   4.4714249   6.0002472  )
        27           O1  tau(  27) = (   0.0002396   2.9813036   7.9858123  )
        28           O1  tau(  28) = (   3.2902150   2.9813002   7.3038282  )
        29           O1  tau(  29) = (   4.5938453   4.4726049   9.2879030  )
        30           O1  tau(  30) = (   1.9864658   4.4711199   9.2879459  )
        31           Ti1 tau(  31) = (   3.2891106   5.8743827   9.1763621  )
        32           Ti1 tau(  32) = (   0.0006254   4.4649316   9.2693709  )
        33           O1  tau(  33) = (   3.2754078   2.9701464  11.3677572  )
        34           O1  tau(  34) = (   0.0092240   2.9805883  10.6323155  )
        35           O1  tau(  35) = (   1.2711598   4.4556272  12.7031535  )
        36           O1  tau(  36) = (   5.2783420   4.4558858  12.6781970  )
        37           Ti1 tau(  37) = (   0.0002938   5.9583472  12.5066983  )
        38           Ti1 tau(  38) = (   3.2916940   4.4447674  12.5292973  )
        39           O1  tau(  39) = (   6.5347695   2.9176514  14.9891124  )
        40           O1  tau(  40) = (   3.2818703   2.9467213  13.9608579  )
        41           O1  tau(  41) = (   4.5039121   4.4250859  16.1805084  )
        42           O1  tau(  42) = (   2.0002864   4.4376668  16.1101511  )
        43           Ti1 tau(  43) = (   3.2613398   5.9375382  15.7939200  )
        44           Ti1 tau(  44) = (   0.0097882   4.6113729  15.8292928  )
        45           O1  tau(  45) = (   3.2900926   2.9813045   4.7018136  )
        46           O1  tau(  46) = (   1.3039711   4.4726057   6.0039043  )
        47           O1  tau(  47) = (   5.2763189   4.4711207   6.0039473  )
        48           N1  tau(  48) = (   6.5527080   2.6566917  18.2311642  )
        49           C1  tau(  49) = (   0.9950107   2.5313988  18.9921798  )
        50           H1  tau(  50) = (   0.9966315   2.9146593  20.0110098  )
        51           H1  tau(  51) = (   1.8622571   2.0164067  18.6108951  )
        52           N1  tau(  52) = (   5.4094651   3.2293427  18.7544413  )
        53           H1  tau(  53) = (   5.6216840   3.8708726  19.5154782  )
        54           H1  tau(  54) = (   4.9268071   3.7283298  18.0160565  )

     number of k points=    10  Fermi-Dirac smearing, width (Ry)=  0.0073
                       cart. coord. in units 2pi/alat
        k(    1) = (   0.0000000   0.0000000   0.0000000), wk =   0.1250000
        k(    2) = (   0.0000000   0.0419351   0.0000000), wk =   0.2500000
        k(    3) = (   0.0000000  -0.0838702   0.0000000), wk =   0.1250000
        k(    4) = (   0.0379955   0.0000049   0.0000000), wk =   0.2500000
        k(    5) = (   0.0379955   0.0419400   0.0000000), wk =   0.2500000
        k(    6) = (   0.0379955  -0.0838652   0.0000000), wk =   0.2500000
        k(    7) = (   0.0379955  -0.0419301   0.0000000), wk =   0.2500000
        k(    8) = (  -0.0759910  -0.0000099   0.0000000), wk =   0.1250000
        k(    9) = (  -0.0759910   0.0419252   0.0000000), wk =   0.2500000
        k(   10) = (  -0.0759910  -0.0838800   0.0000000), wk =   0.1250000

     Initial potential from superposition of free atoms

     starting charge  379.99915, renormalised to  396.00000

     negative rho (up, down):  1.580E-02 0.000E+00

     %%%%%%%%%%%%%%%%%%%%%%%%%%%%%%%%%%%%%%%%%%%%%%%%%%%%%%%%%%%%%%%%%%%%%%%%
     %                                                                      %
     % You are using vdW-DF, which was implemented by the Thonhauser group. %
     % Please cite the following two papers that made this development      %
     % possible and the two reviews that describe the various versions:     %
     %                                                                      %
     %   T. Thonhauser et al., PRL 115, 136402 (2015).                      %
     %   T. Thonhauser et al., PRB 76, 125112 (2007).                       %
     %   K. Berland et al., Rep. Prog. Phys. 78, 066501 (2015).             %
     %   D.C. Langreth et al., J. Phys.: Condens. Matter 21, 084203 (2009). %
     %                                                                      %
     %                                                                      %
     % If you are calculating the stress with vdW-DF, please also cite:     %
     %                                                                      %
     %   R. Sabatini et al., J. Phys.: Condens. Matter 24, 424209 (2012).   %
     %                                                                      %
     %%%%%%%%%%%%%%%%%%%%%%%%%%%%%%%%%%%%%%%%%%%%%%%%%%%%%%%%%%%%%%%%%%%%%%%%

     Adding external electric field

     Computed dipole along edir(3) :
        Dipole               -9.9798 Ry au,        -25.3661 Debye
        Dipole field         -0.0188 Ry au,

        Potential amp.        1.7458 Ry
        Total length         46.3494 bohr

     Starting wfcs are  300 atomic wfcs
  @ DRIVER MODE: Message from server: STATUS
  @ DRIVER MODE: Message from server: POSDATA
  @ DRIVER MODE: Reading and sharing cell
  @ DRIVER MODE: Reading and sharing positions
  @ DRIVER MODE: Received positions

     Self-consistent Calculation

     iteration #  1     ecut=    29.40 Ry     beta= 0.05
     Davidson diagonalization with overlap
     c_bands:  1 eigenvalues not converged
     c_bands:  2 eigenvalues not converged
     c_bands:  2 eigenvalues not converged
     c_bands:  1 eigenvalues not converged
     c_bands:  3 eigenvalues not converged
     c_bands:  2 eigenvalues not converged
     c_bands:  3 eigenvalues not converged
     c_bands:  2 eigenvalues not converged
     c_bands:  1 eigenvalues not converged
     c_bands:  1 eigenvalues not converged
     ethr =  1.00E-05,  avg # of iterations = 20.0

[...]

     total energy              =   -2515.79131157 Ry
     estimated scf accuracy    <    4741.01754450 Ry

     iteration #  2     ecut=    29.40 Ry     beta= 0.05
     Davidson diagonalization with overlap
     ethr =  1.00E-02,  avg # of iterations = 24.0

[...]

     iteration # 68     ecut=    29.40 Ry     beta= 0.05
     Davidson diagonalization with overlap
     c_bands:  2 eigenvalues not converged
     c_bands:  2 eigenvalues not converged
     ethr =  2.38E-11,  avg # of iterations = 15.3

[...]

     total energy              =   -2940.36662719 Ry
     estimated scf accuracy    <       0.00000018 Ry

     iteration # 69     ecut=    29.40 Ry     beta= 0.05
     Davidson diagonalization with overlap
     ethr =  2.38E-11,  avg # of iterations =  6.7

     negative rho (up, down):  1.644E-02 0.000E+00

     Adding external electric field

     Computed dipole along edir(3) :
        Dipole                1.2662 Ry au,          3.2184 Debye
        Dipole field          0.0024 Ry au,

        Potential amp.       -0.2215 Ry
        Total length         46.3494 bohr

     End of self-consistent calculation

          k = 0.0000 0.0000 0.0000 ( 18029 PWs)   bands (ev):

   -55.4173 -55.3806 -55.3693 -55.3351 -55.2964 -55.2927 -55.2869 -55.2619
   -55.2352 -55.2187 -55.2008 -55.2005 -55.1670 -55.0502 -54.3970 -54.3630
   -31.9863 -31.8617 -31.8188 -31.7846 -31.7306 -31.7248 -31.7199 -31.7061
   -31.6583 -31.6507 -31.6274 -31.6262 -31.6142 -31.5874 -31.5723 -31.5673
   -31.5548 -31.5540 -31.5328 -31.5272 -31.5216 -31.5116 -31.4831 -31.4738
   -31.4659 -31.4632 -31.4376 -31.4273 -31.4263 -31.4204 -31.4180 -31.3992
   -31.3983 -31.3929 -31.3857 -31.3832 -31.3492 -31.3358 -31.3289 -31.3119
   -31.2716 -31.2146 -30.8064 -30.7123 -30.6902 -30.6227 -30.5359 -30.4251
   -18.6035 -16.2488 -15.9801 -15.8375 -15.7133 -15.6144 -15.4897 -15.4677
   -15.3402 -15.2553 -15.1418 -15.0968 -15.0860 -15.0828 -15.0498 -15.0230
   -14.9587 -14.9542 -14.9364 -14.9102 -14.8994 -14.8563 -14.8532 -14.8118
   -14.7913 -14.7886 -14.6627 -14.5739 -14.5036 -14.1811 -13.6870 -12.8995
   -12.7821  -8.7526  -6.4983  -6.0579  -4.0055  -3.5898  -3.4338  -3.3765
    -3.3357  -3.3091  -3.1990  -3.1621  -3.0223  -2.8257  -2.7771  -2.6868
    -2.6246  -2.6162  -2.5971  -2.4164  -2.4088  -2.3522  -2.3017  -2.2601
    -2.2381  -2.2236  -2.2045  -2.1793  -2.1686  -2.1584  -1.9855  -1.9700
    -1.8984  -1.8249  -1.8148  -1.7645  -1.7437  -1.7132  -1.7050  -1.6970
    -1.6517  -1.6316  -1.6020  -1.5543  -1.4284  -1.3370  -1.3068  -1.2259
    -1.1003  -1.0526  -1.0005  -0.9972  -0.9044  -0.8998  -0.8798  -0.7947
    -0.7613  -0.7123  -0.6393  -0.5709  -0.5140  -0.4556  -0.4084  -0.3981
    -0.3433  -0.2264  -0.2005  -0.1818  -0.1602  -0.0386  -0.0204   0.0199
     0.0943   0.1244   0.1252   0.2420   0.2674   0.3259   0.3308   0.4065
     0.4678   0.5123   0.5210   0.5398   0.5692   0.5723   0.6465   0.6601
     0.6904   0.7604   0.8201   0.9186   1.1479   1.1846   1.1976   1.5306
     1.5325   1.6258   1.8096   2.2016   2.2497   3.6818   3.7519   3.8264
     3.8327   3.8512   3.9193   4.1560   4.1741   4.1822   4.1876   4.2306

[...]

          k = 0.0380-0.0419 0.0000 ( 17876 PWs)   bands (ev):

[...]

          k =-0.0760-0.0000 0.0000 ( 17886 PWs)   bands (ev):

[...]

          k =-0.0760-0.0839 0.0000 ( 17948 PWs)   bands (ev):

   -55.4025 -55.3951 -55.3522 -55.3521 -55.2875 -55.2865 -55.2808 -55.2774
   -55.2228 -55.2195 -55.2159 -55.1843 -55.1835 -55.0514 -54.3799 -54.3799
   -31.7926 -31.7872 -31.7459 -31.6932 -31.6795 -31.6768 -31.6767 -31.6437
   -31.6435 -31.6273 -31.6183 -31.6136 -31.6090 -31.5623 -31.5550 -31.5527
   -31.5505 -31.5486 -31.5431 -31.5378 -31.5227 -31.5099 -31.4932 -31.4928
   -31.4887 -31.4744 -31.4729 -31.4718 -31.4716 -31.4696 -31.4528 -31.4488
   -31.4427 -31.4326 -31.4293 -31.4145 -31.4133 -31.4097 -31.3647 -31.3645
   -31.2929 -31.2752 -30.7029 -30.7029 -30.6189 -30.6188 -30.5793 -30.5793
   -18.6011 -15.7111 -15.6779 -15.6206 -15.4404 -15.4127 -15.4058 -15.3868
   -15.2564 -15.2397 -15.2090 -15.1795 -15.1482 -15.1235 -15.1193 -15.1016
   -15.0315 -15.0206 -15.0125 -14.9949 -14.9297 -14.9257 -14.9169 -14.9121
   -14.8652 -14.8625 -14.7672 -14.7656 -14.6654 -14.5502 -13.6927 -12.8836
   -12.8836  -8.7344  -6.4725  -6.0725  -4.0125  -3.2601  -2.9441  -2.8775
    -2.8491  -2.6522  -2.6284  -2.5858  -2.5305  -2.4504  -2.4244  -2.4176
    -2.4088  -2.3374  -2.3263  -2.2766  -2.2675  -2.2485  -2.2331  -2.2225
    -2.1930  -2.1671  -2.1433  -2.1343  -2.1230  -2.0691  -2.0586  -2.0413
    -2.0108  -1.9911  -1.9819  -1.9652  -1.8657  -1.7814  -1.7519  -1.7248
    -1.6208  -1.6164  -1.5367  -1.5207  -1.4897  -1.4481  -1.4351  -1.4150
    -1.2326  -1.2050  -1.1714  -1.1589  -1.1504  -1.0111  -0.9974  -0.9416
    -0.9006  -0.8943  -0.7853  -0.7615  -0.7363  -0.6605  -0.6243  -0.5906
    -0.5395  -0.4339  -0.4160  -0.4052  -0.3723  -0.3682  -0.3121  -0.3001
    -0.2249  -0.1828  -0.1500  -0.1361  -0.0931   0.0952   0.1183   0.1330
     0.2765   0.3315   0.4254   0.5257   0.5360   0.5912   0.6299   0.6964
     0.7574   0.8117   0.8688   0.8920   0.8935   0.9722   0.9898   1.0433
     1.0452   1.9827   1.9834   2.0696   2.0699   3.8245   3.9329   3.9443
     3.9848   4.0658   4.1253   4.1982   4.2267   4.2655   4.2681   4.3346

     the Fermi energy is     3.7438 ev

!    total energy              =   -2940.36665320 Ry
     estimated scf accuracy    <       0.00000003 Ry
     smearing contrib. (-TS)   =      -0.03728642 Ry
     internal energy E=F+TS    =   -2940.32936678 Ry

     The total energy is F=E-TS. E is the sum of the following terms:
     one-electron contribution =  -23759.10465481 Ry
     hartree contribution      =   11970.89625542 Ry
     xc contribution           =    -486.12069520 Ry
     ewald contribution        =    9333.99670222 Ry
     electric field correction =       0.00302560 Ry

     convergence has been achieved in  69 iterations

     Forces acting on atoms (cartesian axes, Ry/au):

     atom    1 type  1   force =     0.00006268   -0.00013419    0.09330575
     atom    2 type  1   force =    -0.00005146   -0.00025767   -0.17804262
     atom    3 type  2   force =     0.00002269   -0.00015859   -0.02024513
     atom    4 type  2   force =     0.00001122   -0.00195911    0.05850743
     atom    5 type  2   force =    -0.01066109   -0.00127324    0.00870527
     atom    6 type  2   force =     0.01175783   -0.00061880    0.00682894
     atom    7 type  1   force =    -0.00091703    0.00298373   -0.01443549
     atom    8 type  1   force =     0.00063712   -0.00048248   -0.00372777
     atom    9 type  2   force =     0.00014441    0.00010581    0.00009403
     atom   10 type  2   force =    -0.00209516   -0.00122334    0.00062669
     atom   11 type  2   force =     0.00008517    0.00022005   -0.00012377
     atom   12 type  2   force =     0.00056750    0.00029076   -0.00006969
     atom   13 type  1   force =    -0.00014300    0.00029728    0.00008706
     atom   14 type  1   force =     0.00013383    0.00046638   -0.00039007
     atom   15 type  2   force =     0.00002714    0.00044453   -0.00005922
     atom   16 type  2   force =     0.00041375    0.00017584   -0.00035053
     atom   17 type  2   force =     0.00028179   -0.00037353   -0.00041411
     atom   18 type  2   force =     0.00015693   -0.00053368    0.00009609
     atom   19 type  1   force =    -0.00081678    0.00001761    0.00039915
     atom   20 type  1   force =     0.00018984   -0.00003237   -0.00027504
     atom   21 type  2   force =     0.00009642    0.00000284    0.10392205
     atom   22 type  2   force =    -0.00021502    0.00003720    0.00029147
     atom   23 type  2   force =    -0.07041042   -0.00012256   -0.02689618
     atom   24 type  2   force =     0.07034348    0.00033408   -0.02693361
     atom   25 type  1   force =     0.00008270   -0.00022790    0.09285994
     atom   26 type  1   force =    -0.00005167   -0.00034227   -0.17803999
     atom   27 type  2   force =     0.00011069   -0.00036380   -0.01930853
     atom   28 type  2   force =     0.00004269   -0.00165174    0.05792994
     atom   29 type  2   force =    -0.01064395   -0.00128034    0.00803164
     atom   30 type  2   force =     0.01164805   -0.00088747    0.00609064
     atom   31 type  1   force =    -0.00090181    0.00490159   -0.01542261
     atom   32 type  1   force =     0.00083676    0.00018105   -0.00393255
     atom   33 type  2   force =     0.00010316    0.00046330    0.00022113
     atom   34 type  2   force =    -0.00177118    0.00109869    0.00069283
     atom   35 type  2   force =     0.00032013    0.00006249    0.00007585
     atom   36 type  2   force =     0.00025915   -0.00024918    0.00018345
     atom   37 type  1   force =    -0.00035728    0.00002092   -0.00009962
     atom   38 type  1   force =    -0.00023383    0.00049855   -0.00015022
     atom   39 type  2   force =     0.00049575   -0.00072630   -0.00004379
     atom   40 type  2   force =    -0.00015963    0.00006806   -0.00004543
     atom   41 type  2   force =     0.00019775   -0.00005617   -0.00030015
     atom   42 type  2   force =     0.00015079    0.00010922   -0.00004719
     atom   43 type  1   force =    -0.00016718   -0.00020990    0.00017294
     atom   44 type  1   force =     0.00011941    0.00010782   -0.00037405
     atom   45 type  2   force =     0.00010654   -0.00003395    0.10389758
     atom   46 type  2   force =    -0.07042235   -0.00005516   -0.02689596
     atom   47 type  2   force =     0.07037589    0.00037036   -0.02690375
     atom   48 type  3   force =     0.00063441   -0.00060714    0.00009509
     atom   49 type  4   force =     0.00111043   -0.00058746   -0.00004847
     atom   50 type  5   force =     0.00052483   -0.00017396    0.00045517
     atom   51 type  5   force =    -0.00030918   -0.00003714   -0.00036192
     atom   52 type  3   force =     0.00397029   -0.00218920    0.00416451
     atom   53 type  5   force =    -0.00013757   -0.00034715    0.00119374
     atom   54 type  5   force =    -0.00555561    0.00393760   -0.00499089

     Total force =     0.366026     Total SCF correction =     0.000461
  @ DRIVER MODE: Message from server: STATUS
  @ DRIVER MODE: Message from server: GETFORCE
  @ DRIVER MODE: Returning v,forces,stress,ensemble

     Writing output data file ./calc.save/
  @ DRIVER MODE: Message from server: EXIT
  @ DRIVE MODE: Exiting

     General routines

     Parallel routines

   This run was terminated on:  10:55:24   9Sep2021

   JOB DONE.