     Program PWSCF v.6.7GPU starts on 23Sep2021 at 17:22:17

     R & G space division:  proc/nbgrp/npool/nimage =       8
     Reading input from /storage/home/hcoda1/3/ntian30/research/carbon/CxH_vib/H2O_calc/ads_slab/CH2N2HO_b/out_0017/pw.inp
Warning: card &CELL ignored
Warning: card   CELL_DYNAMICS='IPI', ignored
Warning: card / ignored

     Current dimensions of program PWSCF are:
     Max number of different atomic species (ntypx) = 10
     Max number of k-points (npk) =  40000
     Max angular momentum in pseudopotentials (lmaxx) =  3
     Presently no symmetry can be used with electric field

     Message from routine cell_base_init:
     DEPRECATED: use true lattice parameter, not A to a.u. conversion factor

     IMPORTANT: XC functional enforced from input :
     Exchange-correlation= BEEF-VDW
                           (   1   4  43  14   2   0   0)
     Any further DFT definition will be discarded
     Please, verify this is what you really want

  @ DRIVER MODE: Connecting to
 qe_1139763_2947312.sched-torque.pace.gatech.edu08bae_9y_scratch
  using UNIX socket
  @ DRIVER MODE: Message from server: STATUS
  @ DRIVER MODE: Message from server: INIT
  @ DRIVER MODE: Receiving replica           0          -1
  @ DRIVER MODE: Receiving encoded integer          25
  @ DRIVER MODE:  SCF:  T  FORCE:  T  STRESS:  F  VC:  F  ENSEMBLE:  F
  @ DRIVER MODE:  SCF:  T  FORCE:  T  STRESS:  F  VC:  F  ENSEMBLE:  F

     Using Slab Decomposition

     bravais-lattice index     =            0
     lattice parameter (alat)  =       1.8897  a.u.
     unit-cell volume          =    6658.9804 (a.u.)^3
     number of atoms/cell      =           54
     number of atomic types    =            5
     number of electrons       =       401.00
     number of Kohn-Sham states=          210
     kinetic-energy cutoff     =      29.3995  Ry
     charge density cutoff     =     293.9946  Ry
     scf convergence threshold =      7.3E-08
     mixing beta               =       0.0500
     number of iterations used =            8  plain     mixing
     Exchange-correlation= BEEF-VDW
                           (   1   4  43  14   2   0   0)

     celldm(1)=   1.889726  celldm(2)=   0.000000  celldm(3)=   0.000000
     celldm(4)=   0.000000  celldm(5)=   0.000000  celldm(6)=   0.000000

     crystal axes: (cart. coord. in units of alat)
               a(1) = (   6.579727   0.000000   0.000000 )
               a(2) = (  -0.000775   5.961596   0.000000 )
               a(3) = (   0.000000   0.000000  25.155947 )

     reciprocal axes: (cart. coord. in units 2 pi/alat)
               b(1) = (  0.151982  0.000020  0.000000 )
               b(2) = (  0.000000  0.167740  0.000000 )
               b(3) = (  0.000000  0.000000  0.039752 )

     PseudoPot. # 1 for Ti read from file:
     /storage/coda1/p-amedford6/0/shared/rich_project_chbe-medford/medford-share/data/pseudos_module/espresso/nninc/pbe/van/Ti.UPF
     MD5 check sum: 8e4df49b7f0d34bbd5052bf3f5ea0213
     Pseudo is Ultrasoft, Zval = 12.0
     Generated by new atomic code, or converted to UPF format
     Using radial grid of  851 points,  6 beta functions with:
                l(1) =   0
                l(2) =   0
                l(3) =   1
                l(4) =   1
                l(5) =   2
                l(6) =   2
     Q(r) pseudized with  8 coefficients,  rinner =    1.000   1.000   1.000
                                                       1.000   1.000

     PseudoPot. # 2 for O  read from file:
     /storage/coda1/p-amedford6/0/shared/rich_project_chbe-medford/medford-share/data/pseudos_module/espresso/nninc/pbe/van/O.UPF
     MD5 check sum: 78c19812648e8988a0fe644b0f25305e
     Pseudo is Ultrasoft, Zval =  6.0
     Generated by new atomic code, or converted to UPF format
     Using radial grid of  737 points,  4 beta functions with:
                l(1) =   0
                l(2) =   0
                l(3) =   1
                l(4) =   1
     Q(r) pseudized with  8 coefficients,  rinner =    0.800   0.800   0.800

     PseudoPot. # 3 for N  read from file:
     /storage/coda1/p-amedford6/0/shared/rich_project_chbe-medford/medford-share/data/pseudos_module/espresso/nninc/pbe/van/N.UPF
     MD5 check sum: 90d10febe142ad51ac9d5be1deb811c4
     Pseudo is Ultrasoft, Zval =  5.0
     Generated by new atomic code, or converted to UPF format
     Using radial grid of  729 points,  4 beta functions with:
                l(1) =   0
                l(2) =   0
                l(3) =   1
                l(4) =   1
     Q(r) pseudized with  8 coefficients,  rinner =    0.800   0.800   0.800

     PseudoPot. # 4 for C  read from file:
     /storage/coda1/p-amedford6/0/shared/rich_project_chbe-medford/medford-share/data/pseudos_module/espresso/nninc/pbe/van/C.UPF
     MD5 check sum: 1a69bf6b8db32088f5b2163dbdb77a27
     Pseudo is Ultrasoft, Zval =  4.0
     Generated by new atomic code, or converted to UPF format
     Using radial grid of  721 points,  4 beta functions with:
                l(1) =   0
                l(2) =   0
                l(3) =   1
                l(4) =   1
     Q(r) pseudized with  8 coefficients,  rinner =    0.800   0.800   0.800

     PseudoPot. # 5 for H  read from file:
     /storage/coda1/p-amedford6/0/shared/rich_project_chbe-medford/medford-share/data/pseudos_module/espresso/nninc/pbe/van/H.UPF
     MD5 check sum: b5ee9d7bfd3a09ee7748110bda690ff7
     Pseudo is Ultrasoft, Zval =  1.0
     Generated by new atomic code, or converted to UPF format
     Using radial grid of  615 points,  1 beta functions with:
                l(1) =   0
     Q(r) pseudized with  8 coefficients,  rinner =    0.800

     atomic species   valence    mass     pseudopotential
        Ti1           12.00    47.86700     Ti( 1.00)
        O1             6.00    15.99900     O ( 1.00)
        N1             5.00    14.00700     N ( 1.00)
        C1             4.00    12.01100     C ( 1.00)
        H1             1.00     1.00800     H ( 1.00)

     No symmetry found

   Cartesian axes

     site n.     atom                  positions (alat units)
         1           Ti1 tau(   1) = (   0.0004258   2.9801865   6.0000000  )
         2           Ti1 tau(   2) = (   3.2906075   1.4906267   6.0002472  )
         3           O1  tau(   3) = (   0.0006271   0.0005054   7.9858123  )
         4           O1  tau(   4) = (   3.2906025   0.0005020   7.3038282  )
         5           O1  tau(   5) = (   4.5942328   1.4918067   9.2879030  )
         6           O1  tau(   6) = (   1.9868534   1.4903216   9.2879459  )
         7           Ti1 tau(   7) = (   3.2907910   2.8959150   9.1758416  )
         8           Ti1 tau(   8) = (   0.0015273   1.4827037   9.2680791  )
         9           O1  tau(   9) = (   3.2935892   5.9488104  11.3374186  )
        10           O1  tau(  10) = (   0.0116148   5.9584955  10.6183126  )
        11           O1  tau(  11) = (   1.2908913   1.5070562  12.6495475  )
        12           O1  tau(  12) = (   5.3136790   1.4931969  12.6373367  )
        13           Ti1 tau(  13) = (   0.0127878   2.8868139  12.6015941  )
        14           Ti1 tau(  14) = (   3.2987545   1.3040885  12.7026746  )
        15           O1  tau(  15) = (   0.0175227   0.0240941  14.6538407  )
        16           O1  tau(  16) = (   3.3064676   0.0741613  13.9771881  )
        17           O1  tau(  17) = (   4.5827780   1.5498142  16.1449436  )
        18           O1  tau(  18) = (   2.0366442   1.5898792  16.0867183  )
        19           Ti1 tau(  19) = (   3.3102262   3.0030951  15.6784192  )
        20           Ti1 tau(  20) = (   0.0574396   1.3488835  16.0050117  )
        21           O1  tau(  21) = (   3.2904802   0.0005063   4.7018136  )
        22           O1  tau(  22) = (   0.0721820   0.0083530  17.1768217  )
        23           O1  tau(  23) = (   1.3043587   1.4918075   6.0039043  )
        24           O1  tau(  24) = (   5.2767064   1.4903225   6.0039473  )
        25           Ti1 tau(  25) = (   0.0000382   5.9609847   6.0000000  )
        26           Ti1 tau(  26) = (   3.2902200   4.4714249   6.0002472  )
        27           O1  tau(  27) = (   0.0002396   2.9813036   7.9858123  )
        28           O1  tau(  28) = (   3.2902150   2.9813002   7.3038282  )
        29           O1  tau(  29) = (   4.5938453   4.4726049   9.2879030  )
        30           O1  tau(  30) = (   1.9864658   4.4711199   9.2879459  )
        31           Ti1 tau(  31) = (   3.2891106   5.8743827   9.1763621  )
        32           Ti1 tau(  32) = (   0.0006254   4.4649316   9.2693709  )
        33           O1  tau(  33) = (   3.2934580   3.0155445  11.2926531  )
        34           O1  tau(  34) = (   0.0092240   2.9805883  10.6323155  )
        35           O1  tau(  35) = (   1.2931599   4.4792858  12.6478595  )
        36           O1  tau(  36) = (   5.3056662   4.4876152  12.6363886  )
        37           Ti1 tau(  37) = (   6.5746511   5.8741161  12.5153022  )
        38           Ti1 tau(  38) = (   3.2863760   4.3878630  12.4273393  )
        39           O1  tau(  39) = (   6.5684735   3.0099032  14.7382625  )
        40           O1  tau(  40) = (   3.3273571   2.9915841  13.8999870  )
        41           O1  tau(  41) = (   4.5754576   4.4629145  16.1269992  )
        42           O1  tau(  42) = (   2.0375947   4.4358961  16.0236521  )
        43           Ti1 tau(  43) = (   3.3857405   0.0156461  16.2930207  )
        44           Ti1 tau(  44) = (   0.0840152   4.5257857  15.8004899  )
        45           O1  tau(  45) = (   3.2900926   2.9813045   4.7018136  )
        46           O1  tau(  46) = (   1.3039711   4.4726057   6.0039043  )
        47           O1  tau(  47) = (   5.2763189   4.4711207   6.0039473  )
        48           N1  tau(  48) = (   6.4876325   3.2951735  18.6921505  )
        49           N1  tau(  49) = (   0.0139976   3.0420413  17.5569154  )
        50           C1  tau(  50) = (   6.3059459   3.6199554  19.8936174  )
        51           H1  tau(  51) = (   5.2963100   3.8231348  20.2372398  )
        52           H1  tau(  52) = (   0.5840524   3.7151184  20.5547593  )
        53           O1  tau(  53) = (   3.1058724   5.9363815  18.1230642  )
        54           H1  tau(  54) = (   2.1709728   0.0855973  18.3648350  )

     number of k points=    10  Fermi-Dirac smearing, width (Ry)=  0.0073
                       cart. coord. in units 2pi/alat
        k(    1) = (   0.0000000   0.0000000   0.0000000), wk =   0.1250000
        k(    2) = (   0.0000000   0.0419351   0.0000000), wk =   0.2500000
        k(    3) = (   0.0000000  -0.0838702   0.0000000), wk =   0.1250000
        k(    4) = (   0.0379955   0.0000049   0.0000000), wk =   0.2500000
        k(    5) = (   0.0379955   0.0419400   0.0000000), wk =   0.2500000
        k(    6) = (   0.0379955  -0.0838652   0.0000000), wk =   0.2500000
        k(    7) = (   0.0379955  -0.0419301   0.0000000), wk =   0.2500000
        k(    8) = (  -0.0759910  -0.0000099   0.0000000), wk =   0.1250000
        k(    9) = (  -0.0759910   0.0419252   0.0000000), wk =   0.2500000
        k(   10) = (  -0.0759910  -0.0838800   0.0000000), wk =   0.1250000

     Initial potential from superposition of free atoms

     starting charge  384.99916, renormalised to  401.00000

     negative rho (up, down):  1.408E-02 0.000E+00

     %%%%%%%%%%%%%%%%%%%%%%%%%%%%%%%%%%%%%%%%%%%%%%%%%%%%%%%%%%%%%%%%%%%%%%%%
     %                                                                      %
     % You are using vdW-DF, which was implemented by the Thonhauser group. %
     % Please cite the following two papers that made this development      %
     % possible and the two reviews that describe the various versions:     %
     %                                                                      %
     %   T. Thonhauser et al., PRL 115, 136402 (2015).                      %
     %   T. Thonhauser et al., PRB 76, 125112 (2007).                       %
     %   K. Berland et al., Rep. Prog. Phys. 78, 066501 (2015).             %
     %   D.C. Langreth et al., J. Phys.: Condens. Matter 21, 084203 (2009). %
     %                                                                      %
     %                                                                      %
     % If you are calculating the stress with vdW-DF, please also cite:     %
     %                                                                      %
     %   R. Sabatini et al., J. Phys.: Condens. Matter 24, 424209 (2012).   %
     %                                                                      %
     %%%%%%%%%%%%%%%%%%%%%%%%%%%%%%%%%%%%%%%%%%%%%%%%%%%%%%%%%%%%%%%%%%%%%%%%

     Adding external electric field

     Computed dipole along edir(3) :
        Dipole              -11.8174 Ry au,        -30.0369 Debye
        Dipole field         -0.0223 Ry au,

        Potential amp.        2.0673 Ry
        Total length         46.3494 bohr

     Starting wfcs are  303 atomic wfcs
  @ DRIVER MODE: Message from server: STATUS
  @ DRIVER MODE: Message from server: POSDATA
  @ DRIVER MODE: Reading and sharing cell
  @ DRIVER MODE: Reading and sharing positions
  @ DRIVER MODE: Received positions

     Self-consistent Calculation

     iteration #  1     ecut=    29.40 Ry     beta= 0.05
     Davidson diagonalization with overlap
     c_bands:  3 eigenvalues not converged
     c_bands:  4 eigenvalues not converged
     c_bands:  1 eigenvalues not converged
     c_bands:  4 eigenvalues not converged
     c_bands:  4 eigenvalues not converged
     c_bands:  1 eigenvalues not converged
     c_bands:  2 eigenvalues not converged
     ethr =  1.00E-05,  avg # of iterations = 22.9

[...]

     total energy              =   -2411.64114613 Ry
     estimated scf accuracy    <    6295.54751667 Ry

     iteration #  2     ecut=    29.40 Ry     beta= 0.05
     Davidson diagonalization with overlap
     ethr =  1.00E-02,  avg # of iterations = 23.1

[...]

     iteration # 53     ecut=    29.40 Ry     beta= 0.05
     Davidson diagonalization with overlap
     c_bands:  1 eigenvalues not converged
     ethr =  1.63E-06,  avg # of iterations = 11.7

[...]

     total energy              =   -2971.49134577 Ry
     estimated scf accuracy    <       0.00000009 Ry

     iteration # 76     ecut=    29.40 Ry     beta= 0.05
     Davidson diagonalization with overlap
     ethr =  2.30E-11,  avg # of iterations =  5.3

     negative rho (up, down):  1.460E-02 0.000E+00

     Adding external electric field

     Computed dipole along edir(3) :
        Dipole                1.0687 Ry au,          2.7163 Debye
        Dipole field          0.0020 Ry au,

        Potential amp.       -0.1869 Ry
        Total length         46.3494 bohr

     End of self-consistent calculation

          k = 0.0000 0.0000 0.0000 ( 18029 PWs)   bands (ev):

   -55.6909 -55.6569 -55.4755 -55.4714 -55.4416 -55.3322 -55.3143 -55.2804
   -55.2790 -55.2225 -55.1764 -55.0918 -55.0843 -54.9782 -54.5986 -54.5646
   -32.1647 -31.9861 -31.9842 -31.9281 -31.8435 -31.8155 -31.8095 -31.7892
   -31.7873 -31.7521 -31.7493 -31.7449 -31.7121 -31.6947 -31.6796 -31.6493
   -31.6447 -31.6101 -31.5831 -31.5760 -31.5735 -31.5498 -31.5407 -31.5367
   -31.4926 -31.4844 -31.4799 -31.4685 -31.4547 -31.4407 -31.4388 -31.4226
   -31.4214 -31.3646 -31.3608 -31.3586 -31.2910 -31.2795 -31.2549 -31.2275
   -31.2023 -31.1890 -31.0015 -30.9229 -30.9000 -30.8195 -30.7336 -30.6216
   -20.7529 -16.2512 -16.1702 -15.9644 -15.7873 -15.6352 -15.5828 -15.4431
   -15.3728 -15.2715 -15.1927 -15.0932 -15.0732 -15.0322 -14.9958 -14.9936
   -14.9644 -14.9332 -14.9331 -14.9087 -14.8936 -14.8453 -14.7866 -14.7681
   -14.7249 -14.7196 -14.6961 -14.6421 -14.6166 -14.5132 -14.2447 -14.2292
   -13.0963 -12.9812  -7.3936  -6.1005  -5.6735  -5.0657  -3.7603  -3.5786
    -3.5038  -3.3540  -3.2758  -3.1960  -3.0313  -2.9835  -2.9067  -2.7460
    -2.6604  -2.6323  -2.5818  -2.5265  -2.4612  -2.4348  -2.3936  -2.3709
    -2.2902  -2.2486  -2.2273  -2.2057  -2.1521  -2.1233  -2.0867  -2.0020
    -1.9747  -1.9391  -1.8657  -1.8558  -1.8316  -1.8213  -1.7807  -1.7618
    -1.7493  -1.7280  -1.5936  -1.5859  -1.5072  -1.4682  -1.3227  -1.1993
    -1.1337  -1.0651  -1.0497  -0.9679  -0.9310  -0.8509  -0.8304  -0.8016
    -0.7639  -0.6984  -0.6337  -0.6114  -0.5659  -0.5292  -0.3944  -0.3721
    -0.3240  -0.3190  -0.2977  -0.2315  -0.1625  -0.0822  -0.0695  -0.0032
     0.0168   0.0990   0.1814   0.1883   0.2369   0.2614   0.3150   0.3383
     0.3570   0.3902   0.4207   0.4895   0.5522   0.5999   0.6053   0.6387
     0.7059   0.7730   0.8135   0.8466   0.9968   1.0246   1.0385   1.1305
     1.1413   1.2496   1.4065   1.4278   1.6319   1.6342   1.9878   2.0303
     3.4559   3.5859   3.6198   3.6929   3.7793   3.9083   3.9165   4.0441
     4.1623   4.1681

[...]

          k = 0.0380-0.0419 0.0000 ( 17876 PWs)   bands (ev):

[...]

          k =-0.0760-0.0000 0.0000 ( 17886 PWs)   bands (ev):

[...]

          k =-0.0760-0.0839 0.0000 ( 17948 PWs)   bands (ev):

   -55.6743 -55.6732 -55.4706 -55.4597 -55.4571 -55.3259 -55.3006 -55.2926
   -55.2867 -55.2230 -55.1729 -55.0953 -55.0817 -54.9806 -54.5821 -54.5809
   -31.9806 -31.9800 -31.9704 -31.9695 -31.7949 -31.7936 -31.7811 -31.7754
   -31.7390 -31.7185 -31.6941 -31.6847 -31.6838 -31.6656 -31.6525 -31.6482
   -31.6293 -31.6157 -31.6152 -31.6083 -31.5922 -31.5502 -31.5454 -31.5228
   -31.5216 -31.5151 -31.5118 -31.5114 -31.5032 -31.4846 -31.4627 -31.4527
   -31.4261 -31.3849 -31.3716 -31.3508 -31.3370 -31.3236 -31.2944 -31.2836
   -31.2338 -31.1925 -30.9132 -30.9124 -30.8155 -30.8142 -30.7770 -30.7762
   -20.7519 -16.2254 -15.6149 -15.5485 -15.5265 -15.5173 -15.4040 -15.3715
   -15.2391 -15.2380 -15.2150 -15.1561 -15.1457 -15.1150 -15.1049 -15.0801
   -15.0486 -15.0232 -15.0003 -14.9704 -14.9596 -14.9162 -14.8900 -14.8860
   -14.8729 -14.8232 -14.7370 -14.7174 -14.6499 -14.5736 -14.4893 -14.3639
   -13.0838 -13.0832  -7.3941  -6.1040  -5.6763  -5.0438  -3.7338  -3.0656
    -2.8943  -2.7462  -2.7209  -2.5923  -2.5733  -2.4796  -2.4715  -2.4279
    -2.4141  -2.3737  -2.3475  -2.3305  -2.2883  -2.2705  -2.2556  -2.2507
    -2.2329  -2.2024  -2.1940  -2.1898  -2.1809  -2.1500  -2.1210  -2.1070
    -2.0902  -2.0455  -2.0176  -1.9160  -1.8142  -1.7889  -1.7158  -1.7124
    -1.7099  -1.6975  -1.6748  -1.6506  -1.5659  -1.4758  -1.4382  -1.3817
    -1.2068  -1.1925  -1.1701  -1.1484  -1.0923  -1.0428  -1.0155  -0.9637
    -0.9522  -0.9270  -0.8529  -0.7916  -0.7187  -0.6986  -0.6299  -0.5819
    -0.5646  -0.4734  -0.4597  -0.4269  -0.3868  -0.3724  -0.3429  -0.2900
    -0.2745  -0.2561  -0.2263  -0.1887  -0.1531   0.0162   0.1498   0.2114
     0.2313   0.2677   0.3222   0.3878   0.4117   0.5949   0.6078   0.6119
     0.6521   0.7096   0.7354   0.7527   0.8417   0.9605   0.9859   1.0231
     1.0499   1.0690   1.1504   1.2095   1.7988   1.8069   1.8498   1.8505
     3.4571   3.9927   4.0118   4.0132   4.0142   4.1095   4.1338   4.1422
     4.2066   4.2649

     the Fermi energy is     3.4500 ev

!    total energy              =   -2971.49136303 Ry
     estimated scf accuracy    <       0.00000007 Ry
     smearing contrib. (-TS)   =      -0.01886299 Ry
     internal energy E=F+TS    =   -2971.47250004 Ry

     The total energy is F=E-TS. E is the sum of the following terms:
     one-electron contribution =  -23620.04209593 Ry
     hartree contribution      =   11903.89898286 Ry
     xc contribution           =    -492.37445510 Ry
     ewald contribution        =    9237.04291293 Ry
     electric field correction =       0.00215521 Ry

     convergence has been achieved in  76 iterations

     Forces acting on atoms (cartesian axes, Ry/au):

     atom    1 type  1   force =     0.00001339   -0.00040483    0.09765605
     atom    2 type  1   force =    -0.00003576    0.00021950   -0.17213755
     atom    3 type  2   force =     0.00005103   -0.00005188   -0.02535778
     atom    4 type  2   force =     0.00001587   -0.00144583    0.04759557
     atom    5 type  2   force =    -0.00616380   -0.00239708   -0.00086268
     atom    6 type  2   force =     0.00778570   -0.00181514   -0.00152757
     atom    7 type  1   force =    -0.00008817   -0.00484209    0.01891796
     atom    8 type  1   force =     0.00022457    0.01221207    0.02702800
     atom    9 type  2   force =    -0.00010457   -0.00017690   -0.00015859
     atom   10 type  2   force =    -0.00111872    0.00132022   -0.02509348
     atom   11 type  2   force =     0.00014041   -0.00003227    0.00004339
     atom   12 type  2   force =     0.00006198   -0.00003734   -0.00003086
     atom   13 type  1   force =     0.00035016   -0.00022928   -0.00004811
     atom   14 type  1   force =     0.00005259   -0.00014182   -0.00012280
     atom   15 type  2   force =    -0.00031806   -0.00015362   -0.00038909
     atom   16 type  2   force =    -0.00002741   -0.00010505   -0.00053099
     atom   17 type  2   force =    -0.00021887   -0.00011545   -0.00006503
     atom   18 type  2   force =     0.00011257   -0.00021990   -0.00009575
     atom   19 type  1   force =    -0.00020063   -0.00000788   -0.00031585
     atom   20 type  1   force =    -0.00015378    0.00012222    0.00058754
     atom   21 type  2   force =     0.00005713    0.00008645    0.10225432
     atom   22 type  2   force =     0.00008796    0.00002391   -0.00015521
     atom   23 type  2   force =    -0.07354737   -0.00016195   -0.02810942
     atom   24 type  2   force =     0.07346365    0.00028200   -0.02818543
     atom   25 type  1   force =     0.00013869   -0.00033357    0.09746003
     atom   26 type  1   force =    -0.00004032   -0.00131040   -0.17226360
     atom   27 type  2   force =     0.00009395   -0.00030475   -0.02399776
     atom   28 type  2   force =     0.00004181    0.00031105    0.04323234
     atom   29 type  2   force =    -0.00505459    0.00403264   -0.00278815
     atom   30 type  2   force =     0.00656393    0.00442167   -0.00334500
     atom   31 type  1   force =     0.00001240    0.00579856    0.00694377
     atom   32 type  1   force =     0.00028811   -0.01518774    0.02661221
     atom   33 type  2   force =     0.00038289   -0.00004308    0.00004493
     atom   34 type  2   force =    -0.00138664    0.00100359   -0.02683613
     atom   35 type  2   force =     0.00038067    0.00006431    0.00001218
     atom   36 type  2   force =    -0.00028987   -0.00004876   -0.00010837
     atom   37 type  1   force =     0.00009498   -0.00053722    0.00001105
     atom   38 type  1   force =     0.00024207    0.00013296    0.00014534
     atom   39 type  2   force =    -0.00013232   -0.00016602   -0.00020367
     atom   40 type  2   force =     0.00005845    0.00003141   -0.00019800
     atom   41 type  2   force =    -0.00023656    0.00013061   -0.00018784
     atom   42 type  2   force =    -0.00018591   -0.00005921   -0.00002337
     atom   43 type  1   force =    -0.00009532    0.00021598   -0.00071597
     atom   44 type  1   force =    -0.00021668    0.00003335    0.00056815
     atom   45 type  2   force =     0.00004920   -0.00008332    0.10203952
     atom   46 type  2   force =    -0.07358401   -0.00007987   -0.02814629
     atom   47 type  2   force =     0.07348894    0.00035916   -0.02819313
     atom   48 type  3   force =     0.00154344   -0.00418417   -0.01817505
     atom   49 type  3   force =     0.00031537   -0.00109088   -0.00338494
     atom   50 type  4   force =    -0.00070687    0.00648581    0.02800780
     atom   51 type  5   force =     0.00264714   -0.00085000   -0.00214042
     atom   52 type  5   force =    -0.00508382   -0.00071868   -0.00488322
     atom   53 type  2   force =     0.00036784    0.00070466   -0.00013088
     atom   54 type  5   force =    -0.00013689   -0.00065615   -0.00025218

     Total force =     0.366728     Total SCF correction =     0.000768
  @ DRIVER MODE: Message from server: STATUS
  @ DRIVER MODE: Message from server: GETFORCE
  @ DRIVER MODE: Returning v,forces,stress,ensemble

     Writing output data file ./calc.save/
  @ DRIVER MODE: Message from server: EXIT
  @ DRIVE MODE: Exiting

     General routines

     Parallel routines

   This run was terminated on:  17:46:26  23Sep2021

   JOB DONE.