     Program PWSCF v.6.7GPU starts on  3Aug2021 at  8:45:26

     R & G space division:  proc/nbgrp/npool/nimage =      16
     Reading input from /storage/home/hcoda1/3/ntian30/research/carbon/02Aug_vib_paired/ads_slab/CH3NHH_a/out_0023/pw.inp
Warning: card &CELL ignored
Warning: card   CELL_DYNAMICS='IPI', ignored
Warning: card / ignored

     Current dimensions of program PWSCF are:
     Max number of different atomic species (ntypx) = 10
     Max number of k-points (npk) =  40000
     Max angular momentum in pseudopotentials (lmaxx) =  3
     Presently no symmetry can be used with electric field

     Message from routine cell_base_init:
     DEPRECATED: use true lattice parameter, not A to a.u. conversion factor

     IMPORTANT: XC functional enforced from input :
     Exchange-correlation= BEEF-VDW
                           (   1   4  43  14   2   0   0)
     Any further DFT definition will be discarded
     Please, verify this is what you really want

  @ DRIVER MODE: Connecting to
 qe_1139763_2482538.sched-torque.pace.gatech.edu8726lk9n_scratch
  using UNIX socket
  @ DRIVER MODE: Message from server: STATUS
  @ DRIVER MODE: Message from server: INIT
  @ DRIVER MODE: Receiving replica           0          -1
  @ DRIVER MODE: Receiving encoded integer          25
  @ DRIVER MODE:  SCF:  T  FORCE:  T  STRESS:  F  VC:  F  ENSEMBLE:  F
  @ DRIVER MODE:  SCF:  T  FORCE:  T  STRESS:  F  VC:  F  ENSEMBLE:  F

     Using Slab Decomposition

     bravais-lattice index     =            0
     lattice parameter (alat)  =       1.8897  a.u.
     unit-cell volume          =    6658.9804 (a.u.)^3
     number of atoms/cell      =           54
     number of atomic types    =            5
     number of electrons       =       392.00
     number of Kohn-Sham states=          206
     kinetic-energy cutoff     =      29.3995  Ry
     charge density cutoff     =     293.9946  Ry
     scf convergence threshold =      7.3E-08
     mixing beta               =       0.0500
     number of iterations used =            8  plain     mixing
     Exchange-correlation= BEEF-VDW
                           (   1   4  43  14   2   0   0)

     celldm(1)=   1.889726  celldm(2)=   0.000000  celldm(3)=   0.000000
     celldm(4)=   0.000000  celldm(5)=   0.000000  celldm(6)=   0.000000

     crystal axes: (cart. coord. in units of alat)
               a(1) = (   6.579727   0.000000   0.000000 )
               a(2) = (  -0.000775   5.961596   0.000000 )
               a(3) = (   0.000000   0.000000  25.155947 )

     reciprocal axes: (cart. coord. in units 2 pi/alat)
               b(1) = (  0.151982  0.000020  0.000000 )
               b(2) = (  0.000000  0.167740  0.000000 )
               b(3) = (  0.000000  0.000000  0.039752 )

     PseudoPot. # 1 for Ti read from file:
     /storage/coda1/p-amedford6/0/shared/rich_project_chbe-medford/medford-share/data/pseudos_module/espresso/nninc/pbe/van/Ti.UPF
     MD5 check sum: 8e4df49b7f0d34bbd5052bf3f5ea0213
     Pseudo is Ultrasoft, Zval = 12.0
     Generated by new atomic code, or converted to UPF format
     Using radial grid of  851 points,  6 beta functions with:
                l(1) =   0
                l(2) =   0
                l(3) =   1
                l(4) =   1
                l(5) =   2
                l(6) =   2
     Q(r) pseudized with  8 coefficients,  rinner =    1.000   1.000   1.000
                                                       1.000   1.000

     PseudoPot. # 2 for O  read from file:
     /storage/coda1/p-amedford6/0/shared/rich_project_chbe-medford/medford-share/data/pseudos_module/espresso/nninc/pbe/van/O.UPF
     MD5 check sum: 78c19812648e8988a0fe644b0f25305e
     Pseudo is Ultrasoft, Zval =  6.0
     Generated by new atomic code, or converted to UPF format
     Using radial grid of  737 points,  4 beta functions with:
                l(1) =   0
                l(2) =   0
                l(3) =   1
                l(4) =   1
     Q(r) pseudized with  8 coefficients,  rinner =    0.800   0.800   0.800

     PseudoPot. # 3 for N  read from file:
     /storage/coda1/p-amedford6/0/shared/rich_project_chbe-medford/medford-share/data/pseudos_module/espresso/nninc/pbe/van/N.UPF
     MD5 check sum: 90d10febe142ad51ac9d5be1deb811c4
     Pseudo is Ultrasoft, Zval =  5.0
     Generated by new atomic code, or converted to UPF format
     Using radial grid of  729 points,  4 beta functions with:
                l(1) =   0
                l(2) =   0
                l(3) =   1
                l(4) =   1
     Q(r) pseudized with  8 coefficients,  rinner =    0.800   0.800   0.800

     PseudoPot. # 4 for C  read from file:
     /storage/coda1/p-amedford6/0/shared/rich_project_chbe-medford/medford-share/data/pseudos_module/espresso/nninc/pbe/van/C.UPF
     MD5 check sum: 1a69bf6b8db32088f5b2163dbdb77a27
     Pseudo is Ultrasoft, Zval =  4.0
     Generated by new atomic code, or converted to UPF format
     Using radial grid of  721 points,  4 beta functions with:
                l(1) =   0
                l(2) =   0
                l(3) =   1
                l(4) =   1
     Q(r) pseudized with  8 coefficients,  rinner =    0.800   0.800   0.800

     PseudoPot. # 5 for H  read from file:
     /storage/coda1/p-amedford6/0/shared/rich_project_chbe-medford/medford-share/data/pseudos_module/espresso/nninc/pbe/van/H.UPF
     MD5 check sum: b5ee9d7bfd3a09ee7748110bda690ff7
     Pseudo is Ultrasoft, Zval =  1.0
     Generated by new atomic code, or converted to UPF format
     Using radial grid of  615 points,  1 beta functions with:
                l(1) =   0
     Q(r) pseudized with  8 coefficients,  rinner =    0.800

     atomic species   valence    mass     pseudopotential
        Ti1           12.00    47.86700     Ti( 1.00)
        O1             6.00    15.99900     O ( 1.00)
        N1             5.00    14.00700     N ( 1.00)
        C1             4.00    12.01100     C ( 1.00)
        H1             1.00     1.00800     H ( 1.00)

     No symmetry found

   Cartesian axes

     site n.     atom                  positions (alat units)
         1           Ti1 tau(   1) = (   0.0004258   2.9801865   6.0000000  )
         2           Ti1 tau(   2) = (   3.2906075   1.4906267   6.0002472  )
         3           O1  tau(   3) = (   0.0006271   0.0005054   7.9858123  )
         4           O1  tau(   4) = (   3.2906025   0.0005020   7.3038282  )
         5           O1  tau(   5) = (   4.5942328   1.4918067   9.2879030  )
         6           O1  tau(   6) = (   1.9868534   1.4903216   9.2879459  )
         7           Ti1 tau(   7) = (   3.2907910   2.8959150   9.1758416  )
         8           Ti1 tau(   8) = (   0.0015273   1.4827037   9.2680791  )
         9           O1  tau(   9) = (   3.2893523   5.9576907  11.3759447  )
        10           O1  tau(  10) = (   0.0116148   5.9584955  10.6183126  )
        11           O1  tau(  11) = (   1.2892553   1.4862333  12.6941169  )
        12           O1  tau(  12) = (   5.2958346   1.4833122  12.6807028  )
        13           Ti1 tau(  13) = (   0.0095698   2.9692159  12.5083673  )
        14           Ti1 tau(  14) = (   3.3108451   1.4743585  12.5306019  )
        15           O1  tau(  15) = (   6.5736105   5.8801748  14.6991865  )
        16           O1  tau(  16) = (   3.2979610   5.9450902  14.0010558  )
        17           O1  tau(  17) = (   4.5273680   1.5185660  16.1654609  )
        18           O1  tau(  18) = (   2.0122787   1.5163527  16.1384539  )
        19           Ti1 tau(  19) = (   3.2802752   2.9921964  15.7561315  )
        20           Ti1 tau(  20) = (   0.0093588   1.3049760  15.8672178  )
        21           O1  tau(  21) = (   3.2904802   0.0005063   4.7018136  )
        22           O1  tau(  22) = (   6.5538635   0.1342075  17.2452287  )
        23           O1  tau(  23) = (   1.3043587   1.4918075   6.0039043  )
        24           O1  tau(  24) = (   5.2767064   1.4903225   6.0039473  )
        25           Ti1 tau(  25) = (   0.0000382   5.9609847   6.0000000  )
        26           Ti1 tau(  26) = (   3.2902200   4.4714249   6.0002472  )
        27           O1  tau(  27) = (   0.0002396   2.9813036   7.9858123  )
        28           O1  tau(  28) = (   3.2902150   2.9813002   7.3038282  )
        29           O1  tau(  29) = (   4.5938453   4.4726049   9.2879030  )
        30           O1  tau(  30) = (   1.9864658   4.4711199   9.2879459  )
        31           Ti1 tau(  31) = (   3.2891106   5.8743827   9.1763621  )
        32           Ti1 tau(  32) = (   0.0006254   4.4649316   9.2693709  )
        33           O1  tau(  33) = (   3.2933707   2.9638296  11.3700534  )
        34           O1  tau(  34) = (   0.0092240   2.9805883  10.6323155  )
        35           O1  tau(  35) = (   1.2923283   4.4540072  12.6594629  )
        36           O1  tau(  36) = (   5.2938616   4.4568750  12.6477176  )
        37           Ti1 tau(  37) = (   0.0202681   5.9396231  12.5027719  )
        38           Ti1 tau(  38) = (   3.3116628   4.4527548  12.5215617  )
        39           O1  tau(  39) = (   6.5466975   3.0260875  14.9671898  )
        40           O1  tau(  40) = (   3.2966604   2.9917109  13.9679302  )
        41           O1  tau(  41) = (   4.5116687   4.4737236  16.2360857  )
        42           O1  tau(  42) = (   2.0028912   4.4646324  16.2202640  )
        43           Ti1 tau(  43) = (   3.2937213   0.0113368  15.7972781  )
        44           Ti1 tau(  44) = (   0.0208052   4.5175143  16.0574476  )
        45           O1  tau(  45) = (   3.2900926   2.9813045   4.7018136  )
        46           O1  tau(  46) = (   1.3039711   4.4726057   6.0039043  )
        47           O1  tau(  47) = (   5.2763189   4.4711207   6.0039473  )
        48           N1  tau(  48) = (   6.3337458   3.3624127  18.1270434  )
        49           C1  tau(  49) = (   0.8795605   3.2639204  19.0799812  )
        50           H1  tau(  50) = (   1.4196110   4.2071110  19.0760701  )
        51           H1  tau(  51) = (   0.5395241   3.0459488  20.0857609  )
        52           H1  tau(  52) = (   1.5475163   2.4696122  18.7548312  )
        53           H1  tau(  53) = (   5.6940081   4.0973896  18.4182617  )
        54           H1  tau(  54) = (   5.7906660   2.4998151  18.1411682  )

     number of k points=    10  Fermi-Dirac smearing, width (Ry)=  0.0073
                       cart. coord. in units 2pi/alat
        k(    1) = (   0.0000000   0.0000000   0.0000000), wk =   0.1250000
        k(    2) = (   0.0000000   0.0419351   0.0000000), wk =   0.2500000
        k(    3) = (   0.0000000  -0.0838702   0.0000000), wk =   0.1250000
        k(    4) = (   0.0379955   0.0000049   0.0000000), wk =   0.2500000
        k(    5) = (   0.0379955   0.0419400   0.0000000), wk =   0.2500000
        k(    6) = (   0.0379955  -0.0838652   0.0000000), wk =   0.2500000
        k(    7) = (   0.0379955  -0.0419301   0.0000000), wk =   0.2500000
        k(    8) = (  -0.0759910  -0.0000099   0.0000000), wk =   0.1250000
        k(    9) = (  -0.0759910   0.0419252   0.0000000), wk =   0.2500000
        k(   10) = (  -0.0759910  -0.0838800   0.0000000), wk =   0.1250000

     Initial potential from superposition of free atoms

     starting charge  375.99915, renormalised to  392.00000

     negative rho (up, down):  1.624E-02 0.000E+00

     %%%%%%%%%%%%%%%%%%%%%%%%%%%%%%%%%%%%%%%%%%%%%%%%%%%%%%%%%%%%%%%%%%%%%%%%
     %                                                                      %
     % You are using vdW-DF, which was implemented by the Thonhauser group. %
     % Please cite the following two papers that made this development      %
     % possible and the two reviews that describe the various versions:     %
     %                                                                      %
     %   T. Thonhauser et al., PRL 115, 136402 (2015).                      %
     %   T. Thonhauser et al., PRB 76, 125112 (2007).                       %
     %   K. Berland et al., Rep. Prog. Phys. 78, 066501 (2015).             %
     %   D.C. Langreth et al., J. Phys.: Condens. Matter 21, 084203 (2009). %
     %                                                                      %
     %                                                                      %
     % If you are calculating the stress with vdW-DF, please also cite:     %
     %                                                                      %
     %   R. Sabatini et al., J. Phys.: Condens. Matter 24, 424209 (2012).   %
     %                                                                      %
     %%%%%%%%%%%%%%%%%%%%%%%%%%%%%%%%%%%%%%%%%%%%%%%%%%%%%%%%%%%%%%%%%%%%%%%%

     Adding external electric field

     Computed dipole along edir(3) :
        Dipole               -7.5463 Ry au,        -19.1807 Debye
        Dipole field         -0.0142 Ry au,

        Potential amp.        1.3201 Ry
        Total length         46.3494 bohr

     Starting wfcs are  297 atomic wfcs
  @ DRIVER MODE: Message from server: STATUS
  @ DRIVER MODE: Message from server: POSDATA
  @ DRIVER MODE: Reading and sharing cell
  @ DRIVER MODE: Reading and sharing positions
  @ DRIVER MODE: Received positions

     Self-consistent Calculation

     iteration #  1     ecut=    29.40 Ry     beta= 0.05
     Davidson diagonalization with overlap
     c_bands:  1 eigenvalues not converged
     c_bands:  1 eigenvalues not converged
     c_bands:  2 eigenvalues not converged
     c_bands:  1 eigenvalues not converged
     c_bands:  1 eigenvalues not converged
     c_bands:  1 eigenvalues not converged
     c_bands:  1 eigenvalues not converged
     ethr =  1.00E-05,  avg # of iterations = 19.6

[...]

     total energy              =   -2679.36715276 Ry
     estimated scf accuracy    <    2680.80342160 Ry

[...]

     iteration #  3     ecut=    29.40 Ry     beta= 0.05
     Davidson diagonalization with overlap
     ethr =  1.00E-02,  avg # of iterations = 15.1

[...]

     iteration # 74     ecut=    29.40 Ry     beta= 0.05
     Davidson diagonalization with overlap
     ethr =  3.31E-11,  avg # of iterations =  6.5

[...]

     total energy              =   -2921.63266674 Ry
     estimated scf accuracy    <       0.00000008 Ry

     iteration # 75     ecut=    29.40 Ry     beta= 0.05
     Davidson diagonalization with overlap
     c_bands:  1 eigenvalues not converged
     c_bands:  1 eigenvalues not converged
     c_bands:  2 eigenvalues not converged
     ethr =  1.94E-11,  avg # of iterations = 16.6

     negative rho (up, down):  1.712E-02 0.000E+00

     Adding external electric field

     Computed dipole along edir(3) :
        Dipole                1.3011 Ry au,          3.3070 Debye
        Dipole field          0.0025 Ry au,

        Potential amp.       -0.2276 Ry
        Total length         46.3494 bohr

     End of self-consistent calculation

          k = 0.0000 0.0000 0.0000 ( 18029 PWs)   bands (ev):

   -55.4329 -55.3964 -55.3833 -55.3560 -55.3491 -55.3161 -55.3112 -55.2766
   -55.2524 -55.2366 -55.2180 -55.2141 -55.1805 -55.1154 -54.4128 -54.3788
   -32.0018 -31.8878 -31.8759 -31.7997 -31.7488 -31.7424 -31.7412 -31.7201
   -31.6743 -31.6723 -31.6435 -31.6419 -31.6282 -31.6179 -31.6029 -31.5990
   -31.5885 -31.5757 -31.5708 -31.5491 -31.5358 -31.5316 -31.5065 -31.4972
   -31.4888 -31.4853 -31.4833 -31.4551 -31.4419 -31.4405 -31.4333 -31.4142
   -31.4130 -31.4116 -31.4022 -31.3993 -31.3662 -31.3580 -31.3424 -31.3255
   -31.3219 -31.2988 -30.8222 -30.7280 -30.7060 -30.6386 -30.5518 -30.4409
   -16.2936 -16.1655 -15.9769 -15.8303 -15.7494 -15.6319 -15.5167 -15.5001
   -15.3639 -15.2819 -15.1628 -15.1377 -15.1185 -15.0957 -15.0844 -15.0680
   -14.9771 -14.9716 -14.9574 -14.9264 -14.9238 -14.8790 -14.8712 -14.8298
   -14.8097 -14.8070 -14.6834 -14.5920 -14.5192 -14.2806 -12.9157 -12.7983
   -10.2503  -6.2829  -4.8571  -3.9749  -3.6076  -3.4533  -3.3638  -3.3378
    -3.3243  -3.1895  -3.0438  -2.8965  -2.8460  -2.8391  -2.7203  -2.6470
    -2.6372  -2.6175  -2.4626  -2.4311  -2.3881  -2.3412  -2.2971  -2.2425
    -2.2238  -2.2177  -2.2024  -2.1808  -2.1701  -2.0532  -2.0002  -1.9165
    -1.8592  -1.8364  -1.7862  -1.7647  -1.7428  -1.7223  -1.7129  -1.6684
    -1.6576  -1.6274  -1.5717  -1.4612  -1.3620  -1.3090  -1.1912  -1.0698
    -1.0297  -1.0169  -0.9786  -0.9352  -0.9188  -0.8539  -0.8097  -0.7794
    -0.7214  -0.6629  -0.6005  -0.5521  -0.4816  -0.4673  -0.4196  -0.3661
    -0.2528  -0.2150  -0.2002  -0.1743  -0.0812  -0.0451  -0.0003   0.0828
     0.0930   0.1087   0.2089   0.2223   0.2924   0.3385   0.3558   0.4486
     0.4866   0.4964   0.5018   0.5258   0.5523   0.6037   0.6415   0.6696
     0.7400   0.8653   1.0812   1.1554   1.1800   1.5062   1.5151   1.6096
     1.7931   2.1858   2.2340   3.6649   3.7360   3.8107   3.8165   3.8335
     3.9024   4.1395   4.1623   4.1698   4.1762   4.1981

[...]

          k = 0.0380-0.0419 0.0000 ( 17876 PWs)   bands (ev):

[...]

          k =-0.0760-0.0000 0.0000 ( 17886 PWs)   bands (ev):

[...]

          k =-0.0760-0.0839 0.0000 ( 17948 PWs)   bands (ev):

   -55.4178 -55.4113 -55.3665 -55.3657 -55.3545 -55.3123 -55.2957 -55.2921
   -55.2404 -55.2369 -55.2330 -55.1978 -55.1970 -55.1167 -54.3959 -54.3956
   -31.8081 -31.8056 -31.8033 -31.7187 -31.6936 -31.6912 -31.6906 -31.6578
   -31.6573 -31.6422 -31.6349 -31.6322 -31.6268 -31.5988 -31.5910 -31.5723
   -31.5698 -31.5656 -31.5639 -31.5617 -31.5589 -31.5549 -31.5166 -31.5129
   -31.5076 -31.5067 -31.5050 -31.4887 -31.4862 -31.4855 -31.4843 -31.4701
   -31.4663 -31.4500 -31.4462 -31.4305 -31.4298 -31.4275 -31.3800 -31.3786
   -31.3760 -31.3270 -30.7187 -30.7185 -30.6348 -30.6346 -30.5953 -30.5952
   -16.1365 -15.7785 -15.6868 -15.6394 -15.4658 -15.4366 -15.4203 -15.4051
   -15.2727 -15.2548 -15.2308 -15.2026 -15.1806 -15.1459 -15.1363 -15.1337
   -15.0541 -15.0399 -15.0329 -15.0171 -14.9511 -14.9413 -14.9390 -14.9316
   -14.8813 -14.8777 -14.8148 -14.7851 -14.7820 -14.5711 -12.8998 -12.8997
   -10.2536  -6.2537  -4.8547  -3.9377  -2.9578  -2.9342  -2.8937  -2.8895
    -2.6813  -2.6401  -2.6047  -2.5791  -2.4892  -2.4495  -2.4345  -2.4264
    -2.3548  -2.3382  -2.3203  -2.2752  -2.2691  -2.2554  -2.2333  -2.2034
    -2.1815  -2.1619  -2.1524  -2.1339  -2.0876  -2.0763  -2.0525  -2.0369
    -2.0337  -2.0162  -1.9876  -1.9413  -1.8143  -1.8061  -1.7391  -1.6395
    -1.6348  -1.5582  -1.5452  -1.5100  -1.4846  -1.4651  -1.4232  -1.2496
    -1.2060  -1.1792  -1.1696  -1.1135  -1.0481  -1.0247  -0.9547  -0.9390
    -0.9204  -0.8166  -0.7719  -0.7572  -0.6677  -0.6549  -0.5768  -0.5129
    -0.4677  -0.4413  -0.3963  -0.3889  -0.3866  -0.3390  -0.3314  -0.2503
    -0.2033  -0.1669  -0.1529  -0.1229   0.0739   0.0846   0.1110   0.2514
     0.2802   0.4036   0.4376   0.4897   0.5648   0.5974   0.6790   0.7144
     0.8440   0.8733   0.8749   0.9472   0.9586   1.0205   1.0300   1.9661
     1.9668   2.0540   2.0541   3.8215   3.9001   3.9266   3.9685   4.0804
     4.1550   4.1808   4.2014   4.2504   4.2530   4.3156

     the Fermi energy is     3.7288 ev

!    total energy              =   -2921.63267857 Ry
     estimated scf accuracy    <       0.00000004 Ry
     smearing contrib. (-TS)   =      -0.03709235 Ry
     internal energy E=F+TS    =   -2921.59558622 Ry

     The total energy is F=E-TS. E is the sum of the following terms:
     one-electron contribution =  -24029.04236351 Ry
     hartree contribution      =   12103.60822810 Ry
     xc contribution           =    -481.75574807 Ry
     ewald contribution        =    9485.59110281 Ry
     electric field correction =       0.00319446 Ry

     convergence has been achieved in  75 iterations

     Forces acting on atoms (cartesian axes, Ry/au):

     atom    1 type  1   force =     0.00002577   -0.00023195    0.09324074
     atom    2 type  1   force =    -0.00018655   -0.00035694   -0.17827834
     atom    3 type  2   force =     0.00002755   -0.00040024   -0.02021427
     atom    4 type  2   force =    -0.00002672   -0.00194675    0.05877355
     atom    5 type  2   force =    -0.01019808   -0.00111858    0.00777686
     atom    6 type  2   force =     0.01167200   -0.00039908    0.00694383
     atom    7 type  1   force =    -0.00049081    0.00211307   -0.01458676
     atom    8 type  1   force =     0.00025405   -0.00051319   -0.00480507
     atom    9 type  2   force =     0.00015040    0.00011749   -0.00005951
     atom   10 type  2   force =    -0.00113603    0.00137676    0.00053939
     atom   11 type  2   force =    -0.00011790    0.00015695    0.00004884
     atom   12 type  2   force =    -0.00001923    0.00036294    0.00022432
     atom   13 type  1   force =    -0.00006033   -0.00017502   -0.00014550
     atom   14 type  1   force =    -0.00015919    0.00010213    0.00025936
     atom   15 type  2   force =    -0.00020765   -0.00030420    0.00006824
     atom   16 type  2   force =    -0.00022356    0.00019317    0.00016371
     atom   17 type  2   force =     0.00011649   -0.00010526    0.00006857
     atom   18 type  2   force =    -0.00002576   -0.00019576    0.00016620
     atom   19 type  1   force =    -0.00028732    0.00029136    0.00042332
     atom   20 type  1   force =    -0.00002205   -0.00002982   -0.00034470
     atom   21 type  2   force =     0.00002877   -0.00006109    0.10390464
     atom   22 type  2   force =     0.00026576    0.00036103    0.00010062
     atom   23 type  2   force =    -0.07041955   -0.00016212   -0.02692182
     atom   24 type  2   force =     0.07026198    0.00027744   -0.02697218
     atom   25 type  1   force =    -0.00002227   -0.00013005    0.09273204
     atom   26 type  1   force =    -0.00021115   -0.00048169   -0.17829651
     atom   27 type  2   force =     0.00008605   -0.00026820   -0.01927831
     atom   28 type  2   force =     0.00004452   -0.00171527    0.05813145
     atom   29 type  2   force =    -0.01071946   -0.00111626    0.00833654
     atom   30 type  2   force =     0.01206403   -0.00084023    0.00745984
     atom   31 type  1   force =    -0.00039366    0.00596828   -0.01541279
     atom   32 type  1   force =     0.00022886   -0.00000204   -0.00519991
     atom   33 type  2   force =    -0.00007808    0.00001184    0.00008468
     atom   34 type  2   force =    -0.00101395   -0.00248214   -0.00001119
     atom   35 type  2   force =    -0.00007115    0.00023763   -0.00006658
     atom   36 type  2   force =    -0.00011360    0.00009299   -0.00000214
     atom   37 type  1   force =    -0.00003364    0.00008054   -0.00018811
     atom   38 type  1   force =    -0.00009000   -0.00000341    0.00009290
     atom   39 type  2   force =     0.00021870   -0.00004206    0.00013825
     atom   40 type  2   force =    -0.00030215    0.00024218   -0.00003702
     atom   41 type  2   force =     0.00016018    0.00044488    0.00008627
     atom   42 type  2   force =    -0.00006042    0.00011884    0.00034940
     atom   43 type  1   force =    -0.00030924    0.00027240    0.00013591
     atom   44 type  1   force =    -0.00005495   -0.00029205    0.00009390
     atom   45 type  2   force =     0.00001766   -0.00007803    0.10390945
     atom   46 type  2   force =    -0.07039030   -0.00009311   -0.02686355
     atom   47 type  2   force =     0.07023981    0.00033242   -0.02691642
     atom   48 type  3   force =    -0.00019788   -0.00109439   -0.00132896
     atom   49 type  4   force =     0.00278323    0.00137587   -0.00987813
     atom   50 type  5   force =     0.00071551    0.00098722   -0.00004720
     atom   51 type  5   force =    -0.00287916   -0.00171354    0.01033367
     atom   52 type  5   force =     0.00032620   -0.00030972   -0.00027351
     atom   53 type  5   force =     0.00011454    0.00076467    0.00158946
     atom   54 type  5   force =     0.00071971    0.00038007   -0.00004746

     Total force =     0.366455     Total SCF correction =     0.000633
  @ DRIVER MODE: Message from server: STATUS
  @ DRIVER MODE: Message from server: GETFORCE
  @ DRIVER MODE: Returning v,forces,stress,ensemble

     Writing output data file ./calc.save/
  @ DRIVER MODE: Message from server: EXIT
  @ DRIVE MODE: Exiting

     General routines

     Parallel routines

   This run was terminated on:   9:21:55   3Aug2021

   JOB DONE.