     Program PWSCF v.6.7GPU starts on 22Jul2021 at 21:21: 2

     R & G space division:  proc/nbgrp/npool/nimage =      16
     Reading input from /storage/home/hcoda1/3/ntian30/research/carbon/1Jul_vib/slab/rutile_O_br_vacant/out_0014/pw.inp
Warning: card &CELL ignored
Warning: card   CELL_DYNAMICS='IPI', ignored
Warning: card / ignored

     Current dimensions of program PWSCF are:
     Max number of different atomic species (ntypx) = 10
     Max number of k-points (npk) =  40000
     Max angular momentum in pseudopotentials (lmaxx) =  3
     Presently no symmetry can be used with electric field

     Message from routine cell_base_init:
     DEPRECATED: use true lattice parameter, not A to a.u. conversion factor

     IMPORTANT: XC functional enforced from input :
     Exchange-correlation= BEEF-VDW
                           (   1   4  43  14   2   0   0)
     Any further DFT definition will be discarded
     Please, verify this is what you really want

  @ DRIVER MODE: Connecting to
 qe_1139763_2402406.sched-torque.pace.gatech.eduhexszynd_scratch
  using UNIX socket
  @ DRIVER MODE: Message from server: STATUS
  @ DRIVER MODE: Message from server: INIT
  @ DRIVER MODE: Receiving replica           0          -1
  @ DRIVER MODE: Receiving encoded integer          25
  @ DRIVER MODE:  SCF:  T  FORCE:  T  STRESS:  F  VC:  F  ENSEMBLE:  F
  @ DRIVER MODE:  SCF:  T  FORCE:  T  STRESS:  F  VC:  F  ENSEMBLE:  F

     Using Slab Decomposition

     bravais-lattice index     =            0
     lattice parameter (alat)  =       1.8897  a.u.
     unit-cell volume          =    6658.9804 (a.u.)^3
     number of atoms/cell      =           47
     number of atomic types    =            2
     number of electrons       =       378.00
     number of Kohn-Sham states=          199
     kinetic-energy cutoff     =      29.3995  Ry
     charge density cutoff     =     293.9946  Ry
     scf convergence threshold =      7.3E-08
     mixing beta               =       0.0500
     number of iterations used =            8  plain     mixing
     Exchange-correlation= BEEF-VDW
                           (   1   4  43  14   2   0   0)

     celldm(1)=   1.889726  celldm(2)=   0.000000  celldm(3)=   0.000000
     celldm(4)=   0.000000  celldm(5)=   0.000000  celldm(6)=   0.000000

     crystal axes: (cart. coord. in units of alat)
               a(1) = (   6.579727   0.000000   0.000000 )
               a(2) = (  -0.000775   5.961596   0.000000 )
               a(3) = (   0.000000   0.000000  25.155947 )

     reciprocal axes: (cart. coord. in units 2 pi/alat)
               b(1) = (  0.151982  0.000020  0.000000 )
               b(2) = (  0.000000  0.167740  0.000000 )
               b(3) = (  0.000000  0.000000  0.039752 )

     PseudoPot. # 1 for Ti read from file:
     /storage/coda1/p-amedford6/0/shared/rich_project_chbe-medford/medford-share/data/pseudos_module/espresso/nninc/pbe/van/Ti.UPF
     MD5 check sum: 8e4df49b7f0d34bbd5052bf3f5ea0213
     Pseudo is Ultrasoft, Zval = 12.0
     Generated by new atomic code, or converted to UPF format
     Using radial grid of  851 points,  6 beta functions with:
                l(1) =   0
                l(2) =   0
                l(3) =   1
                l(4) =   1
                l(5) =   2
                l(6) =   2
     Q(r) pseudized with  8 coefficients,  rinner =    1.000   1.000   1.000
                                                       1.000   1.000

     PseudoPot. # 2 for O  read from file:
     /storage/coda1/p-amedford6/0/shared/rich_project_chbe-medford/medford-share/data/pseudos_module/espresso/nninc/pbe/van/O.UPF
     MD5 check sum: 78c19812648e8988a0fe644b0f25305e
     Pseudo is Ultrasoft, Zval =  6.0
     Generated by new atomic code, or converted to UPF format
     Using radial grid of  737 points,  4 beta functions with:
                l(1) =   0
                l(2) =   0
                l(3) =   1
                l(4) =   1
     Q(r) pseudized with  8 coefficients,  rinner =    0.800   0.800   0.800

     atomic species   valence    mass     pseudopotential
        Ti1           12.00    47.86700     Ti( 1.00)
        O1             6.00    15.99900     O ( 1.00)

     Starting magnetic structure
     atomic species   magnetization
        Ti1          0.000
        O1           0.000

     No symmetry found

   Cartesian axes

     site n.     atom                  positions (alat units)
         1           Ti1 tau(   1) = (   0.0004258   2.9801865   6.0000000  )
         2           Ti1 tau(   2) = (   3.2906075   1.4906267   6.0002472  )
         3           O1  tau(   3) = (   0.0006271   0.0005054   7.9858123  )
         4           O1  tau(   4) = (   3.2906025   0.0005020   7.3038282  )
         5           O1  tau(   5) = (   4.5942328   1.4918067   9.2879030  )
         6           O1  tau(   6) = (   1.9868534   1.4903216   9.2879459  )
         7           Ti1 tau(   7) = (   3.2895655   2.9803496   9.1561551  )
         8           Ti1 tau(   8) = (   6.5792279   1.4901203   9.2542590  )
         9           O1  tau(   9) = (   3.2908496   0.0003861  11.3974292  )
        10           O1  tau(  10) = (   0.0009741   0.0005107  10.6121890  )
        11           O1  tau(  11) = (   1.2851668   1.4970119  12.6717501  )
        12           O1  tau(  12) = (   5.2960956   1.4969944  12.6716611  )
        13           Ti1 tau(  13) = (   0.0014209   2.9817635  12.4865077  )
        14           Ti1 tau(  14) = (   3.2920103   1.4923710  12.5431595  )
        15           O1  tau(  15) = (   0.0005111   0.0003601  14.6908606  )
        16           O1  tau(  16) = (   3.2907661   0.0003422  14.0280135  )
        17           O1  tau(  17) = (   4.5563287   1.5043111  16.1972802  )
        18           O1  tau(  18) = (   2.0238984   1.5042417  16.1969189  )
        19           Ti1 tau(  19) = (   3.2900530   2.9812534  15.7923096  )
        20           Ti1 tau(  20) = (   0.0002900   1.3462356  15.9516996  )
        21           O1  tau(  21) = (   3.2904802   0.0005063   4.7018136  )
        22           O1  tau(  22) = (   0.0005067   0.0002908  17.2230471  )
        23           O1  tau(  23) = (   1.3043587   1.4918075   6.0039043  )
        24           O1  tau(  24) = (   5.2767064   1.4903225   6.0039473  )
        25           Ti1 tau(  25) = (   0.0000382   5.9609847   6.0000000  )
        26           Ti1 tau(  26) = (   3.2902200   4.4714249   6.0002472  )
        27           O1  tau(  27) = (   0.0002396   2.9813036   7.9858123  )
        28           O1  tau(  28) = (   3.2902150   2.9813002   7.3038282  )
        29           O1  tau(  29) = (   4.5938453   4.4726049   9.2879030  )
        30           O1  tau(  30) = (   1.9864658   4.4711199   9.2879459  )
        31           Ti1 tau(  31) = (   3.2890184   5.9611387   9.1545655  )
        32           Ti1 tau(  32) = (   6.5788211   4.4731772   9.2541010  )
        33           O1  tau(  33) = (   3.2904314   2.9811918  11.3932170  )
        34           O1  tau(  34) = (   0.0006808   2.9813391  10.6259032  )
        35           O1  tau(  35) = (   1.2847872   4.4655815  12.6717948  )
        36           O1  tau(  36) = (   5.2956760   4.4653813  12.6716352  )
        37           Ti1 tau(  37) = (   0.0020938   0.0010105  12.4782417  )
        38           Ti1 tau(  38) = (   3.2917349   4.4701355  12.5431901  )
        39           O1  tau(  39) = (   0.0000992   2.9811129  15.0245885  )
        40           O1  tau(  40) = (   3.2903432   2.9811263  13.9978513  )
        41           O1  tau(  41) = (   4.5559250   4.4580163  16.1971803  )
        42           O1  tau(  42) = (   2.0234811   4.4579909  16.1969720  )
        43           Ti1 tau(  43) = (   3.2904469   0.0004528  15.8318627  )
        44           Ti1 tau(  44) = (   0.0100435   4.6159127  15.9515978  )
        45           O1  tau(  45) = (   3.2900926   2.9813045   4.7018136  )
        46           O1  tau(  46) = (   1.3039711   4.4726057   6.0039043  )
        47           O1  tau(  47) = (   5.2763189   4.4711207   6.0039473  )

     number of k points=    10  Fermi-Dirac smearing, width (Ry)=  0.0073
                       cart. coord. in units 2pi/alat
        k(    1) = (   0.0000000   0.0000000   0.0000000), wk =   0.0625000
        k(    2) = (   0.0000000   0.0419351   0.0000000), wk =   0.1250000
        k(    3) = (   0.0000000  -0.0838702   0.0000000), wk =   0.0625000
        k(    4) = (   0.0379955   0.0000049   0.0000000), wk =   0.1250000
        k(    5) = (   0.0379955   0.0419400   0.0000000), wk =   0.1250000
        k(    6) = (   0.0379955  -0.0838652   0.0000000), wk =   0.1250000
        k(    7) = (   0.0379955  -0.0419301   0.0000000), wk =   0.1250000
        k(    8) = (  -0.0759910  -0.0000099   0.0000000), wk =   0.0625000
        k(    9) = (  -0.0759910   0.0419252   0.0000000), wk =   0.1250000
        k(   10) = (  -0.0759910  -0.0838800   0.0000000), wk =   0.0625000

     Initial potential from superposition of free atoms

     starting charge  361.99925, renormalised to  378.00000

     negative rho (up, down):  1.184E-02 1.184E-02

     %%%%%%%%%%%%%%%%%%%%%%%%%%%%%%%%%%%%%%%%%%%%%%%%%%%%%%%%%%%%%%%%%%%%%%%%
     %                                                                      %
     % You are using vdW-DF, which was implemented by the Thonhauser group. %
     % Please cite the following two papers that made this development      %
     % possible and the two reviews that describe the various versions:     %
     %                                                                      %
     %   T. Thonhauser et al., PRL 115, 136402 (2015).                      %
     %   T. Thonhauser et al., PRB 76, 125112 (2007).                       %
     %   K. Berland et al., Rep. Prog. Phys. 78, 066501 (2015).             %
     %   D.C. Langreth et al., J. Phys.: Condens. Matter 21, 084203 (2009). %
     %                                                                      %
     %                                                                      %
     % If you are calculating the stress with vdW-DF, please also cite:     %
     %                                                                      %
     %   R. Sabatini et al., J. Phys.: Condens. Matter 24, 424209 (2012).   %
     %                                                                      %
     %%%%%%%%%%%%%%%%%%%%%%%%%%%%%%%%%%%%%%%%%%%%%%%%%%%%%%%%%%%%%%%%%%%%%%%%

     Adding external electric field

     Computed dipole along edir(3) :
        Dipole                1.1416 Ry au,          2.9015 Debye
        Dipole field          0.0022 Ry au,

        Potential amp.       -0.1997 Ry
        Total length         46.3494 bohr

[...]

     Starting wfcs are  284 atomic wfcs
  @ DRIVER MODE: Message from server: STATUS
  @ DRIVER MODE: Message from server: POSDATA
  @ DRIVER MODE: Reading and sharing cell
  @ DRIVER MODE: Reading and sharing positions
  @ DRIVER MODE: Received positions

     Self-consistent Calculation

     iteration #  1     ecut=    29.40 Ry     beta= 0.05
     Davidson diagonalization with overlap
     c_bands:  2 eigenvalues not converged
     c_bands:  3 eigenvalues not converged
     c_bands:  2 eigenvalues not converged
     c_bands:  3 eigenvalues not converged
     c_bands:  1 eigenvalues not converged
     c_bands:  2 eigenvalues not converged
     c_bands:  1 eigenvalues not converged
     c_bands:  2 eigenvalues not converged
     c_bands:  3 eigenvalues not converged
     c_bands:  1 eigenvalues not converged
     c_bands:  2 eigenvalues not converged
     c_bands:  3 eigenvalues not converged
     c_bands:  2 eigenvalues not converged
     c_bands:  3 eigenvalues not converged
     c_bands:  1 eigenvalues not converged
     c_bands:  2 eigenvalues not converged
     c_bands:  1 eigenvalues not converged
     c_bands:  2 eigenvalues not converged
     c_bands:  3 eigenvalues not converged
     c_bands:  1 eigenvalues not converged
     ethr =  1.00E-05,  avg # of iterations = 20.0

[...]

     total energy              =   -2885.09647768 Ry
     estimated scf accuracy    <      12.51182706 Ry

     total magnetization       =    -0.00 Bohr mag/cell
     absolute magnetization    =     0.00 Bohr mag/cell

     iteration #  2     ecut=    29.40 Ry     beta= 0.05
     Davidson diagonalization with overlap
     ethr =  3.31E-03,  avg # of iterations =  1.0

[...]

     iteration # 51     ecut=    29.40 Ry     beta= 0.05
     Davidson diagonalization with overlap
     c_bands:  1 eigenvalues not converged
     c_bands:  1 eigenvalues not converged
     ethr =  1.84E-09,  avg # of iterations = 13.9

[...]

     total energy              =   -2883.85323711 Ry
     estimated scf accuracy    <       0.00000014 Ry

[...]

     iteration # 60     ecut=    29.40 Ry     beta= 0.05
     Davidson diagonalization with overlap
     ethr =  2.98E-11,  avg # of iterations =  8.0

     negative rho (up, down):  1.071E-02 1.071E-02

[...]

     Adding external electric field

     Computed dipole along edir(3) :
        Dipole                0.5583 Ry au,          1.4191 Debye
        Dipole field          0.0011 Ry au,

        Potential amp.       -0.0977 Ry
        Total length         46.3494 bohr

     Magnetic moment per site  (integrated on atomic sphere of radius R)
     atom   1 (R=0.740)  charge=  8.0666  magn= -0.0000
     atom   2 (R=0.740)  charge=  8.0461  magn=  0.0000
     atom   3 (R=0.740)  charge=  5.0351  magn=  0.0000
     atom   4 (R=0.740)  charge=  5.0740  magn= -0.0000
     atom   5 (R=0.740)  charge=  5.0337  magn= -0.0000
     atom   6 (R=0.740)  charge=  5.0338  magn= -0.0000
     atom   7 (R=0.740)  charge=  8.0460  magn= -0.0000
     atom   8 (R=0.740)  charge=  8.0494  magn=  0.0000
     atom   9 (R=0.740)  charge=  5.0395  magn= -0.0000
     atom  10 (R=0.740)  charge=  5.0477  magn= -0.0000
     atom  11 (R=0.740)  charge=  5.0325  magn= -0.0000
     atom  12 (R=0.740)  charge=  5.0326  magn= -0.0000
     atom  13 (R=0.740)  charge=  8.0562  magn= -0.0000
     atom  14 (R=0.740)  charge=  8.0499  magn=  0.0000
     atom  15 (R=0.740)  charge=  5.0483  magn= -0.0000
     atom  16 (R=0.740)  charge=  5.0335  magn=  0.0000
     atom  17 (R=0.740)  charge=  5.0150  magn=  0.0000
     atom  18 (R=0.740)  charge=  5.0153  magn=  0.0000
     atom  19 (R=0.740)  charge=  8.0777  magn= -0.0000
     atom  20 (R=0.740)  charge=  8.0902  magn=  0.0000
     atom  21 (R=0.740)  charge=  4.9132  magn= -0.0000
     atom  22 (R=0.740)  charge=  4.9954  magn= -0.0000
     atom  23 (R=0.740)  charge=  5.0274  magn=  0.0000
     atom  24 (R=0.740)  charge=  5.0275  magn=  0.0000
     atom  25 (R=0.740)  charge=  8.0667  magn= -0.0000
     atom  26 (R=0.740)  charge=  8.0461  magn=  0.0000
     atom  27 (R=0.740)  charge=  5.0345  magn=  0.0000
     atom  28 (R=0.740)  charge=  5.0735  magn=  0.0000
     atom  29 (R=0.740)  charge=  5.0337  magn= -0.0000
     atom  30 (R=0.740)  charge=  5.0338  magn= -0.0000
     atom  31 (R=0.740)  charge=  8.0465  magn=  0.0000
     atom  32 (R=0.740)  charge=  8.0494  magn=  0.0000
     atom  33 (R=0.740)  charge=  5.0395  magn=  0.0000
     atom  34 (R=0.740)  charge=  5.0426  magn= -0.0000
     atom  35 (R=0.740)  charge=  5.0325  magn=  0.0000
     atom  36 (R=0.740)  charge=  5.0325  magn= -0.0000
     atom  37 (R=0.740)  charge=  8.0520  magn= -0.0000
     atom  38 (R=0.740)  charge=  8.0499  magn=  0.0000
     atom  39 (R=0.740)  charge=  5.0311  magn= -0.0000
     atom  40 (R=0.740)  charge=  5.0467  magn= -0.0000
     atom  41 (R=0.740)  charge=  5.0131  magn=  0.0000
     atom  42 (R=0.740)  charge=  5.0173  magn=  0.0000
     atom  43 (R=0.740)  charge=  8.0771  magn= -0.0000
     atom  44 (R=0.740)  charge=  8.0901  magn=  0.0000
     atom  45 (R=0.740)  charge=  4.9132  magn= -0.0000
     atom  46 (R=0.740)  charge=  5.0274  magn=  0.0000
     atom  47 (R=0.740)  charge=  5.0275  magn=  0.0000

     End of self-consistent calculation

 ------ SPIN UP ------------

          k = 0.0000 0.0000 0.0000 ( 18029 PWs)   bands (ev):

   -56.2746 -56.2387 -56.2234 -56.1892 -56.1547 -56.1416 -56.1124 -56.1069
   -56.0892 -56.0801 -56.0783 -56.0521 -56.0253 -56.0181 -55.3374 -55.3033
   -32.8367 -32.7913 -32.7256 -32.6265 -32.5851 -32.5801 -32.5768 -32.5668
   -32.5136 -32.5006 -32.4799 -32.4737 -32.4685 -32.4448 -32.4441 -32.4245
   -32.4120 -32.4107 -32.3977 -32.3881 -32.3760 -32.3751 -32.3719 -32.3710
   -32.3460 -32.3439 -32.3221 -32.2786 -32.2722 -32.2629 -32.2621 -32.2562
   -32.2499 -32.2408 -32.2400 -32.2353 -32.2308 -32.2095 -32.2006 -32.1850
   -32.1675 -32.1076 -31.7503 -31.6455 -31.6241 -31.5661 -31.4797 -31.3690
   -17.1058 -16.8831 -16.7407 -16.6046 -16.5023 -16.3991 -16.2755 -16.2247
   -16.1714 -16.0249 -15.9651 -15.9397 -15.9012 -15.8786 -15.8742 -15.8454
   -15.8303 -15.8143 -15.7936 -15.7855 -15.7695 -15.7689 -15.7206 -15.6682
   -15.5741 -15.5074 -15.4366 -15.3794 -15.0546 -13.8387 -13.7189  -4.4261
    -4.2909  -4.2166  -4.2015  -4.1505  -4.0399  -3.8196  -3.7959  -3.7302
    -3.5742  -3.5259  -3.4688  -3.4091  -3.3393  -3.2825  -3.2716  -3.1702
    -3.1457  -3.1412  -3.1350  -3.0544  -3.0519  -3.0264  -3.0021  -2.9631
    -2.8714  -2.7518  -2.7075  -2.6734  -2.6524  -2.6442  -2.6217  -2.5925
    -2.5605  -2.5264  -2.5249  -2.4896  -2.4476  -2.3237  -2.1767  -2.1327
    -2.0627  -1.9710  -1.8996  -1.8344  -1.7941  -1.7561  -1.7314  -1.6819
    -1.6512  -1.6187  -1.5410  -1.4522  -1.4100  -1.3063  -1.2902  -1.2227
    -1.1871  -1.1139  -1.0707  -1.0695  -1.0265  -0.9384  -0.9112  -0.7879
    -0.7606  -0.7520  -0.7398  -0.7304  -0.6199  -0.5169  -0.4863  -0.4784
    -0.4766  -0.3919  -0.3419  -0.3348  -0.3200  -0.3126  -0.2631  -0.1876
    -0.1470  -0.0961   0.0467   0.2732   0.2735   0.3389   0.5715   0.6422
     0.6883   0.8453   1.2742   1.3277   2.8235   2.8892   2.9204   2.9538
     2.9817   3.0300   3.3204   3.3339   3.3575   3.3854   3.4030

[...]

          k =-0.0760-0.0000 0.0000 ( 17886 PWs)   bands (ev):

[...]

 ------ SPIN DOWN ----------

[...]

          k = 0.0380-0.0419 0.0000 ( 17876 PWs)   bands (ev):

[...]

          k =-0.0760-0.0839 0.0000 ( 17948 PWs)   bands (ev):

   -56.2568 -56.2563 -56.2063 -56.2061 -56.1505 -56.1265 -56.1219 -56.0959
   -56.0945 -56.0842 -56.0827 -56.0353 -56.0349 -56.0317 -55.3203 -55.3203
   -32.7148 -32.6424 -32.6395 -32.5404 -32.5402 -32.5399 -32.5256 -32.4990
   -32.4987 -32.4723 -32.4684 -32.4680 -32.4619 -32.4193 -32.4171 -32.4162
   -32.4105 -32.4098 -32.3961 -32.3904 -32.3895 -32.3856 -32.3740 -32.3584
   -32.3549 -32.3526 -32.3508 -32.3462 -32.3242 -32.3241 -32.3192 -32.3146
   -32.2917 -32.2905 -32.2652 -32.2650 -32.2650 -32.2639 -32.2342 -32.2209
   -32.2207 -32.2124 -31.6367 -31.6366 -31.5630 -31.5628 -31.5229 -31.5229
   -16.8134 -16.4589 -16.4202 -16.3345 -16.3270 -16.2279 -16.2081 -16.1191
   -16.0776 -16.0553 -16.0531 -16.0046 -15.9806 -15.9664 -15.9447 -15.8942
   -15.8792 -15.8504 -15.8476 -15.7929 -15.7903 -15.7891 -15.7879 -15.7518
   -15.7488 -15.7101 -15.7069 -15.6049 -15.4380 -13.8199 -13.8197  -3.8299
    -3.7281  -3.6735  -3.5576  -3.4834  -3.4479  -3.4015  -3.3920  -3.3181
    -3.2746  -3.2703  -3.1877  -3.1766  -3.1762  -3.1633  -3.1015  -3.0866
    -3.0621  -3.0391  -3.0106  -2.9829  -2.9710  -2.9693  -2.9488  -2.9401
    -2.9209  -2.9182  -2.8885  -2.8634  -2.8419  -2.8256  -2.6656  -2.6615
    -2.5756  -2.5157  -2.5144  -2.4350  -2.4267  -2.3825  -2.3487  -2.2928
    -2.2531  -2.0976  -2.0756  -2.0734  -2.0071  -1.9809  -1.9123  -1.8542
    -1.8389  -1.7914  -1.7341  -1.6174  -1.5976  -1.5733  -1.4682  -1.4654
    -1.3918  -1.3173  -1.2733  -1.2679  -1.2646  -1.2364  -1.2315  -1.2285
    -1.1189  -1.0665  -1.0196  -1.0123  -0.9992  -0.7956  -0.7358  -0.7227
    -0.6098  -0.5567  -0.3729  -0.3666  -0.3256  -0.2110  -0.2085  -0.2078
    -0.1565  -0.0319  -0.0201   0.0474   0.0901   0.1030   0.1423   0.1439
     1.0368   1.0379   1.1455   1.1461   2.9944   3.0766   3.0823   3.1315
     3.2719   3.3228   3.3285   3.3744   3.3756   3.3794   3.4855

     the Fermi energy is     2.8891 ev

!    total energy              =   -2883.85327308 Ry
     estimated scf accuracy    <       0.00000005 Ry
     smearing contrib. (-TS)   =      -0.03660380 Ry
     internal energy E=F+TS    =   -2883.81666928 Ry

     The total energy is F=E-TS. E is the sum of the following terms:
     one-electron contribution =  -24914.68627166 Ry
     hartree contribution      =   12532.19621702 Ry
     xc contribution           =    -468.94581352 Ry
     ewald contribution        =    9967.61861061 Ry
     electric field correction =       0.00058828 Ry

     total magnetization       =    -0.00 Bohr mag/cell
     absolute magnetization    =     0.00 Bohr mag/cell

     convergence has been achieved in  60 iterations

     Forces acting on atoms (cartesian axes, Ry/au):

     atom    1 type  1   force =     0.00008951    0.00000264    0.08978557
     atom    2 type  1   force =    -0.00003438    0.00030930   -0.18452455
     atom    3 type  2   force =     0.00003635   -0.00000689   -0.02422092
     atom    4 type  2   force =    -0.00000671   -0.00002123    0.05194178
     atom    5 type  2   force =    -0.01336059   -0.00027344    0.00585320
     atom    6 type  2   force =     0.01333384    0.00020892    0.00582334
     atom    7 type  1   force =    -0.00003129    0.00001788    0.00041932
     atom    8 type  1   force =     0.00000414    0.00042364    0.00039936
     atom    9 type  2   force =     0.00000607    0.00001642    0.00083564
     atom   10 type  2   force =     0.00000313    0.00000536   -0.00042917
     atom   11 type  2   force =     0.00018062   -0.00022621    0.00048217
     atom   12 type  2   force =    -0.00019226   -0.00027082    0.00049141
     atom   13 type  1   force =    -0.00010686   -0.00000565   -0.00073969
     atom   14 type  1   force =     0.00000789   -0.00074348    0.00054396
     atom   15 type  2   force =     0.00065675   -0.00001223   -0.00071562
     atom   16 type  2   force =    -0.00011439    0.00000971    0.00012892
     atom   17 type  2   force =    -0.00028616    0.00020617   -0.00015162
     atom   18 type  2   force =    -0.00021022    0.00024199    0.00020071
     atom   19 type  1   force =     0.00211448   -0.00002170   -0.00078808
     atom   20 type  1   force =    -0.00082141    0.00015796   -0.00002376
     atom   21 type  2   force =     0.00005695    0.00007588    0.10529168
     atom   22 type  2   force =     0.00024555   -0.00001265    0.00044981
     atom   23 type  2   force =    -0.06755258   -0.00028141   -0.02598646
     atom   24 type  2   force =     0.06745698    0.00015961   -0.02601802
     atom   25 type  1   force =     0.00009976    0.00000679    0.08888510
     atom   26 type  1   force =    -0.00007218   -0.00039615   -0.18453533
     atom   27 type  2   force =     0.00002849   -0.00001951   -0.02315978
     atom   28 type  2   force =    -0.00000921   -0.00002127    0.05199071
     atom   29 type  2   force =    -0.01336567   -0.00027274    0.00585011
     atom   30 type  2   force =     0.01333332    0.00022686    0.00582316
     atom   31 type  1   force =    -0.00003552    0.00002084    0.00076531
     atom   32 type  1   force =    -0.00001056   -0.00041870    0.00041450
     atom   33 type  2   force =     0.00000207    0.00001140   -0.00032426
     atom   34 type  2   force =    -0.00001171    0.00000478    0.00007637
     atom   35 type  2   force =     0.00020168    0.00026384    0.00055392
     atom   36 type  2   force =    -0.00015995    0.00026053    0.00042469
     atom   37 type  1   force =    -0.00007899   -0.00001688    0.00081634
     atom   38 type  1   force =     0.00013113    0.00075625    0.00053821
     atom   39 type  2   force =     0.00004746    0.00002023   -0.00042369
     atom   40 type  2   force =    -0.00009643    0.00001329   -0.00050918
     atom   41 type  2   force =    -0.00061733   -0.00019899   -0.00021767
     atom   42 type  2   force =    -0.00042830   -0.00024399    0.00027884
     atom   43 type  1   force =     0.00229861    0.00001238    0.00047767
     atom   44 type  1   force =    -0.00269532   -0.00015528   -0.00002191
     atom   45 type  2   force =     0.00005957    0.00007648    0.10525124
     atom   46 type  2   force =    -0.06755086   -0.00015998   -0.02597873
     atom   47 type  2   force =     0.06745451    0.00027007   -0.02602461

     Total force =     0.366827     Total SCF correction =     0.000664
  @ DRIVER MODE: Message from server: STATUS
  @ DRIVER MODE: Message from server: GETFORCE
  @ DRIVER MODE: Returning v,forces,stress,ensemble

     Writing output data file ./calc.save/
  @ DRIVER MODE: Message from server: EXIT
  @ DRIVE MODE: Exiting

     General routines

     Parallel routines

   This run was terminated on:  21:44:18  22Jul2021

   JOB DONE.