     Program PWSCF v.6.7GPU starts on 23Aug2021 at 17:49:13

     R & G space division:  proc/nbgrp/npool/nimage =       6
     Reading input from /storage/home/hcoda1/3/ntian30/research/carbon/CH_vib/ads_slab/CHN2_a/out_0010/pw.inp
Warning: card &CELL ignored
Warning: card   CELL_DYNAMICS='IPI', ignored
Warning: card / ignored

     Current dimensions of program PWSCF are:
     Max number of different atomic species (ntypx) = 10
     Max number of k-points (npk) =  40000
     Max angular momentum in pseudopotentials (lmaxx) =  3
     Presently no symmetry can be used with electric field

     Message from routine cell_base_init:
     DEPRECATED: use true lattice parameter, not A to a.u. conversion factor

     IMPORTANT: XC functional enforced from input :
     Exchange-correlation= BEEF-VDW
                           (   1   4  43  14   2   0   0)
     Any further DFT definition will be discarded
     Please, verify this is what you really want

  @ DRIVER MODE: Connecting to
 qe_1139763_2632791.sched-torque.pace.gatech.edum9esal5h_scratch
  using UNIX socket
  @ DRIVER MODE: Message from server: STATUS
  @ DRIVER MODE: Message from server: INIT
  @ DRIVER MODE: Receiving replica           0          -1
  @ DRIVER MODE: Receiving encoded integer          25
  @ DRIVER MODE:  SCF:  T  FORCE:  T  STRESS:  F  VC:  F  ENSEMBLE:  F
  @ DRIVER MODE:  SCF:  T  FORCE:  T  STRESS:  F  VC:  F  ENSEMBLE:  F

     Using Slab Decomposition

     bravais-lattice index     =            0
     lattice parameter (alat)  =       1.8897  a.u.
     unit-cell volume          =    6658.9804 (a.u.)^3
     number of atoms/cell      =           51
     number of atomic types    =            5
     number of electrons       =       393.00
     number of Kohn-Sham states=          206
     kinetic-energy cutoff     =      29.3995  Ry
     charge density cutoff     =     293.9946  Ry
     scf convergence threshold =      7.3E-08
     mixing beta               =       0.0500
     number of iterations used =            8  plain     mixing
     Exchange-correlation= BEEF-VDW
                           (   1   4  43  14   2   0   0)

     celldm(1)=   1.889726  celldm(2)=   0.000000  celldm(3)=   0.000000
     celldm(4)=   0.000000  celldm(5)=   0.000000  celldm(6)=   0.000000

     crystal axes: (cart. coord. in units of alat)
               a(1) = (   6.579727   0.000000   0.000000 )
               a(2) = (  -0.000775   5.961596   0.000000 )
               a(3) = (   0.000000   0.000000  25.155947 )

     reciprocal axes: (cart. coord. in units 2 pi/alat)
               b(1) = (  0.151982  0.000020  0.000000 )
               b(2) = (  0.000000  0.167740  0.000000 )
               b(3) = (  0.000000  0.000000  0.039752 )

     PseudoPot. # 1 for Ti read from file:
     /storage/coda1/p-amedford6/0/shared/rich_project_chbe-medford/medford-share/data/pseudos_module/espresso/nninc/pbe/van/Ti.UPF
     MD5 check sum: 8e4df49b7f0d34bbd5052bf3f5ea0213
     Pseudo is Ultrasoft, Zval = 12.0
     Generated by new atomic code, or converted to UPF format
     Using radial grid of  851 points,  6 beta functions with:
                l(1) =   0
                l(2) =   0
                l(3) =   1
                l(4) =   1
                l(5) =   2
                l(6) =   2
     Q(r) pseudized with  8 coefficients,  rinner =    1.000   1.000   1.000
                                                       1.000   1.000

     PseudoPot. # 2 for O  read from file:
     /storage/coda1/p-amedford6/0/shared/rich_project_chbe-medford/medford-share/data/pseudos_module/espresso/nninc/pbe/van/O.UPF
     MD5 check sum: 78c19812648e8988a0fe644b0f25305e
     Pseudo is Ultrasoft, Zval =  6.0
     Generated by new atomic code, or converted to UPF format
     Using radial grid of  737 points,  4 beta functions with:
                l(1) =   0
                l(2) =   0
                l(3) =   1
                l(4) =   1
     Q(r) pseudized with  8 coefficients,  rinner =    0.800   0.800   0.800

     PseudoPot. # 3 for N  read from file:
     /storage/coda1/p-amedford6/0/shared/rich_project_chbe-medford/medford-share/data/pseudos_module/espresso/nninc/pbe/van/N.UPF
     MD5 check sum: 90d10febe142ad51ac9d5be1deb811c4
     Pseudo is Ultrasoft, Zval =  5.0
     Generated by new atomic code, or converted to UPF format
     Using radial grid of  729 points,  4 beta functions with:
                l(1) =   0
                l(2) =   0
                l(3) =   1
                l(4) =   1
     Q(r) pseudized with  8 coefficients,  rinner =    0.800   0.800   0.800

     PseudoPot. # 4 for C  read from file:
     /storage/coda1/p-amedford6/0/shared/rich_project_chbe-medford/medford-share/data/pseudos_module/espresso/nninc/pbe/van/C.UPF
     MD5 check sum: 1a69bf6b8db32088f5b2163dbdb77a27
     Pseudo is Ultrasoft, Zval =  4.0
     Generated by new atomic code, or converted to UPF format
     Using radial grid of  721 points,  4 beta functions with:
                l(1) =   0
                l(2) =   0
                l(3) =   1
                l(4) =   1
     Q(r) pseudized with  8 coefficients,  rinner =    0.800   0.800   0.800

     PseudoPot. # 5 for H  read from file:
     /storage/coda1/p-amedford6/0/shared/rich_project_chbe-medford/medford-share/data/pseudos_module/espresso/nninc/pbe/van/H.UPF
     MD5 check sum: b5ee9d7bfd3a09ee7748110bda690ff7
     Pseudo is Ultrasoft, Zval =  1.0
     Generated by new atomic code, or converted to UPF format
     Using radial grid of  615 points,  1 beta functions with:
                l(1) =   0
     Q(r) pseudized with  8 coefficients,  rinner =    0.800

     atomic species   valence    mass     pseudopotential
        Ti1           12.00    47.86700     Ti( 1.00)
        O1             6.00    15.99900     O ( 1.00)
        N1             5.00    14.00700     N ( 1.00)
        C1             4.00    12.01100     C ( 1.00)
        H1             1.00     1.00800     H ( 1.00)

     No symmetry found

   Cartesian axes

     site n.     atom                  positions (alat units)
         1           Ti1 tau(   1) = (   0.0004258   2.9801865   6.0000000  )
         2           Ti1 tau(   2) = (   3.2906075   1.4906267   6.0002472  )
         3           O1  tau(   3) = (   0.0006271   0.0005054   7.9858123  )
         4           O1  tau(   4) = (   3.2906025   0.0005020   7.3038282  )
         5           O1  tau(   5) = (   4.5942328   1.4918067   9.2879030  )
         6           O1  tau(   6) = (   1.9868534   1.4903216   9.2879459  )
         7           Ti1 tau(   7) = (   3.2907910   2.8959150   9.1758416  )
         8           Ti1 tau(   8) = (   0.0015273   1.4827037   9.2680791  )
         9           O1  tau(   9) = (   3.3035207   5.9473585  11.3310231  )
        10           O1  tau(  10) = (   0.0116148   5.9584955  10.6183126  )
        11           O1  tau(  11) = (   1.3208475   1.4758257  12.6111770  )
        12           O1  tau(  12) = (   5.3082752   1.4698866  12.6250687  )
        13           Ti1 tau(  13) = (   6.5356446   2.9641997  12.6185077  )
        14           Ti1 tau(  14) = (   3.2189969   1.4721334  12.4835407  )
        15           O1  tau(  15) = (   0.0393797   5.9575543  14.6615593  )
        16           O1  tau(  16) = (   3.2985004   5.9511915  13.9168519  )
        17           O1  tau(  17) = (   4.5692420   1.4945533  16.0479082  )
        18           O1  tau(  18) = (   2.0930108   1.4957509  16.0624375  )
        19           Ti1 tau(  19) = (   3.3255584   2.9801015  15.7018593  )
        20           Ti1 tau(  20) = (   6.5669960   1.4976744  15.8335939  )
        21           O1  tau(  21) = (   3.2904802   0.0005063   4.7018136  )
        22           O1  tau(  22) = (   0.0392190   0.0140749  17.2134629  )
        23           O1  tau(  23) = (   1.3043587   1.4918075   6.0039043  )
        24           O1  tau(  24) = (   5.2767064   1.4903225   6.0039473  )
        25           Ti1 tau(  25) = (   0.0000382   5.9609847   6.0000000  )
        26           Ti1 tau(  26) = (   3.2902200   4.4714249   6.0002472  )
        27           O1  tau(  27) = (   0.0002396   2.9813036   7.9858123  )
        28           O1  tau(  28) = (   3.2902150   2.9813002   7.3038282  )
        29           O1  tau(  29) = (   4.5938453   4.4726049   9.2879030  )
        30           O1  tau(  30) = (   1.9864658   4.4711199   9.2879459  )
        31           Ti1 tau(  31) = (   3.2891106   5.8743827   9.1763621  )
        32           Ti1 tau(  32) = (   0.0006254   4.4649316   9.2693709  )
        33           O1  tau(  33) = (   3.3031456   2.9698018  11.3313920  )
        34           O1  tau(  34) = (   0.0092240   2.9805883  10.6323155  )
        35           O1  tau(  35) = (   1.3161540   4.4602657  12.6201046  )
        36           O1  tau(  36) = (   5.3094940   4.4638127  12.6365964  )
        37           Ti1 tau(  37) = (   6.5345696   5.9399333  12.5489351  )
        38           Ti1 tau(  38) = (   3.2177077   4.4523588  12.4826418  )
        39           O1  tau(  39) = (   0.0172592   2.9259015  14.6604509  )
        40           O1  tau(  40) = (   3.3090452   2.9742471  13.9045505  )
        41           O1  tau(  41) = (   4.5663562   4.4668710  16.0744231  )
        42           O1  tau(  42) = (   2.0880155   4.4652721  16.0825153  )
        43           Ti1 tau(  43) = (   3.2840513   5.9573583  15.7162584  )
        44           Ti1 tau(  44) = (   0.0037803   4.6334615  16.1183230  )
        45           O1  tau(  45) = (   3.2900926   2.9813045   4.7018136  )
        46           O1  tau(  46) = (   1.3039711   4.4726057   6.0039043  )
        47           O1  tau(  47) = (   5.2763189   4.4711207   6.0039473  )
        48           N1  tau(  48) = (   0.6403421   2.7964730  18.4694378  )
        49           C1  tau(  49) = (   1.0548146   2.6313466  19.5673862  )
        50           H1  tau(  50) = (   1.9720372   2.4638087  20.0927579  )
        51           N1  tau(  51) = (   0.0785678   2.9476959  17.3929364  )

     number of k points=    10  Fermi-Dirac smearing, width (Ry)=  0.0073
                       cart. coord. in units 2pi/alat
        k(    1) = (   0.0000000   0.0000000   0.0000000), wk =   0.1250000
        k(    2) = (   0.0000000   0.0419351   0.0000000), wk =   0.2500000
        k(    3) = (   0.0000000  -0.0838702   0.0000000), wk =   0.1250000
        k(    4) = (   0.0379955   0.0000049   0.0000000), wk =   0.2500000
        k(    5) = (   0.0379955   0.0419400   0.0000000), wk =   0.2500000
        k(    6) = (   0.0379955  -0.0838652   0.0000000), wk =   0.2500000
        k(    7) = (   0.0379955  -0.0419301   0.0000000), wk =   0.2500000
        k(    8) = (  -0.0759910  -0.0000099   0.0000000), wk =   0.1250000
        k(    9) = (  -0.0759910   0.0419252   0.0000000), wk =   0.2500000
        k(   10) = (  -0.0759910  -0.0838800   0.0000000), wk =   0.1250000

     Initial potential from superposition of free atoms

     starting charge  376.99918, renormalised to  393.00000

     negative rho (up, down):  1.612E-02 0.000E+00

     %%%%%%%%%%%%%%%%%%%%%%%%%%%%%%%%%%%%%%%%%%%%%%%%%%%%%%%%%%%%%%%%%%%%%%%%
     %                                                                      %
     % You are using vdW-DF, which was implemented by the Thonhauser group. %
     % Please cite the following two papers that made this development      %
     % possible and the two reviews that describe the various versions:     %
     %                                                                      %
     %   T. Thonhauser et al., PRL 115, 136402 (2015).                      %
     %   T. Thonhauser et al., PRB 76, 125112 (2007).                       %
     %   K. Berland et al., Rep. Prog. Phys. 78, 066501 (2015).             %
     %   D.C. Langreth et al., J. Phys.: Condens. Matter 21, 084203 (2009). %
     %                                                                      %
     %                                                                      %
     % If you are calculating the stress with vdW-DF, please also cite:     %
     %                                                                      %
     %   R. Sabatini et al., J. Phys.: Condens. Matter 24, 424209 (2012).   %
     %                                                                      %
     %%%%%%%%%%%%%%%%%%%%%%%%%%%%%%%%%%%%%%%%%%%%%%%%%%%%%%%%%%%%%%%%%%%%%%%%

     Adding external electric field

     Computed dipole along edir(3) :
        Dipole               -7.3725 Ry au,        -18.7391 Debye
        Dipole field         -0.0139 Ry au,

        Potential amp.        1.2897 Ry
        Total length         46.3494 bohr

     Starting wfcs are  297 atomic wfcs
  @ DRIVER MODE: Message from server: STATUS
  @ DRIVER MODE: Message from server: POSDATA
  @ DRIVER MODE: Reading and sharing cell
  @ DRIVER MODE: Reading and sharing positions
  @ DRIVER MODE: Received positions

     Self-consistent Calculation

     iteration #  1     ecut=    29.40 Ry     beta= 0.05
     Davidson diagonalization with overlap
     c_bands:  1 eigenvalues not converged
     c_bands:  1 eigenvalues not converged
     c_bands:  1 eigenvalues not converged
     c_bands:  1 eigenvalues not converged
     ethr =  1.00E-05,  avg # of iterations = 18.6

[...]

     total energy              =   -2707.98888365 Ry
     estimated scf accuracy    <    2533.38494637 Ry

[...]

     iteration #  3     ecut=    29.40 Ry     beta= 0.05
     Davidson diagonalization with overlap
     ethr =  1.00E-02,  avg # of iterations = 15.4

[...]

     iteration # 64     ecut=    29.40 Ry     beta= 0.05
     Davidson diagonalization with overlap
     c_bands:  1 eigenvalues not converged
     ethr =  1.92E-10,  avg # of iterations = 15.2

[...]

     total energy              =   -2936.63873701 Ry
     estimated scf accuracy    <       0.00000008 Ry

     iteration # 68     ecut=    29.40 Ry     beta= 0.05
     Davidson diagonalization with overlap
     ethr =  2.15E-11,  avg # of iterations =  7.6

     negative rho (up, down):  1.642E-02 0.000E+00

     Adding external electric field

     Computed dipole along edir(3) :
        Dipole                0.6650 Ry au,          1.6903 Debye
        Dipole field          0.0013 Ry au,

        Potential amp.       -0.1163 Ry
        Total length         46.3494 bohr

     End of self-consistent calculation

          k = 0.0000 0.0000 0.0000 ( 18029 PWs)   bands (ev):

   -55.9510 -55.9461 -55.9169 -55.9102 -55.8137 -55.8094 -55.7785 -55.7732
   -55.7615 -55.7277 -55.7274 -55.6940 -55.5048 -55.2830 -54.9297 -54.8957
   -32.5005 -32.4338 -32.3129 -32.2704 -32.2605 -32.2534 -32.2436 -32.2185
   -32.1939 -32.1713 -32.1480 -32.1399 -32.1257 -32.1032 -32.0977 -32.0859
   -32.0557 -32.0492 -32.0443 -32.0191 -32.0152 -32.0081 -31.9867 -31.9680
   -31.9587 -31.9509 -31.9506 -31.9484 -31.9386 -31.9296 -31.9255 -31.9027
   -31.8925 -31.8808 -31.8777 -31.8684 -31.8400 -31.7335 -31.7242 -31.5543
   -31.5185 -31.5025 -31.3369 -31.2485 -31.2261 -31.1537 -31.0672 -30.9561
   -19.3047 -16.6997 -16.4294 -16.1961 -16.1058 -16.0817 -15.9613 -15.7969
   -15.6780 -15.6223 -15.5215 -15.5165 -15.4882 -15.4561 -15.4356 -15.4233
   -15.3991 -15.3953 -15.3720 -15.3583 -15.3134 -15.2926 -15.2762 -15.1827
   -15.1290 -15.0865 -15.0512 -15.0267 -15.0111 -14.5547 -14.0182 -13.4322
   -13.3158  -6.7558  -5.2405  -4.2860  -4.0724  -4.0600  -3.9153  -3.8581
    -3.8093  -3.7047  -3.5684  -3.5024  -3.1914  -3.1353  -3.1203  -3.1045
    -3.0726  -2.8590  -2.8044  -2.7669  -2.7398  -2.7297  -2.7214  -2.7157
    -2.6993  -2.6718  -2.5651  -2.4944  -2.4193  -2.4099  -2.3528  -2.3501
    -2.2640  -2.2408  -2.2185  -2.1969  -2.1926  -2.1820  -2.1557  -2.1341
    -2.0086  -1.9379  -1.8266  -1.7587  -1.7233  -1.5605  -1.5429  -1.4155
    -1.4117  -1.3801  -1.3443  -1.3262  -1.2526  -1.1528  -1.1184  -1.1030
    -1.0568  -0.9736  -0.9271  -0.8460  -0.8010  -0.7753  -0.7227  -0.7148
    -0.7066  -0.6600  -0.5087  -0.4322  -0.3786  -0.3655  -0.3307  -0.2576
    -0.2320  -0.1491  -0.1061  -0.0816  -0.0721  -0.0181   0.0216   0.0351
     0.0487   0.0579   0.0683   0.2464   0.2954   0.3202   0.3733   0.3946
     0.5725   0.6039   0.7030   0.7922   1.0187   1.0924   1.1715   1.2708
     1.2843   1.4901   1.6637   1.7093   3.1797   3.2697   3.3111   3.3159
     3.4215   3.4878   3.6346   3.6559   3.6804   3.7237

[...]

          k = 0.0380-0.0419 0.0000 ( 17876 PWs)   bands (ev):

[...]

          k =-0.0760-0.0000 0.0000 ( 17886 PWs)   bands (ev):

[...]

          k =-0.0760-0.0839 0.0000 ( 17948 PWs)   bands (ev):

   -55.9343 -55.9334 -55.9288 -55.9273 -55.7999 -55.7966 -55.7924 -55.7858
   -55.7452 -55.7432 -55.7124 -55.7095 -55.5036 -55.2841 -54.9127 -54.9126
   -32.3038 -32.3028 -32.2494 -32.2487 -32.2294 -32.2285 -32.2037 -32.2023
   -32.1584 -32.1540 -32.1329 -32.1300 -32.0833 -32.0802 -32.0776 -32.0710
   -32.0656 -32.0581 -32.0539 -32.0529 -32.0508 -32.0479 -32.0159 -32.0058
   -32.0047 -31.9927 -31.9868 -31.9762 -31.9461 -31.9453 -31.9433 -31.9409
   -31.9268 -31.9252 -31.9218 -31.9191 -31.8785 -31.7359 -31.7211 -31.6230
   -31.5284 -31.5188 -31.2388 -31.2387 -31.1498 -31.1496 -31.1105 -31.1104
   -19.3019 -16.1318 -16.1097 -15.9060 -15.8705 -15.8652 -15.8530 -15.7426
   -15.6650 -15.6471 -15.6449 -15.5740 -15.5474 -15.5287 -15.4915 -15.4863
   -15.4725 -15.4691 -15.4379 -15.4160 -15.4091 -15.3914 -15.3835 -15.3059
   -15.2706 -15.2661 -15.2451 -15.1343 -14.9952 -14.7342 -14.0242 -13.4177
   -13.4174  -6.7550  -5.2098  -4.2547  -4.0505  -3.4217  -3.3968  -3.1470
    -3.1104  -3.1022  -3.0458  -2.8737  -2.8575  -2.8424  -2.8168  -2.7854
    -2.7799  -2.7735  -2.7596  -2.7411  -2.7059  -2.6730  -2.6475  -2.6250
    -2.6200  -2.6106  -2.5803  -2.5668  -2.5412  -2.5221  -2.4994  -2.4835
    -2.4694  -2.4589  -2.2788  -2.1938  -2.1575  -2.0938  -2.0846  -2.0601
    -2.0168  -2.0082  -1.9887  -1.9429  -1.8077  -1.6950  -1.6541  -1.6357
    -1.5581  -1.5202  -1.4456  -1.3826  -1.3424  -1.3341  -1.2855  -1.2216
    -1.1748  -1.1584  -1.0996  -1.0670  -1.0184  -1.0015  -0.9527  -0.9127
    -0.9086  -0.8330  -0.7795  -0.7597  -0.7223  -0.7178  -0.6791  -0.6238
    -0.6069  -0.5731  -0.4560  -0.4312  -0.3203  -0.2397  -0.1901   0.0096
     0.0834   0.1202   0.1748   0.2405   0.3222   0.3445   0.3562   0.3664
     0.4178   0.4680   0.5756   0.5868   0.6216   0.7456   1.1815   1.4046
     1.4561   1.4567   1.5291   1.5294   3.4817   3.4987   3.5212   3.5362
     3.6894   3.6945   3.7160   3.7168   3.8445   3.8601

     the Fermi energy is     3.1817 ev

!    total energy              =   -2936.63876547 Ry
     estimated scf accuracy    <       0.00000006 Ry
     smearing contrib. (-TS)   =      -0.02149840 Ry
     internal energy E=F+TS    =   -2936.61726707 Ry

     The total energy is F=E-TS. E is the sum of the following terms:
     one-electron contribution =  -24412.64615685 Ry
     hartree contribution      =   12291.69099531 Ry
     xc contribution           =    -483.59279293 Ry
     ewald contribution        =    9667.92985284 Ry
     electric field correction =       0.00083456 Ry

     convergence has been achieved in  68 iterations

     Forces acting on atoms (cartesian axes, Ry/au):

     atom    1 type  1   force =     0.00000785   -0.00025113    0.09652222
     atom    2 type  1   force =     0.00006911   -0.00047096   -0.17538267
     atom    3 type  2   force =     0.00017529   -0.00006210   -0.02448087
     atom    4 type  2   force =     0.00003256   -0.00142448    0.05287185
     atom    5 type  2   force =    -0.01166535   -0.00077904    0.00290742
     atom    6 type  2   force =     0.01353692   -0.00029493    0.00321992
     atom    7 type  1   force =     0.00095199    0.00042524   -0.01153001
     atom    8 type  1   force =    -0.00000527    0.00993351    0.02614108
     atom    9 type  2   force =    -0.00030682    0.00021109    0.00024400
     atom   10 type  2   force =    -0.00267245    0.00000088   -0.01399593
     atom   11 type  2   force =     0.00068918    0.00022285    0.00031499
     atom   12 type  2   force =    -0.00057275    0.00000201   -0.00002337
     atom   13 type  1   force =     0.00035519   -0.00030622    0.00040357
     atom   14 type  1   force =    -0.00060172   -0.00056189   -0.00048954
     atom   15 type  2   force =    -0.00013943   -0.00013339    0.00062104
     atom   16 type  2   force =     0.00023260   -0.00011053   -0.00035162
     atom   17 type  2   force =    -0.00000378    0.00009277   -0.00024325
     atom   18 type  2   force =    -0.00029323    0.00026364   -0.00024462
     atom   19 type  1   force =    -0.00046309   -0.00004040   -0.00074078
     atom   20 type  1   force =     0.00044858    0.00014089    0.00024033
     atom   21 type  2   force =     0.00005792    0.00001750    0.10324931
     atom   22 type  2   force =     0.00015613   -0.00040301   -0.00017721
     atom   23 type  2   force =    -0.07144748   -0.00007026   -0.02763874
     atom   24 type  2   force =     0.07142450    0.00040059   -0.02771514
     atom   25 type  1   force =     0.00024844   -0.00024439    0.09597095
     atom   26 type  1   force =     0.00010017   -0.00027371   -0.17568975
     atom   27 type  2   force =     0.00020037   -0.00017364   -0.02351768
     atom   28 type  2   force =     0.00004659   -0.00120915    0.05302063
     atom   29 type  2   force =    -0.01183623   -0.00001950    0.00275384
     atom   30 type  2   force =     0.01361134    0.00035628    0.00304801
     atom   31 type  1   force =     0.00086583    0.00349429   -0.01215277
     atom   32 type  1   force =     0.00012197   -0.01160527    0.02661344
     atom   33 type  2   force =    -0.00009951    0.00007539   -0.00034393
     atom   34 type  2   force =    -0.00274458   -0.00024856   -0.02149827
     atom   35 type  2   force =     0.00042381   -0.00003521    0.00029447
     atom   36 type  2   force =    -0.00033555   -0.00023001   -0.00022185
     atom   37 type  1   force =     0.00045547   -0.00077222   -0.00040118
     atom   38 type  1   force =    -0.00058747    0.00094906    0.00011336
     atom   39 type  2   force =    -0.00031604   -0.00020230    0.00070614
     atom   40 type  2   force =     0.00009806    0.00020448    0.00000255
     atom   41 type  2   force =     0.00003676    0.00026414   -0.00007167
     atom   42 type  2   force =     0.00005615    0.00016773   -0.00004560
     atom   43 type  1   force =    -0.00001372    0.00057592   -0.00071933
     atom   44 type  1   force =     0.00035149    0.00086683   -0.00090506
     atom   45 type  2   force =     0.00006244    0.00002373    0.10323547
     atom   46 type  2   force =    -0.07148987   -0.00000765   -0.02766297
     atom   47 type  2   force =     0.07143294    0.00036965   -0.02772069
     atom   48 type  3   force =    -0.00167811    0.00218253   -0.00403807
     atom   49 type  4   force =     0.00431755   -0.00185533    0.00582796
     atom   50 type  5   force =    -0.00318160    0.00162007   -0.00079881
     atom   51 type  3   force =    -0.00011317   -0.00107579    0.00047883

     Total force =     0.367558     Total SCF correction =     0.000514
  @ DRIVER MODE: Message from server: STATUS
  @ DRIVER MODE: Message from server: GETFORCE
  @ DRIVER MODE: Returning v,forces,stress,ensemble

     Writing output data file ./calc.save/
  @ DRIVER MODE: Message from server: EXIT
  @ DRIVE MODE: Exiting

     General routines

     Parallel routines

   This run was terminated on:  18:18:16  23Aug2021

   JOB DONE.