     Program PWSCF v.6.7GPU starts on 18Oct2021 at 21:40:20

     R & G space division:  proc/nbgrp/npool/nimage =       8
     Reading input from /storage/home/hcoda1/3/ntian30/research/carbon/CxH_vib/Thiel_calc/ads_slab/H3N_perslab/out_0020/pw.inp
Warning: card &CELL ignored
Warning: card   CELL_DYNAMICS='IPI', ignored
Warning: card / ignored

     Current dimensions of program PWSCF are:
     Max number of different atomic species (ntypx) = 10
     Max number of k-points (npk) =  40000
     Max angular momentum in pseudopotentials (lmaxx) =  3
     Presently no symmetry can be used with electric field

     Message from routine cell_base_init:
     DEPRECATED: use true lattice parameter, not A to a.u. conversion factor

     IMPORTANT: XC functional enforced from input :
     Exchange-correlation= BEEF-VDW
                           (   1   4  43  14   2   0   0)
     Any further DFT definition will be discarded
     Please, verify this is what you really want

  @ DRIVER MODE: Connecting to
 qe_1139763_3255141.sched-torque.pace.gatech.edu8vt0uvdp_scratch
  using UNIX socket
  @ DRIVER MODE: Message from server: STATUS
  @ DRIVER MODE: Message from server: INIT
  @ DRIVER MODE: Receiving replica           0          -1
  @ DRIVER MODE: Receiving encoded integer          25
  @ DRIVER MODE:  SCF:  T  FORCE:  T  STRESS:  F  VC:  F  ENSEMBLE:  F
  @ DRIVER MODE:  SCF:  T  FORCE:  T  STRESS:  F  VC:  F  ENSEMBLE:  F

     Using Slab Decomposition

     bravais-lattice index     =            0
     lattice parameter (alat)  =       1.8897  a.u.
     unit-cell volume          =    9988.4706 (a.u.)^3
     number of atoms/cell      =           57
     number of atomic types    =            4
     number of electrons       =       434.00
     number of Kohn-Sham states=          227
     kinetic-energy cutoff     =      29.3995  Ry
     charge density cutoff     =     293.9946  Ry
     scf convergence threshold =      7.3E-08
     mixing beta               =       0.0500
     number of iterations used =            8  plain     mixing
     Exchange-correlation= BEEF-VDW
                           (   1   4  43  14   2   0   0)

     celldm(1)=   1.889726  celldm(2)=   0.000000  celldm(3)=   0.000000
     celldm(4)=   0.000000  celldm(5)=   0.000000  celldm(6)=   0.000000

     crystal axes: (cart. coord. in units of alat)
               a(1) = (   6.579727   0.000000   0.000000 )
               a(2) = (  -0.001163   8.942395   0.000000 )
               a(3) = (   0.000000   0.000000  25.155947 )

     reciprocal axes: (cart. coord. in units 2 pi/alat)
               b(1) = (  0.151982  0.000020  0.000000 )
               b(2) = (  0.000000  0.111827  0.000000 )
               b(3) = (  0.000000  0.000000  0.039752 )

     PseudoPot. # 1 for O  read from file:
     /storage/coda1/p-amedford6/0/shared/rich_project_chbe-medford/medford-share/data/pseudos_module/espresso/nninc/pbe/van/O.UPF
     MD5 check sum: 78c19812648e8988a0fe644b0f25305e
     Pseudo is Ultrasoft, Zval =  6.0
     Generated by new atomic code, or converted to UPF format
     Using radial grid of  737 points,  4 beta functions with:
                l(1) =   0
                l(2) =   0
                l(3) =   1
                l(4) =   1
     Q(r) pseudized with  8 coefficients,  rinner =    0.800   0.800   0.800

     PseudoPot. # 2 for Ti read from file:
     /storage/coda1/p-amedford6/0/shared/rich_project_chbe-medford/medford-share/data/pseudos_module/espresso/nninc/pbe/van/Ti.UPF
     MD5 check sum: 8e4df49b7f0d34bbd5052bf3f5ea0213
     Pseudo is Ultrasoft, Zval = 12.0
     Generated by new atomic code, or converted to UPF format
     Using radial grid of  851 points,  6 beta functions with:
                l(1) =   0
                l(2) =   0
                l(3) =   1
                l(4) =   1
                l(5) =   2
                l(6) =   2
     Q(r) pseudized with  8 coefficients,  rinner =    1.000   1.000   1.000
                                                       1.000   1.000

     PseudoPot. # 3 for N  read from file:
     /storage/coda1/p-amedford6/0/shared/rich_project_chbe-medford/medford-share/data/pseudos_module/espresso/nninc/pbe/van/N.UPF
     MD5 check sum: 90d10febe142ad51ac9d5be1deb811c4
     Pseudo is Ultrasoft, Zval =  5.0
     Generated by new atomic code, or converted to UPF format
     Using radial grid of  729 points,  4 beta functions with:
                l(1) =   0
                l(2) =   0
                l(3) =   1
                l(4) =   1
     Q(r) pseudized with  8 coefficients,  rinner =    0.800   0.800   0.800

     PseudoPot. # 4 for H  read from file:
     /storage/coda1/p-amedford6/0/shared/rich_project_chbe-medford/medford-share/data/pseudos_module/espresso/nninc/pbe/van/H.UPF
     MD5 check sum: b5ee9d7bfd3a09ee7748110bda690ff7
     Pseudo is Ultrasoft, Zval =  1.0
     Generated by new atomic code, or converted to UPF format
     Using radial grid of  615 points,  1 beta functions with:
                l(1) =   0
     Q(r) pseudized with  8 coefficients,  rinner =    0.800

     atomic species   valence    mass     pseudopotential
        O1             6.00    15.99900     O ( 1.00)
        Ti1           12.00    47.86700     Ti( 1.00)
        N1             5.00    14.00700     N ( 1.00)
        H1             1.00     1.00800     H ( 1.00)

     No symmetry found

   Cartesian axes

     site n.     atom                  positions (alat units)
         1           O1  tau(   1) = (   0.0007354   0.0005023  10.5931620  )
         2           O1  tau(   2) = (   3.2892737   8.9266665  13.9077113  )
         3           O1  tau(   3) = (   0.0003737   0.0634608  17.2091987  )
         4           O1  tau(   4) = (   0.0006271   0.0005054   7.9858123  )
         5           O1  tau(   5) = (   3.2894549   8.9236348  11.1922400  )
         6           O1  tau(   6) = (   0.0007594   0.0424130  14.5914122  )
         7           O1  tau(   7) = (   1.9868534   1.4903216   9.2879459  )
         8           O1  tau(   8) = (   5.2335215   1.6100056  12.5826540  )
         9           O1  tau(   9) = (   2.0120305   1.5790738  16.0735584  )
        10           Ti1 tau(  10) = (   0.0007404   1.4906270   9.2895810  )
        11           Ti1 tau(  11) = (   3.2904007   1.3515224  12.5049090  )
        12           Ti1 tau(  12) = (   0.0008134   1.3014534  15.8121839  )
        13           O1  tau(  13) = (   4.5942328   1.4918067   9.2879030  )
        14           O1  tau(  14) = (   1.3469525   1.6100319  12.5826758  )
        15           O1  tau(  15) = (   4.5681566   1.5786403  16.0735304  )
        16           Ti1 tau(  16) = (   3.2902859   2.9801868   9.2893338  )
        17           Ti1 tau(  17) = (   0.0004417   2.8262804  12.4730395  )
        18           Ti1 tau(  18) = (   3.2905157   2.9388596  15.7158142  )
        19           O1  tau(  19) = (   0.0003479   2.9813005  10.5931620  )
        20           O1  tau(  20) = (   3.2902015   2.9695883  13.9046685  )
        21           O1  tau(  21) = (   0.0002396   2.9813036   7.9858123  )
        22           O1  tau(  22) = (   3.2902718   2.9641339  11.1914307  )
        23           O1  tau(  23) = (  -0.0000899   3.0294973  14.7210216  )
        24           O1  tau(  24) = (   1.9864658   4.4711199   9.2879459  )
        25           O1  tau(  25) = (   5.2357187   4.5858611  12.5822034  )
        26           O1  tau(  26) = (   2.0270018   4.4833747  16.1008177  )
        27           Ti1 tau(  27) = (   0.0003529   4.4714252   9.2895810  )
        28           Ti1 tau(  28) = (   3.2904530   4.3245040  12.5108242  )
        29           Ti1 tau(  29) = (   0.0003810   4.5948835  15.7280669  )
        30           O1  tau(  30) = (   4.5938453   4.4726049   9.2879030  )
        31           O1  tau(  31) = (   1.3445752   4.5857260  12.5820564  )
        32           O1  tau(  32) = (   4.5522270   4.4834529  16.1006533  )
        33           Ti1 tau(  33) = (   3.2898983   5.9609850   9.2893338  )
        34           Ti1 tau(  34) = (   0.0007043   5.8101956  12.4536477  )
        35           Ti1 tau(  35) = (   3.2895928   5.9233606  15.7233983  )
        36           O1  tau(  36) = (  -0.0000397   5.9620987  10.5931620  )
        37           O1  tau(  37) = (   3.2897410   5.9500339  13.9181164  )
        38           O1  tau(  38) = (  -0.0004871   5.9201338  17.2318970  )
        39           O1  tau(  39) = (  -0.0001480   5.9621018   7.9858123  )
        40           O1  tau(  40) = (   3.2899950   5.9414595  11.1912600  )
        41           O1  tau(  41) = (   0.0000049   5.9985156  14.6402937  )
        42           O1  tau(  42) = (   1.9860782   7.4519181   9.2879459  )
        43           O1  tau(  43) = (   5.2353497   7.5549275  12.5688660  )
        44           O1  tau(  44) = (   2.0314850   7.4951575  16.0543809  )
        45           Ti1 tau(  45) = (  -0.0000347   7.4522234   9.2895810  )
        46           Ti1 tau(  46) = (   3.2900928   7.3055020  12.5043323  )
        47           Ti1 tau(  47) = (  -0.0004111   7.4010535  16.2820301  )
        48           O1  tau(  48) = (   4.5934577   7.4534031   9.2879030  )
        49           O1  tau(  49) = (   1.3438456   7.5546912  12.5687420  )
        50           O1  tau(  50) = (   4.5473438   7.4951267  16.0540408  )
        51           Ti1 tau(  51) = (   3.2895107   8.9417832   9.2893338  )
        52           Ti1 tau(  52) = (   0.0000527   8.7739242  12.4740011  )
        53           Ti1 tau(  53) = (   3.2894619   8.8771818  15.7086625  )
        54           N1  tau(  54) = (   6.5792827   2.9851808  17.9254469  )
        55           H1  tau(  55) = (   6.5791554   2.0483488  18.3259764  )
        56           H1  tau(  56) = (   5.7637502   3.4703839  18.2861980  )
        57           H1  tau(  57) = (   0.8247632   3.4704782  18.2867735  )

     number of k points=    10  Fermi-Dirac smearing, width (Ry)=  0.0073
                       cart. coord. in units 2pi/alat
        k(    1) = (   0.0000000   0.0000000   0.0000000), wk =   0.1250000
        k(    2) = (   0.0000000   0.0279567   0.0000000), wk =   0.2500000
        k(    3) = (   0.0000000  -0.0559134   0.0000000), wk =   0.1250000
        k(    4) = (   0.0379955   0.0000049   0.0000000), wk =   0.2500000
        k(    5) = (   0.0379955   0.0279617   0.0000000), wk =   0.2500000
        k(    6) = (   0.0379955  -0.0559085   0.0000000), wk =   0.2500000
        k(    7) = (   0.0379955  -0.0279518   0.0000000), wk =   0.2500000
        k(    8) = (  -0.0759910  -0.0000099   0.0000000), wk =   0.1250000
        k(    9) = (  -0.0759910   0.0279468   0.0000000), wk =   0.2500000
        k(   10) = (  -0.0759910  -0.0559233   0.0000000), wk =   0.1250000

     Initial potential from superposition of free atoms

     starting charge  415.99912, renormalised to  434.00000

     negative rho (up, down):  3.931E-02 0.000E+00

     %%%%%%%%%%%%%%%%%%%%%%%%%%%%%%%%%%%%%%%%%%%%%%%%%%%%%%%%%%%%%%%%%%%%%%%%
     %                                                                      %
     % You are using vdW-DF, which was implemented by the Thonhauser group. %
     % Please cite the following two papers that made this development      %
     % possible and the two reviews that describe the various versions:     %
     %                                                                      %
     %   T. Thonhauser et al., PRL 115, 136402 (2015).                      %
     %   T. Thonhauser et al., PRB 76, 125112 (2007).                       %
     %   K. Berland et al., Rep. Prog. Phys. 78, 066501 (2015).             %
     %   D.C. Langreth et al., J. Phys.: Condens. Matter 21, 084203 (2009). %
     %                                                                      %
     %                                                                      %
     % If you are calculating the stress with vdW-DF, please also cite:     %
     %                                                                      %
     %   R. Sabatini et al., J. Phys.: Condens. Matter 24, 424209 (2012).   %
     %                                                                      %
     %%%%%%%%%%%%%%%%%%%%%%%%%%%%%%%%%%%%%%%%%%%%%%%%%%%%%%%%%%%%%%%%%%%%%%%%

     Adding external electric field

     Computed dipole along edir(3) :
        Dipole               -2.8168 Ry au,         -7.1597 Debye
        Dipole field         -0.0035 Ry au,

        Potential amp.        0.3285 Ry
        Total length         46.3494 bohr

     Starting wfcs are  327 atomic wfcs
  @ DRIVER MODE: Message from server: STATUS
  @ DRIVER MODE: Message from server: POSDATA
  @ DRIVER MODE: Reading and sharing cell
  @ DRIVER MODE: Reading and sharing positions
  @ DRIVER MODE: Received positions

     Self-consistent Calculation

     iteration #  1     ecut=    29.40 Ry     beta= 0.05
     Davidson diagonalization with overlap
     c_bands:  2 eigenvalues not converged
     c_bands:  2 eigenvalues not converged
     c_bands:  2 eigenvalues not converged
     c_bands:  2 eigenvalues not converged
     c_bands:  5 eigenvalues not converged
     c_bands:  2 eigenvalues not converged
     c_bands:  1 eigenvalues not converged
     c_bands:  1 eigenvalues not converged
     c_bands:  2 eigenvalues not converged
     ethr =  1.00E-05,  avg # of iterations = 20.0

[...]

     total energy              =   -3273.63568586 Ry
     estimated scf accuracy    <      14.14035860 Ry

     iteration #  2     ecut=    29.40 Ry     beta= 0.05
     Davidson diagonalization with overlap
     ethr =  3.26E-03,  avg # of iterations =  1.0

[...]

     iteration # 56     ecut=    29.40 Ry     beta= 0.05
     Davidson diagonalization with overlap
     c_bands:  1 eigenvalues not converged
     ethr =  1.36E-10,  avg # of iterations = 14.6

[...]

     total energy              =   -3272.09271409 Ry
     estimated scf accuracy    <       0.00000011 Ry

     iteration # 61     ecut=    29.40 Ry     beta= 0.05
     Davidson diagonalization with overlap
     ethr =  2.23E-11,  avg # of iterations =  2.0

     negative rho (up, down):  3.696E-02 0.000E+00

     Adding external electric field

     Computed dipole along edir(3) :
        Dipole                1.2550 Ry au,          3.1899 Debye
        Dipole field          0.0016 Ry au,

        Potential amp.       -0.1464 Ry
        Total length         46.3494 bohr

     End of self-consistent calculation

          k = 0.0000 0.0000 0.0000 ( 26871 PWs)   bands (ev):

   -58.0029 -58.0003 -57.9779 -57.9775 -57.9770 -57.8744 -57.8244 -57.7998
   -57.7984 -57.7765 -57.7560 -57.7337 -57.6263 -57.5615 -57.4318 -57.0015
   -56.9784 -56.9706 -34.4044 -34.3821 -34.3816 -34.3715 -34.3677 -34.3363
   -34.3183 -34.3153 -34.3029 -34.2717 -34.2444 -34.2307 -34.2193 -34.1957
   -34.1952 -34.1853 -34.1701 -34.1589 -34.1270 -34.1231 -34.0995 -34.0991
   -34.0938 -34.0867 -34.0793 -34.0482 -34.0330 -34.0303 -34.0239 -34.0038
   -34.0006 -33.9928 -33.9816 -33.9799 -33.9764 -33.9706 -33.9472 -33.9403
   -33.9191 -33.8652 -33.8335 -33.7734 -33.7097 -33.7068 -33.6124 -33.3180
   -33.3166 -33.3083 -33.3028 -33.2957 -33.2265 -33.1655 -33.1569 -33.0256
   -18.8522 -18.4289 -18.2692 -18.2500 -18.2291 -18.2029 -18.0946 -18.0889
   -17.8491 -17.8183 -17.7894 -17.7822 -17.7199 -17.6818 -17.6719 -17.6622
   -17.6339 -17.6289 -17.6206 -17.5729 -17.5285 -17.4837 -17.4602 -17.4394
   -17.4232 -17.4213 -17.3739 -17.3254 -17.3142 -17.2564 -17.1162 -16.9533
   -16.8487 -15.4673 -15.4115 -15.4073  -7.5502  -7.4333  -6.1793  -5.9201
    -5.9079  -5.8294  -5.4570  -5.4462  -5.3563  -5.3504  -5.3349  -5.2661
    -5.2543  -5.2446  -5.2259  -5.1958  -5.1343  -5.1146  -5.0824  -4.9483
    -4.9462  -4.9191  -4.9016  -4.8449  -4.8068  -4.8016  -4.7782  -4.7576
    -4.7278  -4.6743  -4.6589  -4.6220  -4.6146  -4.5055  -4.4412  -4.3124
    -4.2952  -4.2912  -4.2720  -4.2244  -4.1866  -4.1592  -4.1319  -4.0798
    -4.0475  -3.9896  -3.9565  -3.9142  -3.8127  -3.7468  -3.7231  -3.6627
    -3.5671  -3.5293  -3.4203  -3.3975  -3.3324  -3.3155  -3.2519  -3.2384
    -3.1672  -3.1550  -3.1136  -3.0908  -3.0356  -2.9851  -2.9676  -2.9293
    -2.8866  -2.7701  -2.7586  -2.7503  -2.7268  -2.6937  -2.6689  -2.6386
    -2.6289  -2.5889  -2.5354  -2.4867  -2.4610  -2.4186  -2.4091  -2.3583
    -2.3092  -2.2988  -2.2252  -2.2050  -2.1817  -2.1588  -2.0703  -2.0157
    -1.8565  -1.8269  -1.8215  -1.7852  -1.7409  -1.6909  -1.6437  -1.4727
    -1.2337  -1.0314  -0.7445  -0.7040  -0.7027  -0.4451  -0.4393  -0.3128
     0.9720   1.2300   1.2633   1.4461   1.4506   1.5398   1.5885   1.5886
     1.6544   1.6849   1.7415

[...]

          k = 0.0380-0.0280 0.0000 ( 26873 PWs)   bands (ev):

[...]

          k =-0.0760-0.0000 0.0000 ( 26902 PWs)   bands (ev):

[...]

          k =-0.0760-0.0559 0.0000 ( 26868 PWs)   bands (ev):

   -57.9994 -57.9945 -57.9940 -57.9790 -57.9687 -57.8742 -57.8168 -57.8147
   -57.7908 -57.7733 -57.7614 -57.7317 -57.6262 -57.5618 -57.4317 -56.9958
   -56.9892 -56.9654 -34.4753 -34.4458 -34.3874 -34.3787 -34.3346 -34.3335
   -34.3290 -34.3283 -34.2795 -34.2423 -34.2065 -34.1910 -34.1906 -34.1742
   -34.1661 -34.1438 -34.1436 -34.1360 -34.1325 -34.1238 -34.1195 -34.0861
   -34.0759 -34.0712 -34.0684 -34.0621 -34.0556 -34.0394 -34.0313 -34.0269
   -34.0208 -34.0126 -34.0122 -33.9946 -33.9898 -33.9751 -33.9625 -33.9470
   -33.9176 -33.8380 -33.8202 -33.7774 -33.7107 -33.7080 -33.6424 -33.4042
   -33.3189 -33.3130 -33.2903 -33.2089 -33.2008 -33.1396 -33.1262 -33.1186
   -18.5338 -18.5181 -18.2096 -18.1240 -18.1084 -18.0841 -18.0708 -18.0212
   -17.9398 -17.8822 -17.8772 -17.8192 -17.7803 -17.7702 -17.7307 -17.7271
   -17.7108 -17.6993 -17.6681 -17.6395 -17.6377 -17.5377 -17.4530 -17.4216
   -17.4078 -17.3716 -17.3525 -17.3342 -17.2965 -17.2361 -17.1501 -17.0631
   -16.7436 -15.4673 -15.4622 -15.3470  -7.5589  -7.4480  -5.7894  -5.7794
    -5.7689  -5.7034  -5.3814  -5.3031  -5.2716  -5.2570  -5.1727  -5.1662
    -5.1641  -5.1506  -5.1476  -5.1243  -5.0959  -5.0831  -5.0301  -5.0207
    -5.0182  -4.9546  -4.9144  -4.9054  -4.8863  -4.8605  -4.7460  -4.7388
    -4.6346  -4.6055  -4.5457  -4.5117  -4.4992  -4.4691  -4.3927  -4.3875
    -4.3516  -4.3167  -4.1619  -4.1526  -4.1372  -4.1321  -4.0601  -4.0009
    -3.9748  -3.9420  -3.7092  -3.6515  -3.6417  -3.6316  -3.6182  -3.6105
    -3.5916  -3.5543  -3.5200  -3.4847  -3.4621  -3.4414  -3.4390  -3.3452
    -3.3066  -3.2657  -3.1644  -3.1421  -3.1341  -3.1053  -3.1008  -3.0753
    -3.0702  -3.0506  -3.0337  -2.9545  -2.9199  -2.9012  -2.8499  -2.7817
    -2.7647  -2.7603  -2.5880  -2.5372  -2.5273  -2.5074  -2.4722  -2.3787
    -2.3782  -2.2425  -2.2158  -2.1715  -2.1003  -2.0706  -2.0215  -2.0029
    -1.9897  -1.9690  -1.7778  -1.7603  -1.6862  -1.6272  -1.5761  -1.5550
    -1.5452  -1.3292  -0.9172  -0.6348  -0.6162  -0.5973  -0.4455  -0.4429
     1.1471   1.2040   1.2183   1.3207   1.3244   1.3370   1.3934   1.4531
     1.4835   1.5633   1.7087

     the Fermi energy is     1.0774 ev

!    total energy              =   -3272.09275081 Ry
     estimated scf accuracy    <       0.00000007 Ry
     smearing contrib. (-TS)   =      -0.03207550 Ry
     internal energy E=F+TS    =   -3272.06067530 Ry

     The total energy is F=E-TS. E is the sum of the following terms:
     one-electron contribution =  -34296.30982874 Ry
     hartree contribution      =   17208.14221221 Ry
     xc contribution           =    -536.10852252 Ry
     ewald contribution        =   14352.21348217 Ry
     electric field correction =       0.00198158 Ry

     convergence has been achieved in  61 iterations

     Forces acting on atoms (cartesian axes, Ry/au):

     atom    1 type  1   force =     0.00003274    0.00588969    0.05804231
     atom    2 type  1   force =    -0.00001550    0.00194788   -0.00322565
     atom    3 type  1   force =     0.00001319   -0.00332720   -0.00030222
     atom    4 type  1   force =     0.00005291   -0.00049587    0.10641274
     atom    5 type  1   force =    -0.00002213   -0.00000217    0.00972070
     atom    6 type  1   force =     0.00000819   -0.00102997    0.00078915
     atom    7 type  1   force =     0.06848714   -0.00032671   -0.02942392
     atom    8 type  1   force =     0.00472738   -0.02819005    0.00237338
     atom    9 type  1   force =     0.01005852   -0.02078942    0.00046115
     atom   10 type  2   force =    -0.00006560   -0.00346896   -0.18018597
     atom   11 type  2   force =     0.00008576    0.01995495   -0.00725469
     atom   12 type  2   force =    -0.00004496    0.02104762   -0.00316941
     atom   13 type  1   force =    -0.06858236   -0.00077830   -0.02940037
     atom   14 type  1   force =    -0.00464634   -0.02829932    0.00238244
     atom   15 type  1   force =    -0.01003435   -0.02077418    0.00047593
     atom   16 type  2   force =     0.00013535   -0.00169454    0.06499892
     atom   17 type  2   force =    -0.00016245    0.03517748    0.00380713
     atom   18 type  2   force =     0.00000293    0.00992994   -0.00302176
     atom   19 type  1   force =     0.00001433    0.00479166    0.06363977
     atom   20 type  1   force =    -0.00001077    0.00174244   -0.00596015
     atom   21 type  1   force =     0.00005493    0.00136139    0.10698856
     atom   22 type  1   force =    -0.00001730   -0.00018082    0.00917160
     atom   23 type  1   force =     0.00002042   -0.00450474    0.00167872
     atom   24 type  1   force =     0.06776450   -0.00034093   -0.02934051
     atom   25 type  1   force =     0.00461836   -0.02913190    0.00293798
     atom   26 type  1   force =     0.00813440    0.00324524   -0.00407128
     atom   27 type  2   force =    -0.00008532   -0.00409982   -0.18530040
     atom   28 type  2   force =     0.00008902    0.02022601   -0.00749153
     atom   29 type  2   force =    -0.00006805   -0.00030491    0.01350597
     atom   30 type  1   force =    -0.06785534   -0.00079887   -0.02931900
     atom   31 type  1   force =    -0.00455652   -0.02921335    0.00295762
     atom   32 type  1   force =    -0.00806526    0.00323317   -0.00402909
     atom   33 type  2   force =     0.00011260   -0.00147561    0.06546943
     atom   34 type  2   force =    -0.00014903    0.03610412    0.00380999
     atom   35 type  2   force =     0.00000966   -0.00240469    0.00354793
     atom   36 type  1   force =     0.00003818    0.00368222    0.05586484
     atom   37 type  1   force =    -0.00001940    0.00000284   -0.00176816
     atom   38 type  1   force =    -0.00000272   -0.00318475   -0.00052631
     atom   39 type  1   force =     0.00005339   -0.00022662    0.10721858
     atom   40 type  1   force =    -0.00002251    0.00005288    0.00943495
     atom   41 type  1   force =     0.00001223    0.00222311    0.00079008
     atom   42 type  1   force =     0.06798402   -0.00084747   -0.02928045
     atom   43 type  1   force =     0.00402458   -0.02908232    0.00271800
     atom   44 type  1   force =     0.01153805   -0.01067500    0.00419330
     atom   45 type  2   force =    -0.00009004    0.00395885   -0.18333011
     atom   46 type  2   force =     0.00007099    0.02027452   -0.00792946
     atom   47 type  2   force =    -0.00000354    0.00998244   -0.01343158
     atom   48 type  1   force =    -0.06808089   -0.00129403   -0.02926120
     atom   49 type  1   force =    -0.00392695   -0.02917279    0.00272232
     atom   50 type  1   force =    -0.01153616   -0.01067688    0.00419864
     atom   51 type  2   force =     0.00011386   -0.00123894    0.06590633
     atom   52 type  2   force =    -0.00014943    0.03606768    0.00358265
     atom   53 type  2   force =     0.00000407    0.02502028    0.00684417
     atom   54 type  3   force =     0.01045143    0.00534395    0.00339790
     atom   55 type  4   force =    -0.00005060    0.00008540    0.00002785
     atom   56 type  4   force =     0.00060735    0.00138176    0.00074572
     atom   57 type  4   force =    -0.01105695   -0.00469637   -0.00379351

     Total force =     0.453679     Total SCF correction =     0.000931
  @ DRIVER MODE: Message from server: STATUS
  @ DRIVER MODE: Message from server: GETFORCE
  @ DRIVER MODE: Returning v,forces,stress,ensemble

     Writing output data file ./calc.save/
  @ DRIVER MODE: Message from server: EXIT
  @ DRIVE MODE: Exiting

     General routines

     Parallel routines

   This run was terminated on:  22:12: 2  18Oct2021

   JOB DONE.