     Program PWSCF v.6.7GPU starts on 15Sep2021 at 18:36:27

     R & G space division:  proc/nbgrp/npool/nimage =      10
     Reading input from /storage/home/hcoda1/3/ntian30/research/carbon/CxH_vib/H2O_calc/ads_slab/CHNHH2O_a/out_0009/pw.inp
Warning: card &CELL ignored
Warning: card   CELL_DYNAMICS='IPI', ignored
Warning: card / ignored

     Current dimensions of program PWSCF are:
     Max number of different atomic species (ntypx) = 10
     Max number of k-points (npk) =  40000
     Max angular momentum in pseudopotentials (lmaxx) =  3
     Presently no symmetry can be used with electric field

     Message from routine cell_base_init:
     DEPRECATED: use true lattice parameter, not A to a.u. conversion factor

     IMPORTANT: XC functional enforced from input :
     Exchange-correlation= BEEF-VDW
                           (   1   4  43  14   2   0   0)
     Any further DFT definition will be discarded
     Please, verify this is what you really want

  @ DRIVER MODE: Connecting to
 qe_1139763_2852628.sched-torque.pace.gatech.eduf606ke1l_scratch
  using UNIX socket
  @ DRIVER MODE: Message from server: STATUS
  @ DRIVER MODE: Message from server: INIT
  @ DRIVER MODE: Receiving replica           0          -1
  @ DRIVER MODE: Receiving encoded integer          25
  @ DRIVER MODE:  SCF:  T  FORCE:  T  STRESS:  F  VC:  F  ENSEMBLE:  F
  @ DRIVER MODE:  SCF:  T  FORCE:  T  STRESS:  F  VC:  F  ENSEMBLE:  F

     Using Slab Decomposition

     bravais-lattice index     =            0
     lattice parameter (alat)  =       1.8897  a.u.
     unit-cell volume          =    6658.9804 (a.u.)^3
     number of atoms/cell      =           54
     number of atomic types    =            5
     number of electrons       =       397.00
     number of Kohn-Sham states=          208
     kinetic-energy cutoff     =      29.3995  Ry
     charge density cutoff     =     293.9946  Ry
     scf convergence threshold =      7.3E-08
     mixing beta               =       0.0500
     number of iterations used =            8  plain     mixing
     Exchange-correlation= BEEF-VDW
                           (   1   4  43  14   2   0   0)

     celldm(1)=   1.889726  celldm(2)=   0.000000  celldm(3)=   0.000000
     celldm(4)=   0.000000  celldm(5)=   0.000000  celldm(6)=   0.000000

     crystal axes: (cart. coord. in units of alat)
               a(1) = (   6.579727   0.000000   0.000000 )
               a(2) = (  -0.000775   5.961596   0.000000 )
               a(3) = (   0.000000   0.000000  25.155947 )

     reciprocal axes: (cart. coord. in units 2 pi/alat)
               b(1) = (  0.151982  0.000020  0.000000 )
               b(2) = (  0.000000  0.167740  0.000000 )
               b(3) = (  0.000000  0.000000  0.039752 )

     PseudoPot. # 1 for Ti read from file:
     /storage/coda1/p-amedford6/0/shared/rich_project_chbe-medford/medford-share/data/pseudos_module/espresso/nninc/pbe/van/Ti.UPF
     MD5 check sum: 8e4df49b7f0d34bbd5052bf3f5ea0213
     Pseudo is Ultrasoft, Zval = 12.0
     Generated by new atomic code, or converted to UPF format
     Using radial grid of  851 points,  6 beta functions with:
                l(1) =   0
                l(2) =   0
                l(3) =   1
                l(4) =   1
                l(5) =   2
                l(6) =   2
     Q(r) pseudized with  8 coefficients,  rinner =    1.000   1.000   1.000
                                                       1.000   1.000

     PseudoPot. # 2 for O  read from file:
     /storage/coda1/p-amedford6/0/shared/rich_project_chbe-medford/medford-share/data/pseudos_module/espresso/nninc/pbe/van/O.UPF
     MD5 check sum: 78c19812648e8988a0fe644b0f25305e
     Pseudo is Ultrasoft, Zval =  6.0
     Generated by new atomic code, or converted to UPF format
     Using radial grid of  737 points,  4 beta functions with:
                l(1) =   0
                l(2) =   0
                l(3) =   1
                l(4) =   1
     Q(r) pseudized with  8 coefficients,  rinner =    0.800   0.800   0.800

     PseudoPot. # 3 for N  read from file:
     /storage/coda1/p-amedford6/0/shared/rich_project_chbe-medford/medford-share/data/pseudos_module/espresso/nninc/pbe/van/N.UPF
     MD5 check sum: 90d10febe142ad51ac9d5be1deb811c4
     Pseudo is Ultrasoft, Zval =  5.0
     Generated by new atomic code, or converted to UPF format
     Using radial grid of  729 points,  4 beta functions with:
                l(1) =   0
                l(2) =   0
                l(3) =   1
                l(4) =   1
     Q(r) pseudized with  8 coefficients,  rinner =    0.800   0.800   0.800

     PseudoPot. # 4 for C  read from file:
     /storage/coda1/p-amedford6/0/shared/rich_project_chbe-medford/medford-share/data/pseudos_module/espresso/nninc/pbe/van/C.UPF
     MD5 check sum: 1a69bf6b8db32088f5b2163dbdb77a27
     Pseudo is Ultrasoft, Zval =  4.0
     Generated by new atomic code, or converted to UPF format
     Using radial grid of  721 points,  4 beta functions with:
                l(1) =   0
                l(2) =   0
                l(3) =   1
                l(4) =   1
     Q(r) pseudized with  8 coefficients,  rinner =    0.800   0.800   0.800

     PseudoPot. # 5 for H  read from file:
     /storage/coda1/p-amedford6/0/shared/rich_project_chbe-medford/medford-share/data/pseudos_module/espresso/nninc/pbe/van/H.UPF
     MD5 check sum: b5ee9d7bfd3a09ee7748110bda690ff7
     Pseudo is Ultrasoft, Zval =  1.0
     Generated by new atomic code, or converted to UPF format
     Using radial grid of  615 points,  1 beta functions with:
                l(1) =   0
     Q(r) pseudized with  8 coefficients,  rinner =    0.800

     atomic species   valence    mass     pseudopotential
        Ti1           12.00    47.86700     Ti( 1.00)
        O1             6.00    15.99900     O ( 1.00)
        N1             5.00    14.00700     N ( 1.00)
        C1             4.00    12.01100     C ( 1.00)
        H1             1.00     1.00800     H ( 1.00)

     No symmetry found

   Cartesian axes

     site n.     atom                  positions (alat units)
         1           Ti1 tau(   1) = (   0.0004258   2.9801865   6.0000000  )
         2           Ti1 tau(   2) = (   3.2906075   1.4906267   6.0002472  )
         3           O1  tau(   3) = (   0.0006271   0.0005054   7.9858123  )
         4           O1  tau(   4) = (   3.2906025   0.0005020   7.3038282  )
         5           O1  tau(   5) = (   4.5942328   1.4918067   9.2879030  )
         6           O1  tau(   6) = (   1.9868534   1.4903216   9.2879459  )
         7           Ti1 tau(   7) = (   3.2907910   2.8959150   9.1758416  )
         8           Ti1 tau(   8) = (   0.0015273   1.4827037   9.2680791  )
         9           O1  tau(   9) = (   3.2914171   5.9475995  11.3455371  )
        10           O1  tau(  10) = (   0.0116148   5.9584955  10.6183126  )
        11           O1  tau(  11) = (   1.3057669   1.4807986  12.6390077  )
        12           O1  tau(  12) = (   5.3035249   1.4749620  12.6227664  )
        13           Ti1 tau(  13) = (   6.5294082   2.9362577  12.6231083  )
        14           Ti1 tau(  14) = (   3.2175537   1.4615748  12.5070279  )
        15           O1  tau(  15) = (   6.5585639   5.9474800  14.6380151  )
        16           O1  tau(  16) = (   3.3125803   5.9531145  13.9695519  )
        17           O1  tau(  17) = (   4.5393379   1.5011389  16.1071157  )
        18           O1  tau(  18) = (   2.0094023   1.5044898  16.0307267  )
        19           Ti1 tau(  19) = (   3.2760958   2.9523363  15.6877793  )
        20           Ti1 tau(  20) = (   0.0277933   1.3451898  16.0452527  )
        21           O1  tau(  21) = (   3.2904802   0.0005063   4.7018136  )
        22           O1  tau(  22) = (   0.0198929   5.9263875  17.1601691  )
        23           O1  tau(  23) = (   1.3043587   1.4918075   6.0039043  )
        24           O1  tau(  24) = (   5.2767064   1.4903225   6.0039473  )
        25           Ti1 tau(  25) = (   0.0000382   5.9609847   6.0000000  )
        26           Ti1 tau(  26) = (   3.2902200   4.4714249   6.0002472  )
        27           O1  tau(  27) = (   0.0002396   2.9813036   7.9858123  )
        28           O1  tau(  28) = (   3.2902150   2.9813002   7.3038282  )
        29           O1  tau(  29) = (   4.5938453   4.4726049   9.2879030  )
        30           O1  tau(  30) = (   1.9864658   4.4711199   9.2879459  )
        31           Ti1 tau(  31) = (   3.2891106   5.8743827   9.1763621  )
        32           Ti1 tau(  32) = (   0.0006254   4.4649316   9.2693709  )
        33           O1  tau(  33) = (   3.2862706   2.9662616  11.3468726  )
        34           O1  tau(  34) = (   0.0092240   2.9805883  10.6323155  )
        35           O1  tau(  35) = (   1.3102706   4.4726941  12.6361575  )
        36           O1  tau(  36) = (   5.3014905   4.4644878  12.6181669  )
        37           Ti1 tau(  37) = (   6.5311680   5.9227251  12.5202533  )
        38           Ti1 tau(  38) = (   3.2191334   4.4553394  12.5017427  )
        39           O1  tau(  39) = (   6.5614274   2.9920157  14.6796082  )
        40           O1  tau(  40) = (   3.3146075   2.9603188  13.8993185  )
        41           O1  tau(  41) = (   4.5484517   4.4144432  16.0509510  )
        42           O1  tau(  42) = (   2.0146171   4.4214036  15.9967612  )
        43           Ti1 tau(  43) = (   3.3303817   5.9274347  15.8100502  )
        44           Ti1 tau(  44) = (   0.0273359   4.4939047  15.8144843  )
        45           O1  tau(  45) = (   3.2900926   2.9813045   4.7018136  )
        46           O1  tau(  46) = (   1.3039711   4.4726057   6.0039043  )
        47           O1  tau(  47) = (   5.2763189   4.4711207   6.0039473  )
        48           N1  tau(  48) = (   6.5134970   2.9613368  17.6459670  )
        49           C1  tau(  49) = (   0.7931072   3.0167964  18.6255283  )
        50           H1  tau(  50) = (   1.8307262   2.9311331  18.2395185  )
        51           H1  tau(  51) = (   5.5494773   3.0666896  17.9713127  )
        52           O1  tau(  52) = (   3.1855344   5.8058271  18.1612476  )
        53           H1  tau(  53) = (   3.8461454   0.3022996  18.7034462  )
        54           H1  tau(  54) = (   2.3120581   0.0053998  18.5533318  )

     number of k points=    10  Fermi-Dirac smearing, width (Ry)=  0.0073
                       cart. coord. in units 2pi/alat
        k(    1) = (   0.0000000   0.0000000   0.0000000), wk =   0.1250000
        k(    2) = (   0.0000000   0.0419351   0.0000000), wk =   0.2500000
        k(    3) = (   0.0000000  -0.0838702   0.0000000), wk =   0.1250000
        k(    4) = (   0.0379955   0.0000049   0.0000000), wk =   0.2500000
        k(    5) = (   0.0379955   0.0419400   0.0000000), wk =   0.2500000
        k(    6) = (   0.0379955  -0.0838652   0.0000000), wk =   0.2500000
        k(    7) = (   0.0379955  -0.0419301   0.0000000), wk =   0.2500000
        k(    8) = (  -0.0759910  -0.0000099   0.0000000), wk =   0.1250000
        k(    9) = (  -0.0759910   0.0419252   0.0000000), wk =   0.2500000
        k(   10) = (  -0.0759910  -0.0838800   0.0000000), wk =   0.1250000

     Initial potential from superposition of free atoms

     starting charge  380.99916, renormalised to  397.00000

     negative rho (up, down):  1.755E-02 0.000E+00

     %%%%%%%%%%%%%%%%%%%%%%%%%%%%%%%%%%%%%%%%%%%%%%%%%%%%%%%%%%%%%%%%%%%%%%%%
     %                                                                      %
     % You are using vdW-DF, which was implemented by the Thonhauser group. %
     % Please cite the following two papers that made this development      %
     % possible and the two reviews that describe the various versions:     %
     %                                                                      %
     %   T. Thonhauser et al., PRL 115, 136402 (2015).                      %
     %   T. Thonhauser et al., PRB 76, 125112 (2007).                       %
     %   K. Berland et al., Rep. Prog. Phys. 78, 066501 (2015).             %
     %   D.C. Langreth et al., J. Phys.: Condens. Matter 21, 084203 (2009). %
     %                                                                      %
     %                                                                      %
     % If you are calculating the stress with vdW-DF, please also cite:     %
     %                                                                      %
     %   R. Sabatini et al., J. Phys.: Condens. Matter 24, 424209 (2012).   %
     %                                                                      %
     %%%%%%%%%%%%%%%%%%%%%%%%%%%%%%%%%%%%%%%%%%%%%%%%%%%%%%%%%%%%%%%%%%%%%%%%

     Adding external electric field

     Computed dipole along edir(3) :
        Dipole               -9.1667 Ry au,        -23.2993 Debye
        Dipole field         -0.0173 Ry au,

        Potential amp.        1.6036 Ry
        Total length         46.3494 bohr

     Starting wfcs are  300 atomic wfcs
  @ DRIVER MODE: Message from server: STATUS
  @ DRIVER MODE: Message from server: POSDATA
  @ DRIVER MODE: Reading and sharing cell
  @ DRIVER MODE: Reading and sharing positions
  @ DRIVER MODE: Received positions

     Self-consistent Calculation

     iteration #  1     ecut=    29.40 Ry     beta= 0.05
     Davidson diagonalization with overlap
     c_bands:  1 eigenvalues not converged
     c_bands:  1 eigenvalues not converged
     c_bands:  1 eigenvalues not converged
     c_bands:  1 eigenvalues not converged
     c_bands:  1 eigenvalues not converged
     c_bands:  1 eigenvalues not converged
     c_bands:  1 eigenvalues not converged
     c_bands:  1 eigenvalues not converged
     c_bands:  1 eigenvalues not converged
     ethr =  1.00E-05,  avg # of iterations = 19.8

[...]

     total energy              =   -2547.26688000 Ry
     estimated scf accuracy    <    4504.89852927 Ry

     iteration #  2     ecut=    29.40 Ry     beta= 0.05
     Davidson diagonalization with overlap
     ethr =  1.00E-02,  avg # of iterations = 24.8

[...]

     iteration # 73     ecut=    29.40 Ry     beta= 0.05
     Davidson diagonalization with overlap
     c_bands:  1 eigenvalues not converged
     ethr =  3.77E-11,  avg # of iterations = 14.7

[...]

     total energy              =   -2952.61572878 Ry
     estimated scf accuracy    <       0.00000029 Ry

     iteration # 74     ecut=    29.40 Ry     beta= 0.05
     Davidson diagonalization with overlap
     ethr =  3.77E-11,  avg # of iterations = 10.0

     negative rho (up, down):  1.616E-02 0.000E+00

     Adding external electric field

     Computed dipole along edir(3) :
        Dipole                0.4072 Ry au,          1.0351 Debye
        Dipole field          0.0008 Ry au,

        Potential amp.       -0.0712 Ry
        Total length         46.3494 bohr

     End of self-consistent calculation

          k = 0.0000 0.0000 0.0000 ( 18029 PWs)   bands (ev):

   -56.0229 -55.9986 -55.9919 -55.9888 -55.9623 -55.8688 -55.8364 -55.8274
   -55.8240 -55.8107 -55.8021 -55.7772 -55.7464 -55.5792 -55.0086 -54.9745
   -32.5444 -32.5068 -32.4003 -32.3682 -32.3352 -32.3150 -32.3062 -32.3007
   -32.2663 -32.2360 -32.2240 -32.2176 -32.2076 -32.1954 -32.1776 -32.1753
   -32.1508 -32.1286 -32.1275 -32.1243 -32.0914 -32.0801 -32.0715 -32.0392
   -32.0284 -32.0267 -32.0230 -32.0187 -32.0158 -32.0106 -31.9959 -31.9844
   -31.9828 -31.9814 -31.9693 -31.9635 -31.9588 -31.9411 -31.9218 -31.8400
   -31.8230 -31.7354 -31.4159 -31.3267 -31.3044 -31.2326 -31.1461 -31.0351
   -19.2340 -16.7556 -16.5155 -16.3409 -16.2003 -16.1696 -15.9528 -15.8513
   -15.7804 -15.7263 -15.6569 -15.6056 -15.5712 -15.5619 -15.5452 -15.5222
   -15.5028 -15.4791 -15.4559 -15.4447 -15.4379 -15.3995 -15.3883 -15.3722
   -15.3536 -15.2477 -15.1835 -15.1591 -15.1139 -15.0908 -14.7379 -13.5107
   -13.3941  -7.8748  -7.0862  -4.1545  -4.0602  -3.9841  -3.9441  -3.9285
    -3.7733  -3.6941  -3.5483  -3.5179  -3.3078  -3.2795  -3.2199  -3.1945
    -3.1331  -3.0710  -2.9764  -2.9320  -2.8558  -2.8394  -2.8267  -2.8042
    -2.7842  -2.7674  -2.7273  -2.6632  -2.5933  -2.5601  -2.4460  -2.4201
    -2.4134  -2.3461  -2.3384  -2.3268  -2.3140  -2.2822  -2.2602  -2.2572
    -2.1862  -2.1539  -2.0834  -2.0312  -1.9720  -1.8523  -1.7009  -1.6387
    -1.5885  -1.5285  -1.5032  -1.4671  -1.4450  -1.4206  -1.3622  -1.3036
    -1.2393  -1.2270  -1.1565  -1.0642  -0.9927  -0.9556  -0.8848  -0.8228
    -0.8011  -0.7731  -0.7652  -0.7561  -0.7077  -0.5346  -0.4790  -0.4650
    -0.4256  -0.3425  -0.3123  -0.3021  -0.2532  -0.2450  -0.2049  -0.1161
    -0.0970  -0.0620  -0.0443  -0.0307   0.0022   0.0211   0.1768   0.1976
     0.2399   0.2615   0.3634   0.4699   0.5368   0.6245   0.7188   0.9378
     1.0139   1.0909   1.2049   1.5859   1.6320   2.7817   3.1052   3.1938
     3.2318   3.2378   3.2720   3.3426   3.5593   3.5901   3.6075   3.6636

[...]

          k = 0.0380-0.0419 0.0000 ( 17876 PWs)   bands (ev):

[...]

          k =-0.0760-0.0000 0.0000 ( 17886 PWs)   bands (ev):

[...]

          k =-0.0760-0.0839 0.0000 ( 17948 PWs)   bands (ev):

   -56.0066 -56.0050 -55.9905 -55.9824 -55.9779 -55.8596 -55.8367 -55.8256
   -55.8198 -55.8179 -55.7947 -55.7936 -55.7448 -55.5807 -54.9916 -54.9914
   -32.3583 -32.3424 -32.3226 -32.3215 -32.3011 -32.2997 -32.2792 -32.2713
   -32.2516 -32.2188 -32.2038 -32.1996 -32.1950 -32.1736 -32.1457 -32.1407
   -32.1361 -32.1339 -32.1324 -32.1304 -32.1299 -32.1268 -32.1261 -32.1244
   -32.0776 -32.0586 -32.0497 -32.0380 -32.0263 -32.0239 -32.0226 -32.0208
   -32.0203 -32.0096 -32.0078 -31.9972 -31.9910 -31.9763 -31.9703 -31.8439
   -31.8282 -31.8223 -31.3171 -31.3170 -31.2288 -31.2285 -31.1894 -31.1893
   -19.2331 -16.2145 -16.0949 -16.0403 -15.9472 -15.9218 -15.9073 -15.8336
   -15.7816 -15.7278 -15.7182 -15.6942 -15.6800 -15.6731 -15.6138 -15.5852
   -15.5608 -15.5498 -15.5064 -15.4937 -15.4856 -15.4718 -15.4698 -15.4636
   -15.4200 -15.3937 -15.3517 -15.3477 -15.2083 -15.0997 -15.0102 -13.4961
   -13.4957  -7.8840  -7.0879  -3.9154  -3.6532  -3.4926  -3.3157  -3.2649
    -3.1660  -3.1596  -3.1228  -3.1029  -2.9934  -2.9339  -2.9212  -2.8994
    -2.8585  -2.8488  -2.8421  -2.8372  -2.8029  -2.8012  -2.7646  -2.7461
    -2.7141  -2.7006  -2.6951  -2.6880  -2.6642  -2.6447  -2.6061  -2.5900
    -2.5739  -2.5441  -2.5071  -2.3733  -2.3040  -2.2261  -2.2197  -2.1787
    -2.1661  -2.1466  -2.1031  -2.0853  -2.0581  -1.9777  -1.9019  -1.7474
    -1.7290  -1.7057  -1.6745  -1.6138  -1.5217  -1.4971  -1.4683  -1.4223
    -1.4061  -1.3495  -1.3275  -1.2958  -1.2403  -1.1780  -1.1402  -1.1131
    -1.0684  -1.0030  -0.9822  -0.9614  -0.9478  -0.8869  -0.7784  -0.7718
    -0.7660  -0.7163  -0.7010  -0.6715  -0.6513  -0.5586  -0.4792  -0.4193
    -0.3224  -0.1583  -0.0793   0.0195   0.0567   0.1013   0.1461   0.1876
     0.2848   0.2868   0.3589   0.3895   0.4066   0.4893   0.5003   0.5233
     0.6839   1.3764   1.3777   1.4515   1.4521   2.8164   3.3622   3.4088
     3.4429   3.4896   3.5924   3.6125   3.6412   3.6430   3.7212   3.7688

     the Fermi energy is     3.1083 ev

!    total energy              =   -2952.61574665 Ry
     estimated scf accuracy    <       0.00000007 Ry
     smearing contrib. (-TS)   =      -0.02585997 Ry
     internal energy E=F+TS    =   -2952.58988669 Ry

     The total energy is F=E-TS. E is the sum of the following terms:
     one-electron contribution =  -24509.52811311 Ry
     hartree contribution      =   12341.95807549 Ry
     xc contribution           =    -487.96353308 Ry
     ewald contribution        =    9702.94337106 Ry
     electric field correction =       0.00031294 Ry

     convergence has been achieved in  74 iterations

     Forces acting on atoms (cartesian axes, Ry/au):

     atom    1 type  1   force =    -0.00003454   -0.00030257    0.09592716
     atom    2 type  1   force =     0.00004849   -0.00048834   -0.17610083
     atom    3 type  2   force =     0.00010351   -0.00009835   -0.02431351
     atom    4 type  2   force =     0.00000904   -0.00163261    0.05392235
     atom    5 type  2   force =    -0.01178781   -0.00141499    0.00393614
     atom    6 type  2   force =     0.01321851   -0.00102124    0.00317973
     atom    7 type  1   force =     0.00034075    0.00068613   -0.00765540
     atom    8 type  1   force =     0.00026198    0.01496450    0.02333498
     atom    9 type  2   force =    -0.00005020    0.00018821    0.00012498
     atom   10 type  2   force =    -0.00219188    0.00050044   -0.01743333
     atom   11 type  2   force =     0.00048347   -0.00026674   -0.00022345
     atom   12 type  2   force =    -0.00084604   -0.00017187   -0.00000704
     atom   13 type  1   force =     0.00045634    0.00043719    0.00005319
     atom   14 type  1   force =    -0.00019160    0.00004890    0.00087499
     atom   15 type  2   force =    -0.00013401    0.00025306   -0.00070107
     atom   16 type  2   force =     0.00001063    0.00051731   -0.00023237
     atom   17 type  2   force =    -0.00044381    0.00028141    0.00008687
     atom   18 type  2   force =     0.00022090    0.00014801   -0.00023002
     atom   19 type  1   force =     0.00071068    0.00061895   -0.00050910
     atom   20 type  1   force =    -0.00059838    0.00024822   -0.00046425
     atom   21 type  2   force =     0.00006544   -0.00000426    0.10334751
     atom   22 type  2   force =    -0.00024342   -0.00030977    0.00078453
     atom   23 type  2   force =    -0.07136076   -0.00010751   -0.02763118
     atom   24 type  2   force =     0.07128220    0.00034277   -0.02770190
     atom   25 type  1   force =     0.00024197   -0.00029103    0.09576148
     atom   26 type  1   force =     0.00011234   -0.00029311   -0.17602996
     atom   27 type  2   force =     0.00013970   -0.00029171   -0.02320855
     atom   28 type  2   force =     0.00000220   -0.00132596    0.05367339
     atom   29 type  2   force =    -0.01213473    0.00039722    0.00378267
     atom   30 type  2   force =     0.01352334    0.00101379    0.00302760
     atom   31 type  1   force =     0.00024210    0.00375576   -0.01145383
     atom   32 type  1   force =     0.00044231   -0.01662050    0.02315488
     atom   33 type  2   force =     0.00017602    0.00010024   -0.00030714
     atom   34 type  2   force =    -0.00191300   -0.00010477   -0.02071659
     atom   35 type  2   force =     0.00046631    0.00005953    0.00007168
     atom   36 type  2   force =    -0.00088523   -0.00000443    0.00032899
     atom   37 type  1   force =     0.00080192    0.00005588   -0.00029091
     atom   38 type  1   force =    -0.00000210    0.00012396    0.00038881
     atom   39 type  2   force =    -0.00025098    0.00045301   -0.00052196
     atom   40 type  2   force =    -0.00039432   -0.00007504   -0.00019122
     atom   41 type  2   force =    -0.00058022    0.00030457    0.00027152
     atom   42 type  2   force =     0.00006442    0.00018685    0.00018332
     atom   43 type  1   force =     0.00035475   -0.00015418    0.00030542
     atom   44 type  1   force =    -0.00002375   -0.00057422    0.00038429
     atom   45 type  2   force =     0.00006928   -0.00000158    0.10331380
     atom   46 type  2   force =    -0.07134779   -0.00004983   -0.02761228
     atom   47 type  2   force =     0.07127018    0.00038176   -0.02768693
     atom   48 type  3   force =     0.00112844    0.00154343   -0.00021963
     atom   49 type  4   force =    -0.00070227    0.00077432    0.00045876
     atom   50 type  5   force =     0.00058620   -0.00129690   -0.00019847
     atom   51 type  5   force =     0.00018334   -0.00119896    0.00028042
     atom   52 type  2   force =    -0.00020121   -0.00023014    0.00142683
     atom   53 type  5   force =    -0.00081531   -0.00023604   -0.00021676
     atom   54 type  5   force =     0.00011663    0.00018125   -0.00052857

     Total force =     0.367830     Total SCF correction =     0.000463
  @ DRIVER MODE: Message from server: STATUS
  @ DRIVER MODE: Message from server: GETFORCE
  @ DRIVER MODE: Returning v,forces,stress,ensemble

     Writing output data file ./calc.save/
  @ DRIVER MODE: Message from server: EXIT
  @ DRIVE MODE: Exiting

     General routines

     Parallel routines

   This run was terminated on:  18:56:24  15Sep2021

   JOB DONE.