     Program PWSCF v.6.7GPU starts on 23Aug2021 at 23:43:19

     R & G space division:  proc/nbgrp/npool/nimage =       6
     Reading input from /storage/home/hcoda1/3/ntian30/research/carbon/CH_vib/ads_slab/CHN2_a/out_0022/pw.inp
Warning: card &CELL ignored
Warning: card   CELL_DYNAMICS='IPI', ignored
Warning: card / ignored

     Current dimensions of program PWSCF are:
     Max number of different atomic species (ntypx) = 10
     Max number of k-points (npk) =  40000
     Max angular momentum in pseudopotentials (lmaxx) =  3
     Presently no symmetry can be used with electric field

     Message from routine cell_base_init:
     DEPRECATED: use true lattice parameter, not A to a.u. conversion factor

     IMPORTANT: XC functional enforced from input :
     Exchange-correlation= BEEF-VDW
                           (   1   4  43  14   2   0   0)
     Any further DFT definition will be discarded
     Please, verify this is what you really want

  @ DRIVER MODE: Connecting to
 qe_1139763_2632791.sched-torque.pace.gatech.edut5quc4xm_scratch
  using UNIX socket
  @ DRIVER MODE: Message from server: STATUS
  @ DRIVER MODE: Message from server: INIT
  @ DRIVER MODE: Receiving replica           0          -1
  @ DRIVER MODE: Receiving encoded integer          25
  @ DRIVER MODE:  SCF:  T  FORCE:  T  STRESS:  F  VC:  F  ENSEMBLE:  F
  @ DRIVER MODE:  SCF:  T  FORCE:  T  STRESS:  F  VC:  F  ENSEMBLE:  F

     Using Slab Decomposition

     bravais-lattice index     =            0
     lattice parameter (alat)  =       1.8897  a.u.
     unit-cell volume          =    6658.9804 (a.u.)^3
     number of atoms/cell      =           51
     number of atomic types    =            5
     number of electrons       =       393.00
     number of Kohn-Sham states=          206
     kinetic-energy cutoff     =      29.3995  Ry
     charge density cutoff     =     293.9946  Ry
     scf convergence threshold =      7.3E-08
     mixing beta               =       0.0500
     number of iterations used =            8  plain     mixing
     Exchange-correlation= BEEF-VDW
                           (   1   4  43  14   2   0   0)

     celldm(1)=   1.889726  celldm(2)=   0.000000  celldm(3)=   0.000000
     celldm(4)=   0.000000  celldm(5)=   0.000000  celldm(6)=   0.000000

     crystal axes: (cart. coord. in units of alat)
               a(1) = (   6.579727   0.000000   0.000000 )
               a(2) = (  -0.000775   5.961596   0.000000 )
               a(3) = (   0.000000   0.000000  25.155947 )

     reciprocal axes: (cart. coord. in units 2 pi/alat)
               b(1) = (  0.151982  0.000020  0.000000 )
               b(2) = (  0.000000  0.167740  0.000000 )
               b(3) = (  0.000000  0.000000  0.039752 )

     PseudoPot. # 1 for Ti read from file:
     /storage/coda1/p-amedford6/0/shared/rich_project_chbe-medford/medford-share/data/pseudos_module/espresso/nninc/pbe/van/Ti.UPF
     MD5 check sum: 8e4df49b7f0d34bbd5052bf3f5ea0213
     Pseudo is Ultrasoft, Zval = 12.0
     Generated by new atomic code, or converted to UPF format
     Using radial grid of  851 points,  6 beta functions with:
                l(1) =   0
                l(2) =   0
                l(3) =   1
                l(4) =   1
                l(5) =   2
                l(6) =   2
     Q(r) pseudized with  8 coefficients,  rinner =    1.000   1.000   1.000
                                                       1.000   1.000

     PseudoPot. # 2 for O  read from file:
     /storage/coda1/p-amedford6/0/shared/rich_project_chbe-medford/medford-share/data/pseudos_module/espresso/nninc/pbe/van/O.UPF
     MD5 check sum: 78c19812648e8988a0fe644b0f25305e
     Pseudo is Ultrasoft, Zval =  6.0
     Generated by new atomic code, or converted to UPF format
     Using radial grid of  737 points,  4 beta functions with:
                l(1) =   0
                l(2) =   0
                l(3) =   1
                l(4) =   1
     Q(r) pseudized with  8 coefficients,  rinner =    0.800   0.800   0.800

     PseudoPot. # 3 for N  read from file:
     /storage/coda1/p-amedford6/0/shared/rich_project_chbe-medford/medford-share/data/pseudos_module/espresso/nninc/pbe/van/N.UPF
     MD5 check sum: 90d10febe142ad51ac9d5be1deb811c4
     Pseudo is Ultrasoft, Zval =  5.0
     Generated by new atomic code, or converted to UPF format
     Using radial grid of  729 points,  4 beta functions with:
                l(1) =   0
                l(2) =   0
                l(3) =   1
                l(4) =   1
     Q(r) pseudized with  8 coefficients,  rinner =    0.800   0.800   0.800

     PseudoPot. # 4 for C  read from file:
     /storage/coda1/p-amedford6/0/shared/rich_project_chbe-medford/medford-share/data/pseudos_module/espresso/nninc/pbe/van/C.UPF
     MD5 check sum: 1a69bf6b8db32088f5b2163dbdb77a27
     Pseudo is Ultrasoft, Zval =  4.0
     Generated by new atomic code, or converted to UPF format
     Using radial grid of  721 points,  4 beta functions with:
                l(1) =   0
                l(2) =   0
                l(3) =   1
                l(4) =   1
     Q(r) pseudized with  8 coefficients,  rinner =    0.800   0.800   0.800

     PseudoPot. # 5 for H  read from file:
     /storage/coda1/p-amedford6/0/shared/rich_project_chbe-medford/medford-share/data/pseudos_module/espresso/nninc/pbe/van/H.UPF
     MD5 check sum: b5ee9d7bfd3a09ee7748110bda690ff7
     Pseudo is Ultrasoft, Zval =  1.0
     Generated by new atomic code, or converted to UPF format
     Using radial grid of  615 points,  1 beta functions with:
                l(1) =   0
     Q(r) pseudized with  8 coefficients,  rinner =    0.800

     atomic species   valence    mass     pseudopotential
        Ti1           12.00    47.86700     Ti( 1.00)
        O1             6.00    15.99900     O ( 1.00)
        N1             5.00    14.00700     N ( 1.00)
        C1             4.00    12.01100     C ( 1.00)
        H1             1.00     1.00800     H ( 1.00)

     No symmetry found

   Cartesian axes

     site n.     atom                  positions (alat units)
         1           Ti1 tau(   1) = (   0.0004258   2.9801865   6.0000000  )
         2           Ti1 tau(   2) = (   3.2906075   1.4906267   6.0002472  )
         3           O1  tau(   3) = (   0.0006271   0.0005054   7.9858123  )
         4           O1  tau(   4) = (   3.2906025   0.0005020   7.3038282  )
         5           O1  tau(   5) = (   4.5942328   1.4918067   9.2879030  )
         6           O1  tau(   6) = (   1.9868534   1.4903216   9.2879459  )
         7           Ti1 tau(   7) = (   3.2907910   2.8959150   9.1758416  )
         8           Ti1 tau(   8) = (   0.0015273   1.4827037   9.2680791  )
         9           O1  tau(   9) = (   3.3035207   5.9473585  11.3310231  )
        10           O1  tau(  10) = (   0.0116148   5.9584955  10.6183126  )
        11           O1  tau(  11) = (   1.3208475   1.4758257  12.6111770  )
        12           O1  tau(  12) = (   5.3082752   1.4698866  12.6250687  )
        13           Ti1 tau(  13) = (   6.5356446   2.9641997  12.6185077  )
        14           Ti1 tau(  14) = (   3.2189969   1.4721334  12.4835407  )
        15           O1  tau(  15) = (   0.0393797   5.9575543  14.6615593  )
        16           O1  tau(  16) = (   3.2985004   5.9511915  13.9168519  )
        17           O1  tau(  17) = (   4.5692420   1.4945533  16.0479082  )
        18           O1  tau(  18) = (   2.0930108   1.4957509  16.0624375  )
        19           Ti1 tau(  19) = (   3.3255584   2.9801015  15.7018593  )
        20           Ti1 tau(  20) = (   6.5669960   1.4976744  15.8335939  )
        21           O1  tau(  21) = (   3.2904802   0.0005063   4.7018136  )
        22           O1  tau(  22) = (   0.0392190   0.0140749  17.2134629  )
        23           O1  tau(  23) = (   1.3043587   1.4918075   6.0039043  )
        24           O1  tau(  24) = (   5.2767064   1.4903225   6.0039473  )
        25           Ti1 tau(  25) = (   0.0000382   5.9609847   6.0000000  )
        26           Ti1 tau(  26) = (   3.2902200   4.4714249   6.0002472  )
        27           O1  tau(  27) = (   0.0002396   2.9813036   7.9858123  )
        28           O1  tau(  28) = (   3.2902150   2.9813002   7.3038282  )
        29           O1  tau(  29) = (   4.5938453   4.4726049   9.2879030  )
        30           O1  tau(  30) = (   1.9864658   4.4711199   9.2879459  )
        31           Ti1 tau(  31) = (   3.2891106   5.8743827   9.1763621  )
        32           Ti1 tau(  32) = (   0.0006254   4.4649316   9.2693709  )
        33           O1  tau(  33) = (   3.3031456   2.9698018  11.3313920  )
        34           O1  tau(  34) = (   0.0092240   2.9805883  10.6323155  )
        35           O1  tau(  35) = (   1.3161540   4.4602657  12.6201046  )
        36           O1  tau(  36) = (   5.3094940   4.4638127  12.6365964  )
        37           Ti1 tau(  37) = (   6.5345696   5.9399333  12.5489351  )
        38           Ti1 tau(  38) = (   3.2177077   4.4523588  12.4826418  )
        39           O1  tau(  39) = (   0.0172592   2.9259015  14.6604509  )
        40           O1  tau(  40) = (   3.3090452   2.9742471  13.9045505  )
        41           O1  tau(  41) = (   4.5663562   4.4668710  16.0744231  )
        42           O1  tau(  42) = (   2.0880155   4.4652721  16.0825153  )
        43           Ti1 tau(  43) = (   3.2840513   5.9573583  15.7162584  )
        44           Ti1 tau(  44) = (   0.0037803   4.6334615  16.1183230  )
        45           O1  tau(  45) = (   3.2900926   2.9813045   4.7018136  )
        46           O1  tau(  46) = (   1.3039711   4.4726057   6.0039043  )
        47           O1  tau(  47) = (   5.2763189   4.4711207   6.0039473  )
        48           N1  tau(  48) = (   0.6403421   2.7964730  18.4694378  )
        49           C1  tau(  49) = (   1.0548146   2.6213466  19.5673862  )
        50           H1  tau(  50) = (   1.9720372   2.4638087  20.0927579  )
        51           N1  tau(  51) = (   0.0785678   2.9576959  17.3929364  )

     number of k points=    10  Fermi-Dirac smearing, width (Ry)=  0.0073
                       cart. coord. in units 2pi/alat
        k(    1) = (   0.0000000   0.0000000   0.0000000), wk =   0.1250000
        k(    2) = (   0.0000000   0.0419351   0.0000000), wk =   0.2500000
        k(    3) = (   0.0000000  -0.0838702   0.0000000), wk =   0.1250000
        k(    4) = (   0.0379955   0.0000049   0.0000000), wk =   0.2500000
        k(    5) = (   0.0379955   0.0419400   0.0000000), wk =   0.2500000
        k(    6) = (   0.0379955  -0.0838652   0.0000000), wk =   0.2500000
        k(    7) = (   0.0379955  -0.0419301   0.0000000), wk =   0.2500000
        k(    8) = (  -0.0759910  -0.0000099   0.0000000), wk =   0.1250000
        k(    9) = (  -0.0759910   0.0419252   0.0000000), wk =   0.2500000
        k(   10) = (  -0.0759910  -0.0838800   0.0000000), wk =   0.1250000

     Initial potential from superposition of free atoms

     starting charge  376.99918, renormalised to  393.00000

     negative rho (up, down):  1.611E-02 0.000E+00

     %%%%%%%%%%%%%%%%%%%%%%%%%%%%%%%%%%%%%%%%%%%%%%%%%%%%%%%%%%%%%%%%%%%%%%%%
     %                                                                      %
     % You are using vdW-DF, which was implemented by the Thonhauser group. %
     % Please cite the following two papers that made this development      %
     % possible and the two reviews that describe the various versions:     %
     %                                                                      %
     %   T. Thonhauser et al., PRL 115, 136402 (2015).                      %
     %   T. Thonhauser et al., PRB 76, 125112 (2007).                       %
     %   K. Berland et al., Rep. Prog. Phys. 78, 066501 (2015).             %
     %   D.C. Langreth et al., J. Phys.: Condens. Matter 21, 084203 (2009). %
     %                                                                      %
     %                                                                      %
     % If you are calculating the stress with vdW-DF, please also cite:     %
     %                                                                      %
     %   R. Sabatini et al., J. Phys.: Condens. Matter 24, 424209 (2012).   %
     %                                                                      %
     %%%%%%%%%%%%%%%%%%%%%%%%%%%%%%%%%%%%%%%%%%%%%%%%%%%%%%%%%%%%%%%%%%%%%%%%

     Adding external electric field

     Computed dipole along edir(3) :
        Dipole               -7.3725 Ry au,        -18.7391 Debye
        Dipole field         -0.0139 Ry au,

        Potential amp.        1.2897 Ry
        Total length         46.3494 bohr

     Starting wfcs are  297 atomic wfcs
  @ DRIVER MODE: Message from server: STATUS
  @ DRIVER MODE: Message from server: POSDATA
  @ DRIVER MODE: Reading and sharing cell
  @ DRIVER MODE: Reading and sharing positions
  @ DRIVER MODE: Received positions

     Self-consistent Calculation

     iteration #  1     ecut=    29.40 Ry     beta= 0.05
     Davidson diagonalization with overlap
     c_bands:  1 eigenvalues not converged
     c_bands:  1 eigenvalues not converged
     c_bands:  1 eigenvalues not converged
     c_bands:  1 eigenvalues not converged
     ethr =  1.00E-05,  avg # of iterations = 18.6

[...]

     total energy              =   -2707.98673248 Ry
     estimated scf accuracy    <    2533.44226017 Ry

[...]

     iteration #  3     ecut=    29.40 Ry     beta= 0.05
     Davidson diagonalization with overlap
     ethr =  1.00E-02,  avg # of iterations = 16.4

[...]

     iteration # 57     ecut=    29.40 Ry     beta= 0.05
     Davidson diagonalization with overlap
     c_bands:  1 eigenvalues not converged
     ethr =  1.13E-09,  avg # of iterations = 13.6

[...]

     total energy              =   -2936.63870517 Ry
     estimated scf accuracy    <       0.00000016 Ry

     iteration # 66     ecut=    29.40 Ry     beta= 0.05
     Davidson diagonalization with overlap
     ethr =  3.97E-11,  avg # of iterations =  4.1

     negative rho (up, down):  1.643E-02 0.000E+00

     Adding external electric field

     Computed dipole along edir(3) :
        Dipole                0.6655 Ry au,          1.6915 Debye
        Dipole field          0.0013 Ry au,

        Potential amp.       -0.1164 Ry
        Total length         46.3494 bohr

     End of self-consistent calculation

          k = 0.0000 0.0000 0.0000 ( 18029 PWs)   bands (ev):

   -55.9506 -55.9460 -55.9165 -55.9101 -55.8136 -55.8096 -55.7784 -55.7734
   -55.7613 -55.7274 -55.7273 -55.6937 -55.5109 -55.2781 -54.9296 -54.8955
   -32.5004 -32.4333 -32.3127 -32.2707 -32.2604 -32.2533 -32.2433 -32.2182
   -32.1938 -32.1712 -32.1480 -32.1400 -32.1257 -32.1029 -32.0976 -32.0858
   -32.0552 -32.0495 -32.0442 -32.0190 -32.0151 -32.0078 -31.9882 -31.9679
   -31.9584 -31.9509 -31.9508 -31.9484 -31.9393 -31.9293 -31.9253 -31.9026
   -31.8923 -31.8806 -31.8780 -31.8683 -31.8397 -31.7392 -31.7296 -31.5520
   -31.5137 -31.4996 -31.3367 -31.2483 -31.2259 -31.1535 -31.0670 -30.9559
   -19.2849 -16.6997 -16.4293 -16.1961 -16.1057 -16.0818 -15.9613 -15.7969
   -15.6780 -15.6223 -15.5215 -15.5167 -15.4879 -15.4560 -15.4357 -15.4234
   -15.3990 -15.3953 -15.3718 -15.3582 -15.3133 -15.2925 -15.2766 -15.1830
   -15.1290 -15.0863 -15.0511 -15.0268 -15.0109 -14.5540 -14.0032 -13.4319
   -13.3155  -6.7684  -5.2433  -4.2741  -4.0723  -4.0500  -3.9153  -3.8578
    -3.8093  -3.7042  -3.5683  -3.5024  -3.1913  -3.1353  -3.1202  -3.1045
    -3.0727  -2.8589  -2.8045  -2.7667  -2.7397  -2.7297  -2.7213  -2.7156
    -2.6989  -2.6717  -2.5649  -2.4943  -2.4192  -2.4098  -2.3528  -2.3502
    -2.2637  -2.2407  -2.2185  -2.1969  -2.1925  -2.1818  -2.1557  -2.1342
    -2.0085  -1.9381  -1.8271  -1.7586  -1.7234  -1.5604  -1.5443  -1.4154
    -1.4119  -1.3800  -1.3441  -1.3264  -1.2525  -1.1529  -1.1186  -1.1032
    -1.0565  -0.9736  -0.9273  -0.8459  -0.8011  -0.7753  -0.7225  -0.7147
    -0.7065  -0.6601  -0.5074  -0.4322  -0.3784  -0.3654  -0.3307  -0.2575
    -0.2320  -0.1489  -0.1061  -0.0816  -0.0721  -0.0180   0.0218   0.0351
     0.0487   0.0576   0.0684   0.2462   0.2956   0.3201   0.3732   0.3941
     0.5725   0.6040   0.7032   0.7922   1.0189   1.0926   1.1714   1.2732
     1.2846   1.4868   1.6638   1.7095   3.1799   3.2698   3.3113   3.3161
     3.4217   3.4873   3.6350   3.6560   3.6800   3.7231

[...]

          k = 0.0380-0.0419 0.0000 ( 17876 PWs)   bands (ev):

[...]

          k =-0.0760-0.0000 0.0000 ( 17886 PWs)   bands (ev):

[...]

          k =-0.0760-0.0839 0.0000 ( 17948 PWs)   bands (ev):

   -55.9340 -55.9330 -55.9287 -55.9272 -55.7998 -55.7968 -55.7921 -55.7860
   -55.7449 -55.7433 -55.7121 -55.7092 -55.5097 -55.2791 -54.9125 -54.9124
   -32.3037 -32.3028 -32.2489 -32.2483 -32.2291 -32.2283 -32.2037 -32.2023
   -32.1583 -32.1539 -32.1330 -32.1301 -32.0832 -32.0801 -32.0778 -32.0713
   -32.0654 -32.0580 -32.0537 -32.0527 -32.0506 -32.0476 -32.0159 -32.0057
   -32.0048 -31.9926 -31.9870 -31.9763 -31.9458 -31.9453 -31.9430 -31.9406
   -31.9266 -31.9250 -31.9217 -31.9191 -31.8813 -31.7416 -31.7265 -31.6216
   -31.5239 -31.5138 -31.2387 -31.2385 -31.1496 -31.1494 -31.1103 -31.1103
   -19.2821 -16.1319 -16.1098 -15.9060 -15.8705 -15.8653 -15.8530 -15.7426
   -15.6653 -15.6470 -15.6447 -15.5753 -15.5462 -15.5286 -15.4914 -15.4863
   -15.4726 -15.4691 -15.4375 -15.4158 -15.4089 -15.3913 -15.3833 -15.3059
   -15.2705 -15.2660 -15.2452 -15.1347 -14.9966 -14.7326 -14.0092 -13.4174
   -13.4172  -6.7676  -5.2124  -4.2429  -4.0398  -3.4217  -3.3968  -3.1470
    -3.1104  -3.1021  -3.0458  -2.8738  -2.8576  -2.8424  -2.8168  -2.7856
    -2.7799  -2.7736  -2.7595  -2.7410  -2.7059  -2.6731  -2.6476  -2.6250
    -2.6203  -2.6106  -2.5802  -2.5666  -2.5410  -2.5218  -2.4993  -2.4834
    -2.4690  -2.4589  -2.2788  -2.1938  -2.1576  -2.0937  -2.0845  -2.0601
    -2.0166  -2.0080  -1.9888  -1.9427  -1.8077  -1.6949  -1.6540  -1.6356
    -1.5581  -1.5200  -1.4463  -1.3826  -1.3423  -1.3339  -1.2858  -1.2215
    -1.1748  -1.1584  -1.0998  -1.0673  -1.0166  -1.0016  -0.9525  -0.9124
    -0.9084  -0.8324  -0.7797  -0.7597  -0.7223  -0.7178  -0.6790  -0.6240
    -0.6069  -0.5728  -0.4559  -0.4312  -0.3197  -0.2391  -0.1912   0.0098
     0.0839   0.1202   0.1741   0.2408   0.3216   0.3450   0.3562   0.3666
     0.4174   0.4688   0.5757   0.5869   0.6216   0.7454   1.1821   1.4000
     1.4563   1.4570   1.5293   1.5295   3.4819   3.4985   3.5213   3.5362
     3.6896   3.6947   3.7163   3.7172   3.8442   3.8701

     the Fermi energy is     3.1818 ev

!    total energy              =   -2936.63872873 Ry
     estimated scf accuracy    <       0.00000006 Ry
     smearing contrib. (-TS)   =      -0.02149957 Ry
     internal energy E=F+TS    =   -2936.61722916 Ry

     The total energy is F=E-TS. E is the sum of the following terms:
     one-electron contribution =  -24412.58157259 Ry
     hartree contribution      =   12291.65562424 Ry
     xc contribution           =    -483.58972110 Ry
     ewald contribution        =    9667.89760452 Ry
     electric field correction =       0.00083577 Ry

     convergence has been achieved in  66 iterations

     Forces acting on atoms (cartesian axes, Ry/au):

     atom    1 type  1   force =     0.00000856   -0.00024889    0.09652451
     atom    2 type  1   force =     0.00006081   -0.00047633   -0.17541566
     atom    3 type  2   force =     0.00017319   -0.00006413   -0.02446730
     atom    4 type  2   force =     0.00003226   -0.00142559    0.05287432
     atom    5 type  2   force =    -0.01166653   -0.00077652    0.00292163
     atom    6 type  2   force =     0.01353858   -0.00029192    0.00323538
     atom    7 type  1   force =     0.00095113    0.00041641   -0.01155409
     atom    8 type  1   force =    -0.00000583    0.00991328    0.02612057
     atom    9 type  2   force =    -0.00031012    0.00021402    0.00025646
     atom   10 type  2   force =    -0.00267632    0.00000116   -0.01399756
     atom   11 type  2   force =     0.00068884    0.00023501    0.00032653
     atom   12 type  2   force =    -0.00056782    0.00001938   -0.00001155
     atom   13 type  1   force =     0.00035068   -0.00030001    0.00027099
     atom   14 type  1   force =    -0.00059717   -0.00056089   -0.00051916
     atom   15 type  2   force =    -0.00015094    0.00075234    0.00037953
     atom   16 type  2   force =     0.00023538   -0.00009199   -0.00032551
     atom   17 type  2   force =     0.00034506    0.00021569   -0.00006269
     atom   18 type  2   force =    -0.00059402    0.00041196   -0.00010811
     atom   19 type  1   force =    -0.00049686    0.00030880   -0.00071972
     atom   20 type  1   force =     0.00053229   -0.00016112    0.00017940
     atom   21 type  2   force =     0.00005884    0.00001884    0.10325144
     atom   22 type  2   force =     0.00013810    0.00086318   -0.00025724
     atom   23 type  2   force =    -0.07143689   -0.00007292   -0.02763132
     atom   24 type  2   force =     0.07141358    0.00039934   -0.02771157
     atom   25 type  1   force =     0.00025470   -0.00023818    0.09597798
     atom   26 type  1   force =     0.00009705   -0.00027605   -0.17570613
     atom   27 type  2   force =     0.00019851   -0.00016838   -0.02350089
     atom   28 type  2   force =     0.00004812   -0.00120941    0.05302542
     atom   29 type  2   force =    -0.01183835   -0.00001855    0.00276344
     atom   30 type  2   force =     0.01361155    0.00035553    0.00305695
     atom   31 type  1   force =     0.00086655    0.00350477   -0.01216736
     atom   32 type  1   force =     0.00012319   -0.01159978    0.02659297
     atom   33 type  2   force =    -0.00009883    0.00007343   -0.00033317
     atom   34 type  2   force =    -0.00274914   -0.00024786   -0.02147055
     atom   35 type  2   force =     0.00042105   -0.00004261    0.00031344
     atom   36 type  2   force =    -0.00033382   -0.00024333   -0.00020860
     atom   37 type  1   force =     0.00045971   -0.00075482   -0.00040224
     atom   38 type  1   force =    -0.00057981    0.00095656    0.00008947
     atom   39 type  2   force =    -0.00030796   -0.00036441    0.00089596
     atom   40 type  2   force =     0.00009969    0.00018196    0.00002349
     atom   41 type  2   force =    -0.00031711    0.00035754   -0.00027568
     atom   42 type  2   force =     0.00043506    0.00030122   -0.00026999
     atom   43 type  1   force =    -0.00004321    0.00022733   -0.00069835
     atom   44 type  1   force =     0.00024492    0.00127287   -0.00094199
     atom   45 type  2   force =     0.00006332    0.00002174    0.10322456
     atom   46 type  2   force =    -0.07147822   -0.00000768   -0.02765990
     atom   47 type  2   force =     0.07142021    0.00037461   -0.02771707
     atom   48 type  3   force =    -0.00086150    0.00280691   -0.00173055
     atom   49 type  4   force =     0.00009462   -0.00037431   -0.00058800
     atom   50 type  5   force =    -0.00127692    0.00089339    0.00018956
     atom   51 type  3   force =     0.00142185   -0.00508157    0.00395795

     Total force =     0.367521     Total SCF correction =     0.000496
  @ DRIVER MODE: Message from server: STATUS
  @ DRIVER MODE: Message from server: GETFORCE
  @ DRIVER MODE: Returning v,forces,stress,ensemble

     Writing output data file ./calc.save/
  @ DRIVER MODE: Message from server: EXIT
  @ DRIVE MODE: Exiting

     General routines

     Parallel routines

   This run was terminated on:   0:11:45  24Aug2021

   JOB DONE.