     Program PWSCF v.6.7GPU starts on  2Aug2021 at 18:13:41

     R & G space division:  proc/nbgrp/npool/nimage =      16
     Reading input from /storage/home/hcoda1/3/ntian30/research/carbon/02Aug_vib_paired/ads_slab/CH3NH3_a/out_0017/pw.inp
Warning: card &CELL ignored
Warning: card   CELL_DYNAMICS='IPI', ignored
Warning: card / ignored

     Current dimensions of program PWSCF are:
     Max number of different atomic species (ntypx) = 10
     Max number of k-points (npk) =  40000
     Max angular momentum in pseudopotentials (lmaxx) =  3
     Presently no symmetry can be used with electric field

     Message from routine cell_base_init:
     DEPRECATED: use true lattice parameter, not A to a.u. conversion factor

     IMPORTANT: XC functional enforced from input :
     Exchange-correlation= BEEF-VDW
                           (   1   4  43  14   2   0   0)
     Any further DFT definition will be discarded
     Please, verify this is what you really want

  @ DRIVER MODE: Connecting to
 qe_1139763_2482539.sched-torque.pace.gatech.edugvb455f5_scratch
  using UNIX socket
  @ DRIVER MODE: Message from server: STATUS
  @ DRIVER MODE: Message from server: INIT
  @ DRIVER MODE: Receiving replica           0          -1
  @ DRIVER MODE: Receiving encoded integer          25
  @ DRIVER MODE:  SCF:  T  FORCE:  T  STRESS:  F  VC:  F  ENSEMBLE:  F
  @ DRIVER MODE:  SCF:  T  FORCE:  T  STRESS:  F  VC:  F  ENSEMBLE:  F

     Using Slab Decomposition

     bravais-lattice index     =            0
     lattice parameter (alat)  =       1.8897  a.u.
     unit-cell volume          =    6658.9804 (a.u.)^3
     number of atoms/cell      =           55
     number of atomic types    =            5
     number of electrons       =       393.00
     number of Kohn-Sham states=          206
     kinetic-energy cutoff     =      29.3995  Ry
     charge density cutoff     =     293.9946  Ry
     scf convergence threshold =      7.3E-08
     mixing beta               =       0.0500
     number of iterations used =            8  plain     mixing
     Exchange-correlation= BEEF-VDW
                           (   1   4  43  14   2   0   0)

     celldm(1)=   1.889726  celldm(2)=   0.000000  celldm(3)=   0.000000
     celldm(4)=   0.000000  celldm(5)=   0.000000  celldm(6)=   0.000000

     crystal axes: (cart. coord. in units of alat)
               a(1) = (   6.579727   0.000000   0.000000 )
               a(2) = (  -0.000775   5.961596   0.000000 )
               a(3) = (   0.000000   0.000000  25.155947 )

     reciprocal axes: (cart. coord. in units 2 pi/alat)
               b(1) = (  0.151982  0.000020  0.000000 )
               b(2) = (  0.000000  0.167740  0.000000 )
               b(3) = (  0.000000  0.000000  0.039752 )

     PseudoPot. # 1 for Ti read from file:
     /storage/coda1/p-amedford6/0/shared/rich_project_chbe-medford/medford-share/data/pseudos_module/espresso/nninc/pbe/van/Ti.UPF
     MD5 check sum: 8e4df49b7f0d34bbd5052bf3f5ea0213
     Pseudo is Ultrasoft, Zval = 12.0
     Generated by new atomic code, or converted to UPF format
     Using radial grid of  851 points,  6 beta functions with:
                l(1) =   0
                l(2) =   0
                l(3) =   1
                l(4) =   1
                l(5) =   2
                l(6) =   2
     Q(r) pseudized with  8 coefficients,  rinner =    1.000   1.000   1.000
                                                       1.000   1.000

     PseudoPot. # 2 for O  read from file:
     /storage/coda1/p-amedford6/0/shared/rich_project_chbe-medford/medford-share/data/pseudos_module/espresso/nninc/pbe/van/O.UPF
     MD5 check sum: 78c19812648e8988a0fe644b0f25305e
     Pseudo is Ultrasoft, Zval =  6.0
     Generated by new atomic code, or converted to UPF format
     Using radial grid of  737 points,  4 beta functions with:
                l(1) =   0
                l(2) =   0
                l(3) =   1
                l(4) =   1
     Q(r) pseudized with  8 coefficients,  rinner =    0.800   0.800   0.800

     PseudoPot. # 3 for C  read from file:
     /storage/coda1/p-amedford6/0/shared/rich_project_chbe-medford/medford-share/data/pseudos_module/espresso/nninc/pbe/van/C.UPF
     MD5 check sum: 1a69bf6b8db32088f5b2163dbdb77a27
     Pseudo is Ultrasoft, Zval =  4.0
     Generated by new atomic code, or converted to UPF format
     Using radial grid of  721 points,  4 beta functions with:
                l(1) =   0
                l(2) =   0
                l(3) =   1
                l(4) =   1
     Q(r) pseudized with  8 coefficients,  rinner =    0.800   0.800   0.800

     PseudoPot. # 4 for H  read from file:
     /storage/coda1/p-amedford6/0/shared/rich_project_chbe-medford/medford-share/data/pseudos_module/espresso/nninc/pbe/van/H.UPF
     MD5 check sum: b5ee9d7bfd3a09ee7748110bda690ff7
     Pseudo is Ultrasoft, Zval =  1.0
     Generated by new atomic code, or converted to UPF format
     Using radial grid of  615 points,  1 beta functions with:
                l(1) =   0
     Q(r) pseudized with  8 coefficients,  rinner =    0.800

     PseudoPot. # 5 for N  read from file:
     /storage/coda1/p-amedford6/0/shared/rich_project_chbe-medford/medford-share/data/pseudos_module/espresso/nninc/pbe/van/N.UPF
     MD5 check sum: 90d10febe142ad51ac9d5be1deb811c4
     Pseudo is Ultrasoft, Zval =  5.0
     Generated by new atomic code, or converted to UPF format
     Using radial grid of  729 points,  4 beta functions with:
                l(1) =   0
                l(2) =   0
                l(3) =   1
                l(4) =   1
     Q(r) pseudized with  8 coefficients,  rinner =    0.800   0.800   0.800

     atomic species   valence    mass     pseudopotential
        Ti1           12.00    47.86700     Ti( 1.00)
        O1             6.00    15.99900     O ( 1.00)
        C1             4.00    12.01100     C ( 1.00)
        H1             1.00     1.00800     H ( 1.00)
        N1             5.00    14.00700     N ( 1.00)

     No symmetry found

   Cartesian axes

     site n.     atom                  positions (alat units)
         1           Ti1 tau(   1) = (   0.0004258   2.9801865   6.0000000  )
         2           Ti1 tau(   2) = (   3.2906075   1.4906267   6.0002472  )
         3           O1  tau(   3) = (   0.0006271   0.0005054   7.9858123  )
         4           O1  tau(   4) = (   3.2906025   0.0005020   7.3038282  )
         5           O1  tau(   5) = (   4.5942328   1.4918067   9.2879030  )
         6           O1  tau(   6) = (   1.9868534   1.4903216   9.2879459  )
         7           Ti1 tau(   7) = (   3.2907910   2.8959150   9.1758416  )
         8           Ti1 tau(   8) = (   0.0015273   1.4827037   9.2680791  )
         9           O1  tau(   9) = (   3.2981156   0.0012339  11.3300471  )
        10           O1  tau(  10) = (   0.0116148   5.9584955  10.6183126  )
        11           O1  tau(  11) = (   1.3033605   1.5036236  12.6199488  )
        12           O1  tau(  12) = (   5.2811161   1.5074500  12.6162500  )
        13           Ti1 tau(  13) = (   0.0407500   2.9455431  12.6352795  )
        14           Ti1 tau(  14) = (   3.3444429   1.4910927  12.4779025  )
        15           O1  tau(  15) = (   0.0052662   0.0451097  14.6026341  )
        16           O1  tau(  16) = (   3.2946143   0.0124870  13.9210852  )
        17           O1  tau(  17) = (   4.5465206   1.5046604  16.0624161  )
        18           O1  tau(  18) = (   2.0546879   1.5048301  16.0609706  )
        19           Ti1 tau(  19) = (   3.2991624   2.9918142  15.6995589  )
        20           Ti1 tau(  20) = (   6.5707204   1.4025535  15.8059435  )
        21           O1  tau(  21) = (   3.2904802   0.0005063   4.7018136  )
        22           O1  tau(  22) = (   0.0164654   0.0145536  17.1360041  )
        23           O1  tau(  23) = (   1.3043587   1.4918075   6.0039043  )
        24           O1  tau(  24) = (   5.2767064   1.4903225   6.0039473  )
        25           Ti1 tau(  25) = (   0.0000382   5.9609847   6.0000000  )
        26           Ti1 tau(  26) = (   3.2902200   4.4714249   6.0002472  )
        27           O1  tau(  27) = (   0.0002396   2.9813036   7.9858123  )
        28           O1  tau(  28) = (   3.2902150   2.9813002   7.3038282  )
        29           O1  tau(  29) = (   4.5938453   4.4726049   9.2879030  )
        30           O1  tau(  30) = (   1.9864658   4.4711199   9.2879459  )
        31           Ti1 tau(  31) = (   3.2891106   5.8743827   9.1763621  )
        32           Ti1 tau(  32) = (   0.0006254   4.4649316   9.2693709  )
        33           O1  tau(  33) = (   3.2977166   2.9913250  11.3287690  )
        34           O1  tau(  34) = (   0.0092240   2.9805883  10.6323155  )
        35           O1  tau(  35) = (   1.3008534   4.4801743  12.6308489  )
        36           O1  tau(  36) = (   5.2850400   4.4860598  12.6280017  )
        37           Ti1 tau(  37) = (   0.0409916   5.9178611  12.5441859  )
        38           Ti1 tau(  38) = (   3.3442415   4.4710906  12.4862270  )
        39           O1  tau(  39) = (   0.0109228   2.9791018  14.7123696  )
        40           O1  tau(  40) = (   3.2998940   2.9912248  13.9043662  )
        41           O1  tau(  41) = (   4.5474046   4.4713503  16.0779382  )
        42           O1  tau(  42) = (   2.0618872   4.4767818  16.0643778  )
        43           Ti1 tau(  43) = (   3.2722838   0.0128901  15.7174356  )
        44           Ti1 tau(  44) = (   6.5592075   4.4947239  16.1563676  )
        45           O1  tau(  45) = (   3.2900926   2.9813045   4.7018136  )
        46           O1  tau(  46) = (   1.3039711   4.4726057   6.0039043  )
        47           O1  tau(  47) = (   5.2763189   4.4711207   6.0039473  )
        48           C1  tau(  48) = (   0.0359503   3.0870652  17.8341721  )
        49           H1  tau(  49) = (   5.8142062   3.6010452  18.3763092  )
        50           H1  tau(  50) = (   6.4784518   2.0305676  18.0514951  )
        51           H1  tau(  51) = (   0.9863100   3.3782628  18.2908018  )
        52           N1  tau(  52) = (   4.7642638   1.7931862  21.6370373  )
        53           H1  tau(  53) = (   4.5527921   2.7808570  21.5386679  )
        54           H1  tau(  54) = (   4.1042548   1.2952780  21.0483319  )
        55           H1  tau(  55) = (   4.5435699   1.5432347  22.5953497  )

     number of k points=    10  Fermi-Dirac smearing, width (Ry)=  0.0073
                       cart. coord. in units 2pi/alat
        k(    1) = (   0.0000000   0.0000000   0.0000000), wk =   0.1250000
        k(    2) = (   0.0000000   0.0419351   0.0000000), wk =   0.2500000
        k(    3) = (   0.0000000  -0.0838702   0.0000000), wk =   0.1250000
        k(    4) = (   0.0379955   0.0000049   0.0000000), wk =   0.2500000
        k(    5) = (   0.0379955   0.0419400   0.0000000), wk =   0.2500000
        k(    6) = (   0.0379955  -0.0838652   0.0000000), wk =   0.2500000
        k(    7) = (   0.0379955  -0.0419301   0.0000000), wk =   0.2500000
        k(    8) = (  -0.0759910  -0.0000099   0.0000000), wk =   0.1250000
        k(    9) = (  -0.0759910   0.0419252   0.0000000), wk =   0.2500000
        k(   10) = (  -0.0759910  -0.0838800   0.0000000), wk =   0.1250000

     Initial potential from superposition of free atoms

     starting charge  376.99914, renormalised to  393.00000

     negative rho (up, down):  1.001E-02 0.000E+00

     %%%%%%%%%%%%%%%%%%%%%%%%%%%%%%%%%%%%%%%%%%%%%%%%%%%%%%%%%%%%%%%%%%%%%%%%
     %                                                                      %
     % You are using vdW-DF, which was implemented by the Thonhauser group. %
     % Please cite the following two papers that made this development      %
     % possible and the two reviews that describe the various versions:     %
     %                                                                      %
     %   T. Thonhauser et al., PRL 115, 136402 (2015).                      %
     %   T. Thonhauser et al., PRB 76, 125112 (2007).                       %
     %   K. Berland et al., Rep. Prog. Phys. 78, 066501 (2015).             %
     %   D.C. Langreth et al., J. Phys.: Condens. Matter 21, 084203 (2009). %
     %                                                                      %
     %                                                                      %
     % If you are calculating the stress with vdW-DF, please also cite:     %
     %                                                                      %
     %   R. Sabatini et al., J. Phys.: Condens. Matter 24, 424209 (2012).   %
     %                                                                      %
     %%%%%%%%%%%%%%%%%%%%%%%%%%%%%%%%%%%%%%%%%%%%%%%%%%%%%%%%%%%%%%%%%%%%%%%%

     Adding external electric field

     Computed dipole along edir(3) :
        Dipole               -9.0608 Ry au,        -23.0302 Debye
        Dipole field         -0.0171 Ry au,

        Potential amp.        1.5850 Ry
        Total length         46.3494 bohr

     Starting wfcs are  298 atomic wfcs
  @ DRIVER MODE: Message from server: STATUS
  @ DRIVER MODE: Message from server: POSDATA
  @ DRIVER MODE: Reading and sharing cell
  @ DRIVER MODE: Reading and sharing positions
  @ DRIVER MODE: Received positions

     Self-consistent Calculation

     iteration #  1     ecut=    29.40 Ry     beta= 0.05
     Davidson diagonalization with overlap
     c_bands:  1 eigenvalues not converged
     c_bands:  1 eigenvalues not converged
     c_bands:  1 eigenvalues not converged
     ethr =  1.00E-05,  avg # of iterations = 17.8

[...]

     total energy              =   -2692.43109616 Ry
     estimated scf accuracy    <    2566.13970783 Ry

[...]

     iteration #  3     ecut=    29.40 Ry     beta= 0.05
     Davidson diagonalization with overlap
     ethr =  1.00E-02,  avg # of iterations = 15.5

[...]

     iteration # 56     ecut=    29.40 Ry     beta= 0.05
     Davidson diagonalization with overlap
     c_bands:  1 eigenvalues not converged
     ethr =  2.36E-09,  avg # of iterations = 11.8

[...]

     total energy              =   -2922.78952039 Ry
     estimated scf accuracy    <       0.00000010 Ry

     iteration # 65     ecut=    29.40 Ry     beta= 0.05
     Davidson diagonalization with overlap
     ethr =  2.59E-11,  avg # of iterations =  8.5

     negative rho (up, down):  1.131E-02 0.000E+00

     Adding external electric field

     Computed dipole along edir(3) :
        Dipole                0.5484 Ry au,          1.3940 Debye
        Dipole field          0.0010 Ry au,

        Potential amp.       -0.0959 Ry
        Total length         46.3494 bohr

     End of self-consistent calculation

          k = 0.0000 0.0000 0.0000 ( 18029 PWs)   bands (ev):

   -56.0344 -56.0309 -56.0003 -55.9944 -55.9024 -55.8676 -55.8672 -55.8428
   -55.8242 -55.8088 -55.8042 -55.7705 -55.5704 -55.3996 -55.0103 -54.9763
   -32.5892 -32.5163 -32.3619 -32.3559 -32.3419 -32.3408 -32.3275 -32.2949
   -32.2771 -32.2403 -32.2343 -32.2337 -32.2103 -32.1866 -32.1740 -32.1678
   -32.1382 -32.1361 -32.1224 -32.0916 -32.0819 -32.0709 -32.0394 -32.0349
   -32.0303 -32.0286 -32.0141 -32.0128 -32.0065 -31.9810 -31.9807 -31.9779
   -31.9729 -31.9721 -31.9574 -31.9477 -31.9166 -31.8494 -31.7845 -31.6875
   -31.6288 -31.5175 -31.4174 -31.3292 -31.3068 -31.2341 -31.1476 -31.0366
   -16.7692 -16.5059 -16.2740 -16.1833 -16.1334 -16.0469 -15.8696 -15.7530
   -15.7045 -15.6037 -15.5708 -15.5511 -15.5349 -15.5044 -15.4961 -15.4712
   -15.4598 -15.4533 -15.4187 -15.3911 -15.3659 -15.3513 -15.2312 -15.1788
   -15.1626 -15.1317 -15.0838 -15.0674 -14.6132 -13.6539 -13.5128 -13.3964
    -9.0534  -4.1440  -3.9637  -3.9383  -3.8902  -3.8484  -3.7126  -3.6953
    -3.6458  -3.5853  -3.2684  -3.2106  -3.2025  -3.1615  -3.1468  -2.9935
    -2.9268  -2.8515  -2.8349  -2.8296  -2.8039  -2.7986  -2.7945  -2.7513
    -2.7092  -2.6570  -2.6314  -2.5602  -2.5207  -2.4449  -2.3717  -2.3441
    -2.3022  -2.2994  -2.2631  -2.2514  -2.2429  -2.2328  -2.1977  -2.1818
    -2.0026  -1.9519  -1.8866  -1.8175  -1.8043  -1.6394  -1.5326  -1.4851
    -1.4661  -1.4590  -1.4409  -1.4237  -1.3281  -1.2101  -1.1771  -1.1274
    -1.0797  -1.0313  -1.0012  -0.9009  -0.8843  -0.7931  -0.7799  -0.7613
    -0.6504  -0.6265  -0.4919  -0.4711  -0.4650  -0.4049  -0.3893  -0.3163
    -0.2919  -0.2352  -0.1704  -0.1581  -0.0901  -0.0639  -0.0605  -0.0040
     0.0005   0.0457   0.0599   0.1709   0.2259   0.2753   0.3292   0.4349
     0.5154   0.6299   0.6764   0.7359   0.9378   1.0116   1.1208   1.1886
     1.2046   1.4683   1.5828   1.6284   3.1041   3.1889   3.2106   3.2363
     3.3436   3.3688   3.5547   3.5710   3.6054   3.6253

[...]

          k = 0.0380-0.0419 0.0000 ( 17876 PWs)   bands (ev):

[...]

          k =-0.0760-0.0000 0.0000 ( 17886 PWs)   bands (ev):

[...]

          k =-0.0760-0.0839 0.0000 ( 17948 PWs)   bands (ev):

   -56.0179 -56.0167 -56.0155 -56.0096 -55.8875 -55.8823 -55.8589 -55.8327
   -55.8263 -55.8245 -55.7887 -55.7863 -55.5690 -55.4009 -54.9934 -54.9931
   -32.3951 -32.3887 -32.3319 -32.3312 -32.3134 -32.3125 -32.2940 -32.2893
   -32.2230 -32.2220 -32.2190 -32.2082 -32.1681 -32.1669 -32.1477 -32.1433
   -32.1392 -32.1374 -32.1362 -32.1284 -32.1278 -32.1250 -32.0889 -32.0783
   -32.0737 -32.0515 -32.0473 -32.0335 -32.0248 -32.0239 -32.0202 -32.0183
   -32.0032 -32.0018 -31.9973 -31.9911 -31.9271 -31.8320 -31.7867 -31.6903
   -31.6735 -31.5608 -31.3195 -31.3194 -31.2303 -31.2301 -31.1909 -31.1909
   -16.2111 -16.1881 -15.9818 -15.9475 -15.9441 -15.9370 -15.8061 -15.7258
   -15.7253 -15.6995 -15.6387 -15.6273 -15.6054 -15.5667 -15.5423 -15.5399
   -15.5214 -15.5163 -15.4901 -15.4800 -15.4672 -15.4600 -15.3673 -15.3479
   -15.3441 -15.2941 -15.1490 -15.0028 -14.8940 -13.6531 -13.4983 -13.4981
    -9.0679  -3.7148  -3.7062  -3.5073  -3.4760  -3.2337  -3.1953  -3.1822
    -3.1133  -2.9567  -2.9175  -2.8995  -2.8915  -2.8471  -2.8395  -2.8343
    -2.8231  -2.7944  -2.7775  -2.7406  -2.7346  -2.7189  -2.7121  -2.7006
    -2.6833  -2.6532  -2.6453  -2.6247  -2.6090  -2.5906  -2.5726  -2.5447
    -2.5401  -2.4148  -2.2529  -2.2291  -2.1686  -2.1611  -2.1145  -2.1015
    -2.0949  -2.0677  -2.0388  -2.0119  -1.8523  -1.7416  -1.7268  -1.7101
    -1.6417  -1.6136  -1.5290  -1.4382  -1.3972  -1.3789  -1.3111  -1.3075
    -1.2571  -1.2325  -1.2120  -1.1446  -1.0877  -1.0512  -0.9935  -0.9873
    -0.9794  -0.9096  -0.8670  -0.7918  -0.7831  -0.7463  -0.7112  -0.6560
    -0.6218  -0.6105  -0.5204  -0.4880  -0.3757  -0.3269  -0.0687  -0.0218
     0.0323   0.0608   0.1260   0.1841   0.1887   0.2856   0.2893   0.3247
     0.4050   0.4262   0.4972   0.5164   0.5666   0.7284   1.2844   1.3756
     1.3764   1.4479   1.4483   1.4590   3.4017   3.4133   3.4206   3.4652
     3.6104   3.6150   3.6339   3.6355   3.7742   3.7972

     the Fermi energy is     3.1005 ev

!    total energy              =   -2922.78955477 Ry
     estimated scf accuracy    <       0.00000007 Ry
     smearing contrib. (-TS)   =      -0.02169540 Ry
     internal energy E=F+TS    =   -2922.76785937 Ry

     The total energy is F=E-TS. E is the sum of the following terms:
     one-electron contribution =  -23651.86803303 Ry
     hartree contribution      =   11910.14289879 Ry
     xc contribution           =    -482.26540523 Ry
     ewald contribution        =    9301.22211248 Ry
     electric field correction =       0.00056761 Ry

     convergence has been achieved in  65 iterations

     Forces acting on atoms (cartesian axes, Ry/au):

     atom    1 type  1   force =     0.00004891   -0.00022607    0.09684800
     atom    2 type  1   force =    -0.00017493   -0.00055557   -0.17516555
     atom    3 type  2   force =     0.00002143   -0.00004837   -0.02502253
     atom    4 type  2   force =     0.00002776   -0.00139817    0.05266035
     atom    5 type  2   force =    -0.01206657   -0.00051509    0.00331088
     atom    6 type  2   force =     0.01379945    0.00008297    0.00271032
     atom    7 type  1   force =    -0.00058236    0.00056049   -0.01154927
     atom    8 type  1   force =     0.00020154    0.01201886    0.02900676
     atom    9 type  2   force =    -0.00029640    0.00057484    0.00056431
     atom   10 type  2   force =    -0.00153271    0.00252766   -0.01947184
     atom   11 type  2   force =    -0.00017022   -0.00037068   -0.00014374
     atom   12 type  2   force =    -0.00090796    0.00003747   -0.00029516
     atom   13 type  1   force =     0.00054633   -0.00097859    0.00107136
     atom   14 type  1   force =     0.00145677    0.00058053   -0.00067967
     atom   15 type  2   force =    -0.00012980   -0.00082365    0.00035304
     atom   16 type  2   force =    -0.00020925   -0.00019706   -0.00146218
     atom   17 type  2   force =    -0.00059662    0.00077293    0.00001646
     atom   18 type  2   force =     0.00043721    0.00094905    0.00004331
     atom   19 type  1   force =    -0.00021175   -0.00105229    0.00059204
     atom   20 type  1   force =    -0.00007572    0.00013703   -0.00069284
     atom   21 type  2   force =     0.00004746   -0.00003675    0.10324314
     atom   22 type  2   force =     0.00027100   -0.00021393    0.00105253
     atom   23 type  2   force =    -0.07154070   -0.00014446   -0.02772280
     atom   24 type  2   force =     0.07143482    0.00026687   -0.02775405
     atom   25 type  1   force =     0.00005479   -0.00028342    0.09644060
     atom   26 type  1   force =    -0.00019283   -0.00028635   -0.17538678
     atom   27 type  2   force =     0.00008829   -0.00017181   -0.02380748
     atom   28 type  2   force =     0.00004491   -0.00113893    0.05274200
     atom   29 type  2   force =    -0.01210793    0.00084656    0.00277251
     atom   30 type  2   force =     0.01375704    0.00123564    0.00219047
     atom   31 type  1   force =    -0.00047354    0.00304114   -0.01241151
     atom   32 type  1   force =     0.00018372   -0.01422402    0.02941971
     atom   33 type  2   force =    -0.00022913   -0.00062827    0.00042167
     atom   34 type  2   force =    -0.00098307    0.00176263   -0.02266804
     atom   35 type  2   force =    -0.00066467   -0.00060633   -0.00011768
     atom   36 type  2   force =     0.00002804   -0.00015063   -0.00033288
     atom   37 type  1   force =     0.00064782    0.00028029    0.00057594
     atom   38 type  1   force =     0.00150479    0.00018351   -0.00067474
     atom   39 type  2   force =     0.00006043    0.00012744   -0.00120815
     atom   40 type  2   force =    -0.00034802   -0.00010669    0.00176617
     atom   41 type  2   force =    -0.00080406   -0.00107406   -0.00012146
     atom   42 type  2   force =     0.00032125   -0.00146004    0.00025309
     atom   43 type  1   force =     0.00022121    0.00059148    0.00106534
     atom   44 type  1   force =     0.00046637   -0.00024105    0.00068111
     atom   45 type  2   force =     0.00005654   -0.00009485    0.10320347
     atom   46 type  2   force =    -0.07152471   -0.00011379   -0.02772624
     atom   47 type  2   force =     0.07143165    0.00031749   -0.02775993
     atom   48 type  3   force =     0.00068143    0.00394430   -0.00210004
     atom   49 type  4   force =    -0.00083266   -0.00063091   -0.00038154
     atom   50 type  4   force =    -0.00061215   -0.00249427    0.00272134
     atom   51 type  4   force =    -0.00090589   -0.00067102   -0.00015036
     atom   52 type  5   force =    -0.00009216   -0.00018293   -0.00036609
     atom   53 type  4   force =     0.00064546   -0.00003669   -0.00036705
     atom   54 type  4   force =     0.00006550    0.00019529   -0.00011089
     atom   55 type  4   force =    -0.00028611    0.00012228   -0.00007539

     Total force =     0.368423     Total SCF correction =     0.000919
  @ DRIVER MODE: Message from server: STATUS
  @ DRIVER MODE: Message from server: GETFORCE
  @ DRIVER MODE: Returning v,forces,stress,ensemble

     Writing output data file ./calc.save/
  @ DRIVER MODE: Message from server: EXIT
  @ DRIVE MODE: Exiting

     General routines

     Parallel routines

   This run was terminated on:  18:29:48   2Aug2021

   JOB DONE.