     Program PWSCF v.6.7GPU starts on 25Sep2021 at 15:17:15

     R & G space division:  proc/nbgrp/npool/nimage =       8
     Reading input from /storage/home/hcoda1/3/ntian30/research/carbon/CxH_vib/H2O_calc/ads_slab/CH3N2OHHO_l/out_0002/pw.inp
Warning: card &CELL ignored
Warning: card   CELL_DYNAMICS='IPI', ignored
Warning: card / ignored

     Current dimensions of program PWSCF are:
     Max number of different atomic species (ntypx) = 10
     Max number of k-points (npk) =  40000
     Max angular momentum in pseudopotentials (lmaxx) =  3
     Presently no symmetry can be used with electric field

     Message from routine cell_base_init:
     DEPRECATED: use true lattice parameter, not A to a.u. conversion factor

     IMPORTANT: XC functional enforced from input :
     Exchange-correlation= BEEF-VDW
                           (   1   4  43  14   2   0   0)
     Any further DFT definition will be discarded
     Please, verify this is what you really want

  @ DRIVER MODE: Connecting to
 qe_1139763_2971669.sched-torque.pace.gatech.edurlw91y1f_scratch
  using UNIX socket
  @ DRIVER MODE: Message from server: STATUS
  @ DRIVER MODE: Message from server: INIT
  @ DRIVER MODE: Receiving replica           0          -1
  @ DRIVER MODE: Receiving encoded integer          25
  @ DRIVER MODE:  SCF:  T  FORCE:  T  STRESS:  F  VC:  F  ENSEMBLE:  F
  @ DRIVER MODE:  SCF:  T  FORCE:  T  STRESS:  F  VC:  F  ENSEMBLE:  F

     Using Slab Decomposition

     bravais-lattice index     =            0
     lattice parameter (alat)  =       1.8897  a.u.
     unit-cell volume          =    6658.9804 (a.u.)^3
     number of atoms/cell      =           57
     number of atomic types    =            5
     number of electrons       =       409.00
     number of Kohn-Sham states=          214
     kinetic-energy cutoff     =      29.3995  Ry
     charge density cutoff     =     293.9946  Ry
     scf convergence threshold =      7.3E-08
     mixing beta               =       0.0500
     number of iterations used =            8  plain     mixing
     Exchange-correlation= BEEF-VDW
                           (   1   4  43  14   2   0   0)

     celldm(1)=   1.889726  celldm(2)=   0.000000  celldm(3)=   0.000000
     celldm(4)=   0.000000  celldm(5)=   0.000000  celldm(6)=   0.000000

     crystal axes: (cart. coord. in units of alat)
               a(1) = (   6.579727   0.000000   0.000000 )
               a(2) = (  -0.000775   5.961596   0.000000 )
               a(3) = (   0.000000   0.000000  25.155947 )

     reciprocal axes: (cart. coord. in units 2 pi/alat)
               b(1) = (  0.151982  0.000020  0.000000 )
               b(2) = (  0.000000  0.167740  0.000000 )
               b(3) = (  0.000000  0.000000  0.039752 )

     PseudoPot. # 1 for Ti read from file:
     /storage/coda1/p-amedford6/0/shared/rich_project_chbe-medford/medford-share/data/pseudos_module/espresso/nninc/pbe/van/Ti.UPF
     MD5 check sum: 8e4df49b7f0d34bbd5052bf3f5ea0213
     Pseudo is Ultrasoft, Zval = 12.0
     Generated by new atomic code, or converted to UPF format
     Using radial grid of  851 points,  6 beta functions with:
                l(1) =   0
                l(2) =   0
                l(3) =   1
                l(4) =   1
                l(5) =   2
                l(6) =   2
     Q(r) pseudized with  8 coefficients,  rinner =    1.000   1.000   1.000
                                                       1.000   1.000

     PseudoPot. # 2 for O  read from file:
     /storage/coda1/p-amedford6/0/shared/rich_project_chbe-medford/medford-share/data/pseudos_module/espresso/nninc/pbe/van/O.UPF
     MD5 check sum: 78c19812648e8988a0fe644b0f25305e
     Pseudo is Ultrasoft, Zval =  6.0
     Generated by new atomic code, or converted to UPF format
     Using radial grid of  737 points,  4 beta functions with:
                l(1) =   0
                l(2) =   0
                l(3) =   1
                l(4) =   1
     Q(r) pseudized with  8 coefficients,  rinner =    0.800   0.800   0.800

     PseudoPot. # 3 for N  read from file:
     /storage/coda1/p-amedford6/0/shared/rich_project_chbe-medford/medford-share/data/pseudos_module/espresso/nninc/pbe/van/N.UPF
     MD5 check sum: 90d10febe142ad51ac9d5be1deb811c4
     Pseudo is Ultrasoft, Zval =  5.0
     Generated by new atomic code, or converted to UPF format
     Using radial grid of  729 points,  4 beta functions with:
                l(1) =   0
                l(2) =   0
                l(3) =   1
                l(4) =   1
     Q(r) pseudized with  8 coefficients,  rinner =    0.800   0.800   0.800

     PseudoPot. # 4 for C  read from file:
     /storage/coda1/p-amedford6/0/shared/rich_project_chbe-medford/medford-share/data/pseudos_module/espresso/nninc/pbe/van/C.UPF
     MD5 check sum: 1a69bf6b8db32088f5b2163dbdb77a27
     Pseudo is Ultrasoft, Zval =  4.0
     Generated by new atomic code, or converted to UPF format
     Using radial grid of  721 points,  4 beta functions with:
                l(1) =   0
                l(2) =   0
                l(3) =   1
                l(4) =   1
     Q(r) pseudized with  8 coefficients,  rinner =    0.800   0.800   0.800

     PseudoPot. # 5 for H  read from file:
     /storage/coda1/p-amedford6/0/shared/rich_project_chbe-medford/medford-share/data/pseudos_module/espresso/nninc/pbe/van/H.UPF
     MD5 check sum: b5ee9d7bfd3a09ee7748110bda690ff7
     Pseudo is Ultrasoft, Zval =  1.0
     Generated by new atomic code, or converted to UPF format
     Using radial grid of  615 points,  1 beta functions with:
                l(1) =   0
     Q(r) pseudized with  8 coefficients,  rinner =    0.800

     atomic species   valence    mass     pseudopotential
        Ti1           12.00    47.86700     Ti( 1.00)
        O1             6.00    15.99900     O ( 1.00)
        N1             5.00    14.00700     N ( 1.00)
        C1             4.00    12.01100     C ( 1.00)
        H1             1.00     1.00800     H ( 1.00)

     No symmetry found

   Cartesian axes

     site n.     atom                  positions (alat units)
         1           Ti1 tau(   1) = (   0.0004258   2.9801865   6.0000000  )
         2           Ti1 tau(   2) = (   3.2906075   1.4906267   6.0002472  )
         3           O1  tau(   3) = (   0.0006271   0.0005054   7.9858123  )
         4           O1  tau(   4) = (   3.2906025   0.0005020   7.3038282  )
         5           O1  tau(   5) = (   4.5942328   1.4918067   9.2879030  )
         6           O1  tau(   6) = (   1.9868534   1.4903216   9.2879459  )
         7           Ti1 tau(   7) = (   3.2907910   2.8959150   9.1758416  )
         8           Ti1 tau(   8) = (   0.0015273   1.4827037   9.2680791  )
         9           O1  tau(   9) = (   3.2779673   5.9607700  11.3423085  )
        10           O1  tau(  10) = (   0.0116148   5.9584955  10.6183126  )
        11           O1  tau(  11) = (   1.2787083   1.4818767  12.6451794  )
        12           O1  tau(  12) = (   5.2707140   1.4872516  12.6060838  )
        13           Ti1 tau(  13) = (   0.0520196   2.9452147  12.6012095  )
        14           Ti1 tau(  14) = (   3.3669591   1.4706787  12.5087448  )
        15           O1  tau(  15) = (   6.5166736   5.9505275  14.6414754  )
        16           O1  tau(  16) = (   3.3002175   0.0041348  13.9548274  )
        17           O1  tau(  17) = (   4.5235890   1.5203341  16.0633414  )
        18           O1  tau(  18) = (   1.9992342   1.5602939  15.9747780  )
        19           Ti1 tau(  19) = (   3.2541499   3.0080313  15.6961896  )
        20           Ti1 tau(  20) = (   6.5591015   1.5323982  15.7823192  )
        21           O1  tau(  21) = (   3.2904802   0.0005063   4.7018136  )
        22           O1  tau(  22) = (   0.0960927   0.0099221  17.2178370  )
        23           O1  tau(  23) = (   1.3043587   1.4918075   6.0039043  )
        24           O1  tau(  24) = (   5.2767064   1.4903225   6.0039473  )
        25           Ti1 tau(  25) = (   0.0000382   5.9609847   6.0000000  )
        26           Ti1 tau(  26) = (   3.2902200   4.4714249   6.0002472  )
        27           O1  tau(  27) = (   0.0002396   2.9813036   7.9858123  )
        28           O1  tau(  28) = (   3.2902150   2.9813002   7.3038282  )
        29           O1  tau(  29) = (   4.5938453   4.4726049   9.2879030  )
        30           O1  tau(  30) = (   1.9864658   4.4711199   9.2879459  )
        31           Ti1 tau(  31) = (   3.2891106   5.8743827   9.1763621  )
        32           Ti1 tau(  32) = (   0.0006254   4.4649316   9.2693709  )
        33           O1  tau(  33) = (   3.2807211   2.9768430  11.3440791  )
        34           O1  tau(  34) = (   0.0092240   2.9805883  10.6323155  )
        35           O1  tau(  35) = (   1.2789702   4.4681595  12.6395138  )
        36           O1  tau(  36) = (   5.2737968   4.4775610  12.6008310  )
        37           Ti1 tau(  37) = (   0.0460201   5.9176504  12.5434570  )
        38           Ti1 tau(  38) = (   3.3658678   4.4646095  12.4976877  )
        39           O1  tau(  39) = (   6.5297297   2.9761478  14.6509524  )
        40           O1  tau(  40) = (   3.3085871   2.9961499  13.9017917  )
        41           O1  tau(  41) = (   4.5138497   4.4896837  16.1272785  )
        42           O1  tau(  42) = (   1.9961282   4.4344792  16.0060688  )
        43           Ti1 tau(  43) = (   3.3116018   0.0224549  15.7990204  )
        44           Ti1 tau(  44) = (   6.5775847   4.6577750  16.0638065  )
        45           O1  tau(  45) = (   3.2900926   2.9813045   4.7018136  )
        46           O1  tau(  46) = (   1.3039711   4.4726057   6.0039043  )
        47           O1  tau(  47) = (   5.2763189   4.4711207   6.0039473  )
        48           N1  tau(  48) = (   6.5165777   2.6139801  18.6303060  )
        49           N1  tau(  49) = (   6.5364102   2.8728423  17.4370429  )
        50           C1  tau(  50) = (   6.4341180   3.7235584  19.6105657  )
        51           H1  tau(  51) = (   6.3066687   4.7022679  19.1488110  )
        52           H1  tau(  52) = (   5.6164842   3.4805663  20.2913871  )
        53           H1  tau(  53) = (   0.7823074   3.6964598  20.1845303  )
        54           O1  tau(  54) = (   3.0314481   5.0835218  18.9911038  )
        55           H1  tau(  55) = (   1.7414717   0.2044793  18.0242669  )
        56           O1  tau(  56) = (   2.7372941   0.2572207  18.0778760  )
        57           H1  tau(  57) = (   3.9343361   5.3466317  19.2487757  )

     number of k points=    10  Fermi-Dirac smearing, width (Ry)=  0.0073
                       cart. coord. in units 2pi/alat
        k(    1) = (   0.0000000   0.0000000   0.0000000), wk =   0.1250000
        k(    2) = (   0.0000000   0.0419351   0.0000000), wk =   0.2500000
        k(    3) = (   0.0000000  -0.0838702   0.0000000), wk =   0.1250000
        k(    4) = (   0.0379955   0.0000049   0.0000000), wk =   0.2500000
        k(    5) = (   0.0379955   0.0419400   0.0000000), wk =   0.2500000
        k(    6) = (   0.0379955  -0.0838652   0.0000000), wk =   0.2500000
        k(    7) = (   0.0379955  -0.0419301   0.0000000), wk =   0.2500000
        k(    8) = (  -0.0759910  -0.0000099   0.0000000), wk =   0.1250000
        k(    9) = (  -0.0759910   0.0419252   0.0000000), wk =   0.2500000
        k(   10) = (  -0.0759910  -0.0838800   0.0000000), wk =   0.1250000

     Initial potential from superposition of free atoms

     starting charge  392.99914, renormalised to  409.00000

     negative rho (up, down):  1.422E-02 0.000E+00

     %%%%%%%%%%%%%%%%%%%%%%%%%%%%%%%%%%%%%%%%%%%%%%%%%%%%%%%%%%%%%%%%%%%%%%%%
     %                                                                      %
     % You are using vdW-DF, which was implemented by the Thonhauser group. %
     % Please cite the following two papers that made this development      %
     % possible and the two reviews that describe the various versions:     %
     %                                                                      %
     %   T. Thonhauser et al., PRL 115, 136402 (2015).                      %
     %   T. Thonhauser et al., PRB 76, 125112 (2007).                       %
     %   K. Berland et al., Rep. Prog. Phys. 78, 066501 (2015).             %
     %   D.C. Langreth et al., J. Phys.: Condens. Matter 21, 084203 (2009). %
     %                                                                      %
     %                                                                      %
     % If you are calculating the stress with vdW-DF, please also cite:     %
     %                                                                      %
     %   R. Sabatini et al., J. Phys.: Condens. Matter 24, 424209 (2012).   %
     %                                                                      %
     %%%%%%%%%%%%%%%%%%%%%%%%%%%%%%%%%%%%%%%%%%%%%%%%%%%%%%%%%%%%%%%%%%%%%%%%

     Adding external electric field

     Computed dipole along edir(3) :
        Dipole              -16.7505 Ry au,        -42.5754 Debye
        Dipole field         -0.0316 Ry au,

        Potential amp.        2.9302 Ry
        Total length         46.3494 bohr

     Starting wfcs are  309 atomic wfcs
  @ DRIVER MODE: Message from server: STATUS
  @ DRIVER MODE: Message from server: POSDATA
  @ DRIVER MODE: Reading and sharing cell
  @ DRIVER MODE: Reading and sharing positions
  @ DRIVER MODE: Received positions

     Self-consistent Calculation

     iteration #  1     ecut=    29.40 Ry     beta= 0.05
     Davidson diagonalization with overlap
     c_bands:  5 eigenvalues not converged
     c_bands:  5 eigenvalues not converged
     c_bands:  3 eigenvalues not converged
     c_bands:  1 eigenvalues not converged
     c_bands:  4 eigenvalues not converged
     c_bands:  2 eigenvalues not converged
     c_bands:  5 eigenvalues not converged
     ethr =  1.00E-05,  avg # of iterations = 26.6

[...]

     total energy              =   -2110.46456179 Ry
     estimated scf accuracy    <   10326.54495790 Ry

     iteration #  2     ecut=    29.40 Ry     beta= 0.05
     Davidson diagonalization with overlap
     ethr =  1.00E-02,  avg # of iterations = 32.0

[...]

     iteration # 49     ecut=    29.40 Ry     beta= 0.05
     Davidson diagonalization with overlap
     c_bands:  1 eigenvalues not converged
     c_bands:  2 eigenvalues not converged
     c_bands:  1 eigenvalues not converged
     c_bands:  1 eigenvalues not converged
     ethr =  1.52E-07,  avg # of iterations = 18.0

[...]

     total energy              =   -3006.13722893 Ry
     estimated scf accuracy    <       0.00000021 Ry

     iteration # 66     ecut=    29.40 Ry     beta= 0.05
     Davidson diagonalization with overlap
     ethr =  5.09E-11,  avg # of iterations = 11.2

     negative rho (up, down):  1.470E-02 0.000E+00

     Adding external electric field

     Computed dipole along edir(3) :
        Dipole                0.8091 Ry au,          2.0564 Debye
        Dipole field          0.0015 Ry au,

        Potential amp.       -0.1415 Ry
        Total length         46.3494 bohr

     End of self-consistent calculation

          k = 0.0000 0.0000 0.0000 ( 18029 PWs)   bands (ev):

   -55.6048 -55.5707 -55.5631 -55.5341 -55.5268 -55.4409 -55.4194 -55.4039
   -55.3855 -55.3835 -55.3663 -55.3498 -54.9887 -54.9182 -54.5858 -54.5517
   -32.1039 -32.0879 -31.9489 -31.9407 -31.9178 -31.8974 -31.8734 -31.8602
   -31.8487 -31.7946 -31.7795 -31.7639 -31.7570 -31.7407 -31.7293 -31.7192
   -31.7098 -31.7014 -31.6900 -31.6627 -31.6619 -31.6422 -31.6105 -31.6090
   -31.5996 -31.5951 -31.5926 -31.5822 -31.5642 -31.5598 -31.5539 -31.5490
   -31.5383 -31.5368 -31.5272 -31.5155 -31.4956 -31.2667 -31.2101 -31.1785
   -31.1251 -31.1026 -30.9930 -30.9043 -30.8819 -30.8097 -30.7232 -30.6121
   -20.7373 -18.3009 -16.3053 -16.0790 -15.8954 -15.7655 -15.7107 -15.5540
   -15.4957 -15.4098 -15.3391 -15.2027 -15.1502 -15.1415 -15.1358 -15.1167
   -15.1111 -15.0506 -15.0397 -15.0382 -15.0270 -14.9994 -14.9603 -14.9470
   -14.9421 -14.8593 -14.7661 -14.7431 -14.7228 -14.7196 -14.6618 -14.2763
   -13.0878 -12.9714 -11.2782  -6.8141  -5.7523  -5.3638  -4.1820  -3.8080
    -3.7675  -3.6725  -3.5500  -3.5111  -3.4318  -3.3848  -3.2306  -3.0796
    -3.0263  -2.8516  -2.7829  -2.7555  -2.7120  -2.6286  -2.5212  -2.4679
    -2.4126  -2.4081  -2.3947  -2.3797  -2.3614  -2.3448  -2.2376  -2.2189
    -2.1669  -2.1460  -2.1173  -1.9847  -1.9570  -1.9291  -1.9184  -1.8912
    -1.8786  -1.8641  -1.8374  -1.8186  -1.7803  -1.7552  -1.6243  -1.5809
    -1.5429  -1.4490  -1.3889  -1.3292  -1.2332  -1.2010  -1.1323  -1.0623
    -1.0561  -1.0363  -1.0031  -0.9949  -0.8686  -0.7643  -0.7541  -0.6808
    -0.6193  -0.5690  -0.5281  -0.4628  -0.3792  -0.3618  -0.3540  -0.3337
    -0.2819  -0.2576  -0.0981  -0.0596  -0.0109   0.0143   0.0713   0.1045
     0.1475   0.1874   0.2276   0.2774   0.3116   0.3447   0.3632   0.3774
     0.3928   0.4240   0.4448   0.6105   0.6458   0.6691   0.7303   0.7594
     0.8459   0.9027   0.9667   1.0504   1.1586   1.3639   1.4367   1.5280
     1.6287   2.0081   2.0539   2.8301   3.5244   3.6163   3.6573   3.6876
     3.7690   3.7809   3.9823   4.0041   4.0354   4.1935

[...]

          k = 0.0380-0.0419 0.0000 ( 17876 PWs)   bands (ev):

[...]

          k =-0.0760-0.0000 0.0000 ( 17886 PWs)   bands (ev):

[...]

          k =-0.0760-0.0839 0.0000 ( 17948 PWs)   bands (ev):

   -55.5883 -55.5871 -55.5479 -55.5418 -55.5323 -55.4291 -55.4157 -55.4027
   -55.4016 -55.3681 -55.3680 -55.3655 -54.9848 -54.9220 -54.5688 -54.5686
   -31.9180 -31.9036 -31.9028 -31.9007 -31.8834 -31.8823 -31.8263 -31.8178
   -31.8054 -31.7857 -31.7772 -31.7535 -31.7486 -31.7226 -31.7170 -31.7163
   -31.7079 -31.7075 -31.7070 -31.7056 -31.7034 -31.7013 -31.6747 -31.6462
   -31.6323 -31.6285 -31.6197 -31.6035 -31.6025 -31.5977 -31.5925 -31.5834
   -31.5803 -31.5727 -31.5721 -31.5701 -31.4175 -31.2684 -31.2485 -31.1871
   -31.1637 -31.1264 -30.8947 -30.8945 -30.8058 -30.8056 -30.7665 -30.7665
   -20.7367 -18.2969 -15.7428 -15.6961 -15.6310 -15.5639 -15.5287 -15.4588
   -15.4154 -15.3734 -15.3215 -15.2833 -15.2744 -15.2153 -15.1942 -15.1619
   -15.1523 -15.1229 -15.1133 -15.1113 -15.0575 -15.0517 -15.0455 -15.0385
   -15.0324 -14.9736 -14.9337 -14.9256 -14.9206 -14.8224 -14.7002 -14.4448
   -13.0732 -13.0731 -11.2765  -6.8368  -5.7496  -5.3402  -4.1106  -3.8075
    -3.7548  -3.1138  -3.0213  -2.8275  -2.7973  -2.7143  -2.7104  -2.6676
    -2.5453  -2.5122  -2.4663  -2.4483  -2.4272  -2.4185  -2.4129  -2.3932
    -2.3869  -2.3682  -2.3397  -2.3184  -2.2859  -2.2735  -2.2606  -2.2525
    -2.2382  -2.2153  -2.2131  -2.1648  -2.1443  -2.1258  -2.0628  -2.0286
    -1.8431  -1.7940  -1.7490  -1.7421  -1.7217  -1.6904  -1.6747  -1.6578
    -1.6111  -1.5912  -1.5119  -1.4694  -1.3301  -1.3095  -1.2936  -1.2730
    -1.2063  -1.1483  -1.0988  -1.0128  -1.0074  -0.9587  -0.8653  -0.8065
    -0.7987  -0.7668  -0.7114  -0.7020  -0.6614  -0.5680  -0.5623  -0.5445
    -0.5383  -0.4633  -0.4186  -0.3561  -0.3480  -0.3280  -0.2972  -0.2691
    -0.2358  -0.1976  -0.1011  -0.0678   0.0257   0.1311   0.2082   0.3434
     0.4622   0.4748   0.5595   0.5839   0.6850   0.6967   0.7090   0.7501
     0.7858   0.8104   0.9303   0.9442   0.9671   0.9948   1.0817   1.8002
     1.8011   1.8737   1.8738   2.8192   3.7660   3.8797   3.9115   3.9222
     4.0073   4.0442   4.0631   4.0649   4.1299   4.2023

     the Fermi energy is     3.5271 ev

!    total energy              =   -3006.13725931 Ry
     estimated scf accuracy    <       0.00000007 Ry
     smearing contrib. (-TS)   =      -0.02166431 Ry
     internal energy E=F+TS    =   -3006.11559500 Ry

     The total energy is F=E-TS. E is the sum of the following terms:
     one-electron contribution =  -23513.95303629 Ry
     hartree contribution      =   11854.95064125 Ry
     xc contribution           =    -501.16803305 Ry
     ewald contribution        =    9154.05359781 Ry
     electric field correction =       0.00123528 Ry

     convergence has been achieved in  66 iterations

     Forces acting on atoms (cartesian axes, Ry/au):

     atom    1 type  1   force =     0.00020816   -0.00031710    0.09617754
     atom    2 type  1   force =    -0.00013135   -0.00051768   -0.17558566
     atom    3 type  2   force =    -0.00003220   -0.00015667   -0.02419817
     atom    4 type  2   force =     0.00000649   -0.00155439    0.05344160
     atom    5 type  2   force =    -0.01166579   -0.00075746    0.00386951
     atom    6 type  2   force =     0.01285660   -0.00002001    0.00198381
     atom    7 type  1   force =    -0.00131686    0.00027065   -0.00663133
     atom    8 type  1   force =     0.00073845    0.00794003    0.02425048
     atom    9 type  2   force =     0.00000966    0.00002811    0.00004867
     atom   10 type  2   force =    -0.00083084    0.00166247   -0.01686396
     atom   11 type  2   force =    -0.00003293    0.00003039    0.00001081
     atom   12 type  2   force =    -0.00002053    0.00002045   -0.00000044
     atom   13 type  1   force =     0.00000845   -0.00000100   -0.00000070
     atom   14 type  1   force =     0.00002498    0.00003668    0.00000495
     atom   15 type  2   force =    -0.00002363    0.00000911    0.00005172
     atom   16 type  2   force =    -0.00000497   -0.00003236   -0.00005491
     atom   17 type  2   force =     0.00011594    0.00003044    0.00012338
     atom   18 type  2   force =     0.00004979   -0.00000794   -0.00011424
     atom   19 type  1   force =     0.00006770   -0.00006987    0.00003277
     atom   20 type  1   force =     0.00003948   -0.00000967   -0.00011300
     atom   21 type  2   force =     0.00005816   -0.00004822    0.10321932
     atom   22 type  2   force =     0.00000315   -0.00004581   -0.00010916
     atom   23 type  2   force =    -0.07147182   -0.00010658   -0.02771932
     atom   24 type  2   force =     0.07137370    0.00030406   -0.02772875
     atom   25 type  1   force =    -0.00002459   -0.00028317    0.09579786
     atom   26 type  1   force =    -0.00023131   -0.00033731   -0.17583969
     atom   27 type  2   force =     0.00005122   -0.00017338   -0.02325777
     atom   28 type  2   force =     0.00007092   -0.00125705    0.05304586
     atom   29 type  2   force =    -0.01201354    0.00042326    0.00404632
     atom   30 type  2   force =     0.01310038    0.00076711    0.00213588
     atom   31 type  1   force =    -0.00118622    0.00400666   -0.00992890
     atom   32 type  1   force =     0.00067019   -0.01005257    0.02471492
     atom   33 type  2   force =     0.00001662   -0.00000998    0.00003453
     atom   34 type  2   force =    -0.00024705    0.00012930   -0.02256736
     atom   35 type  2   force =    -0.00001641   -0.00000369   -0.00001725
     atom   36 type  2   force =    -0.00001421    0.00001999   -0.00001315
     atom   37 type  1   force =    -0.00000460   -0.00003828   -0.00000003
     atom   38 type  1   force =     0.00002209    0.00007376    0.00005511
     atom   39 type  2   force =    -0.00000180   -0.00003840   -0.00001023
     atom   40 type  2   force =    -0.00000470   -0.00004005   -0.00001899
     atom   41 type  2   force =    -0.00013515    0.00005792   -0.00012097
     atom   42 type  2   force =    -0.00010326   -0.00003585    0.00005278
     atom   43 type  1   force =     0.00004526   -0.00006880   -0.00004023
     atom   44 type  1   force =    -0.00016802   -0.00005556   -0.00003482
     atom   45 type  2   force =     0.00004501   -0.00009005    0.10320514
     atom   46 type  2   force =    -0.07148340   -0.00009442   -0.02773930
     atom   47 type  2   force =     0.07139730    0.00034477   -0.02772835
     atom   48 type  3   force =    -0.00225789    0.00024931    0.00081146
     atom   49 type  3   force =     0.00080299    0.00005656   -0.00058378
     atom   50 type  4   force =     0.00211253   -0.00007905   -0.00014004
     atom   51 type  5   force =    -0.00019684   -0.00016253   -0.00007766
     atom   52 type  5   force =    -0.00003310   -0.00072951   -0.00052214
     atom   53 type  5   force =    -0.00029049    0.00070449    0.00059851
     atom   54 type  2   force =     0.00103013   -0.00003503   -0.00130301
     atom   55 type  5   force =    -0.00012563    0.00006276    0.00000250
     atom   56 type  2   force =    -0.00111357   -0.00005026    0.00130672
     atom   57 type  5   force =     0.00025737    0.00005141    0.00004118

     Total force =     0.367111     Total SCF correction =     0.000765
  @ DRIVER MODE: Message from server: STATUS
  @ DRIVER MODE: Message from server: GETFORCE
  @ DRIVER MODE: Returning v,forces,stress,ensemble

     Writing output data file ./calc.save/
  @ DRIVER MODE: Message from server: EXIT
  @ DRIVE MODE: Exiting

     General routines

     Parallel routines

   This run was terminated on:  15:48:12  25Sep2021

   JOB DONE.