     Program PWSCF v.6.7GPU starts on 13Oct2021 at  5:57:16

     R & G space division:  proc/nbgrp/npool/nimage =       8
     Reading input from /storage/home/hcoda1/3/ntian30/research/carbon/ACS_vib/ads_slab/H2NNH2/out_0034/pw.inp
Warning: card &CELL ignored
Warning: card   CELL_DYNAMICS='IPI', ignored
Warning: card / ignored

     Current dimensions of program PWSCF are:
     Max number of different atomic species (ntypx) = 10
     Max number of k-points (npk) =  40000
     Max angular momentum in pseudopotentials (lmaxx) =  3
     Presently no symmetry can be used with electric field

     Message from routine cell_base_init:
     DEPRECATED: use true lattice parameter, not A to a.u. conversion factor

     IMPORTANT: XC functional enforced from input :
     Exchange-correlation= BEEF-VDW
                           (   1   4  43  14   2   0   0)
     Any further DFT definition will be discarded
     Please, verify this is what you really want

  @ DRIVER MODE: Connecting to
 qe_1139763_3181310.sched-torque.pace.gatech.eduki33z0je_scratch
  using UNIX socket
  @ DRIVER MODE: Message from server: STATUS
  @ DRIVER MODE: Message from server: INIT
  @ DRIVER MODE: Receiving replica           0          -1
  @ DRIVER MODE: Receiving encoded integer          25
  @ DRIVER MODE:  SCF:  T  FORCE:  T  STRESS:  F  VC:  F  ENSEMBLE:  F
  @ DRIVER MODE:  SCF:  T  FORCE:  T  STRESS:  F  VC:  F  ENSEMBLE:  F

     Using Slab Decomposition

     bravais-lattice index     =            0
     lattice parameter (alat)  =       1.8897  a.u.
     unit-cell volume          =    6658.9804 (a.u.)^3
     number of atoms/cell      =           53
     number of atomic types    =            4
     number of electrons       =       392.00
     number of Kohn-Sham states=          206
     kinetic-energy cutoff     =      29.3995  Ry
     charge density cutoff     =     293.9946  Ry
     scf convergence threshold =      7.3E-08
     mixing beta               =       0.0500
     number of iterations used =            8  plain     mixing
     Exchange-correlation= BEEF-VDW
                           (   1   4  43  14   2   0   0)

     celldm(1)=   1.889726  celldm(2)=   0.000000  celldm(3)=   0.000000
     celldm(4)=   0.000000  celldm(5)=   0.000000  celldm(6)=   0.000000

     crystal axes: (cart. coord. in units of alat)
               a(1) = (   6.579727   0.000000   0.000000 )
               a(2) = (  -0.000775   5.961596   0.000000 )
               a(3) = (   0.000000   0.000000  25.155947 )

     reciprocal axes: (cart. coord. in units 2 pi/alat)
               b(1) = (  0.151982  0.000020  0.000000 )
               b(2) = (  0.000000  0.167740  0.000000 )
               b(3) = (  0.000000  0.000000  0.039752 )

     PseudoPot. # 1 for Ti read from file:
     /storage/coda1/p-amedford6/0/shared/rich_project_chbe-medford/medford-share/data/pseudos_module/espresso/nninc/pbe/van/Ti.UPF
     MD5 check sum: 8e4df49b7f0d34bbd5052bf3f5ea0213
     Pseudo is Ultrasoft, Zval = 12.0
     Generated by new atomic code, or converted to UPF format
     Using radial grid of  851 points,  6 beta functions with:
                l(1) =   0
                l(2) =   0
                l(3) =   1
                l(4) =   1
                l(5) =   2
                l(6) =   2
     Q(r) pseudized with  8 coefficients,  rinner =    1.000   1.000   1.000
                                                       1.000   1.000

     PseudoPot. # 2 for O  read from file:
     /storage/coda1/p-amedford6/0/shared/rich_project_chbe-medford/medford-share/data/pseudos_module/espresso/nninc/pbe/van/O.UPF
     MD5 check sum: 78c19812648e8988a0fe644b0f25305e
     Pseudo is Ultrasoft, Zval =  6.0
     Generated by new atomic code, or converted to UPF format
     Using radial grid of  737 points,  4 beta functions with:
                l(1) =   0
                l(2) =   0
                l(3) =   1
                l(4) =   1
     Q(r) pseudized with  8 coefficients,  rinner =    0.800   0.800   0.800

     PseudoPot. # 3 for H  read from file:
     /storage/coda1/p-amedford6/0/shared/rich_project_chbe-medford/medford-share/data/pseudos_module/espresso/nninc/pbe/van/H.UPF
     MD5 check sum: b5ee9d7bfd3a09ee7748110bda690ff7
     Pseudo is Ultrasoft, Zval =  1.0
     Generated by new atomic code, or converted to UPF format
     Using radial grid of  615 points,  1 beta functions with:
                l(1) =   0
     Q(r) pseudized with  8 coefficients,  rinner =    0.800

     PseudoPot. # 4 for N  read from file:
     /storage/coda1/p-amedford6/0/shared/rich_project_chbe-medford/medford-share/data/pseudos_module/espresso/nninc/pbe/van/N.UPF
     MD5 check sum: 90d10febe142ad51ac9d5be1deb811c4
     Pseudo is Ultrasoft, Zval =  5.0
     Generated by new atomic code, or converted to UPF format
     Using radial grid of  729 points,  4 beta functions with:
                l(1) =   0
                l(2) =   0
                l(3) =   1
                l(4) =   1
     Q(r) pseudized with  8 coefficients,  rinner =    0.800   0.800   0.800

     atomic species   valence    mass     pseudopotential
        Ti1           12.00    47.86700     Ti( 1.00)
        O1             6.00    15.99900     O ( 1.00)
        H1             1.00     1.00800     H ( 1.00)
        N1             5.00    14.00700     N ( 1.00)

     No symmetry found

   Cartesian axes

     site n.     atom                  positions (alat units)
         1           Ti1 tau(   1) = (   0.0004258   2.9801865   6.0000000  )
         2           Ti1 tau(   2) = (   3.2906075   1.4906267   6.0002472  )
         3           O1  tau(   3) = (   0.0006271   0.0005054   7.9858123  )
         4           O1  tau(   4) = (   3.2906025   0.0005020   7.3038282  )
         5           O1  tau(   5) = (   4.5942328   1.4918067   9.2879030  )
         6           O1  tau(   6) = (   1.9868534   1.4903216   9.2879459  )
         7           Ti1 tau(   7) = (   3.2907910   2.8959150   9.1758416  )
         8           Ti1 tau(   8) = (   0.0001184   1.4796821   9.2618995  )
         9           O1  tau(   9) = (   3.3033009   5.9571037  11.3689245  )
        10           O1  tau(  10) = (   0.0046093   5.9606512  10.6148452  )
        11           O1  tau(  11) = (   1.3031693   1.4924284  12.6635891  )
        12           O1  tau(  12) = (   5.3048943   1.4931164  12.6630676  )
        13           Ti1 tau(  13) = (   0.0220873   2.9701805  12.5026553  )
        14           Ti1 tau(  14) = (   3.3209497   1.4853901  12.5165241  )
        15           O1  tau(  15) = (   0.0111090   5.9548334  14.6950652  )
        16           O1  tau(  16) = (   3.3059555   5.9578033  13.9930857  )
        17           O1  tau(  17) = (   4.5400856   1.4977043  16.1996482  )
        18           O1  tau(  18) = (   2.0449602   1.5055634  16.1912035  )
        19           Ti1 tau(  19) = (   3.3033294   2.9754315  15.7369611  )
        20           Ti1 tau(  20) = (   0.0669189   1.3514287  15.9855452  )
        21           O1  tau(  21) = (   3.2904802   0.0005063   4.7018136  )
        22           O1  tau(  22) = (   0.0169155   5.9572437  17.2386537  )
        23           O1  tau(  23) = (   1.3043587   1.4918075   6.0039043  )
        24           O1  tau(  24) = (   5.2767064   1.4903225   6.0039473  )
        25           Ti1 tau(  25) = (   0.0000382   5.9609847   6.0000000  )
        26           Ti1 tau(  26) = (   3.2902200   4.4714249   6.0002472  )
        27           O1  tau(  27) = (   0.0002396   2.9813036   7.9858123  )
        28           O1  tau(  28) = (   3.2902150   2.9813002   7.3038282  )
        29           O1  tau(  29) = (   4.5938453   4.4726049   9.2879030  )
        30           O1  tau(  30) = (   1.9864658   4.4711199   9.2879459  )
        31           Ti1 tau(  31) = (   3.2891106   5.8743827   9.1763621  )
        32           Ti1 tau(  32) = (  -0.0005703   4.4645639   9.2621285  )
        33           O1  tau(  33) = (   3.3036452   2.9764387  11.3618117  )
        34           O1  tau(  34) = (   0.0064946   2.9800876  10.6274040  )
        35           O1  tau(  35) = (   1.3025983   4.4627906  12.6614389  )
        36           O1  tau(  36) = (   5.3044333   4.4622094  12.6652126  )
        37           Ti1 tau(  37) = (   0.0242538   5.9517307  12.5043500  )
        38           Ti1 tau(  38) = (   3.3173473   4.4639239  12.5158395  )
        39           O1  tau(  39) = (   0.0133908   2.9741471  14.9664594  )
        40           O1  tau(  40) = (   3.3068033   2.9766936  13.9537582  )
        41           O1  tau(  41) = (   4.5624531   4.4468677  16.1922021  )
        42           O1  tau(  42) = (   2.0658021   4.4533190  16.1937748  )
        43           Ti1 tau(  43) = (   3.3070936   5.9559909  15.7859554  )
        44           Ti1 tau(  44) = (   6.5464735   4.5686029  15.9538643  )
        45           O1  tau(  45) = (   3.2900926   2.9813045   4.7018136  )
        46           O1  tau(  46) = (   1.3039711   4.4726057   6.0039043  )
        47           O1  tau(  47) = (   5.2763189   4.4711207   6.0039473  )
        48           H1  tau(  48) = (   6.1991321   4.2482542  18.7414658  )
        49           H1  tau(  49) = (   1.1283133   3.8395711  18.1715982  )
        50           N1  tau(  50) = (   0.1317752   3.6792193  18.0720352  )
        51           N1  tau(  51) = (   6.4315599   2.2892659  18.0961467  )
        52           H1  tau(  52) = (   5.4285218   2.1347736  18.1483859  )
        53           H1  tau(  53) = (   0.3235236   1.7679878  18.8239140  )

     number of k points=    10  Fermi-Dirac smearing, width (Ry)=  0.0073
                       cart. coord. in units 2pi/alat
        k(    1) = (   0.0000000   0.0000000   0.0000000), wk =   0.1250000
        k(    2) = (   0.0000000   0.0419351   0.0000000), wk =   0.2500000
        k(    3) = (   0.0000000  -0.0838702   0.0000000), wk =   0.1250000
        k(    4) = (   0.0379955   0.0000049   0.0000000), wk =   0.2500000
        k(    5) = (   0.0379955   0.0419400   0.0000000), wk =   0.2500000
        k(    6) = (   0.0379955  -0.0838652   0.0000000), wk =   0.2500000
        k(    7) = (   0.0379955  -0.0419301   0.0000000), wk =   0.2500000
        k(    8) = (  -0.0759910  -0.0000099   0.0000000), wk =   0.1250000
        k(    9) = (  -0.0759910   0.0419252   0.0000000), wk =   0.2500000
        k(   10) = (  -0.0759910  -0.0838800   0.0000000), wk =   0.1250000

     Initial potential from superposition of free atoms

     starting charge  375.99919, renormalised to  392.00000

     negative rho (up, down):  1.865E-02 0.000E+00

     %%%%%%%%%%%%%%%%%%%%%%%%%%%%%%%%%%%%%%%%%%%%%%%%%%%%%%%%%%%%%%%%%%%%%%%%
     %                                                                      %
     % You are using vdW-DF, which was implemented by the Thonhauser group. %
     % Please cite the following two papers that made this development      %
     % possible and the two reviews that describe the various versions:     %
     %                                                                      %
     %   T. Thonhauser et al., PRL 115, 136402 (2015).                      %
     %   T. Thonhauser et al., PRB 76, 125112 (2007).                       %
     %   K. Berland et al., Rep. Prog. Phys. 78, 066501 (2015).             %
     %   D.C. Langreth et al., J. Phys.: Condens. Matter 21, 084203 (2009). %
     %                                                                      %
     %                                                                      %
     % If you are calculating the stress with vdW-DF, please also cite:     %
     %                                                                      %
     %   R. Sabatini et al., J. Phys.: Condens. Matter 24, 424209 (2012).   %
     %                                                                      %
     %%%%%%%%%%%%%%%%%%%%%%%%%%%%%%%%%%%%%%%%%%%%%%%%%%%%%%%%%%%%%%%%%%%%%%%%

     Adding external electric field

     Computed dipole along edir(3) :
        Dipole               -7.0277 Ry au,        -17.8625 Debye
        Dipole field         -0.0133 Ry au,

        Potential amp.        1.2294 Ry
        Total length         46.3494 bohr

     Starting wfcs are  296 atomic wfcs
  @ DRIVER MODE: Message from server: STATUS
  @ DRIVER MODE: Message from server: POSDATA
  @ DRIVER MODE: Reading and sharing cell
  @ DRIVER MODE: Reading and sharing positions
  @ DRIVER MODE: Received positions

     Self-consistent Calculation

     iteration #  1     ecut=    29.40 Ry     beta= 0.05
     Davidson diagonalization with overlap
     c_bands:  1 eigenvalues not converged
     c_bands:  1 eigenvalues not converged
     c_bands:  2 eigenvalues not converged
     c_bands:  1 eigenvalues not converged
     c_bands:  1 eigenvalues not converged
     c_bands:  1 eigenvalues not converged
     ethr =  1.00E-05,  avg # of iterations = 19.6

[...]

     total energy              =   -2685.31179240 Ry
     estimated scf accuracy    <    2688.00115690 Ry

[...]

     iteration #  3     ecut=    29.40 Ry     beta= 0.05
     Davidson diagonalization with overlap
     ethr =  1.00E-02,  avg # of iterations = 15.3

[...]

     iteration # 71     ecut=    29.40 Ry     beta= 0.05
     Davidson diagonalization with overlap
     ethr =  1.16E-09,  avg # of iterations =  8.3

[...]

     total energy              =   -2928.89052629 Ry
     estimated scf accuracy    <       0.00000018 Ry

     iteration # 80     ecut=    29.40 Ry     beta= 0.05
     Davidson diagonalization with overlap
     c_bands:  1 eigenvalues not converged
     ethr =  2.46E-11,  avg # of iterations =  7.3

     negative rho (up, down):  1.639E-02 0.000E+00

     Adding external electric field

     Computed dipole along edir(3) :
        Dipole                1.6267 Ry au,          4.1346 Debye
        Dipole field          0.0031 Ry au,

        Potential amp.       -0.2846 Ry
        Total length         46.3494 bohr

     End of self-consistent calculation

          k = 0.0000 0.0000 0.0000 ( 18029 PWs)   bands (ev):

   -55.3061 -55.2701 -55.2549 -55.2208 -55.1804 -55.1747 -55.1461 -55.1195
   -55.0984 -55.0881 -55.0849 -55.0796 -55.0543 -55.0250 -54.2842 -54.2502
   -31.8783 -31.7487 -31.6935 -31.6680 -31.6233 -31.6095 -31.6041 -31.5962
   -31.5463 -31.5452 -31.5166 -31.5147 -31.5008 -31.4789 -31.4630 -31.4497
   -31.4436 -31.4240 -31.4181 -31.4067 -31.3971 -31.3709 -31.3699 -31.3590
   -31.3509 -31.3225 -31.3113 -31.3110 -31.3039 -31.2972 -31.2927 -31.2888
   -31.2830 -31.2736 -31.2718 -31.2676 -31.2618 -31.2338 -31.2186 -31.2156
   -31.2000 -31.1292 -30.6935 -30.5997 -30.5777 -30.5099 -30.4231 -30.3122
   -18.6307 -16.1473 -15.8854 -15.7505 -15.5956 -15.5041 -15.3999 -15.3421
   -15.2361 -15.1543 -15.0674 -15.0544 -15.0298 -15.0032 -14.9641 -14.9310
   -14.8465 -14.8418 -14.8188 -14.7989 -14.7971 -14.7489 -14.7399 -14.7211
   -14.7010 -14.6803 -14.5459 -14.4607 -14.3928 -14.1292 -13.3314 -12.7873
   -12.6699  -7.5618  -7.0077  -5.5316  -3.4843  -3.3195  -3.2936  -3.2372
    -3.1989  -3.0585  -2.9446  -2.7251  -2.7043  -2.6208  -2.5858  -2.5379
    -2.5158  -2.4972  -2.3310  -2.3019  -2.2886  -2.2324  -2.1715  -2.1172
    -2.1023  -2.0982  -2.0872  -2.0689  -2.0635  -1.9436  -1.8690  -1.7952
    -1.7315  -1.6986  -1.6620  -1.6532  -1.6346  -1.5945  -1.5868  -1.5564
    -1.5420  -1.4961  -1.4682  -1.3382  -1.2862  -1.2148  -1.0285  -0.9406
    -0.8951  -0.8808  -0.8472  -0.8010  -0.7876  -0.6839  -0.6718  -0.6490
    -0.6029  -0.5398  -0.4835  -0.4324  -0.3629  -0.3036  -0.2949  -0.1903
    -0.0942  -0.0843  -0.0632   0.0341   0.0691   0.1170   0.1955   0.2125
     0.2245   0.3105   0.3533   0.3908   0.4284   0.4528   0.5763   0.6203
     0.6338   0.6484   0.6530   0.6779   0.7043   0.7695   0.8000   0.8694
     0.9949   1.1013   1.1696   1.2666   1.3092   1.6418   1.6451   1.7381
     1.9220   2.3127   2.3597   3.7947   3.8636   3.9377   3.9471   3.9567
     4.0289   4.1131   4.2680   4.2920   4.3001   4.3162

[...]

          k = 0.0380-0.0419 0.0000 ( 17876 PWs)   bands (ev):

[...]

          k =-0.0760-0.0000 0.0000 ( 17886 PWs)   bands (ev):

[...]

          k =-0.0760-0.0839 0.0000 ( 17948 PWs)   bands (ev):

   -55.2882 -55.2878 -55.2381 -55.2375 -55.1705 -55.1633 -55.1632 -55.1043
   -55.1023 -55.0997 -55.0726 -55.0726 -55.0699 -55.0320 -54.2672 -54.2671
   -31.6822 -31.6803 -31.6013 -31.5900 -31.5700 -31.5640 -31.5634 -31.5314
   -31.5298 -31.5098 -31.5070 -31.5051 -31.4989 -31.4436 -31.4406 -31.4377
   -31.4329 -31.4320 -31.4303 -31.4268 -31.3965 -31.3841 -31.3804 -31.3701
   -31.3569 -31.3565 -31.3559 -31.3554 -31.3415 -31.3382 -31.3333 -31.3250
   -31.3181 -31.3134 -31.3020 -31.2980 -31.2977 -31.2889 -31.2693 -31.2550
   -31.2532 -31.2343 -30.5904 -30.5903 -30.5061 -30.5059 -30.4665 -30.4665
   -18.6158 -15.5918 -15.5704 -15.5296 -15.3351 -15.3250 -15.3120 -15.3088
   -15.2063 -15.1918 -15.1196 -15.0943 -15.0475 -15.0277 -15.0124 -15.0109
   -14.9180 -14.8984 -14.8927 -14.8904 -14.8199 -14.8117 -14.8033 -14.7943
   -14.7642 -14.7574 -14.6553 -14.6526 -14.6228 -14.6020 -13.1613 -12.7715
   -12.7713  -7.5613  -7.0317  -5.5843  -3.0572  -2.8597  -2.7859  -2.7100
    -2.5527  -2.5320  -2.4919  -2.3814  -2.3425  -2.3284  -2.3214  -2.2899
    -2.2374  -2.2185  -2.2077  -2.1467  -2.1445  -2.1245  -2.1155  -2.0898
    -2.0785  -2.0346  -2.0259  -2.0069  -1.9697  -1.9531  -1.9289  -1.9039
    -1.8987  -1.8810  -1.8231  -1.7897  -1.6820  -1.6685  -1.6053  -1.5119
    -1.5046  -1.4229  -1.3952  -1.3606  -1.3386  -1.3363  -1.2165  -1.1347
    -1.0807  -1.0494  -1.0425  -0.9333  -0.8970  -0.8151  -0.8019  -0.7886
    -0.7312  -0.6474  -0.6250  -0.6094  -0.5243  -0.4629  -0.4538  -0.3591
    -0.3367  -0.2744  -0.2607  -0.2590  -0.2165  -0.1980  -0.1696  -0.1120
    -0.0761  -0.0389  -0.0170   0.0225   0.2193   0.2396   0.2637   0.3934
     0.5125   0.5337   0.5681   0.6058   0.6999   0.7661   0.8049   0.8510
     0.9029   0.9871   0.9963   1.0912   1.0975   1.1528   1.1593   2.0947
     2.0956   2.1805   2.1814   3.9646   4.0067   4.0671   4.0967   4.1797
     4.3082   4.3237   4.3778   4.3795   4.4458   4.4503

     the Fermi energy is     3.8578 ev

!    total energy              =   -2928.89053225 Ry
     estimated scf accuracy    <       0.00000005 Ry
     smearing contrib. (-TS)   =      -0.03700752 Ry
     internal energy E=F+TS    =   -2928.85352473 Ry

     The total energy is F=E-TS. E is the sum of the following terms:
     one-electron contribution =  -24387.01062532 Ry
     hartree contribution      =   12285.03053927 Ry
     xc contribution           =    -482.74881941 Ry
     ewald contribution        =    9655.87038736 Ry
     electric field correction =       0.00499338 Ry

     convergence has been achieved in  80 iterations

     Forces acting on atoms (cartesian axes, Ry/au):

     atom    1 type  1   force =     0.00007827   -0.00018112    0.09195133
     atom    2 type  1   force =    -0.00017985   -0.00022797   -0.17804603
     atom    3 type  2   force =     0.00000481   -0.00049442   -0.02212939
     atom    4 type  2   force =     0.00002915   -0.00184596    0.05827659
     atom    5 type  2   force =    -0.01041673   -0.00081683    0.00668430
     atom    6 type  2   force =     0.01170922   -0.00037226    0.00700557
     atom    7 type  1   force =    -0.00031560    0.00236560   -0.01477183
     atom    8 type  1   force =     0.00006742    0.00001313    0.00014684
     atom    9 type  2   force =    -0.00010678   -0.00011373   -0.00083612
     atom   10 type  2   force =     0.00012385   -0.00004666    0.00052144
     atom   11 type  2   force =     0.00011611   -0.00006070   -0.00027651
     atom   12 type  2   force =    -0.00032564   -0.00004835   -0.00018914
     atom   13 type  1   force =     0.00006639    0.00019597    0.00012728
     atom   14 type  1   force =    -0.00009703   -0.00010372   -0.00013278
     atom   15 type  2   force =     0.00024210    0.00021511    0.00073936
     atom   16 type  2   force =    -0.00009837    0.00007817   -0.00027299
     atom   17 type  2   force =    -0.00028903   -0.00006295    0.00031359
     atom   18 type  2   force =     0.00064653   -0.00011912    0.00035737
     atom   19 type  1   force =    -0.00005736   -0.00000623    0.00039037
     atom   20 type  1   force =    -0.00078320   -0.00074384    0.00064520
     atom   21 type  2   force =     0.00000668   -0.00002688    0.10387176
     atom   22 type  2   force =    -0.00003473    0.00045882   -0.00128176
     atom   23 type  2   force =    -0.07047033   -0.00019328   -0.02660929
     atom   24 type  2   force =     0.07031944    0.00022995   -0.02667188
     atom   25 type  1   force =     0.00002992   -0.00012894    0.09064812
     atom   26 type  1   force =    -0.00018162   -0.00036295   -0.17820573
     atom   27 type  2   force =     0.00000686   -0.00018966   -0.02113297
     atom   28 type  2   force =     0.00006222   -0.00153112    0.05749099
     atom   29 type  2   force =    -0.01049630   -0.00096981    0.00673296
     atom   30 type  2   force =     0.01166410   -0.00039268    0.00704201
     atom   31 type  1   force =    -0.00036778    0.00548006   -0.01571262
     atom   32 type  1   force =     0.00004129    0.00001159    0.00008100
     atom   33 type  2   force =    -0.00010586   -0.00008827   -0.00053424
     atom   34 type  2   force =    -0.00003182    0.00000073    0.00022027
     atom   35 type  2   force =     0.00015617   -0.00021751   -0.00014735
     atom   36 type  2   force =    -0.00036966   -0.00019491   -0.00014490
     atom   37 type  1   force =     0.00003845   -0.00007154    0.00075258
     atom   38 type  1   force =    -0.00016266   -0.00038182   -0.00010318
     atom   39 type  2   force =    -0.00000172    0.00003040   -0.00009393
     atom   40 type  2   force =    -0.00039059   -0.00004850   -0.00025290
     atom   41 type  2   force =    -0.00058941    0.00003674    0.00030843
     atom   42 type  2   force =     0.00041183    0.00006453    0.00055885
     atom   43 type  1   force =    -0.00016140   -0.00013801   -0.00017682
     atom   44 type  1   force =     0.00026589    0.00104579    0.00148354
     atom   45 type  2   force =     0.00000832   -0.00004194    0.10384180
     atom   46 type  2   force =    -0.07048354   -0.00003380   -0.02666448
     atom   47 type  2   force =     0.07033077    0.00042498   -0.02669295
     atom   48 type  3   force =     0.00061718   -0.00050938    0.00027794
     atom   49 type  3   force =     0.00098903   -0.00006446    0.00010875
     atom   50 type  4   force =    -0.00187635    0.00057521   -0.00014526
     atom   51 type  4   force =    -0.00433692    0.00513706   -0.00448126
     atom   52 type  3   force =     0.00156867    0.00032081    0.00006385
     atom   53 type  3   force =     0.00312960   -0.00585533    0.00506419

     Total force =     0.365176     Total SCF correction =     0.000745
  @ DRIVER MODE: Message from server: STATUS
  @ DRIVER MODE: Message from server: GETFORCE
  @ DRIVER MODE: Returning v,forces,stress,ensemble

     Writing output data file ./calc.save/
  @ DRIVER MODE: Message from server: EXIT
  @ DRIVE MODE: Exiting

     General routines

     Parallel routines

   This run was terminated on:   6:27:24  13Oct2021

   JOB DONE.