     Program PWSCF v.6.7GPU starts on 15Sep2021 at 16:54:18

     R & G space division:  proc/nbgrp/npool/nimage =      10
     Reading input from /storage/home/hcoda1/3/ntian30/research/carbon/CxH_vib/H2O_calc/ads_slab/CHNH2O_a/out_0004/pw.inp
Warning: card &CELL ignored
Warning: card   CELL_DYNAMICS='IPI', ignored
Warning: card / ignored

     Current dimensions of program PWSCF are:
     Max number of different atomic species (ntypx) = 10
     Max number of k-points (npk) =  40000
     Max angular momentum in pseudopotentials (lmaxx) =  3
     Presently no symmetry can be used with electric field

     Message from routine cell_base_init:
     DEPRECATED: use true lattice parameter, not A to a.u. conversion factor

     IMPORTANT: XC functional enforced from input :
     Exchange-correlation= BEEF-VDW
                           (   1   4  43  14   2   0   0)
     Any further DFT definition will be discarded
     Please, verify this is what you really want

  @ DRIVER MODE: Connecting to
 qe_1139763_2852627.sched-torque.pace.gatech.edu346w3ohs_scratch
  using UNIX socket
  @ DRIVER MODE: Message from server: STATUS
  @ DRIVER MODE: Message from server: INIT
  @ DRIVER MODE: Receiving replica           0          -1
  @ DRIVER MODE: Receiving encoded integer          25
  @ DRIVER MODE:  SCF:  T  FORCE:  T  STRESS:  F  VC:  F  ENSEMBLE:  F
  @ DRIVER MODE:  SCF:  T  FORCE:  T  STRESS:  F  VC:  F  ENSEMBLE:  F

     Using Slab Decomposition

     bravais-lattice index     =            0
     lattice parameter (alat)  =       1.8897  a.u.
     unit-cell volume          =    6658.9804 (a.u.)^3
     number of atoms/cell      =           53
     number of atomic types    =            5
     number of electrons       =       396.00
     number of Kohn-Sham states=          208
     kinetic-energy cutoff     =      29.3995  Ry
     charge density cutoff     =     293.9946  Ry
     scf convergence threshold =      7.3E-08
     mixing beta               =       0.0500
     number of iterations used =            8  plain     mixing
     Exchange-correlation= BEEF-VDW
                           (   1   4  43  14   2   0   0)

     celldm(1)=   1.889726  celldm(2)=   0.000000  celldm(3)=   0.000000
     celldm(4)=   0.000000  celldm(5)=   0.000000  celldm(6)=   0.000000

     crystal axes: (cart. coord. in units of alat)
               a(1) = (   6.579727   0.000000   0.000000 )
               a(2) = (  -0.000775   5.961596   0.000000 )
               a(3) = (   0.000000   0.000000  25.155947 )

     reciprocal axes: (cart. coord. in units 2 pi/alat)
               b(1) = (  0.151982  0.000020  0.000000 )
               b(2) = (  0.000000  0.167740  0.000000 )
               b(3) = (  0.000000  0.000000  0.039752 )

     PseudoPot. # 1 for Ti read from file:
     /storage/coda1/p-amedford6/0/shared/rich_project_chbe-medford/medford-share/data/pseudos_module/espresso/nninc/pbe/van/Ti.UPF
     MD5 check sum: 8e4df49b7f0d34bbd5052bf3f5ea0213
     Pseudo is Ultrasoft, Zval = 12.0
     Generated by new atomic code, or converted to UPF format
     Using radial grid of  851 points,  6 beta functions with:
                l(1) =   0
                l(2) =   0
                l(3) =   1
                l(4) =   1
                l(5) =   2
                l(6) =   2
     Q(r) pseudized with  8 coefficients,  rinner =    1.000   1.000   1.000
                                                       1.000   1.000

     PseudoPot. # 2 for O  read from file:
     /storage/coda1/p-amedford6/0/shared/rich_project_chbe-medford/medford-share/data/pseudos_module/espresso/nninc/pbe/van/O.UPF
     MD5 check sum: 78c19812648e8988a0fe644b0f25305e
     Pseudo is Ultrasoft, Zval =  6.0
     Generated by new atomic code, or converted to UPF format
     Using radial grid of  737 points,  4 beta functions with:
                l(1) =   0
                l(2) =   0
                l(3) =   1
                l(4) =   1
     Q(r) pseudized with  8 coefficients,  rinner =    0.800   0.800   0.800

     PseudoPot. # 3 for N  read from file:
     /storage/coda1/p-amedford6/0/shared/rich_project_chbe-medford/medford-share/data/pseudos_module/espresso/nninc/pbe/van/N.UPF
     MD5 check sum: 90d10febe142ad51ac9d5be1deb811c4
     Pseudo is Ultrasoft, Zval =  5.0
     Generated by new atomic code, or converted to UPF format
     Using radial grid of  729 points,  4 beta functions with:
                l(1) =   0
                l(2) =   0
                l(3) =   1
                l(4) =   1
     Q(r) pseudized with  8 coefficients,  rinner =    0.800   0.800   0.800

     PseudoPot. # 4 for C  read from file:
     /storage/coda1/p-amedford6/0/shared/rich_project_chbe-medford/medford-share/data/pseudos_module/espresso/nninc/pbe/van/C.UPF
     MD5 check sum: 1a69bf6b8db32088f5b2163dbdb77a27
     Pseudo is Ultrasoft, Zval =  4.0
     Generated by new atomic code, or converted to UPF format
     Using radial grid of  721 points,  4 beta functions with:
                l(1) =   0
                l(2) =   0
                l(3) =   1
                l(4) =   1
     Q(r) pseudized with  8 coefficients,  rinner =    0.800   0.800   0.800

     PseudoPot. # 5 for H  read from file:
     /storage/coda1/p-amedford6/0/shared/rich_project_chbe-medford/medford-share/data/pseudos_module/espresso/nninc/pbe/van/H.UPF
     MD5 check sum: b5ee9d7bfd3a09ee7748110bda690ff7
     Pseudo is Ultrasoft, Zval =  1.0
     Generated by new atomic code, or converted to UPF format
     Using radial grid of  615 points,  1 beta functions with:
                l(1) =   0
     Q(r) pseudized with  8 coefficients,  rinner =    0.800

     atomic species   valence    mass     pseudopotential
        Ti1           12.00    47.86700     Ti( 1.00)
        O1             6.00    15.99900     O ( 1.00)
        N1             5.00    14.00700     N ( 1.00)
        C1             4.00    12.01100     C ( 1.00)
        H1             1.00     1.00800     H ( 1.00)

     No symmetry found

   Cartesian axes

     site n.     atom                  positions (alat units)
         1           Ti1 tau(   1) = (   0.0004258   2.9801865   6.0000000  )
         2           Ti1 tau(   2) = (   3.2906075   1.4906267   6.0002472  )
         3           O1  tau(   3) = (   0.0006271   0.0005054   7.9858123  )
         4           O1  tau(   4) = (   3.2906025   0.0005020   7.3038282  )
         5           O1  tau(   5) = (   4.5942328   1.4918067   9.2879030  )
         6           O1  tau(   6) = (   1.9868534   1.4903216   9.2879459  )
         7           Ti1 tau(   7) = (   3.2907910   2.8959150   9.1758416  )
         8           Ti1 tau(   8) = (   0.0015273   1.4827037   9.2680791  )
         9           O1  tau(   9) = (   3.3001320   0.0223556  11.3750156  )
        10           O1  tau(  10) = (   0.0116148   5.9584955  10.6183126  )
        11           O1  tau(  11) = (   1.2984793   1.5070296  12.6822906  )
        12           O1  tau(  12) = (   5.3053048   1.5066133  12.6782214  )
        13           Ti1 tau(  13) = (   0.0240538   2.9928608  12.5236668  )
        14           Ti1 tau(  14) = (   3.3205759   1.5163330  12.5292614  )
        15           O1  tau(  15) = (   0.0116174   5.9170763  14.6754219  )
        16           O1  tau(  16) = (   3.3074613   5.9602333  14.0123823  )
        17           O1  tau(  17) = (   4.5729729   1.5428591  16.1031931  )
        18           O1  tau(  18) = (   2.0357456   1.5455963  16.0959954  )
        19           Ti1 tau(  19) = (   3.3038618   3.0179751  15.7376193  )
        20           Ti1 tau(  20) = (   0.0182819   1.3639466  15.8252938  )
        21           O1  tau(  21) = (   3.2904802   0.0005063   4.7018136  )
        22           O1  tau(  22) = (   0.0233993   0.1148627  17.2261141  )
        23           O1  tau(  23) = (   1.3043587   1.4918075   6.0039043  )
        24           O1  tau(  24) = (   5.2767064   1.4903225   6.0039473  )
        25           Ti1 tau(  25) = (   0.0000382   5.9609847   6.0000000  )
        26           Ti1 tau(  26) = (   3.2902200   4.4714249   6.0002472  )
        27           O1  tau(  27) = (   0.0002396   2.9813036   7.9858123  )
        28           O1  tau(  28) = (   3.2902150   2.9813002   7.3038282  )
        29           O1  tau(  29) = (   4.5938453   4.4726049   9.2879030  )
        30           O1  tau(  30) = (   1.9864658   4.4711199   9.2879459  )
        31           Ti1 tau(  31) = (   3.2891106   5.8743827   9.1763621  )
        32           Ti1 tau(  32) = (   0.0006254   4.4649316   9.2693709  )
        33           O1  tau(  33) = (   3.3008157   2.9919736  11.3713264  )
        34           O1  tau(  34) = (   0.0092240   2.9805883  10.6323155  )
        35           O1  tau(  35) = (   1.3007438   4.4795902  12.6508594  )
        36           O1  tau(  36) = (   5.3032704   4.4808111  12.6474791  )
        37           Ti1 tau(  37) = (   0.0257871   0.0021926  12.5000826  )
        38           Ti1 tau(  38) = (   3.3207303   4.5031034  12.5344522  )
        39           O1  tau(  39) = (   0.0087802   3.0322157  14.9253570  )
        40           O1  tau(  40) = (   3.3068524   3.0154938  13.9499554  )
        41           O1  tau(  41) = (   4.5633958   4.4699756  16.2119971  )
        42           O1  tau(  42) = (   2.0378630   4.4655417  16.1963084  )
        43           Ti1 tau(  43) = (   3.3121544   0.0541299  15.8353365  )
        44           Ti1 tau(  44) = (   0.0163097   4.5868159  16.0488687  )
        45           O1  tau(  45) = (   3.2900926   2.9813045   4.7018136  )
        46           O1  tau(  46) = (   1.3039711   4.4726057   6.0039043  )
        47           O1  tau(  47) = (   5.2763189   4.4711207   6.0039473  )
        48           N1  tau(  48) = (   0.0062226   3.2477968  17.9635855  )
        49           C1  tau(  49) = (   6.5597590   2.5083335  18.8557918  )
        50           H1  tau(  50) = (   6.5336154   1.7992569  19.6484373  )
        51           O1  tau(  51) = (   3.2480284   5.9531242  18.4006015  )
        52           H1  tau(  52) = (   3.9795166   5.3132839  18.3896481  )
        53           H1  tau(  53) = (   2.4340588   5.4237150  18.3412978  )

     number of k points=    10  Fermi-Dirac smearing, width (Ry)=  0.0073
                       cart. coord. in units 2pi/alat
        k(    1) = (   0.0000000   0.0000000   0.0000000), wk =   0.1250000
        k(    2) = (   0.0000000   0.0419351   0.0000000), wk =   0.2500000
        k(    3) = (   0.0000000  -0.0838702   0.0000000), wk =   0.1250000
        k(    4) = (   0.0379955   0.0000049   0.0000000), wk =   0.2500000
        k(    5) = (   0.0379955   0.0419400   0.0000000), wk =   0.2500000
        k(    6) = (   0.0379955  -0.0838652   0.0000000), wk =   0.2500000
        k(    7) = (   0.0379955  -0.0419301   0.0000000), wk =   0.2500000
        k(    8) = (  -0.0759910  -0.0000099   0.0000000), wk =   0.1250000
        k(    9) = (  -0.0759910   0.0419252   0.0000000), wk =   0.2500000
        k(   10) = (  -0.0759910  -0.0838800   0.0000000), wk =   0.1250000

     Initial potential from superposition of free atoms

     starting charge  379.99917, renormalised to  396.00000

     negative rho (up, down):  1.670E-02 0.000E+00

     %%%%%%%%%%%%%%%%%%%%%%%%%%%%%%%%%%%%%%%%%%%%%%%%%%%%%%%%%%%%%%%%%%%%%%%%
     %                                                                      %
     % You are using vdW-DF, which was implemented by the Thonhauser group. %
     % Please cite the following two papers that made this development      %
     % possible and the two reviews that describe the various versions:     %
     %                                                                      %
     %   T. Thonhauser et al., PRL 115, 136402 (2015).                      %
     %   T. Thonhauser et al., PRB 76, 125112 (2007).                       %
     %   K. Berland et al., Rep. Prog. Phys. 78, 066501 (2015).             %
     %   D.C. Langreth et al., J. Phys.: Condens. Matter 21, 084203 (2009). %
     %                                                                      %
     %                                                                      %
     % If you are calculating the stress with vdW-DF, please also cite:     %
     %                                                                      %
     %   R. Sabatini et al., J. Phys.: Condens. Matter 24, 424209 (2012).   %
     %                                                                      %
     %%%%%%%%%%%%%%%%%%%%%%%%%%%%%%%%%%%%%%%%%%%%%%%%%%%%%%%%%%%%%%%%%%%%%%%%

     Adding external electric field

     Computed dipole along edir(3) :
        Dipole               -9.4938 Ry au,        -24.1308 Debye
        Dipole field         -0.0179 Ry au,

        Potential amp.        1.6608 Ry
        Total length         46.3494 bohr

     Starting wfcs are  299 atomic wfcs
  @ DRIVER MODE: Message from server: STATUS
  @ DRIVER MODE: Message from server: POSDATA
  @ DRIVER MODE: Reading and sharing cell
  @ DRIVER MODE: Reading and sharing positions
  @ DRIVER MODE: Received positions

     Self-consistent Calculation

     iteration #  1     ecut=    29.40 Ry     beta= 0.05
     Davidson diagonalization with overlap
     c_bands:  1 eigenvalues not converged
     c_bands:  1 eigenvalues not converged
     c_bands:  2 eigenvalues not converged
     c_bands:  3 eigenvalues not converged
     c_bands:  3 eigenvalues not converged
     c_bands:  2 eigenvalues not converged
     c_bands:  3 eigenvalues not converged
     c_bands:  1 eigenvalues not converged
     c_bands:  2 eigenvalues not converged
     c_bands:  2 eigenvalues not converged
     ethr =  1.00E-05,  avg # of iterations = 20.0

[...]

     total energy              =   -2563.42990390 Ry
     estimated scf accuracy    <    4341.79065672 Ry

     iteration #  2     ecut=    29.40 Ry     beta= 0.05
     Davidson diagonalization with overlap
     ethr =  1.00E-02,  avg # of iterations = 24.1

[...]

     iteration # 54     ecut=    29.40 Ry     beta= 0.05
     Davidson diagonalization with overlap
     c_bands:  1 eigenvalues not converged
     ethr =  1.86E-10,  avg # of iterations = 13.3

[...]

     total energy              =   -2951.44720614 Ry
     estimated scf accuracy    <       0.00000024 Ry

     iteration # 58     ecut=    29.40 Ry     beta= 0.05
     Davidson diagonalization with overlap
     ethr =  6.18E-11,  avg # of iterations =  9.0

     negative rho (up, down):  1.629E-02 0.000E+00

     Adding external electric field

     Computed dipole along edir(3) :
        Dipole                1.4745 Ry au,          3.7478 Debye
        Dipole field          0.0028 Ry au,

        Potential amp.       -0.2579 Ry
        Total length         46.3494 bohr

     End of self-consistent calculation

          k = 0.0000 0.0000 0.0000 ( 18029 PWs)   bands (ev):

   -55.3213 -55.2854 -55.2842 -55.2501 -55.2317 -55.1994 -55.1620 -55.1438
   -55.1194 -55.1129 -55.1091 -55.0978 -55.0793 -55.0112 -54.3089 -54.2749
   -31.8810 -31.7759 -31.7132 -31.6882 -31.6396 -31.6325 -31.6175 -31.6170
   -31.5734 -31.5383 -31.5321 -31.5288 -31.5055 -31.4931 -31.4684 -31.4662
   -31.4616 -31.4597 -31.4425 -31.4363 -31.4077 -31.3973 -31.3889 -31.3793
   -31.3731 -31.3444 -31.3414 -31.3402 -31.3302 -31.3287 -31.3237 -31.3100
   -31.3021 -31.2960 -31.2921 -31.2670 -31.2574 -31.2454 -31.2410 -31.2230
   -31.2205 -31.1276 -30.7180 -30.6244 -30.6023 -30.5345 -30.4477 -30.3367
   -18.9123 -17.2667 -16.1262 -15.8714 -15.7174 -15.6171 -15.5196 -15.3770
   -15.3236 -15.2140 -15.1486 -15.0078 -14.9689 -14.9507 -14.9342 -14.9309
   -14.8874 -14.8609 -14.8545 -14.8211 -14.8190 -14.7926 -14.7567 -14.7477
   -14.7174 -14.7017 -14.6523 -14.5464 -14.4775 -14.4144 -14.1148 -12.8113
   -12.6939  -8.9845  -6.6410  -4.6229  -3.4700  -3.4016  -3.3323  -3.2264
    -3.2192  -3.1683  -3.1419  -3.0656  -3.0228  -2.7768  -2.7229  -2.6641
    -2.5752  -2.5034  -2.4916  -2.4526  -2.3241  -2.2818  -2.2401  -2.1718
    -2.1549  -2.1295  -2.1051  -2.0958  -2.0345  -2.0283  -2.0062  -1.8891
    -1.8453  -1.7806  -1.7303  -1.7146  -1.6615  -1.6406  -1.6097  -1.6086
    -1.6028  -1.5573  -1.5553  -1.4991  -1.4904  -1.3837  -1.3446  -1.1557
    -1.0597  -1.0025  -0.9597  -0.8925  -0.8781  -0.8048  -0.7630  -0.7076
    -0.7072  -0.6506  -0.5297  -0.4376  -0.4135  -0.3878  -0.3034  -0.2657
    -0.2024  -0.1869  -0.1012  -0.0877  -0.0816  -0.0711   0.0560   0.1039
     0.1854   0.1924   0.2400   0.2603   0.3396   0.3535   0.4245   0.4618
     0.5191   0.5615   0.6176   0.6261   0.6517   0.6713   0.6885   0.7780
     0.7915   0.8203   0.8930   1.0301   1.2228   1.2904   1.3135   1.6215
     1.6424   1.7140   1.8988   2.2896   2.3377   3.7726   3.8517   3.9141
     3.9232   3.9369   4.0085   4.2552   4.2700   4.2728   4.2885   4.3154

[...]

          k = 0.0380-0.0419 0.0000 ( 17876 PWs)   bands (ev):

[...]

          k =-0.0760-0.0000 0.0000 ( 17886 PWs)   bands (ev):

[...]

          k =-0.0760-0.0839 0.0000 ( 17948 PWs)   bands (ev):

   -55.3049 -55.3017 -55.2672 -55.2670 -55.2294 -55.1880 -55.1734 -55.1286
   -55.1238 -55.1163 -55.1000 -55.0967 -55.0958 -55.0141 -54.2920 -54.2917
   -31.6899 -31.6819 -31.6355 -31.5910 -31.5909 -31.5764 -31.5682 -31.5588
   -31.5586 -31.5321 -31.5215 -31.5186 -31.5092 -31.4768 -31.4609 -31.4566
   -31.4521 -31.4497 -31.4480 -31.4417 -31.4366 -31.4035 -31.4012 -31.3994
   -31.3868 -31.3867 -31.3843 -31.3782 -31.3676 -31.3610 -31.3546 -31.3448
   -31.3418 -31.3373 -31.3256 -31.3240 -31.3132 -31.2837 -31.2764 -31.2757
   -31.2281 -31.2193 -30.6151 -30.6149 -30.5306 -30.5304 -30.4912 -30.4911
   -18.9114 -17.2614 -15.6607 -15.5575 -15.4482 -15.3285 -15.3204 -15.2635
   -15.2152 -15.1350 -15.0924 -15.0815 -15.0603 -15.0456 -15.0162 -15.0098
   -14.9912 -14.9175 -14.9067 -14.8965 -14.8731 -14.8321 -14.8214 -14.8187
   -14.8014 -14.7760 -14.7719 -14.6772 -14.6742 -14.5773 -14.4501 -12.7955
   -12.7953  -8.9823  -6.6341  -4.6090  -3.2917  -3.2182  -2.9175  -2.8245
    -2.7792  -2.6893  -2.5397  -2.5098  -2.4388  -2.4327  -2.3655  -2.3139
    -2.2995  -2.2789  -2.1972  -2.1800  -2.1694  -2.1577  -2.1449  -2.1154
    -2.0933  -2.0462  -2.0413  -2.0406  -2.0318  -2.0095  -1.9745  -1.9557
    -1.9152  -1.9067  -1.8864  -1.8379  -1.7946  -1.7760  -1.7611  -1.6570
    -1.6288  -1.5246  -1.5198  -1.4196  -1.4147  -1.3844  -1.3627  -1.3531
    -1.2827  -1.2168  -1.0660  -1.0565  -1.0228  -0.9441  -0.9317  -0.8743
    -0.8698  -0.7845  -0.7667  -0.7379  -0.6436  -0.6139  -0.5107  -0.4967
    -0.4881  -0.3497  -0.3477  -0.2911  -0.2803  -0.2772  -0.2073  -0.2026
    -0.1968  -0.1154  -0.0815  -0.0547  -0.0436   0.0107   0.1999   0.2256
     0.2567   0.3787   0.4289   0.5675   0.6615   0.6656   0.7362   0.7981
     0.8180   0.8775   0.9741   0.9874   1.0471   1.0744   1.1227   1.1373
     1.1474   2.0711   2.0722   2.1576   2.1576   3.8874   3.9892   4.0560
     4.1061   4.1192   4.2083   4.2938   4.3223   4.3550   4.3573   4.4349

     the Fermi energy is     3.8303 ev

!    total energy              =   -2951.44725752 Ry
     estimated scf accuracy    <       0.00000007 Ry
     smearing contrib. (-TS)   =      -0.03730840 Ry
     internal energy E=F+TS    =   -2951.40994912 Ry

     The total energy is F=E-TS. E is the sum of the following terms:
     one-electron contribution =  -24060.81290759 Ry
     hartree contribution      =   12123.42553642 Ry
     xc contribution           =    -487.21596577 Ry
     ewald contribution        =    9473.18928496 Ry
     electric field correction =       0.00410286 Ry

     convergence has been achieved in  58 iterations

     Forces acting on atoms (cartesian axes, Ry/au):

     atom    1 type  1   force =    -0.00003496   -0.00027260    0.09356405
     atom    2 type  1   force =    -0.00016828   -0.00045623   -0.17788098
     atom    3 type  2   force =     0.00002544   -0.00025794   -0.02077749
     atom    4 type  2   force =    -0.00003089   -0.00179941    0.05842246
     atom    5 type  2   force =    -0.01030345   -0.00058595    0.00698170
     atom    6 type  2   force =     0.01196779    0.00004840    0.00669491
     atom    7 type  1   force =    -0.00013314    0.00223206   -0.01161771
     atom    8 type  1   force =    -0.00007041    0.00224065   -0.00161087
     atom    9 type  2   force =     0.00007305    0.00060394    0.00060928
     atom   10 type  2   force =    -0.00107494    0.00321926   -0.00395557
     atom   11 type  2   force =     0.00036775   -0.00030499   -0.00032453
     atom   12 type  2   force =    -0.00040892   -0.00031048   -0.00019668
     atom   13 type  1   force =     0.00000007    0.00014742    0.00029646
     atom   14 type  1   force =    -0.00000210   -0.00047603    0.00049096
     atom   15 type  2   force =    -0.00025096   -0.00036153    0.00046623
     atom   16 type  2   force =    -0.00002022    0.00044781    0.00014123
     atom   17 type  2   force =    -0.00003054   -0.00028900   -0.00033758
     atom   18 type  2   force =     0.00024484   -0.00031792   -0.00057043
     atom   19 type  1   force =    -0.00042375   -0.00104767    0.00002893
     atom   20 type  1   force =     0.00014116   -0.00018479   -0.00050967
     atom   21 type  2   force =    -0.00001624   -0.00011884    0.10393058
     atom   22 type  2   force =    -0.00002080    0.00114448   -0.00081572
     atom   23 type  2   force =    -0.07054611   -0.00020665   -0.02695529
     atom   24 type  2   force =     0.07034011    0.00022616   -0.02700889
     atom   25 type  1   force =    -0.00001030   -0.00027048    0.09312642
     atom   26 type  1   force =    -0.00018854   -0.00054052   -0.17815244
     atom   27 type  2   force =     0.00007102   -0.00021705   -0.01971759
     atom   28 type  2   force =     0.00001752   -0.00155583    0.05762945
     atom   29 type  2   force =    -0.01084065   -0.00007662    0.00741839
     atom   30 type  2   force =     0.01236870    0.00026240    0.00709857
     atom   31 type  1   force =    -0.00009513    0.00573980   -0.01415102
     atom   32 type  1   force =    -0.00008677   -0.00265449   -0.00140752
     atom   33 type  2   force =     0.00010905   -0.00051447    0.00033275
     atom   34 type  2   force =    -0.00048388   -0.00029684   -0.00101301
     atom   35 type  2   force =    -0.00033207   -0.00017874   -0.00033351
     atom   36 type  2   force =     0.00033289   -0.00030209   -0.00012821
     atom   37 type  1   force =     0.00011140   -0.00042867    0.00065467
     atom   38 type  1   force =    -0.00001769   -0.00060044   -0.00021355
     atom   39 type  2   force =     0.00001176    0.00017567    0.00011498
     atom   40 type  2   force =    -0.00007666   -0.00015137   -0.00013531
     atom   41 type  2   force =    -0.00022554    0.00018168    0.00016938
     atom   42 type  2   force =     0.00045252    0.00025474    0.00020057
     atom   43 type  1   force =    -0.00042399    0.00055217   -0.00016168
     atom   44 type  1   force =     0.00030916    0.00036717    0.00012347
     atom   45 type  2   force =    -0.00002360   -0.00014991    0.10391972
     atom   46 type  2   force =    -0.07052847   -0.00016585   -0.02694498
     atom   47 type  2   force =     0.07033207    0.00026523   -0.02700330
     atom   48 type  3   force =    -0.00064986   -0.01999237    0.02225026
     atom   49 type  4   force =     0.00053252    0.01894707   -0.02176731
     atom   50 type  5   force =    -0.00007651   -0.00163272   -0.00016683
     atom   51 type  2   force =     0.00029314    0.00048383   -0.00074064
     atom   52 type  5   force =    -0.00000002   -0.00060671   -0.00015733
     atom   53 type  5   force =    -0.00050653   -0.00021474    0.00009020

     Total force =     0.368247     Total SCF correction =     0.000487
  @ DRIVER MODE: Message from server: STATUS
  @ DRIVER MODE: Message from server: GETFORCE
  @ DRIVER MODE: Returning v,forces,stress,ensemble

     Writing output data file ./calc.save/
  @ DRIVER MODE: Message from server: EXIT
  @ DRIVE MODE: Exiting

     General routines

     Parallel routines

   This run was terminated on:  17:10:29  15Sep2021

   JOB DONE.