     Program PWSCF v.6.7GPU starts on 23Sep2021 at  7:24:30

     R & G space division:  proc/nbgrp/npool/nimage =      10
     Reading input from /storage/home/hcoda1/3/ntian30/research/carbon/CxH_vib/H2O_calc/ads_slab/CH2N2HHO_a/out_0044/pw.inp
Warning: card &CELL ignored
Warning: card   CELL_DYNAMICS='IPI', ignored
Warning: card / ignored

     Current dimensions of program PWSCF are:
     Max number of different atomic species (ntypx) = 10
     Max number of k-points (npk) =  40000
     Max angular momentum in pseudopotentials (lmaxx) =  3
     Presently no symmetry can be used with electric field

     Message from routine cell_base_init:
     DEPRECATED: use true lattice parameter, not A to a.u. conversion factor

     IMPORTANT: XC functional enforced from input :
     Exchange-correlation= BEEF-VDW
                           (   1   4  43  14   2   0   0)
     Any further DFT definition will be discarded
     Please, verify this is what you really want

  @ DRIVER MODE: Connecting to
 qe_1139763_2937323.sched-torque.pace.gatech.eduoz0eubt4_scratch
  using UNIX socket
  @ DRIVER MODE: Message from server: STATUS
  @ DRIVER MODE: Message from server: INIT
  @ DRIVER MODE: Receiving replica           0          -1
  @ DRIVER MODE: Receiving encoded integer          25
  @ DRIVER MODE:  SCF:  T  FORCE:  T  STRESS:  F  VC:  F  ENSEMBLE:  F
  @ DRIVER MODE:  SCF:  T  FORCE:  T  STRESS:  F  VC:  F  ENSEMBLE:  F

     Using Slab Decomposition

     bravais-lattice index     =            0
     lattice parameter (alat)  =       1.8897  a.u.
     unit-cell volume          =    6658.9804 (a.u.)^3
     number of atoms/cell      =           55
     number of atomic types    =            5
     number of electrons       =       402.00
     number of Kohn-Sham states=          211
     kinetic-energy cutoff     =      29.3995  Ry
     charge density cutoff     =     293.9946  Ry
     scf convergence threshold =      7.3E-08
     mixing beta               =       0.0500
     number of iterations used =            8  plain     mixing
     Exchange-correlation= BEEF-VDW
                           (   1   4  43  14   2   0   0)

     celldm(1)=   1.889726  celldm(2)=   0.000000  celldm(3)=   0.000000
     celldm(4)=   0.000000  celldm(5)=   0.000000  celldm(6)=   0.000000

     crystal axes: (cart. coord. in units of alat)
               a(1) = (   6.579727   0.000000   0.000000 )
               a(2) = (  -0.000775   5.961596   0.000000 )
               a(3) = (   0.000000   0.000000  25.155947 )

     reciprocal axes: (cart. coord. in units 2 pi/alat)
               b(1) = (  0.151982  0.000020  0.000000 )
               b(2) = (  0.000000  0.167740  0.000000 )
               b(3) = (  0.000000  0.000000  0.039752 )

     PseudoPot. # 1 for Ti read from file:
     /storage/coda1/p-amedford6/0/shared/rich_project_chbe-medford/medford-share/data/pseudos_module/espresso/nninc/pbe/van/Ti.UPF
     MD5 check sum: 8e4df49b7f0d34bbd5052bf3f5ea0213
     Pseudo is Ultrasoft, Zval = 12.0
     Generated by new atomic code, or converted to UPF format
     Using radial grid of  851 points,  6 beta functions with:
                l(1) =   0
                l(2) =   0
                l(3) =   1
                l(4) =   1
                l(5) =   2
                l(6) =   2
     Q(r) pseudized with  8 coefficients,  rinner =    1.000   1.000   1.000
                                                       1.000   1.000

     PseudoPot. # 2 for O  read from file:
     /storage/coda1/p-amedford6/0/shared/rich_project_chbe-medford/medford-share/data/pseudos_module/espresso/nninc/pbe/van/O.UPF
     MD5 check sum: 78c19812648e8988a0fe644b0f25305e
     Pseudo is Ultrasoft, Zval =  6.0
     Generated by new atomic code, or converted to UPF format
     Using radial grid of  737 points,  4 beta functions with:
                l(1) =   0
                l(2) =   0
                l(3) =   1
                l(4) =   1
     Q(r) pseudized with  8 coefficients,  rinner =    0.800   0.800   0.800

     PseudoPot. # 3 for N  read from file:
     /storage/coda1/p-amedford6/0/shared/rich_project_chbe-medford/medford-share/data/pseudos_module/espresso/nninc/pbe/van/N.UPF
     MD5 check sum: 90d10febe142ad51ac9d5be1deb811c4
     Pseudo is Ultrasoft, Zval =  5.0
     Generated by new atomic code, or converted to UPF format
     Using radial grid of  729 points,  4 beta functions with:
                l(1) =   0
                l(2) =   0
                l(3) =   1
                l(4) =   1
     Q(r) pseudized with  8 coefficients,  rinner =    0.800   0.800   0.800

     PseudoPot. # 4 for C  read from file:
     /storage/coda1/p-amedford6/0/shared/rich_project_chbe-medford/medford-share/data/pseudos_module/espresso/nninc/pbe/van/C.UPF
     MD5 check sum: 1a69bf6b8db32088f5b2163dbdb77a27
     Pseudo is Ultrasoft, Zval =  4.0
     Generated by new atomic code, or converted to UPF format
     Using radial grid of  721 points,  4 beta functions with:
                l(1) =   0
                l(2) =   0
                l(3) =   1
                l(4) =   1
     Q(r) pseudized with  8 coefficients,  rinner =    0.800   0.800   0.800

     PseudoPot. # 5 for H  read from file:
     /storage/coda1/p-amedford6/0/shared/rich_project_chbe-medford/medford-share/data/pseudos_module/espresso/nninc/pbe/van/H.UPF
     MD5 check sum: b5ee9d7bfd3a09ee7748110bda690ff7
     Pseudo is Ultrasoft, Zval =  1.0
     Generated by new atomic code, or converted to UPF format
     Using radial grid of  615 points,  1 beta functions with:
                l(1) =   0
     Q(r) pseudized with  8 coefficients,  rinner =    0.800

     atomic species   valence    mass     pseudopotential
        Ti1           12.00    47.86700     Ti( 1.00)
        O1             6.00    15.99900     O ( 1.00)
        N1             5.00    14.00700     N ( 1.00)
        C1             4.00    12.01100     C ( 1.00)
        H1             1.00     1.00800     H ( 1.00)

     No symmetry found

   Cartesian axes

     site n.     atom                  positions (alat units)
         1           Ti1 tau(   1) = (   0.0004258   2.9801865   6.0000000  )
         2           Ti1 tau(   2) = (   3.2906075   1.4906267   6.0002472  )
         3           O1  tau(   3) = (   0.0006271   0.0005054   7.9858123  )
         4           O1  tau(   4) = (   3.2906025   0.0005020   7.3038282  )
         5           O1  tau(   5) = (   4.5942328   1.4918067   9.2879030  )
         6           O1  tau(   6) = (   1.9868534   1.4903216   9.2879459  )
         7           Ti1 tau(   7) = (   3.2907910   2.8959150   9.1758416  )
         8           Ti1 tau(   8) = (   0.0015273   1.4827037   9.2680791  )
         9           O1  tau(   9) = (   3.3002520   5.9418316  11.2747492  )
        10           O1  tau(  10) = (   0.0116148   5.9584955  10.6183126  )
        11           O1  tau(  11) = (   1.2897458   1.4862980  12.6211975  )
        12           O1  tau(  12) = (   5.3051886   1.5023792  12.6347999  )
        13           Ti1 tau(  13) = (   0.0146078   2.8478158  12.7200684  )
        14           Ti1 tau(  14) = (   3.3063360   1.3081926  12.6482236  )
        15           O1  tau(  15) = (   0.0235978   5.9609164  14.6274833  )
        16           O1  tau(  16) = (   3.2983906   0.0399142  13.8749830  )
        17           O1  tau(  17) = (   4.5813539   1.5856785  16.0626423  )
        18           O1  tau(  18) = (   2.0324892   1.5097802  16.0098020  )
        19           Ti1 tau(  19) = (   3.2774956   2.9544257  15.6266065  )
        20           Ti1 tau(  20) = (   6.5530467   1.3151789  15.9772938  )
        21           O1  tau(  21) = (   3.2904802   0.0005063   4.7018136  )
        22           O1  tau(  22) = (   6.5059356   5.9265713  17.1294848  )
        23           O1  tau(  23) = (   1.3043587   1.4918075   6.0039043  )
        24           O1  tau(  24) = (   5.2767064   1.4903225   6.0039473  )
        25           Ti1 tau(  25) = (   0.0000382   5.9609847   6.0000000  )
        26           Ti1 tau(  26) = (   3.2902200   4.4714249   6.0002472  )
        27           O1  tau(  27) = (   0.0002396   2.9813036   7.9858123  )
        28           O1  tau(  28) = (   3.2902150   2.9813002   7.3038282  )
        29           O1  tau(  29) = (   4.5938453   4.4726049   9.2879030  )
        30           O1  tau(  30) = (   1.9864658   4.4711199   9.2879459  )
        31           Ti1 tau(  31) = (   3.2891106   5.8743827   9.1763621  )
        32           Ti1 tau(  32) = (   0.0006254   4.4649316   9.2693709  )
        33           O1  tau(  33) = (   3.2992753   3.0242338  11.2405823  )
        34           O1  tau(  34) = (   0.0092240   2.9805883  10.6323155  )
        35           O1  tau(  35) = (   1.2972400   4.4705050  12.6241655  )
        36           O1  tau(  36) = (   5.3008088   4.4694758  12.6340222  )
        37           Ti1 tau(  37) = (   0.0289225   5.8314391  12.5906285  )
        38           Ti1 tau(  38) = (   3.3189507   4.3956991  12.4097224  )
        39           O1  tau(  39) = (   0.0312427   2.9750824  14.7260556  )
        40           O1  tau(  40) = (   3.2762925   2.9668711  13.8358254  )
        41           O1  tau(  41) = (   4.5358187   4.4455929  15.9064879  )
        42           O1  tau(  42) = (   2.0572077   4.4429961  16.0439637  )
        43           Ti1 tau(  43) = (   3.2186928   5.9141907  16.2420754  )
        44           Ti1 tau(  44) = (   6.4642982   4.4840528  15.9061301  )
        45           O1  tau(  45) = (   3.2900926   2.9813045   4.7018136  )
        46           O1  tau(  46) = (   1.3039711   4.4726057   6.0039043  )
        47           O1  tau(  47) = (   5.2763189   4.4711207   6.0039473  )
        48           N1  tau(  48) = (   0.2499663   2.3419386  17.9913213  )
        49           C1  tau(  49) = (   0.6208863   1.8700663  19.1394302  )
        50           H1  tau(  50) = (   0.7431952   2.5333404  19.9929579  )
        51           H1  tau(  51) = (   0.8399735   0.8189210  19.2161768  )
        52           N1  tau(  52) = (   6.5658643   3.6116587  17.7752569  )
        53           H1  tau(  53) = (   0.1300021   4.2235620  18.5825096  )
        54           O1  tau(  54) = (   3.3713844   5.9089882  18.0735649  )
        55           H1  tau(  55) = (   4.1755974   0.3538959  18.4550359  )

     number of k points=    10  Fermi-Dirac smearing, width (Ry)=  0.0073
                       cart. coord. in units 2pi/alat
        k(    1) = (   0.0000000   0.0000000   0.0000000), wk =   0.1250000
        k(    2) = (   0.0000000   0.0419351   0.0000000), wk =   0.2500000
        k(    3) = (   0.0000000  -0.0838702   0.0000000), wk =   0.1250000
        k(    4) = (   0.0379955   0.0000049   0.0000000), wk =   0.2500000
        k(    5) = (   0.0379955   0.0419400   0.0000000), wk =   0.2500000
        k(    6) = (   0.0379955  -0.0838652   0.0000000), wk =   0.2500000
        k(    7) = (   0.0379955  -0.0419301   0.0000000), wk =   0.2500000
        k(    8) = (  -0.0759910  -0.0000099   0.0000000), wk =   0.1250000
        k(    9) = (  -0.0759910   0.0419252   0.0000000), wk =   0.2500000
        k(   10) = (  -0.0759910  -0.0838800   0.0000000), wk =   0.1250000

     Initial potential from superposition of free atoms

     starting charge  385.99915, renormalised to  402.00000

     negative rho (up, down):  1.591E-02 0.000E+00

     %%%%%%%%%%%%%%%%%%%%%%%%%%%%%%%%%%%%%%%%%%%%%%%%%%%%%%%%%%%%%%%%%%%%%%%%
     %                                                                      %
     % You are using vdW-DF, which was implemented by the Thonhauser group. %
     % Please cite the following two papers that made this development      %
     % possible and the two reviews that describe the various versions:     %
     %                                                                      %
     %   T. Thonhauser et al., PRL 115, 136402 (2015).                      %
     %   T. Thonhauser et al., PRB 76, 125112 (2007).                       %
     %   K. Berland et al., Rep. Prog. Phys. 78, 066501 (2015).             %
     %   D.C. Langreth et al., J. Phys.: Condens. Matter 21, 084203 (2009). %
     %                                                                      %
     %                                                                      %
     % If you are calculating the stress with vdW-DF, please also cite:     %
     %                                                                      %
     %   R. Sabatini et al., J. Phys.: Condens. Matter 24, 424209 (2012).   %
     %                                                                      %
     %%%%%%%%%%%%%%%%%%%%%%%%%%%%%%%%%%%%%%%%%%%%%%%%%%%%%%%%%%%%%%%%%%%%%%%%

     Adding external electric field

     Computed dipole along edir(3) :
        Dipole              -11.3527 Ry au,        -28.8557 Debye
        Dipole field         -0.0214 Ry au,

        Potential amp.        1.9860 Ry
        Total length         46.3494 bohr

     Starting wfcs are  304 atomic wfcs
  @ DRIVER MODE: Message from server: STATUS
  @ DRIVER MODE: Message from server: POSDATA
  @ DRIVER MODE: Reading and sharing cell
  @ DRIVER MODE: Reading and sharing positions
  @ DRIVER MODE: Received positions

     Self-consistent Calculation

     iteration #  1     ecut=    29.40 Ry     beta= 0.05
     Davidson diagonalization with overlap
     c_bands:  4 eigenvalues not converged
     c_bands:  3 eigenvalues not converged
     c_bands:  3 eigenvalues not converged
     c_bands:  5 eigenvalues not converged
     c_bands:  5 eigenvalues not converged
     c_bands:  1 eigenvalues not converged
     c_bands:  5 eigenvalues not converged
     c_bands:  4 eigenvalues not converged
     c_bands:  5 eigenvalues not converged
     c_bands:  1 eigenvalues not converged
     ethr =  1.00E-05,  avg # of iterations = 24.0

[...]

     total energy              =   -2410.17841690 Ry
     estimated scf accuracy    <    6308.42653128 Ry

     iteration #  2     ecut=    29.40 Ry     beta= 0.05
     Davidson diagonalization with overlap
     ethr =  1.00E-02,  avg # of iterations = 23.0

[...]

     iteration # 57     ecut=    29.40 Ry     beta= 0.05
     Davidson diagonalization with overlap
     c_bands:  1 eigenvalues not converged
     ethr =  1.55E-07,  avg # of iterations =  4.9

[...]

     total energy              =   -2972.72744861 Ry
     estimated scf accuracy    <       0.00000010 Ry

     iteration # 78     ecut=    29.40 Ry     beta= 0.05
     Davidson diagonalization with overlap
     ethr =  2.60E-11,  avg # of iterations =  5.1

     negative rho (up, down):  1.620E-02 0.000E+00

     Adding external electric field

     Computed dipole along edir(3) :
        Dipole                0.4600 Ry au,          1.1693 Debye
        Dipole field          0.0009 Ry au,

        Potential amp.       -0.0805 Ry
        Total length         46.3494 bohr

     End of self-consistent calculation

          k = 0.0000 0.0000 0.0000 ( 18029 PWs)   bands (ev):

   -56.5389 -56.5052 -55.8865 -55.8510 -55.6238 -55.5643 -55.3798 -55.3258
   -55.2987 -55.2299 -55.1994 -55.1900 -55.1561 -55.0326 -55.0323 -54.9855
   -32.9710 -32.8235 -32.7955 -32.7063 -32.6150 -32.5967 -32.3695 -32.1060
   -32.1043 -32.0769 -32.0297 -32.0261 -31.9930 -31.8693 -31.8525 -31.8447
   -31.7917 -31.7680 -31.7271 -31.7090 -31.6900 -31.6473 -31.6450 -31.5870
   -31.5843 -31.5799 -31.5782 -31.5343 -31.5308 -31.5238 -31.5067 -31.5059
   -31.4841 -31.4794 -31.4236 -31.4048 -31.3997 -31.3529 -31.3170 -31.2940
   -31.2884 -31.2791 -31.2436 -31.2423 -31.2176 -31.2051 -31.1765 -31.1562
   -17.8188 -16.7240 -16.2896 -16.1254 -15.9777 -15.9083 -15.8827 -15.8524
   -15.7865 -15.6118 -15.5346 -15.5091 -15.4998 -15.4405 -15.2730 -15.1764
   -15.1586 -15.0928 -15.0146 -14.9907 -14.9513 -14.8983 -14.8703 -14.8561
   -14.8406 -14.8049 -14.6828 -14.6023 -14.5033 -14.3234 -14.3074 -13.6875
   -13.5779 -11.9707  -7.7256  -5.1549  -4.3601  -4.2746  -3.7954  -3.7490
    -3.6061  -3.4262  -3.3706  -3.2253  -3.1665  -3.1175  -3.0613  -3.0468
    -2.9432  -2.8007  -2.7936  -2.7399  -2.7178  -2.7138  -2.6946  -2.5939
    -2.5282  -2.5192  -2.4240  -2.3324  -2.3111  -2.2724  -2.2323  -2.2245
    -2.1812  -2.1420  -2.0875  -2.0507  -2.0340  -1.9367  -1.9176  -1.8109
    -1.7852  -1.7610  -1.7511  -1.7184  -1.6793  -1.6206  -1.5495  -1.4322
    -1.3424  -1.3230  -1.2505  -1.2453  -1.2198  -1.0577  -1.0166  -1.0145
    -0.9542  -0.8781  -0.8491  -0.7928  -0.7554  -0.7106  -0.6585  -0.6168
    -0.5811  -0.4531  -0.4491  -0.3977  -0.3137  -0.2928  -0.2614  -0.2384
    -0.1577  -0.1024  -0.0657   0.0059   0.0657   0.0724   0.1175   0.1748
     0.2838   0.3273   0.3509   0.3819   0.4245   0.4492   0.5167   0.5641
     0.5952   0.6043   0.6806   0.7820   0.7998   0.8332   0.9226   0.9476
     1.0355   1.0713   1.0875   1.1728   1.1928   1.3713   1.4097   1.5804
     2.3832   2.7257   2.8757   3.1583   3.1735   3.4659   3.6880   3.7157
     3.7187   3.7990   3.9372

[...]

          k = 0.0380-0.0419 0.0000 ( 17876 PWs)   bands (ev):

[...]

          k =-0.0760-0.0000 0.0000 ( 17886 PWs)   bands (ev):

[...]

          k =-0.0760-0.0839 0.0000 ( 17948 PWs)   bands (ev):

   -56.5224 -56.5215 -55.8746 -55.8628 -55.6185 -55.5695 -55.3737 -55.3318
   -55.2967 -55.2285 -55.2012 -55.1736 -55.1724 -55.0337 -55.0253 -54.9926
   -32.8096 -32.8087 -32.7883 -32.7871 -32.6593 -32.6588 -32.1956 -32.1861
   -32.0682 -32.0554 -32.0550 -32.0471 -31.9266 -31.8878 -31.8463 -31.8397
   -31.7966 -31.7904 -31.7029 -31.6706 -31.6273 -31.6104 -31.5924 -31.5870
   -31.5732 -31.5644 -31.5484 -31.5382 -31.5212 -31.5201 -31.5193 -31.5096
   -31.4724 -31.4681 -31.4299 -31.4097 -31.3976 -31.3961 -31.3869 -31.3591
   -31.3581 -31.2986 -31.2815 -31.2598 -31.2460 -31.2447 -31.2201 -31.1787
   -17.8050 -16.1074 -16.1031 -16.1000 -16.0198 -16.0175 -15.8138 -15.8066
   -15.6259 -15.6021 -15.5279 -15.4596 -15.3507 -15.3173 -15.2933 -15.2422
   -15.1967 -15.1687 -15.1122 -15.0801 -14.9975 -14.9661 -14.9503 -14.9391
   -14.9061 -14.8532 -14.7212 -14.6869 -14.6693 -14.5887 -14.4537 -13.6820
   -13.6812 -11.9282  -7.6559  -5.2162  -4.4337  -3.7208  -3.2195  -3.1913
    -3.1424  -3.1334  -2.9352  -2.8949  -2.8732  -2.8222  -2.7856  -2.7708
    -2.7257  -2.7198  -2.6378  -2.5854  -2.5538  -2.5413  -2.5174  -2.4573
    -2.4359  -2.4060  -2.3940  -2.3620  -2.3509  -2.3416  -2.3178  -2.2508
    -2.2009  -2.1489  -2.1156  -2.0746  -2.0178  -2.0124  -1.9782  -1.9694
    -1.8907  -1.8015  -1.7620  -1.6862  -1.6042  -1.5702  -1.5425  -1.5246
    -1.4809  -1.4248  -1.3977  -1.3488  -1.3228  -1.2697  -1.2342  -1.2239
    -1.1578  -1.1198  -1.0526  -1.0309  -0.9515  -0.8395  -0.7836  -0.7597
    -0.7322  -0.7198  -0.6503  -0.5853  -0.5397  -0.5209  -0.4480  -0.4396
    -0.4126  -0.3631  -0.3487  -0.3143  -0.2016  -0.1379  -0.0779   0.0061
     0.0461   0.0826   0.1624   0.2175   0.2405   0.3171   0.3973   0.4773
     0.4934   0.5347   0.5386   0.7054   0.7357   0.8445   0.8769   0.9529
     0.9870   1.0275   1.1479   1.1904   1.2213   1.2226   1.2434   1.2614
     2.3291   3.2955   3.2982   3.3479   3.3561   3.6238   3.6322   3.7699
     3.7718   3.8910   3.9304

     the Fermi energy is     2.6048 ev

!    total energy              =   -2972.72746390 Ry
     estimated scf accuracy    <       0.00000002 Ry
     smearing contrib. (-TS)   =      -0.00743819 Ry
     internal energy E=F+TS    =   -2972.72002571 Ry

     The total energy is F=E-TS. E is the sum of the following terms:
     one-electron contribution =  -24031.60880983 Ry
     hartree contribution      =   12109.44843673 Ry
     xc contribution           =    -493.27608064 Ry
     ewald contribution        =    9442.71602865 Ry
     electric field correction =       0.00039938 Ry

     convergence has been achieved in  78 iterations

     Forces acting on atoms (cartesian axes, Ry/au):

     atom    1 type  1   force =    -0.00000019   -0.00043276    0.11618500
     atom    2 type  1   force =    -0.00007339    0.00013878   -0.15935924
     atom    3 type  2   force =     0.00002575    0.00000647   -0.05254749
     atom    4 type  2   force =     0.00005220   -0.00013837    0.02468185
     atom    5 type  2   force =    -0.00348932   -0.00224548   -0.01042430
     atom    6 type  2   force =     0.00528573   -0.00174628   -0.01062330
     atom    7 type  1   force =     0.00000413   -0.00613624    0.04629088
     atom    8 type  1   force =     0.00041566    0.01613119    0.08040643
     atom    9 type  2   force =    -0.00001082   -0.00062666    0.00011643
     atom   10 type  2   force =    -0.00257382    0.00058473   -0.04976923
     atom   11 type  2   force =    -0.00057472   -0.00013217   -0.00016075
     atom   12 type  2   force =     0.00061334   -0.00027694   -0.00000412
     atom   13 type  1   force =    -0.00017801    0.00043717   -0.00003869
     atom   14 type  1   force =     0.00017167    0.00006298   -0.00105689
     atom   15 type  2   force =    -0.00022463   -0.00041375   -0.00050378
     atom   16 type  2   force =     0.00013693   -0.00065292    0.00067494
     atom   17 type  2   force =     0.00013678    0.00059580    0.00002551
     atom   18 type  2   force =     0.00002274    0.00060366   -0.00027836
     atom   19 type  1   force =    -0.00059279   -0.00032760   -0.00045241
     atom   20 type  1   force =     0.00056178    0.00041425   -0.00029117
     atom   21 type  2   force =     0.00004830    0.00021753    0.09896183
     atom   22 type  2   force =    -0.00003822   -0.00051578   -0.00019259
     atom   23 type  2   force =    -0.07986026    0.00004067   -0.03163667
     atom   24 type  2   force =     0.07975676    0.00047378   -0.03169420
     atom   25 type  1   force =     0.00007321   -0.00058098    0.11649146
     atom   26 type  1   force =    -0.00011697   -0.00143066   -0.15987634
     atom   27 type  2   force =     0.00007105   -0.00069941   -0.05056007
     atom   28 type  2   force =     0.00005383    0.00166636    0.02022041
     atom   29 type  2   force =    -0.00169280    0.00505598   -0.01371154
     atom   30 type  2   force =     0.00360599    0.00547764   -0.01384339
     atom   31 type  1   force =    -0.00017135    0.00218855    0.03177984
     atom   32 type  1   force =     0.00031936   -0.01973514    0.08006750
     atom   33 type  2   force =     0.00014356   -0.00035675    0.00012863
     atom   34 type  2   force =    -0.00158611    0.00085435   -0.06332792
     atom   35 type  2   force =     0.00038685    0.00003584   -0.00018032
     atom   36 type  2   force =     0.00017410   -0.00004652   -0.00025106
     atom   37 type  1   force =    -0.00013207   -0.00024769   -0.00060721
     atom   38 type  1   force =     0.00013086    0.00046857    0.00011344
     atom   39 type  2   force =    -0.00028818    0.00058076    0.00016061
     atom   40 type  2   force =     0.00023842    0.00012034    0.00062283
     atom   41 type  2   force =     0.00135615    0.00000257   -0.00010740
     atom   42 type  2   force =    -0.00131737   -0.00055921    0.00004846
     atom   43 type  1   force =    -0.00040251    0.00055780   -0.00023971
     atom   44 type  1   force =    -0.00003612    0.00028957    0.00008535
     atom   45 type  2   force =     0.00005214    0.00003111    0.09876322
     atom   46 type  2   force =    -0.07991396    0.00000758   -0.03163868
     atom   47 type  2   force =     0.07980748    0.00043804   -0.03171094
     atom   48 type  3   force =    -0.00015849    0.00040862   -0.00017804
     atom   49 type  4   force =    -0.00029941    0.00009656   -0.00025662
     atom   50 type  5   force =    -0.00015532   -0.00030297   -0.00019113
     atom   51 type  5   force =     0.00013358    0.00033656   -0.00030005
     atom   52 type  3   force =    -0.00026765   -0.00075358    0.00046153
     atom   53 type  5   force =    -0.00027704    0.00026624   -0.00004137
     atom   54 type  2   force =     0.01216515    0.00609780    0.00528591
     atom   55 type  5   force =    -0.01151203   -0.00632998   -0.00551709

     Total force =     0.397230     Total SCF correction =     0.000333
  @ DRIVER MODE: Message from server: STATUS
  @ DRIVER MODE: Message from server: GETFORCE
  @ DRIVER MODE: Returning v,forces,stress,ensemble

     Writing output data file ./calc.save/
  @ DRIVER MODE: Message from server: EXIT
  @ DRIVE MODE: Exiting

     General routines

     Parallel routines

   This run was terminated on:   7:44:11  23Sep2021

   JOB DONE.