     Program PWSCF v.6.7GPU starts on 16Sep2021 at  3:37:44

     R & G space division:  proc/nbgrp/npool/nimage =      10
     Reading input from /storage/home/hcoda1/3/ntian30/research/carbon/CxH_vib/H2O_calc/ads_slab/CH2OH2O_a/out_0036/pw.inp
Warning: card &CELL ignored
Warning: card   CELL_DYNAMICS='IPI', ignored
Warning: card / ignored

     Current dimensions of program PWSCF are:
     Max number of different atomic species (ntypx) = 10
     Max number of k-points (npk) =  40000
     Max angular momentum in pseudopotentials (lmaxx) =  3
     Presently no symmetry can be used with electric field

     Message from routine cell_base_init:
     DEPRECATED: use true lattice parameter, not A to a.u. conversion factor

     IMPORTANT: XC functional enforced from input :
     Exchange-correlation= BEEF-VDW
                           (   1   4  43  14   2   0   0)
     Any further DFT definition will be discarded
     Please, verify this is what you really want

  @ DRIVER MODE: Connecting to
 qe_1139763_2852613.sched-torque.pace.gatech.edudm2nvu76_scratch
  using UNIX socket
  @ DRIVER MODE: Message from server: STATUS
  @ DRIVER MODE: Message from server: INIT
  @ DRIVER MODE: Receiving replica           0          -1
  @ DRIVER MODE: Receiving encoded integer          25
  @ DRIVER MODE:  SCF:  T  FORCE:  T  STRESS:  F  VC:  F  ENSEMBLE:  F
  @ DRIVER MODE:  SCF:  T  FORCE:  T  STRESS:  F  VC:  F  ENSEMBLE:  F

     Using Slab Decomposition

     bravais-lattice index     =            0
     lattice parameter (alat)  =       1.8897  a.u.
     unit-cell volume          =    6658.9804 (a.u.)^3
     number of atoms/cell      =           54
     number of atomic types    =            4
     number of electrons       =       398.00
     number of Kohn-Sham states=          209
     kinetic-energy cutoff     =      29.3995  Ry
     charge density cutoff     =     293.9946  Ry
     scf convergence threshold =      7.3E-08
     mixing beta               =       0.0500
     number of iterations used =            8  plain     mixing
     Exchange-correlation= BEEF-VDW
                           (   1   4  43  14   2   0   0)

     celldm(1)=   1.889726  celldm(2)=   0.000000  celldm(3)=   0.000000
     celldm(4)=   0.000000  celldm(5)=   0.000000  celldm(6)=   0.000000

     crystal axes: (cart. coord. in units of alat)
               a(1) = (   6.579727   0.000000   0.000000 )
               a(2) = (  -0.000775   5.961596   0.000000 )
               a(3) = (   0.000000   0.000000  25.155947 )

     reciprocal axes: (cart. coord. in units 2 pi/alat)
               b(1) = (  0.151982  0.000020  0.000000 )
               b(2) = (  0.000000  0.167740  0.000000 )
               b(3) = (  0.000000  0.000000  0.039752 )

     PseudoPot. # 1 for O  read from file:
     /storage/coda1/p-amedford6/0/shared/rich_project_chbe-medford/medford-share/data/pseudos_module/espresso/nninc/pbe/van/O.UPF
     MD5 check sum: 78c19812648e8988a0fe644b0f25305e
     Pseudo is Ultrasoft, Zval =  6.0
     Generated by new atomic code, or converted to UPF format
     Using radial grid of  737 points,  4 beta functions with:
                l(1) =   0
                l(2) =   0
                l(3) =   1
                l(4) =   1
     Q(r) pseudized with  8 coefficients,  rinner =    0.800   0.800   0.800

     PseudoPot. # 2 for Ti read from file:
     /storage/coda1/p-amedford6/0/shared/rich_project_chbe-medford/medford-share/data/pseudos_module/espresso/nninc/pbe/van/Ti.UPF
     MD5 check sum: 8e4df49b7f0d34bbd5052bf3f5ea0213
     Pseudo is Ultrasoft, Zval = 12.0
     Generated by new atomic code, or converted to UPF format
     Using radial grid of  851 points,  6 beta functions with:
                l(1) =   0
                l(2) =   0
                l(3) =   1
                l(4) =   1
                l(5) =   2
                l(6) =   2
     Q(r) pseudized with  8 coefficients,  rinner =    1.000   1.000   1.000
                                                       1.000   1.000

     PseudoPot. # 3 for C  read from file:
     /storage/coda1/p-amedford6/0/shared/rich_project_chbe-medford/medford-share/data/pseudos_module/espresso/nninc/pbe/van/C.UPF
     MD5 check sum: 1a69bf6b8db32088f5b2163dbdb77a27
     Pseudo is Ultrasoft, Zval =  4.0
     Generated by new atomic code, or converted to UPF format
     Using radial grid of  721 points,  4 beta functions with:
                l(1) =   0
                l(2) =   0
                l(3) =   1
                l(4) =   1
     Q(r) pseudized with  8 coefficients,  rinner =    0.800   0.800   0.800

     PseudoPot. # 4 for H  read from file:
     /storage/coda1/p-amedford6/0/shared/rich_project_chbe-medford/medford-share/data/pseudos_module/espresso/nninc/pbe/van/H.UPF
     MD5 check sum: b5ee9d7bfd3a09ee7748110bda690ff7
     Pseudo is Ultrasoft, Zval =  1.0
     Generated by new atomic code, or converted to UPF format
     Using radial grid of  615 points,  1 beta functions with:
                l(1) =   0
     Q(r) pseudized with  8 coefficients,  rinner =    0.800

     atomic species   valence    mass     pseudopotential
        O1             6.00    15.99900     O ( 1.00)
        Ti1           12.00    47.86700     Ti( 1.00)
        C1             4.00    12.01100     C ( 1.00)
        H1             1.00     1.00800     H ( 1.00)

     No symmetry found

   Cartesian axes

     site n.     atom                  positions (alat units)
         1           O1  tau(   1) = (   3.2904802   0.0005063   4.7018136  )
         2           O1  tau(   2) = (   3.2900926   2.9813045   4.7018136  )
         3           Ti1 tau(   3) = (   0.0004258   2.9801865   6.0000000  )
         4           Ti1 tau(   4) = (   0.0000382   5.9609847   6.0000000  )
         5           Ti1 tau(   5) = (   3.2906075   1.4906267   6.0002472  )
         6           Ti1 tau(   6) = (   3.2902200   4.4714249   6.0002472  )
         7           O1  tau(   7) = (   1.3043587   1.4918075   6.0039043  )
         8           O1  tau(   8) = (   1.3039711   4.4726057   6.0039043  )
         9           O1  tau(   9) = (   5.2767064   1.4903225   6.0039473  )
        10           O1  tau(  10) = (   5.2763189   4.4711207   6.0039473  )
        11           O1  tau(  11) = (   3.2906025   0.0005020   7.3038282  )
        12           O1  tau(  12) = (   3.2902150   2.9813002   7.3038282  )
        13           O1  tau(  13) = (   0.0006271   0.0005054   7.9858123  )
        14           O1  tau(  14) = (   0.0002396   2.9813036   7.9858123  )
        15           Ti1 tau(  15) = (   3.3036605   0.0548493   9.1550340  )
        16           Ti1 tau(  16) = (   3.3179312   3.0323762   9.1622521  )
        17           Ti1 tau(  17) = (   0.0293130   4.5303424   9.2586280  )
        18           Ti1 tau(  18) = (   0.0255512   1.6071936   9.3606264  )
        19           O1  tau(  19) = (   4.5942328   1.4918067   9.2879030  )
        20           O1  tau(  20) = (   4.5938453   4.4726049   9.2879030  )
        21           O1  tau(  21) = (   1.9868534   1.4903216   9.2879459  )
        22           O1  tau(  22) = (   1.9864658   4.4711199   9.2879459  )
        23           O1  tau(  23) = (   0.0067149   0.0090568  10.6008527  )
        24           O1  tau(  24) = (   0.0066098   2.9904127  10.5810825  )
        25           O1  tau(  25) = (   3.3023248   2.9935247  11.3558429  )
        26           O1  tau(  26) = (   3.3019398   0.0103095  11.3581380  )
        27           Ti1 tau(  27) = (   0.0322082   0.0188897  12.5014682  )
        28           Ti1 tau(  28) = (   3.3323403   4.4947089  12.5096490  )
        29           Ti1 tau(  29) = (   3.3327227   1.5059056  12.5040540  )
        30           Ti1 tau(  30) = (   0.0321551   3.0004163  12.7750784  )
        31           O1  tau(  31) = (   1.2963378   4.4834263  12.6382484  )
        32           O1  tau(  32) = (   1.2968596   1.4996660  12.6342602  )
        33           O1  tau(  33) = (   5.3004736   4.4821179  12.6410582  )
        34           O1  tau(  34) = (   5.3007909   1.4998706  12.6367838  )
        35           O1  tau(  35) = (   3.3017874   2.9879694  13.9086975  )
        36           O1  tau(  36) = (   3.3040514   0.0100701  13.9766235  )
        37           O1  tau(  37) = (   0.0177811   0.0165449  14.6846256  )
        38           O1  tau(  38) = (   0.0218693   2.9952767  14.7100221  )
        39           Ti1 tau(  39) = (   3.3083447   2.9915206  15.7010863  )
        40           Ti1 tau(  40) = (   3.3165693   0.0114089  15.8055842  )
        41           Ti1 tau(  41) = (   0.0300915   4.5703342  15.9344200  )
        42           Ti1 tau(  42) = (   0.0294271   1.3911826  15.9958598  )
        43           O1  tau(  43) = (   4.5666857   4.4545776  16.0545193  )
        44           O1  tau(  44) = (   4.5654216   1.5273373  16.0688375  )
        45           O1  tau(  45) = (   2.0398213   1.5345912  16.0698912  )
        46           O1  tau(  46) = (   2.0372649   4.4468515  16.0554978  )
        47           O1  tau(  47) = (   0.0160947   0.0056016  17.2166677  )
        48           O1  tau(  48) = (   6.5639191   3.0028441  17.4181802  )
        49           C1  tau(  49) = (   6.3909186   3.0704891  18.6902598  )
        50           H1  tau(  50) = (   6.3116585   4.0479728  19.1570877  )
        51           H1  tau(  51) = (   6.3127454   2.1532251  19.2664540  )
        52           O1  tau(  52) = (   3.2659488   5.9319982  18.2141537  )
        53           H1  tau(  53) = (   4.0486762   5.9278262  18.7901078  )
        54           H1  tau(  54) = (   2.4667005   5.9275743  18.7583984  )

     number of k points=    10  Fermi-Dirac smearing, width (Ry)=  0.0073
                       cart. coord. in units 2pi/alat
        k(    1) = (   0.0000000   0.0000000   0.0000000), wk =   0.1250000
        k(    2) = (   0.0000000   0.0419351   0.0000000), wk =   0.2500000
        k(    3) = (   0.0000000  -0.0838702   0.0000000), wk =   0.1250000
        k(    4) = (   0.0379955   0.0000049   0.0000000), wk =   0.2500000
        k(    5) = (   0.0379955   0.0419400   0.0000000), wk =   0.2500000
        k(    6) = (   0.0379955  -0.0838652   0.0000000), wk =   0.2500000
        k(    7) = (   0.0379955  -0.0419301   0.0000000), wk =   0.2500000
        k(    8) = (  -0.0759910  -0.0000099   0.0000000), wk =   0.1250000
        k(    9) = (  -0.0759910   0.0419252   0.0000000), wk =   0.2500000
        k(   10) = (  -0.0759910  -0.0838800   0.0000000), wk =   0.1250000

     Initial potential from superposition of free atoms

     starting charge  381.99917, renormalised to  398.00000

     negative rho (up, down):  1.685E-02 0.000E+00

     %%%%%%%%%%%%%%%%%%%%%%%%%%%%%%%%%%%%%%%%%%%%%%%%%%%%%%%%%%%%%%%%%%%%%%%%
     %                                                                      %
     % You are using vdW-DF, which was implemented by the Thonhauser group. %
     % Please cite the following two papers that made this development      %
     % possible and the two reviews that describe the various versions:     %
     %                                                                      %
     %   T. Thonhauser et al., PRL 115, 136402 (2015).                      %
     %   T. Thonhauser et al., PRB 76, 125112 (2007).                       %
     %   K. Berland et al., Rep. Prog. Phys. 78, 066501 (2015).             %
     %   D.C. Langreth et al., J. Phys.: Condens. Matter 21, 084203 (2009). %
     %                                                                      %
     %                                                                      %
     % If you are calculating the stress with vdW-DF, please also cite:     %
     %                                                                      %
     %   R. Sabatini et al., J. Phys.: Condens. Matter 24, 424209 (2012).   %
     %                                                                      %
     %%%%%%%%%%%%%%%%%%%%%%%%%%%%%%%%%%%%%%%%%%%%%%%%%%%%%%%%%%%%%%%%%%%%%%%%

     Adding external electric field

     Computed dipole along edir(3) :
        Dipole               -9.6380 Ry au,        -24.4975 Debye
        Dipole field         -0.0182 Ry au,

        Potential amp.        1.6860 Ry
        Total length         46.3494 bohr

     Starting wfcs are  300 atomic wfcs
  @ DRIVER MODE: Message from server: STATUS
  @ DRIVER MODE: Message from server: POSDATA
  @ DRIVER MODE: Reading and sharing cell
  @ DRIVER MODE: Reading and sharing positions
  @ DRIVER MODE: Received positions

     Self-consistent Calculation

     iteration #  1     ecut=    29.40 Ry     beta= 0.05
     Davidson diagonalization with overlap
     c_bands:  1 eigenvalues not converged
     c_bands:  3 eigenvalues not converged
     c_bands:  2 eigenvalues not converged
     c_bands:  2 eigenvalues not converged
     c_bands:  2 eigenvalues not converged
     c_bands:  1 eigenvalues not converged
     c_bands:  2 eigenvalues not converged
     c_bands:  1 eigenvalues not converged
     c_bands:  2 eigenvalues not converged
     ethr =  1.00E-05,  avg # of iterations = 19.6

[...]

     total energy              =   -2526.85185028 Ry
     estimated scf accuracy    <    4873.67146486 Ry

     iteration #  2     ecut=    29.40 Ry     beta= 0.05
     Davidson diagonalization with overlap
     ethr =  1.00E-02,  avg # of iterations = 27.2

[...]

     iteration # 81     ecut=    29.40 Ry     beta= 0.05
     Davidson diagonalization with overlap
     ethr =  2.10E-11,  avg # of iterations =  8.9

[...]

     total energy              =   -2964.99530424 Ry
     estimated scf accuracy    <       0.00000008 Ry

     iteration # 82     ecut=    29.40 Ry     beta= 0.05
     Davidson diagonalization with overlap
     c_bands:  1 eigenvalues not converged
     ethr =  1.90E-11,  avg # of iterations =  7.9

     negative rho (up, down):  1.527E-02 0.000E+00

     Adding external electric field

     Computed dipole along edir(3) :
        Dipole                1.2235 Ry au,          3.1098 Debye
        Dipole field          0.0023 Ry au,

        Potential amp.       -0.2140 Ry
        Total length         46.3494 bohr

     End of self-consistent calculation

          k = 0.0000 0.0000 0.0000 ( 18029 PWs)   bands (ev):

   -55.5388 -55.5020 -55.5018 -55.4657 -55.4621 -55.4174 -55.3811 -55.3143
   -55.3015 -55.2780 -55.2681 -55.2585 -55.2168 -55.2090 -54.5501 -54.5160
   -32.0576 -32.0092 -31.8951 -31.8520 -31.8506 -31.8331 -31.8126 -31.8042
   -31.7806 -31.7688 -31.7353 -31.7254 -31.6975 -31.6850 -31.6831 -31.6485
   -31.6451 -31.6396 -31.6347 -31.6311 -31.6021 -31.5967 -31.5895 -31.5852
   -31.5573 -31.5535 -31.5501 -31.5296 -31.5223 -31.5209 -31.4754 -31.4737
   -31.4474 -31.4462 -31.4326 -31.4274 -31.4211 -31.4074 -31.3958 -31.3939
   -31.3913 -31.3743 -30.9595 -30.8634 -30.8411 -30.7761 -30.6900 -30.5789
   -19.3626 -19.1083 -16.2540 -15.9913 -15.8193 -15.7085 -15.6615 -15.4595
   -15.3664 -15.2856 -15.2217 -15.1446 -15.1278 -15.0901 -15.0643 -15.0586
   -15.0531 -15.0043 -14.9957 -14.9561 -14.9444 -14.9431 -14.9244 -14.9056
   -14.8237 -14.7209 -14.6777 -14.6597 -14.6005 -14.5444 -14.5302 -13.0507
   -12.9326  -9.0156  -7.0965  -5.2198  -5.1808  -3.7845  -3.5766  -3.4578
    -3.4233  -3.3875  -3.3194  -3.1371  -3.1287  -3.0361  -2.7988  -2.7084
    -2.6752  -2.6175  -2.6074  -2.5074  -2.4667  -2.3604  -2.3516  -2.3472
    -2.3312  -2.3050  -2.2723  -2.2298  -2.2058  -2.1940  -2.0661  -2.0542
    -1.9265  -1.9208  -1.8975  -1.8427  -1.8377  -1.7957  -1.7824  -1.7787
    -1.7663  -1.7181  -1.7064  -1.5932  -1.5193  -1.4562  -1.3687  -1.2312
    -1.1696  -1.0925  -1.0427  -1.0084  -0.9459  -0.9429  -0.8886  -0.8479
    -0.7896  -0.7774  -0.7706  -0.6742  -0.5754  -0.5536  -0.5231  -0.4451
    -0.3660  -0.2802  -0.2611  -0.2588  -0.2575  -0.2365  -0.0985  -0.0154
     0.0422   0.0471   0.1431   0.1762   0.2117   0.2256   0.2578   0.2786
     0.3346   0.4093   0.4210   0.4342   0.4598   0.5056   0.5112   0.6238
     0.7003   0.7018   0.7377   0.7705   0.9463   0.9809   1.1078   1.2151
     1.3813   1.4744   1.5462   1.6473   2.0604   2.1180   3.6345   3.6762
     3.6912   3.7339   3.7832   3.8100   3.8775   4.0769   4.0930   4.1419
     4.1859

[...]

          k = 0.0380-0.0419 0.0000 ( 17876 PWs)   bands (ev):

[...]

          k =-0.0760-0.0000 0.0000 ( 17886 PWs)   bands (ev):

[...]

          k =-0.0760-0.0839 0.0000 ( 17948 PWs)   bands (ev):

   -55.5274 -55.5132 -55.4851 -55.4822 -55.4605 -55.4072 -55.3913 -55.3109
   -55.2863 -55.2838 -55.2725 -55.2600 -55.2220 -55.2118 -54.5335 -54.5324
   -31.8682 -31.8534 -31.8333 -31.8206 -31.8177 -31.7982 -31.7735 -31.7550
   -31.7428 -31.7377 -31.7372 -31.7295 -31.6963 -31.6621 -31.6560 -31.6520
   -31.6428 -31.6406 -31.6369 -31.6348 -31.6285 -31.6096 -31.6089 -31.6076
   -31.6030 -31.5883 -31.5672 -31.5519 -31.5389 -31.5377 -31.5308 -31.5136
   -31.4961 -31.4917 -31.4842 -31.4831 -31.4644 -31.4465 -31.4411 -31.4361
   -31.4056 -31.3987 -30.8544 -30.8530 -30.7729 -30.7720 -30.7336 -30.7326
   -19.3538 -19.1079 -15.7053 -15.5964 -15.5618 -15.4150 -15.4108 -15.3596
   -15.3514 -15.3155 -15.2357 -15.2323 -15.1823 -15.1630 -15.1284 -15.1048
   -15.0930 -15.0478 -15.0454 -15.0265 -15.0027 -14.9843 -14.9678 -14.9403
   -14.9161 -14.9087 -14.8711 -14.8628 -14.7983 -14.7427 -14.7225 -13.0351
   -13.0328  -9.0165  -7.0940  -5.1966  -5.1576  -3.7430  -3.1554  -2.9894
    -2.8020  -2.7872  -2.6543  -2.6194  -2.6014  -2.5108  -2.4774  -2.4439
    -2.3808  -2.3701  -2.3636  -2.3419  -2.3367  -2.3232  -2.3017  -2.2646
    -2.2548  -2.2230  -2.1935  -2.1798  -2.1591  -2.1493  -2.1209  -2.1014
    -2.0885  -2.0852  -2.0232  -1.9949  -1.9096  -1.8438  -1.7627  -1.7101
    -1.6791  -1.6768  -1.6406  -1.6020  -1.5943  -1.5791  -1.4330  -1.3835
    -1.2611  -1.2475  -1.2285  -1.1521  -1.1360  -1.0989  -1.0962  -1.0300
    -0.9436  -0.9390  -0.9168  -0.8882  -0.8010  -0.7328  -0.6918  -0.6563
    -0.6121  -0.5820  -0.5082  -0.4948  -0.4840  -0.4215  -0.3809  -0.2960
    -0.2823  -0.2633  -0.2121  -0.1830  -0.1478  -0.0793  -0.0614  -0.0381
     0.0427   0.1091   0.1149   0.3247   0.4871   0.5162   0.5327   0.6174
     0.6644   0.7731   0.7967   0.8057   0.8478   0.8932   0.9805   1.0065
     1.0083   1.0859   1.8347   1.8354   1.9228   1.9334   3.5665   3.8799
     3.9445   3.9678   3.9927   4.1079   4.1105   4.1298   4.1383   4.2810
     4.2994

     the Fermi energy is     3.6127 ev

!    total energy              =   -2964.99531084 Ry
     estimated scf accuracy    <       0.00000003 Ry
     smearing contrib. (-TS)   =      -0.03110181 Ry
     internal energy E=F+TS    =   -2964.96420903 Ry

     The total energy is F=E-TS. E is the sum of the following terms:
     one-electron contribution =  -24341.93865818 Ry
     hartree contribution      =   12264.03869505 Ry
     xc contribution           =    -490.09656137 Ry
     ewald contribution        =    9603.02949050 Ry
     electric field correction =       0.00282498 Ry

     convergence has been achieved in  82 iterations

     Forces acting on atoms (cartesian axes, Ry/au):

     atom    1 type  1   force =    -0.00009792    0.00006854    0.10407803
     atom    2 type  1   force =    -0.00008860    0.00006186    0.10408993
     atom    3 type  2   force =    -0.00030143   -0.00188585    0.10331035
     atom    4 type  2   force =    -0.00015487    0.00151661    0.11462925
     atom    5 type  2   force =    -0.00037708    0.00124475   -0.17935601
     atom    6 type  2   force =    -0.00016873   -0.00076679   -0.17973647
     atom    7 type  1   force =    -0.06940951    0.00065572   -0.02929863
     atom    8 type  1   force =    -0.06895858   -0.00122743   -0.02934761
     atom    9 type  1   force =     0.06905266    0.00114721   -0.02935961
     atom   10 type  1   force =     0.06868719   -0.00081022   -0.02942008
     atom   11 type  1   force =     0.00041954    0.00056707    0.04679804
     atom   12 type  1   force =     0.00063117    0.00080632    0.04850381
     atom   13 type  1   force =     0.00026546   -0.00568203   -0.03326563
     atom   14 type  1   force =     0.00033138    0.00339489   -0.02639957
     atom   15 type  2   force =    -0.00010462   -0.00001385    0.00040036
     atom   16 type  2   force =     0.00001618    0.00002671    0.00051594
     atom   17 type  2   force =    -0.00002266    0.00012895    0.00041874
     atom   18 type  2   force =    -0.00006519   -0.00033245    0.00008131
     atom   19 type  1   force =    -0.01806343   -0.00015697    0.00403681
     atom   20 type  1   force =    -0.01683846    0.00147708    0.00328648
     atom   21 type  1   force =     0.01933382   -0.00136810    0.00448390
     atom   22 type  1   force =     0.01790073    0.00116197    0.00356024
     atom   23 type  1   force =     0.00001770    0.00002797   -0.00013399
     atom   24 type  1   force =    -0.00005338   -0.00001000   -0.00007847
     atom   25 type  1   force =    -0.00004947    0.00000821   -0.00059472
     atom   26 type  1   force =    -0.00023266    0.00014341   -0.00067021
     atom   27 type  2   force =     0.00004599    0.00015018   -0.00041966
     atom   28 type  2   force =     0.00023587    0.00001523   -0.00007964
     atom   29 type  2   force =     0.00022297    0.00001574   -0.00019825
     atom   30 type  2   force =    -0.00008358    0.00020522    0.00020716
     atom   31 type  1   force =    -0.00063436   -0.00024149    0.00053329
     atom   32 type  1   force =    -0.00054591    0.00032231    0.00056226
     atom   33 type  1   force =     0.00038569   -0.00014315    0.00034851
     atom   34 type  1   force =     0.00030877    0.00018944    0.00037725
     atom   35 type  1   force =    -0.00015309    0.00000825    0.00020012
     atom   36 type  1   force =    -0.00009421    0.00001013   -0.00017423
     atom   37 type  1   force =    -0.00036001    0.00000958   -0.00022543
     atom   38 type  1   force =    -0.00050523    0.00025957   -0.00005661
     atom   39 type  2   force =    -0.00009806   -0.00007799    0.00135521
     atom   40 type  2   force =     0.00025998    0.00021759   -0.00139583
     atom   41 type  2   force =    -0.00036481   -0.00086766   -0.00054527
     atom   42 type  2   force =    -0.00033364    0.00086663   -0.00040815
     atom   43 type  1   force =    -0.00002689    0.00019768    0.00024733
     atom   44 type  1   force =    -0.00008263   -0.00006749    0.00004454
     atom   45 type  1   force =    -0.00040733   -0.00028919    0.00000949
     atom   46 type  1   force =    -0.00045614    0.00045707    0.00016698
     atom   47 type  1   force =    -0.00000149   -0.00018840    0.00012281
     atom   48 type  1   force =    -0.00023517    0.00012156    0.00071687
     atom   49 type  3   force =     0.00022236   -0.00055196    0.00018481
     atom   50 type  4   force =     0.00048125   -0.00115408    0.00043750
     atom   51 type  4   force =     0.00037042   -0.00027775   -0.00062935
     atom   52 type  1   force =     0.00975827    0.00058706    0.00756964
     atom   53 type  4   force =    -0.00811142    0.00005409   -0.00740925
     atom   54 type  4   force =    -0.00146683   -0.00001178   -0.00207428

     Total force =     0.374871     Total SCF correction =     0.000444
  @ DRIVER MODE: Message from server: STATUS
  @ DRIVER MODE: Message from server: GETFORCE
  @ DRIVER MODE: Returning v,forces,stress,ensemble

     Writing output data file ./calc.save/
  @ DRIVER MODE: Message from server: EXIT
  @ DRIVE MODE: Exiting

     General routines

     Parallel routines

   This run was terminated on:   3:59:36  16Sep2021

   JOB DONE.