     Program PWSCF v.6.7GPU starts on 16Sep2021 at  0: 2:32

     R & G space division:  proc/nbgrp/npool/nimage =      10
     Reading input from /storage/home/hcoda1/3/ntian30/research/carbon/CxH_vib/H2O_calc/ads_slab/CH2N2H2O_b/out_0026/pw.inp
Warning: card &CELL ignored
Warning: card   CELL_DYNAMICS='IPI', ignored
Warning: card / ignored

     Current dimensions of program PWSCF are:
     Max number of different atomic species (ntypx) = 10
     Max number of k-points (npk) =  40000
     Max angular momentum in pseudopotentials (lmaxx) =  3
     Presently no symmetry can be used with electric field

     Message from routine cell_base_init:
     DEPRECATED: use true lattice parameter, not A to a.u. conversion factor

     IMPORTANT: XC functional enforced from input :
     Exchange-correlation= BEEF-VDW
                           (   1   4  43  14   2   0   0)
     Any further DFT definition will be discarded
     Please, verify this is what you really want

  @ DRIVER MODE: Connecting to
 qe_1139763_2852605.sched-torque.pace.gatech.eduezdnqrzs_scratch
  using UNIX socket
  @ DRIVER MODE: Message from server: STATUS
  @ DRIVER MODE: Message from server: INIT
  @ DRIVER MODE: Receiving replica           0          -1
  @ DRIVER MODE: Receiving encoded integer          25
  @ DRIVER MODE:  SCF:  T  FORCE:  T  STRESS:  F  VC:  F  ENSEMBLE:  F
  @ DRIVER MODE:  SCF:  T  FORCE:  T  STRESS:  F  VC:  F  ENSEMBLE:  F

     Using Slab Decomposition

     bravais-lattice index     =            0
     lattice parameter (alat)  =       1.8897  a.u.
     unit-cell volume          =    6658.9804 (a.u.)^3
     number of atoms/cell      =           55
     number of atomic types    =            5
     number of electrons       =       402.00
     number of Kohn-Sham states=          211
     kinetic-energy cutoff     =      29.3995  Ry
     charge density cutoff     =     293.9946  Ry
     scf convergence threshold =      7.3E-08
     mixing beta               =       0.0500
     number of iterations used =            8  plain     mixing
     Exchange-correlation= BEEF-VDW
                           (   1   4  43  14   2   0   0)

     celldm(1)=   1.889726  celldm(2)=   0.000000  celldm(3)=   0.000000
     celldm(4)=   0.000000  celldm(5)=   0.000000  celldm(6)=   0.000000

     crystal axes: (cart. coord. in units of alat)
               a(1) = (   6.579727   0.000000   0.000000 )
               a(2) = (  -0.000775   5.961596   0.000000 )
               a(3) = (   0.000000   0.000000  25.155947 )

     reciprocal axes: (cart. coord. in units 2 pi/alat)
               b(1) = (  0.151982  0.000020  0.000000 )
               b(2) = (  0.000000  0.167740  0.000000 )
               b(3) = (  0.000000  0.000000  0.039752 )

     PseudoPot. # 1 for Ti read from file:
     /storage/coda1/p-amedford6/0/shared/rich_project_chbe-medford/medford-share/data/pseudos_module/espresso/nninc/pbe/van/Ti.UPF
     MD5 check sum: 8e4df49b7f0d34bbd5052bf3f5ea0213
     Pseudo is Ultrasoft, Zval = 12.0
     Generated by new atomic code, or converted to UPF format
     Using radial grid of  851 points,  6 beta functions with:
                l(1) =   0
                l(2) =   0
                l(3) =   1
                l(4) =   1
                l(5) =   2
                l(6) =   2
     Q(r) pseudized with  8 coefficients,  rinner =    1.000   1.000   1.000
                                                       1.000   1.000

     PseudoPot. # 2 for O  read from file:
     /storage/coda1/p-amedford6/0/shared/rich_project_chbe-medford/medford-share/data/pseudos_module/espresso/nninc/pbe/van/O.UPF
     MD5 check sum: 78c19812648e8988a0fe644b0f25305e
     Pseudo is Ultrasoft, Zval =  6.0
     Generated by new atomic code, or converted to UPF format
     Using radial grid of  737 points,  4 beta functions with:
                l(1) =   0
                l(2) =   0
                l(3) =   1
                l(4) =   1
     Q(r) pseudized with  8 coefficients,  rinner =    0.800   0.800   0.800

     PseudoPot. # 3 for N  read from file:
     /storage/coda1/p-amedford6/0/shared/rich_project_chbe-medford/medford-share/data/pseudos_module/espresso/nninc/pbe/van/N.UPF
     MD5 check sum: 90d10febe142ad51ac9d5be1deb811c4
     Pseudo is Ultrasoft, Zval =  5.0
     Generated by new atomic code, or converted to UPF format
     Using radial grid of  729 points,  4 beta functions with:
                l(1) =   0
                l(2) =   0
                l(3) =   1
                l(4) =   1
     Q(r) pseudized with  8 coefficients,  rinner =    0.800   0.800   0.800

     PseudoPot. # 4 for C  read from file:
     /storage/coda1/p-amedford6/0/shared/rich_project_chbe-medford/medford-share/data/pseudos_module/espresso/nninc/pbe/van/C.UPF
     MD5 check sum: 1a69bf6b8db32088f5b2163dbdb77a27
     Pseudo is Ultrasoft, Zval =  4.0
     Generated by new atomic code, or converted to UPF format
     Using radial grid of  721 points,  4 beta functions with:
                l(1) =   0
                l(2) =   0
                l(3) =   1
                l(4) =   1
     Q(r) pseudized with  8 coefficients,  rinner =    0.800   0.800   0.800

     PseudoPot. # 5 for H  read from file:
     /storage/coda1/p-amedford6/0/shared/rich_project_chbe-medford/medford-share/data/pseudos_module/espresso/nninc/pbe/van/H.UPF
     MD5 check sum: b5ee9d7bfd3a09ee7748110bda690ff7
     Pseudo is Ultrasoft, Zval =  1.0
     Generated by new atomic code, or converted to UPF format
     Using radial grid of  615 points,  1 beta functions with:
                l(1) =   0
     Q(r) pseudized with  8 coefficients,  rinner =    0.800

     atomic species   valence    mass     pseudopotential
        Ti1           12.00    47.86700     Ti( 1.00)
        O1             6.00    15.99900     O ( 1.00)
        N1             5.00    14.00700     N ( 1.00)
        C1             4.00    12.01100     C ( 1.00)
        H1             1.00     1.00800     H ( 1.00)

     No symmetry found

   Cartesian axes

     site n.     atom                  positions (alat units)
         1           Ti1 tau(   1) = (   0.0004258   2.9801865   6.0000000  )
         2           Ti1 tau(   2) = (   3.2906075   1.4906267   6.0002472  )
         3           O1  tau(   3) = (   0.0006271   0.0005054   7.9858123  )
         4           O1  tau(   4) = (   3.2906025   0.0005020   7.3038282  )
         5           O1  tau(   5) = (   4.5942328   1.4918067   9.2879030  )
         6           O1  tau(   6) = (   1.9868534   1.4903216   9.2879459  )
         7           Ti1 tau(   7) = (   3.2907910   2.8959150   9.1758416  )
         8           Ti1 tau(   8) = (   0.0015273   1.4827037   9.2680791  )
         9           O1  tau(   9) = (   3.2934429   5.9466490  11.3040654  )
        10           O1  tau(  10) = (   0.0116148   5.9584955  10.6183126  )
        11           O1  tau(  11) = (   1.2867109   1.4782735  12.6190062  )
        12           O1  tau(  12) = (   5.2776945   1.4764076  12.5976694  )
        13           Ti1 tau(  13) = (   0.0846880   2.9559742  12.7004455  )
        14           Ti1 tau(  14) = (   3.4192946   1.4610250  12.4797112  )
        15           O1  tau(  15) = (   0.0040618   5.9510889  14.6015872  )
        16           O1  tau(  16) = (   3.2972055   5.9566395  13.8969661  )
        17           O1  tau(  17) = (   4.5327346   1.5242580  16.0225792  )
        18           O1  tau(  18) = (   2.0474321   1.5095568  15.9818283  )
        19           Ti1 tau(  19) = (   3.2830006   2.9631064  15.6531525  )
        20           Ti1 tau(  20) = (   6.5418150   1.5417905  15.9635021  )
        21           O1  tau(  21) = (   3.2904802   0.0005063   4.7018136  )
        22           O1  tau(  22) = (   0.0063621   0.0138944  17.1794403  )
        23           O1  tau(  23) = (   1.3043587   1.4918075   6.0039043  )
        24           O1  tau(  24) = (   5.2767064   1.4903225   6.0039473  )
        25           Ti1 tau(  25) = (   0.0000382   5.9609847   6.0000000  )
        26           Ti1 tau(  26) = (   3.2902200   4.4714249   6.0002472  )
        27           O1  tau(  27) = (   0.0002396   2.9813036   7.9858123  )
        28           O1  tau(  28) = (   3.2902150   2.9813002   7.3038282  )
        29           O1  tau(  29) = (   4.5938453   4.4726049   9.2879030  )
        30           O1  tau(  30) = (   1.9864658   4.4711199   9.2879459  )
        31           Ti1 tau(  31) = (   3.2891106   5.8743827   9.1763621  )
        32           Ti1 tau(  32) = (   0.0006254   4.4649316   9.2693709  )
        33           O1  tau(  33) = (   3.2987291   2.9703105  11.3060640  )
        34           O1  tau(  34) = (   0.0092240   2.9805883  10.6323155  )
        35           O1  tau(  35) = (   1.2872851   4.4534926  12.6272766  )
        36           O1  tau(  36) = (   5.2800973   4.4624318  12.6062822  )
        37           Ti1 tau(  37) = (   0.1009857   5.9355968  12.6779778  )
        38           Ti1 tau(  38) = (   3.4194502   4.4581092  12.4739500  )
        39           O1  tau(  39) = (   6.5579784   2.9468049  14.6267102  )
        40           O1  tau(  40) = (   3.2950467   2.9662764  13.8528306  )
        41           O1  tau(  41) = (   4.5369278   4.4531499  15.9976687  )
        42           O1  tau(  42) = (   2.0426393   4.4597293  15.9709435  )
        43           Ti1 tau(  43) = (   3.2485613   5.9322867  15.7552632  )
        44           Ti1 tau(  44) = (   6.5504849   4.5932964  16.0494500  )
        45           O1  tau(  45) = (   3.2900926   2.9813045   4.7018136  )
        46           O1  tau(  46) = (   1.3039711   4.4726057   6.0039043  )
        47           O1  tau(  47) = (   5.2763189   4.4711207   6.0039473  )
        48           N1  tau(  48) = (   0.6156314   2.9572148  18.5116157  )
        49           N1  tau(  49) = (   0.0870375   2.9660652  17.3203775  )
        50           C1  tau(  50) = (   6.5561155   3.1780822  19.6039678  )
        51           H1  tau(  51) = (   5.4868456   3.3930584  19.6151425  )
        52           H1  tau(  52) = (   0.5444647   3.1546629  20.5288580  )
        53           O1  tau(  53) = (   3.2552377   5.9566958  18.1335742  )
        54           H1  tau(  54) = (   4.0211122   0.5273114  18.4085372  )
        55           H1  tau(  55) = (   2.4596908   0.4732500  18.4230009  )

     number of k points=    10  Fermi-Dirac smearing, width (Ry)=  0.0073
                       cart. coord. in units 2pi/alat
        k(    1) = (   0.0000000   0.0000000   0.0000000), wk =   0.1250000
        k(    2) = (   0.0000000   0.0419351   0.0000000), wk =   0.2500000
        k(    3) = (   0.0000000  -0.0838702   0.0000000), wk =   0.1250000
        k(    4) = (   0.0379955   0.0000049   0.0000000), wk =   0.2500000
        k(    5) = (   0.0379955   0.0419400   0.0000000), wk =   0.2500000
        k(    6) = (   0.0379955  -0.0838652   0.0000000), wk =   0.2500000
        k(    7) = (   0.0379955  -0.0419301   0.0000000), wk =   0.2500000
        k(    8) = (  -0.0759910  -0.0000099   0.0000000), wk =   0.1250000
        k(    9) = (  -0.0759910   0.0419252   0.0000000), wk =   0.2500000
        k(   10) = (  -0.0759910  -0.0838800   0.0000000), wk =   0.1250000

     Initial potential from superposition of free atoms

     starting charge  385.99915, renormalised to  402.00000

     negative rho (up, down):  1.462E-02 0.000E+00

     %%%%%%%%%%%%%%%%%%%%%%%%%%%%%%%%%%%%%%%%%%%%%%%%%%%%%%%%%%%%%%%%%%%%%%%%
     %                                                                      %
     % You are using vdW-DF, which was implemented by the Thonhauser group. %
     % Please cite the following two papers that made this development      %
     % possible and the two reviews that describe the various versions:     %
     %                                                                      %
     %   T. Thonhauser et al., PRL 115, 136402 (2015).                      %
     %   T. Thonhauser et al., PRB 76, 125112 (2007).                       %
     %   K. Berland et al., Rep. Prog. Phys. 78, 066501 (2015).             %
     %   D.C. Langreth et al., J. Phys.: Condens. Matter 21, 084203 (2009). %
     %                                                                      %
     %                                                                      %
     % If you are calculating the stress with vdW-DF, please also cite:     %
     %                                                                      %
     %   R. Sabatini et al., J. Phys.: Condens. Matter 24, 424209 (2012).   %
     %                                                                      %
     %%%%%%%%%%%%%%%%%%%%%%%%%%%%%%%%%%%%%%%%%%%%%%%%%%%%%%%%%%%%%%%%%%%%%%%%

     Adding external electric field

     Computed dipole along edir(3) :
        Dipole              -11.9608 Ry au,        -30.4013 Debye
        Dipole field         -0.0226 Ry au,

        Potential amp.        2.0924 Ry
        Total length         46.3494 bohr

     Starting wfcs are  304 atomic wfcs
  @ DRIVER MODE: Message from server: STATUS
  @ DRIVER MODE: Message from server: POSDATA
  @ DRIVER MODE: Reading and sharing cell
  @ DRIVER MODE: Reading and sharing positions
  @ DRIVER MODE: Received positions

     Self-consistent Calculation

     iteration #  1     ecut=    29.40 Ry     beta= 0.05
     Davidson diagonalization with overlap
     c_bands:  3 eigenvalues not converged
     c_bands:  1 eigenvalues not converged
     c_bands:  5 eigenvalues not converged
     c_bands:  3 eigenvalues not converged
     c_bands:  3 eigenvalues not converged
     c_bands:  2 eigenvalues not converged
     c_bands:  4 eigenvalues not converged
     c_bands:  4 eigenvalues not converged
     c_bands:  3 eigenvalues not converged
     ethr =  1.00E-05,  avg # of iterations = 21.6

[...]

     total energy              =   -2415.34679028 Ry
     estimated scf accuracy    <    6284.05553039 Ry

     iteration #  2     ecut=    29.40 Ry     beta= 0.05
     Davidson diagonalization with overlap
     ethr =  1.00E-02,  avg # of iterations = 23.7

[...]

     iteration # 68     ecut=    29.40 Ry     beta= 0.05
     Davidson diagonalization with overlap
     c_bands:  1 eigenvalues not converged
     ethr =  6.10E-08,  avg # of iterations =  7.4

[...]

     total energy              =   -2972.73818626 Ry
     estimated scf accuracy    <       0.00000009 Ry

     iteration # 89     ecut=    29.40 Ry     beta= 0.05
     Davidson diagonalization with overlap
     ethr =  2.23E-11,  avg # of iterations =  6.0

     negative rho (up, down):  1.528E-02 0.000E+00

     Adding external electric field

     Computed dipole along edir(3) :
        Dipole                0.6715 Ry au,          1.7068 Debye
        Dipole field          0.0013 Ry au,

        Potential amp.       -0.1175 Ry
        Total length         46.3494 bohr

     End of self-consistent calculation

          k = 0.0000 0.0000 0.0000 ( 18029 PWs)   bands (ev):

   -56.1197 -56.0859 -55.6572 -55.6234 -55.5648 -55.5403 -55.5305 -55.5048
   -55.4199 -55.3710 -55.3304 -55.2619 -54.9364 -54.9025 -54.8612 -54.8218
   -32.5715 -32.4109 -32.3833 -32.2799 -32.1954 -32.1870 -32.1245 -32.0731
   -32.0511 -31.9004 -31.8774 -31.8733 -31.8414 -31.8399 -31.8217 -31.7877
   -31.7776 -31.7746 -31.7608 -31.7594 -31.7541 -31.7198 -31.7179 -31.7107
   -31.6765 -31.6744 -31.6608 -31.6498 -31.6302 -31.5989 -31.5411 -31.5389
   -31.5093 -31.4826 -31.4546 -31.4220 -31.3923 -31.3365 -31.2655 -31.2421
   -31.1540 -31.1074 -31.0742 -31.0687 -31.0580 -31.0347 -30.9576 -30.9476
   -18.6835 -17.4857 -16.4406 -16.2215 -15.9862 -15.7475 -15.6963 -15.5803
   -15.5666 -15.5589 -15.4459 -15.4285 -15.3718 -15.2657 -15.1957 -15.1593
   -15.1059 -15.0975 -15.0737 -14.9804 -14.9659 -14.9496 -14.9381 -14.8633
   -14.8202 -14.7997 -14.6932 -14.6256 -14.5603 -14.5312 -14.2359 -13.4364
   -13.3231 -11.6612  -6.5312  -6.4413  -4.4185  -3.9411  -3.9164  -3.7212
    -3.5599  -3.4582  -3.3294  -3.3128  -3.1846  -3.0764  -2.9454  -2.8857
    -2.8778  -2.8067  -2.7823  -2.7751  -2.6399  -2.6010  -2.5586  -2.5353
    -2.5050  -2.4282  -2.4153  -2.3595  -2.3191  -2.2858  -2.1802  -2.1412
    -2.1017  -2.0864  -2.0622  -2.0174  -1.9810  -1.9592  -1.9498  -1.9357
    -1.8969  -1.8052  -1.7552  -1.6564  -1.6006  -1.5002  -1.4562  -1.4405
    -1.3744  -1.2836  -1.1644  -1.1514  -1.0804  -1.0403  -0.9939  -0.9666
    -0.8930  -0.8837  -0.8134  -0.7739  -0.7002  -0.6497  -0.6175  -0.5941
    -0.5712  -0.4752  -0.4259  -0.3472  -0.2890  -0.2331  -0.2119  -0.1188
    -0.0899  -0.0576  -0.0331   0.0243   0.0667   0.0839   0.1042   0.1294
     0.1624   0.1864   0.3065   0.3597   0.3730   0.4063   0.4308   0.5411
     0.6019   0.6772   0.7365   0.7775   0.8801   0.8961   0.9406   1.0662
     1.0789   1.0859   1.1445   1.3037   1.6184   1.6441   1.6851   1.7777
     2.9509   3.1087   3.2252   3.4470   3.5454   3.5801   3.8451   3.9519
     3.9893   4.0007   4.0208

[...]

          k = 0.0380-0.0419 0.0000 ( 17876 PWs)   bands (ev):

[...]

          k =-0.0760-0.0000 0.0000 ( 17886 PWs)   bands (ev):

[...]

          k =-0.0760-0.0839 0.0000 ( 17948 PWs)   bands (ev):

   -56.1028 -56.1027 -55.6424 -55.6379 -55.5507 -55.5446 -55.5240 -55.5209
   -55.4179 -55.3612 -55.3402 -55.2637 -54.9195 -54.9193 -54.8514 -54.8316
   -32.3966 -32.3962 -32.3875 -32.3873 -32.2317 -32.2315 -31.9492 -31.9439
   -31.8943 -31.8929 -31.8902 -31.8696 -31.8329 -31.8280 -31.8093 -31.8080
   -31.7918 -31.7881 -31.7655 -31.7597 -31.7565 -31.7511 -31.7507 -31.7448
   -31.7113 -31.6722 -31.6667 -31.6598 -31.6345 -31.6231 -31.5875 -31.5734
   -31.5660 -31.5301 -31.5153 -31.4628 -31.2733 -31.2550 -31.2549 -31.1592
   -31.1505 -31.1503 -31.1115 -31.1114 -31.0668 -31.0542 -31.0455 -31.0273
   -18.6825 -17.4800 -15.8156 -15.8102 -15.7435 -15.7396 -15.6704 -15.6079
   -15.5078 -15.5040 -15.4609 -15.3731 -15.2953 -15.2764 -15.2064 -15.1999
   -15.1981 -15.1893 -15.1208 -15.1104 -15.0753 -15.0523 -15.0271 -15.0236
   -14.9950 -14.9718 -14.7586 -14.7020 -14.6358 -14.5603 -14.4105 -13.4259
   -13.4258 -11.6662  -6.5145  -6.4477  -4.3733  -3.9073  -3.1334  -3.0180
    -2.9363  -2.9247  -2.8993  -2.8046  -2.7829  -2.7369  -2.7107  -2.6899
    -2.6150  -2.6034  -2.5516  -2.5459  -2.5126  -2.4955  -2.4418  -2.4320
    -2.4216  -2.4166  -2.3677  -2.3324  -2.3285  -2.3179  -2.2959  -2.2273
    -2.1645  -2.1265  -2.0886  -2.0733  -2.0709  -2.0137  -1.9876  -1.9547
    -1.9024  -1.8985  -1.8646  -1.8135  -1.6843  -1.6737  -1.5424  -1.4708
    -1.4522  -1.3732  -1.3233  -1.2901  -1.2174  -1.1663  -1.1369  -1.0296
    -1.0078  -0.9765  -0.9623  -0.9273  -0.9226  -0.8823  -0.7749  -0.7539
    -0.7159  -0.7127  -0.6343  -0.6039  -0.5506  -0.5299  -0.5177  -0.4753
    -0.4569  -0.3742  -0.3504  -0.2944  -0.2402  -0.1976  -0.1467  -0.0951
    -0.0121   0.0540   0.1079   0.1992   0.2019   0.2139   0.4196   0.4252
     0.5246   0.6076   0.7339   0.7596   0.7737   0.8779   0.9179   0.9413
     0.9687   1.1329   1.1747   1.4698   1.4715   1.5014   1.5017   1.7265
     2.8913   3.6424   3.6426   3.6785   3.6798   3.9119   3.9163   3.9642
     3.9703   4.0261   4.0501

     the Fermi energy is     3.0503 ev

!    total energy              =   -2972.73819313 Ry
     estimated scf accuracy    <       0.00000003 Ry
     smearing contrib. (-TS)   =      -0.01267500 Ry
     internal energy E=F+TS    =   -2972.72551813 Ry

     The total energy is F=E-TS. E is the sum of the following terms:
     one-electron contribution =  -24071.30251584 Ry
     hartree contribution      =   12129.25691445 Ry
     xc contribution           =    -493.17377849 Ry
     ewald contribution        =    9462.49301078 Ry
     electric field correction =       0.00085097 Ry

     convergence has been achieved in  89 iterations

     Forces acting on atoms (cartesian axes, Ry/au):

     atom    1 type  1   force =     0.00012867   -0.00029962    0.10877507
     atom    2 type  1   force =    -0.00010871   -0.00040821   -0.16776145
     atom    3 type  2   force =    -0.00015633   -0.00000899   -0.04387511
     atom    4 type  2   force =     0.00005024   -0.00074952    0.03935127
     atom    5 type  2   force =    -0.01328763    0.00016537   -0.00457818
     atom    6 type  2   force =     0.01488562    0.00103767   -0.00540469
     atom    7 type  1   force =    -0.00093498   -0.00251824    0.01167459
     atom    8 type  1   force =     0.00124662    0.00154276    0.07745870
     atom    9 type  2   force =    -0.00005679   -0.00014853   -0.00024554
     atom   10 type  2   force =    -0.00114983    0.00038978   -0.05117159
     atom   11 type  2   force =    -0.00006269    0.00036520    0.00010823
     atom   12 type  2   force =    -0.00001371    0.00024857    0.00007006
     atom   13 type  1   force =     0.00046064    0.00000934    0.00005901
     atom   14 type  1   force =    -0.00024378   -0.00007892    0.00017035
     atom   15 type  2   force =    -0.00020248   -0.00012924    0.00040897
     atom   16 type  2   force =     0.00013510    0.00001756   -0.00006760
     atom   17 type  2   force =    -0.00074215    0.00035205   -0.00013840
     atom   18 type  2   force =     0.00036058    0.00029942   -0.00009672
     atom   19 type  1   force =     0.00036204   -0.00016309    0.00007441
     atom   20 type  1   force =    -0.00013980    0.00050247   -0.00012088
     atom   21 type  2   force =     0.00007907    0.00005662    0.10124293
     atom   22 type  2   force =    -0.00009841   -0.00004538    0.00010395
     atom   23 type  2   force =    -0.07508880   -0.00002088   -0.03017046
     atom   24 type  2   force =     0.07506266    0.00043597   -0.03016782
     atom   25 type  1   force =     0.00020834   -0.00028356    0.10842584
     atom   26 type  1   force =    -0.00009803   -0.00045149   -0.16778000
     atom   27 type  2   force =    -0.00002064   -0.00025193   -0.04288030
     atom   28 type  2   force =     0.00011578   -0.00047161    0.03870910
     atom   29 type  2   force =    -0.01360632    0.00094474   -0.00480856
     atom   30 type  2   force =     0.01513770    0.00120832   -0.00568475
     atom   31 type  1   force =    -0.00125496    0.00050761    0.00737329
     atom   32 type  1   force =     0.00132842   -0.00408367    0.07789961
     atom   33 type  2   force =    -0.00005952    0.00012521   -0.00027056
     atom   34 type  2   force =    -0.00137933    0.00034843   -0.05722732
     atom   35 type  2   force =     0.00000284   -0.00050108   -0.00003258
     atom   36 type  2   force =    -0.00036158   -0.00022409   -0.00013088
     atom   37 type  1   force =    -0.00006106   -0.00002302   -0.00024715
     atom   38 type  1   force =    -0.00020631    0.00021288   -0.00010429
     atom   39 type  2   force =     0.00000457   -0.00001969   -0.00049594
     atom   40 type  2   force =    -0.00001325    0.00028849    0.00022029
     atom   41 type  2   force =    -0.00004611   -0.00011120    0.00005361
     atom   42 type  2   force =    -0.00029713    0.00004669   -0.00004884
     atom   43 type  1   force =     0.00029133    0.00076139    0.00015387
     atom   44 type  1   force =    -0.00006292    0.00001948    0.00012943
     atom   45 type  2   force =     0.00006637    0.00003749    0.10121260
     atom   46 type  2   force =    -0.07507699    0.00003920   -0.03013297
     atom   47 type  2   force =     0.07505229    0.00047126   -0.03014433
     atom   48 type  3   force =    -0.00032634    0.00012477   -0.00041596
     atom   49 type  3   force =     0.00010861    0.00009505   -0.00016037
     atom   50 type  4   force =     0.00508643   -0.00029705    0.00495678
     atom   51 type  5   force =     0.00049999    0.00051749    0.00055362
     atom   52 type  5   force =    -0.00525025    0.00022094   -0.00478932
     atom   53 type  2   force =     0.00042410    0.00057796    0.00038068
     atom   54 type  5   force =    -0.00083171   -0.00090132   -0.00018393
     atom   55 type  5   force =     0.00014053    0.00022013   -0.00022976

     Total force =     0.390622     Total SCF correction =     0.000496
  @ DRIVER MODE: Message from server: STATUS
  @ DRIVER MODE: Message from server: GETFORCE
  @ DRIVER MODE: Returning v,forces,stress,ensemble

     Writing output data file ./calc.save/
  @ DRIVER MODE: Message from server: EXIT
  @ DRIVE MODE: Exiting

     General routines

     Parallel routines

   This run was terminated on:   0:27: 8  16Sep2021

   JOB DONE.