     Program PWSCF v.6.7GPU starts on 15Sep2021 at 23:23:19

     R & G space division:  proc/nbgrp/npool/nimage =      10
     Reading input from /storage/home/hcoda1/3/ntian30/research/carbon/CxH_vib/H2O_calc/ads_slab/CH3N2HH2O_a/out_0024/pw.inp
Warning: card &CELL ignored
Warning: card   CELL_DYNAMICS='IPI', ignored
Warning: card / ignored

     Current dimensions of program PWSCF are:
     Max number of different atomic species (ntypx) = 10
     Max number of k-points (npk) =  40000
     Max angular momentum in pseudopotentials (lmaxx) =  3
     Presently no symmetry can be used with electric field

     Message from routine cell_base_init:
     DEPRECATED: use true lattice parameter, not A to a.u. conversion factor

     IMPORTANT: XC functional enforced from input :
     Exchange-correlation= BEEF-VDW
                           (   1   4  43  14   2   0   0)
     Any further DFT definition will be discarded
     Please, verify this is what you really want

  @ DRIVER MODE: Connecting to
 qe_1139763_2852617.sched-torque.pace.gatech.edufncqpl2t_scratch
  using UNIX socket
  @ DRIVER MODE: Message from server: STATUS
  @ DRIVER MODE: Message from server: INIT
  @ DRIVER MODE: Receiving replica           0          -1
  @ DRIVER MODE: Receiving encoded integer          25
  @ DRIVER MODE:  SCF:  T  FORCE:  T  STRESS:  F  VC:  F  ENSEMBLE:  F
  @ DRIVER MODE:  SCF:  T  FORCE:  T  STRESS:  F  VC:  F  ENSEMBLE:  F

     Using Slab Decomposition

     bravais-lattice index     =            0
     lattice parameter (alat)  =       1.8897  a.u.
     unit-cell volume          =    6658.9804 (a.u.)^3
     number of atoms/cell      =           57
     number of atomic types    =            5
     number of electrons       =       404.00
     number of Kohn-Sham states=          212
     kinetic-energy cutoff     =      29.3995  Ry
     charge density cutoff     =     293.9946  Ry
     scf convergence threshold =      7.3E-08
     mixing beta               =       0.0500
     number of iterations used =            8  plain     mixing
     Exchange-correlation= BEEF-VDW
                           (   1   4  43  14   2   0   0)

     celldm(1)=   1.889726  celldm(2)=   0.000000  celldm(3)=   0.000000
     celldm(4)=   0.000000  celldm(5)=   0.000000  celldm(6)=   0.000000

     crystal axes: (cart. coord. in units of alat)
               a(1) = (   6.579727   0.000000   0.000000 )
               a(2) = (  -0.000775   5.961596   0.000000 )
               a(3) = (   0.000000   0.000000  25.155947 )

     reciprocal axes: (cart. coord. in units 2 pi/alat)
               b(1) = (  0.151982  0.000020  0.000000 )
               b(2) = (  0.000000  0.167740  0.000000 )
               b(3) = (  0.000000  0.000000  0.039752 )

     PseudoPot. # 1 for Ti read from file:
     /storage/coda1/p-amedford6/0/shared/rich_project_chbe-medford/medford-share/data/pseudos_module/espresso/nninc/pbe/van/Ti.UPF
     MD5 check sum: 8e4df49b7f0d34bbd5052bf3f5ea0213
     Pseudo is Ultrasoft, Zval = 12.0
     Generated by new atomic code, or converted to UPF format
     Using radial grid of  851 points,  6 beta functions with:
                l(1) =   0
                l(2) =   0
                l(3) =   1
                l(4) =   1
                l(5) =   2
                l(6) =   2
     Q(r) pseudized with  8 coefficients,  rinner =    1.000   1.000   1.000
                                                       1.000   1.000

     PseudoPot. # 2 for O  read from file:
     /storage/coda1/p-amedford6/0/shared/rich_project_chbe-medford/medford-share/data/pseudos_module/espresso/nninc/pbe/van/O.UPF
     MD5 check sum: 78c19812648e8988a0fe644b0f25305e
     Pseudo is Ultrasoft, Zval =  6.0
     Generated by new atomic code, or converted to UPF format
     Using radial grid of  737 points,  4 beta functions with:
                l(1) =   0
                l(2) =   0
                l(3) =   1
                l(4) =   1
     Q(r) pseudized with  8 coefficients,  rinner =    0.800   0.800   0.800

     PseudoPot. # 3 for N  read from file:
     /storage/coda1/p-amedford6/0/shared/rich_project_chbe-medford/medford-share/data/pseudos_module/espresso/nninc/pbe/van/N.UPF
     MD5 check sum: 90d10febe142ad51ac9d5be1deb811c4
     Pseudo is Ultrasoft, Zval =  5.0
     Generated by new atomic code, or converted to UPF format
     Using radial grid of  729 points,  4 beta functions with:
                l(1) =   0
                l(2) =   0
                l(3) =   1
                l(4) =   1
     Q(r) pseudized with  8 coefficients,  rinner =    0.800   0.800   0.800

     PseudoPot. # 4 for C  read from file:
     /storage/coda1/p-amedford6/0/shared/rich_project_chbe-medford/medford-share/data/pseudos_module/espresso/nninc/pbe/van/C.UPF
     MD5 check sum: 1a69bf6b8db32088f5b2163dbdb77a27
     Pseudo is Ultrasoft, Zval =  4.0
     Generated by new atomic code, or converted to UPF format
     Using radial grid of  721 points,  4 beta functions with:
                l(1) =   0
                l(2) =   0
                l(3) =   1
                l(4) =   1
     Q(r) pseudized with  8 coefficients,  rinner =    0.800   0.800   0.800

     PseudoPot. # 5 for H  read from file:
     /storage/coda1/p-amedford6/0/shared/rich_project_chbe-medford/medford-share/data/pseudos_module/espresso/nninc/pbe/van/H.UPF
     MD5 check sum: b5ee9d7bfd3a09ee7748110bda690ff7
     Pseudo is Ultrasoft, Zval =  1.0
     Generated by new atomic code, or converted to UPF format
     Using radial grid of  615 points,  1 beta functions with:
                l(1) =   0
     Q(r) pseudized with  8 coefficients,  rinner =    0.800

     atomic species   valence    mass     pseudopotential
        Ti1           12.00    47.86700     Ti( 1.00)
        O1             6.00    15.99900     O ( 1.00)
        N1             5.00    14.00700     N ( 1.00)
        C1             4.00    12.01100     C ( 1.00)
        H1             1.00     1.00800     H ( 1.00)

     No symmetry found

   Cartesian axes

     site n.     atom                  positions (alat units)
         1           Ti1 tau(   1) = (   0.0004258   2.9801865   6.0000000  )
         2           Ti1 tau(   2) = (   3.2906075   1.4906267   6.0002472  )
         3           O1  tau(   3) = (   0.0006271   0.0005054   7.9858123  )
         4           O1  tau(   4) = (   3.2906025   0.0005020   7.3038282  )
         5           O1  tau(   5) = (   4.5942328   1.4918067   9.2879030  )
         6           O1  tau(   6) = (   1.9868534   1.4903216   9.2879459  )
         7           Ti1 tau(   7) = (   3.2907910   2.8959150   9.1758416  )
         8           Ti1 tau(   8) = (   0.0015273   1.4827037   9.2680791  )
         9           O1  tau(   9) = (   3.2846840   0.0164488  11.3171736  )
        10           O1  tau(  10) = (   0.0116148   5.9584955  10.6183126  )
        11           O1  tau(  11) = (   1.2780696   1.4966870  12.6228330  )
        12           O1  tau(  12) = (   5.2671132   1.5021727  12.6038655  )
        13           Ti1 tau(  13) = (   0.0814623   2.9703834  12.6092300  )
        14           Ti1 tau(  14) = (   3.3984034   1.5042134  12.4754612  )
        15           O1  tau(  15) = (   6.5611900   5.9602394  14.6246442  )
        16           O1  tau(  16) = (   3.2847170   0.0117735  13.9091713  )
        17           O1  tau(  17) = (   4.5127615   1.5439160  15.9886145  )
        18           O1  tau(  18) = (   2.0245574   1.5486524  15.9865356  )
        19           Ti1 tau(  19) = (   3.2678410   3.0292036  15.6627315  )
        20           Ti1 tau(  20) = (   6.5437773   1.5790868  15.8036792  )
        21           O1  tau(  21) = (   3.2904802   0.0005063   4.7018136  )
        22           O1  tau(  22) = (   6.5616667   0.0409992  17.2467836  )
        23           O1  tau(  23) = (   1.3043587   1.4918075   6.0039043  )
        24           O1  tau(  24) = (   5.2767064   1.4903225   6.0039473  )
        25           Ti1 tau(  25) = (   0.0000382   5.9609847   6.0000000  )
        26           Ti1 tau(  26) = (   3.2902200   4.4714249   6.0002472  )
        27           O1  tau(  27) = (   0.0002396   2.9813036   7.9858123  )
        28           O1  tau(  28) = (   3.2902150   2.9813002   7.3038282  )
        29           O1  tau(  29) = (   4.5938453   4.4726049   9.2879030  )
        30           O1  tau(  30) = (   1.9864658   4.4711199   9.2879459  )
        31           Ti1 tau(  31) = (   3.2891106   5.8743827   9.1763621  )
        32           Ti1 tau(  32) = (   0.0006254   4.4649316   9.2693709  )
        33           O1  tau(  33) = (   3.2886753   2.9955121  11.3174028  )
        34           O1  tau(  34) = (   0.0092240   2.9805883  10.6323155  )
        35           O1  tau(  35) = (   1.2771457   4.4765085  12.6200386  )
        36           O1  tau(  36) = (   5.2716127   4.4859779  12.5990880  )
        37           Ti1 tau(  37) = (   0.0719143   5.9417653  12.6408960  )
        38           Ti1 tau(  38) = (   3.4009286   4.4967646  12.4819834  )
        39           O1  tau(  39) = (   6.5633752   2.9851081  14.6229342  )
        40           O1  tau(  40) = (   3.2806164   3.0132077  13.8636590  )
        41           O1  tau(  41) = (   4.5054435   4.4842064  16.0752605  )
        42           O1  tau(  42) = (   2.0287922   4.4846499  16.0567397  )
        43           Ti1 tau(  43) = (   3.2585180   0.0608266  15.7494983  )
        44           Ti1 tau(  44) = (   6.5556145   4.6328118  16.1363011  )
        45           O1  tau(  45) = (   3.2900926   2.9813045   4.7018136  )
        46           O1  tau(  46) = (   1.3039711   4.4726057   6.0039043  )
        47           O1  tau(  47) = (   5.2763189   4.4711207   6.0039473  )
        48           N1  tau(  48) = (   6.4582227   2.6263240  18.5734135  )
        49           N1  tau(  49) = (   6.5493832   2.9496485  17.3103279  )
        50           C1  tau(  50) = (   0.1600853   3.5596473  19.6455425  )
        51           H1  tau(  51) = (   6.1911903   4.4878083  19.4949519  )
        52           H1  tau(  52) = (   6.4401482   3.1080517  20.5902855  )
        53           H1  tau(  53) = (   1.2308410   3.8049764  19.6956042  )
        54           H1  tau(  54) = (   6.5044843   1.6253530  18.7706356  )
        55           O1  tau(  55) = (   3.2415852   0.0755412  18.2049893  )
        56           H1  tau(  56) = (   4.0109045   5.4607113  18.3409029  )
        57           H1  tau(  57) = (   2.4534619   5.4803556  18.3240773  )

     number of k points=    10  Fermi-Dirac smearing, width (Ry)=  0.0073
                       cart. coord. in units 2pi/alat
        k(    1) = (   0.0000000   0.0000000   0.0000000), wk =   0.1250000
        k(    2) = (   0.0000000   0.0419351   0.0000000), wk =   0.2500000
        k(    3) = (   0.0000000  -0.0838702   0.0000000), wk =   0.1250000
        k(    4) = (   0.0379955   0.0000049   0.0000000), wk =   0.2500000
        k(    5) = (   0.0379955   0.0419400   0.0000000), wk =   0.2500000
        k(    6) = (   0.0379955  -0.0838652   0.0000000), wk =   0.2500000
        k(    7) = (   0.0379955  -0.0419301   0.0000000), wk =   0.2500000
        k(    8) = (  -0.0759910  -0.0000099   0.0000000), wk =   0.1250000
        k(    9) = (  -0.0759910   0.0419252   0.0000000), wk =   0.2500000
        k(   10) = (  -0.0759910  -0.0838800   0.0000000), wk =   0.1250000

     Initial potential from superposition of free atoms

     starting charge  387.99913, renormalised to  404.00000

     negative rho (up, down):  1.445E-02 0.000E+00

     %%%%%%%%%%%%%%%%%%%%%%%%%%%%%%%%%%%%%%%%%%%%%%%%%%%%%%%%%%%%%%%%%%%%%%%%
     %                                                                      %
     % You are using vdW-DF, which was implemented by the Thonhauser group. %
     % Please cite the following two papers that made this development      %
     % possible and the two reviews that describe the various versions:     %
     %                                                                      %
     %   T. Thonhauser et al., PRL 115, 136402 (2015).                      %
     %   T. Thonhauser et al., PRB 76, 125112 (2007).                       %
     %   K. Berland et al., Rep. Prog. Phys. 78, 066501 (2015).             %
     %   D.C. Langreth et al., J. Phys.: Condens. Matter 21, 084203 (2009). %
     %                                                                      %
     %                                                                      %
     % If you are calculating the stress with vdW-DF, please also cite:     %
     %                                                                      %
     %   R. Sabatini et al., J. Phys.: Condens. Matter 24, 424209 (2012).   %
     %                                                                      %
     %%%%%%%%%%%%%%%%%%%%%%%%%%%%%%%%%%%%%%%%%%%%%%%%%%%%%%%%%%%%%%%%%%%%%%%%

     Adding external electric field

     Computed dipole along edir(3) :
        Dipole              -13.5676 Ry au,        -34.4854 Debye
        Dipole field         -0.0256 Ry au,

        Potential amp.        2.3734 Ry
        Total length         46.3494 bohr

     Starting wfcs are  306 atomic wfcs
  @ DRIVER MODE: Message from server: STATUS
  @ DRIVER MODE: Message from server: POSDATA
  @ DRIVER MODE: Reading and sharing cell
  @ DRIVER MODE: Reading and sharing positions
  @ DRIVER MODE: Received positions

     Self-consistent Calculation

     iteration #  1     ecut=    29.40 Ry     beta= 0.05
     Davidson diagonalization with overlap
     c_bands:  4 eigenvalues not converged
     c_bands:  4 eigenvalues not converged
     c_bands:  4 eigenvalues not converged
     c_bands:  4 eigenvalues not converged
     c_bands:  3 eigenvalues not converged
     c_bands:  3 eigenvalues not converged
     ethr =  1.00E-05,  avg # of iterations = 25.3

[...]

     total energy              =   -2339.18155358 Ry
     estimated scf accuracy    <    7250.28395863 Ry

     iteration #  2     ecut=    29.40 Ry     beta= 0.05
     Davidson diagonalization with overlap
     ethr =  1.00E-02,  avg # of iterations = 24.5

[...]

     iteration # 58     ecut=    29.40 Ry     beta= 0.05
     Davidson diagonalization with overlap
     c_bands:  2 eigenvalues not converged
     c_bands:  1 eigenvalues not converged
     ethr =  4.34E-07,  avg # of iterations = 12.9

[...]

     total energy              =   -2975.23050657 Ry
     estimated scf accuracy    <       0.00000011 Ry

     iteration # 81     ecut=    29.40 Ry     beta= 0.05
     Davidson diagonalization with overlap
     ethr =  2.75E-11,  avg # of iterations =  5.3

     negative rho (up, down):  1.507E-02 0.000E+00

     Adding external electric field

     Computed dipole along edir(3) :
        Dipole                1.1608 Ry au,          2.9505 Debye
        Dipole field          0.0022 Ry au,

        Potential amp.       -0.2031 Ry
        Total length         46.3494 bohr

     End of self-consistent calculation

          k = 0.0000 0.0000 0.0000 ( 18029 PWs)   bands (ev):

   -55.5052 -55.4713 -55.3323 -55.2958 -55.2624 -55.2286 -55.2020 -55.1985
   -55.1876 -55.1644 -55.1532 -55.0140 -54.5520 -54.4357 -54.4017 -54.3881
   -31.9782 -31.8676 -31.7995 -31.7845 -31.7213 -31.7121 -31.6767 -31.6586
   -31.6213 -31.6041 -31.6006 -31.5736 -31.5642 -31.5198 -31.5115 -31.5005
   -31.4819 -31.4799 -31.4553 -31.4382 -31.4251 -31.4166 -31.4138 -31.3957
   -31.3925 -31.3847 -31.3751 -31.3679 -31.3654 -31.3632 -31.3414 -31.3297
   -31.3172 -31.3001 -31.2062 -31.1790 -31.0459 -30.8408 -30.7763 -30.7620
   -30.7576 -30.7349 -30.7233 -30.6578 -30.5985 -30.5716 -30.5677 -30.4605
   -18.7884 -17.7485 -16.0737 -15.8816 -15.6093 -15.4857 -15.4588 -15.2749
   -15.1986 -15.1472 -15.0149 -14.9679 -14.9386 -14.9084 -14.8959 -14.8387
   -14.8112 -14.7843 -14.7544 -14.7503 -14.7307 -14.7082 -14.6671 -14.6099
   -14.5847 -14.5235 -14.4732 -14.4517 -14.3580 -14.3536 -13.9277 -12.9371
   -12.8216 -11.9028  -8.8086  -6.5581  -5.6101  -4.3245  -4.0966  -3.4585
    -3.3828  -3.3239  -3.2080  -3.1254  -2.9895  -2.9503  -2.8746  -2.7760
    -2.6049  -2.5468  -2.5209  -2.4920  -2.4075  -2.2741  -2.2625  -2.2146
    -2.1868  -2.1662  -2.1517  -2.1357  -2.0397  -2.0015  -1.9644  -1.8541
    -1.8177  -1.7953  -1.7784  -1.7698  -1.7530  -1.6888  -1.6570  -1.6381
    -1.6282  -1.5912  -1.5567  -1.5454  -1.4160  -1.3972  -1.2798  -1.1525
    -1.1295  -1.0709  -1.0469  -0.8878  -0.8815  -0.8600  -0.8191  -0.8118
    -0.7397  -0.6670  -0.6241  -0.5502  -0.4315  -0.4223  -0.3875  -0.2412
    -0.2376  -0.2145  -0.1765  -0.1653  -0.1136  -0.1053  -0.0587   0.0023
     0.0967   0.1672   0.2732   0.2758   0.3287   0.3681   0.3811   0.4386
     0.4551   0.5049   0.5166   0.5243   0.5761   0.6111   0.6237   0.6817
     0.7329   0.8499   0.9193   0.9443   0.9911   1.1128   1.1880   1.2360
     1.2411   1.4093   1.5317   1.5614   1.5866   1.7869   1.8185   2.1535
     2.1974   3.6688   3.6855   3.7751   3.8343   3.9484   4.0202   4.1086
     4.1884   4.2583   4.3501   4.3748

[...]

          k = 0.0380-0.0419 0.0000 ( 17876 PWs)   bands (ev):

[...]

          k =-0.0760-0.0000 0.0000 ( 17886 PWs)   bands (ev):

[...]

          k =-0.0760-0.0839 0.0000 ( 17948 PWs)   bands (ev):

   -55.4883 -55.4880 -55.3177 -55.3101 -55.2455 -55.2452 -55.1968 -55.1905
   -55.1759 -55.1737 -55.1672 -55.0156 -54.5504 -54.4187 -54.4186 -54.3896
   -31.7937 -31.7937 -31.7847 -31.7847 -31.6807 -31.6635 -31.6095 -31.6089
   -31.5699 -31.5653 -31.5620 -31.5574 -31.5548 -31.5489 -31.5167 -31.5116
   -31.4896 -31.4805 -31.4780 -31.4707 -31.4386 -31.4365 -31.4284 -31.4257
   -31.4147 -31.4124 -31.4018 -31.3990 -31.3950 -31.3891 -31.3882 -31.3832
   -31.3556 -31.3314 -31.3160 -31.2138 -30.9555 -30.7997 -30.7651 -30.7477
   -30.7476 -30.7448 -30.6539 -30.6538 -30.6173 -30.6148 -30.6147 -30.5986
   -18.7874 -17.7426 -15.4969 -15.4309 -15.3602 -15.3563 -15.2515 -15.1985
   -15.1037 -15.0929 -15.0858 -15.0827 -14.9822 -14.9789 -14.9128 -14.9039
   -14.8646 -14.8580 -14.8542 -14.8375 -14.8226 -14.8175 -14.8025 -14.7556
   -14.7389 -14.7330 -14.5695 -14.5442 -14.4288 -14.4103 -14.0517 -12.9237
   -12.9236 -11.9042  -8.8191  -6.5420  -5.6017  -4.2736  -4.1180  -2.9204
    -2.9153  -2.7882  -2.6610  -2.5284  -2.5161  -2.4952  -2.4588  -2.2924
    -2.2798  -2.2644  -2.2548  -2.2132  -2.2019  -2.1830  -2.1687  -2.1147
    -2.0975  -2.0788  -2.0743  -2.0631  -2.0572  -2.0470  -2.0380  -2.0298
    -2.0061  -1.9588  -1.9374  -1.8555  -1.7703  -1.7605  -1.6830  -1.5543
    -1.5476  -1.5359  -1.5343  -1.5219  -1.5122  -1.4708  -1.4345  -1.3806
    -1.2704  -1.1521  -1.1017  -1.0835  -1.0290  -1.0098  -0.9211  -0.8405
    -0.8058  -0.7875  -0.7019  -0.6533  -0.5744  -0.5588  -0.5221  -0.4715
    -0.4474  -0.4332  -0.4174  -0.4092  -0.3457  -0.3017  -0.2341  -0.2202
    -0.1646  -0.1333  -0.1048  -0.0819  -0.0408   0.0521   0.0600   0.0880
     0.1151   0.1301   0.2048   0.3559   0.3959   0.6351   0.6442   0.7160
     0.8445   0.8669   0.8741   0.9505   0.9641   1.0015   1.0226   1.1428
     1.1657   1.1910   1.3184   1.3537   1.4461   1.9565   1.9574   2.0163
     2.0168   3.5315   4.1331   4.1430   4.1601   4.1735   4.1990   4.2055
     4.2480   4.2613   4.3943   4.4152

     the Fermi energy is     3.6446 ev

!    total energy              =   -2975.23051754 Ry
     estimated scf accuracy    <       0.00000007 Ry
     smearing contrib. (-TS)   =      -0.02107588 Ry
     internal energy E=F+TS    =   -2975.20944166 Ry

     The total energy is F=E-TS. E is the sum of the following terms:
     one-electron contribution =  -23878.21557788 Ry
     hartree contribution      =   12036.52642960 Ry
     xc contribution           =    -494.92773020 Ry
     ewald contribution        =    9361.40489388 Ry
     electric field correction =       0.00254294 Ry

     convergence has been achieved in  81 iterations

     Forces acting on atoms (cartesian axes, Ry/au):

     atom    1 type  1   force =     0.00016736   -0.00022804    0.09946963
     atom    2 type  1   force =    -0.00014684   -0.00039120   -0.17309152
     atom    3 type  2   force =    -0.00006851   -0.00000322   -0.02913320
     atom    4 type  2   force =     0.00003864   -0.00102568    0.04892148
     atom    5 type  2   force =    -0.01224651    0.00099139    0.00048058
     atom    6 type  2   force =     0.01355500    0.00186388   -0.00111559
     atom    7 type  1   force =    -0.00136383   -0.00053435   -0.00299706
     atom    8 type  1   force =     0.00094725   -0.00608513    0.04541252
     atom    9 type  2   force =    -0.00000277   -0.00023077   -0.00003303
     atom   10 type  2   force =    -0.00155706    0.00261642   -0.03095502
     atom   11 type  2   force =    -0.00016212   -0.00045447    0.00004078
     atom   12 type  2   force =     0.00007978   -0.00023722    0.00014681
     atom   13 type  1   force =    -0.00019652   -0.00054661   -0.00034118
     atom   14 type  1   force =     0.00031034   -0.00017110    0.00024416
     atom   15 type  2   force =     0.00000310   -0.00013547   -0.00027090
     atom   16 type  2   force =    -0.00021797    0.00005203    0.00012159
     atom   17 type  2   force =     0.00018742   -0.00027952    0.00016670
     atom   18 type  2   force =    -0.00005634   -0.00035349    0.00002360
     atom   19 type  1   force =     0.00007865   -0.00014648    0.00033813
     atom   20 type  1   force =    -0.00002356   -0.00053742    0.00028677
     atom   21 type  2   force =     0.00008778   -0.00000504    0.10258660
     atom   22 type  2   force =     0.00008521   -0.00024056   -0.00006786
     atom   23 type  2   force =    -0.07248906   -0.00009247   -0.02846738
     atom   24 type  2   force =     0.07245314    0.00033927   -0.02844980
     atom   25 type  1   force =     0.00009492   -0.00027213    0.09897502
     atom   26 type  1   force =    -0.00006161   -0.00041431   -0.17326984
     atom   27 type  2   force =    -0.00003359    0.00000580   -0.02843620
     atom   28 type  2   force =     0.00009462   -0.00075975    0.04808649
     atom   29 type  2   force =    -0.01261389    0.00062961    0.00051527
     atom   30 type  2   force =     0.01384892    0.00095905   -0.00105401
     atom   31 type  1   force =    -0.00146420    0.00225938   -0.00572145
     atom   32 type  1   force =     0.00112359    0.00384039    0.04592642
     atom   33 type  2   force =    -0.00006510   -0.00026482   -0.00011248
     atom   34 type  2   force =    -0.00096500    0.00133963   -0.03381213
     atom   35 type  2   force =    -0.00027085    0.00004727   -0.00024507
     atom   36 type  2   force =     0.00048298    0.00010144   -0.00003758
     atom   37 type  1   force =    -0.00031796    0.00007391    0.00024634
     atom   38 type  1   force =     0.00018748   -0.00029235    0.00005383
     atom   39 type  2   force =     0.00003055   -0.00050556    0.00038639
     atom   40 type  2   force =    -0.00005123    0.00017358   -0.00027372
     atom   41 type  2   force =    -0.00012629   -0.00024543    0.00005992
     atom   42 type  2   force =     0.00020473   -0.00017838   -0.00004865
     atom   43 type  1   force =     0.00009447    0.00003118   -0.00012087
     atom   44 type  1   force =    -0.00002246   -0.00018955    0.00006601
     atom   45 type  2   force =     0.00009501   -0.00001303    0.10258275
     atom   46 type  2   force =    -0.07251045   -0.00000519   -0.02846015
     atom   47 type  2   force =     0.07246999    0.00038065   -0.02845179
     atom   48 type  3   force =    -0.00079931    0.00070055   -0.00033511
     atom   49 type  3   force =     0.00014736   -0.00059684   -0.00036370
     atom   50 type  4   force =     0.00108627   -0.00191655    0.00214204
     atom   51 type  5   force =    -0.00082024    0.00106932   -0.00190325
     atom   52 type  5   force =     0.00044890   -0.00056203    0.00028802
     atom   53 type  5   force =     0.00001668   -0.00009485    0.00011043
     atom   54 type  5   force =     0.00030143    0.00015665    0.00030486
     atom   55 type  2   force =     0.00060471    0.00056174   -0.00026498
     atom   56 type  5   force =    -0.00017123   -0.00038692   -0.00025019
     atom   57 type  5   force =    -0.00050176    0.00020281    0.00010055

     Total force =     0.372082     Total SCF correction =     0.000541
  @ DRIVER MODE: Message from server: STATUS
  @ DRIVER MODE: Message from server: GETFORCE
  @ DRIVER MODE: Returning v,forces,stress,ensemble

     Writing output data file ./calc.save/
  @ DRIVER MODE: Message from server: EXIT
  @ DRIVE MODE: Exiting

     General routines

     Parallel routines

   This run was terminated on:  23:45: 9  15Sep2021

   JOB DONE.