     Program PWSCF v.6.7GPU starts on 22Sep2021 at 17:37:54

     R & G space division:  proc/nbgrp/npool/nimage =      10
     Reading input from /storage/home/hcoda1/3/ntian30/research/carbon/CxH_vib/CH_calc/ads_slab/CHNHNHH2O_b/out_0054/pw.inp
Warning: card &CELL ignored
Warning: card   CELL_DYNAMICS='IPI', ignored
Warning: card / ignored

     Current dimensions of program PWSCF are:
     Max number of different atomic species (ntypx) = 10
     Max number of k-points (npk) =  40000
     Max angular momentum in pseudopotentials (lmaxx) =  3
     Presently no symmetry can be used with electric field

     Message from routine cell_base_init:
     DEPRECATED: use true lattice parameter, not A to a.u. conversion factor

     IMPORTANT: XC functional enforced from input :
     Exchange-correlation= BEEF-VDW
                           (   1   4  43  14   2   0   0)
     Any further DFT definition will be discarded
     Please, verify this is what you really want

  @ DRIVER MODE: Connecting to
 qe_1139763_2927424.sched-torque.pace.gatech.eduk2rl7z6__scratch
  using UNIX socket
  @ DRIVER MODE: Message from server: STATUS
  @ DRIVER MODE: Message from server: INIT
  @ DRIVER MODE: Receiving replica           0          -1
  @ DRIVER MODE: Receiving encoded integer          25
  @ DRIVER MODE:  SCF:  T  FORCE:  T  STRESS:  F  VC:  F  ENSEMBLE:  F
  @ DRIVER MODE:  SCF:  T  FORCE:  T  STRESS:  F  VC:  F  ENSEMBLE:  F

     Using Slab Decomposition

     bravais-lattice index     =            0
     lattice parameter (alat)  =       1.8897  a.u.
     unit-cell volume          =    6658.9804 (a.u.)^3
     number of atoms/cell      =           56
     number of atomic types    =            5
     number of electrons       =       403.00
     number of Kohn-Sham states=          211
     kinetic-energy cutoff     =      29.3995  Ry
     charge density cutoff     =     293.9946  Ry
     scf convergence threshold =      7.3E-08
     mixing beta               =       0.0500
     number of iterations used =            8  plain     mixing
     Exchange-correlation= BEEF-VDW
                           (   1   4  43  14   2   0   0)

     celldm(1)=   1.889726  celldm(2)=   0.000000  celldm(3)=   0.000000
     celldm(4)=   0.000000  celldm(5)=   0.000000  celldm(6)=   0.000000

     crystal axes: (cart. coord. in units of alat)
               a(1) = (   6.579727   0.000000   0.000000 )
               a(2) = (  -0.000775   5.961596   0.000000 )
               a(3) = (   0.000000   0.000000  25.155947 )

     reciprocal axes: (cart. coord. in units 2 pi/alat)
               b(1) = (  0.151982  0.000020  0.000000 )
               b(2) = (  0.000000  0.167740  0.000000 )
               b(3) = (  0.000000  0.000000  0.039752 )

     PseudoPot. # 1 for Ti read from file:
     /storage/coda1/p-amedford6/0/shared/rich_project_chbe-medford/medford-share/data/pseudos_module/espresso/nninc/pbe/van/Ti.UPF
     MD5 check sum: 8e4df49b7f0d34bbd5052bf3f5ea0213
     Pseudo is Ultrasoft, Zval = 12.0
     Generated by new atomic code, or converted to UPF format
     Using radial grid of  851 points,  6 beta functions with:
                l(1) =   0
                l(2) =   0
                l(3) =   1
                l(4) =   1
                l(5) =   2
                l(6) =   2
     Q(r) pseudized with  8 coefficients,  rinner =    1.000   1.000   1.000
                                                       1.000   1.000

     PseudoPot. # 2 for O  read from file:
     /storage/coda1/p-amedford6/0/shared/rich_project_chbe-medford/medford-share/data/pseudos_module/espresso/nninc/pbe/van/O.UPF
     MD5 check sum: 78c19812648e8988a0fe644b0f25305e
     Pseudo is Ultrasoft, Zval =  6.0
     Generated by new atomic code, or converted to UPF format
     Using radial grid of  737 points,  4 beta functions with:
                l(1) =   0
                l(2) =   0
                l(3) =   1
                l(4) =   1
     Q(r) pseudized with  8 coefficients,  rinner =    0.800   0.800   0.800

     PseudoPot. # 3 for N  read from file:
     /storage/coda1/p-amedford6/0/shared/rich_project_chbe-medford/medford-share/data/pseudos_module/espresso/nninc/pbe/van/N.UPF
     MD5 check sum: 90d10febe142ad51ac9d5be1deb811c4
     Pseudo is Ultrasoft, Zval =  5.0
     Generated by new atomic code, or converted to UPF format
     Using radial grid of  729 points,  4 beta functions with:
                l(1) =   0
                l(2) =   0
                l(3) =   1
                l(4) =   1
     Q(r) pseudized with  8 coefficients,  rinner =    0.800   0.800   0.800

     PseudoPot. # 4 for C  read from file:
     /storage/coda1/p-amedford6/0/shared/rich_project_chbe-medford/medford-share/data/pseudos_module/espresso/nninc/pbe/van/C.UPF
     MD5 check sum: 1a69bf6b8db32088f5b2163dbdb77a27
     Pseudo is Ultrasoft, Zval =  4.0
     Generated by new atomic code, or converted to UPF format
     Using radial grid of  721 points,  4 beta functions with:
                l(1) =   0
                l(2) =   0
                l(3) =   1
                l(4) =   1
     Q(r) pseudized with  8 coefficients,  rinner =    0.800   0.800   0.800

     PseudoPot. # 5 for H  read from file:
     /storage/coda1/p-amedford6/0/shared/rich_project_chbe-medford/medford-share/data/pseudos_module/espresso/nninc/pbe/van/H.UPF
     MD5 check sum: b5ee9d7bfd3a09ee7748110bda690ff7
     Pseudo is Ultrasoft, Zval =  1.0
     Generated by new atomic code, or converted to UPF format
     Using radial grid of  615 points,  1 beta functions with:
                l(1) =   0
     Q(r) pseudized with  8 coefficients,  rinner =    0.800

     atomic species   valence    mass     pseudopotential
        Ti1           12.00    47.86700     Ti( 1.00)
        O1             6.00    15.99900     O ( 1.00)
        N1             5.00    14.00700     N ( 1.00)
        C1             4.00    12.01100     C ( 1.00)
        H1             1.00     1.00800     H ( 1.00)

     No symmetry found

   Cartesian axes

     site n.     atom                  positions (alat units)
         1           Ti1 tau(   1) = (   0.0004258   2.9801865   6.0000000  )
         2           Ti1 tau(   2) = (   3.2906075   1.4906267   6.0002472  )
         3           O1  tau(   3) = (   0.0006271   0.0005054   7.9858123  )
         4           O1  tau(   4) = (   3.2906025   0.0005020   7.3038282  )
         5           O1  tau(   5) = (   4.5942328   1.4918067   9.2879030  )
         6           O1  tau(   6) = (   1.9868534   1.4903216   9.2879459  )
         7           Ti1 tau(   7) = (   3.2907910   2.8959150   9.1758416  )
         8           Ti1 tau(   8) = (   0.0015273   1.4827037   9.2680791  )
         9           O1  tau(   9) = (   3.2780774   5.9605562  11.3537357  )
        10           O1  tau(  10) = (   0.0116148   5.9584955  10.6183126  )
        11           O1  tau(  11) = (   1.2922713   1.4781662  12.6511241  )
        12           O1  tau(  12) = (   5.2965393   1.5043564  12.6031353  )
        13           Ti1 tau(  13) = (   6.5273184   3.0207086  12.5807821  )
        14           Ti1 tau(  14) = (   3.2344070   1.4559942  12.5004267  )
        15           O1  tau(  15) = (   6.4759410   0.0295824  14.6525783  )
        16           O1  tau(  16) = (   3.3604338   0.0238249  13.9383540  )
        17           O1  tau(  17) = (   4.5324113   1.5808541  16.1066768  )
        18           O1  tau(  18) = (   1.9684897   1.4712893  15.8817925  )
        19           Ti1 tau(  19) = (   3.2566353   3.0739815  15.8599551  )
        20           Ti1 tau(  20) = (   6.5466614   1.5318677  15.7800735  )
        21           O1  tau(  21) = (   3.2904802   0.0005063   4.7018136  )
        22           O1  tau(  22) = (   6.5744325   0.0155309  17.2227980  )
        23           O1  tau(  23) = (   1.3043587   1.4918075   6.0039043  )
        24           O1  tau(  24) = (   5.2767064   1.4903225   6.0039473  )
        25           Ti1 tau(  25) = (   0.0000382   5.9609847   6.0000000  )
        26           Ti1 tau(  26) = (   3.2902200   4.4714249   6.0002472  )
        27           O1  tau(  27) = (   0.0002396   2.9813036   7.9858123  )
        28           O1  tau(  28) = (   3.2902150   2.9813002   7.3038282  )
        29           O1  tau(  29) = (   4.5938453   4.4726049   9.2879030  )
        30           O1  tau(  30) = (   1.9864658   4.4711199   9.2879459  )
        31           Ti1 tau(  31) = (   3.2891106   5.8743827   9.1763621  )
        32           Ti1 tau(  32) = (   0.0006254   4.4649316   9.2693709  )
        33           O1  tau(  33) = (   3.2727763   2.9788165  11.3438337  )
        34           O1  tau(  34) = (   0.0092240   2.9805883  10.6323155  )
        35           O1  tau(  35) = (   1.2865780   4.4896361  12.6556599  )
        36           O1  tau(  36) = (   5.2967437   4.4749066  12.6066920  )
        37           Ti1 tau(  37) = (   6.5467059   0.0356701  12.5108493  )
        38           Ti1 tau(  38) = (   3.2305653   4.4019604  12.5605372  )
        39           O1  tau(  39) = (   6.5199767   2.9846217  14.6905747  )
        40           O1  tau(  40) = (   3.2851694   3.0254550  13.9321539  )
        41           O1  tau(  41) = (   4.5310495   4.4602642  16.1636806  )
        42           O1  tau(  42) = (   1.9842988   4.5744318  15.9411167  )
        43           Ti1 tau(  43) = (   3.2691225   0.1036042  15.7405456  )
        44           Ti1 tau(  44) = (   6.5697781   4.6877429  16.0360384  )
        45           O1  tau(  45) = (   3.2900926   2.9813045   4.7018136  )
        46           O1  tau(  46) = (   1.3039711   4.4726057   6.0039043  )
        47           O1  tau(  47) = (   5.2763189   4.4711207   6.0039473  )
        48           N1  tau(  48) = (   1.2792381   2.8578196  18.3696018  )
        49           N1  tau(  49) = (   0.1888888   2.9646215  17.5057353  )
        50           C1  tau(  50) = (   2.5352320   2.9081513  18.0382144  )
        51           H1  tau(  51) = (   3.1442446   2.7411670  18.9317345  )
        52           H1  tau(  52) = (   1.0014291   2.6635404  19.3302151  )
        53           H1  tau(  53) = (   5.9397212   2.8571719  18.0851170  )
        54           O1  tau(  54) = (   3.2630597   0.0341043  18.2348460  )
        55           H1  tau(  55) = (   4.0455299   5.4198958  18.2485053  )
        56           H1  tau(  56) = (   2.4923979   5.4091459  18.3256537  )

     number of k points=    10  Fermi-Dirac smearing, width (Ry)=  0.0073
                       cart. coord. in units 2pi/alat
        k(    1) = (   0.0000000   0.0000000   0.0000000), wk =   0.1250000
        k(    2) = (   0.0000000   0.0419351   0.0000000), wk =   0.2500000
        k(    3) = (   0.0000000  -0.0838702   0.0000000), wk =   0.1250000
        k(    4) = (   0.0379955   0.0000049   0.0000000), wk =   0.2500000
        k(    5) = (   0.0379955   0.0419400   0.0000000), wk =   0.2500000
        k(    6) = (   0.0379955  -0.0838652   0.0000000), wk =   0.2500000
        k(    7) = (   0.0379955  -0.0419301   0.0000000), wk =   0.2500000
        k(    8) = (  -0.0759910  -0.0000099   0.0000000), wk =   0.1250000
        k(    9) = (  -0.0759910   0.0419252   0.0000000), wk =   0.2500000
        k(   10) = (  -0.0759910  -0.0838800   0.0000000), wk =   0.1250000

     Initial potential from superposition of free atoms

     starting charge  386.99914, renormalised to  403.00000

     negative rho (up, down):  1.738E-02 0.000E+00

     %%%%%%%%%%%%%%%%%%%%%%%%%%%%%%%%%%%%%%%%%%%%%%%%%%%%%%%%%%%%%%%%%%%%%%%%
     %                                                                      %
     % You are using vdW-DF, which was implemented by the Thonhauser group. %
     % Please cite the following two papers that made this development      %
     % possible and the two reviews that describe the various versions:     %
     %                                                                      %
     %   T. Thonhauser et al., PRL 115, 136402 (2015).                      %
     %   T. Thonhauser et al., PRB 76, 125112 (2007).                       %
     %   K. Berland et al., Rep. Prog. Phys. 78, 066501 (2015).             %
     %   D.C. Langreth et al., J. Phys.: Condens. Matter 21, 084203 (2009). %
     %                                                                      %
     %                                                                      %
     % If you are calculating the stress with vdW-DF, please also cite:     %
     %                                                                      %
     %   R. Sabatini et al., J. Phys.: Condens. Matter 24, 424209 (2012).   %
     %                                                                      %
     %%%%%%%%%%%%%%%%%%%%%%%%%%%%%%%%%%%%%%%%%%%%%%%%%%%%%%%%%%%%%%%%%%%%%%%%

     Adding external electric field

     Computed dipole along edir(3) :
        Dipole              -12.3470 Ry au,        -31.3831 Debye
        Dipole field         -0.0233 Ry au,

        Potential amp.        2.1599 Ry
        Total length         46.3494 bohr

     Starting wfcs are  305 atomic wfcs
  @ DRIVER MODE: Message from server: STATUS
  @ DRIVER MODE: Message from server: POSDATA
  @ DRIVER MODE: Reading and sharing cell
  @ DRIVER MODE: Reading and sharing positions
  @ DRIVER MODE: Received positions

     Self-consistent Calculation

     iteration #  1     ecut=    29.40 Ry     beta= 0.05
     Davidson diagonalization with overlap
     c_bands:  5 eigenvalues not converged
     c_bands:  3 eigenvalues not converged
     c_bands:  3 eigenvalues not converged
     c_bands:  1 eigenvalues not converged
     c_bands:  2 eigenvalues not converged
     c_bands:  2 eigenvalues not converged
     c_bands:  5 eigenvalues not converged
     c_bands:  2 eigenvalues not converged
     c_bands:  4 eigenvalues not converged
     ethr =  1.00E-05,  avg # of iterations = 29.3

[...]

     total energy              =   -2358.73098061 Ry
     estimated scf accuracy    <    6971.31145149 Ry

     iteration #  2     ecut=    29.40 Ry     beta= 0.05
     Davidson diagonalization with overlap
     ethr =  1.00E-02,  avg # of iterations = 26.6

[...]

     iteration # 70     ecut=    29.40 Ry     beta= 0.05
     Davidson diagonalization with overlap
     c_bands:  1 eigenvalues not converged
     ethr =  6.62E-11,  avg # of iterations = 14.0

[...]

     total energy              =   -2973.94011902 Ry
     estimated scf accuracy    <       0.00000015 Ry

     iteration # 72     ecut=    29.40 Ry     beta= 0.05
     Davidson diagonalization with overlap
     ethr =  3.70E-11,  avg # of iterations =  6.6

     negative rho (up, down):  1.725E-02 0.000E+00

     Adding external electric field

     Computed dipole along edir(3) :
        Dipole                1.4025 Ry au,          3.5648 Debye
        Dipole field          0.0026 Ry au,

        Potential amp.       -0.2453 Ry
        Total length         46.3494 bohr

     End of self-consistent calculation

          k = 0.0000 0.0000 0.0000 ( 18029 PWs)   bands (ev):

   -55.3177 -55.2836 -55.2080 -55.1838 -55.1651 -55.1537 -55.1383 -55.1165
   -55.1045 -55.1021 -55.0956 -55.0610 -54.9901 -54.8319 -54.2981 -54.2640
   -31.8019 -31.7290 -31.6547 -31.6481 -31.6382 -31.6096 -31.5853 -31.5628
   -31.5177 -31.4992 -31.4701 -31.4619 -31.4533 -31.4388 -31.4238 -31.4194
   -31.3962 -31.3781 -31.3750 -31.3628 -31.3332 -31.3310 -31.3269 -31.3238
   -31.3208 -31.3172 -31.3131 -31.2950 -31.2871 -31.2771 -31.2703 -31.2697
   -31.2598 -31.2584 -31.2500 -31.2462 -31.2382 -31.2127 -31.2081 -31.0882
   -31.0731 -31.0474 -30.7049 -30.6169 -30.5945 -30.5219 -30.4354 -30.3241
   -18.8761 -18.6530 -15.9757 -15.7919 -15.6107 -15.4719 -15.3899 -15.1583
   -15.0999 -15.0614 -14.9802 -14.9568 -14.8570 -14.8381 -14.8365 -14.8182
   -14.8154 -14.7602 -14.7452 -14.7408 -14.6922 -14.6853 -14.6600 -14.6445
   -14.5916 -14.5134 -14.5046 -14.4584 -14.4130 -14.3665 -14.0207 -13.4144
   -12.7987 -12.6823  -8.8047  -7.2719  -6.6148  -4.3229  -3.7911  -3.3589
    -3.2824  -3.2472  -3.2223  -3.0869  -2.9701  -2.8679  -2.7543  -2.6705
    -2.5826  -2.4782  -2.4224  -2.3759  -2.3151  -2.2554  -2.2293  -2.1436
    -2.1238  -2.1043  -2.0824  -2.0560  -2.0267  -1.9904  -1.8668  -1.8561
    -1.7740  -1.7178  -1.6792  -1.6611  -1.6372  -1.6318  -1.5993  -1.5789
    -1.5704  -1.5586  -1.5574  -1.5222  -1.3829  -1.3594  -1.3304  -1.3085
    -1.1613  -1.0239  -0.9348  -0.9324  -0.8232  -0.7582  -0.7551  -0.7168
    -0.7010  -0.5988  -0.5134  -0.4764  -0.4521  -0.3733  -0.3161  -0.2605
    -0.2089  -0.1735  -0.1069  -0.0830  -0.0664  -0.0496   0.0195   0.0821
     0.1436   0.2286   0.2720   0.2964   0.3876   0.4015   0.4246   0.4893
     0.5214   0.5663   0.6016   0.6309   0.6543   0.6847   0.7100   0.7532
     0.7912   0.9170   0.9353   0.9637   0.9848   1.1593   1.2089   1.3110
     1.3419   1.4425   1.4858   1.6648   1.7260   1.8055   1.9179   2.2960
     2.3418   3.7916   3.9030   3.9370   3.9621   4.0014   4.0526   4.2592
     4.3322   4.3736   4.4312

[...]

          k = 0.0380-0.0419 0.0000 ( 17876 PWs)   bands (ev):

[...]

          k =-0.0760-0.0000 0.0000 ( 17886 PWs)   bands (ev):

[...]

          k =-0.0760-0.0839 0.0000 ( 17948 PWs)   bands (ev):

   -55.3009 -55.3003 -55.1985 -55.1804 -55.1738 -55.1422 -55.1283 -55.1215
   -55.1207 -55.1057 -55.0824 -55.0744 -54.9884 -54.8335 -54.2810 -54.2809
   -31.6174 -31.6170 -31.5952 -31.5948 -31.5632 -31.5313 -31.5002 -31.4876
   -31.4808 -31.4656 -31.4469 -31.4416 -31.4377 -31.4283 -31.4234 -31.4216
   -31.4203 -31.4199 -31.4147 -31.3988 -31.3880 -31.3738 -31.3630 -31.3608
   -31.3559 -31.3514 -31.3423 -31.3297 -31.3238 -31.3223 -31.3072 -31.2980
   -31.2947 -31.2940 -31.2923 -31.2895 -31.2592 -31.2315 -31.2175 -31.1443
   -31.0906 -31.0761 -30.6072 -30.6072 -30.5177 -30.5176 -30.4787 -30.4786
   -18.8652 -18.6595 -15.3531 -15.3179 -15.2800 -15.2528 -15.2367 -15.1157
   -15.1017 -15.0663 -15.0245 -15.0117 -14.9815 -14.9526 -14.9039 -14.8955
   -14.8612 -14.8416 -14.8025 -14.7760 -14.7567 -14.7524 -14.7356 -14.7140
   -14.6703 -14.6486 -14.6361 -14.6318 -14.5799 -14.4857 -14.2059 -13.4370
   -12.7841 -12.7840  -8.8005  -7.1972  -6.6159  -4.5315  -3.5732  -2.8708
    -2.6683  -2.6288  -2.5757  -2.4862  -2.4391  -2.3172  -2.3105  -2.2879
    -2.2425  -2.2293  -2.1886  -2.1485  -2.1427  -2.1147  -2.1024  -2.0577
    -2.0465  -2.0434  -2.0292  -1.9964  -1.9898  -1.9693  -1.9453  -1.9421
    -1.9317  -1.9154  -1.8824  -1.8753  -1.8476  -1.8290  -1.6783  -1.6029
    -1.5610  -1.4834  -1.4604  -1.4435  -1.4245  -1.3900  -1.3698  -1.3439
    -1.3156  -1.1698  -1.0291  -0.9945  -0.9698  -0.8711  -0.8560  -0.8367
    -0.7895  -0.7480  -0.7128  -0.6541  -0.6455  -0.5994  -0.5782  -0.4582
    -0.4208  -0.3221  -0.2860  -0.2842  -0.2669  -0.2518  -0.2348  -0.2089
    -0.1595  -0.0880  -0.0725  -0.0239  -0.0001   0.0025   0.0156   0.1614
     0.2325   0.2529   0.3550   0.3852   0.5600   0.7241   0.7358   0.8038
     0.8667   0.9217   0.9555   0.9955   1.0057   1.0716   1.0963   1.2007
     1.2111   1.2599   1.2650   1.3425   1.3562   2.0897   2.0914   2.1618
     2.1619   4.1556   4.1710   4.1994   4.2625   4.3059   4.3175   4.3549
     4.3586   4.4615   4.4776

     the Fermi energy is     3.8098 ev

!    total energy              =   -2973.94013959 Ry
     estimated scf accuracy    <       0.00000007 Ry
     smearing contrib. (-TS)   =      -0.02072257 Ry
     internal energy E=F+TS    =   -2973.91941703 Ry

     The total energy is F=E-TS. E is the sum of the following terms:
     one-electron contribution =  -24338.50474075 Ry
     hartree contribution      =   12266.98576235 Ry
     xc contribution           =    -494.11681750 Ry
     ewald contribution        =    9591.71266694 Ry
     electric field correction =       0.00371194 Ry

     convergence has been achieved in  72 iterations

     Forces acting on atoms (cartesian axes, Ry/au):

     atom    1 type  1   force =     0.00002569   -0.00009971    0.09507886
     atom    2 type  1   force =     0.00018098   -0.00068890   -0.17563111
     atom    3 type  2   force =     0.00008723   -0.00004974   -0.02295101
     atom    4 type  2   force =     0.00002148   -0.00143245    0.05289461
     atom    5 type  2   force =    -0.00999869   -0.00031362    0.00380880
     atom    6 type  2   force =     0.01112082    0.00020294    0.00206321
     atom    7 type  1   force =    -0.00021318    0.00178237   -0.00588583
     atom    8 type  1   force =     0.00080893    0.01008536    0.01605218
     atom    9 type  2   force =    -0.00015863    0.00086245    0.00032425
     atom   10 type  2   force =    -0.00227247    0.00217647   -0.01800911
     atom   11 type  2   force =     0.00023736   -0.00003347    0.00008495
     atom   12 type  2   force =    -0.00034619   -0.00018536    0.00056460
     atom   13 type  1   force =    -0.00002767    0.00125542    0.00018362
     atom   14 type  1   force =    -0.00011879    0.00009098    0.00000510
     atom   15 type  2   force =     0.00011292    0.00023902    0.00000678
     atom   16 type  2   force =    -0.00037355    0.00044404   -0.00023046
     atom   17 type  2   force =    -0.00016869   -0.00027581    0.00004209
     atom   18 type  2   force =    -0.00004366    0.00006043    0.00039450
     atom   19 type  1   force =    -0.00062971    0.00043593   -0.00031855
     atom   20 type  1   force =    -0.00023096   -0.00016316    0.00009976
     atom   21 type  2   force =     0.00009114   -0.00008589    0.10318178
     atom   22 type  2   force =     0.00034157    0.00003182    0.00057678
     atom   23 type  2   force =    -0.07161530   -0.00016781   -0.02756545
     atom   24 type  2   force =     0.07157332    0.00024704   -0.02761341
     atom   25 type  1   force =     0.00023913   -0.00039803    0.09518104
     atom   26 type  1   force =    -0.00004113   -0.00020426   -0.17579383
     atom   27 type  2   force =     0.00012099   -0.00012253   -0.02197854
     atom   28 type  2   force =     0.00001454   -0.00139702    0.05322463
     atom   29 type  2   force =    -0.01034231   -0.00022827    0.00365163
     atom   30 type  2   force =     0.01137933    0.00042398    0.00191999
     atom   31 type  1   force =    -0.00029991    0.00265907   -0.00008400
     atom   32 type  1   force =     0.00067542   -0.01114571    0.01692633
     atom   33 type  2   force =     0.00037427   -0.00027219   -0.00000008
     atom   34 type  2   force =    -0.00033963    0.00144020   -0.01893864
     atom   35 type  2   force =    -0.00001136   -0.00035422   -0.00016045
     atom   36 type  2   force =     0.00000329   -0.00024697    0.00044135
     atom   37 type  1   force =    -0.00005145   -0.00122456    0.00034250
     atom   38 type  1   force =    -0.00039510    0.00089538    0.00007175
     atom   39 type  2   force =     0.00008555    0.00006075    0.00010841
     atom   40 type  2   force =    -0.00047501   -0.00059937   -0.00000238
     atom   41 type  2   force =     0.00021954   -0.00013023    0.00031580
     atom   42 type  2   force =    -0.00020451   -0.00043330   -0.00032478
     atom   43 type  1   force =    -0.00047540   -0.00038368    0.00059856
     atom   44 type  1   force =     0.00016676   -0.00028258    0.00018224
     atom   45 type  2   force =     0.00010023   -0.00010236    0.10320341
     atom   46 type  2   force =    -0.07160080   -0.00016918   -0.02755709
     atom   47 type  2   force =     0.07160176    0.00024308   -0.02757004
     atom   48 type  3   force =     0.00009716   -0.00047276    0.00025387
     atom   49 type  3   force =     0.00009798    0.00008988   -0.00008802
     atom   50 type  4   force =     0.00038944   -0.00024864    0.00043073
     atom   51 type  5   force =    -0.00015458   -0.00051276   -0.00021712
     atom   52 type  5   force =    -0.00004232   -0.00103420   -0.00081698
     atom   53 type  5   force =     0.00017320   -0.00041801   -0.00060783
     atom   54 type  2   force =    -0.00133662    0.00003618    0.00033649
     atom   55 type  5   force =     0.00024531   -0.00023684    0.00001515
     atom   56 type  5   force =     0.00138228    0.00035081   -0.00022105

     Total force =     0.365191     Total SCF correction =     0.000614
  @ DRIVER MODE: Message from server: STATUS
  @ DRIVER MODE: Message from server: GETFORCE
  @ DRIVER MODE: Returning v,forces,stress,ensemble

     Writing output data file ./calc.save/
  @ DRIVER MODE: Message from server: EXIT
  @ DRIVE MODE: Exiting

     General routines

     Parallel routines

   This run was terminated on:  18: 1:28  22Sep2021

   JOB DONE.