     Program PWSCF v.6.7GPU starts on 23Sep2021 at 12:32:32

     R & G space division:  proc/nbgrp/npool/nimage =       8
     Reading input from /storage/home/hcoda1/3/ntian30/research/carbon/CxH_vib/H2O_calc/ads_slab/CH3NHHO_a/out_0005/pw.inp
Warning: card &CELL ignored
Warning: card   CELL_DYNAMICS='IPI', ignored
Warning: card / ignored

     Current dimensions of program PWSCF are:
     Max number of different atomic species (ntypx) = 10
     Max number of k-points (npk) =  40000
     Max angular momentum in pseudopotentials (lmaxx) =  3
     Presently no symmetry can be used with electric field

     Message from routine cell_base_init:
     DEPRECATED: use true lattice parameter, not A to a.u. conversion factor

     IMPORTANT: XC functional enforced from input :
     Exchange-correlation= BEEF-VDW
                           (   1   4  43  14   2   0   0)
     Any further DFT definition will be discarded
     Please, verify this is what you really want

  @ DRIVER MODE: Connecting to
 qe_1139763_2947309.sched-torque.pace.gatech.edur10vbd2v_scratch
  using UNIX socket
  @ DRIVER MODE: Message from server: STATUS
  @ DRIVER MODE: Message from server: INIT
  @ DRIVER MODE: Receiving replica           0          -1
  @ DRIVER MODE: Receiving encoded integer          25
  @ DRIVER MODE:  SCF:  T  FORCE:  T  STRESS:  F  VC:  F  ENSEMBLE:  F
  @ DRIVER MODE:  SCF:  T  FORCE:  T  STRESS:  F  VC:  F  ENSEMBLE:  F

     Using Slab Decomposition

     bravais-lattice index     =            0
     lattice parameter (alat)  =       1.8897  a.u.
     unit-cell volume          =    6658.9804 (a.u.)^3
     number of atoms/cell      =           55
     number of atomic types    =            5
     number of electrons       =       398.00
     number of Kohn-Sham states=          209
     kinetic-energy cutoff     =      29.3995  Ry
     charge density cutoff     =     293.9946  Ry
     scf convergence threshold =      7.3E-08
     mixing beta               =       0.0500
     number of iterations used =            8  plain     mixing
     Exchange-correlation= BEEF-VDW
                           (   1   4  43  14   2   0   0)

     celldm(1)=   1.889726  celldm(2)=   0.000000  celldm(3)=   0.000000
     celldm(4)=   0.000000  celldm(5)=   0.000000  celldm(6)=   0.000000

     crystal axes: (cart. coord. in units of alat)
               a(1) = (   6.579727   0.000000   0.000000 )
               a(2) = (  -0.000775   5.961596   0.000000 )
               a(3) = (   0.000000   0.000000  25.155947 )

     reciprocal axes: (cart. coord. in units 2 pi/alat)
               b(1) = (  0.151982  0.000020  0.000000 )
               b(2) = (  0.000000  0.167740  0.000000 )
               b(3) = (  0.000000  0.000000  0.039752 )

     PseudoPot. # 1 for Ti read from file:
     /storage/coda1/p-amedford6/0/shared/rich_project_chbe-medford/medford-share/data/pseudos_module/espresso/nninc/pbe/van/Ti.UPF
     MD5 check sum: 8e4df49b7f0d34bbd5052bf3f5ea0213
     Pseudo is Ultrasoft, Zval = 12.0
     Generated by new atomic code, or converted to UPF format
     Using radial grid of  851 points,  6 beta functions with:
                l(1) =   0
                l(2) =   0
                l(3) =   1
                l(4) =   1
                l(5) =   2
                l(6) =   2
     Q(r) pseudized with  8 coefficients,  rinner =    1.000   1.000   1.000
                                                       1.000   1.000

     PseudoPot. # 2 for O  read from file:
     /storage/coda1/p-amedford6/0/shared/rich_project_chbe-medford/medford-share/data/pseudos_module/espresso/nninc/pbe/van/O.UPF
     MD5 check sum: 78c19812648e8988a0fe644b0f25305e
     Pseudo is Ultrasoft, Zval =  6.0
     Generated by new atomic code, or converted to UPF format
     Using radial grid of  737 points,  4 beta functions with:
                l(1) =   0
                l(2) =   0
                l(3) =   1
                l(4) =   1
     Q(r) pseudized with  8 coefficients,  rinner =    0.800   0.800   0.800

     PseudoPot. # 3 for H  read from file:
     /storage/coda1/p-amedford6/0/shared/rich_project_chbe-medford/medford-share/data/pseudos_module/espresso/nninc/pbe/van/H.UPF
     MD5 check sum: b5ee9d7bfd3a09ee7748110bda690ff7
     Pseudo is Ultrasoft, Zval =  1.0
     Generated by new atomic code, or converted to UPF format
     Using radial grid of  615 points,  1 beta functions with:
                l(1) =   0
     Q(r) pseudized with  8 coefficients,  rinner =    0.800

     PseudoPot. # 4 for N  read from file:
     /storage/coda1/p-amedford6/0/shared/rich_project_chbe-medford/medford-share/data/pseudos_module/espresso/nninc/pbe/van/N.UPF
     MD5 check sum: 90d10febe142ad51ac9d5be1deb811c4
     Pseudo is Ultrasoft, Zval =  5.0
     Generated by new atomic code, or converted to UPF format
     Using radial grid of  729 points,  4 beta functions with:
                l(1) =   0
                l(2) =   0
                l(3) =   1
                l(4) =   1
     Q(r) pseudized with  8 coefficients,  rinner =    0.800   0.800   0.800

     PseudoPot. # 5 for C  read from file:
     /storage/coda1/p-amedford6/0/shared/rich_project_chbe-medford/medford-share/data/pseudos_module/espresso/nninc/pbe/van/C.UPF
     MD5 check sum: 1a69bf6b8db32088f5b2163dbdb77a27
     Pseudo is Ultrasoft, Zval =  4.0
     Generated by new atomic code, or converted to UPF format
     Using radial grid of  721 points,  4 beta functions with:
                l(1) =   0
                l(2) =   0
                l(3) =   1
                l(4) =   1
     Q(r) pseudized with  8 coefficients,  rinner =    0.800   0.800   0.800

     atomic species   valence    mass     pseudopotential
        Ti1           12.00    47.86700     Ti( 1.00)
        O1             6.00    15.99900     O ( 1.00)
        H1             1.00     1.00800     H ( 1.00)
        N1             5.00    14.00700     N ( 1.00)
        C1             4.00    12.01100     C ( 1.00)

     No symmetry found

   Cartesian axes

     site n.     atom                  positions (alat units)
         1           Ti1 tau(   1) = (   0.0004258   2.9801865   6.0000000  )
         2           Ti1 tau(   2) = (   3.2906075   1.4906267   6.0002472  )
         3           O1  tau(   3) = (   0.0006271   0.0005054   7.9858123  )
         4           O1  tau(   4) = (   3.2906025   0.0005020   7.3038282  )
         5           O1  tau(   5) = (   4.5942328   1.4918067   9.2879030  )
         6           O1  tau(   6) = (   1.9868534   1.4903216   9.2879459  )
         7           Ti1 tau(   7) = (   3.2907910   2.8959150   9.1758416  )
         8           Ti1 tau(   8) = (   0.0015273   1.4827037   9.2680791  )
         9           O1  tau(   9) = (   3.2831040   5.9360571  11.2641146  )
        10           O1  tau(  10) = (   0.0116148   5.9584955  10.6183126  )
        11           O1  tau(  11) = (   1.2851963   1.4867209  12.6255510  )
        12           O1  tau(  12) = (   5.2924406   1.4772461  12.6192171  )
        13           Ti1 tau(  13) = (   0.0036382   2.8404764  12.7021481  )
        14           Ti1 tau(  14) = (   3.2814461   1.2926050  12.6442039  )
        15           O1  tau(  15) = (   6.5789252   5.9354829  14.6389027  )
        16           O1  tau(  16) = (   3.2852549   0.0163589  13.8648689  )
        17           O1  tau(  17) = (   4.5445832   1.5164849  16.0197972  )
        18           O1  tau(  18) = (   2.0258823   1.4930055  16.0750729  )
        19           Ti1 tau(  19) = (   3.3156224   2.9699746  15.6194889  )
        20           Ti1 tau(  20) = (   0.0515760   1.3234122  16.0730098  )
        21           O1  tau(  21) = (   3.2904802   0.0005063   4.7018136  )
        22           O1  tau(  22) = (   6.5454194   5.9222349  17.1870725  )
        23           O1  tau(  23) = (   1.3043587   1.4918075   6.0039043  )
        24           O1  tau(  24) = (   5.2767064   1.4903225   6.0039473  )
        25           Ti1 tau(  25) = (   0.0000382   5.9609847   6.0000000  )
        26           Ti1 tau(  26) = (   3.2902200   4.4714249   6.0002472  )
        27           O1  tau(  27) = (   0.0002396   2.9813036   7.9858123  )
        28           O1  tau(  28) = (   3.2902150   2.9813002   7.3038282  )
        29           O1  tau(  29) = (   4.5938453   4.4726049   9.2879030  )
        30           O1  tau(  30) = (   1.9864658   4.4711199   9.2879459  )
        31           Ti1 tau(  31) = (   3.2891106   5.8743827   9.1763621  )
        32           Ti1 tau(  32) = (   0.0006254   4.4649316   9.2693709  )
        33           O1  tau(  33) = (   3.2861177   3.0127509  11.2320142  )
        34           O1  tau(  34) = (   0.0092240   2.9805883  10.6323155  )
        35           O1  tau(  35) = (   1.2872320   4.4646868  12.6147789  )
        36           O1  tau(  36) = (   5.2799320   4.4658550  12.6114028  )
        37           Ti1 tau(  37) = (   6.5510365   5.8261734  12.6423015  )
        38           Ti1 tau(  38) = (   3.2652589   4.3917841  12.4002916  )
        39           O1  tau(  39) = (   0.0003569   2.9920414  14.6539809  )
        40           O1  tau(  40) = (   3.2835110   2.9651371  13.8409569  )
        41           O1  tau(  41) = (   4.5245492   4.4030193  16.0142317  )
        42           O1  tau(  42) = (   2.0132503   4.4096711  16.0494848  )
        43           Ti1 tau(  43) = (   3.3389516   5.9588577  16.2858146  )
        44           Ti1 tau(  44) = (   0.0865397   4.4271626  15.8895714  )
        45           O1  tau(  45) = (   3.2900926   2.9813045   4.7018136  )
        46           O1  tau(  46) = (   1.3039711   4.4726057   6.0039043  )
        47           O1  tau(  47) = (   5.2763189   4.4711207   6.0039473  )
        48           H1  tau(  48) = (   5.5649379   3.0085428  17.7654687  )
        49           N1  tau(  49) = (   6.5266086   2.9804045  17.4451690  )
        50           C1  tau(  50) = (   0.8252436   3.0135910  18.6253707  )
        51           H1  tau(  51) = (   0.7415300   3.9712607  19.1474969  )
        52           H1  tau(  52) = (   0.5789590   2.2014881  19.3161603  )
        53           H1  tau(  53) = (   1.8636945   2.8847911  18.3311598  )
        54           O1  tau(  54) = (   3.4430348   5.9447220  18.1074838  )
        55           H1  tau(  55) = (   4.3135669   5.8364121  18.5244127  )

     number of k points=    10  Fermi-Dirac smearing, width (Ry)=  0.0073
                       cart. coord. in units 2pi/alat
        k(    1) = (   0.0000000   0.0000000   0.0000000), wk =   0.1250000
        k(    2) = (   0.0000000   0.0419351   0.0000000), wk =   0.2500000
        k(    3) = (   0.0000000  -0.0838702   0.0000000), wk =   0.1250000
        k(    4) = (   0.0379955   0.0000049   0.0000000), wk =   0.2500000
        k(    5) = (   0.0379955   0.0419400   0.0000000), wk =   0.2500000
        k(    6) = (   0.0379955  -0.0838652   0.0000000), wk =   0.2500000
        k(    7) = (   0.0379955  -0.0419301   0.0000000), wk =   0.2500000
        k(    8) = (  -0.0759910  -0.0000099   0.0000000), wk =   0.1250000
        k(    9) = (  -0.0759910   0.0419252   0.0000000), wk =   0.2500000
        k(   10) = (  -0.0759910  -0.0838800   0.0000000), wk =   0.1250000

     Initial potential from superposition of free atoms

     starting charge  381.99915, renormalised to  398.00000

     negative rho (up, down):  1.687E-02 0.000E+00

     %%%%%%%%%%%%%%%%%%%%%%%%%%%%%%%%%%%%%%%%%%%%%%%%%%%%%%%%%%%%%%%%%%%%%%%%
     %                                                                      %
     % You are using vdW-DF, which was implemented by the Thonhauser group. %
     % Please cite the following two papers that made this development      %
     % possible and the two reviews that describe the various versions:     %
     %                                                                      %
     %   T. Thonhauser et al., PRL 115, 136402 (2015).                      %
     %   T. Thonhauser et al., PRB 76, 125112 (2007).                       %
     %   K. Berland et al., Rep. Prog. Phys. 78, 066501 (2015).             %
     %   D.C. Langreth et al., J. Phys.: Condens. Matter 21, 084203 (2009). %
     %                                                                      %
     %                                                                      %
     % If you are calculating the stress with vdW-DF, please also cite:     %
     %                                                                      %
     %   R. Sabatini et al., J. Phys.: Condens. Matter 24, 424209 (2012).   %
     %                                                                      %
     %%%%%%%%%%%%%%%%%%%%%%%%%%%%%%%%%%%%%%%%%%%%%%%%%%%%%%%%%%%%%%%%%%%%%%%%

     Adding external electric field

     Computed dipole along edir(3) :
        Dipole               -8.7621 Ry au,        -22.2712 Debye
        Dipole field         -0.0165 Ry au,

        Potential amp.        1.5328 Ry
        Total length         46.3494 bohr

     Starting wfcs are  301 atomic wfcs
  @ DRIVER MODE: Message from server: STATUS
  @ DRIVER MODE: Message from server: POSDATA
  @ DRIVER MODE: Reading and sharing cell
  @ DRIVER MODE: Reading and sharing positions
  @ DRIVER MODE: Received positions

     Self-consistent Calculation

     iteration #  1     ecut=    29.40 Ry     beta= 0.05
     Davidson diagonalization with overlap
     c_bands:  1 eigenvalues not converged
     c_bands:  1 eigenvalues not converged
     c_bands:  1 eigenvalues not converged
     c_bands:  2 eigenvalues not converged
     ethr =  1.00E-05,  avg # of iterations = 18.0

[...]

     total energy              =   -2565.84954996 Ry
     estimated scf accuracy    <    4288.29029856 Ry

     iteration #  2     ecut=    29.40 Ry     beta= 0.05
     Davidson diagonalization with overlap
     ethr =  1.00E-02,  avg # of iterations = 24.2

[...]

     iteration # 54     ecut=    29.40 Ry     beta= 0.05
     Davidson diagonalization with overlap
     c_bands:  1 eigenvalues not converged
     ethr =  1.36E-07,  avg # of iterations =  7.8

[...]

     total energy              =   -2954.01287912 Ry
     estimated scf accuracy    <       0.00000009 Ry

     iteration # 80     ecut=    29.40 Ry     beta= 0.05
     Davidson diagonalization with overlap
     ethr =  2.33E-11,  avg # of iterations =  3.0

     negative rho (up, down):  1.731E-02 0.000E+00

     Adding external electric field

     Computed dipole along edir(3) :
        Dipole                0.2146 Ry au,          0.5453 Debye
        Dipole field          0.0004 Ry au,

        Potential amp.       -0.0375 Ry
        Total length         46.3494 bohr

     End of self-consistent calculation

          k = 0.0000 0.0000 0.0000 ( 18029 PWs)   bands (ev):

   -56.9299 -56.8963 -56.0290 -55.9942 -55.7939 -55.7259 -55.6389 -55.4816
   -55.4477 -55.4076 -55.3958 -55.3295 -55.3240 -55.2781 -55.1331 -55.0550
   -33.3490 -33.2018 -33.1737 -33.1085 -33.0182 -32.9761 -32.5118 -32.2696
   -32.2498 -32.2238 -32.1714 -32.1664 -32.1408 -32.0296 -32.0097 -31.9626
   -31.9458 -31.9305 -31.9139 -31.8911 -31.8887 -31.8674 -31.8606 -31.8291
   -31.8288 -31.8043 -31.7595 -31.7174 -31.6859 -31.6778 -31.6193 -31.6082
   -31.6053 -31.5891 -31.5768 -31.5476 -31.5267 -31.5214 -31.5080 -31.5012
   -31.4937 -31.4417 -31.3988 -31.3753 -31.3367 -31.3108 -31.3042 -31.2375
   -17.0363 -16.4908 -16.4462 -16.2478 -16.1450 -16.1253 -16.0878 -16.0384
   -15.8388 -15.7891 -15.7513 -15.6853 -15.5877 -15.4315 -15.3346 -15.1608
   -15.1115 -15.0802 -15.0622 -15.0566 -15.0507 -15.0383 -14.9826 -14.9268
   -14.8863 -14.8034 -14.7496 -14.6384 -14.4124 -14.3821 -13.9789 -13.8718
   -13.8129  -8.5066  -4.6101  -4.1061  -3.9717  -3.9416  -3.7807  -3.6274
    -3.5027  -3.4497  -3.4250  -3.3153  -3.2988  -3.2891  -3.1996  -3.0705
    -2.9997  -2.9884  -2.9212  -2.9031  -2.8761  -2.8619  -2.6969  -2.6645
    -2.5705  -2.5186  -2.4970  -2.4161  -2.4068  -2.3472  -2.2964  -2.2848
    -2.2628  -2.2036  -2.2001  -2.1288  -2.1040  -2.0268  -2.0018  -1.9691
    -1.9457  -1.8754  -1.7991  -1.7642  -1.6093  -1.5731  -1.5404  -1.5049
    -1.4885  -1.4077  -1.3368  -1.2549  -1.2210  -1.1538  -1.1052  -1.0650
    -1.0525  -0.9378  -0.9122  -0.8559  -0.7918  -0.7755  -0.7688  -0.7226
    -0.6085  -0.5277  -0.5168  -0.4942  -0.4357  -0.4155  -0.3782  -0.3534
    -0.2760  -0.2604  -0.1524  -0.0790  -0.0484  -0.0231   0.0775   0.1563
     0.1779   0.2204   0.2629   0.3059   0.3348   0.3786   0.4465   0.4945
     0.5175   0.5400   0.5698   0.6657   0.7160   0.7525   0.8087   0.8239
     0.8886   0.9594   0.9864   1.0750   1.1194   1.4854   1.6358   2.3634
     2.5340   2.8101   2.9834   3.2991   3.3492   3.3650   3.3665   3.6529
     3.7716

[...]

          k = 0.0380-0.0419 0.0000 ( 17876 PWs)   bands (ev):

[...]

          k =-0.0760-0.0000 0.0000 ( 17886 PWs)   bands (ev):

[...]

          k =-0.0760-0.0839 0.0000 ( 17948 PWs)   bands (ev):

   -56.9138 -56.9123 -56.0163 -56.0068 -55.7893 -55.7304 -55.6381 -55.4653
   -55.4639 -55.4036 -55.3964 -55.3332 -55.3228 -55.2769 -55.1344 -55.0562
   -33.1882 -33.1868 -33.1670 -33.1656 -33.0625 -33.0614 -32.3359 -32.3278
   -32.2112 -32.2016 -32.2006 -32.1948 -32.0928 -32.0471 -32.0228 -32.0085
   -31.9574 -31.9565 -31.9106 -31.8784 -31.8669 -31.8179 -31.8168 -31.7745
   -31.7354 -31.7031 -31.6852 -31.6834 -31.6796 -31.6751 -31.6464 -31.6452
   -31.6336 -31.6299 -31.6093 -31.5978 -31.5752 -31.5665 -31.5349 -31.5249
   -31.5162 -31.4841 -31.4372 -31.4003 -31.3737 -31.3412 -31.3127 -31.2652
   -16.4329 -16.3970 -16.3950 -16.3479 -16.3462 -16.0915 -16.0868 -15.8410
   -15.8090 -15.6876 -15.5347 -15.5054 -15.4680 -15.4185 -15.3720 -15.3022
   -15.2837 -15.2431 -15.2099 -15.1542 -15.1288 -15.0501 -15.0160 -14.9571
   -14.9209 -14.8322 -14.7852 -14.7792 -14.5583 -14.5426 -13.9765 -13.9757
   -13.8298  -8.5115  -4.0723  -3.9965  -3.4701  -3.4650  -3.4440  -3.4347
    -3.2203  -3.2147  -3.0469  -3.0039  -2.9846  -2.9438  -2.9273  -2.8385
    -2.8214  -2.7956  -2.7510  -2.7460  -2.7379  -2.7195  -2.6723  -2.6639
    -2.6232  -2.4865  -2.4716  -2.4519  -2.3930  -2.3292  -2.2980  -2.2469
    -2.2196  -2.2061  -2.1790  -2.1717  -2.1662  -2.1371  -2.1096  -1.9534
    -1.9155  -1.8102  -1.7774  -1.7521  -1.7311  -1.6763  -1.6726  -1.6427
    -1.6199  -1.5879  -1.5276  -1.4942  -1.4526  -1.3278  -1.3065  -1.2663
    -1.2492  -1.1903  -1.0935  -1.0047  -0.9916  -0.9489  -0.9295  -0.8833
    -0.8695  -0.8401  -0.7610  -0.7032  -0.5965  -0.5665  -0.5543  -0.5315
    -0.5014  -0.4591  -0.4114  -0.3434  -0.3281  -0.2089  -0.1396  -0.0917
    -0.0280   0.0380   0.0786   0.1215   0.1704   0.2663   0.2856   0.3600
     0.3738   0.4943   0.6027   0.6205   0.7739   0.8060   0.8750   0.9151
     0.9201   0.9305   0.9482   0.9598   1.0124   1.0887   1.5850   2.9549
     2.9579   3.0151   3.0209   3.3308   3.3318   3.4417   3.4436   3.7590
     3.7689

     the Fermi energy is     2.0634 ev

!    total energy              =   -2954.01289043 Ry
     estimated scf accuracy    <       0.00000005 Ry
     smearing contrib. (-TS)   =      -0.00173048 Ry
     internal energy E=F+TS    =   -2954.01115995 Ry

     The total energy is F=E-TS. E is the sum of the following terms:
     one-electron contribution =  -24214.55414513 Ry
     hartree contribution      =   12197.35364732 Ry
     xc contribution           =    -488.75184751 Ry
     ewald contribution        =    9551.94109849 Ry
     electric field correction =       0.00008687 Ry

     convergence has been achieved in  80 iterations

     Forces acting on atoms (cartesian axes, Ry/au):

     atom    1 type  1   force =     0.00017943   -0.00052359    0.12567721
     atom    2 type  1   force =     0.00000230    0.00027184   -0.15442839
     atom    3 type  2   force =     0.00002317   -0.00022359   -0.06672682
     atom    4 type  2   force =    -0.00001971    0.00008079    0.01673153
     atom    5 type  2   force =    -0.00391053   -0.00229042   -0.01291271
     atom    6 type  2   force =     0.00530676   -0.00149402   -0.01432133
     atom    7 type  1   force =    -0.00049303   -0.00699180    0.05722544
     atom    8 type  1   force =     0.00071896    0.00723147    0.09830152
     atom    9 type  2   force =     0.00002776    0.00009416   -0.00006838
     atom   10 type  2   force =    -0.00289965    0.00059357   -0.06192909
     atom   11 type  2   force =    -0.00000700   -0.00005590   -0.00001360
     atom   12 type  2   force =    -0.00007753    0.00016031    0.00016117
     atom   13 type  1   force =     0.00010545    0.00016090   -0.00005941
     atom   14 type  1   force =     0.00000476   -0.00007464    0.00010574
     atom   15 type  2   force =    -0.00003022    0.00007212   -0.00010840
     atom   16 type  2   force =     0.00006768    0.00014687   -0.00015455
     atom   17 type  2   force =     0.00003601    0.00018913    0.00023074
     atom   18 type  2   force =     0.00008688    0.00022633   -0.00004820
     atom   19 type  1   force =    -0.00030253   -0.00001575    0.00000131
     atom   20 type  1   force =     0.00046657    0.00025116    0.00012512
     atom   21 type  2   force =     0.00006942    0.00021971    0.09781236
     atom   22 type  2   force =     0.00037145   -0.00004615    0.00002556
     atom   23 type  2   force =    -0.08275488    0.00009132   -0.03302463
     atom   24 type  2   force =     0.08271193    0.00050928   -0.03307308
     atom   25 type  1   force =     0.00010608   -0.00059770    0.12552329
     atom   26 type  1   force =     0.00000684   -0.00170413   -0.15483897
     atom   27 type  2   force =     0.00008846   -0.00076821   -0.06516386
     atom   28 type  2   force =     0.00004960    0.00188637    0.01157923
     atom   29 type  2   force =    -0.00251211    0.00468289   -0.01585932
     atom   30 type  2   force =     0.00368206    0.00501927   -0.01728789
     atom   31 type  1   force =    -0.00029183    0.00180203    0.04010914
     atom   32 type  1   force =     0.00091579   -0.01042274    0.09795943
     atom   33 type  2   force =    -0.00004319   -0.00002430    0.00013678
     atom   34 type  2   force =    -0.00230050    0.00078043   -0.07402154
     atom   35 type  2   force =     0.00011844    0.00002614    0.00002334
     atom   36 type  2   force =    -0.00009957   -0.00007661   -0.00003133
     atom   37 type  1   force =     0.00035628    0.00006318    0.00015546
     atom   38 type  1   force =     0.00011856   -0.00005346   -0.00028266
     atom   39 type  2   force =     0.00012347   -0.00011564   -0.00016100
     atom   40 type  2   force =     0.00002257    0.00003584   -0.00009967
     atom   41 type  2   force =     0.00004726    0.00008593    0.00016452
     atom   42 type  2   force =     0.00007616    0.00006385    0.00009926
     atom   43 type  1   force =     0.00006370   -0.00015193   -0.00006902
     atom   44 type  1   force =     0.00055706    0.00009430    0.00019372
     atom   45 type  2   force =     0.00004448    0.00004561    0.09761435
     atom   46 type  2   force =    -0.08281241    0.00004829   -0.03304258
     atom   47 type  2   force =     0.08274047    0.00048175   -0.03305870
     atom   48 type  3   force =    -0.00432120    0.00021541    0.00352265
     atom   49 type  4   force =     0.00525627   -0.00006468   -0.00326115
     atom   50 type  5   force =    -0.00148390   -0.00059585    0.00036042
     atom   51 type  3   force =    -0.00009247    0.00006587    0.00021813
     atom   52 type  3   force =    -0.00017492    0.00052178    0.00006852
     atom   53 type  3   force =     0.00008566    0.00027359   -0.00004229
     atom   54 type  2   force =     0.00035257   -0.00062761    0.00083905
     atom   55 type  3   force =    -0.00036312    0.00042720   -0.00087641

     Total force =     0.417321     Total SCF correction =     0.000696
  @ DRIVER MODE: Message from server: STATUS
  @ DRIVER MODE: Message from server: GETFORCE
  @ DRIVER MODE: Returning v,forces,stress,ensemble

     Writing output data file ./calc.save/
  @ DRIVER MODE: Message from server: EXIT
  @ DRIVE MODE: Exiting

     General routines

     Parallel routines

   This run was terminated on:  12:56:35  23Sep2021

   JOB DONE.