     Program PWSCF v.6.7GPU starts on 14Sep2021 at 18:43:35

     R & G space division:  proc/nbgrp/npool/nimage =      10
     Reading input from /storage/home/hcoda1/3/ntian30/research/carbon/CxH_vib/CH_calc/ads_slab/CHOHN2_a/out_0015/pw.inp
Warning: card &CELL ignored
Warning: card   CELL_DYNAMICS='IPI', ignored
Warning: card / ignored

     Current dimensions of program PWSCF are:
     Max number of different atomic species (ntypx) = 10
     Max number of k-points (npk) =  40000
     Max angular momentum in pseudopotentials (lmaxx) =  3
     Presently no symmetry can be used with electric field

     Message from routine cell_base_init:
     DEPRECATED: use true lattice parameter, not A to a.u. conversion factor

     IMPORTANT: XC functional enforced from input :
     Exchange-correlation= BEEF-VDW
                           (   1   4  43  14   2   0   0)
     Any further DFT definition will be discarded
     Please, verify this is what you really want

  @ DRIVER MODE: Connecting to
 qe_1139763_2840439.sched-torque.pace.gatech.edum26uwzoq_scratch
  using UNIX socket
  @ DRIVER MODE: Message from server: STATUS
  @ DRIVER MODE: Message from server: INIT
  @ DRIVER MODE: Receiving replica           0          -1
  @ DRIVER MODE: Receiving encoded integer          25
  @ DRIVER MODE:  SCF:  T  FORCE:  T  STRESS:  F  VC:  F  ENSEMBLE:  F
  @ DRIVER MODE:  SCF:  T  FORCE:  T  STRESS:  F  VC:  F  ENSEMBLE:  F

     Using Slab Decomposition

     bravais-lattice index     =            0
     lattice parameter (alat)  =       1.8897  a.u.
     unit-cell volume          =    6658.9804 (a.u.)^3
     number of atoms/cell      =           53
     number of atomic types    =            5
     number of electrons       =       400.00
     number of Kohn-Sham states=          210
     kinetic-energy cutoff     =      29.3995  Ry
     charge density cutoff     =     293.9946  Ry
     scf convergence threshold =      7.3E-08
     mixing beta               =       0.0500
     number of iterations used =            8  plain     mixing
     Exchange-correlation= BEEF-VDW
                           (   1   4  43  14   2   0   0)

     celldm(1)=   1.889726  celldm(2)=   0.000000  celldm(3)=   0.000000
     celldm(4)=   0.000000  celldm(5)=   0.000000  celldm(6)=   0.000000

     crystal axes: (cart. coord. in units of alat)
               a(1) = (   6.579727   0.000000   0.000000 )
               a(2) = (  -0.000775   5.961596   0.000000 )
               a(3) = (   0.000000   0.000000  25.155947 )

     reciprocal axes: (cart. coord. in units 2 pi/alat)
               b(1) = (  0.151982  0.000020  0.000000 )
               b(2) = (  0.000000  0.167740  0.000000 )
               b(3) = (  0.000000  0.000000  0.039752 )

     PseudoPot. # 1 for C  read from file:
     /storage/coda1/p-amedford6/0/shared/rich_project_chbe-medford/medford-share/data/pseudos_module/espresso/nninc/pbe/van/C.UPF
     MD5 check sum: 1a69bf6b8db32088f5b2163dbdb77a27
     Pseudo is Ultrasoft, Zval =  4.0
     Generated by new atomic code, or converted to UPF format
     Using radial grid of  721 points,  4 beta functions with:
                l(1) =   0
                l(2) =   0
                l(3) =   1
                l(4) =   1
     Q(r) pseudized with  8 coefficients,  rinner =    0.800   0.800   0.800

     PseudoPot. # 2 for H  read from file:
     /storage/coda1/p-amedford6/0/shared/rich_project_chbe-medford/medford-share/data/pseudos_module/espresso/nninc/pbe/van/H.UPF
     MD5 check sum: b5ee9d7bfd3a09ee7748110bda690ff7
     Pseudo is Ultrasoft, Zval =  1.0
     Generated by new atomic code, or converted to UPF format
     Using radial grid of  615 points,  1 beta functions with:
                l(1) =   0
     Q(r) pseudized with  8 coefficients,  rinner =    0.800

     PseudoPot. # 3 for O  read from file:
     /storage/coda1/p-amedford6/0/shared/rich_project_chbe-medford/medford-share/data/pseudos_module/espresso/nninc/pbe/van/O.UPF
     MD5 check sum: 78c19812648e8988a0fe644b0f25305e
     Pseudo is Ultrasoft, Zval =  6.0
     Generated by new atomic code, or converted to UPF format
     Using radial grid of  737 points,  4 beta functions with:
                l(1) =   0
                l(2) =   0
                l(3) =   1
                l(4) =   1
     Q(r) pseudized with  8 coefficients,  rinner =    0.800   0.800   0.800

     PseudoPot. # 4 for Ti read from file:
     /storage/coda1/p-amedford6/0/shared/rich_project_chbe-medford/medford-share/data/pseudos_module/espresso/nninc/pbe/van/Ti.UPF
     MD5 check sum: 8e4df49b7f0d34bbd5052bf3f5ea0213
     Pseudo is Ultrasoft, Zval = 12.0
     Generated by new atomic code, or converted to UPF format
     Using radial grid of  851 points,  6 beta functions with:
                l(1) =   0
                l(2) =   0
                l(3) =   1
                l(4) =   1
                l(5) =   2
                l(6) =   2
     Q(r) pseudized with  8 coefficients,  rinner =    1.000   1.000   1.000
                                                       1.000   1.000

     PseudoPot. # 5 for N  read from file:
     /storage/coda1/p-amedford6/0/shared/rich_project_chbe-medford/medford-share/data/pseudos_module/espresso/nninc/pbe/van/N.UPF
     MD5 check sum: 90d10febe142ad51ac9d5be1deb811c4
     Pseudo is Ultrasoft, Zval =  5.0
     Generated by new atomic code, or converted to UPF format
     Using radial grid of  729 points,  4 beta functions with:
                l(1) =   0
                l(2) =   0
                l(3) =   1
                l(4) =   1
     Q(r) pseudized with  8 coefficients,  rinner =    0.800   0.800   0.800

     atomic species   valence    mass     pseudopotential
        C1             4.00    12.01100     C ( 1.00)
        H1             1.00     1.00800     H ( 1.00)
        O1             6.00    15.99900     O ( 1.00)
        Ti1           12.00    47.86700     Ti( 1.00)
        N1             5.00    14.00700     N ( 1.00)

     No symmetry found

   Cartesian axes

     site n.     atom                  positions (alat units)
         1           C1  tau(   1) = (   5.6818245   3.0934261  18.8613826  )
         2           H1  tau(   2) = (   0.9295697   3.0331078  18.1055300  )
         3           H1  tau(   3) = (   5.3049293   4.0639705  19.1352297  )
         4           O1  tau(   4) = (   3.2904802   0.0005063   4.7018136  )
         5           O1  tau(   5) = (   3.2900926   2.9813045   4.7018136  )
         6           O1  tau(   6) = (   1.3043587   1.4918075   6.0039043  )
         7           O1  tau(   7) = (   1.3039711   4.4726057   6.0039043  )
         8           O1  tau(   8) = (   5.2767064   1.4903225   6.0039473  )
         9           O1  tau(   9) = (   5.2763189   4.4711207   6.0039473  )
        10           O1  tau(  10) = (   3.2906025   0.0005020   7.3038282  )
        11           O1  tau(  11) = (   3.2902150   2.9813002   7.3038282  )
        12           O1  tau(  12) = (   0.0006271   0.0005054   7.9858123  )
        13           O1  tau(  13) = (   0.0002396   2.9813036   7.9858123  )
        14           O1  tau(  14) = (   4.5942328   1.4918067   9.2879030  )
        15           O1  tau(  15) = (   4.5938453   4.4726049   9.2879030  )
        16           O1  tau(  16) = (   1.9868534   1.4903216   9.2879459  )
        17           O1  tau(  17) = (   1.9864658   4.4711199   9.2879459  )
        18           O1  tau(  18) = (   6.5737290   0.0025997  10.6073112  )
        19           O1  tau(  19) = (   6.5745157   2.9846488  10.6292520  )
        20           O1  tau(  20) = (   3.2733922   2.9888808  11.3669225  )
        21           O1  tau(  21) = (   3.2734535   0.0083669  11.3733985  )
        22           O1  tau(  22) = (   1.2686495   4.4776606  12.6533150  )
        23           O1  tau(  23) = (   1.2691242   1.4995788  12.6525255  )
        24           O1  tau(  24) = (   5.2697113   4.4789153  12.6558726  )
        25           O1  tau(  25) = (   5.2698035   1.4991558  12.6558074  )
        26           O1  tau(  26) = (   3.2614338   2.9920807  13.9552461  )
        27           O1  tau(  27) = (   3.2541646   0.0113981  14.0020514  )
        28           O1  tau(  28) = (   6.5688946   0.0096870  14.6775192  )
        29           O1  tau(  29) = (   6.5667413   2.9928499  14.8718366  )
        30           O1  tau(  30) = (   4.5340645   4.4751187  16.1466513  )
        31           O1  tau(  31) = (   4.5349815   1.5188077  16.1513287  )
        32           O1  tau(  32) = (   2.0116004   1.5352794  16.1924295  )
        33           O1  tau(  33) = (   2.0125852   4.4566501  16.1924965  )
        34           O1  tau(  34) = (   6.5583959   0.0051910  17.1951124  )
        35           O1  tau(  35) = (   0.0128280   2.9917589  17.7791131  )
        36           Ti1 tau(  36) = (   0.0004258   2.9801865   6.0000000  )
        37           Ti1 tau(  37) = (   0.0000382   5.9609847   6.0000000  )
        38           Ti1 tau(  38) = (   3.2906075   1.4906267   6.0002472  )
        39           Ti1 tau(  39) = (   3.2902200   4.4714249   6.0002472  )
        40           Ti1 tau(  40) = (   3.3204229   0.0006979   9.1540291  )
        41           Ti1 tau(  41) = (   3.3226256   2.9815539   9.1563990  )
        42           Ti1 tau(  42) = (   0.0414996   4.4578595   9.2720048  )
        43           Ti1 tau(  43) = (   0.0419130   1.4910583   9.2667342  )
        44           Ti1 tau(  44) = (   6.5463313   0.0151476  12.4833176  )
        45           Ti1 tau(  45) = (   3.2510826   4.4792010  12.5152252  )
        46           Ti1 tau(  46) = (   3.2519543   1.5009035  12.5151888  )
        47           Ti1 tau(  47) = (   6.5510796   2.9946678  12.5453677  )
        48           Ti1 tau(  48) = (   3.2768179   2.9983465  15.7429562  )
        49           Ti1 tau(  49) = (   3.2517467   0.0179395  15.7976682  )
        50           Ti1 tau(  50) = (   6.5407926   4.5726425  15.9111250  )
        51           Ti1 tau(  51) = (   6.5448107   1.3670631  15.9596882  )
        52           N1  tau(  52) = (   4.6962475   1.0170953  19.6889386  )
        53           N1  tau(  53) = (   5.1479752   2.0001232  19.2934520  )

     number of k points=    10  Fermi-Dirac smearing, width (Ry)=  0.0073
                       cart. coord. in units 2pi/alat
        k(    1) = (   0.0000000   0.0000000   0.0000000), wk =   0.1250000
        k(    2) = (   0.0000000   0.0419351   0.0000000), wk =   0.2500000
        k(    3) = (   0.0000000  -0.0838702   0.0000000), wk =   0.1250000
        k(    4) = (   0.0379955   0.0000049   0.0000000), wk =   0.2500000
        k(    5) = (   0.0379955   0.0419400   0.0000000), wk =   0.2500000
        k(    6) = (   0.0379955  -0.0838652   0.0000000), wk =   0.2500000
        k(    7) = (   0.0379955  -0.0419301   0.0000000), wk =   0.2500000
        k(    8) = (  -0.0759910  -0.0000099   0.0000000), wk =   0.1250000
        k(    9) = (  -0.0759910   0.0419252   0.0000000), wk =   0.2500000
        k(   10) = (  -0.0759910  -0.0838800   0.0000000), wk =   0.1250000

     Initial potential from superposition of free atoms

     starting charge  383.99917, renormalised to  400.00000

     negative rho (up, down):  1.647E-02 0.000E+00

     %%%%%%%%%%%%%%%%%%%%%%%%%%%%%%%%%%%%%%%%%%%%%%%%%%%%%%%%%%%%%%%%%%%%%%%%
     %                                                                      %
     % You are using vdW-DF, which was implemented by the Thonhauser group. %
     % Please cite the following two papers that made this development      %
     % possible and the two reviews that describe the various versions:     %
     %                                                                      %
     %   T. Thonhauser et al., PRL 115, 136402 (2015).                      %
     %   T. Thonhauser et al., PRB 76, 125112 (2007).                       %
     %   K. Berland et al., Rep. Prog. Phys. 78, 066501 (2015).             %
     %   D.C. Langreth et al., J. Phys.: Condens. Matter 21, 084203 (2009). %
     %                                                                      %
     %                                                                      %
     % If you are calculating the stress with vdW-DF, please also cite:     %
     %                                                                      %
     %   R. Sabatini et al., J. Phys.: Condens. Matter 24, 424209 (2012).   %
     %                                                                      %
     %%%%%%%%%%%%%%%%%%%%%%%%%%%%%%%%%%%%%%%%%%%%%%%%%%%%%%%%%%%%%%%%%%%%%%%%

     Adding external electric field

     Computed dipole along edir(3) :
        Dipole              -12.5100 Ry au,        -31.7972 Debye
        Dipole field         -0.0236 Ry au,

        Potential amp.        2.1884 Ry
        Total length         46.3494 bohr

     Starting wfcs are  302 atomic wfcs
  @ DRIVER MODE: Message from server: STATUS
  @ DRIVER MODE: Message from server: POSDATA
  @ DRIVER MODE: Reading and sharing cell
  @ DRIVER MODE: Reading and sharing positions
  @ DRIVER MODE: Received positions

     Self-consistent Calculation

     iteration #  1     ecut=    29.40 Ry     beta= 0.05
     Davidson diagonalization with overlap
     c_bands:  3 eigenvalues not converged
     c_bands:  1 eigenvalues not converged
     c_bands:  4 eigenvalues not converged
     c_bands:  2 eigenvalues not converged
     c_bands:  5 eigenvalues not converged
     c_bands:  4 eigenvalues not converged
     c_bands:  1 eigenvalues not converged
     c_bands:  4 eigenvalues not converged
     c_bands:  1 eigenvalues not converged
     ethr =  1.00E-05,  avg # of iterations = 20.9

[...]

     total energy              =   -2397.10038342 Ry
     estimated scf accuracy    <    6493.83273178 Ry

     iteration #  2     ecut=    29.40 Ry     beta= 0.05
     Davidson diagonalization with overlap
     ethr =  1.00E-02,  avg # of iterations = 23.3

[...]

     iteration # 82     ecut=    29.40 Ry     beta= 0.05
     Davidson diagonalization with overlap
     c_bands:  1 eigenvalues not converged
     c_bands:  1 eigenvalues not converged
     c_bands:  1 eigenvalues not converged
     ethr =  3.34E-11,  avg # of iterations = 18.0

[...]

     total energy              =   -2970.16552800 Ry
     estimated scf accuracy    <       0.00000008 Ry

     iteration # 85     ecut=    29.40 Ry     beta= 0.05
     Davidson diagonalization with overlap
     ethr =  2.12E-11,  avg # of iterations =  9.0

     negative rho (up, down):  1.635E-02 0.000E+00

     Adding external electric field

     Computed dipole along edir(3) :
        Dipole                0.8231 Ry au,          2.0921 Debye
        Dipole field          0.0016 Ry au,

        Potential amp.       -0.1440 Ry
        Total length         46.3494 bohr

     End of self-consistent calculation

          k = 0.0000 0.0000 0.0000 ( 18029 PWs)   bands (ev):

   -55.5648 -55.5346 -55.5287 -55.5002 -55.4623 -55.4553 -55.4414 -55.4079
   -55.4028 -55.3868 -55.3686 -55.3599 -55.3478 -55.3140 -54.6278 -54.5937
   -32.1349 -32.0575 -32.0299 -31.9387 -31.8848 -31.8782 -31.8752 -31.8574
   -31.8230 -31.8140 -31.7773 -31.7760 -31.7687 -31.7468 -31.7406 -31.7184
   -31.7153 -31.6998 -31.6914 -31.6886 -31.6839 -31.6799 -31.6596 -31.6508
   -31.6503 -31.6315 -31.6306 -31.6058 -31.5918 -31.5898 -31.5761 -31.5538
   -31.5536 -31.5518 -31.5431 -31.5323 -31.5280 -31.5017 -31.4922 -31.4831
   -31.4733 -31.4585 -31.0401 -30.9370 -30.9155 -30.8564 -30.7700 -30.6590
   -21.1009 -20.3069 -16.3884 -16.1323 -15.9816 -15.8795 -15.7817 -15.6377
   -15.6094 -15.5035 -15.3741 -15.2917 -15.2358 -15.2290 -15.2132 -15.2005
   -15.1863 -15.1811 -15.1220 -15.0925 -15.0677 -15.0533 -15.0448 -15.0099
   -14.9545 -14.9479 -14.9327 -14.7942 -14.7261 -14.6665 -14.3567 -14.2557
   -13.1283 -13.0088  -8.5371  -6.8027  -5.6735  -4.5366  -4.0280  -3.7468
    -3.7181  -3.5726  -3.4978  -3.4785  -3.4284  -3.3085  -3.1575  -2.9941
    -2.8975  -2.8451  -2.8204  -2.7698  -2.7313  -2.6986  -2.5239  -2.5099
    -2.4819  -2.4569  -2.4396  -2.4331  -2.4038  -2.3334  -2.3146  -2.3071
    -2.2819  -2.1497  -2.1306  -2.0340  -1.9928  -1.9623  -1.9032  -1.8888
    -1.8838  -1.8534  -1.8333  -1.8187  -1.8140  -1.7764  -1.5926  -1.5859
    -1.4712  -1.4260  -1.3460  -1.2937  -1.1246  -1.1225  -1.0627  -1.0367
    -1.0102  -0.9702  -0.9646  -0.9232  -0.8077  -0.7189  -0.6760  -0.6066
    -0.5651  -0.5010  -0.4551  -0.3626  -0.3525  -0.3362  -0.3207  -0.1955
    -0.1354  -0.0954  -0.0640  -0.0188  -0.0056   0.0951   0.1153   0.1928
     0.2000   0.2596   0.2607   0.3622   0.3753   0.3822   0.4077   0.4289
     0.5156   0.5874   0.5909   0.6072   0.7686   0.9730   0.9929   1.0401
     1.2855   1.3874   1.3984   1.5328   1.5573   1.9853   2.0408   3.5309
     3.5990   3.6384   3.6557   3.6701   3.7380   3.9926   4.0205   4.0389
     4.0551   4.0623

[...]

          k = 0.0380-0.0419 0.0000 ( 17876 PWs)   bands (ev):

[...]

          k =-0.0760-0.0000 0.0000 ( 17886 PWs)   bands (ev):

[...]

          k =-0.0760-0.0839 0.0000 ( 17948 PWs)   bands (ev):

   -55.5472 -55.5461 -55.5193 -55.5153 -55.4589 -55.4479 -55.4350 -55.4152
   -55.3935 -55.3866 -55.3844 -55.3627 -55.3319 -55.3300 -54.6107 -54.6107
   -31.9755 -31.9386 -31.9372 -31.8585 -31.8468 -31.8429 -31.8239 -31.8122
   -31.8045 -31.7844 -31.7676 -31.7651 -31.7607 -31.7215 -31.7177 -31.7048
   -31.7033 -31.7021 -31.6927 -31.6889 -31.6863 -31.6844 -31.6725 -31.6515
   -31.6486 -31.6472 -31.6454 -31.6419 -31.6381 -31.6358 -31.6331 -31.6081
   -31.6067 -31.5918 -31.5848 -31.5846 -31.5772 -31.5571 -31.5556 -31.5450
   -31.5182 -31.5152 -30.9280 -30.9280 -30.8528 -30.8527 -30.8132 -30.8132
   -21.0988 -20.3065 -15.9174 -15.8062 -15.7456 -15.5695 -15.5592 -15.5532
   -15.5286 -15.3925 -15.3769 -15.3627 -15.3249 -15.3156 -15.2971 -15.2888
   -15.2705 -15.1581 -15.1552 -15.1471 -15.1445 -15.0825 -15.0792 -15.0644
   -15.0481 -15.0082 -15.0078 -14.9946 -14.9906 -14.8568 -14.6943 -14.2632
   -13.1102 -13.1092  -8.5271  -6.8066  -5.6812  -4.5173  -3.9985  -3.6507
    -3.0836  -3.0247  -3.0071  -2.7836  -2.7655  -2.7284  -2.6886  -2.6311
    -2.5589  -2.5471  -2.5459  -2.4800  -2.4721  -2.4611  -2.4585  -2.4460
    -2.3951  -2.3902  -2.3514  -2.3434  -2.3008  -2.2731  -2.2616  -2.2342
    -2.2270  -2.2263  -2.2046  -2.1884  -2.1741  -2.1696  -2.0639  -2.0057
    -1.9232  -1.8895  -1.8085  -1.7912  -1.7764  -1.6992  -1.6633  -1.6389
    -1.5806  -1.5793  -1.4986  -1.3712  -1.3627  -1.3551  -1.2849  -1.2044
    -1.1946  -1.1527  -1.0990  -1.0521  -1.0337  -0.9461  -0.8909  -0.8778
    -0.7693  -0.7586  -0.7017  -0.5941  -0.5616  -0.5600  -0.5557  -0.5434
    -0.4662  -0.4500  -0.3957  -0.3596  -0.3092  -0.2850  -0.2585  -0.0643
    -0.0550   0.0179   0.1247   0.1708   0.3350   0.3524   0.3741   0.4580
     0.5012   0.5133   0.5857   0.7058   0.7182   0.7648   0.8240   0.8607
     0.8693   0.9052   1.4855   1.7500   1.7508   1.8544   1.8576   3.6817
     3.7700   3.7852   3.8148   3.8635   3.9536   4.0396   4.0565   4.0838
     4.0921   4.1658

     the Fermi energy is     3.5868 ev

!    total energy              =   -2970.16553310 Ry
     estimated scf accuracy    <       0.00000006 Ry
     smearing contrib. (-TS)   =      -0.03781278 Ry
     internal energy E=F+TS    =   -2970.12772032 Ry

     The total energy is F=E-TS. E is the sum of the following terms:
     one-electron contribution =  -23546.37204884 Ry
     hartree contribution      =   11864.94176786 Ry
     xc contribution           =    -491.70214297 Ry
     ewald contribution        =    9203.00342518 Ry
     electric field correction =       0.00127845 Ry

     convergence has been achieved in  85 iterations

     Forces acting on atoms (cartesian axes, Ry/au):

     atom    1 type  1   force =     0.00023927    0.00009589    0.00097601
     atom    2 type  2   force =     0.00071686   -0.00019620    0.00026348
     atom    3 type  2   force =     0.00010334   -0.00030420   -0.00029866
     atom    4 type  3   force =     0.00006088    0.00000539    0.10502200
     atom    5 type  3   force =     0.00004444    0.00002688    0.10504348
     atom    6 type  3   force =    -0.06778146   -0.00001969   -0.02684271
     atom    7 type  3   force =    -0.06782163   -0.00058194   -0.02687573
     atom    8 type  3   force =     0.06765690    0.00043194   -0.02689791
     atom    9 type  3   force =     0.06769091   -0.00014796   -0.02693484
     atom   10 type  3   force =     0.00072128    0.00002991    0.05052726
     atom   11 type  3   force =     0.00077332    0.00001634    0.05059701
     atom   12 type  3   force =     0.00060861   -0.00002938   -0.02309466
     atom   13 type  3   force =     0.00057221   -0.00016579   -0.02182939
     atom   14 type  3   force =    -0.01558626   -0.00017077    0.00501063
     atom   15 type  3   force =    -0.01565345    0.00009326    0.00498447
     atom   16 type  3   force =     0.01435516    0.00026336    0.00478935
     atom   17 type  3   force =     0.01443056    0.00060223    0.00479867
     atom   18 type  3   force =    -0.00006676    0.00000176   -0.00022511
     atom   19 type  3   force =    -0.00014265   -0.00000890   -0.00003257
     atom   20 type  3   force =    -0.00012246    0.00009881   -0.00009751
     atom   21 type  3   force =     0.00004361   -0.00012010    0.00011902
     atom   22 type  3   force =     0.00025382    0.00007651    0.00003616
     atom   23 type  3   force =     0.00001147    0.00023856    0.00006971
     atom   24 type  3   force =    -0.00016933   -0.00005613    0.00021328
     atom   25 type  3   force =     0.00007246    0.00007467    0.00009831
     atom   26 type  3   force =     0.00022785   -0.00011764   -0.00002423
     atom   27 type  3   force =    -0.00008688    0.00016882   -0.00004835
     atom   28 type  3   force =    -0.00011263   -0.00158797    0.00151545
     atom   29 type  3   force =     0.00035619   -0.00038066   -0.00146918
     atom   30 type  3   force =     0.00020818   -0.00075001   -0.00021614
     atom   31 type  3   force =    -0.00008945    0.00032235   -0.00010150
     atom   32 type  3   force =     0.00026199    0.00014488   -0.00008355
     atom   33 type  3   force =     0.00002295   -0.00071266   -0.00010339
     atom   34 type  3   force =    -0.00001724    0.00024550   -0.00155617
     atom   35 type  3   force =    -0.00070513    0.00023188   -0.00119685
     atom   36 type  4   force =    -0.00022822    0.00013725    0.09291905
     atom   37 type  4   force =    -0.00015289   -0.00011473    0.09676891
     atom   38 type  4   force =    -0.00009307    0.00039313   -0.18354788
     atom   39 type  4   force =    -0.00004072   -0.00058152   -0.18368226
     atom   40 type  4   force =     0.00001806    0.00005413    0.00018486
     atom   41 type  4   force =     0.00018580   -0.00001572    0.00008617
     atom   42 type  4   force =    -0.00037076    0.00013514   -0.00013427
     atom   43 type  4   force =    -0.00023940    0.00031230    0.00014462
     atom   44 type  4   force =     0.00017722    0.00017818    0.00127041
     atom   45 type  4   force =    -0.00006499    0.00005627    0.00022261
     atom   46 type  4   force =    -0.00009816    0.00006570    0.00020056
     atom   47 type  4   force =    -0.00008656   -0.00014171   -0.00122179
     atom   48 type  4   force =    -0.00007829   -0.00040089   -0.00007866
     atom   49 type  4   force =    -0.00013901    0.00022050    0.00002841
     atom   50 type  4   force =    -0.00011750    0.01005438    0.00000744
     atom   51 type  4   force =     0.00019870   -0.00885682    0.00140433
     atom   52 type  5   force =    -0.00096858   -0.00046817   -0.00088468
     atom   53 type  5   force =     0.00102142    0.00115363    0.00017635

     Total force =     0.368872     Total SCF correction =     0.000782
  @ DRIVER MODE: Message from server: STATUS
  @ DRIVER MODE: Message from server: GETFORCE
  @ DRIVER MODE: Returning v,forces,stress,ensemble

     Writing output data file ./calc.save/
  @ DRIVER MODE: Message from server: EXIT
  @ DRIVE MODE: Exiting

     General routines

     Parallel routines

   This run was terminated on:  19: 5:19  14Sep2021

   JOB DONE.