     Program PWSCF v.6.7GPU starts on 15Sep2021 at 23:24: 6

     R & G space division:  proc/nbgrp/npool/nimage =      10
     Reading input from /storage/home/hcoda1/3/ntian30/research/carbon/CxH_vib/H2O_calc/ads_slab/CH3N2H2O_c/out_0025/pw.inp
Warning: card &CELL ignored
Warning: card   CELL_DYNAMICS='IPI', ignored
Warning: card / ignored

     Current dimensions of program PWSCF are:
     Max number of different atomic species (ntypx) = 10
     Max number of k-points (npk) =  40000
     Max angular momentum in pseudopotentials (lmaxx) =  3
     Presently no symmetry can be used with electric field

     Message from routine cell_base_init:
     DEPRECATED: use true lattice parameter, not A to a.u. conversion factor

     IMPORTANT: XC functional enforced from input :
     Exchange-correlation= BEEF-VDW
                           (   1   4  43  14   2   0   0)
     Any further DFT definition will be discarded
     Please, verify this is what you really want

  @ DRIVER MODE: Connecting to
 qe_1139763_2852616.sched-torque.pace.gatech.eduzdnrk3wb_scratch
  using UNIX socket
  @ DRIVER MODE: Message from server: STATUS
  @ DRIVER MODE: Message from server: INIT
  @ DRIVER MODE: Receiving replica           0          -1
  @ DRIVER MODE: Receiving encoded integer          25
  @ DRIVER MODE:  SCF:  T  FORCE:  T  STRESS:  F  VC:  F  ENSEMBLE:  F
  @ DRIVER MODE:  SCF:  T  FORCE:  T  STRESS:  F  VC:  F  ENSEMBLE:  F

     Using Slab Decomposition

     bravais-lattice index     =            0
     lattice parameter (alat)  =       1.8897  a.u.
     unit-cell volume          =    6658.9804 (a.u.)^3
     number of atoms/cell      =           56
     number of atomic types    =            5
     number of electrons       =       403.00
     number of Kohn-Sham states=          211
     kinetic-energy cutoff     =      29.3995  Ry
     charge density cutoff     =     293.9946  Ry
     scf convergence threshold =      7.3E-08
     mixing beta               =       0.0500
     number of iterations used =            8  plain     mixing
     Exchange-correlation= BEEF-VDW
                           (   1   4  43  14   2   0   0)

     celldm(1)=   1.889726  celldm(2)=   0.000000  celldm(3)=   0.000000
     celldm(4)=   0.000000  celldm(5)=   0.000000  celldm(6)=   0.000000

     crystal axes: (cart. coord. in units of alat)
               a(1) = (   6.579727   0.000000   0.000000 )
               a(2) = (  -0.000775   5.961596   0.000000 )
               a(3) = (   0.000000   0.000000  25.155947 )

     reciprocal axes: (cart. coord. in units 2 pi/alat)
               b(1) = (  0.151982  0.000020  0.000000 )
               b(2) = (  0.000000  0.167740  0.000000 )
               b(3) = (  0.000000  0.000000  0.039752 )

     PseudoPot. # 1 for Ti read from file:
     /storage/coda1/p-amedford6/0/shared/rich_project_chbe-medford/medford-share/data/pseudos_module/espresso/nninc/pbe/van/Ti.UPF
     MD5 check sum: 8e4df49b7f0d34bbd5052bf3f5ea0213
     Pseudo is Ultrasoft, Zval = 12.0
     Generated by new atomic code, or converted to UPF format
     Using radial grid of  851 points,  6 beta functions with:
                l(1) =   0
                l(2) =   0
                l(3) =   1
                l(4) =   1
                l(5) =   2
                l(6) =   2
     Q(r) pseudized with  8 coefficients,  rinner =    1.000   1.000   1.000
                                                       1.000   1.000

     PseudoPot. # 2 for O  read from file:
     /storage/coda1/p-amedford6/0/shared/rich_project_chbe-medford/medford-share/data/pseudos_module/espresso/nninc/pbe/van/O.UPF
     MD5 check sum: 78c19812648e8988a0fe644b0f25305e
     Pseudo is Ultrasoft, Zval =  6.0
     Generated by new atomic code, or converted to UPF format
     Using radial grid of  737 points,  4 beta functions with:
                l(1) =   0
                l(2) =   0
                l(3) =   1
                l(4) =   1
     Q(r) pseudized with  8 coefficients,  rinner =    0.800   0.800   0.800

     PseudoPot. # 3 for N  read from file:
     /storage/coda1/p-amedford6/0/shared/rich_project_chbe-medford/medford-share/data/pseudos_module/espresso/nninc/pbe/van/N.UPF
     MD5 check sum: 90d10febe142ad51ac9d5be1deb811c4
     Pseudo is Ultrasoft, Zval =  5.0
     Generated by new atomic code, or converted to UPF format
     Using radial grid of  729 points,  4 beta functions with:
                l(1) =   0
                l(2) =   0
                l(3) =   1
                l(4) =   1
     Q(r) pseudized with  8 coefficients,  rinner =    0.800   0.800   0.800

     PseudoPot. # 4 for C  read from file:
     /storage/coda1/p-amedford6/0/shared/rich_project_chbe-medford/medford-share/data/pseudos_module/espresso/nninc/pbe/van/C.UPF
     MD5 check sum: 1a69bf6b8db32088f5b2163dbdb77a27
     Pseudo is Ultrasoft, Zval =  4.0
     Generated by new atomic code, or converted to UPF format
     Using radial grid of  721 points,  4 beta functions with:
                l(1) =   0
                l(2) =   0
                l(3) =   1
                l(4) =   1
     Q(r) pseudized with  8 coefficients,  rinner =    0.800   0.800   0.800

     PseudoPot. # 5 for H  read from file:
     /storage/coda1/p-amedford6/0/shared/rich_project_chbe-medford/medford-share/data/pseudos_module/espresso/nninc/pbe/van/H.UPF
     MD5 check sum: b5ee9d7bfd3a09ee7748110bda690ff7
     Pseudo is Ultrasoft, Zval =  1.0
     Generated by new atomic code, or converted to UPF format
     Using radial grid of  615 points,  1 beta functions with:
                l(1) =   0
     Q(r) pseudized with  8 coefficients,  rinner =    0.800

     atomic species   valence    mass     pseudopotential
        Ti1           12.00    47.86700     Ti( 1.00)
        O1             6.00    15.99900     O ( 1.00)
        N1             5.00    14.00700     N ( 1.00)
        C1             4.00    12.01100     C ( 1.00)
        H1             1.00     1.00800     H ( 1.00)

     No symmetry found

   Cartesian axes

     site n.     atom                  positions (alat units)
         1           Ti1 tau(   1) = (   0.0004258   2.9801865   6.0000000  )
         2           Ti1 tau(   2) = (   3.2906075   1.4906267   6.0002472  )
         3           O1  tau(   3) = (   0.0006271   0.0005054   7.9858123  )
         4           O1  tau(   4) = (   3.2906025   0.0005020   7.3038282  )
         5           O1  tau(   5) = (   4.5942328   1.4918067   9.2879030  )
         6           O1  tau(   6) = (   1.9868534   1.4903216   9.2879459  )
         7           Ti1 tau(   7) = (   3.2907910   2.8959150   9.1758416  )
         8           Ti1 tau(   8) = (   0.0015273   1.4827037   9.2680791  )
         9           O1  tau(   9) = (   3.2828550   5.9398922  11.3444325  )
        10           O1  tau(  10) = (   0.0116148   5.9584955  10.6183126  )
        11           O1  tau(  11) = (   1.2785533   1.4626539  12.6279770  )
        12           O1  tau(  12) = (   5.2704455   1.4657548  12.6160130  )
        13           Ti1 tau(  13) = (   0.0600808   2.9393476  12.6134163  )
        14           Ti1 tau(  14) = (   3.3737088   1.4602624  12.5010433  )
        15           O1  tau(  15) = (   6.5684750   5.9323085  14.6353932  )
        16           O1  tau(  16) = (   3.2849856   5.9366180  13.9618146  )
        17           O1  tau(  17) = (   4.5362432   1.5114280  16.0576559  )
        18           O1  tau(  18) = (   2.0240554   1.5008084  16.0383298  )
        19           Ti1 tau(  19) = (   3.2703657   2.9522362  15.6888820  )
        20           Ti1 tau(  20) = (   6.5391562   1.4934284  15.8005638  )
        21           O1  tau(  21) = (   3.2904802   0.0005063   4.7018136  )
        22           O1  tau(  22) = (   6.5583345   5.9570231  17.1947061  )
        23           O1  tau(  23) = (   1.3043587   1.4918075   6.0039043  )
        24           O1  tau(  24) = (   5.2767064   1.4903225   6.0039473  )
        25           Ti1 tau(  25) = (   0.0000382   5.9609847   6.0000000  )
        26           Ti1 tau(  26) = (   3.2902200   4.4714249   6.0002472  )
        27           O1  tau(  27) = (   0.0002396   2.9813036   7.9858123  )
        28           O1  tau(  28) = (   3.2902150   2.9813002   7.3038282  )
        29           O1  tau(  29) = (   4.5938453   4.4726049   9.2879030  )
        30           O1  tau(  30) = (   1.9864658   4.4711199   9.2879459  )
        31           Ti1 tau(  31) = (   3.2891106   5.8743827   9.1763621  )
        32           Ti1 tau(  32) = (   0.0006254   4.4649316   9.2693709  )
        33           O1  tau(  33) = (   3.2888364   2.9620848  11.3424199  )
        34           O1  tau(  34) = (   0.0092240   2.9805883  10.6323155  )
        35           O1  tau(  35) = (   1.2785924   4.4508711  12.6313046  )
        36           O1  tau(  36) = (   5.2742027   4.4576360  12.6186982  )
        37           Ti1 tau(  37) = (   0.0560446   5.9134488  12.5469576  )
        38           Ti1 tau(  38) = (   3.3742563   4.4530221  12.5021653  )
        39           O1  tau(  39) = (   6.5655761   2.9369947  14.6516633  )
        40           O1  tau(  40) = (   3.2805149   2.9594171  13.8967751  )
        41           O1  tau(  41) = (   4.5308665   4.4203993  16.0704334  )
        42           O1  tau(  42) = (   2.0169005   4.4237906  16.0574931  )
        43           Ti1 tau(  43) = (   3.2493829   5.9208236  15.8028744  )
        44           Ti1 tau(  44) = (   6.5423592   4.6318136  16.0678394  )
        45           O1  tau(  45) = (   3.2900926   2.9813045   4.7018136  )
        46           O1  tau(  46) = (   1.3039711   4.4726057   6.0039043  )
        47           O1  tau(  47) = (   5.2763189   4.4711207   6.0039473  )
        48           N1  tau(  48) = (   0.1516996   2.6368831  18.6397825  )
        49           N1  tau(  49) = (   0.0343947   2.8734663  17.4441277  )
        50           C1  tau(  50) = (   0.1908864   3.7705318  19.5986308  )
        51           H1  tau(  51) = (   6.5333492   4.7333814  19.1494580  )
        52           H1  tau(  52) = (   6.0716938   3.5230213  20.4074400  )
        53           H1  tau(  53) = (   1.1988782   3.7880179  20.0220438  )
        54           O1  tau(  54) = (   3.2442500   5.9498283  18.2024067  )
        55           H1  tau(  55) = (   4.0366425   0.4867780  18.4672138  )
        56           H1  tau(  56) = (   2.4709518   0.5160301  18.4623371  )

     number of k points=    10  Fermi-Dirac smearing, width (Ry)=  0.0073
                       cart. coord. in units 2pi/alat
        k(    1) = (   0.0000000   0.0000000   0.0000000), wk =   0.1250000
        k(    2) = (   0.0000000   0.0419351   0.0000000), wk =   0.2500000
        k(    3) = (   0.0000000  -0.0838702   0.0000000), wk =   0.1250000
        k(    4) = (   0.0379955   0.0000049   0.0000000), wk =   0.2500000
        k(    5) = (   0.0379955   0.0419400   0.0000000), wk =   0.2500000
        k(    6) = (   0.0379955  -0.0838652   0.0000000), wk =   0.2500000
        k(    7) = (   0.0379955  -0.0419301   0.0000000), wk =   0.2500000
        k(    8) = (  -0.0759910  -0.0000099   0.0000000), wk =   0.1250000
        k(    9) = (  -0.0759910   0.0419252   0.0000000), wk =   0.2500000
        k(   10) = (  -0.0759910  -0.0838800   0.0000000), wk =   0.1250000

     Initial potential from superposition of free atoms

     starting charge  386.99914, renormalised to  403.00000

     negative rho (up, down):  1.444E-02 0.000E+00

     %%%%%%%%%%%%%%%%%%%%%%%%%%%%%%%%%%%%%%%%%%%%%%%%%%%%%%%%%%%%%%%%%%%%%%%%
     %                                                                      %
     % You are using vdW-DF, which was implemented by the Thonhauser group. %
     % Please cite the following two papers that made this development      %
     % possible and the two reviews that describe the various versions:     %
     %                                                                      %
     %   T. Thonhauser et al., PRL 115, 136402 (2015).                      %
     %   T. Thonhauser et al., PRB 76, 125112 (2007).                       %
     %   K. Berland et al., Rep. Prog. Phys. 78, 066501 (2015).             %
     %   D.C. Langreth et al., J. Phys.: Condens. Matter 21, 084203 (2009). %
     %                                                                      %
     %                                                                      %
     % If you are calculating the stress with vdW-DF, please also cite:     %
     %                                                                      %
     %   R. Sabatini et al., J. Phys.: Condens. Matter 24, 424209 (2012).   %
     %                                                                      %
     %%%%%%%%%%%%%%%%%%%%%%%%%%%%%%%%%%%%%%%%%%%%%%%%%%%%%%%%%%%%%%%%%%%%%%%%

     Adding external electric field

     Computed dipole along edir(3) :
        Dipole              -13.2286 Ry au,        -33.6236 Debye
        Dipole field         -0.0250 Ry au,

        Potential amp.        2.3141 Ry
        Total length         46.3494 bohr

     Starting wfcs are  305 atomic wfcs
  @ DRIVER MODE: Message from server: STATUS
  @ DRIVER MODE: Message from server: POSDATA
  @ DRIVER MODE: Reading and sharing cell
  @ DRIVER MODE: Reading and sharing positions
  @ DRIVER MODE: Received positions

     Self-consistent Calculation

     iteration #  1     ecut=    29.40 Ry     beta= 0.05
     Davidson diagonalization with overlap
     c_bands:  4 eigenvalues not converged
     c_bands:  2 eigenvalues not converged
     c_bands:  4 eigenvalues not converged
     c_bands:  1 eigenvalues not converged
     c_bands:  1 eigenvalues not converged
     c_bands:  1 eigenvalues not converged
     c_bands:  4 eigenvalues not converged
     c_bands:  1 eigenvalues not converged
     c_bands:  1 eigenvalues not converged
     ethr =  1.00E-05,  avg # of iterations = 29.9

[...]

     total energy              =   -2367.55585345 Ry
     estimated scf accuracy    <    6916.35482194 Ry

     iteration #  2     ecut=    29.40 Ry     beta= 0.05
     Davidson diagonalization with overlap
     ethr =  1.00E-02,  avg # of iterations = 23.9

[...]

     iteration # 56     ecut=    29.40 Ry     beta= 0.05
     Davidson diagonalization with overlap
     c_bands:  1 eigenvalues not converged
     ethr =  1.20E-08,  avg # of iterations = 15.2

[...]

     total energy              =   -2974.00305785 Ry
     estimated scf accuracy    <       0.00000009 Ry

     iteration # 70     ecut=    29.40 Ry     beta= 0.05
     Davidson diagonalization with overlap
     ethr =  2.35E-11,  avg # of iterations =  2.0

     negative rho (up, down):  1.456E-02 0.000E+00

     Adding external electric field

     Computed dipole along edir(3) :
        Dipole                0.9224 Ry au,          2.3446 Debye
        Dipole field          0.0017 Ry au,

        Potential amp.       -0.1614 Ry
        Total length         46.3494 bohr

     End of self-consistent calculation

          k = 0.0000 0.0000 0.0000 ( 18029 PWs)   bands (ev):

   -55.6029 -55.5688 -55.5621 -55.5549 -55.5261 -55.4363 -55.4130 -55.3960
   -55.3791 -55.3783 -55.3503 -55.3445 -55.0023 -54.8735 -54.5817 -54.5476
   -32.1044 -32.0853 -31.9540 -31.9363 -31.9118 -31.8957 -31.8681 -31.8655
   -31.8458 -31.7987 -31.7916 -31.7774 -31.7552 -31.7407 -31.7249 -31.7190
   -31.7072 -31.6948 -31.6893 -31.6601 -31.6533 -31.6407 -31.6058 -31.6016
   -31.5909 -31.5887 -31.5851 -31.5773 -31.5533 -31.5498 -31.5479 -31.5429
   -31.5311 -31.5297 -31.5199 -31.5116 -31.4902 -31.2717 -31.2012 -31.1309
   -31.1103 -31.0800 -30.9888 -30.9003 -30.8779 -30.8055 -30.7190 -30.6080
   -18.9021 -18.3032 -16.3022 -16.0691 -15.8437 -15.7520 -15.7108 -15.5044
   -15.4038 -15.3279 -15.2102 -15.1461 -15.1378 -15.1188 -15.1074 -15.1029
   -15.0436 -15.0400 -15.0380 -15.0241 -14.9987 -14.9511 -14.9363 -14.9321
   -14.8371 -14.7646 -14.7403 -14.7232 -14.6805 -14.6554 -14.2037 -13.0840
   -12.9676 -11.3074  -6.8582  -6.6927  -4.2055  -3.8613  -3.8103  -3.6765
    -3.5475  -3.5074  -3.4366  -3.3646  -3.2336  -3.2090  -3.0363  -2.8366
    -2.7767  -2.7479  -2.7021  -2.6309  -2.5159  -2.4596  -2.4093  -2.4066
    -2.3870  -2.3812  -2.3569  -2.3386  -2.2409  -2.2211  -2.1509  -2.1359
    -2.0866  -1.9863  -1.9566  -1.9153  -1.9058  -1.8776  -1.8648  -1.8512
    -1.8281  -1.8037  -1.7629  -1.6957  -1.6149  -1.5806  -1.5037  -1.4492
    -1.4091  -1.3490  -1.2132  -1.1378  -1.0896  -1.0577  -1.0479  -1.0295
    -0.9954  -0.9783  -0.8673  -0.7550  -0.7390  -0.6743  -0.6117  -0.5287
    -0.4952  -0.4343  -0.3698  -0.3522  -0.3470  -0.3108  -0.2692  -0.2227
    -0.0850  -0.0299   0.0038   0.0118   0.0732   0.1145   0.1459   0.2285
     0.2433   0.2829   0.3262   0.3574   0.3685   0.3784   0.3995   0.4302
     0.4349   0.6246   0.6677   0.7124   0.7469   0.7850   0.9310   0.9498
     1.0565   1.1621   1.3673   1.4405   1.5399   1.6326   2.0119   2.0577
     2.7594   3.5313   3.6189   3.6637   3.7012   3.7772   3.7881   3.9865
     4.0016   4.0407   4.1159

[...]

          k = 0.0380-0.0419 0.0000 ( 17876 PWs)   bands (ev):

[...]

          k =-0.0760-0.0000 0.0000 ( 17886 PWs)   bands (ev):

[...]

          k =-0.0760-0.0839 0.0000 ( 17948 PWs)   bands (ev):

   -55.5863 -55.5853 -55.5538 -55.5452 -55.5424 -55.4266 -55.4059 -55.3966
   -55.3948 -55.3634 -55.3597 -55.3517 -55.0001 -54.8755 -54.5647 -54.5645
   -31.9181 -31.9017 -31.9009 -31.9002 -31.8816 -31.8806 -31.8410 -31.8323
   -31.8053 -31.7843 -31.7726 -31.7644 -31.7595 -31.7157 -31.7123 -31.7095
   -31.7072 -31.7059 -31.7049 -31.7006 -31.6981 -31.6974 -31.6573 -31.6452
   -31.6242 -31.6180 -31.6111 -31.5964 -31.5958 -31.5931 -31.5870 -31.5782
   -31.5743 -31.5647 -31.5643 -31.5553 -31.4223 -31.2737 -31.2198 -31.1641
   -31.1327 -31.1070 -30.8907 -30.8905 -30.8017 -30.8015 -30.7623 -30.7623
   -18.9011 -18.2994 -15.7564 -15.6520 -15.5551 -15.5196 -15.4632 -15.4036
   -15.3889 -15.3075 -15.2838 -15.2803 -15.2195 -15.1974 -15.1626 -15.1500
   -15.1286 -15.1153 -15.1117 -15.0555 -15.0492 -15.0397 -15.0330 -15.0296
   -14.9629 -14.9204 -14.9168 -14.9123 -14.7877 -14.6623 -14.3833 -13.0695
   -13.0693 -11.3048  -6.8850  -6.6727  -4.1315  -3.8855  -3.7786  -3.2617
    -3.0392  -2.8369  -2.8082  -2.7138  -2.6986  -2.6687  -2.5361  -2.4963
    -2.4566  -2.4423  -2.4193  -2.4182  -2.4052  -2.3987  -2.3818  -2.3580
    -2.3300  -2.3044  -2.2745  -2.2665  -2.2544  -2.2360  -2.2229  -2.2057
    -2.2028  -2.1586  -2.1374  -2.1281  -2.0454  -1.9910  -1.8279  -1.7857
    -1.7412  -1.7317  -1.7063  -1.7013  -1.6690  -1.6549  -1.6019  -1.5912
    -1.4733  -1.3619  -1.3227  -1.3005  -1.2899  -1.2714  -1.2002  -1.0990
    -1.0745  -0.9999  -0.9954  -0.8920  -0.8777  -0.7973  -0.7870  -0.7627
    -0.7070  -0.6707  -0.6508  -0.5673  -0.5616  -0.5387  -0.4969  -0.4665
    -0.4092  -0.3533  -0.3238  -0.3146  -0.2770  -0.2524  -0.2117  -0.1611
    -0.0987  -0.0607   0.0346   0.1375   0.2213   0.3575   0.4677   0.4953
     0.5700   0.6066   0.6808   0.7106   0.7176   0.7787   0.7918   0.8809
     0.9381   0.9509   0.9869   1.1057   1.8039   1.8053   1.8772   1.8775
     2.7844   3.7562   3.8657   3.9087   3.9295   4.0046   4.0458   4.0657
     4.0682   4.1041   4.2082

     the Fermi energy is     3.5307 ev

!    total energy              =   -2974.00307734 Ry
     estimated scf accuracy    <       0.00000005 Ry
     smearing contrib. (-TS)   =      -0.02181223 Ry
     internal energy E=F+TS    =   -2973.98126511 Ry

     The total energy is F=E-TS. E is the sum of the following terms:
     one-electron contribution =  -23851.65307564 Ry
     hartree contribution      =   12020.40606091 Ry
     xc contribution           =    -494.03346361 Ry
     ewald contribution        =    9351.29760754 Ry
     electric field correction =       0.00160570 Ry

     convergence has been achieved in  70 iterations

     Forces acting on atoms (cartesian axes, Ry/au):

     atom    1 type  1   force =     0.00016729   -0.00020803    0.09631202
     atom    2 type  1   force =    -0.00018348   -0.00044326   -0.17541396
     atom    3 type  2   force =     0.00001826   -0.00014624   -0.02469585
     atom    4 type  2   force =     0.00005398   -0.00161965    0.05343925
     atom    5 type  2   force =    -0.01198499   -0.00148249    0.00369585
     atom    6 type  2   force =     0.01344096   -0.00063997    0.00223206
     atom    7 type  1   force =    -0.00108828    0.00055810   -0.00698834
     atom    8 type  1   force =     0.00064654    0.00917679    0.02676791
     atom    9 type  2   force =     0.00017539    0.00020255   -0.00046442
     atom   10 type  2   force =    -0.00157631   -0.00030399   -0.01789696
     atom   11 type  2   force =     0.00091108    0.00089843    0.00000063
     atom   12 type  2   force =    -0.00061113    0.00059883   -0.00003271
     atom   13 type  1   force =    -0.00027308    0.00024347   -0.00035217
     atom   14 type  1   force =     0.00026424    0.00026334    0.00004989
     atom   15 type  2   force =     0.00008541    0.00019933   -0.00029341
     atom   16 type  2   force =     0.00001016    0.00021022    0.00081479
     atom   17 type  2   force =     0.00102319    0.00003801    0.00014353
     atom   18 type  2   force =    -0.00136288   -0.00004440   -0.00003446
     atom   19 type  1   force =    -0.00006285    0.00130674   -0.00009397
     atom   20 type  1   force =    -0.00026579   -0.00013105   -0.00014893
     atom   21 type  2   force =     0.00009918    0.00001429    0.10320961
     atom   22 type  2   force =    -0.00012633    0.00032559    0.00051972
     atom   23 type  2   force =    -0.07145420   -0.00009053   -0.02777911
     atom   24 type  2   force =     0.07144143    0.00035524   -0.02777291
     atom   25 type  1   force =     0.00001748   -0.00032182    0.09605899
     atom   26 type  1   force =    -0.00030458   -0.00044290   -0.17577422
     atom   27 type  2   force =     0.00008750   -0.00024983   -0.02368270
     atom   28 type  2   force =     0.00011935   -0.00130006    0.05284312
     atom   29 type  2   force =    -0.01225618    0.00021447    0.00357276
     atom   30 type  2   force =     0.01359578    0.00042987    0.00207295
     atom   31 type  1   force =    -0.00117969    0.00349495   -0.01018005
     atom   32 type  1   force =     0.00083105   -0.01099735    0.02706190
     atom   33 type  2   force =     0.00010081    0.00000082    0.00058509
     atom   34 type  2   force =    -0.00116104   -0.00122936   -0.02346166
     atom   35 type  2   force =     0.00083112   -0.00051963   -0.00011098
     atom   36 type  2   force =    -0.00059087   -0.00018153   -0.00013775
     atom   37 type  1   force =    -0.00056249    0.00019758   -0.00042479
     atom   38 type  1   force =     0.00028155   -0.00024876    0.00010726
     atom   39 type  2   force =     0.00011786    0.00046068    0.00010042
     atom   40 type  2   force =     0.00019797    0.00015138   -0.00055001
     atom   41 type  2   force =     0.00080567    0.00069703    0.00035429
     atom   42 type  2   force =    -0.00087704    0.00068059    0.00021016
     atom   43 type  1   force =    -0.00000562   -0.00093505   -0.00082041
     atom   44 type  1   force =    -0.00026675    0.00109343    0.00035878
     atom   45 type  2   force =     0.00008770   -0.00002330    0.10320756
     atom   46 type  2   force =    -0.07145610   -0.00001704   -0.02778532
     atom   47 type  2   force =     0.07144092    0.00039760   -0.02778452
     atom   48 type  3   force =     0.00030793   -0.00156502   -0.00062525
     atom   49 type  3   force =     0.00003936   -0.00019931    0.00024243
     atom   50 type  4   force =    -0.00523107   -0.00010067    0.00523523
     atom   51 type  5   force =     0.00031212   -0.00058902   -0.00122351
     atom   52 type  5   force =     0.00611805    0.00151765   -0.00519982
     atom   53 type  5   force =    -0.00068216   -0.00045863    0.00036665
     atom   54 type  2   force =     0.00162314    0.00009159   -0.00024264
     atom   55 type  5   force =    -0.00061786   -0.00008283   -0.00011822
     atom   56 type  5   force =    -0.00107172    0.00075315    0.00052619

     Total force =     0.367901     Total SCF correction =     0.000414
  @ DRIVER MODE: Message from server: STATUS
  @ DRIVER MODE: Message from server: GETFORCE
  @ DRIVER MODE: Returning v,forces,stress,ensemble

     Writing output data file ./calc.save/
  @ DRIVER MODE: Message from server: EXIT
  @ DRIVE MODE: Exiting

     General routines

     Parallel routines

   This run was terminated on:  23:44:21  15Sep2021

   JOB DONE.