     Program PWSCF v.6.7GPU starts on 26Sep2021 at 17:26:26

     R & G space division:  proc/nbgrp/npool/nimage =       8
     Reading input from /storage/home/hcoda1/3/ntian30/research/carbon/CxH_vib/CH_calc/ads_slab/CHONHNH2_b/out_0014/pw.inp
Warning: card &CELL ignored
Warning: card   CELL_DYNAMICS='IPI', ignored
Warning: card / ignored

     Current dimensions of program PWSCF are:
     Max number of different atomic species (ntypx) = 10
     Max number of k-points (npk) =  40000
     Max angular momentum in pseudopotentials (lmaxx) =  3
     Presently no symmetry can be used with electric field

     Message from routine cell_base_init:
     DEPRECATED: use true lattice parameter, not A to a.u. conversion factor

     IMPORTANT: XC functional enforced from input :
     Exchange-correlation= BEEF-VDW
                           (   1   4  43  14   2   0   0)
     Any further DFT definition will be discarded
     Please, verify this is what you really want

  @ DRIVER MODE: Connecting to
 qe_1139763_2982672.sched-torque.pace.gatech.edurgmug7id_scratch
  using UNIX socket
  @ DRIVER MODE: Message from server: STATUS
  @ DRIVER MODE: Message from server: INIT
  @ DRIVER MODE: Receiving replica           0          -1
  @ DRIVER MODE: Receiving encoded integer          25
  @ DRIVER MODE:  SCF:  T  FORCE:  T  STRESS:  F  VC:  F  ENSEMBLE:  F
  @ DRIVER MODE:  SCF:  T  FORCE:  T  STRESS:  F  VC:  F  ENSEMBLE:  F

     Using Slab Decomposition

     bravais-lattice index     =            0
     lattice parameter (alat)  =       1.8897  a.u.
     unit-cell volume          =    6658.9804 (a.u.)^3
     number of atoms/cell      =           55
     number of atomic types    =            5
     number of electrons       =       402.00
     number of Kohn-Sham states=          211
     kinetic-energy cutoff     =      29.3995  Ry
     charge density cutoff     =     293.9946  Ry
     scf convergence threshold =      7.3E-08
     mixing beta               =       0.0500
     number of iterations used =            8  plain     mixing
     Exchange-correlation= BEEF-VDW
                           (   1   4  43  14   2   0   0)

     celldm(1)=   1.889726  celldm(2)=   0.000000  celldm(3)=   0.000000
     celldm(4)=   0.000000  celldm(5)=   0.000000  celldm(6)=   0.000000

     crystal axes: (cart. coord. in units of alat)
               a(1) = (   6.579727   0.000000   0.000000 )
               a(2) = (  -0.000775   5.961596   0.000000 )
               a(3) = (   0.000000   0.000000  25.155947 )

     reciprocal axes: (cart. coord. in units 2 pi/alat)
               b(1) = (  0.151982  0.000020  0.000000 )
               b(2) = (  0.000000  0.167740  0.000000 )
               b(3) = (  0.000000  0.000000  0.039752 )

     PseudoPot. # 1 for O  read from file:
     /storage/coda1/p-amedford6/0/shared/rich_project_chbe-medford/medford-share/data/pseudos_module/espresso/nninc/pbe/van/O.UPF
     MD5 check sum: 78c19812648e8988a0fe644b0f25305e
     Pseudo is Ultrasoft, Zval =  6.0
     Generated by new atomic code, or converted to UPF format
     Using radial grid of  737 points,  4 beta functions with:
                l(1) =   0
                l(2) =   0
                l(3) =   1
                l(4) =   1
     Q(r) pseudized with  8 coefficients,  rinner =    0.800   0.800   0.800

     PseudoPot. # 2 for Ti read from file:
     /storage/coda1/p-amedford6/0/shared/rich_project_chbe-medford/medford-share/data/pseudos_module/espresso/nninc/pbe/van/Ti.UPF
     MD5 check sum: 8e4df49b7f0d34bbd5052bf3f5ea0213
     Pseudo is Ultrasoft, Zval = 12.0
     Generated by new atomic code, or converted to UPF format
     Using radial grid of  851 points,  6 beta functions with:
                l(1) =   0
                l(2) =   0
                l(3) =   1
                l(4) =   1
                l(5) =   2
                l(6) =   2
     Q(r) pseudized with  8 coefficients,  rinner =    1.000   1.000   1.000
                                                       1.000   1.000

     PseudoPot. # 3 for N  read from file:
     /storage/coda1/p-amedford6/0/shared/rich_project_chbe-medford/medford-share/data/pseudos_module/espresso/nninc/pbe/van/N.UPF
     MD5 check sum: 90d10febe142ad51ac9d5be1deb811c4
     Pseudo is Ultrasoft, Zval =  5.0
     Generated by new atomic code, or converted to UPF format
     Using radial grid of  729 points,  4 beta functions with:
                l(1) =   0
                l(2) =   0
                l(3) =   1
                l(4) =   1
     Q(r) pseudized with  8 coefficients,  rinner =    0.800   0.800   0.800

     PseudoPot. # 4 for H  read from file:
     /storage/coda1/p-amedford6/0/shared/rich_project_chbe-medford/medford-share/data/pseudos_module/espresso/nninc/pbe/van/H.UPF
     MD5 check sum: b5ee9d7bfd3a09ee7748110bda690ff7
     Pseudo is Ultrasoft, Zval =  1.0
     Generated by new atomic code, or converted to UPF format
     Using radial grid of  615 points,  1 beta functions with:
                l(1) =   0
     Q(r) pseudized with  8 coefficients,  rinner =    0.800

     PseudoPot. # 5 for C  read from file:
     /storage/coda1/p-amedford6/0/shared/rich_project_chbe-medford/medford-share/data/pseudos_module/espresso/nninc/pbe/van/C.UPF
     MD5 check sum: 1a69bf6b8db32088f5b2163dbdb77a27
     Pseudo is Ultrasoft, Zval =  4.0
     Generated by new atomic code, or converted to UPF format
     Using radial grid of  721 points,  4 beta functions with:
                l(1) =   0
                l(2) =   0
                l(3) =   1
                l(4) =   1
     Q(r) pseudized with  8 coefficients,  rinner =    0.800   0.800   0.800

     atomic species   valence    mass     pseudopotential
        O1             6.00    15.99900     O ( 1.00)
        Ti1           12.00    47.86700     Ti( 1.00)
        N1             5.00    14.00700     N ( 1.00)
        H1             1.00     1.00800     H ( 1.00)
        C1             4.00    12.01100     C ( 1.00)

     No symmetry found

   Cartesian axes

     site n.     atom                  positions (alat units)
         1           O1  tau(   1) = (   3.2904802   0.0005063   4.7018136  )
         2           O1  tau(   2) = (   3.2900926   2.9813045   4.7018136  )
         3           Ti1 tau(   3) = (   0.0004258   2.9801865   6.0000000  )
         4           Ti1 tau(   4) = (   0.0000382   5.9609847   6.0000000  )
         5           Ti1 tau(   5) = (   3.2906075   1.4906267   6.0002472  )
         6           Ti1 tau(   6) = (   3.2902200   4.4714249   6.0002472  )
         7           O1  tau(   7) = (   1.3043587   1.4918075   6.0039043  )
         8           O1  tau(   8) = (   1.3039711   4.4726057   6.0039043  )
         9           O1  tau(   9) = (   5.2767064   1.4903225   6.0039473  )
        10           O1  tau(  10) = (   5.2763189   4.4711207   6.0039473  )
        11           O1  tau(  11) = (   3.2906025   0.0005020   7.3038282  )
        12           O1  tau(  12) = (   3.2902150   2.9813002   7.3038282  )
        13           O1  tau(  13) = (   0.0006271   0.0005054   7.9858123  )
        14           O1  tau(  14) = (   0.0002396   2.9813036   7.9858123  )
        15           Ti1 tau(  15) = (   3.2907910   2.8959150   9.1758416  )
        16           Ti1 tau(  16) = (   3.2891106   5.8743827   9.1763621  )
        17           Ti1 tau(  17) = (   0.0015273   1.4827037   9.2680791  )
        18           Ti1 tau(  18) = (   0.0006254   4.4649316   9.2693709  )
        19           O1  tau(  19) = (   4.5942328   1.4918067   9.2879030  )
        20           O1  tau(  20) = (   4.5938453   4.4726049   9.2879030  )
        21           O1  tau(  21) = (   1.9868534   1.4903216   9.2879459  )
        22           O1  tau(  22) = (   1.9864658   4.4711199   9.2879459  )
        23           O1  tau(  23) = (   0.0116148   5.9584955  10.6183126  )
        24           O1  tau(  24) = (   0.0092240   2.9805883  10.6323155  )
        25           O1  tau(  25) = (   3.2729272   2.9749101  11.3358637  )
        26           O1  tau(  26) = (   3.2774458   5.9577983  11.3358029  )
        27           Ti1 tau(  27) = (   6.5123228   0.0223980  12.5466522  )
        28           Ti1 tau(  28) = (   6.5139447   2.9993280  12.6164542  )
        29           Ti1 tau(  29) = (   3.1950650   4.4673527  12.4897579  )
        30           Ti1 tau(  30) = (   3.1950454   1.4921031  12.4944583  )
        31           O1  tau(  31) = (   5.2839716   4.4726476  12.6140382  )
        32           O1  tau(  32) = (   1.2968206   4.4781603  12.6268461  )
        33           O1  tau(  33) = (   5.2856119   1.4917077  12.6233973  )
        34           O1  tau(  34) = (   1.2888650   1.4770595  12.6372879  )
        35           O1  tau(  35) = (   3.2788258   2.9629383  13.9230881  )
        36           O1  tau(  36) = (   3.2980453   5.9500611  13.9147740  )
        37           O1  tau(  37) = (   6.5334376   5.9389224  14.6738689  )
        38           O1  tau(  38) = (   6.5776160   3.0156023  14.6540868  )
        39           Ti1 tau(  39) = (   3.2542760   2.9504115  15.7371360  )
        40           Ti1 tau(  40) = (   3.3062714   5.9309079  15.7116640  )
        41           Ti1 tau(  41) = (   6.5650095   1.2976281  16.1142359  )
        42           Ti1 tau(  42) = (   0.0079766   4.4268374  15.8391656  )
        43           O1  tau(  43) = (   2.0280489   1.4492115  16.0660627  )
        44           O1  tau(  44) = (   4.5116609   1.4624326  16.0993158  )
        45           O1  tau(  45) = (   2.0244938   4.4513709  16.0356871  )
        46           O1  tau(  46) = (   4.5113612   4.4342832  16.0730653  )
        47           O1  tau(  47) = (   6.5716746   5.9215154  17.2308814  )
        48           N1  tau(  48) = (   5.9800345   2.9984367  18.5879729  )
        49           H1  tau(  49) = (   4.9797160   2.8240766  18.4383897  )
        50           H1  tau(  50) = (   1.6345422   1.3425840  19.0439533  )
        51           H1  tau(  51) = (   6.0578502   3.9810051  18.8619266  )
        52           N1  tau(  52) = (   2.1403542   1.9713023  19.6616680  )
        53           C1  tau(  53) = (   2.8938676   2.8537551  19.2737185  )
        54           H1  tau(  54) = (   3.3792091   3.5764479  19.9483559  )
        55           O1  tau(  55) = (   6.5521836   2.9666373  17.2729174  )

     number of k points=    10  Fermi-Dirac smearing, width (Ry)=  0.0073
                       cart. coord. in units 2pi/alat
        k(    1) = (   0.0000000   0.0000000   0.0000000), wk =   0.1250000
        k(    2) = (   0.0000000   0.0419351   0.0000000), wk =   0.2500000
        k(    3) = (   0.0000000  -0.0838702   0.0000000), wk =   0.1250000
        k(    4) = (   0.0379955   0.0000049   0.0000000), wk =   0.2500000
        k(    5) = (   0.0379955   0.0419400   0.0000000), wk =   0.2500000
        k(    6) = (   0.0379955  -0.0838652   0.0000000), wk =   0.2500000
        k(    7) = (   0.0379955  -0.0419301   0.0000000), wk =   0.2500000
        k(    8) = (  -0.0759910  -0.0000099   0.0000000), wk =   0.1250000
        k(    9) = (  -0.0759910   0.0419252   0.0000000), wk =   0.2500000
        k(   10) = (  -0.0759910  -0.0838800   0.0000000), wk =   0.1250000

     Initial potential from superposition of free atoms

     starting charge  385.99915, renormalised to  402.00000

     negative rho (up, down):  1.542E-02 0.000E+00

     %%%%%%%%%%%%%%%%%%%%%%%%%%%%%%%%%%%%%%%%%%%%%%%%%%%%%%%%%%%%%%%%%%%%%%%%
     %                                                                      %
     % You are using vdW-DF, which was implemented by the Thonhauser group. %
     % Please cite the following two papers that made this development      %
     % possible and the two reviews that describe the various versions:     %
     %                                                                      %
     %   T. Thonhauser et al., PRL 115, 136402 (2015).                      %
     %   T. Thonhauser et al., PRB 76, 125112 (2007).                       %
     %   K. Berland et al., Rep. Prog. Phys. 78, 066501 (2015).             %
     %   D.C. Langreth et al., J. Phys.: Condens. Matter 21, 084203 (2009). %
     %                                                                      %
     %                                                                      %
     % If you are calculating the stress with vdW-DF, please also cite:     %
     %                                                                      %
     %   R. Sabatini et al., J. Phys.: Condens. Matter 24, 424209 (2012).   %
     %                                                                      %
     %%%%%%%%%%%%%%%%%%%%%%%%%%%%%%%%%%%%%%%%%%%%%%%%%%%%%%%%%%%%%%%%%%%%%%%%

     Adding external electric field

     Computed dipole along edir(3) :
        Dipole              -12.8629 Ry au,        -32.6941 Debye
        Dipole field         -0.0243 Ry au,

        Potential amp.        2.2502 Ry
        Total length         46.3494 bohr

     Starting wfcs are  304 atomic wfcs
  @ DRIVER MODE: Message from server: STATUS
  @ DRIVER MODE: Message from server: POSDATA
  @ DRIVER MODE: Reading and sharing cell
  @ DRIVER MODE: Reading and sharing positions
  @ DRIVER MODE: Received positions

     Self-consistent Calculation

     iteration #  1     ecut=    29.40 Ry     beta= 0.05
     Davidson diagonalization with overlap
     c_bands:  5 eigenvalues not converged
     c_bands:  2 eigenvalues not converged
     c_bands:  2 eigenvalues not converged
     c_bands:  5 eigenvalues not converged
     c_bands:  3 eigenvalues not converged
     c_bands:  3 eigenvalues not converged
     c_bands:  2 eigenvalues not converged
     c_bands:  3 eigenvalues not converged
     c_bands:  1 eigenvalues not converged
     ethr =  1.00E-05,  avg # of iterations = 21.5

[...]

     total energy              =   -2369.72729332 Ry
     estimated scf accuracy    <    6837.18774790 Ry

     iteration #  2     ecut=    29.40 Ry     beta= 0.05
     Davidson diagonalization with overlap
     ethr =  1.00E-02,  avg # of iterations = 23.9

[...]

     iteration # 72     ecut=    29.40 Ry     beta= 0.05
     Davidson diagonalization with overlap
     c_bands:  1 eigenvalues not converged
     ethr =  5.60E-07,  avg # of iterations = 11.6

[...]

     total energy              =   -2972.58421929 Ry
     estimated scf accuracy    <       0.00000026 Ry

     iteration # 90     ecut=    29.40 Ry     beta= 0.05
     Davidson diagonalization with overlap
     ethr =  6.36E-11,  avg # of iterations = 11.0

     negative rho (up, down):  1.520E-02 0.000E+00

     Adding external electric field

     Computed dipole along edir(3) :
        Dipole                0.4762 Ry au,          1.2105 Debye
        Dipole field          0.0009 Ry au,

        Potential amp.       -0.0833 Ry
        Total length         46.3494 bohr

     End of self-consistent calculation

          k = 0.0000 0.0000 0.0000 ( 18029 PWs)   bands (ev):

   -55.8932 -55.8735 -55.8591 -55.8355 -55.7540 -55.7336 -55.7188 -55.7046
   -55.6918 -55.6706 -55.6691 -55.6351 -55.5211 -55.3074 -54.8723 -54.8383
   -32.4188 -32.3760 -32.2524 -32.2036 -32.1934 -32.1859 -32.1698 -32.1593
   -32.1365 -32.1039 -32.0582 -32.0480 -32.0453 -32.0426 -32.0274 -32.0067
   -31.9978 -31.9970 -31.9866 -31.9735 -31.9632 -31.9520 -31.9503 -31.9082
   -31.9010 -31.8958 -31.8939 -31.8841 -31.8733 -31.8694 -31.8652 -31.8450
   -31.8356 -31.8222 -31.8114 -31.8010 -31.7812 -31.7582 -31.7269 -31.5774
   -31.5393 -31.5218 -31.2794 -31.1910 -31.1686 -31.0962 -31.0097 -30.8986
   -18.6546 -16.6142 -16.3638 -16.1210 -16.0405 -16.0057 -15.8939 -15.8538
   -15.7315 -15.6208 -15.5262 -15.4506 -15.4311 -15.4301 -15.3904 -15.3777
   -15.3520 -15.3378 -15.3284 -15.3117 -15.2867 -15.2513 -15.2354 -15.2285
   -15.1374 -15.0611 -15.0277 -14.9796 -14.9742 -14.9507 -14.5604 -13.3746
   -13.2581 -12.2279  -8.1653  -5.3115  -4.9558  -4.5142  -3.9884  -3.8497
    -3.7993  -3.7314  -3.6872  -3.5123  -3.4019  -3.1468  -3.0730  -3.0531
    -3.0302  -2.9831  -2.8778  -2.8015  -2.7047  -2.6988  -2.6962  -2.6632
    -2.6537  -2.6369  -2.5940  -2.5747  -2.5066  -2.4354  -2.3977  -2.2921
    -2.2841  -2.2480  -2.2061  -2.1963  -2.1524  -2.1314  -2.1160  -2.1101
    -2.0971  -2.0585  -2.0264  -1.9161  -1.8803  -1.7973  -1.6860  -1.6101
    -1.5021  -1.4853  -1.3662  -1.3588  -1.3316  -1.3200  -1.2859  -1.2355
    -1.1815  -1.0774  -1.0494  -1.0175  -1.0129  -0.9129  -0.8532  -0.8286
    -0.7644  -0.6914  -0.6648  -0.6526  -0.6421  -0.6085  -0.3923  -0.3502
    -0.3307  -0.2989  -0.2520  -0.1978  -0.1608  -0.1130  -0.0732  -0.0077
     0.0018   0.0531   0.0772   0.0908   0.1067   0.1176   0.1341   0.2322
     0.3213   0.3600   0.3810   0.4569   0.4621   0.6339   0.7015   0.7627
     0.8750   1.0761   1.1499   1.2349   1.3421   1.7211   1.7632   1.7669
     3.2354   3.2374   3.3287   3.3709   3.3796   3.4801   3.5328   3.6923
     3.7255   3.7584   3.7954

[...]

          k = 0.0380-0.0419 0.0000 ( 17876 PWs)   bands (ev):

[...]

          k =-0.0760-0.0000 0.0000 ( 17886 PWs)   bands (ev):

[...]

          k =-0.0760-0.0839 0.0000 ( 17948 PWs)   bands (ev):

   -55.8766 -55.8755 -55.8608 -55.8480 -55.7401 -55.7326 -55.7243 -55.7009
   -55.6884 -55.6863 -55.6547 -55.6497 -55.5198 -55.3086 -54.8552 -54.8552
   -32.2291 -32.2160 -32.1916 -32.1909 -32.1718 -32.1708 -32.1222 -32.1137
   -32.0965 -32.0873 -32.0488 -32.0397 -32.0201 -32.0122 -32.0085 -32.0069
   -32.0011 -31.9961 -31.9950 -31.9927 -31.9889 -31.9857 -31.9514 -31.9493
   -31.9431 -31.9264 -31.9195 -31.9104 -31.8887 -31.8877 -31.8852 -31.8838
   -31.8794 -31.8691 -31.8658 -31.8637 -31.8579 -31.7558 -31.7301 -31.6482
   -31.5686 -31.5291 -31.1814 -31.1813 -31.0922 -31.0921 -31.0530 -31.0529
   -18.6394 -16.0329 -16.0117 -15.8955 -15.8486 -15.8121 -15.7724 -15.7605
   -15.6842 -15.6039 -15.5836 -15.5788 -15.4964 -15.4779 -15.4649 -15.4300
   -15.4168 -15.4063 -15.4006 -15.3610 -15.3505 -15.3413 -15.3329 -15.3253
   -15.2481 -15.2125 -15.2076 -15.1917 -15.0819 -14.9557 -14.7364 -13.3600
   -13.3598 -12.2405  -8.1657  -5.3066  -4.9610  -4.4398  -3.3196  -3.2869
    -3.1057  -3.0227  -3.0072  -2.9894  -2.8773  -2.8026  -2.7966  -2.7602
    -2.7295  -2.7220  -2.7121  -2.7092  -2.6854  -2.6752  -2.6244  -2.6036
    -2.5897  -2.5648  -2.5519  -2.5496  -2.5191  -2.5056  -2.4676  -2.4470
    -2.4268  -2.4154  -2.3938  -2.3248  -2.2076  -2.1261  -2.0947  -2.0355
    -2.0252  -1.9939  -1.9607  -1.9466  -1.9228  -1.8907  -1.8619  -1.7467
    -1.6386  -1.5838  -1.5819  -1.5052  -1.4682  -1.4254  -1.3784  -1.3251
    -1.2916  -1.2807  -1.2316  -1.1693  -1.1512  -1.0775  -1.0343  -1.0038
    -0.9603  -0.9378  -0.8659  -0.8536  -0.8510  -0.8167  -0.7284  -0.7085
    -0.6553  -0.6486  -0.6217  -0.5658  -0.5470  -0.5158  -0.3925  -0.3694
    -0.2437  -0.1772  -0.0861   0.0616   0.0838   0.1773   0.2173   0.2438
     0.3014   0.4034   0.4208   0.4337   0.4529   0.4841   0.5146   0.6365
     0.6506   0.6854   0.8054   1.5137   1.5142   1.5863   1.5868   1.6095
     3.2222   3.5681   3.5748   3.5951   3.6223   3.7547   3.7566   3.7745
     3.7759   3.9108   3.9280

     the Fermi energy is     3.2392 ev

!    total energy              =   -2972.58422137 Ry
     estimated scf accuracy    <       0.00000006 Ry
     smearing contrib. (-TS)   =      -0.03078548 Ry
     internal energy E=F+TS    =   -2972.55343589 Ry

     The total energy is F=E-TS. E is the sum of the following terms:
     one-electron contribution =  -23744.98625990 Ry
     hartree contribution      =   11963.78063126 Ry
     xc contribution           =    -493.07549352 Ry
     ewald contribution        =    9301.72725826 Ry
     electric field correction =       0.00042801 Ry

     convergence has been achieved in  90 iterations

     Forces acting on atoms (cartesian axes, Ry/au):

     atom    1 type  1   force =     0.00004292   -0.00002450    0.10326259
     atom    2 type  1   force =     0.00004806   -0.00004744    0.10329918
     atom    3 type  2   force =     0.00007498   -0.00022779    0.09624456
     atom    4 type  2   force =    -0.00001914   -0.00029311    0.09603027
     atom    5 type  2   force =     0.00003422   -0.00063504   -0.17555833
     atom    6 type  2   force =    -0.00001960   -0.00024827   -0.17551911
     atom    7 type  1   force =    -0.07155545   -0.00014094   -0.02767191
     atom    8 type  1   force =    -0.07153724   -0.00012976   -0.02764644
     atom    9 type  1   force =     0.07140096    0.00028747   -0.02773953
     atom   10 type  1   force =     0.07138494    0.00031508   -0.02770482
     atom   11 type  1   force =    -0.00005462   -0.00144699    0.05287907
     atom   12 type  1   force =    -0.00002610   -0.00126282    0.05322205
     atom   13 type  1   force =     0.00000530    0.00001082   -0.02441363
     atom   14 type  1   force =     0.00009840   -0.00024518   -0.02344632
     atom   15 type  2   force =     0.00002977    0.00047323   -0.01062605
     atom   16 type  2   force =     0.00014893    0.00349605   -0.00996475
     atom   17 type  2   force =     0.00069466    0.01061909    0.02596798
     atom   18 type  2   force =     0.00083541   -0.01140360    0.02626990
     atom   19 type  1   force =    -0.01195785   -0.00051903    0.00381010
     atom   20 type  1   force =    -0.01231706   -0.00009140    0.00372291
     atom   21 type  1   force =     0.01292075   -0.00009061    0.00215384
     atom   22 type  1   force =     0.01318210    0.00047868    0.00211066
     atom   23 type  1   force =    -0.00431534    0.00134837   -0.01322659
     atom   24 type  1   force =    -0.00236686    0.00053201   -0.02181934
     atom   25 type  1   force =     0.00024121   -0.00090844    0.00014772
     atom   26 type  1   force =     0.00001689    0.00044109    0.00079572
     atom   27 type  2   force =    -0.00042809    0.00041662    0.00001302
     atom   28 type  2   force =    -0.00068067   -0.00052712    0.00004255
     atom   29 type  2   force =     0.00097858    0.00002911   -0.00016017
     atom   30 type  2   force =     0.00036124   -0.00073689   -0.00015439
     atom   31 type  1   force =     0.00084239    0.00012301    0.00023604
     atom   32 type  1   force =    -0.00044088   -0.00001671    0.00012214
     atom   33 type  1   force =     0.00041356   -0.00036894   -0.00002533
     atom   34 type  1   force =     0.00127350   -0.00021503   -0.00001211
     atom   35 type  1   force =     0.00030718   -0.00029932    0.00010179
     atom   36 type  1   force =     0.00026693    0.00025701   -0.00045464
     atom   37 type  1   force =     0.00019292   -0.00010294   -0.00072434
     atom   38 type  1   force =     0.00019982    0.00012746   -0.00023887
     atom   39 type  2   force =    -0.00079280    0.00021731   -0.00030581
     atom   40 type  2   force =    -0.00069488    0.00004272    0.00050177
     atom   41 type  2   force =     0.00022654   -0.00029246   -0.00017765
     atom   42 type  2   force =     0.00076232   -0.00008183    0.00037801
     atom   43 type  1   force =     0.00039100    0.00025426   -0.00033413
     atom   44 type  1   force =     0.00017555   -0.00002550   -0.00014822
     atom   45 type  1   force =     0.00042332    0.00020699    0.00001391
     atom   46 type  1   force =     0.00004565    0.00047256    0.00013409
     atom   47 type  1   force =     0.00007691   -0.00004248   -0.00030860
     atom   48 type  3   force =    -0.00072302    0.00003825   -0.00103326
     atom   49 type  4   force =     0.00085834    0.00047578    0.00019623
     atom   50 type  4   force =    -0.00462028   -0.00534398   -0.00487453
     atom   51 type  4   force =    -0.00025979    0.00070670   -0.00018058
     atom   52 type  3   force =     0.00318332    0.00317915    0.00383039
     atom   53 type  5   force =     0.00175114    0.00213161    0.00085654
     atom   54 type  4   force =    -0.00093469   -0.00072755   -0.00119067
     atom   55 type  1   force =    -0.00014535   -0.00018479   -0.00068292

     Total force =     0.367483     Total SCF correction =     0.000610
  @ DRIVER MODE: Message from server: STATUS
  @ DRIVER MODE: Message from server: GETFORCE
  @ DRIVER MODE: Returning v,forces,stress,ensemble

     Writing output data file ./calc.save/
  @ DRIVER MODE: Message from server: EXIT
  @ DRIVE MODE: Exiting

     General routines

     Parallel routines

   This run was terminated on:  17:54:35  26Sep2021

   JOB DONE.