     Program PWSCF v.6.7GPU starts on 18Aug2021 at 22: 5:20

     R & G space division:  proc/nbgrp/npool/nimage =       6
     Reading input from /storage/home/hcoda1/3/ntian30/research/carbon/CH3_vib_side_on/ads_slab/CH3N2_c/out_0021/pw.inp
Warning: card &CELL ignored
Warning: card   CELL_DYNAMICS='IPI', ignored
Warning: card / ignored

     Current dimensions of program PWSCF are:
     Max number of different atomic species (ntypx) = 10
     Max number of k-points (npk) =  40000
     Max angular momentum in pseudopotentials (lmaxx) =  3
     Presently no symmetry can be used with electric field

     Message from routine cell_base_init:
     DEPRECATED: use true lattice parameter, not A to a.u. conversion factor

     IMPORTANT: XC functional enforced from input :
     Exchange-correlation= BEEF-VDW
                           (   1   4  43  14   2   0   0)
     Any further DFT definition will be discarded
     Please, verify this is what you really want

  @ DRIVER MODE: Connecting to
 qe_1139763_2594174.sched-torque.pace.gatech.edujpav4ydk_scratch
  using UNIX socket
  @ DRIVER MODE: Message from server: STATUS
  @ DRIVER MODE: Message from server: INIT
  @ DRIVER MODE: Receiving replica           0          -1
  @ DRIVER MODE: Receiving encoded integer          25
  @ DRIVER MODE:  SCF:  T  FORCE:  T  STRESS:  F  VC:  F  ENSEMBLE:  F
  @ DRIVER MODE:  SCF:  T  FORCE:  T  STRESS:  F  VC:  F  ENSEMBLE:  F

     Using Slab Decomposition

     bravais-lattice index     =            0
     lattice parameter (alat)  =       1.8897  a.u.
     unit-cell volume          =    6658.9804 (a.u.)^3
     number of atoms/cell      =           53
     number of atomic types    =            5
     number of electrons       =       395.00
     number of Kohn-Sham states=          207
     kinetic-energy cutoff     =      29.3995  Ry
     charge density cutoff     =     293.9946  Ry
     scf convergence threshold =      7.3E-08
     mixing beta               =       0.0500
     number of iterations used =            8  plain     mixing
     Exchange-correlation= BEEF-VDW
                           (   1   4  43  14   2   0   0)

     celldm(1)=   1.889726  celldm(2)=   0.000000  celldm(3)=   0.000000
     celldm(4)=   0.000000  celldm(5)=   0.000000  celldm(6)=   0.000000

     crystal axes: (cart. coord. in units of alat)
               a(1) = (   6.579727   0.000000   0.000000 )
               a(2) = (  -0.000775   5.961596   0.000000 )
               a(3) = (   0.000000   0.000000  25.155947 )

     reciprocal axes: (cart. coord. in units 2 pi/alat)
               b(1) = (  0.151982  0.000020  0.000000 )
               b(2) = (  0.000000  0.167740  0.000000 )
               b(3) = (  0.000000  0.000000  0.039752 )

     PseudoPot. # 1 for Ti read from file:
     /storage/coda1/p-amedford6/0/shared/rich_project_chbe-medford/medford-share/data/pseudos_module/espresso/nninc/pbe/van/Ti.UPF
     MD5 check sum: 8e4df49b7f0d34bbd5052bf3f5ea0213
     Pseudo is Ultrasoft, Zval = 12.0
     Generated by new atomic code, or converted to UPF format
     Using radial grid of  851 points,  6 beta functions with:
                l(1) =   0
                l(2) =   0
                l(3) =   1
                l(4) =   1
                l(5) =   2
                l(6) =   2
     Q(r) pseudized with  8 coefficients,  rinner =    1.000   1.000   1.000
                                                       1.000   1.000

     PseudoPot. # 2 for O  read from file:
     /storage/coda1/p-amedford6/0/shared/rich_project_chbe-medford/medford-share/data/pseudos_module/espresso/nninc/pbe/van/O.UPF
     MD5 check sum: 78c19812648e8988a0fe644b0f25305e
     Pseudo is Ultrasoft, Zval =  6.0
     Generated by new atomic code, or converted to UPF format
     Using radial grid of  737 points,  4 beta functions with:
                l(1) =   0
                l(2) =   0
                l(3) =   1
                l(4) =   1
     Q(r) pseudized with  8 coefficients,  rinner =    0.800   0.800   0.800

     PseudoPot. # 3 for N  read from file:
     /storage/coda1/p-amedford6/0/shared/rich_project_chbe-medford/medford-share/data/pseudos_module/espresso/nninc/pbe/van/N.UPF
     MD5 check sum: 90d10febe142ad51ac9d5be1deb811c4
     Pseudo is Ultrasoft, Zval =  5.0
     Generated by new atomic code, or converted to UPF format
     Using radial grid of  729 points,  4 beta functions with:
                l(1) =   0
                l(2) =   0
                l(3) =   1
                l(4) =   1
     Q(r) pseudized with  8 coefficients,  rinner =    0.800   0.800   0.800

     PseudoPot. # 4 for C  read from file:
     /storage/coda1/p-amedford6/0/shared/rich_project_chbe-medford/medford-share/data/pseudos_module/espresso/nninc/pbe/van/C.UPF
     MD5 check sum: 1a69bf6b8db32088f5b2163dbdb77a27
     Pseudo is Ultrasoft, Zval =  4.0
     Generated by new atomic code, or converted to UPF format
     Using radial grid of  721 points,  4 beta functions with:
                l(1) =   0
                l(2) =   0
                l(3) =   1
                l(4) =   1
     Q(r) pseudized with  8 coefficients,  rinner =    0.800   0.800   0.800

     PseudoPot. # 5 for H  read from file:
     /storage/coda1/p-amedford6/0/shared/rich_project_chbe-medford/medford-share/data/pseudos_module/espresso/nninc/pbe/van/H.UPF
     MD5 check sum: b5ee9d7bfd3a09ee7748110bda690ff7
     Pseudo is Ultrasoft, Zval =  1.0
     Generated by new atomic code, or converted to UPF format
     Using radial grid of  615 points,  1 beta functions with:
                l(1) =   0
     Q(r) pseudized with  8 coefficients,  rinner =    0.800

     atomic species   valence    mass     pseudopotential
        Ti1           12.00    47.86700     Ti( 1.00)
        O1             6.00    15.99900     O ( 1.00)
        N1             5.00    14.00700     N ( 1.00)
        C1             4.00    12.01100     C ( 1.00)
        H1             1.00     1.00800     H ( 1.00)

     No symmetry found

   Cartesian axes

     site n.     atom                  positions (alat units)
         1           Ti1 tau(   1) = (   0.0004258   2.9801865   6.0000000  )
         2           Ti1 tau(   2) = (   3.2906075   1.4906267   6.0002472  )
         3           O1  tau(   3) = (   0.0006271   0.0005054   7.9858123  )
         4           O1  tau(   4) = (   3.2906025   0.0005020   7.3038282  )
         5           O1  tau(   5) = (   4.5942328   1.4918067   9.2879030  )
         6           O1  tau(   6) = (   1.9868534   1.4903216   9.2879459  )
         7           Ti1 tau(   7) = (   3.2907910   2.8959150   9.1758416  )
         8           Ti1 tau(   8) = (   0.0015273   1.4827037   9.2680791  )
         9           O1  tau(   9) = (   3.2868105   5.9447858  11.3346005  )
        10           O1  tau(  10) = (   0.0116148   5.9584955  10.6183126  )
        11           O1  tau(  11) = (   1.2897616   1.4699164  12.6258314  )
        12           O1  tau(  12) = (   5.2713851   1.4716199  12.6109895  )
        13           Ti1 tau(  13) = (   0.0629619   2.9460495  12.6207869  )
        14           Ti1 tau(  14) = (   3.3778125   1.4702366  12.4807322  )
        15           O1  tau(  15) = (   6.5741670   5.9392046  14.6271830  )
        16           O1  tau(  16) = (   3.2925211   5.9405975  13.9303826  )
        17           O1  tau(  17) = (   4.5331425   1.4971777  16.0590535  )
        18           O1  tau(  18) = (   2.0416154   1.4974824  16.0477615  )
        19           Ti1 tau(  19) = (   3.2901388   2.9722967  15.7036181  )
        20           Ti1 tau(  20) = (   6.5714728   1.5019933  15.8140906  )
        21           O1  tau(  21) = (   3.2904802   0.0005063   4.7018136  )
        22           O1  tau(  22) = (   6.5775371   0.0159386  17.1814867  )
        23           O1  tau(  23) = (   1.3043587   1.4918075   6.0039043  )
        24           O1  tau(  24) = (   5.2767064   1.4903225   6.0039473  )
        25           Ti1 tau(  25) = (   0.0000382   5.9609847   6.0000000  )
        26           Ti1 tau(  26) = (   3.2902200   4.4714249   6.0002472  )
        27           O1  tau(  27) = (   0.0002396   2.9813036   7.9858123  )
        28           O1  tau(  28) = (   3.2902150   2.9813002   7.3038282  )
        29           O1  tau(  29) = (   4.5938453   4.4726049   9.2879030  )
        30           O1  tau(  30) = (   1.9864658   4.4711199   9.2879459  )
        31           Ti1 tau(  31) = (   3.2891106   5.8743827   9.1763621  )
        32           Ti1 tau(  32) = (   0.0006254   4.4649316   9.2693709  )
        33           O1  tau(  33) = (   3.2909631   2.9655588  11.3316111  )
        34           O1  tau(  34) = (   0.0092240   2.9805883  10.6323155  )
        35           O1  tau(  35) = (   1.2884032   4.4536117  12.6269208  )
        36           O1  tau(  36) = (   5.2752684   4.4605011  12.6109535  )
        37           Ti1 tau(  37) = (   0.0626277   5.9200555  12.5524633  )
        38           Ti1 tau(  38) = (   3.3797810   4.4486816  12.4846537  )
        39           O1  tau(  39) = (   6.5720240   2.9440667  14.6479771  )
        40           O1  tau(  40) = (   3.2941106   2.9728877  13.9057494  )
        41           O1  tau(  41) = (   4.5311790   4.4530262  16.1020043  )
        42           O1  tau(  42) = (   2.0427069   4.4534008  16.0946336  )
        43           Ti1 tau(  43) = (   3.2818950   5.9508925  15.7274921  )
        44           Ti1 tau(  44) = (   6.5750914   4.6476268  16.0792144  )
        45           O1  tau(  45) = (   3.2900926   2.9813045   4.7018136  )
        46           O1  tau(  46) = (   1.3039711   4.4726057   6.0039043  )
        47           O1  tau(  47) = (   5.2763189   4.4711207   6.0039473  )
        48           N1  tau(  48) = (   0.0795740   2.6614725  18.6386781  )
        49           N1  tau(  49) = (   0.0132033   2.8794178  17.4383708  )
        50           C1  tau(  50) = (   0.1510961   3.8031638  19.5808395  )
        51           H1  tau(  51) = (   6.4701351   4.7492986  19.1328852  )
        52           H1  tau(  52) = (   6.0910372   3.5604803  20.4266230  )
        53           H1  tau(  53) = (   1.1812797   3.8285794  19.9476819  )

     number of k points=    10  Fermi-Dirac smearing, width (Ry)=  0.0073
                       cart. coord. in units 2pi/alat
        k(    1) = (   0.0000000   0.0000000   0.0000000), wk =   0.1250000
        k(    2) = (   0.0000000   0.0419351   0.0000000), wk =   0.2500000
        k(    3) = (   0.0000000  -0.0838702   0.0000000), wk =   0.1250000
        k(    4) = (   0.0379955   0.0000049   0.0000000), wk =   0.2500000
        k(    5) = (   0.0379955   0.0419400   0.0000000), wk =   0.2500000
        k(    6) = (   0.0379955  -0.0838652   0.0000000), wk =   0.2500000
        k(    7) = (   0.0379955  -0.0419301   0.0000000), wk =   0.2500000
        k(    8) = (  -0.0759910  -0.0000099   0.0000000), wk =   0.1250000
        k(    9) = (  -0.0759910   0.0419252   0.0000000), wk =   0.2500000
        k(   10) = (  -0.0759910  -0.0838800   0.0000000), wk =   0.1250000

     Initial potential from superposition of free atoms

     starting charge  378.99916, renormalised to  395.00000

     negative rho (up, down):  1.506E-02 0.000E+00

     %%%%%%%%%%%%%%%%%%%%%%%%%%%%%%%%%%%%%%%%%%%%%%%%%%%%%%%%%%%%%%%%%%%%%%%%
     %                                                                      %
     % You are using vdW-DF, which was implemented by the Thonhauser group. %
     % Please cite the following two papers that made this development      %
     % possible and the two reviews that describe the various versions:     %
     %                                                                      %
     %   T. Thonhauser et al., PRL 115, 136402 (2015).                      %
     %   T. Thonhauser et al., PRB 76, 125112 (2007).                       %
     %   K. Berland et al., Rep. Prog. Phys. 78, 066501 (2015).             %
     %   D.C. Langreth et al., J. Phys.: Condens. Matter 21, 084203 (2009). %
     %                                                                      %
     %                                                                      %
     % If you are calculating the stress with vdW-DF, please also cite:     %
     %                                                                      %
     %   R. Sabatini et al., J. Phys.: Condens. Matter 24, 424209 (2012).   %
     %                                                                      %
     %%%%%%%%%%%%%%%%%%%%%%%%%%%%%%%%%%%%%%%%%%%%%%%%%%%%%%%%%%%%%%%%%%%%%%%%

     Adding external electric field

     Computed dipole along edir(3) :
        Dipole               -8.8495 Ry au,        -22.4931 Debye
        Dipole field         -0.0167 Ry au,

        Potential amp.        1.5481 Ry
        Total length         46.3494 bohr

     Starting wfcs are  299 atomic wfcs
  @ DRIVER MODE: Message from server: STATUS
  @ DRIVER MODE: Message from server: POSDATA
  @ DRIVER MODE: Reading and sharing cell
  @ DRIVER MODE: Reading and sharing positions
  @ DRIVER MODE: Received positions

     Self-consistent Calculation

     iteration #  1     ecut=    29.40 Ry     beta= 0.05
     Davidson diagonalization with overlap
     c_bands:  1 eigenvalues not converged
     c_bands:  2 eigenvalues not converged
     c_bands:  1 eigenvalues not converged
     c_bands:  3 eigenvalues not converged
     c_bands:  3 eigenvalues not converged
     c_bands:  1 eigenvalues not converged
     ethr =  1.00E-05,  avg # of iterations = 19.1

[...]

     total energy              =   -2605.73759492 Ry
     estimated scf accuracy    <    3698.30134616 Ry

     iteration #  2     ecut=    29.40 Ry     beta= 0.05
     Davidson diagonalization with overlap
     ethr =  1.00E-02,  avg # of iterations = 22.2

[...]

     iteration # 78     ecut=    29.40 Ry     beta= 0.05
     Davidson diagonalization with overlap
     c_bands:  1 eigenvalues not converged
     ethr =  4.11E-10,  avg # of iterations = 14.1

[...]

     total energy              =   -2939.15468196 Ry
     estimated scf accuracy    <       0.00000018 Ry

     iteration # 83     ecut=    29.40 Ry     beta= 0.05
     Davidson diagonalization with overlap
     ethr =  3.53E-11,  avg # of iterations = 12.6

     negative rho (up, down):  1.566E-02 0.000E+00

     Adding external electric field

     Computed dipole along edir(3) :
        Dipole                0.7097 Ry au,          1.8038 Debye
        Dipole field          0.0013 Ry au,

        Potential amp.       -0.1241 Ry
        Total length         46.3494 bohr

     End of self-consistent calculation

          k = 0.0000 0.0000 0.0000 ( 18029 PWs)   bands (ev):

   -55.8942 -55.8792 -55.8601 -55.8433 -55.7947 -55.7289 -55.7032 -55.7026
   -55.6923 -55.6686 -55.6674 -55.6338 -55.2848 -55.0938 -54.8716 -54.8376
   -32.4334 -32.3765 -32.2289 -32.2267 -32.2014 -32.1981 -32.1872 -32.1580
   -32.1366 -32.1233 -32.1014 -32.0656 -32.0599 -32.0465 -32.0325 -32.0190
   -32.0167 -31.9983 -31.9838 -31.9514 -31.9431 -31.9386 -31.8976 -31.8928
   -31.8905 -31.8867 -31.8787 -31.8739 -31.8696 -31.8428 -31.8423 -31.8335
   -31.8323 -31.8203 -31.8091 -31.7796 -31.7765 -31.5650 -31.4581 -31.3559
   -31.3540 -31.3096 -31.2788 -31.1904 -31.1679 -31.0955 -31.0090 -30.8980
   -18.4504 -16.6318 -16.3670 -16.1382 -16.0444 -16.0121 -15.8941 -15.7318
   -15.6143 -15.5593 -15.4618 -15.4423 -15.4294 -15.3975 -15.3792 -15.3737
   -15.3399 -15.3357 -15.3172 -15.3020 -15.2538 -15.2299 -15.2081 -15.1089
   -15.0627 -15.0289 -15.0136 -14.9505 -14.9453 -14.4402 -13.3743 -13.2579
   -11.3737  -6.9392  -4.3528  -4.0016  -3.9036  -3.8710  -3.8463  -3.7996
    -3.7428  -3.6246  -3.4982  -3.4358  -3.1252  -3.0771  -3.0613  -3.0440
    -3.0062  -2.7987  -2.7481  -2.7075  -2.6829  -2.6755  -2.6644  -2.6569
    -2.6452  -2.6066  -2.5046  -2.4355  -2.4285  -2.3434  -2.2927  -2.2690
    -2.2062  -2.1865  -2.1646  -2.1414  -2.1298  -2.1089  -2.0889  -2.0779
    -1.9731  -1.8820  -1.7524  -1.6935  -1.6722  -1.6580  -1.6503  -1.5018
    -1.3696  -1.3368  -1.3279  -1.3189  -1.2856  -1.2737  -1.1908  -1.0626
    -1.0510  -1.0118  -0.9592  -0.9010  -0.8758  -0.7740  -0.7372  -0.6603
    -0.6552  -0.6384  -0.5856  -0.5340  -0.3753  -0.3337  -0.3075  -0.2853
    -0.2607  -0.1900  -0.1684  -0.0526  -0.0348  -0.0171   0.0430   0.0663
     0.0793   0.0891   0.1069   0.1251   0.1425   0.3097   0.3821   0.4335
     0.4579   0.5159   0.6408   0.7099   0.7645   0.8651   1.0761   1.1502
     1.2432   1.3423   1.7217   1.7674   2.6516   3.2452   3.3261   3.3751
     3.3899   3.4869   3.5202   3.6970   3.6982   3.7268   3.7967

[...]

          k = 0.0380-0.0419 0.0000 ( 17876 PWs)   bands (ev):

[...]

          k =-0.0760-0.0000 0.0000 ( 17886 PWs)   bands (ev):

[...]

          k =-0.0760-0.0839 0.0000 ( 17948 PWs)   bands (ev):

   -55.8776 -55.8766 -55.8614 -55.8609 -55.7913 -55.7169 -55.7064 -55.7044
   -55.6866 -55.6841 -55.6513 -55.6501 -55.2834 -55.0951 -54.8546 -54.8545
   -32.2380 -32.2361 -32.1921 -32.1914 -32.1730 -32.1721 -32.1686 -32.1331
   -32.0875 -32.0845 -32.0786 -32.0779 -32.0413 -32.0118 -32.0041 -32.0035
   -31.9972 -31.9972 -31.9965 -31.9962 -31.9922 -31.9902 -31.9877 -31.9366
   -31.9228 -31.9110 -31.9098 -31.8985 -31.8856 -31.8850 -31.8825 -31.8815
   -31.8658 -31.8651 -31.8561 -31.8534 -31.6933 -31.5668 -31.4664 -31.4131
   -31.3557 -31.3351 -31.1807 -31.1806 -31.0917 -31.0915 -31.0523 -31.0523
   -18.4461 -16.0675 -16.0416 -15.8416 -15.8086 -15.8044 -15.7900 -15.6812
   -15.5963 -15.5893 -15.5866 -15.5200 -15.4901 -15.4742 -15.4335 -15.4209
   -15.4136 -15.4019 -15.3917 -15.3545 -15.3472 -15.3300 -15.3225 -15.2384
   -15.2106 -15.2065 -15.1807 -15.0627 -14.9313 -14.6163 -13.3598 -13.3595
   -11.3714  -6.9509  -4.2635  -3.9079  -3.8500  -3.3570  -3.3282  -3.0880
    -3.0491  -3.0354  -2.9823  -2.8207  -2.7904  -2.7646  -2.7529  -2.7214
    -2.7161  -2.7041  -2.6990  -2.6790  -2.6376  -2.6168  -2.5988  -2.5808
    -2.5614  -2.5475  -2.5318  -2.5150  -2.5055  -2.4661  -2.4426  -2.4310
    -2.4123  -2.4006  -2.2448  -2.1211  -2.0866  -2.0321  -2.0218  -2.0003
    -1.9605  -1.9566  -1.9449  -1.8805  -1.8086  -1.6527  -1.6139  -1.5932
    -1.5766  -1.5633  -1.4994  -1.4591  -1.3725  -1.2977  -1.2739  -1.2696
    -1.2016  -1.1137  -1.1063  -1.0596  -1.0164  -1.0067  -0.9519  -0.8871
    -0.8566  -0.8522  -0.8012  -0.7325  -0.7127  -0.6623  -0.6555  -0.6111
    -0.5561  -0.5485  -0.5271  -0.4859  -0.4040  -0.3804  -0.2420  -0.1621
    -0.0387   0.0747   0.1688   0.1832   0.2633   0.3152   0.3990   0.4166
     0.4271   0.4365   0.4795   0.5629   0.6382   0.6530   0.6988   0.8198
     1.5139   1.5147   1.5870   1.5873   2.7075   3.4923   3.5370   3.5792
     3.6115   3.7178   3.7503   3.7738   3.7750   3.8030   3.9157

     the Fermi energy is     3.2405 ev

!    total energy              =   -2939.15469886 Ry
     estimated scf accuracy    <       0.00000005 Ry
     smearing contrib. (-TS)   =      -0.02245642 Ry
     internal energy E=F+TS    =   -2939.13224244 Ry

     The total energy is F=E-TS. E is the sum of the following terms:
     one-electron contribution =  -24176.26039128 Ry
     hartree contribution      =   12175.38383899 Ry
     xc contribution           =    -485.19046545 Ry
     ewald contribution        =    9546.93382491 Ry
     electric field correction =       0.00095039 Ry

     convergence has been achieved in  83 iterations

     Forces acting on atoms (cartesian axes, Ry/au):

     atom    1 type  1   force =     0.00011373   -0.00024793    0.09663638
     atom    2 type  1   force =    -0.00012067   -0.00049465   -0.17524987
     atom    3 type  2   force =     0.00000106   -0.00010130   -0.02500536
     atom    4 type  2   force =     0.00005243   -0.00150031    0.05300331
     atom    5 type  2   force =    -0.01215077   -0.00108878    0.00362271
     atom    6 type  2   force =     0.01370250   -0.00027907    0.00229663
     atom    7 type  1   force =    -0.00117262    0.00036504   -0.01147004
     atom    8 type  1   force =     0.00055873    0.00941545    0.02854231
     atom    9 type  2   force =     0.00019656    0.00053116   -0.00015143
     atom   10 type  2   force =    -0.00114687    0.00028429   -0.01821651
     atom   11 type  2   force =    -0.00012269    0.00000137   -0.00013290
     atom   12 type  2   force =     0.00013618    0.00021393    0.00018705
     atom   13 type  1   force =     0.00009513   -0.00029388    0.00016296
     atom   14 type  1   force =     0.00021675    0.00017265    0.00020139
     atom   15 type  2   force =     0.00022016   -0.00005576   -0.00011671
     atom   16 type  2   force =    -0.00032995    0.00033947    0.00036552
     atom   17 type  2   force =    -0.00014016    0.00042442   -0.00013806
     atom   18 type  2   force =     0.00010881    0.00016991    0.00024078
     atom   19 type  1   force =    -0.00008089    0.00013901    0.00003571
     atom   20 type  1   force =    -0.00059254   -0.00026547    0.00018867
     atom   21 type  2   force =     0.00008681    0.00001487    0.10320390
     atom   22 type  2   force =    -0.00019333    0.00015560    0.00086514
     atom   23 type  2   force =    -0.07147717   -0.00006923   -0.02771047
     atom   24 type  2   force =     0.07144291    0.00035221   -0.02772082
     atom   25 type  1   force =     0.00007214   -0.00022653    0.09635634
     atom   26 type  1   force =    -0.00022706   -0.00026573   -0.17564541
     atom   27 type  2   force =     0.00006979   -0.00025009   -0.02401103
     atom   28 type  2   force =     0.00009588   -0.00126096    0.05286784
     atom   29 type  2   force =    -0.01239487    0.00004062    0.00353519
     atom   30 type  2   force =     0.01386189    0.00033228    0.00217854
     atom   31 type  1   force =    -0.00113297    0.00332957   -0.01188359
     atom   32 type  1   force =     0.00065210   -0.01118467    0.02913711
     atom   33 type  2   force =     0.00010903   -0.00020145   -0.00040610
     atom   34 type  2   force =    -0.00089509   -0.00093556   -0.02480208
     atom   35 type  2   force =    -0.00039540    0.00027414    0.00002755
     atom   36 type  2   force =     0.00072797    0.00029297    0.00034795
     atom   37 type  1   force =    -0.00000541   -0.00023088    0.00005745
     atom   38 type  1   force =    -0.00001372    0.00009957   -0.00000680
     atom   39 type  2   force =     0.00032641    0.00036368   -0.00044506
     atom   40 type  2   force =    -0.00030417    0.00010330    0.00015184
     atom   41 type  2   force =    -0.00041398    0.00051905    0.00014919
     atom   42 type  2   force =     0.00001496    0.00044850    0.00043778
     atom   43 type  1   force =    -0.00004743    0.00039100    0.00039848
     atom   44 type  1   force =    -0.00041656    0.00024506    0.00067012
     atom   45 type  2   force =     0.00007955   -0.00002850    0.10322681
     atom   46 type  2   force =    -0.07150156   -0.00003570   -0.02772268
     atom   47 type  2   force =     0.07146765    0.00038901   -0.02775245
     atom   48 type  3   force =     0.00047690   -0.00202673   -0.00030984
     atom   49 type  3   force =     0.00060455    0.00044290   -0.00002842
     atom   50 type  4   force =     0.00403682   -0.00885011    0.00334169
     atom   51 type  5   force =    -0.00222852    0.01094329   -0.00449438
     atom   52 type  5   force =    -0.00118291   -0.00091026    0.00103697
     atom   53 type  5   force =    -0.00084012    0.00000924   -0.00005328

     Total force =     0.368663     Total SCF correction =     0.000569
  @ DRIVER MODE: Message from server: STATUS
  @ DRIVER MODE: Message from server: GETFORCE
  @ DRIVER MODE: Returning v,forces,stress,ensemble

     Writing output data file ./calc.save/
  @ DRIVER MODE: Message from server: EXIT
  @ DRIVE MODE: Exiting

     General routines

     Parallel routines

   This run was terminated on:  22:40: 1  18Aug2021

   JOB DONE.