     Program PWSCF v.6.7GPU starts on  9Sep2021 at 10:58: 8

     R & G space division:  proc/nbgrp/npool/nimage =      10
     Reading input from /storage/home/hcoda1/3/ntian30/research/carbon/CxH_vib/CH3_calc/ads_slab/CH3NNH3_a/out_0040/pw.inp
Warning: card &CELL ignored
Warning: card   CELL_DYNAMICS='IPI', ignored
Warning: card / ignored

     Current dimensions of program PWSCF are:
     Max number of different atomic species (ntypx) = 10
     Max number of k-points (npk) =  40000
     Max angular momentum in pseudopotentials (lmaxx) =  3
     Presently no symmetry can be used with electric field

     Message from routine cell_base_init:
     DEPRECATED: use true lattice parameter, not A to a.u. conversion factor

     IMPORTANT: XC functional enforced from input :
     Exchange-correlation= BEEF-VDW
                           (   1   4  43  14   2   0   0)
     Any further DFT definition will be discarded
     Please, verify this is what you really want

  @ DRIVER MODE: Connecting to
 qe_1139763_2767402.sched-torque.pace.gatech.edur77wmf1r_scratch
  using UNIX socket
  @ DRIVER MODE: Message from server: STATUS
  @ DRIVER MODE: Message from server: INIT
  @ DRIVER MODE: Receiving replica           0          -1
  @ DRIVER MODE: Receiving encoded integer          25
  @ DRIVER MODE:  SCF:  T  FORCE:  T  STRESS:  F  VC:  F  ENSEMBLE:  F
  @ DRIVER MODE:  SCF:  T  FORCE:  T  STRESS:  F  VC:  F  ENSEMBLE:  F

     Using Slab Decomposition

     bravais-lattice index     =            0
     lattice parameter (alat)  =       1.8897  a.u.
     unit-cell volume          =    6658.9804 (a.u.)^3
     number of atoms/cell      =           56
     number of atomic types    =            5
     number of electrons       =       398.00
     number of Kohn-Sham states=          209
     kinetic-energy cutoff     =      29.3995  Ry
     charge density cutoff     =     293.9946  Ry
     scf convergence threshold =      7.3E-08
     mixing beta               =       0.0500
     number of iterations used =            8  plain     mixing
     Exchange-correlation= BEEF-VDW
                           (   1   4  43  14   2   0   0)

     celldm(1)=   1.889726  celldm(2)=   0.000000  celldm(3)=   0.000000
     celldm(4)=   0.000000  celldm(5)=   0.000000  celldm(6)=   0.000000

     crystal axes: (cart. coord. in units of alat)
               a(1) = (   6.579727   0.000000   0.000000 )
               a(2) = (  -0.000775   5.961596   0.000000 )
               a(3) = (   0.000000   0.000000  25.155947 )

     reciprocal axes: (cart. coord. in units 2 pi/alat)
               b(1) = (  0.151982  0.000020  0.000000 )
               b(2) = (  0.000000  0.167740  0.000000 )
               b(3) = (  0.000000  0.000000  0.039752 )

     PseudoPot. # 1 for Ti read from file:
     /storage/coda1/p-amedford6/0/shared/rich_project_chbe-medford/medford-share/data/pseudos_module/espresso/nninc/pbe/van/Ti.UPF
     MD5 check sum: 8e4df49b7f0d34bbd5052bf3f5ea0213
     Pseudo is Ultrasoft, Zval = 12.0
     Generated by new atomic code, or converted to UPF format
     Using radial grid of  851 points,  6 beta functions with:
                l(1) =   0
                l(2) =   0
                l(3) =   1
                l(4) =   1
                l(5) =   2
                l(6) =   2
     Q(r) pseudized with  8 coefficients,  rinner =    1.000   1.000   1.000
                                                       1.000   1.000

     PseudoPot. # 2 for O  read from file:
     /storage/coda1/p-amedford6/0/shared/rich_project_chbe-medford/medford-share/data/pseudos_module/espresso/nninc/pbe/van/O.UPF
     MD5 check sum: 78c19812648e8988a0fe644b0f25305e
     Pseudo is Ultrasoft, Zval =  6.0
     Generated by new atomic code, or converted to UPF format
     Using radial grid of  737 points,  4 beta functions with:
                l(1) =   0
                l(2) =   0
                l(3) =   1
                l(4) =   1
     Q(r) pseudized with  8 coefficients,  rinner =    0.800   0.800   0.800

     PseudoPot. # 3 for N  read from file:
     /storage/coda1/p-amedford6/0/shared/rich_project_chbe-medford/medford-share/data/pseudos_module/espresso/nninc/pbe/van/N.UPF
     MD5 check sum: 90d10febe142ad51ac9d5be1deb811c4
     Pseudo is Ultrasoft, Zval =  5.0
     Generated by new atomic code, or converted to UPF format
     Using radial grid of  729 points,  4 beta functions with:
                l(1) =   0
                l(2) =   0
                l(3) =   1
                l(4) =   1
     Q(r) pseudized with  8 coefficients,  rinner =    0.800   0.800   0.800

     PseudoPot. # 4 for C  read from file:
     /storage/coda1/p-amedford6/0/shared/rich_project_chbe-medford/medford-share/data/pseudos_module/espresso/nninc/pbe/van/C.UPF
     MD5 check sum: 1a69bf6b8db32088f5b2163dbdb77a27
     Pseudo is Ultrasoft, Zval =  4.0
     Generated by new atomic code, or converted to UPF format
     Using radial grid of  721 points,  4 beta functions with:
                l(1) =   0
                l(2) =   0
                l(3) =   1
                l(4) =   1
     Q(r) pseudized with  8 coefficients,  rinner =    0.800   0.800   0.800

     PseudoPot. # 5 for H  read from file:
     /storage/coda1/p-amedford6/0/shared/rich_project_chbe-medford/medford-share/data/pseudos_module/espresso/nninc/pbe/van/H.UPF
     MD5 check sum: b5ee9d7bfd3a09ee7748110bda690ff7
     Pseudo is Ultrasoft, Zval =  1.0
     Generated by new atomic code, or converted to UPF format
     Using radial grid of  615 points,  1 beta functions with:
                l(1) =   0
     Q(r) pseudized with  8 coefficients,  rinner =    0.800

     atomic species   valence    mass     pseudopotential
        Ti1           12.00    47.86700     Ti( 1.00)
        O1             6.00    15.99900     O ( 1.00)
        N1             5.00    14.00700     N ( 1.00)
        C1             4.00    12.01100     C ( 1.00)
        H1             1.00     1.00800     H ( 1.00)

     No symmetry found

   Cartesian axes

     site n.     atom                  positions (alat units)
         1           Ti1 tau(   1) = (   0.0004258   2.9801865   6.0000000  )
         2           Ti1 tau(   2) = (   3.2906075   1.4906267   6.0002472  )
         3           O1  tau(   3) = (   0.0006271   0.0005054   7.9858123  )
         4           O1  tau(   4) = (   3.2906025   0.0005020   7.3038282  )
         5           O1  tau(   5) = (   4.5942328   1.4918067   9.2879030  )
         6           O1  tau(   6) = (   1.9868534   1.4903216   9.2879459  )
         7           Ti1 tau(   7) = (   3.2907910   2.8959150   9.1758416  )
         8           Ti1 tau(   8) = (   0.0015273   1.4827037   9.2680791  )
         9           O1  tau(   9) = (   3.2915376   0.0135470  11.3011085  )
        10           O1  tau(  10) = (   0.0116148   5.9584955  10.6183126  )
        11           O1  tau(  11) = (   1.3264285   1.5112823  12.6233503  )
        12           O1  tau(  12) = (   5.3038506   1.5117067  12.6402039  )
        13           Ti1 tau(  13) = (   6.4820107   2.9926285  12.7699842  )
        14           Ti1 tau(  14) = (   3.1705855   1.5046985  12.4703807  )
        15           O1  tau(  15) = (   0.0265921   0.0018185  14.6022993  )
        16           O1  tau(  16) = (   3.3077976   0.0231332  13.8844522  )
        17           O1  tau(  17) = (   4.5431088   1.5356983  16.0582573  )
        18           O1  tau(  18) = (   2.0919096   1.5355568  16.0602035  )
        19           Ti1 tau(  19) = (   3.3160089   3.0194793  15.6930983  )
        20           Ti1 tau(  20) = (   0.0166562   1.5958061  16.1043543  )
        21           O1  tau(  21) = (   3.2904802   0.0005063   4.7018136  )
        22           O1  tau(  22) = (   0.0292894   0.0555714  17.2141426  )
        23           O1  tau(  23) = (   1.3043587   1.4918075   6.0039043  )
        24           O1  tau(  24) = (   5.2767064   1.4903225   6.0039473  )
        25           Ti1 tau(  25) = (   0.0000382   5.9609847   6.0000000  )
        26           Ti1 tau(  26) = (   3.2902200   4.4714249   6.0002472  )
        27           O1  tau(  27) = (   0.0002396   2.9813036   7.9858123  )
        28           O1  tau(  28) = (   3.2902150   2.9813002   7.3038282  )
        29           O1  tau(  29) = (   4.5938453   4.4726049   9.2879030  )
        30           O1  tau(  30) = (   1.9864658   4.4711199   9.2879459  )
        31           Ti1 tau(  31) = (   3.2891106   5.8743827   9.1763621  )
        32           Ti1 tau(  32) = (   0.0006254   4.4649316   9.2693709  )
        33           O1  tau(  33) = (   3.2938734   2.9940915  11.3014364  )
        34           O1  tau(  34) = (   0.0092240   2.9805883  10.6323155  )
        35           O1  tau(  35) = (   1.3265148   4.4779228  12.6213786  )
        36           O1  tau(  36) = (   5.3043665   4.4729268  12.6387898  )
        37           Ti1 tau(  37) = (   6.5102921   0.0103953  12.7821347  )
        38           Ti1 tau(  38) = (   3.1702703   4.4844908  12.4724723  )
        39           O1  tau(  39) = (   0.0044238   2.9856840  14.6711682  )
        40           O1  tau(  40) = (   3.3052367   3.0047533  13.8869641  )
        41           O1  tau(  41) = (   4.5463945   4.5179403  16.0573015  )
        42           O1  tau(  42) = (   2.0913021   4.5186677  16.0620504  )
        43           Ti1 tau(  43) = (   3.3128124   0.0388915  15.6953448  )
        44           Ti1 tau(  44) = (   0.0191476   4.5695365  16.1495174  )
        45           O1  tau(  45) = (   3.2900926   2.9813045   4.7018136  )
        46           O1  tau(  46) = (   1.3039711   4.4726057   6.0039043  )
        47           O1  tau(  47) = (   5.2763189   4.4711207   6.0039473  )
        48           N1  tau(  48) = (   0.0657769   3.0188755  17.3428317  )
        49           N1  tau(  49) = (   6.3710133   2.5762042  22.6422586  )
        50           C1  tau(  50) = (   0.3130180   3.0007025  18.7658599  )
        51           H1  tau(  51) = (   0.2928038   4.0066326  19.1970245  )
        52           H1  tau(  52) = (   6.1505335   2.3845869  19.2855718  )
        53           H1  tau(  53) = (   1.2957935   2.5555442  18.9776258  )
        54           H1  tau(  54) = (   5.9555952   3.2043721  23.3306195  )
        55           H1  tau(  55) = (   0.0098814   1.7053999  23.1148127  )
        56           H1  tau(  56) = (   0.6724875   2.9916800  22.3598805  )

     number of k points=    10  Fermi-Dirac smearing, width (Ry)=  0.0073
                       cart. coord. in units 2pi/alat
        k(    1) = (   0.0000000   0.0000000   0.0000000), wk =   0.1250000
        k(    2) = (   0.0000000   0.0419351   0.0000000), wk =   0.2500000
        k(    3) = (   0.0000000  -0.0838702   0.0000000), wk =   0.1250000
        k(    4) = (   0.0379955   0.0000049   0.0000000), wk =   0.2500000
        k(    5) = (   0.0379955   0.0419400   0.0000000), wk =   0.2500000
        k(    6) = (   0.0379955  -0.0838652   0.0000000), wk =   0.2500000
        k(    7) = (   0.0379955  -0.0419301   0.0000000), wk =   0.2500000
        k(    8) = (  -0.0759910  -0.0000099   0.0000000), wk =   0.1250000
        k(    9) = (  -0.0759910   0.0419252   0.0000000), wk =   0.2500000
        k(   10) = (  -0.0759910  -0.0838800   0.0000000), wk =   0.1250000

     Initial potential from superposition of free atoms

     starting charge  381.99914, renormalised to  398.00000

     negative rho (up, down):  7.223E-03 0.000E+00

     %%%%%%%%%%%%%%%%%%%%%%%%%%%%%%%%%%%%%%%%%%%%%%%%%%%%%%%%%%%%%%%%%%%%%%%%
     %                                                                      %
     % You are using vdW-DF, which was implemented by the Thonhauser group. %
     % Please cite the following two papers that made this development      %
     % possible and the two reviews that describe the various versions:     %
     %                                                                      %
     %   T. Thonhauser et al., PRL 115, 136402 (2015).                      %
     %   T. Thonhauser et al., PRB 76, 125112 (2007).                       %
     %   K. Berland et al., Rep. Prog. Phys. 78, 066501 (2015).             %
     %   D.C. Langreth et al., J. Phys.: Condens. Matter 21, 084203 (2009). %
     %                                                                      %
     %                                                                      %
     % If you are calculating the stress with vdW-DF, please also cite:     %
     %                                                                      %
     %   R. Sabatini et al., J. Phys.: Condens. Matter 24, 424209 (2012).   %
     %                                                                      %
     %%%%%%%%%%%%%%%%%%%%%%%%%%%%%%%%%%%%%%%%%%%%%%%%%%%%%%%%%%%%%%%%%%%%%%%%

     Adding external electric field

     Computed dipole along edir(3) :
        Dipole              -12.0378 Ry au,        -30.5970 Debye
        Dipole field         -0.0227 Ry au,

        Potential amp.        2.1058 Ry
        Total length         46.3494 bohr

     Starting wfcs are  302 atomic wfcs
  @ DRIVER MODE: Message from server: STATUS
  @ DRIVER MODE: Message from server: POSDATA
  @ DRIVER MODE: Reading and sharing cell
  @ DRIVER MODE: Reading and sharing positions
  @ DRIVER MODE: Received positions

     Self-consistent Calculation

     iteration #  1     ecut=    29.40 Ry     beta= 0.05
     Davidson diagonalization with overlap
     c_bands:  1 eigenvalues not converged
     c_bands:  1 eigenvalues not converged
     c_bands:  1 eigenvalues not converged
     c_bands:  1 eigenvalues not converged
     c_bands:  1 eigenvalues not converged
     c_bands:  1 eigenvalues not converged
     c_bands:  1 eigenvalues not converged
     c_bands:  2 eigenvalues not converged
     c_bands:  1 eigenvalues not converged
     ethr =  1.00E-05,  avg # of iterations = 19.6

[...]

     total energy              =   -2520.05849009 Ry
     estimated scf accuracy    <    4725.45021580 Ry

     iteration #  2     ecut=    29.40 Ry     beta= 0.05
     Davidson diagonalization with overlap
     ethr =  1.00E-02,  avg # of iterations = 21.8

[...]

     iteration # 44     ecut=    29.40 Ry     beta= 0.05
     Davidson diagonalization with overlap
     c_bands:  1 eigenvalues not converged
     ethr =  2.32E-06,  avg # of iterations = 10.1

[...]

     total energy              =   -2942.90429281 Ry
     estimated scf accuracy    <       0.00000011 Ry

     iteration # 70     ecut=    29.40 Ry     beta= 0.05
     Davidson diagonalization with overlap
     ethr =  2.68E-11,  avg # of iterations =  5.6

     negative rho (up, down):  9.729E-03 0.000E+00

     Adding external electric field

     Computed dipole along edir(3) :
        Dipole                0.6779 Ry au,          1.7231 Debye
        Dipole field          0.0013 Ry au,

        Potential amp.       -0.1186 Ry
        Total length         46.3494 bohr

     End of self-consistent calculation

          k = 0.0000 0.0000 0.0000 ( 18029 PWs)   bands (ev):

   -56.5056 -56.4719 -55.6136 -55.6047 -55.5784 -55.5722 -55.4754 -55.4399
   -55.2609 -55.2257 -55.1690 -55.1627 -55.1351 -55.0500 -54.6101 -54.5668
   -32.9330 -32.7793 -32.7512 -32.6823 -32.5913 -32.5590 -32.0929 -32.0712
   -32.0168 -31.9014 -31.8603 -31.8209 -31.8187 -31.7852 -31.7563 -31.7552
   -31.7538 -31.7360 -31.7254 -31.7213 -31.7002 -31.6840 -31.6577 -31.6441
   -31.6311 -31.6107 -31.6044 -31.5806 -31.5612 -31.5075 -31.4924 -31.4833
   -31.4044 -31.3997 -31.3798 -31.3360 -31.3280 -31.2964 -31.2798 -31.2560
   -31.2368 -31.1856 -31.1373 -30.8545 -30.8308 -30.8136 -30.7883 -30.6683
   -16.6668 -16.2248 -15.9967 -15.8667 -15.7933 -15.7448 -15.6919 -15.5757
   -15.4983 -15.4957 -15.4586 -15.4220 -15.3527 -15.2098 -15.1120 -15.0554
   -15.0133 -14.8987 -14.8326 -14.8060 -14.7961 -14.7647 -14.7472 -14.5484
   -14.5048 -14.4145 -14.4050 -14.2683 -14.0661 -13.9730 -13.6676 -13.5576
   -12.6987  -7.4301  -4.2339  -4.0928  -4.0417  -3.7209  -3.4790  -3.3929
    -3.2898  -3.2776  -3.2042  -3.0845  -3.0314  -2.9855  -2.8708  -2.8683
    -2.7254  -2.7070  -2.6803  -2.6696  -2.6329  -2.5861  -2.5560  -2.5088
    -2.5032  -2.4942  -2.3406  -2.2432  -2.1767  -2.1484  -2.1331  -2.1039
    -2.0284  -2.0035  -1.9924  -1.9843  -1.8960  -1.7468  -1.7411  -1.7127
    -1.6679  -1.6675  -1.6239  -1.6126  -1.4712  -1.3961  -1.2861  -1.2805
    -1.2442  -1.1771  -1.1752  -1.0724  -1.0024  -0.9505  -0.9117  -0.8057
    -0.7620  -0.7355  -0.6504  -0.5795  -0.5458  -0.5298  -0.5064  -0.4091
    -0.3920  -0.3693  -0.2860  -0.2766  -0.2283  -0.1406  -0.1199  -0.1163
    -0.0282  -0.0201   0.0817   0.1185   0.1604   0.1885   0.2783   0.3072
     0.4083   0.4520   0.4677   0.5898   0.6071   0.6666   0.7418   0.8036
     0.8239   0.8524   0.8850   0.8956   0.9776   1.0973   1.1026   1.1400
     1.2050   1.2515   1.4064   1.4453   1.7299   1.7417   2.4144   2.7699
     2.9314   3.2300   3.4310   3.5377   3.7469   3.7605   3.7664   3.9427
     3.9936

[...]

          k = 0.0380-0.0419 0.0000 ( 17876 PWs)   bands (ev):

[...]

          k =-0.0760-0.0000 0.0000 ( 17886 PWs)   bands (ev):

[...]

          k =-0.0760-0.0839 0.0000 ( 17948 PWs)   bands (ev):

   -56.4889 -56.4885 -55.5956 -55.5948 -55.5919 -55.5863 -55.4596 -55.4555
   -55.2457 -55.2407 -55.1599 -55.1520 -55.1520 -55.0526 -54.6011 -54.5757
   -32.7652 -32.7649 -32.7499 -32.7497 -32.6354 -32.6351 -31.9216 -31.9192
   -31.8958 -31.8895 -31.8510 -31.8501 -31.8080 -31.8055 -31.8053 -31.8045
   -31.7822 -31.7803 -31.7788 -31.7751 -31.7108 -31.7072 -31.6620 -31.6563
   -31.5963 -31.5878 -31.5281 -31.5234 -31.4963 -31.4963 -31.4890 -31.4445
   -31.4435 -31.4121 -31.3776 -31.3775 -31.3734 -31.3383 -31.3383 -31.3315
   -31.2956 -31.2576 -30.9995 -30.9268 -30.8270 -30.7997 -30.7958 -30.7538
   -16.0136 -16.0117 -15.9819 -15.9816 -15.7073 -15.7038 -15.6563 -15.6542
   -15.4849 -15.4786 -15.2686 -15.2603 -15.2561 -15.2520 -15.1239 -15.1174
   -15.0591 -15.0416 -14.9585 -14.9543 -14.8923 -14.8821 -14.8466 -14.8281
   -14.5068 -14.4858 -14.3674 -14.3491 -14.2142 -13.9722 -13.6611 -13.6610
   -12.7151  -7.4207  -4.1068  -4.0424  -3.1139  -3.1133  -3.0424  -3.0415
    -2.9191  -2.9140  -2.8458  -2.8450  -2.7345  -2.7321  -2.6796  -2.5998
    -2.5983  -2.5958  -2.5765  -2.5568  -2.4449  -2.4372  -2.4247  -2.4062
    -2.3609  -2.3578  -2.3481  -2.2674  -2.2534  -2.2174  -2.1774  -2.0714
    -2.0592  -2.0445  -2.0147  -1.9538  -1.9434  -1.9283  -1.8791  -1.8622
    -1.7788  -1.7233  -1.6604  -1.5532  -1.5489  -1.5395  -1.5272  -1.3723
    -1.3330  -1.3048  -1.2986  -1.2898  -1.2454  -1.1469  -1.1394  -0.9972
    -0.9968  -0.9248  -0.8444  -0.8287  -0.7985  -0.6680  -0.6250  -0.5846
    -0.5780  -0.5559  -0.5319  -0.5117  -0.4792  -0.3331  -0.3209  -0.2902
    -0.2498  -0.2420  -0.1955  -0.1281  -0.0403   0.0230   0.0245   0.0885
     0.1516   0.2114   0.2919   0.3076   0.3126   0.5937   0.6768   0.7646
     0.8409   0.9084   0.9730   0.9950   1.0637   1.0958   1.1395   1.2327
     1.2367   1.2538   1.2541   1.3255   1.3274   1.7069   2.3063   3.3438
     3.3442   3.4122   3.4127   3.7365   3.7421   3.8525   3.8627   3.9726
     3.9765

     the Fermi energy is     2.6025 ev

!    total energy              =   -2942.90433064 Ry
     estimated scf accuracy    <       0.00000005 Ry
     smearing contrib. (-TS)   =      -0.00455173 Ry
     internal energy E=F+TS    =   -2942.89977890 Ry

     The total energy is F=E-TS. E is the sum of the following terms:
     one-electron contribution =  -23042.92574823 Ry
     hartree contribution      =   11612.08321840 Ry
     xc contribution           =    -487.43673119 Ry
     ewald contribution        =    8975.37861483 Ry
     electric field correction =       0.00086729 Ry

     convergence has been achieved in  70 iterations

     Forces acting on atoms (cartesian axes, Ry/au):

     atom    1 type  1   force =     0.00001297   -0.00049388    0.12498909
     atom    2 type  1   force =    -0.00013661   -0.00063396   -0.16059757
     atom    3 type  2   force =     0.00017154   -0.00022330   -0.06934731
     atom    4 type  2   force =    -0.00004306   -0.00027743    0.02763596
     atom    5 type  2   force =    -0.01718810    0.00222420   -0.00888330
     atom    6 type  2   force =     0.01886743    0.00287394   -0.00920609
     atom    7 type  1   force =     0.00087760   -0.00375367    0.02232664
     atom    8 type  1   force =    -0.00036330   -0.00328278    0.11352115
     atom    9 type  2   force =     0.00050263   -0.00039626    0.00005887
     atom   10 type  2   force =    -0.00234608    0.00260125   -0.07319256
     atom   11 type  2   force =     0.00014864   -0.00095402   -0.00010795
     atom   12 type  2   force =    -0.00000711   -0.00058379   -0.00003018
     atom   13 type  1   force =     0.00019703   -0.00019230   -0.00029188
     atom   14 type  1   force =    -0.00007847   -0.00054307   -0.00004748
     atom   15 type  2   force =    -0.00035577   -0.00099206    0.00084777
     atom   16 type  2   force =    -0.00013385   -0.00016877    0.00045574
     atom   17 type  2   force =     0.00088991   -0.00042593   -0.00034874
     atom   18 type  2   force =    -0.00058066   -0.00046215   -0.00031473
     atom   19 type  1   force =    -0.00025256    0.00006943   -0.00053312
     atom   20 type  1   force =     0.00055327   -0.00087494   -0.00099062
     atom   21 type  2   force =     0.00005181   -0.00006200    0.09970346
     atom   22 type  2   force =     0.00014987   -0.00037712   -0.00094088
     atom   23 type  2   force =    -0.07923143   -0.00006302   -0.03252360
     atom   24 type  2   force =     0.07908704    0.00036862   -0.03255103
     atom   25 type  1   force =     0.00003125   -0.00049977    0.12432932
     atom   26 type  1   force =    -0.00012276   -0.00048027   -0.16060978
     atom   27 type  2   force =     0.00028160   -0.00044484   -0.06835253
     atom   28 type  2   force =     0.00000239   -0.00013810    0.02749355
     atom   29 type  2   force =    -0.01764588    0.00173437   -0.00895640
     atom   30 type  2   force =     0.01921700    0.00199738   -0.00929524
     atom   31 type  1   force =     0.00080175   -0.00116254    0.02194518
     atom   32 type  1   force =    -0.00029275    0.00070981    0.11416532
     atom   33 type  2   force =    -0.00007849    0.00003713   -0.00056284
     atom   34 type  2   force =    -0.00201557    0.00206078   -0.07185487
     atom   35 type  2   force =     0.00003574   -0.00021064    0.00012500
     atom   36 type  2   force =    -0.00052658    0.00020534    0.00021715
     atom   37 type  1   force =     0.00085776    0.00095180   -0.00021676
     atom   38 type  1   force =    -0.00020559    0.00026748   -0.00018555
     atom   39 type  2   force =    -0.00002249   -0.00029708   -0.00000110
     atom   40 type  2   force =    -0.00001409   -0.00019705   -0.00024459
     atom   41 type  2   force =     0.00023063   -0.00042802   -0.00032735
     atom   42 type  2   force =    -0.00000193   -0.00038894   -0.00037670
     atom   43 type  1   force =    -0.00036696    0.00007317   -0.00042891
     atom   44 type  1   force =     0.00006884    0.00092472    0.00029743
     atom   45 type  2   force =     0.00003830   -0.00007613    0.09971879
     atom   46 type  2   force =    -0.07923340   -0.00002672   -0.03253148
     atom   47 type  2   force =     0.07908714    0.00041680   -0.03253123
     atom   48 type  3   force =    -0.00033556    0.00103192   -0.00095633
     atom   49 type  3   force =    -0.00438044    0.00629172    0.00524425
     atom   50 type  4   force =    -0.00008811    0.00055772    0.00143927
     atom   51 type  5   force =    -0.00051064   -0.00047566   -0.00046232
     atom   52 type  5   force =     0.00000163    0.00020651   -0.00016376
     atom   53 type  5   force =    -0.00013824    0.00043229   -0.00012274
     atom   54 type  5   force =     0.00423946   -0.00761549   -0.00583618
     atom   55 type  5   force =    -0.00018069    0.00171426    0.00055229
     atom   56 type  5   force =     0.00047397   -0.00054894   -0.00114250

     Total force =     0.426881     Total SCF correction =     0.000445
  @ DRIVER MODE: Message from server: STATUS
  @ DRIVER MODE: Message from server: GETFORCE
  @ DRIVER MODE: Returning v,forces,stress,ensemble

     Writing output data file ./calc.save/
  @ DRIVER MODE: Message from server: EXIT
  @ DRIVE MODE: Exiting

     General routines

     Parallel routines

   This run was terminated on:  11:16:20   9Sep2021

   JOB DONE.