     Program PWSCF v.6.7GPU starts on 23Sep2021 at  3:33: 8

     R & G space division:  proc/nbgrp/npool/nimage =       8
     Reading input from /storage/home/hcoda1/3/ntian30/research/carbon/CxH_vib/H2O_calc/ads_slab/CH2OHO_c/out_0014/pw.inp
Warning: card &CELL ignored
Warning: card   CELL_DYNAMICS='IPI', ignored
Warning: card / ignored

     Current dimensions of program PWSCF are:
     Max number of different atomic species (ntypx) = 10
     Max number of k-points (npk) =  40000
     Max angular momentum in pseudopotentials (lmaxx) =  3
     Presently no symmetry can be used with electric field

     Message from routine cell_base_init:
     DEPRECATED: use true lattice parameter, not A to a.u. conversion factor

     IMPORTANT: XC functional enforced from input :
     Exchange-correlation= BEEF-VDW
                           (   1   4  43  14   2   0   0)
     Any further DFT definition will be discarded
     Please, verify this is what you really want

  @ DRIVER MODE: Connecting to
 qe_1139763_2941011.sched-torque.pace.gatech.edut13u2oyt_scratch
  using UNIX socket
  @ DRIVER MODE: Message from server: STATUS
  @ DRIVER MODE: Message from server: INIT
  @ DRIVER MODE: Receiving replica           0          -1
  @ DRIVER MODE: Receiving encoded integer          25
  @ DRIVER MODE:  SCF:  T  FORCE:  T  STRESS:  F  VC:  F  ENSEMBLE:  F
  @ DRIVER MODE:  SCF:  T  FORCE:  T  STRESS:  F  VC:  F  ENSEMBLE:  F

     Using Slab Decomposition

     bravais-lattice index     =            0
     lattice parameter (alat)  =       1.8897  a.u.
     unit-cell volume          =    6658.9804 (a.u.)^3
     number of atoms/cell      =           53
     number of atomic types    =            4
     number of electrons       =       397.00
     number of Kohn-Sham states=          208
     kinetic-energy cutoff     =      29.3995  Ry
     charge density cutoff     =     293.9946  Ry
     scf convergence threshold =      7.3E-08
     mixing beta               =       0.0500
     number of iterations used =            8  plain     mixing
     Exchange-correlation= BEEF-VDW
                           (   1   4  43  14   2   0   0)

     celldm(1)=   1.889726  celldm(2)=   0.000000  celldm(3)=   0.000000
     celldm(4)=   0.000000  celldm(5)=   0.000000  celldm(6)=   0.000000

     crystal axes: (cart. coord. in units of alat)
               a(1) = (   6.579727   0.000000   0.000000 )
               a(2) = (  -0.000775   5.961596   0.000000 )
               a(3) = (   0.000000   0.000000  25.155947 )

     reciprocal axes: (cart. coord. in units 2 pi/alat)
               b(1) = (  0.151982  0.000020  0.000000 )
               b(2) = (  0.000000  0.167740  0.000000 )
               b(3) = (  0.000000  0.000000  0.039752 )

     PseudoPot. # 1 for O  read from file:
     /storage/coda1/p-amedford6/0/shared/rich_project_chbe-medford/medford-share/data/pseudos_module/espresso/nninc/pbe/van/O.UPF
     MD5 check sum: 78c19812648e8988a0fe644b0f25305e
     Pseudo is Ultrasoft, Zval =  6.0
     Generated by new atomic code, or converted to UPF format
     Using radial grid of  737 points,  4 beta functions with:
                l(1) =   0
                l(2) =   0
                l(3) =   1
                l(4) =   1
     Q(r) pseudized with  8 coefficients,  rinner =    0.800   0.800   0.800

     PseudoPot. # 2 for Ti read from file:
     /storage/coda1/p-amedford6/0/shared/rich_project_chbe-medford/medford-share/data/pseudos_module/espresso/nninc/pbe/van/Ti.UPF
     MD5 check sum: 8e4df49b7f0d34bbd5052bf3f5ea0213
     Pseudo is Ultrasoft, Zval = 12.0
     Generated by new atomic code, or converted to UPF format
     Using radial grid of  851 points,  6 beta functions with:
                l(1) =   0
                l(2) =   0
                l(3) =   1
                l(4) =   1
                l(5) =   2
                l(6) =   2
     Q(r) pseudized with  8 coefficients,  rinner =    1.000   1.000   1.000
                                                       1.000   1.000

     PseudoPot. # 3 for C  read from file:
     /storage/coda1/p-amedford6/0/shared/rich_project_chbe-medford/medford-share/data/pseudos_module/espresso/nninc/pbe/van/C.UPF
     MD5 check sum: 1a69bf6b8db32088f5b2163dbdb77a27
     Pseudo is Ultrasoft, Zval =  4.0
     Generated by new atomic code, or converted to UPF format
     Using radial grid of  721 points,  4 beta functions with:
                l(1) =   0
                l(2) =   0
                l(3) =   1
                l(4) =   1
     Q(r) pseudized with  8 coefficients,  rinner =    0.800   0.800   0.800

     PseudoPot. # 4 for H  read from file:
     /storage/coda1/p-amedford6/0/shared/rich_project_chbe-medford/medford-share/data/pseudos_module/espresso/nninc/pbe/van/H.UPF
     MD5 check sum: b5ee9d7bfd3a09ee7748110bda690ff7
     Pseudo is Ultrasoft, Zval =  1.0
     Generated by new atomic code, or converted to UPF format
     Using radial grid of  615 points,  1 beta functions with:
                l(1) =   0
     Q(r) pseudized with  8 coefficients,  rinner =    0.800

     atomic species   valence    mass     pseudopotential
        O1             6.00    15.99900     O ( 1.00)
        Ti1           12.00    47.86700     Ti( 1.00)
        C1             4.00    12.01100     C ( 1.00)
        H1             1.00     1.00800     H ( 1.00)

     No symmetry found

   Cartesian axes

     site n.     atom                  positions (alat units)
         1           O1  tau(   1) = (   3.2904802   0.0005063   4.7018136  )
         2           O1  tau(   2) = (   3.2900926   2.9813045   4.7018136  )
         3           Ti1 tau(   3) = (   0.0004258   2.9801865   6.0000000  )
         4           Ti1 tau(   4) = (   0.0000382   5.9609847   6.0000000  )
         5           Ti1 tau(   5) = (   3.2906075   1.4906267   6.0002472  )
         6           Ti1 tau(   6) = (   3.2902200   4.4714249   6.0002472  )
         7           O1  tau(   7) = (   1.3043587   1.4918075   6.0039043  )
         8           O1  tau(   8) = (   1.3039711   4.4726057   6.0039043  )
         9           O1  tau(   9) = (   5.2767064   1.4903225   6.0039473  )
        10           O1  tau(  10) = (   5.2763189   4.4711207   6.0039473  )
        11           O1  tau(  11) = (   3.2906025   0.0005020   7.3038282  )
        12           O1  tau(  12) = (   3.2902150   2.9813002   7.3038282  )
        13           O1  tau(  13) = (   0.0006271   0.0005054   7.9858123  )
        14           O1  tau(  14) = (   0.0002396   2.9813036   7.9858123  )
        15           Ti1 tau(  15) = (   3.3202697   0.0919879   9.1698383  )
        16           Ti1 tau(  16) = (   3.3215697   3.0759731   9.1987478  )
        17           Ti1 tau(  17) = (   0.0419684   4.5271873   9.2680259  )
        18           Ti1 tau(  18) = (   0.0391189   1.6041453   9.3419098  )
        19           O1  tau(  19) = (   4.5942328   1.4918067   9.2879030  )
        20           O1  tau(  20) = (   4.5938453   4.4726049   9.2879030  )
        21           O1  tau(  21) = (   1.9868534   1.4903216   9.2879459  )
        22           O1  tau(  22) = (   1.9864658   4.4711199   9.2879459  )
        23           O1  tau(  23) = (   0.0125722   0.0097687  10.5830051  )
        24           O1  tau(  24) = (   0.0081120   2.9918398  10.5664780  )
        25           O1  tau(  25) = (   3.3077729   2.9680546  11.3050536  )
        26           O1  tau(  26) = (   3.3059260   0.0232323  11.3367354  )
        27           Ti1 tau(  27) = (   0.0233359   0.0627999  12.4784840  )
        28           Ti1 tau(  28) = (   3.3058864   4.6637881  12.6801991  )
        29           Ti1 tau(  29) = (   3.3037148   1.5793570  12.4293313  )
        30           Ti1 tau(  30) = (   0.0089448   3.0481173  12.7472709  )
        31           O1  tau(  31) = (   1.2933882   4.4692258  12.6303221  )
        32           O1  tau(  32) = (   1.2985301   1.4993897  12.6236677  )
        33           O1  tau(  33) = (   5.3274268   4.4793405  12.6275207  )
        34           O1  tau(  34) = (   5.3265499   1.4915365  12.6220616  )
        35           O1  tau(  35) = (   3.3295878   2.9786622  13.8932268  )
        36           O1  tau(  36) = (   3.3104420   5.9098017  13.9586718  )
        37           O1  tau(  37) = (   0.0385923   0.0024916  14.6531765  )
        38           O1  tau(  38) = (   0.0086518   2.9873893  14.7004014  )
        39           Ti1 tau(  39) = (   3.3201234   2.9526136  15.6695435  )
        40           Ti1 tau(  40) = (   3.4185286   5.9334276  16.2343674  )
        41           Ti1 tau(  41) = (   0.1049196   4.5923083  15.9423708  )
        42           Ti1 tau(  42) = (   0.0892020   1.3980244  15.8930203  )
        43           O1  tau(  43) = (   4.5900789   4.4270775  16.0984088  )
        44           O1  tau(  44) = (   4.5919070   1.5192920  16.0669747  )
        45           O1  tau(  45) = (   2.0372030   1.5514537  16.0349210  )
        46           O1  tau(  46) = (   2.0392294   4.4021701  16.0428288  )
        47           O1  tau(  47) = (   0.0638787   0.0130652  17.1658208  )
        48           O1  tau(  48) = (   6.5756481   2.9829514  17.4361268  )
        49           C1  tau(  49) = (   6.2652767   2.9703434  18.6584371  )
        50           H1  tau(  50) = (   6.1592679   3.9148029  19.1865895  )
        51           H1  tau(  51) = (   6.0998186   2.0156765  19.1535163  )
        52           O1  tau(  52) = (   3.1909063   0.0039016  18.0657888  )
        53           H1  tau(  53) = (   2.2823347   0.1153277  18.3895531  )

     number of k points=    10  Fermi-Dirac smearing, width (Ry)=  0.0073
                       cart. coord. in units 2pi/alat
        k(    1) = (   0.0000000   0.0000000   0.0000000), wk =   0.1250000
        k(    2) = (   0.0000000   0.0419351   0.0000000), wk =   0.2500000
        k(    3) = (   0.0000000  -0.0838702   0.0000000), wk =   0.1250000
        k(    4) = (   0.0379955   0.0000049   0.0000000), wk =   0.2500000
        k(    5) = (   0.0379955   0.0419400   0.0000000), wk =   0.2500000
        k(    6) = (   0.0379955  -0.0838652   0.0000000), wk =   0.2500000
        k(    7) = (   0.0379955  -0.0419301   0.0000000), wk =   0.2500000
        k(    8) = (  -0.0759910  -0.0000099   0.0000000), wk =   0.1250000
        k(    9) = (  -0.0759910   0.0419252   0.0000000), wk =   0.2500000
        k(   10) = (  -0.0759910  -0.0838800   0.0000000), wk =   0.1250000

     Initial potential from superposition of free atoms

     starting charge  380.99918, renormalised to  397.00000

     negative rho (up, down):  1.768E-02 0.000E+00

     %%%%%%%%%%%%%%%%%%%%%%%%%%%%%%%%%%%%%%%%%%%%%%%%%%%%%%%%%%%%%%%%%%%%%%%%
     %                                                                      %
     % You are using vdW-DF, which was implemented by the Thonhauser group. %
     % Please cite the following two papers that made this development      %
     % possible and the two reviews that describe the various versions:     %
     %                                                                      %
     %   T. Thonhauser et al., PRL 115, 136402 (2015).                      %
     %   T. Thonhauser et al., PRB 76, 125112 (2007).                       %
     %   K. Berland et al., Rep. Prog. Phys. 78, 066501 (2015).             %
     %   D.C. Langreth et al., J. Phys.: Condens. Matter 21, 084203 (2009). %
     %                                                                      %
     %                                                                      %
     % If you are calculating the stress with vdW-DF, please also cite:     %
     %                                                                      %
     %   R. Sabatini et al., J. Phys.: Condens. Matter 24, 424209 (2012).   %
     %                                                                      %
     %%%%%%%%%%%%%%%%%%%%%%%%%%%%%%%%%%%%%%%%%%%%%%%%%%%%%%%%%%%%%%%%%%%%%%%%

     Adding external electric field

     Computed dipole along edir(3) :
        Dipole               -8.4002 Ry au,        -21.3511 Debye
        Dipole field         -0.0159 Ry au,

        Potential amp.        1.4695 Ry
        Total length         46.3494 bohr

     Starting wfcs are  299 atomic wfcs
  @ DRIVER MODE: Message from server: STATUS
  @ DRIVER MODE: Message from server: POSDATA
  @ DRIVER MODE: Reading and sharing cell
  @ DRIVER MODE: Reading and sharing positions
  @ DRIVER MODE: Received positions

     Self-consistent Calculation

     iteration #  1     ecut=    29.40 Ry     beta= 0.05
     Davidson diagonalization with overlap
     c_bands:  1 eigenvalues not converged
     c_bands:  1 eigenvalues not converged
     c_bands:  1 eigenvalues not converged
     c_bands:  1 eigenvalues not converged
     ethr =  1.00E-05,  avg # of iterations = 18.2

[...]

     total energy              =   -2610.75162537 Ry
     estimated scf accuracy    <    3908.85150926 Ry

     iteration #  2     ecut=    29.40 Ry     beta= 0.05
     Davidson diagonalization with overlap
     ethr =  1.00E-02,  avg # of iterations = 23.5

[...]

     iteration # 42     ecut=    29.40 Ry     beta= 0.05
     Davidson diagonalization with overlap
     c_bands:  1 eigenvalues not converged
     c_bands:  1 eigenvalues not converged
     c_bands:  1 eigenvalues not converged
     c_bands:  2 eigenvalues not converged
     c_bands:  1 eigenvalues not converged
     c_bands:  1 eigenvalues not converged
     c_bands:  2 eigenvalues not converged
     ethr =  1.83E-06,  avg # of iterations = 18.7

[...]

     total energy              =   -2963.78475797 Ry
     estimated scf accuracy    <       0.00000012 Ry

     iteration # 61     ecut=    29.40 Ry     beta= 0.05
     Davidson diagonalization with overlap
     ethr =  3.02E-11,  avg # of iterations = 10.2

     negative rho (up, down):  1.717E-02 0.000E+00

     Adding external electric field

     Computed dipole along edir(3) :
        Dipole                0.8854 Ry au,          2.2505 Debye
        Dipole field          0.0017 Ry au,

        Potential amp.       -0.1549 Ry
        Total length         46.3494 bohr

     End of self-consistent calculation

          k = 0.0000 0.0000 0.0000 ( 18029 PWs)   bands (ev):

   -55.9288 -55.8876 -55.7861 -55.7083 -55.6742 -55.6675 -55.6567 -55.6018
   -55.5650 -55.5444 -55.5225 -55.4862 -55.4656 -55.3743 -54.7734 -54.7394
   -32.3808 -32.2484 -32.2226 -32.1866 -32.1852 -32.1358 -32.1245 -32.0873
   -32.0681 -32.0150 -32.0121 -32.0040 -32.0002 -31.9927 -31.9740 -31.9570
   -31.9406 -31.9293 -31.8872 -31.8838 -31.8703 -31.8541 -31.8500 -31.8376
   -31.8098 -31.8060 -31.7778 -31.7712 -31.7689 -31.7588 -31.7469 -31.7412
   -31.7355 -31.7244 -31.7007 -31.6879 -31.6826 -31.6577 -31.6384 -31.6211
   -31.5802 -31.5790 -31.1757 -31.1000 -31.0767 -30.9928 -30.9069 -30.7954
   -20.2070 -16.5714 -16.4244 -16.2526 -16.0622 -15.9678 -15.9061 -15.6919
   -15.6374 -15.5393 -15.4179 -15.3828 -15.3388 -15.3121 -15.2944 -15.2799
   -15.2630 -15.2443 -15.2113 -15.1901 -15.1842 -15.1406 -15.0718 -15.0257
   -15.0174 -14.9773 -14.9186 -14.8770 -14.8397 -14.7996 -14.6232 -13.2740
   -13.1602  -9.4709  -5.7875  -5.7230  -4.1624  -3.7945  -3.7676  -3.7368
    -3.6511  -3.6129  -3.5083  -3.3438  -3.1623  -3.0343  -2.9448  -2.9267
    -2.8879  -2.7752  -2.7243  -2.6926  -2.6488  -2.6201  -2.6012  -2.5594
    -2.5368  -2.4964  -2.4635  -2.4353  -2.3442  -2.3370  -2.2768  -2.2159
    -2.1831  -2.1740  -2.1689  -2.1456  -2.1105  -2.0560  -2.0205  -1.9860
    -1.9487  -1.8308  -1.8132  -1.7971  -1.7256  -1.4837  -1.3531  -1.3130
    -1.2588  -1.2167  -1.1936  -1.1685  -1.1630  -1.1441  -1.1119  -1.0623
    -0.9590  -0.9005  -0.8306  -0.8247  -0.8080  -0.7455  -0.6656  -0.5946
    -0.5565  -0.5258  -0.5026  -0.4271  -0.4266  -0.3528  -0.3221  -0.2506
    -0.1361  -0.0883  -0.0646  -0.0462  -0.0335   0.0200   0.0666   0.1343
     0.1540   0.1699   0.1985   0.2781   0.2876   0.3106   0.3288   0.4253
     0.4892   0.4977   0.5665   0.6579   0.6909   0.7739   0.9020   0.9779
     1.2243   1.2488   1.3339   1.4643   1.8102   1.8542   3.2867   3.3575
     3.3947   3.4956   3.5783   3.5978   3.6760   3.7359   3.8234   3.8670

[...]

          k = 0.0380-0.0419 0.0000 ( 17876 PWs)   bands (ev):

[...]

          k =-0.0760-0.0000 0.0000 ( 17886 PWs)   bands (ev):

[...]

          k =-0.0760-0.0839 0.0000 ( 17948 PWs)   bands (ev):

   -55.9198 -55.8964 -55.7851 -55.6950 -55.6873 -55.6650 -55.6505 -55.6079
   -55.5659 -55.5466 -55.5111 -55.4977 -55.4624 -55.3773 -54.7569 -54.7557
   -32.2167 -32.2059 -32.1862 -32.1801 -32.1584 -32.0586 -32.0465 -32.0449
   -32.0296 -32.0178 -32.0106 -32.0034 -32.0009 -31.9559 -31.9499 -31.9228
   -31.9061 -31.9039 -31.8977 -31.8842 -31.8817 -31.8759 -31.8734 -31.8668
   -31.8570 -31.8433 -31.8207 -31.8113 -31.8032 -31.8008 -31.7730 -31.7627
   -31.7509 -31.7304 -31.7267 -31.7251 -31.7214 -31.7196 -31.6811 -31.6611
   -31.6236 -31.5829 -31.0901 -31.0891 -30.9900 -30.9883 -30.9502 -30.9488
   -20.2011 -16.5377 -15.9355 -15.8810 -15.7308 -15.7043 -15.6605 -15.6061
   -15.5476 -15.5059 -15.4958 -15.4600 -15.4408 -15.4163 -15.3950 -15.3669
   -15.3412 -15.2949 -15.2873 -15.2405 -15.2311 -15.2113 -15.1854 -15.1533
   -15.0994 -15.0863 -15.0673 -15.0347 -15.0135 -14.9249 -14.7600 -13.2637
   -13.2617  -9.4727  -5.7739  -5.7091  -4.1260  -3.7888  -3.1721  -3.0999
    -2.9543  -2.8766  -2.8101  -2.7887  -2.7727  -2.7419  -2.6764  -2.6558
    -2.6013  -2.5965  -2.5880  -2.5777  -2.5639  -2.5209  -2.4919  -2.4765
    -2.4698  -2.4515  -2.4234  -2.4093  -2.3957  -2.3838  -2.3737  -2.3671
    -2.3150  -2.2521  -2.1719  -2.1238  -2.1050  -1.9812  -1.9634  -1.9033
    -1.8904  -1.8831  -1.8518  -1.8478  -1.7753  -1.7207  -1.5666  -1.5502
    -1.5109  -1.4487  -1.4162  -1.3302  -1.3143  -1.2788  -1.2320  -1.2203
    -1.1968  -1.1760  -1.0784  -0.9988  -0.9575  -0.9183  -0.8056  -0.7895
    -0.7744  -0.7105  -0.6887  -0.6794  -0.6711  -0.6067  -0.5451  -0.4968
    -0.4788  -0.4422  -0.4219  -0.3738  -0.3156  -0.2376  -0.1666  -0.0966
    -0.0662   0.0411   0.1178   0.1555   0.2696   0.3260   0.3558   0.3839
     0.4525   0.5083   0.5261   0.6103   0.6806   0.7005   0.7584   0.7915
     0.8308   0.8656   1.6205   1.6334   1.6650   1.6757   3.2499   3.7768
     3.7868   3.8004   3.8193   3.8441   3.8671   3.9534   4.0030   4.0063

     the Fermi energy is     3.2268 ev

!    total energy              =   -2963.78479989 Ry
     estimated scf accuracy    <       0.00000007 Ry
     smearing contrib. (-TS)   =      -0.01873815 Ry
     internal energy E=F+TS    =   -2963.76606174 Ry

     The total energy is F=E-TS. E is the sum of the following terms:
     one-electron contribution =  -24352.12980407 Ry
     hartree contribution      =   12266.18649856 Ry
     xc contribution           =    -489.27503113 Ry
     ewald contribution        =    9611.45079544 Ry
     electric field correction =       0.00147946 Ry

     convergence has been achieved in  61 iterations

     Forces acting on atoms (cartesian axes, Ry/au):

     atom    1 type  1   force =    -0.00006715    0.00012868    0.10169375
     atom    2 type  1   force =    -0.00006891    0.00015839    0.10136239
     atom    3 type  2   force =    -0.00029046   -0.00136967    0.10431574
     atom    4 type  2   force =    -0.00023475    0.00134767    0.11679666
     atom    5 type  2   force =    -0.00033556    0.00599345   -0.16908213
     atom    6 type  2   force =    -0.00007554   -0.00499416   -0.16915268
     atom    7 type  1   force =    -0.07474724    0.00067923   -0.03019799
     atom    8 type  1   force =    -0.07428570   -0.00133129   -0.03020000
     atom    9 type  1   force =     0.07442252    0.00121718   -0.03024781
     atom   10 type  1   force =     0.07410069   -0.00091531   -0.03026659
     atom   11 type  1   force =     0.00083316    0.00106293    0.04727123
     atom   12 type  1   force =     0.00077807    0.00082562    0.04927186
     atom   13 type  1   force =     0.00026583   -0.00563250   -0.03769465
     atom   14 type  1   force =     0.00054076    0.00416571   -0.03207956
     atom   15 type  2   force =    -0.00044827    0.00077674   -0.00015817
     atom   16 type  2   force =    -0.00039160   -0.00082100   -0.00017303
     atom   17 type  2   force =     0.00030620   -0.00002926    0.00051616
     atom   18 type  2   force =     0.00026469    0.00014415    0.00104831
     atom   19 type  1   force =    -0.00990111   -0.00202460    0.00042113
     atom   20 type  1   force =    -0.00988361    0.00493115    0.00133421
     atom   21 type  1   force =     0.01190533   -0.00463420    0.00142789
     atom   22 type  1   force =     0.01107872    0.00174933    0.00190743
     atom   23 type  1   force =    -0.00025025    0.00002724    0.00021427
     atom   24 type  1   force =    -0.00026943    0.00003223   -0.00037938
     atom   25 type  1   force =    -0.00036762   -0.00041981   -0.00037826
     atom   26 type  1   force =    -0.00021350   -0.00005840   -0.00006343
     atom   27 type  2   force =    -0.00032368   -0.00022628   -0.00004864
     atom   28 type  2   force =     0.00016233   -0.00023525    0.00052392
     atom   29 type  2   force =     0.00034153   -0.00041908   -0.00077204
     atom   30 type  2   force =    -0.00016247    0.00029011    0.00010964
     atom   31 type  1   force =     0.00001959    0.00056399    0.00026075
     atom   32 type  1   force =     0.00039729    0.00018860   -0.00004313
     atom   33 type  1   force =    -0.00031570    0.00030920    0.00062827
     atom   34 type  1   force =    -0.00088620    0.00054949    0.00014878
     atom   35 type  1   force =    -0.00046365   -0.00046447   -0.00079405
     atom   36 type  1   force =    -0.00019497   -0.00018838   -0.00000633
     atom   37 type  1   force =    -0.00013360   -0.00039906    0.00041507
     atom   38 type  1   force =     0.00040455    0.00029941    0.00015285
     atom   39 type  2   force =     0.00000088    0.00026987    0.00068166
     atom   40 type  2   force =    -0.00004682   -0.00039984    0.00030376
     atom   41 type  2   force =    -0.00013859    0.00023465    0.00032357
     atom   42 type  2   force =    -0.00038617   -0.00015444    0.00006425
     atom   43 type  1   force =     0.00023173   -0.00006810   -0.00021995
     atom   44 type  1   force =    -0.00047631   -0.00006121   -0.00030992
     atom   45 type  1   force =     0.00076942   -0.00001022   -0.00015177
     atom   46 type  1   force =    -0.00036318   -0.00005006   -0.00023394
     atom   47 type  1   force =     0.00029855   -0.00059161    0.00028940
     atom   48 type  1   force =    -0.00044980   -0.00008382   -0.00020300
     atom   49 type  3   force =     0.00109632   -0.00069123   -0.00071413
     atom   50 type  4   force =    -0.00142886    0.00102252    0.00118803
     atom   51 type  4   force =    -0.00071742   -0.00034085    0.00049012
     atom   52 type  1   force =    -0.00077161    0.00028232    0.00123698
     atom   53 type  4   force =     0.00087159   -0.00063575   -0.00082749

     Total force =     0.368660     Total SCF correction =     0.000661
  @ DRIVER MODE: Message from server: STATUS
  @ DRIVER MODE: Message from server: GETFORCE
  @ DRIVER MODE: Returning v,forces,stress,ensemble

     Writing output data file ./calc.save/
  @ DRIVER MODE: Message from server: EXIT
  @ DRIVE MODE: Exiting

     General routines

     Parallel routines

   This run was terminated on:   3:54:15  23Sep2021

   JOB DONE.