     Program PWSCF v.6.7GPU starts on 23Aug2021 at 14:18:25

     R & G space division:  proc/nbgrp/npool/nimage =       6
     Reading input from /storage/home/hcoda1/3/ntian30/research/carbon/CH_vib/ads_slab/CHNNHHH_a/out_0003/pw.inp
Warning: card &CELL ignored
Warning: card   CELL_DYNAMICS='IPI', ignored
Warning: card / ignored

     Current dimensions of program PWSCF are:
     Max number of different atomic species (ntypx) = 10
     Max number of k-points (npk) =  40000
     Max angular momentum in pseudopotentials (lmaxx) =  3
     Presently no symmetry can be used with electric field

     Message from routine cell_base_init:
     DEPRECATED: use true lattice parameter, not A to a.u. conversion factor

     IMPORTANT: XC functional enforced from input :
     Exchange-correlation= BEEF-VDW
                           (   1   4  43  14   2   0   0)
     Any further DFT definition will be discarded
     Please, verify this is what you really want

  @ DRIVER MODE: Connecting to
 qe_1139763_2632795.sched-torque.pace.gatech.edu3phkbldy_scratch
  using UNIX socket
  @ DRIVER MODE: Message from server: STATUS
  @ DRIVER MODE: Message from server: INIT
  @ DRIVER MODE: Receiving replica           0          -1
  @ DRIVER MODE: Receiving encoded integer          25
  @ DRIVER MODE:  SCF:  T  FORCE:  T  STRESS:  F  VC:  F  ENSEMBLE:  F
  @ DRIVER MODE:  SCF:  T  FORCE:  T  STRESS:  F  VC:  F  ENSEMBLE:  F

     Using Slab Decomposition

     bravais-lattice index     =            0
     lattice parameter (alat)  =       1.8897  a.u.
     unit-cell volume          =    6658.9804 (a.u.)^3
     number of atoms/cell      =           54
     number of atomic types    =            5
     number of electrons       =       396.00
     number of Kohn-Sham states=          208
     kinetic-energy cutoff     =      29.3995  Ry
     charge density cutoff     =     293.9946  Ry
     scf convergence threshold =      7.3E-08
     mixing beta               =       0.0500
     number of iterations used =            8  plain     mixing
     Exchange-correlation= BEEF-VDW
                           (   1   4  43  14   2   0   0)

     celldm(1)=   1.889726  celldm(2)=   0.000000  celldm(3)=   0.000000
     celldm(4)=   0.000000  celldm(5)=   0.000000  celldm(6)=   0.000000

     crystal axes: (cart. coord. in units of alat)
               a(1) = (   6.579727   0.000000   0.000000 )
               a(2) = (  -0.000775   5.961596   0.000000 )
               a(3) = (   0.000000   0.000000  25.155947 )

     reciprocal axes: (cart. coord. in units 2 pi/alat)
               b(1) = (  0.151982  0.000020  0.000000 )
               b(2) = (  0.000000  0.167740  0.000000 )
               b(3) = (  0.000000  0.000000  0.039752 )

     PseudoPot. # 1 for Ti read from file:
     /storage/coda1/p-amedford6/0/shared/rich_project_chbe-medford/medford-share/data/pseudos_module/espresso/nninc/pbe/van/Ti.UPF
     MD5 check sum: 8e4df49b7f0d34bbd5052bf3f5ea0213
     Pseudo is Ultrasoft, Zval = 12.0
     Generated by new atomic code, or converted to UPF format
     Using radial grid of  851 points,  6 beta functions with:
                l(1) =   0
                l(2) =   0
                l(3) =   1
                l(4) =   1
                l(5) =   2
                l(6) =   2
     Q(r) pseudized with  8 coefficients,  rinner =    1.000   1.000   1.000
                                                       1.000   1.000

     PseudoPot. # 2 for O  read from file:
     /storage/coda1/p-amedford6/0/shared/rich_project_chbe-medford/medford-share/data/pseudos_module/espresso/nninc/pbe/van/O.UPF
     MD5 check sum: 78c19812648e8988a0fe644b0f25305e
     Pseudo is Ultrasoft, Zval =  6.0
     Generated by new atomic code, or converted to UPF format
     Using radial grid of  737 points,  4 beta functions with:
                l(1) =   0
                l(2) =   0
                l(3) =   1
                l(4) =   1
     Q(r) pseudized with  8 coefficients,  rinner =    0.800   0.800   0.800

     PseudoPot. # 3 for N  read from file:
     /storage/coda1/p-amedford6/0/shared/rich_project_chbe-medford/medford-share/data/pseudos_module/espresso/nninc/pbe/van/N.UPF
     MD5 check sum: 90d10febe142ad51ac9d5be1deb811c4
     Pseudo is Ultrasoft, Zval =  5.0
     Generated by new atomic code, or converted to UPF format
     Using radial grid of  729 points,  4 beta functions with:
                l(1) =   0
                l(2) =   0
                l(3) =   1
                l(4) =   1
     Q(r) pseudized with  8 coefficients,  rinner =    0.800   0.800   0.800

     PseudoPot. # 4 for C  read from file:
     /storage/coda1/p-amedford6/0/shared/rich_project_chbe-medford/medford-share/data/pseudos_module/espresso/nninc/pbe/van/C.UPF
     MD5 check sum: 1a69bf6b8db32088f5b2163dbdb77a27
     Pseudo is Ultrasoft, Zval =  4.0
     Generated by new atomic code, or converted to UPF format
     Using radial grid of  721 points,  4 beta functions with:
                l(1) =   0
                l(2) =   0
                l(3) =   1
                l(4) =   1
     Q(r) pseudized with  8 coefficients,  rinner =    0.800   0.800   0.800

     PseudoPot. # 5 for H  read from file:
     /storage/coda1/p-amedford6/0/shared/rich_project_chbe-medford/medford-share/data/pseudos_module/espresso/nninc/pbe/van/H.UPF
     MD5 check sum: b5ee9d7bfd3a09ee7748110bda690ff7
     Pseudo is Ultrasoft, Zval =  1.0
     Generated by new atomic code, or converted to UPF format
     Using radial grid of  615 points,  1 beta functions with:
                l(1) =   0
     Q(r) pseudized with  8 coefficients,  rinner =    0.800

     atomic species   valence    mass     pseudopotential
        Ti1           12.00    47.86700     Ti( 1.00)
        O1             6.00    15.99900     O ( 1.00)
        N1             5.00    14.00700     N ( 1.00)
        C1             4.00    12.01100     C ( 1.00)
        H1             1.00     1.00800     H ( 1.00)

     No symmetry found

   Cartesian axes

     site n.     atom                  positions (alat units)
         1           Ti1 tau(   1) = (   0.0004258   2.9801865   6.0000000  )
         2           Ti1 tau(   2) = (   3.2906075   1.4906267   6.0002472  )
         3           O1  tau(   3) = (   0.0006271   0.0005054   7.9858123  )
         4           O1  tau(   4) = (   3.2906025   0.0005020   7.3038282  )
         5           O1  tau(   5) = (   4.5942328   1.4918067   9.2879030  )
         6           O1  tau(   6) = (   1.9868534   1.4903216   9.2879459  )
         7           Ti1 tau(   7) = (   3.2907910   2.8959150   9.1758416  )
         8           Ti1 tau(   8) = (   0.0015273   1.4827037   9.2680791  )
         9           O1  tau(   9) = (   3.3116888   5.9365513  11.3741315  )
        10           O1  tau(  10) = (   0.0116148   5.9584955  10.6183126  )
        11           O1  tau(  11) = (   1.3152863   1.4773744  12.6583839  )
        12           O1  tau(  12) = (   5.3185463   1.4781915  12.6604289  )
        13           Ti1 tau(  13) = (   0.0312267   2.9553392  12.5172039  )
        14           Ti1 tau(  14) = (   3.3247105   1.4628205  12.5237724  )
        15           O1  tau(  15) = (   0.0176705   0.0150782  14.7085838  )
        16           O1  tau(  16) = (   3.3263678   5.9469243  13.9928752  )
        17           O1  tau(  17) = (   4.5829619   1.4750097  16.2211409  )
        18           O1  tau(  18) = (   2.0801478   1.4636096  16.1819230  )
        19           Ti1 tau(  19) = (   3.3264833   2.9461821  15.7545810  )
        20           Ti1 tau(  20) = (   0.0064452   1.3478264  16.0581623  )
        21           O1  tau(  21) = (   3.2904802   0.0005063   4.7018136  )
        22           O1  tau(  22) = (   0.0393124   5.8647722  17.2449945  )
        23           O1  tau(  23) = (   1.3043587   1.4918075   6.0039043  )
        24           O1  tau(  24) = (   5.2767064   1.4903225   6.0039473  )
        25           Ti1 tau(  25) = (   0.0000382   5.9609847   6.0000000  )
        26           Ti1 tau(  26) = (   3.2902200   4.4714249   6.0002472  )
        27           O1  tau(  27) = (   0.0002396   2.9813036   7.9858123  )
        28           O1  tau(  28) = (   3.2902150   2.9813002   7.3038282  )
        29           O1  tau(  29) = (   4.5938453   4.4726049   9.2879030  )
        30           O1  tau(  30) = (   1.9864658   4.4711199   9.2879459  )
        31           Ti1 tau(  31) = (   3.2891106   5.8743827   9.1763621  )
        32           Ti1 tau(  32) = (   0.0006254   4.4649316   9.2693709  )
        33           O1  tau(  33) = (   3.3126387   2.9639063  11.3704323  )
        34           O1  tau(  34) = (   0.0092240   2.9805883  10.6323155  )
        35           O1  tau(  35) = (   1.3140505   4.4512041  12.6779488  )
        36           O1  tau(  36) = (   5.3186431   4.4503656  12.6784002  )
        37           Ti1 tau(  37) = (   0.0306983   5.9434578  12.5012515  )
        38           Ti1 tau(  38) = (   3.3249252   4.4426326  12.5284913  )
        39           O1  tau(  39) = (   0.0332616   2.9308952  14.9693926  )
        40           O1  tau(  40) = (   3.3269026   2.9510973  13.9662216  )
        41           O1  tau(  41) = (   4.5816979   4.4256876  16.1885362  )
        42           O1  tau(  42) = (   2.0739833   4.4348339  16.1471384  )
        43           Ti1 tau(  43) = (   3.3139036   5.9323143  15.7909994  )
        44           Ti1 tau(  44) = (   0.0257917   4.5791344  15.8913375  )
        45           O1  tau(  45) = (   3.2900926   2.9813045   4.7018136  )
        46           O1  tau(  46) = (   1.3039711   4.4726057   6.0039043  )
        47           O1  tau(  47) = (   5.2763189   4.4711207   6.0039473  )
        48           N1  tau(  48) = (   0.2611162   2.7386399  18.0384573  )
        49           C1  tau(  49) = (   1.0666652   3.1333113  18.7681872  )
        50           H1  tau(  50) = (   1.9496291   3.4674532  19.3170853  )
        51           N1  tau(  51) = (   3.9312863   3.7371558  19.5917579  )
        52           H1  tau(  52) = (   4.2637485   4.0673035  20.4913501  )
        53           H1  tau(  53) = (   4.3024207   4.3757745  18.8906580  )
        54           H1  tau(  54) = (   4.4024832   2.8518033  19.4177320  )

     number of k points=    10  Fermi-Dirac smearing, width (Ry)=  0.0073
                       cart. coord. in units 2pi/alat
        k(    1) = (   0.0000000   0.0000000   0.0000000), wk =   0.1250000
        k(    2) = (   0.0000000   0.0419351   0.0000000), wk =   0.2500000
        k(    3) = (   0.0000000  -0.0838702   0.0000000), wk =   0.1250000
        k(    4) = (   0.0379955   0.0000049   0.0000000), wk =   0.2500000
        k(    5) = (   0.0379955   0.0419400   0.0000000), wk =   0.2500000
        k(    6) = (   0.0379955  -0.0838652   0.0000000), wk =   0.2500000
        k(    7) = (   0.0379955  -0.0419301   0.0000000), wk =   0.2500000
        k(    8) = (  -0.0759910  -0.0000099   0.0000000), wk =   0.1250000
        k(    9) = (  -0.0759910   0.0419252   0.0000000), wk =   0.2500000
        k(   10) = (  -0.0759910  -0.0838800   0.0000000), wk =   0.1250000

     Initial potential from superposition of free atoms

     starting charge  379.99915, renormalised to  396.00000

     negative rho (up, down):  1.480E-02 0.000E+00

     %%%%%%%%%%%%%%%%%%%%%%%%%%%%%%%%%%%%%%%%%%%%%%%%%%%%%%%%%%%%%%%%%%%%%%%%
     %                                                                      %
     % You are using vdW-DF, which was implemented by the Thonhauser group. %
     % Please cite the following two papers that made this development      %
     % possible and the two reviews that describe the various versions:     %
     %                                                                      %
     %   T. Thonhauser et al., PRL 115, 136402 (2015).                      %
     %   T. Thonhauser et al., PRB 76, 125112 (2007).                       %
     %   K. Berland et al., Rep. Prog. Phys. 78, 066501 (2015).             %
     %   D.C. Langreth et al., J. Phys.: Condens. Matter 21, 084203 (2009). %
     %                                                                      %
     %                                                                      %
     % If you are calculating the stress with vdW-DF, please also cite:     %
     %                                                                      %
     %   R. Sabatini et al., J. Phys.: Condens. Matter 24, 424209 (2012).   %
     %                                                                      %
     %%%%%%%%%%%%%%%%%%%%%%%%%%%%%%%%%%%%%%%%%%%%%%%%%%%%%%%%%%%%%%%%%%%%%%%%

     Adding external electric field

     Computed dipole along edir(3) :
        Dipole              -10.3171 Ry au,        -26.2235 Debye
        Dipole field         -0.0195 Ry au,

        Potential amp.        1.8048 Ry
        Total length         46.3494 bohr

     Starting wfcs are  300 atomic wfcs
  @ DRIVER MODE: Message from server: STATUS
  @ DRIVER MODE: Message from server: POSDATA
  @ DRIVER MODE: Reading and sharing cell
  @ DRIVER MODE: Reading and sharing positions
  @ DRIVER MODE: Received positions

     Self-consistent Calculation

     iteration #  1     ecut=    29.40 Ry     beta= 0.05
     Davidson diagonalization with overlap
     c_bands:  1 eigenvalues not converged
     c_bands:  2 eigenvalues not converged
     c_bands:  2 eigenvalues not converged
     c_bands:  1 eigenvalues not converged
     c_bands:  3 eigenvalues not converged
     c_bands:  2 eigenvalues not converged
     c_bands:  3 eigenvalues not converged
     c_bands:  2 eigenvalues not converged
     c_bands:  2 eigenvalues not converged
     c_bands:  2 eigenvalues not converged
     ethr =  1.00E-05,  avg # of iterations = 20.0

[...]

     total energy              =   -2524.83017596 Ry
     estimated scf accuracy    <    4651.12492958 Ry

     iteration #  2     ecut=    29.40 Ry     beta= 0.05
     Davidson diagonalization with overlap
     ethr =  1.00E-02,  avg # of iterations = 24.8

[...]

     iteration # 64     ecut=    29.40 Ry     beta= 0.05
     Davidson diagonalization with overlap
     c_bands:  2 eigenvalues not converged
     ethr =  1.57E-10,  avg # of iterations = 16.9

[...]

     total energy              =   -2940.41307512 Ry
     estimated scf accuracy    <       0.00000013 Ry

     iteration # 68     ecut=    29.40 Ry     beta= 0.05
     Davidson diagonalization with overlap
     ethr =  3.21E-11,  avg # of iterations = 11.3

     negative rho (up, down):  1.578E-02 0.000E+00

     Adding external electric field

     Computed dipole along edir(3) :
        Dipole                1.4844 Ry au,          3.7730 Debye
        Dipole field          0.0028 Ry au,

        Potential amp.       -0.2597 Ry
        Total length         46.3494 bohr

     End of self-consistent calculation

          k = 0.0000 0.0000 0.0000 ( 18029 PWs)   bands (ev):

   -55.2566 -55.2207 -55.2081 -55.1740 -55.1338 -55.1255 -55.0991 -55.0984
   -55.0743 -55.0549 -55.0399 -55.0370 -55.0034 -54.9854 -54.2357 -54.2016
   -31.8252 -31.7028 -31.7005 -31.6216 -31.5659 -31.5638 -31.5551 -31.5424
   -31.4970 -31.4842 -31.4654 -31.4620 -31.4526 -31.4278 -31.4118 -31.4067
   -31.3930 -31.3806 -31.3711 -31.3707 -31.3605 -31.3480 -31.3218 -31.3177
   -31.3116 -31.3049 -31.2768 -31.2732 -31.2653 -31.2640 -31.2554 -31.2365
   -31.2355 -31.2271 -31.2236 -31.2218 -31.1881 -31.1872 -31.1702 -31.1650
   -31.1480 -31.0948 -30.6449 -30.5510 -30.5290 -30.4615 -30.3747 -30.2636
   -16.7394 -16.0812 -15.8115 -15.6685 -15.5627 -15.4522 -15.3368 -15.3168
   -15.1801 -15.1474 -15.0917 -14.9727 -14.9215 -14.9028 -14.8885 -14.8744
   -14.8679 -14.7973 -14.7923 -14.7688 -14.7486 -14.7359 -14.6931 -14.6912
   -14.6506 -14.6298 -14.5824 -14.4942 -14.4116 -14.3422 -14.0184 -12.7386
   -12.6212  -7.9812  -5.2451  -5.0391  -4.0148  -3.4204  -3.2700  -3.1740
    -3.1478  -3.1320  -3.0026  -2.8537  -2.8336  -2.7341  -2.6387  -2.5867
    -2.5050  -2.4582  -2.4455  -2.4275  -2.2446  -2.2264  -2.1734  -2.1260
    -2.0962  -2.0608  -2.0404  -2.0209  -2.0034  -1.9946  -1.9291  -1.8167
    -1.7784  -1.7289  -1.6776  -1.6524  -1.5983  -1.5779  -1.5417  -1.5356
    -1.5349  -1.4869  -1.4603  -1.4376  -1.3597  -1.2749  -1.1600  -1.1085
    -0.9532  -0.8915  -0.8354  -0.8229  -0.7586  -0.7397  -0.7086  -0.6335
    -0.6247  -0.5928  -0.4741  -0.3800  -0.3408  -0.3269  -0.2727  -0.2368
    -0.2091  -0.1619  -0.0645  -0.0343  -0.0174  -0.0127   0.1375   0.1509
     0.2205   0.2675   0.2891   0.2897   0.4033   0.4196   0.4916   0.5292
     0.5656   0.6380   0.6779   0.6938   0.6967   0.7303   0.7339   0.8249
     0.8477   0.8555   0.9277   1.0773   1.3048   1.3519   1.3593   1.6931
     1.6947   1.7868   1.9705   2.3626   2.4108   3.8421   3.9136   3.9878
     3.9943   4.0207   4.0801   4.3217   4.3314   4.3446   4.3478   4.3893

[...]

          k = 0.0380-0.0419 0.0000 ( 17876 PWs)   bands (ev):

[...]

          k =-0.0760-0.0000 0.0000 ( 17886 PWs)   bands (ev):

[...]

          k =-0.0760-0.0839 0.0000 ( 17948 PWs)   bands (ev):

   -55.2387 -55.2384 -55.1910 -55.1909 -55.1208 -55.1202 -55.1121 -55.0962
   -55.0592 -55.0581 -55.0556 -55.0206 -55.0199 -54.9883 -54.2186 -54.2186
   -31.6290 -31.6285 -31.6258 -31.5275 -31.5156 -31.5155 -31.5148 -31.4823
   -31.4823 -31.4639 -31.4567 -31.4510 -31.4465 -31.3957 -31.3911 -31.3888
   -31.3878 -31.3877 -31.3822 -31.3766 -31.3514 -31.3486 -31.3363 -31.3294
   -31.3284 -31.3222 -31.3138 -31.3107 -31.3106 -31.3042 -31.2913 -31.2885
   -31.2815 -31.2712 -31.2685 -31.2518 -31.2504 -31.2464 -31.2011 -31.2009
   -31.1941 -31.1873 -30.5416 -30.5416 -30.4575 -30.4574 -30.4181 -30.4181
   -16.7301 -15.6126 -15.4974 -15.4563 -15.2688 -15.2603 -15.2296 -15.2171
   -15.1537 -15.0661 -15.0389 -15.0289 -15.0158 -14.9639 -14.9580 -14.9525
   -14.9299 -14.8600 -14.8516 -14.8496 -14.8325 -14.7666 -14.7619 -14.7575
   -14.7466 -14.7037 -14.7008 -14.6063 -14.6043 -14.5094 -14.3848 -12.7227
   -12.7226  -7.9779  -5.2404  -5.0496  -4.0018  -2.7865  -2.7663  -2.7181
    -2.7071  -2.6965  -2.4802  -2.4570  -2.4203  -2.3698  -2.3086  -2.2576
    -2.2487  -2.2326  -2.1655  -2.1266  -2.1100  -2.0966  -2.0783  -2.0627
    -2.0484  -2.0223  -1.9806  -1.9730  -1.9509  -1.9309  -1.9012  -1.8928
    -1.8615  -1.8410  -1.8252  -1.8079  -1.6927  -1.6685  -1.6111  -1.5713
    -1.5297  -1.4588  -1.4536  -1.3562  -1.3488  -1.2946  -1.2829  -1.2561
    -1.1632  -1.0641  -1.0023  -0.9962  -0.9897  -0.8624  -0.8251  -0.7998
    -0.7640  -0.7360  -0.6763  -0.5983  -0.5769  -0.5424  -0.4581  -0.4500
    -0.3931  -0.3154  -0.2789  -0.2481  -0.2182  -0.2112  -0.2010  -0.1482
    -0.1417  -0.0703  -0.0206   0.0127   0.0238   0.0583   0.2634   0.2795
     0.3327   0.4308   0.5049   0.6243   0.6818   0.7029   0.7741   0.8150
     0.8580   0.9206   1.0238   1.0533   1.0560   1.1308   1.1625   1.2043
     1.2084   2.1438   2.1441   2.2307   2.2310   3.9855   4.0802   4.1023
     4.1503   4.2406   4.2771   4.3597   4.3777   4.4278   4.4296   4.4985

     the Fermi energy is     3.9051 ev

!    total energy              =   -2940.41309403 Ry
     estimated scf accuracy    <       0.00000007 Ry
     smearing contrib. (-TS)   =      -0.03731437 Ry
     internal energy E=F+TS    =   -2940.37577966 Ry

     The total energy is F=E-TS. E is the sum of the following terms:
     one-electron contribution =  -23553.07757743 Ry
     hartree contribution      =   11869.20946782 Ry
     xc contribution           =    -485.96234639 Ry
     ewald contribution        =    9229.45051802 Ry
     electric field correction =       0.00415832 Ry

     convergence has been achieved in  68 iterations

     Forces acting on atoms (cartesian axes, Ry/au):

     atom    1 type  1   force =    -0.00003010   -0.00017394    0.09329722
     atom    2 type  1   force =    -0.00015010   -0.00021344   -0.17811262
     atom    3 type  2   force =     0.00006474   -0.00020170   -0.02046844
     atom    4 type  2   force =     0.00000642   -0.00194995    0.05845675
     atom    5 type  2   force =    -0.01028989   -0.00134424    0.00735451
     atom    6 type  2   force =     0.01228803   -0.00074887    0.00784948
     atom    7 type  1   force =     0.00036153    0.00278094   -0.01405537
     atom    8 type  1   force =    -0.00055944    0.00107540   -0.00333941
     atom    9 type  2   force =     0.00003929    0.00049966   -0.00007125
     atom   10 type  2   force =    -0.00055195   -0.00103185   -0.00007523
     atom   11 type  2   force =     0.00007793    0.00011380    0.00003204
     atom   12 type  2   force =    -0.00024482    0.00016716   -0.00007934
     atom   13 type  1   force =    -0.00002293    0.00090047   -0.00026864
     atom   14 type  1   force =     0.00010190    0.00025448   -0.00016421
     atom   15 type  2   force =    -0.00011778   -0.00013697    0.00085503
     atom   16 type  2   force =     0.00004576    0.00009963   -0.00006243
     atom   17 type  2   force =     0.00014357   -0.00032582   -0.00006513
     atom   18 type  2   force =    -0.00002214   -0.00053522   -0.00065881
     atom   19 type  1   force =    -0.00064724   -0.00031363    0.00016465
     atom   20 type  1   force =    -0.00027201    0.00076643    0.00036314
     atom   21 type  2   force =    -0.00001771    0.00000577    0.10390588
     atom   22 type  2   force =    -0.00030882   -0.00119929   -0.00113315
     atom   23 type  2   force =    -0.07044021   -0.00007287   -0.02689340
     atom   24 type  2   force =     0.07027964    0.00036072   -0.02695122
     atom   25 type  1   force =     0.00003748   -0.00006299    0.09291449
     atom   26 type  1   force =    -0.00016483   -0.00019164   -0.17815361
     atom   27 type  2   force =     0.00012335   -0.00033734   -0.01949728
     atom   28 type  2   force =     0.00003593   -0.00167967    0.05802962
     atom   29 type  2   force =    -0.01040536   -0.00124612    0.00692756
     atom   30 type  2   force =     0.01229202   -0.00091926    0.00743883
     atom   31 type  1   force =     0.00034810    0.00516721   -0.01508578
     atom   32 type  1   force =    -0.00046825   -0.00161664   -0.00355197
     atom   33 type  2   force =    -0.00019355   -0.00021610   -0.00019147
     atom   34 type  2   force =     0.00029270   -0.00052770    0.00103269
     atom   35 type  2   force =    -0.00040559    0.00004932    0.00021919
     atom   36 type  2   force =     0.00034242   -0.00003371    0.00028458
     atom   37 type  1   force =    -0.00012284   -0.00042388   -0.00000159
     atom   38 type  1   force =     0.00013336    0.00033533   -0.00028333
     atom   39 type  2   force =    -0.00034919   -0.00042853    0.00119272
     atom   40 type  2   force =     0.00006835    0.00008378   -0.00020999
     atom   41 type  2   force =     0.00000490    0.00020926   -0.00030071
     atom   42 type  2   force =    -0.00015635   -0.00001744   -0.00036294
     atom   43 type  1   force =    -0.00082107   -0.00004784    0.00014115
     atom   44 type  1   force =     0.00014577    0.00078901   -0.00006100
     atom   45 type  2   force =    -0.00000902    0.00001101    0.10387655
     atom   46 type  2   force =    -0.07046525   -0.00005450   -0.02690084
     atom   47 type  2   force =     0.07029116    0.00038634   -0.02697071
     atom   48 type  3   force =     0.01058003    0.00525185    0.00974253
     atom   49 type  4   force =    -0.01141379   -0.00548704   -0.01010971
     atom   50 type  5   force =     0.00024848    0.00047370    0.00074585
     atom   51 type  3   force =     0.00000263   -0.00110058   -0.00106459
     atom   52 type  5   force =     0.00071489    0.00086607    0.00088313
     atom   53 type  5   force =     0.00015589    0.00048379   -0.00048524
     atom   54 type  5   force =    -0.00057602    0.00150765   -0.00007819

     Total force =     0.366652     Total SCF correction =     0.000568
  @ DRIVER MODE: Message from server: STATUS
  @ DRIVER MODE: Message from server: GETFORCE
  @ DRIVER MODE: Returning v,forces,stress,ensemble

     Writing output data file ./calc.save/
  @ DRIVER MODE: Message from server: EXIT
  @ DRIVE MODE: Exiting

     General routines

     Parallel routines

   This run was terminated on:  14:49:26  23Aug2021

   JOB DONE.