     Program PWSCF v.6.7GPU starts on 15Sep2021 at 16:14:16

     R & G space division:  proc/nbgrp/npool/nimage =      10
     Reading input from /storage/home/hcoda1/3/ntian30/research/carbon/CxH_vib/H2O_calc/ads_slab/CH2OH2O_a/out_0002/pw.inp
Warning: card &CELL ignored
Warning: card   CELL_DYNAMICS='IPI', ignored
Warning: card / ignored

     Current dimensions of program PWSCF are:
     Max number of different atomic species (ntypx) = 10
     Max number of k-points (npk) =  40000
     Max angular momentum in pseudopotentials (lmaxx) =  3
     Presently no symmetry can be used with electric field

     Message from routine cell_base_init:
     DEPRECATED: use true lattice parameter, not A to a.u. conversion factor

     IMPORTANT: XC functional enforced from input :
     Exchange-correlation= BEEF-VDW
                           (   1   4  43  14   2   0   0)
     Any further DFT definition will be discarded
     Please, verify this is what you really want

  @ DRIVER MODE: Connecting to
 qe_1139763_2852613.sched-torque.pace.gatech.eduperr440t_scratch
  using UNIX socket
  @ DRIVER MODE: Message from server: STATUS
  @ DRIVER MODE: Message from server: INIT
  @ DRIVER MODE: Receiving replica           0          -1
  @ DRIVER MODE: Receiving encoded integer          25
  @ DRIVER MODE:  SCF:  T  FORCE:  T  STRESS:  F  VC:  F  ENSEMBLE:  F
  @ DRIVER MODE:  SCF:  T  FORCE:  T  STRESS:  F  VC:  F  ENSEMBLE:  F

     Using Slab Decomposition

     bravais-lattice index     =            0
     lattice parameter (alat)  =       1.8897  a.u.
     unit-cell volume          =    6658.9804 (a.u.)^3
     number of atoms/cell      =           54
     number of atomic types    =            4
     number of electrons       =       398.00
     number of Kohn-Sham states=          209
     kinetic-energy cutoff     =      29.3995  Ry
     charge density cutoff     =     293.9946  Ry
     scf convergence threshold =      7.3E-08
     mixing beta               =       0.0500
     number of iterations used =            8  plain     mixing
     Exchange-correlation= BEEF-VDW
                           (   1   4  43  14   2   0   0)

     celldm(1)=   1.889726  celldm(2)=   0.000000  celldm(3)=   0.000000
     celldm(4)=   0.000000  celldm(5)=   0.000000  celldm(6)=   0.000000

     crystal axes: (cart. coord. in units of alat)
               a(1) = (   6.579727   0.000000   0.000000 )
               a(2) = (  -0.000775   5.961596   0.000000 )
               a(3) = (   0.000000   0.000000  25.155947 )

     reciprocal axes: (cart. coord. in units 2 pi/alat)
               b(1) = (  0.151982  0.000020  0.000000 )
               b(2) = (  0.000000  0.167740  0.000000 )
               b(3) = (  0.000000  0.000000  0.039752 )

     PseudoPot. # 1 for O  read from file:
     /storage/coda1/p-amedford6/0/shared/rich_project_chbe-medford/medford-share/data/pseudos_module/espresso/nninc/pbe/van/O.UPF
     MD5 check sum: 78c19812648e8988a0fe644b0f25305e
     Pseudo is Ultrasoft, Zval =  6.0
     Generated by new atomic code, or converted to UPF format
     Using radial grid of  737 points,  4 beta functions with:
                l(1) =   0
                l(2) =   0
                l(3) =   1
                l(4) =   1
     Q(r) pseudized with  8 coefficients,  rinner =    0.800   0.800   0.800

     PseudoPot. # 2 for Ti read from file:
     /storage/coda1/p-amedford6/0/shared/rich_project_chbe-medford/medford-share/data/pseudos_module/espresso/nninc/pbe/van/Ti.UPF
     MD5 check sum: 8e4df49b7f0d34bbd5052bf3f5ea0213
     Pseudo is Ultrasoft, Zval = 12.0
     Generated by new atomic code, or converted to UPF format
     Using radial grid of  851 points,  6 beta functions with:
                l(1) =   0
                l(2) =   0
                l(3) =   1
                l(4) =   1
                l(5) =   2
                l(6) =   2
     Q(r) pseudized with  8 coefficients,  rinner =    1.000   1.000   1.000
                                                       1.000   1.000

     PseudoPot. # 3 for C  read from file:
     /storage/coda1/p-amedford6/0/shared/rich_project_chbe-medford/medford-share/data/pseudos_module/espresso/nninc/pbe/van/C.UPF
     MD5 check sum: 1a69bf6b8db32088f5b2163dbdb77a27
     Pseudo is Ultrasoft, Zval =  4.0
     Generated by new atomic code, or converted to UPF format
     Using radial grid of  721 points,  4 beta functions with:
                l(1) =   0
                l(2) =   0
                l(3) =   1
                l(4) =   1
     Q(r) pseudized with  8 coefficients,  rinner =    0.800   0.800   0.800

     PseudoPot. # 4 for H  read from file:
     /storage/coda1/p-amedford6/0/shared/rich_project_chbe-medford/medford-share/data/pseudos_module/espresso/nninc/pbe/van/H.UPF
     MD5 check sum: b5ee9d7bfd3a09ee7748110bda690ff7
     Pseudo is Ultrasoft, Zval =  1.0
     Generated by new atomic code, or converted to UPF format
     Using radial grid of  615 points,  1 beta functions with:
                l(1) =   0
     Q(r) pseudized with  8 coefficients,  rinner =    0.800

     atomic species   valence    mass     pseudopotential
        O1             6.00    15.99900     O ( 1.00)
        Ti1           12.00    47.86700     Ti( 1.00)
        C1             4.00    12.01100     C ( 1.00)
        H1             1.00     1.00800     H ( 1.00)

     No symmetry found

   Cartesian axes

     site n.     atom                  positions (alat units)
         1           O1  tau(   1) = (   3.2904802   0.0005063   4.7018136  )
         2           O1  tau(   2) = (   3.2900926   2.9813045   4.7018136  )
         3           Ti1 tau(   3) = (   0.0004258   2.9801865   6.0000000  )
         4           Ti1 tau(   4) = (   0.0000382   5.9609847   6.0000000  )
         5           Ti1 tau(   5) = (   3.2906075   1.4906267   6.0002472  )
         6           Ti1 tau(   6) = (   3.2902200   4.4714249   6.0002472  )
         7           O1  tau(   7) = (   1.3043587   1.4918075   6.0039043  )
         8           O1  tau(   8) = (   1.3039711   4.4726057   6.0039043  )
         9           O1  tau(   9) = (   5.2767064   1.4903225   6.0039473  )
        10           O1  tau(  10) = (   5.2763189   4.4711207   6.0039473  )
        11           O1  tau(  11) = (   3.2906025   0.0005020   7.3038282  )
        12           O1  tau(  12) = (   3.2902150   2.9813002   7.3038282  )
        13           O1  tau(  13) = (   0.0006271   0.0005054   7.9858123  )
        14           O1  tau(  14) = (   0.0002396   2.9813036   7.9858123  )
        15           Ti1 tau(  15) = (   3.3036605   0.0548493   9.1550340  )
        16           Ti1 tau(  16) = (   3.3179312   3.0323762   9.1622521  )
        17           Ti1 tau(  17) = (   0.0293130   4.5303424   9.2586280  )
        18           Ti1 tau(  18) = (   0.0255512   1.6071936   9.3606264  )
        19           O1  tau(  19) = (   4.5942328   1.4918067   9.2879030  )
        20           O1  tau(  20) = (   4.5938453   4.4726049   9.2879030  )
        21           O1  tau(  21) = (   1.9868534   1.4903216   9.2879459  )
        22           O1  tau(  22) = (   1.9864658   4.4711199   9.2879459  )
        23           O1  tau(  23) = (   0.0067149   0.0090568  10.6008527  )
        24           O1  tau(  24) = (   0.0066098   2.9904127  10.5810825  )
        25           O1  tau(  25) = (   3.3023248   2.9935247  11.3558429  )
        26           O1  tau(  26) = (   3.3019398   0.0103095  11.3581380  )
        27           Ti1 tau(  27) = (   0.0322082   0.0188897  12.5014682  )
        28           Ti1 tau(  28) = (   3.3323403   4.4947089  12.5096490  )
        29           Ti1 tau(  29) = (   3.3327227   1.5059056  12.5040540  )
        30           Ti1 tau(  30) = (   0.0321551   3.0004163  12.7750784  )
        31           O1  tau(  31) = (   1.2963378   4.4834263  12.6382484  )
        32           O1  tau(  32) = (   1.2968596   1.4996660  12.6342602  )
        33           O1  tau(  33) = (   5.3004736   4.4821179  12.6410582  )
        34           O1  tau(  34) = (   5.3007909   1.4998706  12.6367838  )
        35           O1  tau(  35) = (   3.3017874   2.9879694  13.9086975  )
        36           O1  tau(  36) = (   3.3040514   0.0100701  13.9766235  )
        37           O1  tau(  37) = (   0.0177811   0.0165449  14.6846256  )
        38           O1  tau(  38) = (   0.0218693   2.9952767  14.7100221  )
        39           Ti1 tau(  39) = (   3.3083447   2.9915206  15.7010863  )
        40           Ti1 tau(  40) = (   3.3165693   0.0114089  15.8055842  )
        41           Ti1 tau(  41) = (   0.0300915   4.5703342  15.9344200  )
        42           Ti1 tau(  42) = (   0.0294271   1.3911826  15.9958598  )
        43           O1  tau(  43) = (   4.5666857   4.4545776  16.0545193  )
        44           O1  tau(  44) = (   4.5654216   1.5273373  16.0688375  )
        45           O1  tau(  45) = (   2.0398213   1.5345912  16.0698912  )
        46           O1  tau(  46) = (   2.0372649   4.4468515  16.0554978  )
        47           O1  tau(  47) = (   0.0160947   0.0056016  17.2166677  )
        48           O1  tau(  48) = (   6.5739191   3.0028441  17.4181802  )
        49           C1  tau(  49) = (   6.3909186   3.0704891  18.6902598  )
        50           H1  tau(  50) = (   6.3116585   4.0479728  19.1570877  )
        51           H1  tau(  51) = (   6.3127454   2.1532251  19.2664540  )
        52           O1  tau(  52) = (   3.2659488   5.9319982  18.2141537  )
        53           H1  tau(  53) = (   4.0486762   5.9278262  18.7801078  )
        54           H1  tau(  54) = (   2.4667005   5.9275743  18.7583984  )

     number of k points=    10  Fermi-Dirac smearing, width (Ry)=  0.0073
                       cart. coord. in units 2pi/alat
        k(    1) = (   0.0000000   0.0000000   0.0000000), wk =   0.1250000
        k(    2) = (   0.0000000   0.0419351   0.0000000), wk =   0.2500000
        k(    3) = (   0.0000000  -0.0838702   0.0000000), wk =   0.1250000
        k(    4) = (   0.0379955   0.0000049   0.0000000), wk =   0.2500000
        k(    5) = (   0.0379955   0.0419400   0.0000000), wk =   0.2500000
        k(    6) = (   0.0379955  -0.0838652   0.0000000), wk =   0.2500000
        k(    7) = (   0.0379955  -0.0419301   0.0000000), wk =   0.2500000
        k(    8) = (  -0.0759910  -0.0000099   0.0000000), wk =   0.1250000
        k(    9) = (  -0.0759910   0.0419252   0.0000000), wk =   0.2500000
        k(   10) = (  -0.0759910  -0.0838800   0.0000000), wk =   0.1250000

     Initial potential from superposition of free atoms

     starting charge  381.99917, renormalised to  398.00000

     negative rho (up, down):  1.685E-02 0.000E+00

     %%%%%%%%%%%%%%%%%%%%%%%%%%%%%%%%%%%%%%%%%%%%%%%%%%%%%%%%%%%%%%%%%%%%%%%%
     %                                                                      %
     % You are using vdW-DF, which was implemented by the Thonhauser group. %
     % Please cite the following two papers that made this development      %
     % possible and the two reviews that describe the various versions:     %
     %                                                                      %
     %   T. Thonhauser et al., PRL 115, 136402 (2015).                      %
     %   T. Thonhauser et al., PRB 76, 125112 (2007).                       %
     %   K. Berland et al., Rep. Prog. Phys. 78, 066501 (2015).             %
     %   D.C. Langreth et al., J. Phys.: Condens. Matter 21, 084203 (2009). %
     %                                                                      %
     %                                                                      %
     % If you are calculating the stress with vdW-DF, please also cite:     %
     %                                                                      %
     %   R. Sabatini et al., J. Phys.: Condens. Matter 24, 424209 (2012).   %
     %                                                                      %
     %%%%%%%%%%%%%%%%%%%%%%%%%%%%%%%%%%%%%%%%%%%%%%%%%%%%%%%%%%%%%%%%%%%%%%%%

     Adding external electric field

     Computed dipole along edir(3) :
        Dipole               -9.6373 Ry au,        -24.4955 Debye
        Dipole field         -0.0182 Ry au,

        Potential amp.        1.6859 Ry
        Total length         46.3494 bohr

     Starting wfcs are  300 atomic wfcs
  @ DRIVER MODE: Message from server: STATUS
  @ DRIVER MODE: Message from server: POSDATA
  @ DRIVER MODE: Reading and sharing cell
  @ DRIVER MODE: Reading and sharing positions
  @ DRIVER MODE: Received positions

     Self-consistent Calculation

     iteration #  1     ecut=    29.40 Ry     beta= 0.05
     Davidson diagonalization with overlap
     c_bands:  1 eigenvalues not converged
     c_bands:  3 eigenvalues not converged
     c_bands:  2 eigenvalues not converged
     c_bands:  2 eigenvalues not converged
     c_bands:  2 eigenvalues not converged
     c_bands:  1 eigenvalues not converged
     c_bands:  2 eigenvalues not converged
     c_bands:  1 eigenvalues not converged
     c_bands:  2 eigenvalues not converged
     ethr =  1.00E-05,  avg # of iterations = 19.6

[...]

     total energy              =   -2526.83318869 Ry
     estimated scf accuracy    <    4873.72975050 Ry

     iteration #  2     ecut=    29.40 Ry     beta= 0.05
     Davidson diagonalization with overlap
     ethr =  1.00E-02,  avg # of iterations = 26.4

[...]

     iteration # 52     ecut=    29.40 Ry     beta= 0.05
     Davidson diagonalization with overlap
     c_bands:  1 eigenvalues not converged
     ethr =  3.81E-09,  avg # of iterations =  8.5

[...]

     total energy              =   -2964.99531969 Ry
     estimated scf accuracy    <       0.00000011 Ry

     iteration # 63     ecut=    29.40 Ry     beta= 0.05
     Davidson diagonalization with overlap
     ethr =  2.71E-11,  avg # of iterations = 12.7

     negative rho (up, down):  1.529E-02 0.000E+00

     Adding external electric field

     Computed dipole along edir(3) :
        Dipole                1.2221 Ry au,          3.1061 Debye
        Dipole field          0.0023 Ry au,

        Potential amp.       -0.2138 Ry
        Total length         46.3494 bohr

     End of self-consistent calculation

          k = 0.0000 0.0000 0.0000 ( 18029 PWs)   bands (ev):

   -55.5404 -55.5036 -55.5036 -55.4675 -55.4638 -55.4192 -55.3830 -55.3157
   -55.3029 -55.2797 -55.2695 -55.2605 -55.2184 -55.2105 -54.5517 -54.5176
   -32.0593 -32.0106 -31.8970 -31.8533 -31.8524 -31.8346 -31.8142 -31.8059
   -31.7819 -31.7703 -31.7368 -31.7271 -31.6993 -31.6867 -31.6848 -31.6504
   -31.6468 -31.6413 -31.6364 -31.6326 -31.6039 -31.5984 -31.5912 -31.5866
   -31.5588 -31.5554 -31.5515 -31.5310 -31.5241 -31.5223 -31.4767 -31.4757
   -31.4488 -31.4476 -31.4345 -31.4289 -31.4232 -31.4088 -31.3973 -31.3961
   -31.3927 -31.3751 -30.9612 -30.8650 -30.8427 -30.7778 -30.6917 -30.5806
   -19.3431 -19.1349 -16.2555 -15.9927 -15.8205 -15.7100 -15.6630 -15.4611
   -15.3678 -15.2867 -15.2228 -15.1461 -15.1292 -15.0916 -15.0658 -15.0601
   -15.0543 -15.0057 -14.9972 -14.9577 -14.9459 -14.9446 -14.9258 -14.9070
   -14.8252 -14.7222 -14.6793 -14.6612 -14.6018 -14.5459 -14.5312 -13.0525
   -12.9344  -9.0138  -7.1489  -5.2103  -5.1717  -3.7748  -3.5765  -3.4593
    -3.4246  -3.3879  -3.3201  -3.1371  -3.1222  -3.0376  -2.8001  -2.7098
    -2.6766  -2.6183  -2.6088  -2.5081  -2.4680  -2.3617  -2.3528  -2.3484
    -2.3326  -2.3064  -2.2731  -2.2312  -2.2066  -2.1954  -2.0674  -2.0548
    -1.9276  -1.9224  -1.8989  -1.8442  -1.8390  -1.7971  -1.7833  -1.7804
    -1.7678  -1.7196  -1.7077  -1.5945  -1.5207  -1.4576  -1.3706  -1.2327
    -1.1709  -1.0972  -1.0437  -1.0098  -0.9475  -0.9444  -0.8900  -0.8493
    -0.7909  -0.7785  -0.7721  -0.6755  -0.5763  -0.5546  -0.5240  -0.4465
    -0.3669  -0.2817  -0.2625  -0.2601  -0.2588  -0.2378  -0.0991  -0.0168
     0.0406   0.0457   0.1417   0.1748   0.2105   0.2243   0.2563   0.2772
     0.3333   0.4086   0.4196   0.4328   0.4584   0.5042   0.5097   0.6225
     0.6989   0.7004   0.7363   0.7691   0.9451   0.9795   1.1062   1.2138
     1.3796   1.4726   1.5448   1.6456   2.0587   2.1163   3.6325   3.6743
     3.6898   3.7320   3.7818   3.8067   3.8767   4.0745   4.0915   4.1399
     4.1847

[...]

          k = 0.0380-0.0419 0.0000 ( 17876 PWs)   bands (ev):

[...]

          k =-0.0760-0.0000 0.0000 ( 17886 PWs)   bands (ev):

[...]

          k =-0.0760-0.0839 0.0000 ( 17948 PWs)   bands (ev):

   -55.5290 -55.5149 -55.4868 -55.4840 -55.4622 -55.4090 -55.3932 -55.3122
   -55.2876 -55.2852 -55.2742 -55.2620 -55.2237 -55.2133 -54.5352 -54.5341
   -31.8700 -31.8552 -31.8347 -31.8221 -31.8192 -31.7998 -31.7750 -31.7564
   -31.7445 -31.7395 -31.7390 -31.7314 -31.6980 -31.6638 -31.6574 -31.6538
   -31.6446 -31.6422 -31.6388 -31.6365 -31.6302 -31.6114 -31.6103 -31.6093
   -31.6044 -31.5901 -31.5692 -31.5533 -31.5403 -31.5390 -31.5322 -31.5150
   -31.4974 -31.4930 -31.4858 -31.4845 -31.4658 -31.4485 -31.4430 -31.4375
   -31.4071 -31.4005 -30.8560 -30.8546 -30.7746 -30.7737 -30.7352 -30.7343
   -19.3342 -19.1347 -15.7070 -15.5979 -15.5631 -15.4165 -15.4124 -15.3610
   -15.3528 -15.3167 -15.2372 -15.2337 -15.1838 -15.1641 -15.1298 -15.1062
   -15.0943 -15.0493 -15.0470 -15.0279 -15.0042 -14.9858 -14.9693 -14.9417
   -14.9174 -14.9098 -14.8726 -14.8642 -14.7997 -14.7435 -14.7240 -13.0369
   -13.0346  -9.0147  -7.1463  -5.1872  -5.1482  -3.7308  -3.1465  -2.9910
    -2.8033  -2.7880  -2.6558  -2.6207  -2.6029  -2.5123  -2.4788  -2.4454
    -2.3822  -2.3716  -2.3650  -2.3434  -2.3377  -2.3247  -2.3031  -2.2661
    -2.2564  -2.2243  -2.1950  -2.1812  -2.1606  -2.1508  -2.1223  -2.1027
    -2.0899  -2.0867  -2.0244  -1.9939  -1.9118  -1.8453  -1.7642  -1.7112
    -1.6803  -1.6779  -1.6420  -1.6033  -1.5958  -1.5805  -1.4343  -1.3844
    -1.2625  -1.2488  -1.2300  -1.1534  -1.1372  -1.1026  -1.0981  -1.0307
    -0.9457  -0.9410  -0.9161  -0.8893  -0.8024  -0.7342  -0.6931  -0.6576
    -0.6135  -0.5834  -0.5095  -0.4963  -0.4854  -0.4229  -0.3823  -0.2975
    -0.2837  -0.2647  -0.2136  -0.1844  -0.1490  -0.0809  -0.0628  -0.0396
     0.0416   0.1084   0.1136   0.3233   0.4855   0.5148   0.5313   0.6159
     0.6630   0.7717   0.7952   0.8048   0.8464   0.8918   0.9791   1.0051
     1.0069   1.0844   1.8330   1.8337   1.9211   1.9316   3.5648   3.8782
     3.9426   3.9661   3.9909   4.1064   4.1090   4.1283   4.1368   4.2805
     4.2929

     the Fermi energy is     3.6110 ev

!    total energy              =   -2964.99535483 Ry
     estimated scf accuracy    <       0.00000004 Ry
     smearing contrib. (-TS)   =      -0.03109325 Ry
     internal energy E=F+TS    =   -2964.96426158 Ry

     The total energy is F=E-TS. E is the sum of the following terms:
     one-electron contribution =  -24342.40689439 Ry
     hartree contribution      =   12264.25147180 Ry
     xc contribution           =    -490.10067349 Ry
     ewald contribution        =    9603.28901622 Ry
     electric field correction =       0.00281827 Ry

     convergence has been achieved in  63 iterations

     Forces acting on atoms (cartesian axes, Ry/au):

     atom    1 type  1   force =    -0.00009649    0.00006774    0.10406306
     atom    2 type  1   force =    -0.00008847    0.00006275    0.10407770
     atom    3 type  2   force =    -0.00030077   -0.00188456    0.10332384
     atom    4 type  2   force =    -0.00016467    0.00152026    0.11465908
     atom    5 type  2   force =    -0.00037874    0.00124239   -0.17933297
     atom    6 type  2   force =    -0.00016474   -0.00076823   -0.17971591
     atom    7 type  1   force =    -0.06940635    0.00065297   -0.02928962
     atom    8 type  1   force =    -0.06895180   -0.00122578   -0.02933583
     atom    9 type  1   force =     0.06905043    0.00114689   -0.02935212
     atom   10 type  1   force =     0.06868024   -0.00080761   -0.02940761
     atom   11 type  1   force =     0.00042165    0.00057007    0.04681931
     atom   12 type  1   force =     0.00063390    0.00080621    0.04852638
     atom   13 type  1   force =     0.00026840   -0.00568740   -0.03323994
     atom   14 type  1   force =     0.00033022    0.00339732   -0.02637053
     atom   15 type  2   force =    -0.00010369   -0.00002887    0.00040332
     atom   16 type  2   force =     0.00001710    0.00002262    0.00051251
     atom   17 type  2   force =    -0.00001846    0.00013022    0.00042501
     atom   18 type  2   force =    -0.00006771   -0.00031906    0.00009717
     atom   19 type  1   force =    -0.01808004   -0.00015889    0.00403888
     atom   20 type  1   force =    -0.01685220    0.00147619    0.00329198
     atom   21 type  1   force =     0.01934542   -0.00137115    0.00448698
     atom   22 type  1   force =     0.01791002    0.00116466    0.00356302
     atom   23 type  1   force =     0.00001376    0.00002853   -0.00016075
     atom   24 type  1   force =    -0.00005243   -0.00001519   -0.00012742
     atom   25 type  1   force =    -0.00004887    0.00000420   -0.00056731
     atom   26 type  1   force =    -0.00023056    0.00014426   -0.00065165
     atom   27 type  2   force =     0.00004805    0.00013763   -0.00041988
     atom   28 type  2   force =     0.00024161    0.00002931   -0.00011700
     atom   29 type  2   force =     0.00023318    0.00000758   -0.00023049
     atom   30 type  2   force =    -0.00010558    0.00019896    0.00026100
     atom   31 type  1   force =    -0.00063191   -0.00024293    0.00051799
     atom   32 type  1   force =    -0.00054246    0.00032351    0.00054826
     atom   33 type  1   force =     0.00036612   -0.00014115    0.00032688
     atom   34 type  1   force =     0.00028782    0.00018868    0.00035610
     atom   35 type  1   force =    -0.00014064    0.00000809    0.00018040
     atom   36 type  1   force =    -0.00006925    0.00000861   -0.00024192
     atom   37 type  1   force =    -0.00043792    0.00001477   -0.00033339
     atom   38 type  1   force =    -0.00048058    0.00026020   -0.00020447
     atom   39 type  2   force =    -0.00036982   -0.00007629    0.00144807
     atom   40 type  2   force =    -0.00011251    0.00021392   -0.00126267
     atom   41 type  2   force =     0.00004997   -0.00099257   -0.00037399
     atom   42 type  2   force =     0.00010364    0.00100715   -0.00023303
     atom   43 type  1   force =     0.00026834    0.00007445    0.00048186
     atom   44 type  1   force =     0.00020429    0.00005229    0.00027942
     atom   45 type  1   force =    -0.00007138   -0.00042825   -0.00027024
     atom   46 type  1   force =    -0.00010970    0.00059418   -0.00012548
     atom   47 type  1   force =    -0.00014237   -0.00018504    0.00012132
     atom   48 type  1   force =    -0.00245853    0.00024880    0.00294612
     atom   49 type  3   force =     0.00128147   -0.00066137   -0.00178099
     atom   50 type  4   force =     0.00032500   -0.00119883    0.00023810
     atom   51 type  4   force =     0.00022997   -0.00025266   -0.00082675
     atom   52 type  1   force =     0.00049082    0.00066241   -0.00057161
     atom   53 type  4   force =     0.00034037   -0.00000743    0.00021123
     atom   54 type  4   force =    -0.00046314   -0.00001460   -0.00166144

     Total force =     0.374511     Total SCF correction =     0.000802
  @ DRIVER MODE: Message from server: STATUS
  @ DRIVER MODE: Message from server: GETFORCE
  @ DRIVER MODE: Returning v,forces,stress,ensemble

     Writing output data file ./calc.save/
  @ DRIVER MODE: Message from server: EXIT
  @ DRIVE MODE: Exiting

     General routines

     Parallel routines

   This run was terminated on:  16:31:39  15Sep2021

   JOB DONE.