     Program PWSCF v.6.7GPU starts on  2Aug2021 at 16:54:37

     R & G space division:  proc/nbgrp/npool/nimage =      16
     Reading input from /storage/home/hcoda1/3/ntian30/research/carbon/02Aug_vib_paired/ads_slab/CH3NNH3_a/out_0017/pw.inp
Warning: card &CELL ignored
Warning: card   CELL_DYNAMICS='IPI', ignored
Warning: card / ignored

     Current dimensions of program PWSCF are:
     Max number of different atomic species (ntypx) = 10
     Max number of k-points (npk) =  40000
     Max angular momentum in pseudopotentials (lmaxx) =  3
     Presently no symmetry can be used with electric field

     Message from routine cell_base_init:
     DEPRECATED: use true lattice parameter, not A to a.u. conversion factor

     IMPORTANT: XC functional enforced from input :
     Exchange-correlation= BEEF-VDW
                           (   1   4  43  14   2   0   0)
     Any further DFT definition will be discarded
     Please, verify this is what you really want

  @ DRIVER MODE: Connecting to
 qe_1139763_2482544.sched-torque.pace.gatech.eduo5p8u298_scratch
  using UNIX socket
  @ DRIVER MODE: Message from server: STATUS
  @ DRIVER MODE: Message from server: INIT
  @ DRIVER MODE: Receiving replica           0          -1
  @ DRIVER MODE: Receiving encoded integer          25
  @ DRIVER MODE:  SCF:  T  FORCE:  T  STRESS:  F  VC:  F  ENSEMBLE:  F
  @ DRIVER MODE:  SCF:  T  FORCE:  T  STRESS:  F  VC:  F  ENSEMBLE:  F

     Using Slab Decomposition

     bravais-lattice index     =            0
     lattice parameter (alat)  =       1.8897  a.u.
     unit-cell volume          =    6658.9804 (a.u.)^3
     number of atoms/cell      =           56
     number of atomic types    =            5
     number of electrons       =       398.00
     number of Kohn-Sham states=          209
     kinetic-energy cutoff     =      29.3995  Ry
     charge density cutoff     =     293.9946  Ry
     scf convergence threshold =      7.3E-08
     mixing beta               =       0.0500
     number of iterations used =            8  plain     mixing
     Exchange-correlation= BEEF-VDW
                           (   1   4  43  14   2   0   0)

     celldm(1)=   1.889726  celldm(2)=   0.000000  celldm(3)=   0.000000
     celldm(4)=   0.000000  celldm(5)=   0.000000  celldm(6)=   0.000000

     crystal axes: (cart. coord. in units of alat)
               a(1) = (   6.579727   0.000000   0.000000 )
               a(2) = (  -0.000775   5.961596   0.000000 )
               a(3) = (   0.000000   0.000000  25.155947 )

     reciprocal axes: (cart. coord. in units 2 pi/alat)
               b(1) = (  0.151982  0.000020  0.000000 )
               b(2) = (  0.000000  0.167740  0.000000 )
               b(3) = (  0.000000  0.000000  0.039752 )

     PseudoPot. # 1 for Ti read from file:
     /storage/coda1/p-amedford6/0/shared/rich_project_chbe-medford/medford-share/data/pseudos_module/espresso/nninc/pbe/van/Ti.UPF
     MD5 check sum: 8e4df49b7f0d34bbd5052bf3f5ea0213
     Pseudo is Ultrasoft, Zval = 12.0
     Generated by new atomic code, or converted to UPF format
     Using radial grid of  851 points,  6 beta functions with:
                l(1) =   0
                l(2) =   0
                l(3) =   1
                l(4) =   1
                l(5) =   2
                l(6) =   2
     Q(r) pseudized with  8 coefficients,  rinner =    1.000   1.000   1.000
                                                       1.000   1.000

     PseudoPot. # 2 for O  read from file:
     /storage/coda1/p-amedford6/0/shared/rich_project_chbe-medford/medford-share/data/pseudos_module/espresso/nninc/pbe/van/O.UPF
     MD5 check sum: 78c19812648e8988a0fe644b0f25305e
     Pseudo is Ultrasoft, Zval =  6.0
     Generated by new atomic code, or converted to UPF format
     Using radial grid of  737 points,  4 beta functions with:
                l(1) =   0
                l(2) =   0
                l(3) =   1
                l(4) =   1
     Q(r) pseudized with  8 coefficients,  rinner =    0.800   0.800   0.800

     PseudoPot. # 3 for N  read from file:
     /storage/coda1/p-amedford6/0/shared/rich_project_chbe-medford/medford-share/data/pseudos_module/espresso/nninc/pbe/van/N.UPF
     MD5 check sum: 90d10febe142ad51ac9d5be1deb811c4
     Pseudo is Ultrasoft, Zval =  5.0
     Generated by new atomic code, or converted to UPF format
     Using radial grid of  729 points,  4 beta functions with:
                l(1) =   0
                l(2) =   0
                l(3) =   1
                l(4) =   1
     Q(r) pseudized with  8 coefficients,  rinner =    0.800   0.800   0.800

     PseudoPot. # 4 for C  read from file:
     /storage/coda1/p-amedford6/0/shared/rich_project_chbe-medford/medford-share/data/pseudos_module/espresso/nninc/pbe/van/C.UPF
     MD5 check sum: 1a69bf6b8db32088f5b2163dbdb77a27
     Pseudo is Ultrasoft, Zval =  4.0
     Generated by new atomic code, or converted to UPF format
     Using radial grid of  721 points,  4 beta functions with:
                l(1) =   0
                l(2) =   0
                l(3) =   1
                l(4) =   1
     Q(r) pseudized with  8 coefficients,  rinner =    0.800   0.800   0.800

     PseudoPot. # 5 for H  read from file:
     /storage/coda1/p-amedford6/0/shared/rich_project_chbe-medford/medford-share/data/pseudos_module/espresso/nninc/pbe/van/H.UPF
     MD5 check sum: b5ee9d7bfd3a09ee7748110bda690ff7
     Pseudo is Ultrasoft, Zval =  1.0
     Generated by new atomic code, or converted to UPF format
     Using radial grid of  615 points,  1 beta functions with:
                l(1) =   0
     Q(r) pseudized with  8 coefficients,  rinner =    0.800

     atomic species   valence    mass     pseudopotential
        Ti1           12.00    47.86700     Ti( 1.00)
        O1             6.00    15.99900     O ( 1.00)
        N1             5.00    14.00700     N ( 1.00)
        C1             4.00    12.01100     C ( 1.00)
        H1             1.00     1.00800     H ( 1.00)

     No symmetry found

   Cartesian axes

     site n.     atom                  positions (alat units)
         1           Ti1 tau(   1) = (   0.0004258   2.9801865   6.0000000  )
         2           Ti1 tau(   2) = (   3.2906075   1.4906267   6.0002472  )
         3           O1  tau(   3) = (   0.0006271   0.0005054   7.9858123  )
         4           O1  tau(   4) = (   3.2906025   0.0005020   7.3038282  )
         5           O1  tau(   5) = (   4.5942328   1.4918067   9.2879030  )
         6           O1  tau(   6) = (   1.9868534   1.4903216   9.2879459  )
         7           Ti1 tau(   7) = (   3.2907910   2.8959150   9.1758416  )
         8           Ti1 tau(   8) = (   0.0015273   1.4827037   9.2680791  )
         9           O1  tau(   9) = (   3.2727297   5.9424138  11.2974721  )
        10           O1  tau(  10) = (   0.0116148   5.9584955  10.6183126  )
        11           O1  tau(  11) = (   1.3027692   1.4721713  12.6242268  )
        12           O1  tau(  12) = (   5.2784376   1.4723552  12.6258992  )
        13           Ti1 tau(  13) = (   6.4570204   2.9507206  12.7630554  )
        14           Ti1 tau(  14) = (   3.1467966   1.4649636  12.4688949  )
        15           O1  tau(  15) = (   6.5600513   5.9133837  14.5918744  )
        16           O1  tau(  16) = (   3.2766225   5.9390981  13.8789110  )
        17           O1  tau(  17) = (   4.4915826   1.4834571  16.0540230  )
        18           O1  tau(  18) = (   2.0416982   1.4849982  16.0411193  )
        19           Ti1 tau(  19) = (   3.2679172   2.9642910  15.6858091  )
        20           Ti1 tau(  20) = (   6.5495220   1.5641796  16.1095294  )
        21           O1  tau(  21) = (   3.2904802   0.0005063   4.7018136  )
        22           O1  tau(  22) = (   6.5606002   0.0080969  17.2010096  )
        23           O1  tau(  23) = (   1.3043587   1.4918075   6.0039043  )
        24           O1  tau(  24) = (   5.2767064   1.4903225   6.0039473  )
        25           Ti1 tau(  25) = (   0.0000382   5.9609847   6.0000000  )
        26           Ti1 tau(  26) = (   3.2902200   4.4714249   6.0002472  )
        27           O1  tau(  27) = (   0.0002396   2.9813036   7.9858123  )
        28           O1  tau(  28) = (   3.2902150   2.9813002   7.3038282  )
        29           O1  tau(  29) = (   4.5938453   4.4726049   9.2879030  )
        30           O1  tau(  30) = (   1.9864658   4.4711199   9.2879459  )
        31           Ti1 tau(  31) = (   3.2891106   5.8743827   9.1763621  )
        32           Ti1 tau(  32) = (   0.0006254   4.4649316   9.2693709  )
        33           O1  tau(  33) = (   3.2718307   2.9587034  11.2961003  )
        34           O1  tau(  34) = (   0.0092240   2.9805883  10.6323155  )
        35           O1  tau(  35) = (   1.3028232   4.4416136  12.6207192  )
        36           O1  tau(  36) = (   5.2777600   4.4366566  12.6238879  )
        37           Ti1 tau(  37) = (   6.4830488   5.9304874  12.7660964  )
        38           Ti1 tau(  38) = (   3.1463657   4.4448748  12.4639736  )
        39           O1  tau(  39) = (   6.5417323   2.9404903  14.6589984  )
        40           O1  tau(  40) = (   3.2789452   2.9619718  13.8791424  )
        41           O1  tau(  41) = (   4.4971312   4.4676043  16.0556370  )
        42           O1  tau(  42) = (   2.0400509   4.4648231  16.0515753  )
        43           Ti1 tau(  43) = (   3.2598176   5.9476019  15.6881950  )
        44           Ti1 tau(  44) = (   6.5485469   4.5424454  16.1156095  )
        45           O1  tau(  45) = (   3.2900926   2.9813045   4.7018136  )
        46           O1  tau(  46) = (   1.3039711   4.4726057   6.0039043  )
        47           O1  tau(  47) = (   5.2763189   4.4711207   6.0039473  )
        48           N1  tau(  48) = (   0.0016189   2.9795595  17.3279962  )
        49           C1  tau(  49) = (   0.1681806   3.0735589  18.7581663  )
        50           H1  tau(  50) = (   6.0068595   3.7517258  19.1894632  )
        51           H1  tau(  51) = (   0.0766375   2.0971904  19.2409400  )
        52           H1  tau(  52) = (   1.1565538   3.4901639  19.0026035  )
        53           N1  tau(  53) = (   4.7601180   1.8141088  21.6614004  )
        54           H1  tau(  54) = (   4.4666586   2.7830198  21.5980365  )
        55           H1  tau(  55) = (   4.1231612   1.2775871  21.0809158  )
        56           H1  tau(  56) = (   4.6015807   1.5257772  22.6208530  )

     number of k points=    10  Fermi-Dirac smearing, width (Ry)=  0.0073
                       cart. coord. in units 2pi/alat
        k(    1) = (   0.0000000   0.0000000   0.0000000), wk =   0.1250000
        k(    2) = (   0.0000000   0.0419351   0.0000000), wk =   0.2500000
        k(    3) = (   0.0000000  -0.0838702   0.0000000), wk =   0.1250000
        k(    4) = (   0.0379955   0.0000049   0.0000000), wk =   0.2500000
        k(    5) = (   0.0379955   0.0419400   0.0000000), wk =   0.2500000
        k(    6) = (   0.0379955  -0.0838652   0.0000000), wk =   0.2500000
        k(    7) = (   0.0379955  -0.0419301   0.0000000), wk =   0.2500000
        k(    8) = (  -0.0759910  -0.0000099   0.0000000), wk =   0.1250000
        k(    9) = (  -0.0759910   0.0419252   0.0000000), wk =   0.2500000
        k(   10) = (  -0.0759910  -0.0838800   0.0000000), wk =   0.1250000

     Initial potential from superposition of free atoms

     starting charge  381.99914, renormalised to  398.00000

     negative rho (up, down):  9.480E-03 0.000E+00

     %%%%%%%%%%%%%%%%%%%%%%%%%%%%%%%%%%%%%%%%%%%%%%%%%%%%%%%%%%%%%%%%%%%%%%%%
     %                                                                      %
     % You are using vdW-DF, which was implemented by the Thonhauser group. %
     % Please cite the following two papers that made this development      %
     % possible and the two reviews that describe the various versions:     %
     %                                                                      %
     %   T. Thonhauser et al., PRL 115, 136402 (2015).                      %
     %   T. Thonhauser et al., PRB 76, 125112 (2007).                       %
     %   K. Berland et al., Rep. Prog. Phys. 78, 066501 (2015).             %
     %   D.C. Langreth et al., J. Phys.: Condens. Matter 21, 084203 (2009). %
     %                                                                      %
     %                                                                      %
     % If you are calculating the stress with vdW-DF, please also cite:     %
     %                                                                      %
     %   R. Sabatini et al., J. Phys.: Condens. Matter 24, 424209 (2012).   %
     %                                                                      %
     %%%%%%%%%%%%%%%%%%%%%%%%%%%%%%%%%%%%%%%%%%%%%%%%%%%%%%%%%%%%%%%%%%%%%%%%

     Adding external electric field

     Computed dipole along edir(3) :
        Dipole              -11.3709 Ry au,        -28.9020 Debye
        Dipole field         -0.0215 Ry au,

        Potential amp.        1.9892 Ry
        Total length         46.3494 bohr

     Starting wfcs are  302 atomic wfcs
  @ DRIVER MODE: Message from server: STATUS
  @ DRIVER MODE: Message from server: POSDATA
  @ DRIVER MODE: Reading and sharing cell
  @ DRIVER MODE: Reading and sharing positions
  @ DRIVER MODE: Received positions

     Self-consistent Calculation

     iteration #  1     ecut=    29.40 Ry     beta= 0.05
     Davidson diagonalization with overlap
     c_bands:  1 eigenvalues not converged
     c_bands:  1 eigenvalues not converged
     c_bands:  2 eigenvalues not converged
     c_bands:  1 eigenvalues not converged
     c_bands:  1 eigenvalues not converged
     c_bands:  1 eigenvalues not converged
     c_bands:  1 eigenvalues not converged
     c_bands:  2 eigenvalues not converged
     c_bands:  2 eigenvalues not converged
     ethr =  1.00E-05,  avg # of iterations = 19.6

[...]

     total energy              =   -2520.80405134 Ry
     estimated scf accuracy    <    4705.81752671 Ry

     iteration #  2     ecut=    29.40 Ry     beta= 0.05
     Davidson diagonalization with overlap
     ethr =  1.00E-02,  avg # of iterations = 22.0

[...]

     iteration # 47     ecut=    29.40 Ry     beta= 0.05
     Davidson diagonalization with overlap
     c_bands:  1 eigenvalues not converged
     ethr =  2.92E-06,  avg # of iterations = 12.3

[...]

     total energy              =   -2942.90675413 Ry
     estimated scf accuracy    <       0.00000008 Ry

     iteration # 78     ecut=    29.40 Ry     beta= 0.05
     Davidson diagonalization with overlap
     ethr =  1.93E-11,  avg # of iterations =  3.4

     negative rho (up, down):  1.096E-02 0.000E+00

     Adding external electric field

     Computed dipole along edir(3) :
        Dipole                0.4540 Ry au,          1.1539 Debye
        Dipole field          0.0009 Ry au,

        Potential amp.       -0.0794 Ry
        Total length         46.3494 bohr

     End of self-consistent calculation

          k = 0.0000 0.0000 0.0000 ( 18029 PWs)   bands (ev):

   -56.6126 -56.5790 -55.7322 -55.7238 -55.6968 -55.6915 -55.5868 -55.5510
   -55.3702 -55.3349 -55.2775 -55.2715 -55.2436 -55.1693 -54.7325 -54.6187
   -33.0405 -32.8873 -32.8591 -32.7888 -32.6978 -32.6665 -32.2069 -32.1960
   -32.1297 -32.0186 -31.9737 -31.9454 -31.9316 -31.9066 -31.8740 -31.8715
   -31.8676 -31.8607 -31.8377 -31.8348 -31.8228 -31.7950 -31.7697 -31.7561
   -31.7429 -31.7230 -31.7152 -31.6920 -31.6699 -31.6159 -31.6017 -31.5918
   -31.5136 -31.5090 -31.4885 -31.4468 -31.4369 -31.4050 -31.3982 -31.3738
   -31.3526 -31.2941 -31.2339 -30.9735 -30.9610 -30.8785 -30.8387 -30.7476
   -16.7767 -16.3426 -16.1129 -15.9752 -15.9077 -15.8533 -15.8079 -15.6875
   -15.6142 -15.6076 -15.5671 -15.5371 -15.4665 -15.3255 -15.2273 -15.1742
   -15.1299 -15.0088 -14.9484 -14.9161 -14.9116 -14.8772 -14.8576 -14.6613
   -14.6368 -14.5342 -14.5248 -14.3987 -14.1768 -13.7762 -13.7234 -13.6662
   -12.8022  -7.4955  -4.3424  -3.8378  -3.8015  -3.7718  -3.6005  -3.5133
    -3.4059  -3.3928  -3.3122  -3.1935  -3.1476  -3.0998  -2.9842  -2.9839
    -2.8345  -2.8007  -2.7884  -2.7847  -2.7418  -2.6827  -2.6661  -2.6221
    -2.6186  -2.6062  -2.4583  -2.3560  -2.2895  -2.2673  -2.2571  -2.2212
    -2.1434  -2.1234  -2.1080  -2.1043  -2.0044  -1.8552  -1.8545  -1.8228
    -1.7794  -1.7773  -1.7403  -1.7253  -1.5893  -1.5159  -1.4128  -1.3957
    -1.3568  -1.2927  -1.2863  -1.1880  -1.1141  -1.0513  -1.0259  -0.9168
    -0.8742  -0.8521  -0.7628  -0.7004  -0.6607  -0.6434  -0.6263  -0.5231
    -0.5022  -0.4916  -0.4068  -0.3950  -0.3376  -0.2564  -0.2365  -0.2306
    -0.1423  -0.1373  -0.0454  -0.0030   0.0384   0.0836   0.1793   0.1976
     0.3006   0.3362   0.3573   0.4773   0.4901   0.5530   0.6203   0.6881
     0.7192   0.7438   0.7732   0.7949   0.8679   0.9830   0.9880   1.0894
     1.1289   1.2968   1.3358   1.3788   1.6235   1.6493   2.3209   2.6620
     2.8220   3.1205   3.3111   3.4221   3.6373   3.6525   3.6578   3.8346
     3.8811

[...]

          k = 0.0380-0.0419 0.0000 ( 17876 PWs)   bands (ev):

[...]

          k =-0.0760-0.0000 0.0000 ( 17886 PWs)   bands (ev):

[...]

          k =-0.0760-0.0839 0.0000 ( 17948 PWs)   bands (ev):

   -56.5959 -56.5956 -55.7161 -55.7110 -55.7088 -55.7080 -55.5715 -55.5661
   -55.3552 -55.3497 -55.2684 -55.2605 -55.2604 -55.1723 -54.7297 -54.6214
   -32.8731 -32.8728 -32.8575 -32.8572 -32.7419 -32.7416 -32.0365 -32.0339
   -32.0203 -32.0143 -31.9643 -31.9632 -31.9210 -31.9195 -31.9181 -31.9172
   -31.9060 -31.9034 -31.9020 -31.8997 -31.8237 -31.8192 -31.7728 -31.7675
   -31.7066 -31.6994 -31.6383 -31.6316 -31.6048 -31.6047 -31.5980 -31.5543
   -31.5523 -31.5241 -31.4890 -31.4861 -31.4860 -31.4469 -31.4469 -31.4421
   -31.4151 -31.3758 -31.1129 -30.9931 -30.9607 -30.9287 -30.8411 -30.8062
   -16.1249 -16.1229 -16.0908 -16.0905 -15.8207 -15.8170 -15.7731 -15.7714
   -15.5988 -15.5929 -15.3860 -15.3758 -15.3700 -15.3659 -15.2418 -15.2329
   -15.1697 -15.1589 -15.0700 -15.0666 -15.0033 -14.9972 -14.9595 -14.9398
   -14.6230 -14.6153 -14.4877 -14.4791 -14.3268 -13.7697 -13.7696 -13.7226
   -12.8188  -7.4856  -3.8011  -3.7869  -3.2246  -3.2241  -3.1585  -3.1572
    -3.0367  -3.0319  -2.9550  -2.9545  -2.8554  -2.8511  -2.7642  -2.7117
    -2.7102  -2.7077  -2.6948  -2.6661  -2.5556  -2.5548  -2.5406  -2.5254
    -2.4698  -2.4677  -2.4521  -2.3808  -2.3674  -2.3317  -2.2923  -2.1859
    -2.1722  -2.1560  -2.1299  -2.0690  -2.0551  -2.0436  -1.9960  -1.9734
    -1.8935  -1.8263  -1.7861  -1.6660  -1.6625  -1.6527  -1.6407  -1.4854
    -1.4496  -1.4186  -1.4086  -1.4028  -1.3587  -1.2601  -1.2522  -1.1178
    -1.1152  -1.0458  -0.9637  -0.9407  -0.9184  -0.7840  -0.7439  -0.7028
    -0.6978  -0.6729  -0.6473  -0.6277  -0.6003  -0.4486  -0.4292  -0.3951
    -0.3642  -0.3561  -0.3151  -0.2464  -0.1666  -0.0858  -0.0847  -0.0182
     0.0333   0.0956   0.1833   0.1961   0.2001   0.4829   0.5632   0.6502
     0.7293   0.7929   0.8590   0.8836   0.9440   0.9831   1.1233   1.1261
     1.1449   1.1453   1.2053   1.2137   1.3615   1.6453   2.2076   3.2350
     3.2353   3.3025   3.3029   3.6266   3.6321   3.7411   3.7501   3.8597
     3.8651

     the Fermi energy is     2.5001 ev

!    total energy              =   -2942.90676755 Ry
     estimated scf accuracy    <       0.00000005 Ry
     smearing contrib. (-TS)   =      -0.00477844 Ry
     internal energy E=F+TS    =   -2942.90198911 Ry

     The total energy is F=E-TS. E is the sum of the following terms:
     one-electron contribution =  -23225.96799586 Ry
     hartree contribution      =   11703.27264506 Ry
     xc contribution           =    -487.47152693 Ry
     ewald contribution        =    9067.26449970 Ry
     electric field correction =       0.00038892 Ry

     convergence has been achieved in  78 iterations

     Forces acting on atoms (cartesian axes, Ry/au):

     atom    1 type  1   force =     0.00000984   -0.00043857    0.12431505
     atom    2 type  1   force =    -0.00006006   -0.00054557   -0.16061749
     atom    3 type  2   force =     0.00016403   -0.00030297   -0.06835848
     atom    4 type  2   force =    -0.00005221   -0.00038709    0.02754036
     atom    5 type  2   force =    -0.01677840    0.00113108   -0.00832923
     atom    6 type  2   force =     0.01783016    0.00162998   -0.01022162
     atom    7 type  1   force =     0.00039869   -0.00408173    0.02179718
     atom    8 type  1   force =     0.00019996   -0.00219378    0.11165962
     atom    9 type  2   force =     0.00010521    0.00018786   -0.00030049
     atom   10 type  2   force =    -0.00319849    0.00010884   -0.07305938
     atom   11 type  2   force =    -0.00034217    0.00033061   -0.00007471
     atom   12 type  2   force =     0.00013885    0.00045230   -0.00003615
     atom   13 type  1   force =     0.00012069   -0.00024498   -0.00004194
     atom   14 type  1   force =    -0.00014871    0.00004325   -0.00033896
     atom   15 type  2   force =    -0.00003999   -0.00025967    0.00017717
     atom   16 type  2   force =     0.00033135    0.00076715    0.00002267
     atom   17 type  2   force =     0.00017097    0.00030675   -0.00027381
     atom   18 type  2   force =    -0.00018151    0.00020932    0.00013663
     atom   19 type  1   force =     0.00048360   -0.00011048   -0.00026121
     atom   20 type  1   force =     0.00023615   -0.00028430   -0.00050727
     atom   21 type  2   force =     0.00010156    0.00008150    0.09967025
     atom   22 type  2   force =     0.00007661    0.00091254    0.00055983
     atom   23 type  2   force =    -0.07915617    0.00008673   -0.03242535
     atom   24 type  2   force =     0.07906296    0.00051410   -0.03241975
     atom   25 type  1   force =     0.00002869   -0.00041483    0.12383486
     atom   26 type  1   force =    -0.00003775   -0.00042485   -0.16073549
     atom   27 type  2   force =     0.00028710   -0.00046895   -0.06734821
     atom   28 type  2   force =    -0.00005463   -0.00020248    0.02727557
     atom   29 type  2   force =    -0.01730901    0.00074028   -0.00825672
     atom   30 type  2   force =     0.01827777    0.00113720   -0.01009347
     atom   31 type  1   force =     0.00033720   -0.00099779    0.02126319
     atom   32 type  1   force =     0.00021592   -0.00027218    0.11221183
     atom   33 type  2   force =     0.00012173    0.00051072   -0.00006855
     atom   34 type  2   force =    -0.00294565   -0.00065425   -0.07291409
     atom   35 type  2   force =    -0.00024613    0.00027138   -0.00010046
     atom   36 type  2   force =     0.00009699    0.00013634   -0.00003749
     atom   37 type  1   force =     0.00012753   -0.00015291    0.00023066
     atom   38 type  1   force =     0.00007491    0.00004952    0.00029277
     atom   39 type  2   force =     0.00020156    0.00038213   -0.00015932
     atom   40 type  2   force =     0.00010368    0.00034434    0.00016527
     atom   41 type  2   force =    -0.00015934    0.00032930    0.00019465
     atom   42 type  2   force =    -0.00001542    0.00060753   -0.00000035
     atom   43 type  1   force =     0.00058454    0.00054312    0.00044850
     atom   44 type  1   force =     0.00018834    0.00020645   -0.00047419
     atom   45 type  2   force =     0.00010560    0.00005070    0.09969721
     atom   46 type  2   force =    -0.07916565    0.00012701   -0.03242599
     atom   47 type  2   force =     0.07906694    0.00056116   -0.03241528
     atom   48 type  3   force =     0.00110561   -0.00037830   -0.00141591
     atom   49 type  4   force =     0.00304678   -0.00237577   -0.00088057
     atom   50 type  5   force =    -0.00200723    0.00200861    0.00311873
     atom   51 type  5   force =    -0.00054135    0.00060614    0.00010300
     atom   52 type  5   force =    -0.00083198   -0.00046784    0.00036737
     atom   53 type  3   force =     0.00098621   -0.00023441    0.00034659
     atom   54 type  5   force =    -0.00011803    0.00080931   -0.00091307
     atom   55 type  5   force =     0.00020816    0.00034540    0.00030791
     atom   56 type  5   force =    -0.00120601   -0.00063493   -0.00023189

     Total force =     0.424930     Total SCF correction =     0.000548
  @ DRIVER MODE: Message from server: STATUS
  @ DRIVER MODE: Message from server: GETFORCE
  @ DRIVER MODE: Returning v,forces,stress,ensemble

     Writing output data file ./calc.save/
  @ DRIVER MODE: Message from server: EXIT
  @ DRIVE MODE: Exiting

     General routines

     Parallel routines

   This run was terminated on:  17:13:22   2Aug2021

   JOB DONE.