     Program PWSCF v.6.7GPU starts on 15Jul2021 at 20:41: 7

     R & G space division:  proc/nbgrp/npool/nimage =      16
     Reading input from /storage/home/hcoda1/3/ntian30/research/carbon/15Jul_vib/ads_slab/CH3NH_b/out_0008/pw.inp
Warning: card &CELL ignored
Warning: card   CELL_DYNAMICS='IPI', ignored
Warning: card / ignored

     Current dimensions of program PWSCF are:
     Max number of different atomic species (ntypx) = 10
     Max number of k-points (npk) =  40000
     Max angular momentum in pseudopotentials (lmaxx) =  3
     Presently no symmetry can be used with electric field

     Message from routine cell_base_init:
     DEPRECATED: use true lattice parameter, not A to a.u. conversion factor

     IMPORTANT: XC functional enforced from input :
     Exchange-correlation= BEEF-VDW
                           (   1   4  43  14   2   0   0)
     Any further DFT definition will be discarded
     Please, verify this is what you really want

  @ DRIVER MODE: Connecting to
 qe_1139763_2351649.sched-torque.pace.gatech.eduixufleog_scratch
  using UNIX socket
  @ DRIVER MODE: Message from server: STATUS
  @ DRIVER MODE: Message from server: INIT
  @ DRIVER MODE: Receiving replica           0          -1
  @ DRIVER MODE: Receiving encoded integer          25
  @ DRIVER MODE:  SCF:  T  FORCE:  T  STRESS:  F  VC:  F  ENSEMBLE:  F
  @ DRIVER MODE:  SCF:  T  FORCE:  T  STRESS:  F  VC:  F  ENSEMBLE:  F

     Using Slab Decomposition

     bravais-lattice index     =            0
     lattice parameter (alat)  =       1.8897  a.u.
     unit-cell volume          =    6658.9804 (a.u.)^3
     number of atoms/cell      =           53
     number of atomic types    =            5
     number of electrons       =       391.00
     number of Kohn-Sham states=          205
     kinetic-energy cutoff     =      29.3995  Ry
     charge density cutoff     =     293.9946  Ry
     scf convergence threshold =      7.3E-08
     mixing beta               =       0.0500
     number of iterations used =            8  plain     mixing
     Exchange-correlation= BEEF-VDW
                           (   1   4  43  14   2   0   0)

     celldm(1)=   1.889726  celldm(2)=   0.000000  celldm(3)=   0.000000
     celldm(4)=   0.000000  celldm(5)=   0.000000  celldm(6)=   0.000000

     crystal axes: (cart. coord. in units of alat)
               a(1) = (   6.579727   0.000000   0.000000 )
               a(2) = (  -0.000775   5.961596   0.000000 )
               a(3) = (   0.000000   0.000000  25.155947 )

     reciprocal axes: (cart. coord. in units 2 pi/alat)
               b(1) = (  0.151982  0.000020  0.000000 )
               b(2) = (  0.000000  0.167740  0.000000 )
               b(3) = (  0.000000  0.000000  0.039752 )

     PseudoPot. # 1 for Ti read from file:
     /storage/coda1/p-amedford6/0/shared/rich_project_chbe-medford/medford-share/data/pseudos_module/espresso/nninc/pbe/van/Ti.UPF
     MD5 check sum: 8e4df49b7f0d34bbd5052bf3f5ea0213
     Pseudo is Ultrasoft, Zval = 12.0
     Generated by new atomic code, or converted to UPF format
     Using radial grid of  851 points,  6 beta functions with:
                l(1) =   0
                l(2) =   0
                l(3) =   1
                l(4) =   1
                l(5) =   2
                l(6) =   2
     Q(r) pseudized with  8 coefficients,  rinner =    1.000   1.000   1.000
                                                       1.000   1.000

     PseudoPot. # 2 for O  read from file:
     /storage/coda1/p-amedford6/0/shared/rich_project_chbe-medford/medford-share/data/pseudos_module/espresso/nninc/pbe/van/O.UPF
     MD5 check sum: 78c19812648e8988a0fe644b0f25305e
     Pseudo is Ultrasoft, Zval =  6.0
     Generated by new atomic code, or converted to UPF format
     Using radial grid of  737 points,  4 beta functions with:
                l(1) =   0
                l(2) =   0
                l(3) =   1
                l(4) =   1
     Q(r) pseudized with  8 coefficients,  rinner =    0.800   0.800   0.800

     PseudoPot. # 3 for H  read from file:
     /storage/coda1/p-amedford6/0/shared/rich_project_chbe-medford/medford-share/data/pseudos_module/espresso/nninc/pbe/van/H.UPF
     MD5 check sum: b5ee9d7bfd3a09ee7748110bda690ff7
     Pseudo is Ultrasoft, Zval =  1.0
     Generated by new atomic code, or converted to UPF format
     Using radial grid of  615 points,  1 beta functions with:
                l(1) =   0
     Q(r) pseudized with  8 coefficients,  rinner =    0.800

     PseudoPot. # 4 for N  read from file:
     /storage/coda1/p-amedford6/0/shared/rich_project_chbe-medford/medford-share/data/pseudos_module/espresso/nninc/pbe/van/N.UPF
     MD5 check sum: 90d10febe142ad51ac9d5be1deb811c4
     Pseudo is Ultrasoft, Zval =  5.0
     Generated by new atomic code, or converted to UPF format
     Using radial grid of  729 points,  4 beta functions with:
                l(1) =   0
                l(2) =   0
                l(3) =   1
                l(4) =   1
     Q(r) pseudized with  8 coefficients,  rinner =    0.800   0.800   0.800

     PseudoPot. # 5 for C  read from file:
     /storage/coda1/p-amedford6/0/shared/rich_project_chbe-medford/medford-share/data/pseudos_module/espresso/nninc/pbe/van/C.UPF
     MD5 check sum: 1a69bf6b8db32088f5b2163dbdb77a27
     Pseudo is Ultrasoft, Zval =  4.0
     Generated by new atomic code, or converted to UPF format
     Using radial grid of  721 points,  4 beta functions with:
                l(1) =   0
                l(2) =   0
                l(3) =   1
                l(4) =   1
     Q(r) pseudized with  8 coefficients,  rinner =    0.800   0.800   0.800

     atomic species   valence    mass     pseudopotential
        Ti1           12.00    47.86700     Ti( 1.00)
        O1             6.00    15.99900     O ( 1.00)
        H1             1.00     1.00800     H ( 1.00)
        N1             5.00    14.00700     N ( 1.00)
        C1             4.00    12.01100     C ( 1.00)

     Starting magnetic structure
     atomic species   magnetization
        Ti1          0.000
        O1           0.000
        H1           0.000
        N1           0.000
        C1           0.025

     No symmetry found

   Cartesian axes

     site n.     atom                  positions (alat units)
         1           Ti1 tau(   1) = (   0.0004258   2.9801865   6.0000000  )
         2           Ti1 tau(   2) = (   3.2906075   1.4906267   6.0002472  )
         3           O1  tau(   3) = (   0.0006271   0.0005054   7.9858123  )
         4           O1  tau(   4) = (   3.2906025   0.0005020   7.3038282  )
         5           O1  tau(   5) = (   4.5942328   1.4918067   9.2879030  )
         6           O1  tau(   6) = (   1.9868534   1.4903216   9.2879459  )
         7           Ti1 tau(   7) = (   3.2907910   2.8959150   9.1758416  )
         8           Ti1 tau(   8) = (   0.0015273   1.4827037   9.2680791  )
         9           O1  tau(   9) = (   3.2906183   5.9580730  11.3246990  )
        10           O1  tau(  10) = (   0.0116148   5.9584955  10.6183126  )
        11           O1  tau(  11) = (   1.3160896   1.4863360  12.6200149  )
        12           O1  tau(  12) = (   5.2947061   1.4800608  12.6053981  )
        13           Ti1 tau(  13) = (   6.5224157   2.9421717  12.6196007  )
        14           Ti1 tau(  14) = (   3.2076970   1.4879367  12.4696142  )
        15           O1  tau(  15) = (   6.5517659   0.0158556  14.6493665  )
        16           O1  tau(  16) = (   3.3109316   0.0069331  13.9179417  )
        17           O1  tau(  17) = (   4.5083530   1.5297238  16.0872293  )
        18           O1  tau(  18) = (   2.0274073   1.5273405  16.0409094  )
        19           Ti1 tau(  19) = (   3.2920608   3.0081397  15.6838061  )
        20           Ti1 tau(  20) = (   0.0536170   1.5416865  15.8648894  )
        21           O1  tau(  21) = (   3.2904802   0.0005063   4.7018136  )
        22           O1  tau(  22) = (   0.0122827   0.0301012  17.2134340  )
        23           O1  tau(  23) = (   1.3043587   1.4918075   6.0039043  )
        24           O1  tau(  24) = (   5.2767064   1.4903225   6.0039473  )
        25           Ti1 tau(  25) = (   0.0000382   5.9609847   6.0000000  )
        26           Ti1 tau(  26) = (   3.2902200   4.4714249   6.0002472  )
        27           O1  tau(  27) = (   0.0002396   2.9813036   7.9858123  )
        28           O1  tau(  28) = (   3.2902150   2.9813002   7.3038282  )
        29           O1  tau(  29) = (   4.5938453   4.4726049   9.2879030  )
        30           O1  tau(  30) = (   1.9864658   4.4711199   9.2879459  )
        31           Ti1 tau(  31) = (   3.2891106   5.8743827   9.1763621  )
        32           Ti1 tau(  32) = (   0.0006254   4.4649316   9.2693709  )
        33           O1  tau(  33) = (   3.2866862   2.9837957  11.3234553  )
        34           O1  tau(  34) = (   0.0092240   2.9805883  10.6323155  )
        35           O1  tau(  35) = (   1.3095649   4.4762946  12.6335636  )
        36           O1  tau(  36) = (   5.2963019   4.4650584  12.6194355  )
        37           Ti1 tau(  37) = (   6.5192018   5.9199268  12.5733442  )
        38           Ti1 tau(  38) = (   3.2055211   4.4685508  12.4747853  )
        39           O1  tau(  39) = (   6.5624772   2.9349094  14.6472044  )
        40           O1  tau(  40) = (   3.3065106   2.9879112  13.8942307  )
        41           O1  tau(  41) = (   4.5199725   4.4841037  16.0899424  )
        42           O1  tau(  42) = (   2.0389375   4.4882992  16.0664246  )
        43           Ti1 tau(  43) = (   3.3279474   0.0221627  15.7114356  )
        44           Ti1 tau(  44) = (   0.0314192   4.6578676  16.1055029  )
        45           O1  tau(  45) = (   3.2900926   2.9813045   4.7018136  )
        46           O1  tau(  46) = (   1.3039711   4.4726057   6.0039043  )
        47           O1  tau(  47) = (   5.2763189   4.4711207   6.0039473  )
        48           H1  tau(  48) = (   5.5751926   2.9245997  17.7795037  )
        49           N1  tau(  49) = (   6.5445126   2.9709300  17.4463781  )
        50           C1  tau(  50) = (   0.8205834   2.9192471  18.6315588  )
        51           H1  tau(  51) = (   0.6379014   3.7726647  19.2931901  )
        52           H1  tau(  52) = (   0.6616828   1.9903841  19.1881566  )
        53           H1  tau(  53) = (   1.8691752   2.9530840  18.3388921  )

     number of k points=    10  Fermi-Dirac smearing, width (Ry)=  0.0073
                       cart. coord. in units 2pi/alat
        k(    1) = (   0.0000000   0.0000000   0.0000000), wk =   0.0625000
        k(    2) = (   0.0000000   0.0419351   0.0000000), wk =   0.1250000
        k(    3) = (   0.0000000  -0.0838702   0.0000000), wk =   0.0625000
        k(    4) = (   0.0379955   0.0000049   0.0000000), wk =   0.1250000
        k(    5) = (   0.0379955   0.0419400   0.0000000), wk =   0.1250000
        k(    6) = (   0.0379955  -0.0838652   0.0000000), wk =   0.1250000
        k(    7) = (   0.0379955  -0.0419301   0.0000000), wk =   0.1250000
        k(    8) = (  -0.0759910  -0.0000099   0.0000000), wk =   0.0625000
[...]

     Initial potential from superposition of free atoms

     starting charge  374.99916, renormalised to  391.00000

     negative rho (up, down):  8.887E-03 8.894E-03

     %%%%%%%%%%%%%%%%%%%%%%%%%%%%%%%%%%%%%%%%%%%%%%%%%%%%%%%%%%%%%%%%%%%%%%%%
     %                                                                      %
     % You are using vdW-DF, which was implemented by the Thonhauser group. %
     % Please cite the following two papers that made this development      %
     % possible and the two reviews that describe the various versions:     %
     %                                                                      %
     %   T. Thonhauser et al., PRL 115, 136402 (2015).                      %
     %   T. Thonhauser et al., PRB 76, 125112 (2007).                       %
     %   K. Berland et al., Rep. Prog. Phys. 78, 066501 (2015).             %
     %   D.C. Langreth et al., J. Phys.: Condens. Matter 21, 084203 (2009). %
     %                                                                      %
     %                                                                      %
     % If you are calculating the stress with vdW-DF, please also cite:     %
     %                                                                      %
     %   R. Sabatini et al., J. Phys.: Condens. Matter 24, 424209 (2012).   %
     %                                                                      %
     %%%%%%%%%%%%%%%%%%%%%%%%%%%%%%%%%%%%%%%%%%%%%%%%%%%%%%%%%%%%%%%%%%%%%%%%

     Adding external electric field

     Computed dipole along edir(3) :
        Dipole               -5.8162 Ry au,        -14.7834 Debye
        Dipole field         -0.0110 Ry au,

        Potential amp.        1.0175 Ry
        Total length         46.3494 bohr

[...]

     Starting wfcs are  296 atomic wfcs
  @ DRIVER MODE: Message from server: STATUS
  @ DRIVER MODE: Message from server: POSDATA
  @ DRIVER MODE: Reading and sharing cell
  @ DRIVER MODE: Reading and sharing positions
  @ DRIVER MODE: Received positions

     Self-consistent Calculation

     iteration #  1     ecut=    29.40 Ry     beta= 0.05
     Davidson diagonalization with overlap
     c_bands:  3 eigenvalues not converged
     c_bands:  1 eigenvalues not converged
     c_bands:  1 eigenvalues not converged
     c_bands:  2 eigenvalues not converged
     c_bands:  4 eigenvalues not converged
     c_bands:  2 eigenvalues not converged
     c_bands:  1 eigenvalues not converged
     c_bands:  1 eigenvalues not converged
     c_bands:  2 eigenvalues not converged
     c_bands:  3 eigenvalues not converged
     c_bands:  1 eigenvalues not converged
     c_bands:  1 eigenvalues not converged
     c_bands:  3 eigenvalues not converged
     c_bands:  4 eigenvalues not converged
     c_bands:  3 eigenvalues not converged
     c_bands:  1 eigenvalues not converged
     c_bands:  1 eigenvalues not converged
     c_bands:  2 eigenvalues not converged
     ethr =  1.00E-05,  avg # of iterations = 19.6

[...]

     total energy              =   -2770.78447799 Ry
     estimated scf accuracy    <    1640.26984234 Ry

     total magnetization       =     0.01 Bohr mag/cell
     absolute magnetization    =     0.03 Bohr mag/cell

[...]

     iteration #  3     ecut=    29.40 Ry     beta= 0.05
     Davidson diagonalization with overlap
     ethr =  1.00E-02,  avg # of iterations = 15.4

[...]

     iteration # 51     ecut=    29.40 Ry     beta= 0.05
     Davidson diagonalization with overlap
     c_bands:  1 eigenvalues not converged
     ethr =  1.54E-10,  avg # of iterations = 12.4

[...]

     total energy              =   -2920.42446586 Ry
     estimated scf accuracy    <       0.00000008 Ry

[...]

     iteration # 72     ecut=    29.40 Ry     beta= 0.05
     Davidson diagonalization with overlap
     ethr =  2.13E-11,  avg # of iterations =  1.9

     negative rho (up, down):  9.098E-03 9.098E-03

[...]

     Adding external electric field

     Computed dipole along edir(3) :
        Dipole                0.6825 Ry au,          1.7348 Debye
        Dipole field          0.0013 Ry au,

        Potential amp.       -0.1194 Ry
        Total length         46.3494 bohr

     Magnetic moment per site  (integrated on atomic sphere of radius R)
     atom   1 (R=0.715)  charge=  7.8451  magn=  0.0016
     atom   2 (R=0.715)  charge=  7.8287  magn= -0.0001
     atom   3 (R=0.715)  charge=  4.8552  magn= -0.0001
     atom   4 (R=0.715)  charge=  4.8904  magn=  0.0000
     atom   5 (R=0.715)  charge=  4.8609  magn=  0.0001
     atom   6 (R=0.715)  charge=  4.8616  magn=  0.0001
     atom   7 (R=0.715)  charge=  7.8276  magn= -0.0001
     atom   8 (R=0.715)  charge=  7.8193  magn=  0.0001
     atom   9 (R=0.715)  charge=  4.8766  magn=  0.0001
     atom  10 (R=0.715)  charge=  4.8485  magn=  0.0000
     atom  11 (R=0.715)  charge=  4.8624  magn=  0.0000
     atom  12 (R=0.715)  charge=  4.8618  magn=  0.0000
     atom  13 (R=0.715)  charge=  7.8170  magn=  0.0000
     atom  14 (R=0.715)  charge=  7.8304  magn= -0.0001
     atom  15 (R=0.715)  charge=  4.8497  magn=  0.0000
     atom  16 (R=0.715)  charge=  4.8722  magn=  0.0000
     atom  17 (R=0.715)  charge=  4.8477  magn=  0.0000
     atom  18 (R=0.715)  charge=  4.8545  magn=  0.0000
     atom  19 (R=0.715)  charge=  7.8557  magn= -0.0001
     atom  20 (R=0.715)  charge=  7.8308  magn= -0.0000
     atom  21 (R=0.715)  charge=  4.7478  magn=  0.0003
     atom  22 (R=0.715)  charge=  4.8258  magn=  0.0000
     atom  23 (R=0.715)  charge=  4.8532  magn= -0.0002
     atom  24 (R=0.715)  charge=  4.8532  magn= -0.0002
     atom  25 (R=0.715)  charge=  7.8451  magn=  0.0016
     atom  26 (R=0.715)  charge=  7.8287  magn= -0.0001
     atom  27 (R=0.715)  charge=  4.8545  magn= -0.0001
     atom  28 (R=0.715)  charge=  4.8906  magn=  0.0000
     atom  29 (R=0.715)  charge=  4.8616  magn=  0.0001
     atom  30 (R=0.715)  charge=  4.8623  magn=  0.0001
     atom  31 (R=0.715)  charge=  7.8277  magn= -0.0001
     atom  32 (R=0.715)  charge=  7.8194  magn=  0.0001
     atom  33 (R=0.715)  charge=  4.8755  magn=  0.0001
     atom  34 (R=0.715)  charge=  4.8372  magn=  0.0000
     atom  35 (R=0.715)  charge=  4.8620  magn=  0.0000
     atom  36 (R=0.715)  charge=  4.8623  magn=  0.0000
     atom  37 (R=0.715)  charge=  7.8195  magn= -0.0000
     atom  38 (R=0.715)  charge=  7.8303  magn= -0.0001
     atom  39 (R=0.715)  charge=  4.8446  magn=  0.0000
     atom  40 (R=0.715)  charge=  4.8784  magn=  0.0000
     atom  41 (R=0.715)  charge=  4.8510  magn=  0.0000
     atom  42 (R=0.715)  charge=  4.8518  magn=  0.0000
     atom  43 (R=0.715)  charge=  7.8536  magn= -0.0001
     atom  44 (R=0.715)  charge=  7.8554  magn= -0.0000
     atom  45 (R=0.715)  charge=  4.7478  magn=  0.0001
     atom  46 (R=0.715)  charge=  4.8532  magn= -0.0002
     atom  47 (R=0.715)  charge=  4.8532  magn= -0.0002
     atom  48 (R=0.423)  charge=  0.4561  magn=  0.0000
     atom  49 (R=0.423)  charge=  1.3578  magn= -0.0000
     atom  50 (R=0.449)  charge=  0.8468  magn=  0.0000
     atom  51 (R=0.423)  charge=  0.4502  magn= -0.0000
     atom  52 (R=0.423)  charge=  0.4496  magn= -0.0000
     atom  53 (R=0.423)  charge=  0.4564  magn= -0.0000

     End of self-consistent calculation

 ------ SPIN UP ------------

          k = 0.0000 0.0000 0.0000 ( 18029 PWs)   bands (ev):

   -55.9981 -55.9887 -55.9640 -55.9526 -55.9036 -55.8389 -55.8388 -55.8045
   -55.8001 -55.7661 -55.7601 -55.7264 -55.5403 -55.2733 -54.9681 -54.9341
   -32.5476 -32.4783 -32.3507 -32.3406 -32.3160 -32.3000 -32.2911 -32.2511
   -32.2386 -32.2365 -32.2124 -32.2050 -32.1712 -32.1504 -32.1406 -32.1348
   -32.1310 -32.1003 -32.0783 -32.0554 -32.0493 -32.0417 -32.0262 -31.9993
   -31.9922 -31.9915 -31.9864 -31.9783 -31.9633 -31.9581 -31.9545 -31.9448
   -31.9366 -31.9296 -31.9132 -31.9073 -31.8726 -31.8095 -31.7112 -31.5480
   -31.5430 -31.4684 -31.3748 -31.2872 -31.2647 -31.1916 -31.1051 -30.9940
   -16.7568 -16.4734 -16.2939 -16.1508 -16.1188 -16.0333 -15.8323 -15.7055
   -15.6935 -15.5898 -15.5567 -15.5302 -15.5233 -15.4980 -15.4923 -15.4315
   -15.4294 -15.4159 -15.4065 -15.3495 -15.3250 -15.2720 -15.1922 -15.1595
   -15.1539 -15.1261 -15.0443 -15.0394 -14.5863 -14.1887 -13.4714 -13.3551
    -8.8983  -4.3665  -4.1279  -3.9536  -3.9150  -3.8987  -3.8487  -3.5949
    -3.5796  -3.3384  -3.2340  -3.1950  -3.1790  -3.1700  -3.1498  -3.1389
    -2.8924  -2.8256  -2.8105  -2.7881  -2.7807  -2.7745  -2.7626  -2.7618
    -2.7222  -2.6591  -2.5339  -2.4971  -2.4208  -2.3837  -2.3516  -2.3059
    -2.2617  -2.2546  -2.2431  -2.2247  -2.2113  -2.1881  -2.1721  -2.0384
    -1.9718  -1.8376  -1.8021  -1.7824  -1.5965  -1.5368  -1.4738  -1.4342
    -1.4212  -1.4142  -1.3825  -1.3008  -1.2104  -1.1535  -1.1424  -1.0872
    -1.0100  -0.9979  -0.8908  -0.8860  -0.8598  -0.7669  -0.7567  -0.7456
    -0.7260  -0.6460  -0.5573  -0.4807  -0.4359  -0.4043  -0.3742  -0.3056
    -0.2755  -0.1722  -0.1578  -0.1090  -0.1045  -0.0627  -0.0174  -0.0082
     0.0007   0.0085   0.0338   0.1762   0.2871   0.3419   0.3817   0.3892
     0.5427   0.5703   0.6673   0.7558   0.9804   1.0531   1.1465   1.2462
     1.3269   1.6239   1.6692   3.1465   3.2238   3.2795   3.2884   3.3910
     3.3965   3.5957   3.6063   3.6190   3.6871

[...]

          k =-0.0760-0.0000 0.0000 ( 17886 PWs)   bands (ev):

[...]

 ------ SPIN DOWN ----------

[...]

          k = 0.0380-0.0419 0.0000 ( 17876 PWs)   bands (ev):

[...]

          k =-0.0760-0.0839 0.0000 ( 17948 PWs)   bands (ev):

   -55.9782 -55.9775 -55.9722 -55.9696 -55.8989 -55.8440 -55.8225 -55.8210
   -55.7838 -55.7820 -55.7442 -55.7432 -55.5395 -55.2743 -54.9516 -54.9514
   -32.3528 -32.3492 -32.2926 -32.2921 -32.2824 -32.2733 -32.2725 -32.2613
   -32.1996 -32.1985 -32.1935 -32.1891 -32.1658 -32.1345 -32.1197 -32.1156
   -32.1026 -32.1001 -32.0971 -32.0964 -32.0948 -32.0838 -32.0815 -32.0499
   -32.0421 -32.0409 -32.0113 -32.0004 -31.9806 -31.9802 -31.9767 -31.9758
   -31.9590 -31.9584 -31.9569 -31.9540 -31.8791 -31.8121 -31.7069 -31.6127
   -31.5450 -31.4930 -31.2778 -31.2777 -31.1882 -31.1880 -31.1488 -31.1487
   -16.2104 -16.1753 -15.9384 -15.9273 -15.9205 -15.9050 -15.7590 -15.7120
   -15.7009 -15.6937 -15.6707 -15.6479 -15.5903 -15.5609 -15.5323 -15.5236
   -15.5176 -15.5154 -15.4536 -15.4484 -15.4254 -15.4185 -15.3047 -15.3009
   -15.2916 -15.2156 -15.1612 -15.0217 -14.7475 -14.2124 -13.4562 -13.4559
    -8.9030  -4.3791  -3.5045  -3.4644  -3.2899  -3.2506  -3.1792  -3.1627
    -3.1385  -3.0701  -2.9061  -2.8892  -2.8779  -2.8626  -2.8204  -2.8141
    -2.8038  -2.7912  -2.7845  -2.7655  -2.7323  -2.6990  -2.6608  -2.6533
    -2.6447  -2.6201  -2.6088  -2.5875  -2.5754  -2.5444  -2.5357  -2.5183
    -2.4887  -2.2288  -2.2084  -2.1968  -2.1247  -2.1181  -2.0845  -2.0673
    -2.0570  -2.0440  -1.9864  -1.8830  -1.7260  -1.6942  -1.6774  -1.6687
    -1.5843  -1.5757  -1.4237  -1.4011  -1.3817  -1.3436  -1.2896  -1.2675
    -1.2277  -1.1683  -1.1522  -1.0876  -1.0704  -1.0118  -0.9565  -0.9548
    -0.9330  -0.8583  -0.7774  -0.7611  -0.7478  -0.7079  -0.6981  -0.6118
    -0.5881  -0.4949  -0.4806  -0.4199  -0.3960  -0.2957  -0.1347  -0.0121
     0.0418   0.0675   0.1253   0.2238   0.2680   0.2791   0.3239   0.3300
     0.3918   0.4321   0.5453   0.5512   0.6260   0.7172   1.2631   1.4183
     1.4189   1.4896   1.4900   3.4100   3.4152   3.4625   3.4919   3.6481
     3.6528   3.6743   3.6755   3.8000   3.8168

     the Fermi energy is     3.1400 ev

!    total energy              =   -2920.42447839 Ry
     estimated scf accuracy    <       0.00000007 Ry
     smearing contrib. (-TS)   =      -0.02203289 Ry
     internal energy E=F+TS    =   -2920.40244549 Ry

     The total energy is F=E-TS. E is the sum of the following terms:
     one-electron contribution =  -24701.80226829 Ry
     hartree contribution      =   12435.49780180 Ry
     xc contribution           =    -480.86924661 Ry
     ewald contribution        =    9826.77038846 Ry
     electric field correction =       0.00087914 Ry

     total magnetization       =     0.00 Bohr mag/cell
     absolute magnetization    =     0.01 Bohr mag/cell

     convergence has been achieved in  72 iterations

     Forces acting on atoms (cartesian axes, Ry/au):

     atom    1 type  1   force =     0.00011139   -0.00026252    0.09689307
     atom    2 type  1   force =     0.00001290   -0.00055678   -0.17507416
     atom    3 type  2   force =     0.00013450   -0.00007811   -0.02546023
     atom    4 type  2   force =    -0.00000603   -0.00137075    0.05232114
     atom    5 type  2   force =    -0.01236153   -0.00013812    0.00302703
     atom    6 type  2   force =     0.01377940    0.00022767    0.00239206
     atom    7 type  1   force =     0.00059527    0.00033365   -0.01266767
     atom    8 type  1   force =     0.00047414    0.00593720    0.03105578
     atom    9 type  2   force =    -0.00033426    0.00024141    0.00039892
     atom   10 type  2   force =    -0.00268996    0.00069543   -0.01623463
     atom   11 type  2   force =    -0.00040914    0.00013406    0.00017264
     atom   12 type  2   force =     0.00012446    0.00013129    0.00020289
     atom   13 type  1   force =    -0.00012577    0.00021793    0.00021275
     atom   14 type  1   force =    -0.00002665   -0.00020261   -0.00013090
     atom   15 type  2   force =     0.00045580    0.00007915    0.00029932
     atom   16 type  2   force =    -0.00005317    0.00027414    0.00023506
     atom   17 type  2   force =     0.00021738   -0.00005752   -0.00008579
     atom   18 type  2   force =     0.00060866   -0.00026338    0.00004445
     atom   19 type  1   force =    -0.00028211    0.00021000    0.00003187
     atom   20 type  1   force =     0.00019076   -0.00009360   -0.00047609
     atom   21 type  2   force =     0.00006529   -0.00005705    0.10310280
     atom   22 type  2   force =    -0.00021797   -0.00000926    0.00030126
     atom   23 type  2   force =    -0.07161217   -0.00016036   -0.02782778
     atom   24 type  2   force =     0.07153649    0.00032525   -0.02788937
     atom   25 type  1   force =     0.00011581   -0.00024042    0.09667231
     atom   26 type  1   force =     0.00012170   -0.00031790   -0.17524510
     atom   27 type  2   force =     0.00013209   -0.00023335   -0.02453728
     atom   28 type  2   force =     0.00002677   -0.00112958    0.05223737
     atom   29 type  2   force =    -0.01248363    0.00014127    0.00268334
     atom   30 type  2   force =     0.01379029    0.00068842    0.00202900
     atom   31 type  1   force =     0.00049874    0.00289516   -0.01338496
     atom   32 type  1   force =     0.00030893   -0.00821610    0.03146597
     atom   33 type  2   force =    -0.00005730   -0.00006482   -0.00011231
     atom   34 type  2   force =    -0.00184579    0.00055981   -0.02454472
     atom   35 type  2   force =    -0.00013278    0.00009248    0.00004606
     atom   36 type  2   force =    -0.00025810    0.00020187    0.00013214
     atom   37 type  1   force =    -0.00005393    0.00027952    0.00024174
     atom   38 type  1   force =    -0.00023702   -0.00003820   -0.00014055
     atom   39 type  2   force =    -0.00009247    0.00024385   -0.00005561
     atom   40 type  2   force =    -0.00016082    0.00026985   -0.00015950
     atom   41 type  2   force =     0.00034936   -0.00009351    0.00037843
     atom   42 type  2   force =     0.00016104    0.00015434    0.00022040
     atom   43 type  1   force =    -0.00041194   -0.00018622    0.00051415
     atom   44 type  1   force =     0.00057311   -0.00008489    0.00003720
     atom   45 type  2   force =     0.00004931   -0.00006418    0.10311620
     atom   46 type  2   force =    -0.07162073   -0.00008617   -0.02782465
     atom   47 type  2   force =     0.07155210    0.00033582   -0.02790149
     atom   48 type  3   force =     0.01258828    0.00085600   -0.00500328
     atom   49 type  4   force =    -0.01909640   -0.00099433    0.00055489
     atom   50 type  5   force =     0.00582126    0.00026775    0.00249047
     atom   51 type  3   force =    -0.00057263   -0.00109756   -0.00022292
     atom   52 type  3   force =     0.00028965    0.00052808    0.00010273
     atom   53 type  3   force =     0.00045742   -0.00022409    0.00136556

     Total force =     0.369157     Total SCF correction =     0.000332
  @ DRIVER MODE: Message from server: STATUS
  @ DRIVER MODE: Message from server: GETFORCE
  @ DRIVER MODE: Returning v,forces,stress,ensemble

     Writing output data file ./calc.save/
  @ DRIVER MODE: Message from server: EXIT
  @ DRIVE MODE: Exiting

     General routines

     Parallel routines

   This run was terminated on:  21:11:24  15Jul2021

   JOB DONE.