     Program PWSCF v.6.7GPU starts on 16Sep2021 at  3:58: 1

     R & G space division:  proc/nbgrp/npool/nimage =      10
     Reading input from /storage/home/hcoda1/3/ntian30/research/carbon/CxH_vib/H2O_calc/ads_slab/CH3NHNH2H2O_a/out_0035/pw.inp
Warning: card &CELL ignored
Warning: card   CELL_DYNAMICS='IPI', ignored
Warning: card / ignored

     Current dimensions of program PWSCF are:
     Max number of different atomic species (ntypx) = 10
     Max number of k-points (npk) =  40000
     Max angular momentum in pseudopotentials (lmaxx) =  3
     Presently no symmetry can be used with electric field

     Message from routine cell_base_init:
     DEPRECATED: use true lattice parameter, not A to a.u. conversion factor

     IMPORTANT: XC functional enforced from input :
     Exchange-correlation= BEEF-VDW
                           (   1   4  43  14   2   0   0)
     Any further DFT definition will be discarded
     Please, verify this is what you really want

  @ DRIVER MODE: Connecting to
 qe_1139763_2852619.sched-torque.pace.gatech.edujvv2voit_scratch
  using UNIX socket
  @ DRIVER MODE: Message from server: STATUS
  @ DRIVER MODE: Message from server: INIT
  @ DRIVER MODE: Receiving replica           0          -1
  @ DRIVER MODE: Receiving encoded integer          25
  @ DRIVER MODE:  SCF:  T  FORCE:  T  STRESS:  F  VC:  F  ENSEMBLE:  F
  @ DRIVER MODE:  SCF:  T  FORCE:  T  STRESS:  F  VC:  F  ENSEMBLE:  F

     Using Slab Decomposition

     bravais-lattice index     =            0
     lattice parameter (alat)  =       1.8897  a.u.
     unit-cell volume          =    6658.9804 (a.u.)^3
     number of atoms/cell      =           59
     number of atomic types    =            5
     number of electrons       =       406.00
     number of Kohn-Sham states=          213
     kinetic-energy cutoff     =      29.3995  Ry
     charge density cutoff     =     293.9946  Ry
     scf convergence threshold =      7.3E-08
     mixing beta               =       0.0500
     number of iterations used =            8  plain     mixing
     Exchange-correlation= BEEF-VDW
                           (   1   4  43  14   2   0   0)

     celldm(1)=   1.889726  celldm(2)=   0.000000  celldm(3)=   0.000000
     celldm(4)=   0.000000  celldm(5)=   0.000000  celldm(6)=   0.000000

     crystal axes: (cart. coord. in units of alat)
               a(1) = (   6.579727   0.000000   0.000000 )
               a(2) = (  -0.000775   5.961596   0.000000 )
               a(3) = (   0.000000   0.000000  25.155947 )

     reciprocal axes: (cart. coord. in units 2 pi/alat)
               b(1) = (  0.151982  0.000020  0.000000 )
               b(2) = (  0.000000  0.167740  0.000000 )
               b(3) = (  0.000000  0.000000  0.039752 )

     PseudoPot. # 1 for Ti read from file:
     /storage/coda1/p-amedford6/0/shared/rich_project_chbe-medford/medford-share/data/pseudos_module/espresso/nninc/pbe/van/Ti.UPF
     MD5 check sum: 8e4df49b7f0d34bbd5052bf3f5ea0213
     Pseudo is Ultrasoft, Zval = 12.0
     Generated by new atomic code, or converted to UPF format
     Using radial grid of  851 points,  6 beta functions with:
                l(1) =   0
                l(2) =   0
                l(3) =   1
                l(4) =   1
                l(5) =   2
                l(6) =   2
     Q(r) pseudized with  8 coefficients,  rinner =    1.000   1.000   1.000
                                                       1.000   1.000

     PseudoPot. # 2 for O  read from file:
     /storage/coda1/p-amedford6/0/shared/rich_project_chbe-medford/medford-share/data/pseudos_module/espresso/nninc/pbe/van/O.UPF
     MD5 check sum: 78c19812648e8988a0fe644b0f25305e
     Pseudo is Ultrasoft, Zval =  6.0
     Generated by new atomic code, or converted to UPF format
     Using radial grid of  737 points,  4 beta functions with:
                l(1) =   0
                l(2) =   0
                l(3) =   1
                l(4) =   1
     Q(r) pseudized with  8 coefficients,  rinner =    0.800   0.800   0.800

     PseudoPot. # 3 for N  read from file:
     /storage/coda1/p-amedford6/0/shared/rich_project_chbe-medford/medford-share/data/pseudos_module/espresso/nninc/pbe/van/N.UPF
     MD5 check sum: 90d10febe142ad51ac9d5be1deb811c4
     Pseudo is Ultrasoft, Zval =  5.0
     Generated by new atomic code, or converted to UPF format
     Using radial grid of  729 points,  4 beta functions with:
                l(1) =   0
                l(2) =   0
                l(3) =   1
                l(4) =   1
     Q(r) pseudized with  8 coefficients,  rinner =    0.800   0.800   0.800

     PseudoPot. # 4 for C  read from file:
     /storage/coda1/p-amedford6/0/shared/rich_project_chbe-medford/medford-share/data/pseudos_module/espresso/nninc/pbe/van/C.UPF
     MD5 check sum: 1a69bf6b8db32088f5b2163dbdb77a27
     Pseudo is Ultrasoft, Zval =  4.0
     Generated by new atomic code, or converted to UPF format
     Using radial grid of  721 points,  4 beta functions with:
                l(1) =   0
                l(2) =   0
                l(3) =   1
                l(4) =   1
     Q(r) pseudized with  8 coefficients,  rinner =    0.800   0.800   0.800

     PseudoPot. # 5 for H  read from file:
     /storage/coda1/p-amedford6/0/shared/rich_project_chbe-medford/medford-share/data/pseudos_module/espresso/nninc/pbe/van/H.UPF
     MD5 check sum: b5ee9d7bfd3a09ee7748110bda690ff7
     Pseudo is Ultrasoft, Zval =  1.0
     Generated by new atomic code, or converted to UPF format
     Using radial grid of  615 points,  1 beta functions with:
                l(1) =   0
     Q(r) pseudized with  8 coefficients,  rinner =    0.800

     atomic species   valence    mass     pseudopotential
        Ti1           12.00    47.86700     Ti( 1.00)
        O1             6.00    15.99900     O ( 1.00)
        N1             5.00    14.00700     N ( 1.00)
        C1             4.00    12.01100     C ( 1.00)
        H1             1.00     1.00800     H ( 1.00)

     No symmetry found

   Cartesian axes

     site n.     atom                  positions (alat units)
         1           Ti1 tau(   1) = (   0.0004258   2.9801865   6.0000000  )
         2           Ti1 tau(   2) = (   3.2906075   1.4906267   6.0002472  )
         3           O1  tau(   3) = (   0.0006271   0.0005054   7.9858123  )
         4           O1  tau(   4) = (   3.2906025   0.0005020   7.3038282  )
         5           O1  tau(   5) = (   4.5942328   1.4918067   9.2879030  )
         6           O1  tau(   6) = (   1.9868534   1.4903216   9.2879459  )
         7           Ti1 tau(   7) = (   3.2907910   2.8959150   9.1758416  )
         8           Ti1 tau(   8) = (   0.0015273   1.4827037   9.2680791  )
         9           O1  tau(   9) = (   3.2683845   0.0132936  11.3796717  )
        10           O1  tau(  10) = (   0.0116148   5.9584955  10.6183126  )
        11           O1  tau(  11) = (   1.2681313   1.5011218  12.7194972  )
        12           O1  tau(  12) = (   5.2787963   1.4993765  12.6897032  )
        13           Ti1 tau(  13) = (   6.5560253   2.9823375  12.4990790  )
        14           Ti1 tau(  14) = (   3.2673924   1.4925278  12.5394213  )
        15           O1  tau(  15) = (   6.5345332   5.8735037  14.6996474  )
        16           O1  tau(  16) = (   3.2898196   5.9462848  13.9939205  )
        17           O1  tau(  17) = (   4.4957945   1.5291507  16.1605787  )
        18           O1  tau(  18) = (   1.9883785   1.5110281  16.0762771  )
        19           Ti1 tau(  19) = (   3.2526948   3.0056396  15.7740191  )
        20           Ti1 tau(  20) = (   0.0000763   1.3299063  15.8143521  )
        21           O1  tau(  21) = (   3.2904802   0.0005063   4.7018136  )
        22           O1  tau(  22) = (   6.5205728   0.2065101  17.2442985  )
        23           O1  tau(  23) = (   1.3043587   1.4918075   6.0039043  )
        24           O1  tau(  24) = (   5.2767064   1.4903225   6.0039473  )
        25           Ti1 tau(  25) = (   0.0000382   5.9609847   6.0000000  )
        26           Ti1 tau(  26) = (   3.2902200   4.4714249   6.0002472  )
        27           O1  tau(  27) = (   0.0002396   2.9813036   7.9858123  )
        28           O1  tau(  28) = (   3.2902150   2.9813002   7.3038282  )
        29           O1  tau(  29) = (   4.5938453   4.4726049   9.2879030  )
        30           O1  tau(  30) = (   1.9864658   4.4711199   9.2879459  )
        31           Ti1 tau(  31) = (   3.2891106   5.8743827   9.1763621  )
        32           Ti1 tau(  32) = (   0.0006254   4.4649316   9.2693709  )
        33           O1  tau(  33) = (   3.2688559   2.9716192  11.3757022  )
        34           O1  tau(  34) = (   0.0092240   2.9805883  10.6323155  )
        35           O1  tau(  35) = (   1.2711362   4.4646907  12.6658965  )
        36           O1  tau(  36) = (   5.2748280   4.4660984  12.6332574  )
        37           Ti1 tau(  37) = (   6.5627654   5.9477838  12.5072267  )
        38           Ti1 tau(  38) = (   3.2667511   4.4702655  12.5260729  )
        39           O1  tau(  39) = (   6.5087961   3.0586107  15.0099536  )
        40           O1  tau(  40) = (   3.2849776   3.0149387  13.9815115  )
        41           O1  tau(  41) = (   4.4906635   4.4862850  16.2792570  )
        42           O1  tau(  42) = (   1.9756856   4.4939852  16.2100911  )
        43           Ti1 tau(  43) = (   3.2747729   0.0241646  15.7895078  )
        44           Ti1 tau(  44) = (   6.5697470   4.5456975  16.1185117  )
        45           O1  tau(  45) = (   3.2900926   2.9813045   4.7018136  )
        46           O1  tau(  46) = (   1.3039711   4.4726057   6.0039043  )
        47           O1  tau(  47) = (   5.2763189   4.4711207   6.0039473  )
        48           N1  tau(  48) = (   0.9980056   3.0961469  19.0053282  )
        49           N1  tau(  49) = (   6.4063515   3.4839273  18.2229180  )
        50           C1  tau(  50) = (   1.6570833   4.2684698  19.5811903  )
        51           H1  tau(  51) = (   0.9936588   4.8902639  20.1979557  )
        52           H1  tau(  52) = (   2.4789334   3.9063689  20.1993048  )
        53           H1  tau(  53) = (   2.0598354   4.8861676  18.7719781  )
        54           H1  tau(  54) = (   0.6510520   2.5058952  19.7602174  )
        55           H1  tau(  55) = (   5.8507131   4.1735594  18.7414995  )
        56           H1  tau(  56) = (   5.8147758   2.6545292  18.1916272  )
        57           O1  tau(  57) = (   5.1718451   0.7889162  19.5681371  )
        58           H1  tau(  58) = (   5.5516362   0.5215711  18.6954158  )
        59           H1  tau(  59) = (   4.2099197   0.7512590  19.4668632  )

     number of k points=    10  Fermi-Dirac smearing, width (Ry)=  0.0073
                       cart. coord. in units 2pi/alat
        k(    1) = (   0.0000000   0.0000000   0.0000000), wk =   0.1250000
        k(    2) = (   0.0000000   0.0419351   0.0000000), wk =   0.2500000
        k(    3) = (   0.0000000  -0.0838702   0.0000000), wk =   0.1250000
        k(    4) = (   0.0379955   0.0000049   0.0000000), wk =   0.2500000
        k(    5) = (   0.0379955   0.0419400   0.0000000), wk =   0.2500000
        k(    6) = (   0.0379955  -0.0838652   0.0000000), wk =   0.2500000
        k(    7) = (   0.0379955  -0.0419301   0.0000000), wk =   0.2500000
        k(    8) = (  -0.0759910  -0.0000099   0.0000000), wk =   0.1250000
        k(    9) = (  -0.0759910   0.0419252   0.0000000), wk =   0.2500000
        k(   10) = (  -0.0759910  -0.0838800   0.0000000), wk =   0.1250000

     Initial potential from superposition of free atoms

     starting charge  389.99912, renormalised to  406.00000

     negative rho (up, down):  1.389E-02 0.000E+00

     %%%%%%%%%%%%%%%%%%%%%%%%%%%%%%%%%%%%%%%%%%%%%%%%%%%%%%%%%%%%%%%%%%%%%%%%
     %                                                                      %
     % You are using vdW-DF, which was implemented by the Thonhauser group. %
     % Please cite the following two papers that made this development      %
     % possible and the two reviews that describe the various versions:     %
     %                                                                      %
     %   T. Thonhauser et al., PRL 115, 136402 (2015).                      %
     %   T. Thonhauser et al., PRB 76, 125112 (2007).                       %
     %   K. Berland et al., Rep. Prog. Phys. 78, 066501 (2015).             %
     %   D.C. Langreth et al., J. Phys.: Condens. Matter 21, 084203 (2009). %
     %                                                                      %
     %                                                                      %
     % If you are calculating the stress with vdW-DF, please also cite:     %
     %                                                                      %
     %   R. Sabatini et al., J. Phys.: Condens. Matter 24, 424209 (2012).   %
     %                                                                      %
     %%%%%%%%%%%%%%%%%%%%%%%%%%%%%%%%%%%%%%%%%%%%%%%%%%%%%%%%%%%%%%%%%%%%%%%%

     Adding external electric field

     Computed dipole along edir(3) :
        Dipole              -16.7169 Ry au,        -42.4900 Debye
        Dipole field         -0.0315 Ry au,

        Potential amp.        2.9244 Ry
        Total length         46.3494 bohr

     Starting wfcs are  308 atomic wfcs
  @ DRIVER MODE: Message from server: STATUS
  @ DRIVER MODE: Message from server: POSDATA
  @ DRIVER MODE: Reading and sharing cell
  @ DRIVER MODE: Reading and sharing positions
  @ DRIVER MODE: Received positions

     Self-consistent Calculation

     iteration #  1     ecut=    29.40 Ry     beta= 0.05
     Davidson diagonalization with overlap
     c_bands:  2 eigenvalues not converged
     c_bands:  3 eigenvalues not converged
     c_bands:  2 eigenvalues not converged
     c_bands:  4 eigenvalues not converged
     c_bands:  1 eigenvalues not converged
     c_bands:  4 eigenvalues not converged
     c_bands:  3 eigenvalues not converged
     c_bands:  5 eigenvalues not converged
     c_bands:  3 eigenvalues not converged
     ethr =  1.00E-05,  avg # of iterations = 24.8

[...]

     total energy              =   -2136.66736974 Ry
     estimated scf accuracy    <    9692.80883610 Ry

     iteration #  2     ecut=    29.40 Ry     beta= 0.05
     Davidson diagonalization with overlap
     ethr =  1.00E-02,  avg # of iterations = 33.1

[...]

     iteration # 81     ecut=    29.40 Ry     beta= 0.05
     Davidson diagonalization with overlap
     c_bands:  1 eigenvalues not converged
     ethr =  1.92E-11,  avg # of iterations =  3.7

[...]

     total energy              =   -2977.68378608 Ry
     estimated scf accuracy    <       0.00000008 Ry

     iteration # 82     ecut=    29.40 Ry     beta= 0.05
     Davidson diagonalization with overlap
     ethr =  1.92E-11,  avg # of iterations = 10.0

     negative rho (up, down):  1.439E-02 0.000E+00

     Adding external electric field

     Computed dipole along edir(3) :
        Dipole                1.0190 Ry au,          2.5900 Debye
        Dipole field          0.0019 Ry au,

        Potential amp.       -0.1783 Ry
        Total length         46.3494 bohr

     End of self-consistent calculation

          k = 0.0000 0.0000 0.0000 ( 18029 PWs)   bands (ev):

   -55.3599 -55.3227 -55.3103 -55.2928 -55.2762 -55.2408 -55.2392 -55.2042
   -55.1830 -55.1818 -55.1486 -55.1427 -55.1090 -55.0179 -54.3425 -54.3084
   -31.9263 -31.8084 -31.8033 -31.7278 -31.6763 -31.6723 -31.6722 -31.6491
   -31.5992 -31.5953 -31.5721 -31.5696 -31.5554 -31.5390 -31.5301 -31.5269
   -31.5144 -31.5072 -31.4969 -31.4792 -31.4644 -31.4629 -31.4353 -31.4246
   -31.4176 -31.4136 -31.3927 -31.3856 -31.3693 -31.3675 -31.3629 -31.3541
   -31.3418 -31.3409 -31.3321 -31.3295 -31.2966 -31.2935 -31.2710 -31.2539
   -31.2301 -31.2279 -30.7520 -30.6574 -30.6354 -30.5683 -30.4815 -30.3707
   -18.0021 -17.6350 -16.1936 -15.9329 -15.7874 -15.6589 -15.5613 -15.4331
   -15.4138 -15.2919 -15.2217 -15.1176 -15.0668 -15.0486 -15.0126 -15.0024
   -14.9790 -14.9086 -14.9024 -14.8884 -14.8646 -14.8556 -14.8097 -14.8018
   -14.7606 -14.7361 -14.7119 -14.6131 -14.5230 -14.4481 -14.3402 -13.1508
   -12.8451 -12.7276  -9.3919  -6.3152  -5.8744  -5.7376  -4.2513  -3.5321
    -3.3834  -3.3145  -3.2784  -3.2529  -3.1195  -2.9614  -2.9173  -2.8066
    -2.7877  -2.6785  -2.6440  -2.5735  -2.5558  -2.5415  -2.3954  -2.3727
    -2.3470  -2.2812  -2.2537  -2.1876  -2.1655  -2.1549  -2.1451  -2.1221
    -2.0942  -2.0499  -1.9919  -1.9336  -1.8404  -1.8147  -1.7644  -1.7346
    -1.7139  -1.6970  -1.6513  -1.6402  -1.6009  -1.5864  -1.5666  -1.5520
    -1.3889  -1.3661  -1.2646  -1.2031  -1.1040  -1.0002  -0.9645  -0.9500
    -0.8530  -0.8340  -0.7811  -0.7407  -0.7380  -0.7036  -0.5917  -0.5290
    -0.4767  -0.4132  -0.3902  -0.3504  -0.2825  -0.1991  -0.1433  -0.1293
    -0.1124  -0.0957   0.0132   0.0253   0.0772   0.1520   0.1615   0.1677
     0.2416   0.2979   0.3681   0.3931   0.4107   0.5158   0.5315   0.5637
     0.5695   0.5993   0.6202   0.6452   0.7053   0.7356   0.8188   0.9405
     1.1326   1.2217   1.2490   1.3634   1.5720   1.5846   1.6803   1.8634
     2.2566   2.3050   3.7372   3.8083   3.8831   3.8871   3.9097   3.9735
     4.2102   4.2275   4.2421   4.2458   4.2698

[...]

          k = 0.0380-0.0419 0.0000 ( 17876 PWs)   bands (ev):

[...]

          k =-0.0760-0.0000 0.0000 ( 17886 PWs)   bands (ev):

[...]

          k =-0.0760-0.0839 0.0000 ( 17948 PWs)   bands (ev):

   -55.3462 -55.3361 -55.2934 -55.2930 -55.2915 -55.2336 -55.2288 -55.2162
   -55.1873 -55.1670 -55.1642 -55.1262 -55.1256 -55.0190 -54.3256 -54.3252
   -31.7343 -31.7264 -31.7240 -31.6400 -31.6202 -31.6185 -31.6182 -31.5845
   -31.5844 -31.5735 -31.5593 -31.5581 -31.5514 -31.5312 -31.5197 -31.5063
   -31.4999 -31.4967 -31.4952 -31.4938 -31.4870 -31.4795 -31.4472 -31.4396
   -31.4366 -31.4364 -31.4225 -31.4174 -31.4131 -31.4127 -31.4073 -31.3998
   -31.3974 -31.3801 -31.3770 -31.3748 -31.3600 -31.3568 -31.3070 -31.3067
   -31.3003 -31.2339 -30.6482 -30.6479 -30.5646 -30.5644 -30.5250 -30.5249
   -17.9904 -17.6437 -15.6740 -15.5891 -15.5682 -15.4132 -15.3615 -15.3350
   -15.3241 -15.2086 -15.1661 -15.1474 -15.1324 -15.1105 -15.0724 -15.0628
   -15.0559 -14.9928 -14.9725 -14.9636 -14.9377 -14.8838 -14.8763 -14.8682
   -14.8605 -14.8105 -14.8067 -14.7668 -14.7160 -14.7125 -14.6364 -13.1570
   -12.8291 -12.8291  -9.3969  -6.3378  -5.9020  -5.6556  -4.2293  -2.9308
    -2.8471  -2.8360  -2.8296  -2.6831  -2.6264  -2.5507  -2.5288  -2.5064
    -2.4211  -2.4094  -2.3787  -2.3535  -2.3231  -2.2848  -2.2464  -2.2406
    -2.2044  -2.1960  -2.1801  -2.1635  -2.1420  -2.1265  -2.0928  -2.0821
    -2.0685  -2.0243  -1.9985  -1.9844  -1.9633  -1.9430  -1.9350  -1.9165
    -1.8413  -1.7514  -1.7270  -1.6415  -1.5724  -1.5706  -1.5645  -1.5028
    -1.4593  -1.4209  -1.3958  -1.3788  -1.2391  -1.1677  -1.1240  -1.1099
    -1.0951  -0.9644  -0.9578  -0.8819  -0.8595  -0.8531  -0.7594  -0.7149
    -0.6765  -0.6696  -0.5829  -0.5707  -0.4946  -0.3965  -0.3744  -0.3606
    -0.3155  -0.3137  -0.2763  -0.2634  -0.1670  -0.1314  -0.1075  -0.0976
    -0.0806  -0.0394   0.1116   0.1606   0.1671   0.3003   0.3320   0.4704
     0.5005   0.5646   0.6444   0.6931   0.7456   0.7784   0.8652   0.9397
     0.9428   1.0061   1.0217   1.0878   1.1000   1.3683   2.0364   2.0370
     2.1248   2.1252   3.8851   4.0002   4.0038   4.0330   4.1553   4.1786
     4.2549   4.2824   4.3217   4.3250   4.3834

     the Fermi energy is     3.8012 ev

!    total energy              =   -2977.68379936 Ry
     estimated scf accuracy    <       0.00000003 Ry
     smearing contrib. (-TS)   =      -0.03717739 Ry
     internal energy E=F+TS    =   -2977.64662197 Ry

     The total energy is F=E-TS. E is the sum of the following terms:
     one-electron contribution =  -22682.28880581 Ry
     hartree contribution      =   11438.51021848 Ry
     xc contribution           =    -496.61033834 Ry
     ewald contribution        =    8762.74034420 Ry
     electric field correction =       0.00195949 Ry

     convergence has been achieved in  82 iterations

     Forces acting on atoms (cartesian axes, Ry/au):

     atom    1 type  1   force =     0.00023820   -0.00037928    0.09320701
     atom    2 type  1   force =     0.00002035   -0.00038700   -0.17819133
     atom    3 type  2   force =     0.00004887   -0.00041491   -0.02001956
     atom    4 type  2   force =     0.00001187   -0.00190391    0.05911962
     atom    5 type  2   force =    -0.01035127   -0.00059298    0.00860875
     atom    6 type  2   force =     0.01129966    0.00009756    0.00628031
     atom    7 type  1   force =    -0.00096237    0.00197824   -0.01427765
     atom    8 type  1   force =     0.00097724   -0.00256110   -0.00598707
     atom    9 type  2   force =     0.00016738   -0.00001328    0.00007940
     atom   10 type  2   force =    -0.00230947    0.00309700    0.00260939
     atom   11 type  2   force =     0.00041949   -0.00042478   -0.00057502
     atom   12 type  2   force =     0.00003476   -0.00040554   -0.00057998
     atom   13 type  1   force =     0.00033368   -0.00028012   -0.00018395
     atom   14 type  1   force =     0.00005194   -0.00008680   -0.00005403
     atom   15 type  2   force =     0.00000246    0.00060280   -0.00006179
     atom   16 type  2   force =     0.00030716    0.00027504   -0.00013492
     atom   17 type  2   force =     0.00039012    0.00024469    0.00036314
     atom   18 type  2   force =    -0.00051662    0.00020468   -0.00009789
     atom   19 type  1   force =    -0.00011364    0.00004816    0.00031374
     atom   20 type  1   force =    -0.00009514   -0.00013107    0.00062768
     atom   21 type  2   force =     0.00012006   -0.00011341    0.10403448
     atom   22 type  2   force =     0.00015187   -0.00026111    0.00049018
     atom   23 type  2   force =    -0.07028440   -0.00019626   -0.02686952
     atom   24 type  2   force =     0.07026967    0.00024944   -0.02687200
     atom   25 type  1   force =     0.00017678   -0.00030077    0.09239649
     atom   26 type  1   force =     0.00005813   -0.00054718   -0.17851437
     atom   27 type  2   force =     0.00008144   -0.00021440   -0.01908317
     atom   28 type  2   force =     0.00005898   -0.00173211    0.05853579
     atom   29 type  2   force =    -0.01102257   -0.00114109    0.00944405
     atom   30 type  2   force =     0.01187994   -0.00069756    0.00722650
     atom   31 type  1   force =    -0.00087898    0.00646386   -0.01493481
     atom   32 type  1   force =     0.00101970    0.00220780   -0.00637833
     atom   33 type  2   force =     0.00025819    0.00009356    0.00001197
     atom   34 type  2   force =    -0.00214622   -0.00243880   -0.00031542
     atom   35 type  2   force =     0.00027709    0.00012284   -0.00001343
     atom   36 type  2   force =     0.00025851    0.00003422    0.00050520
     atom   37 type  1   force =    -0.00010227    0.00002577   -0.00003506
     atom   38 type  1   force =     0.00015270   -0.00007463    0.00000371
     atom   39 type  2   force =    -0.00010282   -0.00021206    0.00040217
     atom   40 type  2   force =    -0.00014255    0.00008601    0.00004341
     atom   41 type  2   force =    -0.00043719    0.00014147    0.00026322
     atom   42 type  2   force =     0.00024880   -0.00010070   -0.00018802
     atom   43 type  1   force =     0.00042203    0.00032806   -0.00005622
     atom   44 type  1   force =    -0.00006602   -0.00015286    0.00001128
     atom   45 type  2   force =     0.00012584   -0.00010956    0.10396819
     atom   46 type  2   force =    -0.07025785   -0.00013036   -0.02681330
     atom   47 type  2   force =     0.07024657    0.00027867   -0.02687626
     atom   48 type  3   force =    -0.00046136   -0.00041756    0.00016892
     atom   49 type  3   force =     0.00030225    0.00008695   -0.00073629
     atom   50 type  4   force =     0.00237433    0.00398051   -0.00756841
     atom   51 type  5   force =    -0.00049682    0.00069713   -0.00006615
     atom   52 type  5   force =     0.00067404    0.00025171   -0.00004971
     atom   53 type  5   force =    -0.00286105   -0.00402397    0.00730717
     atom   54 type  5   force =    -0.00000797   -0.00029373   -0.00001985
     atom   55 type  5   force =     0.00031583    0.00037083   -0.00028766
     atom   56 type  5   force =    -0.00034314   -0.00082179    0.00058412
     atom   57 type  2   force =    -0.00100067   -0.00063436    0.00083530
     atom   58 type  5   force =     0.00008053   -0.00026451   -0.00015756
     atom   59 type  5   force =     0.00110395    0.00049259   -0.00144248

     Total force =     0.366507     Total SCF correction =     0.000459
  @ DRIVER MODE: Message from server: STATUS
  @ DRIVER MODE: Message from server: GETFORCE
  @ DRIVER MODE: Returning v,forces,stress,ensemble

     Writing output data file ./calc.save/
  @ DRIVER MODE: Message from server: EXIT
  @ DRIVE MODE: Exiting

     General routines

     Parallel routines

   This run was terminated on:   4:21:43  16Sep2021

   JOB DONE.