     Program PWSCF v.6.7GPU starts on  2Aug2021 at 12:54:11

     R & G space division:  proc/nbgrp/npool/nimage =      16
     Reading input from /storage/home/hcoda1/3/ntian30/research/carbon/02Aug_vib_paired/ads_slab/CH3NN_a/out_0003/pw.inp
Warning: card &CELL ignored
Warning: card   CELL_DYNAMICS='IPI', ignored
Warning: card / ignored

     Current dimensions of program PWSCF are:
     Max number of different atomic species (ntypx) = 10
     Max number of k-points (npk) =  40000
     Max angular momentum in pseudopotentials (lmaxx) =  3
     Presently no symmetry can be used with electric field

     Message from routine cell_base_init:
     DEPRECATED: use true lattice parameter, not A to a.u. conversion factor

     IMPORTANT: XC functional enforced from input :
     Exchange-correlation= BEEF-VDW
                           (   1   4  43  14   2   0   0)
     Any further DFT definition will be discarded
     Please, verify this is what you really want

  @ DRIVER MODE: Connecting to
 qe_1139763_2482546.sched-torque.pace.gatech.edugl1ywfq9_scratch
  using UNIX socket
  @ DRIVER MODE: Message from server: STATUS
  @ DRIVER MODE: Message from server: INIT
  @ DRIVER MODE: Receiving replica           0          -1
  @ DRIVER MODE: Receiving encoded integer          25
  @ DRIVER MODE:  SCF:  T  FORCE:  T  STRESS:  F  VC:  F  ENSEMBLE:  F
  @ DRIVER MODE:  SCF:  T  FORCE:  T  STRESS:  F  VC:  F  ENSEMBLE:  F

     Using Slab Decomposition

     bravais-lattice index     =            0
     lattice parameter (alat)  =       1.8897  a.u.
     unit-cell volume          =    6658.9804 (a.u.)^3
     number of atoms/cell      =           53
     number of atomic types    =            5
     number of electrons       =       395.00
     number of Kohn-Sham states=          207
     kinetic-energy cutoff     =      29.3995  Ry
     charge density cutoff     =     293.9946  Ry
     scf convergence threshold =      7.3E-08
     mixing beta               =       0.0500
     number of iterations used =            8  plain     mixing
     Exchange-correlation= BEEF-VDW
                           (   1   4  43  14   2   0   0)

     celldm(1)=   1.889726  celldm(2)=   0.000000  celldm(3)=   0.000000
     celldm(4)=   0.000000  celldm(5)=   0.000000  celldm(6)=   0.000000

     crystal axes: (cart. coord. in units of alat)
               a(1) = (   6.579727   0.000000   0.000000 )
               a(2) = (  -0.000775   5.961596   0.000000 )
               a(3) = (   0.000000   0.000000  25.155947 )

     reciprocal axes: (cart. coord. in units 2 pi/alat)
               b(1) = (  0.151982  0.000020  0.000000 )
               b(2) = (  0.000000  0.167740  0.000000 )
               b(3) = (  0.000000  0.000000  0.039752 )

     PseudoPot. # 1 for Ti read from file:
     /storage/coda1/p-amedford6/0/shared/rich_project_chbe-medford/medford-share/data/pseudos_module/espresso/nninc/pbe/van/Ti.UPF
     MD5 check sum: 8e4df49b7f0d34bbd5052bf3f5ea0213
     Pseudo is Ultrasoft, Zval = 12.0
     Generated by new atomic code, or converted to UPF format
     Using radial grid of  851 points,  6 beta functions with:
                l(1) =   0
                l(2) =   0
                l(3) =   1
                l(4) =   1
                l(5) =   2
                l(6) =   2
     Q(r) pseudized with  8 coefficients,  rinner =    1.000   1.000   1.000
                                                       1.000   1.000

     PseudoPot. # 2 for O  read from file:
     /storage/coda1/p-amedford6/0/shared/rich_project_chbe-medford/medford-share/data/pseudos_module/espresso/nninc/pbe/van/O.UPF
     MD5 check sum: 78c19812648e8988a0fe644b0f25305e
     Pseudo is Ultrasoft, Zval =  6.0
     Generated by new atomic code, or converted to UPF format
     Using radial grid of  737 points,  4 beta functions with:
                l(1) =   0
                l(2) =   0
                l(3) =   1
                l(4) =   1
     Q(r) pseudized with  8 coefficients,  rinner =    0.800   0.800   0.800

     PseudoPot. # 3 for N  read from file:
     /storage/coda1/p-amedford6/0/shared/rich_project_chbe-medford/medford-share/data/pseudos_module/espresso/nninc/pbe/van/N.UPF
     MD5 check sum: 90d10febe142ad51ac9d5be1deb811c4
     Pseudo is Ultrasoft, Zval =  5.0
     Generated by new atomic code, or converted to UPF format
     Using radial grid of  729 points,  4 beta functions with:
                l(1) =   0
                l(2) =   0
                l(3) =   1
                l(4) =   1
     Q(r) pseudized with  8 coefficients,  rinner =    0.800   0.800   0.800

     PseudoPot. # 4 for C  read from file:
     /storage/coda1/p-amedford6/0/shared/rich_project_chbe-medford/medford-share/data/pseudos_module/espresso/nninc/pbe/van/C.UPF
     MD5 check sum: 1a69bf6b8db32088f5b2163dbdb77a27
     Pseudo is Ultrasoft, Zval =  4.0
     Generated by new atomic code, or converted to UPF format
     Using radial grid of  721 points,  4 beta functions with:
                l(1) =   0
                l(2) =   0
                l(3) =   1
                l(4) =   1
     Q(r) pseudized with  8 coefficients,  rinner =    0.800   0.800   0.800

     PseudoPot. # 5 for H  read from file:
     /storage/coda1/p-amedford6/0/shared/rich_project_chbe-medford/medford-share/data/pseudos_module/espresso/nninc/pbe/van/H.UPF
     MD5 check sum: b5ee9d7bfd3a09ee7748110bda690ff7
     Pseudo is Ultrasoft, Zval =  1.0
     Generated by new atomic code, or converted to UPF format
     Using radial grid of  615 points,  1 beta functions with:
                l(1) =   0
     Q(r) pseudized with  8 coefficients,  rinner =    0.800

     atomic species   valence    mass     pseudopotential
        Ti1           12.00    47.86700     Ti( 1.00)
        O1             6.00    15.99900     O ( 1.00)
        N1             5.00    14.00700     N ( 1.00)
        C1             4.00    12.01100     C ( 1.00)
        H1             1.00     1.00800     H ( 1.00)

     No symmetry found

   Cartesian axes

     site n.     atom                  positions (alat units)
         1           Ti1 tau(   1) = (   0.0004258   2.9801865   6.0000000  )
         2           Ti1 tau(   2) = (   3.2906075   1.4906267   6.0002472  )
         3           O1  tau(   3) = (   0.0006271   0.0005054   7.9858123  )
         4           O1  tau(   4) = (   3.2906025   0.0005020   7.3038282  )
         5           O1  tau(   5) = (   4.5942328   1.4918067   9.2879030  )
         6           O1  tau(   6) = (   1.9868534   1.4903216   9.2879459  )
         7           Ti1 tau(   7) = (   3.2907910   2.8959150   9.1758416  )
         8           Ti1 tau(   8) = (   0.0015273   1.4827037   9.2680791  )
         9           O1  tau(   9) = (   3.2935944   5.9504131  11.3331737  )
        10           O1  tau(  10) = (   0.0116148   5.9584955  10.6183126  )
        11           O1  tau(  11) = (   1.3139784   1.4900993  12.6222913  )
        12           O1  tau(  12) = (   5.2991156   1.4868386  12.6236412  )
        13           Ti1 tau(  13) = (   6.5257823   2.9641578  12.6501544  )
        14           Ti1 tau(  14) = (   3.2087869   1.4768241  12.4812772  )
        15           O1  tau(  15) = (   0.0069532   0.0155221  14.6013729  )
        16           O1  tau(  16) = (   3.2989757   5.9447163  13.9218705  )
        17           O1  tau(  17) = (   4.5399408   1.4684032  16.0509043  )
        18           O1  tau(  18) = (   2.0534050   1.4785924  16.0487376  )
        19           Ti1 tau(  19) = (   3.3071538   2.9600697  15.7031993  )
        20           Ti1 tau(  20) = (   0.0179100   1.3679571  15.8029155  )
        21           O1  tau(  21) = (   3.2904802   0.0005063   4.7018136  )
        22           O1  tau(  22) = (   0.0297737   0.0076327  17.1327444  )
        23           O1  tau(  23) = (   1.3043587   1.4918075   6.0039043  )
        24           O1  tau(  24) = (   5.2767064   1.4903225   6.0039473  )
        25           Ti1 tau(  25) = (   0.0000382   5.9609847   6.0000000  )
        26           Ti1 tau(  26) = (   3.2902200   4.4714249   6.0002472  )
        27           O1  tau(  27) = (   0.0002396   2.9813036   7.9858123  )
        28           O1  tau(  28) = (   3.2902150   2.9813002   7.3038282  )
        29           O1  tau(  29) = (   4.5938453   4.4726049   9.2879030  )
        30           O1  tau(  30) = (   1.9864658   4.4711199   9.2879459  )
        31           Ti1 tau(  31) = (   3.2891106   5.8743827   9.1763621  )
        32           Ti1 tau(  32) = (   0.0006254   4.4649316   9.2693709  )
        33           O1  tau(  33) = (   3.2925666   2.9731923  11.3325550  )
        34           O1  tau(  34) = (   0.0092240   2.9805883  10.6323155  )
        35           O1  tau(  35) = (   1.3076969   4.4692784  12.6256357  )
        36           O1  tau(  36) = (   5.2992390   4.4652990  12.6273021  )
        37           Ti1 tau(  37) = (   6.5214685   5.9362284  12.5385417  )
        38           Ti1 tau(  38) = (   3.2054519   4.4560432  12.4842663  )
        39           O1  tau(  39) = (   0.0022752   2.9713357  14.7092999  )
        40           O1  tau(  40) = (   3.3007181   2.9764241  13.9083417  )
        41           O1  tau(  41) = (   4.5485645   4.4411382  16.0917119  )
        42           O1  tau(  42) = (   2.0537992   4.4371030  16.0853891  )
        43           Ti1 tau(  43) = (   3.2976414   5.9412218  15.7196561  )
        44           Ti1 tau(  44) = (   0.0123595   4.4653852  16.1631357  )
        45           O1  tau(  45) = (   3.2900926   2.9813045   4.7018136  )
        46           O1  tau(  46) = (   1.3039711   4.4726057   6.0039043  )
        47           O1  tau(  47) = (   5.2763189   4.4711207   6.0039473  )
        48           N1  tau(  48) = (   0.6591532   2.9790904  22.3781942  )
        49           C1  tau(  49) = (   6.5648715   3.0365617  17.8347222  )
        50           H1  tau(  50) = (   6.0219261   3.7962297  18.4082231  )
        51           H1  tau(  51) = (   6.0207922   2.1139738  18.0322221  )
        52           H1  tau(  52) = (   0.9815245   2.9432023  18.2699478  )
        53           N1  tau(  53) = (   6.1995506   3.0156182  22.7499213  )

     number of k points=    10  Fermi-Dirac smearing, width (Ry)=  0.0073
                       cart. coord. in units 2pi/alat
        k(    1) = (   0.0000000   0.0000000   0.0000000), wk =   0.1250000
        k(    2) = (   0.0000000   0.0419351   0.0000000), wk =   0.2500000
        k(    3) = (   0.0000000  -0.0838702   0.0000000), wk =   0.1250000
        k(    4) = (   0.0379955   0.0000049   0.0000000), wk =   0.2500000
        k(    5) = (   0.0379955   0.0419400   0.0000000), wk =   0.2500000
        k(    6) = (   0.0379955  -0.0838652   0.0000000), wk =   0.2500000
        k(    7) = (   0.0379955  -0.0419301   0.0000000), wk =   0.2500000
        k(    8) = (  -0.0759910  -0.0000099   0.0000000), wk =   0.1250000
        k(    9) = (  -0.0759910   0.0419252   0.0000000), wk =   0.2500000
        k(   10) = (  -0.0759910  -0.0838800   0.0000000), wk =   0.1250000

     Initial potential from superposition of free atoms

     starting charge  378.99916, renormalised to  395.00000

     negative rho (up, down):  1.028E-02 0.000E+00

     %%%%%%%%%%%%%%%%%%%%%%%%%%%%%%%%%%%%%%%%%%%%%%%%%%%%%%%%%%%%%%%%%%%%%%%%
     %                                                                      %
     % You are using vdW-DF, which was implemented by the Thonhauser group. %
     % Please cite the following two papers that made this development      %
     % possible and the two reviews that describe the various versions:     %
     %                                                                      %
     %   T. Thonhauser et al., PRL 115, 136402 (2015).                      %
     %   T. Thonhauser et al., PRB 76, 125112 (2007).                       %
     %   K. Berland et al., Rep. Prog. Phys. 78, 066501 (2015).             %
     %   D.C. Langreth et al., J. Phys.: Condens. Matter 21, 084203 (2009). %
     %                                                                      %
     %                                                                      %
     % If you are calculating the stress with vdW-DF, please also cite:     %
     %                                                                      %
     %   R. Sabatini et al., J. Phys.: Condens. Matter 24, 424209 (2012).   %
     %                                                                      %
     %%%%%%%%%%%%%%%%%%%%%%%%%%%%%%%%%%%%%%%%%%%%%%%%%%%%%%%%%%%%%%%%%%%%%%%%

     Adding external electric field

     Computed dipole along edir(3) :
        Dipole              -11.4336 Ry au,        -29.0614 Debye
        Dipole field         -0.0216 Ry au,

        Potential amp.        2.0001 Ry
        Total length         46.3494 bohr

     Starting wfcs are  299 atomic wfcs
  @ DRIVER MODE: Message from server: STATUS
  @ DRIVER MODE: Message from server: POSDATA
  @ DRIVER MODE: Reading and sharing cell
  @ DRIVER MODE: Reading and sharing positions
  @ DRIVER MODE: Received positions

     Self-consistent Calculation

     iteration #  1     ecut=    29.40 Ry     beta= 0.05
     Davidson diagonalization with overlap
     c_bands:  1 eigenvalues not converged
     c_bands:  1 eigenvalues not converged
     c_bands:  1 eigenvalues not converged
     c_bands:  1 eigenvalues not converged
     c_bands:  2 eigenvalues not converged
     c_bands:  2 eigenvalues not converged
     c_bands:  1 eigenvalues not converged
     ethr =  1.00E-05,  avg # of iterations = 19.1

[...]

     total energy              =   -2597.24004515 Ry
     estimated scf accuracy    <    3831.04425250 Ry

     iteration #  2     ecut=    29.40 Ry     beta= 0.05
     Davidson diagonalization with overlap
     ethr =  1.00E-02,  avg # of iterations = 23.1

[...]

     iteration # 82     ecut=    29.40 Ry     beta= 0.05
     Davidson diagonalization with overlap
     c_bands:  1 eigenvalues not converged
     ethr =  2.22E-11,  avg # of iterations = 13.8

[...]

     total energy              =   -2939.19610055 Ry
     estimated scf accuracy    <       0.00000009 Ry

     iteration # 86     ecut=    29.40 Ry     beta= 0.05
     Davidson diagonalization with overlap
     ethr =  2.21E-11,  avg # of iterations = 12.9

     negative rho (up, down):  1.218E-02 0.000E+00

     Adding external electric field

     Computed dipole along edir(3) :
        Dipole                0.4060 Ry au,          1.0319 Debye
        Dipole field          0.0008 Ry au,

        Potential amp.       -0.0710 Ry
        Total length         46.3494 bohr

     End of self-consistent calculation

          k = 0.0000 0.0000 0.0000 ( 18029 PWs)   bands (ev):

   -56.0201 -56.0092 -55.9860 -55.9733 -55.9025 -55.8781 -55.8569 -55.8349
   -55.8260 -55.7926 -55.7920 -55.7588 -55.5772 -55.4527 -54.9974 -54.9633
   -32.5649 -32.5022 -32.3737 -32.3561 -32.3260 -32.3253 -32.3130 -32.2830
   -32.2621 -32.2386 -32.2325 -32.2201 -32.1902 -32.1723 -32.1612 -32.1496
   -32.1336 -32.1241 -32.1080 -32.0820 -32.0790 -32.0772 -32.0395 -32.0313
   -32.0283 -32.0234 -32.0139 -32.0098 -31.9949 -31.9926 -31.9872 -31.9671
   -31.9665 -31.9601 -31.9453 -31.9295 -31.9044 -31.8617 -31.7906 -31.7355
   -31.6690 -31.5574 -31.4045 -31.3161 -31.2936 -31.2212 -31.1347 -31.0237
   -20.6233 -16.7665 -16.4954 -16.2723 -16.1737 -16.1478 -16.0309 -15.8630
   -15.7387 -15.6944 -15.5943 -15.5791 -15.5558 -15.5254 -15.5130 -15.5036
   -15.4684 -15.4611 -15.4435 -15.4316 -15.3809 -15.3629 -15.3532 -15.2417
   -15.1960 -15.1545 -15.1383 -15.0746 -15.0258 -14.6393 -13.4999 -13.3835
    -9.0865  -5.7971  -4.1387  -3.9784  -3.9259  -3.8821  -3.8516  -3.7523
    -3.7490  -3.6354  -3.5715  -3.2648  -3.2075  -3.1914  -3.1735  -3.1456
    -2.9861  -2.9198  -2.8553  -2.8326  -2.8268  -2.7982  -2.7902  -2.7767
    -2.7400  -2.7009  -2.6782  -2.6323  -2.5793  -2.5036  -2.5003  -2.4361
    -2.4134  -2.3341  -2.3147  -2.2896  -2.2614  -2.2474  -2.2381  -2.2168
    -2.1991  -2.1787  -1.9903  -1.9608  -1.8937  -1.8088  -1.8037  -1.6271
    -1.5272  -1.4978  -1.4730  -1.4461  -1.4115  -1.3964  -1.3189  -1.2081
    -1.1754  -1.1374  -1.0755  -1.0250  -0.9937  -0.8939  -0.8707  -0.7820
    -0.7807  -0.7561  -0.7020  -0.6095  -0.5056  -0.4754  -0.4579  -0.4108
    -0.3755  -0.3120  -0.2948  -0.2337  -0.1684  -0.1572  -0.0819  -0.0553
    -0.0506  -0.0262  -0.0151   0.0295   0.0438   0.1650   0.1880   0.2736
     0.3181   0.4138   0.5348   0.6391   0.6760   0.7353   0.9502   1.0246
     1.1243   1.1664   1.2169   1.5960   1.6416   3.1193   3.2025   3.2505
     3.2580   3.3516   3.3650   3.5674   3.5938   3.6246   3.6630

[...]

          k = 0.0380-0.0419 0.0000 ( 17876 PWs)   bands (ev):

[...]

          k =-0.0760-0.0000 0.0000 ( 17886 PWs)   bands (ev):

[...]

          k =-0.0760-0.0839 0.0000 ( 17948 PWs)   bands (ev):

   -56.0037 -56.0023 -55.9917 -55.9906 -55.8945 -55.8698 -55.8647 -55.8432
   -55.8099 -55.8076 -55.7776 -55.7739 -55.5752 -55.4545 -54.9803 -54.9802
   -32.3687 -32.3675 -32.3178 -32.3170 -32.2989 -32.2979 -32.2833 -32.2747
   -32.2272 -32.2127 -32.2102 -32.2054 -32.1689 -32.1523 -32.1495 -32.1387
   -32.1309 -32.1232 -32.1218 -32.1217 -32.1155 -32.1119 -32.0942 -32.0866
   -32.0622 -32.0596 -32.0551 -32.0300 -32.0103 -32.0090 -32.0076 -32.0056
   -31.9917 -31.9897 -31.9867 -31.9816 -31.9410 -31.8467 -31.7927 -31.7383
   -31.7093 -31.6075 -31.3064 -31.3063 -31.2173 -31.2172 -31.1780 -31.1779
   -20.6232 -16.2012 -16.1806 -15.9775 -15.9347 -15.9290 -15.9243 -15.8208
   -15.7174 -15.7152 -15.7134 -15.6432 -15.6184 -15.6073 -15.5582 -15.5554
   -15.5444 -15.5329 -15.5276 -15.4815 -15.4742 -15.4568 -15.4481 -15.3828
   -15.3362 -15.3316 -15.3099 -15.1208 -14.9999 -14.9222 -13.4854 -13.4851
    -9.0994  -5.8003  -3.7560  -3.7516  -3.4925  -3.4683  -3.2361  -3.1802
    -3.1678  -3.0941  -2.9515  -2.9158  -2.9095  -2.8970  -2.8633  -2.8516
    -2.8360  -2.8277  -2.8171  -2.7904  -2.7664  -2.7333  -2.7275  -2.7039
    -2.6888  -2.6712  -2.6471  -2.6377  -2.6190  -2.5935  -2.5804  -2.5591
    -2.5491  -2.5238  -2.4849  -2.3528  -2.2538  -2.2168  -2.1568  -2.1490
    -2.1273  -2.0956  -2.0816  -2.0643  -2.0601  -2.0059  -1.8477  -1.7406
    -1.7249  -1.6879  -1.6392  -1.6187  -1.5647  -1.4300  -1.4031  -1.3768
    -1.3144  -1.3023  -1.2558  -1.2333  -1.2202  -1.1393  -1.1221  -1.0611
    -0.9995  -0.9803  -0.9766  -0.9202  -0.8606  -0.7902  -0.7800  -0.7371
    -0.6996  -0.6488  -0.6299  -0.5953  -0.5261  -0.4898  -0.3701  -0.3211
    -0.0918  -0.0394   0.0269   0.0733   0.1317   0.1791   0.1832   0.2982
     0.3006   0.3151   0.4137   0.4188   0.5072   0.5245   0.5476   0.7373
     1.2641   1.3884   1.3892   1.4611   1.4616   3.3943   3.4125   3.4418
     3.4837   3.6199   3.6291   3.6478   3.6492   3.7765   3.7973

     the Fermi energy is     3.1153 ev

!    total energy              =   -2939.19610633 Ry
     estimated scf accuracy    <       0.00000004 Ry
     smearing contrib. (-TS)   =      -0.02186622 Ry
     internal energy E=F+TS    =   -2939.17424011 Ry

     The total energy is F=E-TS. E is the sum of the following terms:
     one-electron contribution =  -23189.46317618 Ry
     hartree contribution      =   11680.00415553 Ry
     xc contribution           =    -484.90475150 Ry
     ewald contribution        =    9055.18922102 Ry
     electric field correction =       0.00031102 Ry

     convergence has been achieved in  86 iterations

     Forces acting on atoms (cartesian axes, Ry/au):

     atom    1 type  1   force =    -0.00000950   -0.00018458    0.09685743
     atom    2 type  1   force =    -0.00000658   -0.00053770   -0.17526442
     atom    3 type  2   force =     0.00009578   -0.00001101   -0.02519954
     atom    4 type  2   force =    -0.00003194   -0.00140545    0.05282663
     atom    5 type  2   force =    -0.01240194   -0.00103473    0.00324386
     atom    6 type  2   force =     0.01389526   -0.00053191    0.00284639
     atom    7 type  1   force =     0.00060066    0.00044103   -0.01142467
     atom    8 type  1   force =     0.00025354    0.01540968    0.02923159
     atom    9 type  2   force =    -0.00019603    0.00078826    0.00005172
     atom   10 type  2   force =    -0.00284189    0.00141039   -0.01825198
     atom   11 type  2   force =     0.00081058    0.00002634   -0.00001751
     atom   12 type  2   force =    -0.00062122   -0.00016109   -0.00010194
     atom   13 type  1   force =     0.00060953   -0.00030011   -0.00002153
     atom   14 type  1   force =    -0.00039291    0.00029038   -0.00008324
     atom   15 type  2   force =     0.00015718   -0.00013942    0.00072173
     atom   16 type  2   force =    -0.00014766    0.00008452    0.00047446
     atom   17 type  2   force =     0.00026757   -0.00060629   -0.00020556
     atom   18 type  2   force =    -0.00002856   -0.00063107    0.00007740
     atom   19 type  1   force =    -0.00007308   -0.00145069   -0.00029517
     atom   20 type  1   force =     0.00006373    0.00027512   -0.00006270
     atom   21 type  2   force =     0.00002400    0.00005889    0.10324194
     atom   22 type  2   force =    -0.00021347    0.00041791   -0.00003021
     atom   23 type  2   force =    -0.07154367   -0.00009362   -0.02769094
     atom   24 type  2   force =     0.07141211    0.00039354   -0.02774856
     atom   25 type  1   force =     0.00005181   -0.00026060    0.09664361
     atom   26 type  1   force =     0.00002564   -0.00013561   -0.17543155
     atom   27 type  2   force =     0.00012710   -0.00011662   -0.02393421
     atom   28 type  2   force =    -0.00000651   -0.00118717    0.05301114
     atom   29 type  2   force =    -0.01259135    0.00056119    0.00300396
     atom   30 type  2   force =     0.01394947    0.00102064    0.00263244
     atom   31 type  1   force =     0.00052478    0.00339874   -0.01249899
     atom   32 type  1   force =     0.00028406   -0.01699424    0.02992058
     atom   33 type  2   force =    -0.00024804   -0.00052512   -0.00050783
     atom   34 type  2   force =    -0.00265618    0.00031036   -0.02240850
     atom   35 type  2   force =    -0.00005885   -0.00016168    0.00002544
     atom   36 type  2   force =     0.00000929   -0.00001579    0.00005726
     atom   37 type  1   force =     0.00027950   -0.00038416   -0.00057104
     atom   38 type  1   force =    -0.00022911    0.00039998    0.00021766
     atom   39 type  2   force =     0.00002398   -0.00038838    0.00032638
     atom   40 type  2   force =     0.00032787   -0.00050523   -0.00000075
     atom   41 type  2   force =    -0.00036798    0.00014066    0.00001855
     atom   42 type  2   force =     0.00051444    0.00030885   -0.00011066
     atom   43 type  1   force =    -0.00022548    0.00068480    0.00004066
     atom   44 type  1   force =     0.00028437   -0.00048989   -0.00017177
     atom   45 type  2   force =     0.00002142    0.00002780    0.10322170
     atom   46 type  2   force =    -0.07154190   -0.00000108   -0.02767898
     atom   47 type  2   force =     0.07138933    0.00040638   -0.02774131
     atom   48 type  3   force =    -0.00240554    0.00015745    0.00015674
     atom   49 type  4   force =     0.00140862   -0.00038234   -0.00119378
     atom   50 type  5   force =    -0.00052670    0.00117449    0.00027091
     atom   51 type  5   force =    -0.00007228   -0.00045814    0.00041529
     atom   52 type  5   force =    -0.00022459    0.00071370    0.00005189
     atom   53 type  3   force =     0.00225135    0.00019259   -0.00094003

     Total force =     0.368836     Total SCF correction =     0.000539
  @ DRIVER MODE: Message from server: STATUS
  @ DRIVER MODE: Message from server: GETFORCE
  @ DRIVER MODE: Returning v,forces,stress,ensemble

     Writing output data file ./calc.save/
  @ DRIVER MODE: Message from server: EXIT
  @ DRIVE MODE: Exiting

     General routines

     Parallel routines

   This run was terminated on:  13:13:31   2Aug2021

   JOB DONE.