     Program PWSCF v.6.7GPU starts on 15Jul2021 at 21:48:21

     R & G space division:  proc/nbgrp/npool/nimage =      16
     Reading input from /storage/home/hcoda1/3/ntian30/research/carbon/15Jul_vib/ads_slab/CH3NNH3_a/out_0010/pw.inp
Warning: card &CELL ignored
Warning: card   CELL_DYNAMICS='IPI', ignored
Warning: card / ignored

     Current dimensions of program PWSCF are:
     Max number of different atomic species (ntypx) = 10
     Max number of k-points (npk) =  40000
     Max angular momentum in pseudopotentials (lmaxx) =  3
     Presently no symmetry can be used with electric field

     Message from routine cell_base_init:
     DEPRECATED: use true lattice parameter, not A to a.u. conversion factor

     IMPORTANT: XC functional enforced from input :
     Exchange-correlation= BEEF-VDW
                           (   1   4  43  14   2   0   0)
     Any further DFT definition will be discarded
     Please, verify this is what you really want

  @ DRIVER MODE: Connecting to
 qe_1139763_2351650.sched-torque.pace.gatech.eduksc585z__scratch
  using UNIX socket
  @ DRIVER MODE: Message from server: STATUS
  @ DRIVER MODE: Message from server: INIT
  @ DRIVER MODE: Receiving replica           0          -1
  @ DRIVER MODE: Receiving encoded integer          25
  @ DRIVER MODE:  SCF:  T  FORCE:  T  STRESS:  F  VC:  F  ENSEMBLE:  F
  @ DRIVER MODE:  SCF:  T  FORCE:  T  STRESS:  F  VC:  F  ENSEMBLE:  F

     Using Slab Decomposition

     bravais-lattice index     =            0
     lattice parameter (alat)  =       1.8897  a.u.
     unit-cell volume          =    6658.9804 (a.u.)^3
     number of atoms/cell      =           56
     number of atomic types    =            5
     number of electrons       =       398.00
     number of Kohn-Sham states=          209
     kinetic-energy cutoff     =      29.3995  Ry
     charge density cutoff     =     293.9946  Ry
     scf convergence threshold =      7.3E-08
     mixing beta               =       0.0500
     number of iterations used =            8  plain     mixing
     Exchange-correlation= BEEF-VDW
                           (   1   4  43  14   2   0   0)

     celldm(1)=   1.889726  celldm(2)=   0.000000  celldm(3)=   0.000000
     celldm(4)=   0.000000  celldm(5)=   0.000000  celldm(6)=   0.000000

     crystal axes: (cart. coord. in units of alat)
               a(1) = (   6.579727   0.000000   0.000000 )
               a(2) = (  -0.000775   5.961596   0.000000 )
               a(3) = (   0.000000   0.000000  25.155947 )

     reciprocal axes: (cart. coord. in units 2 pi/alat)
               b(1) = (  0.151982  0.000020  0.000000 )
               b(2) = (  0.000000  0.167740  0.000000 )
               b(3) = (  0.000000  0.000000  0.039752 )

     PseudoPot. # 1 for Ti read from file:
     /storage/coda1/p-amedford6/0/shared/rich_project_chbe-medford/medford-share/data/pseudos_module/espresso/nninc/pbe/van/Ti.UPF
     MD5 check sum: 8e4df49b7f0d34bbd5052bf3f5ea0213
     Pseudo is Ultrasoft, Zval = 12.0
     Generated by new atomic code, or converted to UPF format
     Using radial grid of  851 points,  6 beta functions with:
                l(1) =   0
                l(2) =   0
                l(3) =   1
                l(4) =   1
                l(5) =   2
                l(6) =   2
     Q(r) pseudized with  8 coefficients,  rinner =    1.000   1.000   1.000
                                                       1.000   1.000

     PseudoPot. # 2 for O  read from file:
     /storage/coda1/p-amedford6/0/shared/rich_project_chbe-medford/medford-share/data/pseudos_module/espresso/nninc/pbe/van/O.UPF
     MD5 check sum: 78c19812648e8988a0fe644b0f25305e
     Pseudo is Ultrasoft, Zval =  6.0
     Generated by new atomic code, or converted to UPF format
     Using radial grid of  737 points,  4 beta functions with:
                l(1) =   0
                l(2) =   0
                l(3) =   1
                l(4) =   1
     Q(r) pseudized with  8 coefficients,  rinner =    0.800   0.800   0.800

     PseudoPot. # 3 for N  read from file:
     /storage/coda1/p-amedford6/0/shared/rich_project_chbe-medford/medford-share/data/pseudos_module/espresso/nninc/pbe/van/N.UPF
     MD5 check sum: 90d10febe142ad51ac9d5be1deb811c4
     Pseudo is Ultrasoft, Zval =  5.0
     Generated by new atomic code, or converted to UPF format
     Using radial grid of  729 points,  4 beta functions with:
                l(1) =   0
                l(2) =   0
                l(3) =   1
                l(4) =   1
     Q(r) pseudized with  8 coefficients,  rinner =    0.800   0.800   0.800

     PseudoPot. # 4 for C  read from file:
     /storage/coda1/p-amedford6/0/shared/rich_project_chbe-medford/medford-share/data/pseudos_module/espresso/nninc/pbe/van/C.UPF
     MD5 check sum: 1a69bf6b8db32088f5b2163dbdb77a27
     Pseudo is Ultrasoft, Zval =  4.0
     Generated by new atomic code, or converted to UPF format
     Using radial grid of  721 points,  4 beta functions with:
                l(1) =   0
                l(2) =   0
                l(3) =   1
                l(4) =   1
     Q(r) pseudized with  8 coefficients,  rinner =    0.800   0.800   0.800

     PseudoPot. # 5 for H  read from file:
     /storage/coda1/p-amedford6/0/shared/rich_project_chbe-medford/medford-share/data/pseudos_module/espresso/nninc/pbe/van/H.UPF
     MD5 check sum: b5ee9d7bfd3a09ee7748110bda690ff7
     Pseudo is Ultrasoft, Zval =  1.0
     Generated by new atomic code, or converted to UPF format
     Using radial grid of  615 points,  1 beta functions with:
                l(1) =   0
     Q(r) pseudized with  8 coefficients,  rinner =    0.800

     atomic species   valence    mass     pseudopotential
        Ti1           12.00    47.86700     Ti( 1.00)
        O1             6.00    15.99900     O ( 1.00)
        N1             5.00    14.00700     N ( 1.00)
        C1             4.00    12.01100     C ( 1.00)
        H1             1.00     1.00800     H ( 1.00)

     Starting magnetic structure
     atomic species   magnetization
        Ti1          0.000
        O1           0.000
        N1           0.000
        C1           0.025
        H1           0.000

     No symmetry found

   Cartesian axes

     site n.     atom                  positions (alat units)
         1           Ti1 tau(   1) = (   0.0004258   2.9801865   6.0000000  )
         2           Ti1 tau(   2) = (   3.2906075   1.4906267   6.0002472  )
         3           O1  tau(   3) = (   0.0006271   0.0005054   7.9858123  )
         4           O1  tau(   4) = (   3.2906025   0.0005020   7.3038282  )
         5           O1  tau(   5) = (   4.5942328   1.4918067   9.2879030  )
         6           O1  tau(   6) = (   1.9868534   1.4903216   9.2879459  )
         7           Ti1 tau(   7) = (   3.2907910   2.8959150   9.1758416  )
         8           Ti1 tau(   8) = (   0.0015273   1.4827037   9.2680791  )
         9           O1  tau(   9) = (   3.3019049   5.9598586  11.2958584  )
        10           O1  tau(  10) = (   0.0116148   5.9584955  10.6183126  )
        11           O1  tau(  11) = (   1.3346742   1.4914638  12.6145280  )
        12           O1  tau(  12) = (   5.3113054   1.4894223  12.6320738  )
        13           Ti1 tau(  13) = (   6.4919192   2.9607050  12.7581921  )
        14           Ti1 tau(  14) = (   3.1808934   1.4809541  12.4628303  )
        15           O1  tau(  15) = (   0.0259758   5.9327586  14.5948705  )
        16           O1  tau(  16) = (   3.3179433   0.0111293  13.8771559  )
        17           O1  tau(  17) = (   4.5450242   1.5254396  16.0425357  )
        18           O1  tau(  18) = (   2.0945915   1.5254857  16.0466093  )
        19           Ti1 tau(  19) = (   3.3175380   3.0118254  15.6854273  )
        20           Ti1 tau(  20) = (   0.0287691   1.6153805  16.0968480  )
        21           O1  tau(  21) = (   3.2904802   0.0005063   4.7018136  )
        22           O1  tau(  22) = (   0.0272082   0.0527987  17.2096484  )
        23           O1  tau(  23) = (   1.3043587   1.4918075   6.0039043  )
        24           O1  tau(  24) = (   5.2767064   1.4903225   6.0039473  )
        25           Ti1 tau(  25) = (   0.0000382   5.9609847   6.0000000  )
        26           Ti1 tau(  26) = (   3.2902200   4.4714249   6.0002472  )
        27           O1  tau(  27) = (   0.0002396   2.9813036   7.9858123  )
        28           O1  tau(  28) = (   3.2902150   2.9813002   7.3038282  )
        29           O1  tau(  29) = (   4.5938453   4.4726049   9.2879030  )
        30           O1  tau(  30) = (   1.9864658   4.4711199   9.2879459  )
        31           Ti1 tau(  31) = (   3.2891106   5.8743827   9.1763621  )
        32           Ti1 tau(  32) = (   0.0006254   4.4649316   9.2693709  )
        33           O1  tau(  33) = (   3.3007599   2.9794320  11.2948048  )
        34           O1  tau(  34) = (   0.0092240   2.9805883  10.6323155  )
        35           O1  tau(  35) = (   1.3367187   4.4652043  12.6121808  )
        36           O1  tau(  36) = (   5.3110114   4.4536366  12.6300246  )
        37           Ti1 tau(  37) = (   6.5175235   5.9394146  12.7678677  )
        38           Ti1 tau(  38) = (   3.1810223   4.4618757  12.4682998  )
        39           O1  tau(  39) = (   0.0141956   2.9656780  14.6533049  )
        40           O1  tau(  40) = (   3.3125561   2.9946134  13.8784269  )
        41           O1  tau(  41) = (   4.5469694   4.5079638  16.0550352  )
        42           O1  tau(  42) = (   2.0896055   4.5089645  16.0567747  )
        43           Ti1 tau(  43) = (   3.3249511   0.0336637  15.6879192  )
        44           Ti1 tau(  44) = (   0.0309337   4.5948497  16.1324869  )
        45           O1  tau(  45) = (   3.2900926   2.9813045   4.7018136  )
        46           O1  tau(  46) = (   1.3039711   4.4726057   6.0039043  )
        47           O1  tau(  47) = (   5.2763189   4.4711207   6.0039473  )
        48           N1  tau(  48) = (   0.0510883   3.0100077  17.3315927  )
        49           C1  tau(  49) = (   0.2149723   3.0759314  18.7643681  )
        50           H1  tau(  50) = (   6.1109748   3.7957518  19.2115106  )
        51           H1  tau(  51) = (   0.0391147   2.0919789  19.2277120  )
        52           H1  tau(  52) = (   1.2341903   3.3897193  19.0223879  )
        53           N1  tau(  53) = (   4.7717085   1.8344328  21.5424420  )
        54           H1  tau(  54) = (   4.4711387   2.7986659  21.4441960  )
        55           H1  tau(  55) = (   4.1840297   1.2822813  20.9257432  )
        56           H1  tau(  56) = (   4.5427024   1.5537098  22.4892962  )

     number of k points=    10  Fermi-Dirac smearing, width (Ry)=  0.0073
                       cart. coord. in units 2pi/alat
        k(    1) = (   0.0000000   0.0000000   0.0000000), wk =   0.0625000
        k(    2) = (   0.0000000   0.0419351   0.0000000), wk =   0.1250000
        k(    3) = (   0.0000000  -0.0838702   0.0000000), wk =   0.0625000
        k(    4) = (   0.0379955   0.0000049   0.0000000), wk =   0.1250000
        k(    5) = (   0.0379955   0.0419400   0.0000000), wk =   0.1250000
[...]
     % Please cite the following two papers that made this development      %
     % possible and the two reviews that describe the various versions:     %
     %                                                                      %
     %   T. Thonhauser et al., PRL 115, 136402 (2015).                      %
     %   T. Thonhauser et al., PRB 76, 125112 (2007).                       %
     %   K. Berland et al., Rep. Prog. Phys. 78, 066501 (2015).             %
     %   D.C. Langreth et al., J. Phys.: Condens. Matter 21, 084203 (2009). %
     %                                                                      %
     %                                                                      %
     % If you are calculating the stress with vdW-DF, please also cite:     %
     %                                                                      %
     %   R. Sabatini et al., J. Phys.: Condens. Matter 24, 424209 (2012).   %
     %                                                                      %
     %%%%%%%%%%%%%%%%%%%%%%%%%%%%%%%%%%%%%%%%%%%%%%%%%%%%%%%%%%%%%%%%%%%%%%%%

     Adding external electric field

     Computed dipole along edir(3) :
        Dipole              -11.2917 Ry au,        -28.7007 Debye
        Dipole field         -0.0213 Ry au,

        Potential amp.        1.9753 Ry
        Total length         46.3494 bohr

[...]

     Starting wfcs are  302 atomic wfcs
  @ DRIVER MODE: Message from server: STATUS
  @ DRIVER MODE: Message from server: POSDATA
  @ DRIVER MODE: Reading and sharing cell
  @ DRIVER MODE: Reading and sharing positions
  @ DRIVER MODE: Received positions

     Self-consistent Calculation

     iteration #  1     ecut=    29.40 Ry     beta= 0.05
     Davidson diagonalization with overlap
     c_bands:  1 eigenvalues not converged
     c_bands:  1 eigenvalues not converged
     c_bands:  2 eigenvalues not converged
     c_bands:  1 eigenvalues not converged
     c_bands:  1 eigenvalues not converged
     c_bands:  1 eigenvalues not converged
     c_bands:  2 eigenvalues not converged
     c_bands:  2 eigenvalues not converged
     c_bands:  1 eigenvalues not converged
     c_bands:  1 eigenvalues not converged
     c_bands:  2 eigenvalues not converged
     c_bands:  1 eigenvalues not converged
     c_bands:  1 eigenvalues not converged
     c_bands:  1 eigenvalues not converged
     c_bands:  2 eigenvalues not converged
     c_bands:  2 eigenvalues not converged
     ethr =  1.00E-05,  avg # of iterations = 19.6

[...]

     total energy              =   -2520.82347989 Ry
     estimated scf accuracy    <    4704.43590431 Ry

     total magnetization       =     0.00 Bohr mag/cell
     absolute magnetization    =     0.01 Bohr mag/cell

     iteration #  2     ecut=    29.40 Ry     beta= 0.05
     Davidson diagonalization with overlap
     ethr =  1.00E-02,  avg # of iterations = 22.1

[...]

     iteration # 40     ecut=    29.40 Ry     beta= 0.05
     Davidson diagonalization with overlap
     c_bands:  1 eigenvalues not converged
     c_bands:  1 eigenvalues not converged
     c_bands:  1 eigenvalues not converged
     ethr =  2.10E-07,  avg # of iterations =  8.9

[...]

     total energy              =   -2942.90758692 Ry
     estimated scf accuracy    <       0.00000010 Ry

[...]

     iteration # 67     ecut=    29.40 Ry     beta= 0.05
     Davidson diagonalization with overlap
     ethr =  2.03E-11,  avg # of iterations =  3.9

     negative rho (up, down):  5.680E-03 5.680E-03

[...]

     Adding external electric field

     Computed dipole along edir(3) :
        Dipole                0.4176 Ry au,          1.0614 Debye
        Dipole field          0.0008 Ry au,

        Potential amp.       -0.0731 Ry
        Total length         46.3494 bohr

     Magnetic moment per site  (integrated on atomic sphere of radius R)
     atom   1 (R=0.735)  charge=  8.0053  magn=  0.0001
     atom   2 (R=0.735)  charge=  8.0011  magn=  0.0000
     atom   3 (R=0.735)  charge=  4.9958  magn= -0.0000
     atom   4 (R=0.735)  charge=  5.0345  magn= -0.0000
     atom   5 (R=0.735)  charge=  4.9982  magn= -0.0000
     atom   6 (R=0.735)  charge=  4.9994  magn= -0.0000
     atom   7 (R=0.735)  charge=  7.9947  magn=  0.0000
     atom   8 (R=0.735)  charge=  7.9823  magn=  0.0000
     atom   9 (R=0.735)  charge=  5.0128  magn= -0.0000
     atom  10 (R=0.735)  charge=  4.9434  magn= -0.0000
     atom  11 (R=0.735)  charge=  4.9999  magn= -0.0000
     atom  12 (R=0.735)  charge=  5.0035  magn= -0.0000
     atom  13 (R=0.735)  charge=  7.9933  magn=  0.0000
     atom  14 (R=0.735)  charge=  8.0007  magn=  0.0000
     atom  15 (R=0.735)  charge=  4.9893  magn= -0.0000
     atom  16 (R=0.735)  charge=  5.0145  magn= -0.0000
     atom  17 (R=0.735)  charge=  4.9900  magn= -0.0001
     atom  18 (R=0.735)  charge=  4.9888  magn= -0.0001
     atom  19 (R=0.735)  charge=  8.0209  magn=  0.0000
     atom  20 (R=0.735)  charge=  8.0240  magn=  0.0004
     atom  21 (R=0.735)  charge=  4.8827  magn= -0.0001
     atom  22 (R=0.735)  charge=  4.9720  magn= -0.0001
     atom  23 (R=0.735)  charge=  4.9884  magn= -0.0000
     atom  24 (R=0.735)  charge=  4.9885  magn= -0.0000
     atom  25 (R=0.735)  charge=  8.0053  magn=  0.0001
     atom  26 (R=0.735)  charge=  8.0011  magn=  0.0000
     atom  27 (R=0.735)  charge=  4.9957  magn= -0.0000
     atom  28 (R=0.735)  charge=  5.0347  magn= -0.0000
     atom  29 (R=0.735)  charge=  4.9989  magn= -0.0000
     atom  30 (R=0.735)  charge=  5.0001  magn= -0.0000
     atom  31 (R=0.735)  charge=  7.9947  magn=  0.0000
     atom  32 (R=0.735)  charge=  7.9826  magn=  0.0000
     atom  33 (R=0.735)  charge=  5.0126  magn= -0.0000
     atom  34 (R=0.735)  charge=  4.9424  magn=  0.0000
     atom  35 (R=0.735)  charge=  5.0005  magn= -0.0000
     atom  36 (R=0.735)  charge=  5.0043  magn= -0.0000
     atom  37 (R=0.735)  charge=  7.9991  magn=  0.0000
     atom  38 (R=0.735)  charge=  8.0004  magn=  0.0000
     atom  39 (R=0.735)  charge=  4.9852  magn= -0.0001
     atom  40 (R=0.735)  charge=  5.0159  magn= -0.0000
     atom  41 (R=0.735)  charge=  4.9884  magn= -0.0001
     atom  42 (R=0.735)  charge=  4.9878  magn= -0.0001
     atom  43 (R=0.735)  charge=  8.0215  magn=  0.0000
     atom  44 (R=0.735)  charge=  8.0217  magn=  0.0002
     atom  45 (R=0.735)  charge=  4.8827  magn= -0.0000
     atom  46 (R=0.735)  charge=  4.9884  magn= -0.0000
     atom  47 (R=0.735)  charge=  4.9885  magn= -0.0000
     atom  48 (R=0.418)  charge=  1.3136  magn= -0.0007
     atom  49 (R=0.449)  charge=  0.8451  magn=  0.0000
     atom  50 (R=0.418)  charge=  0.4409  magn= -0.0000
     atom  51 (R=0.418)  charge=  0.4342  magn= -0.0000
     atom  52 (R=0.418)  charge=  0.4355  magn= -0.0001
     atom  53 (R=0.418)  charge=  1.3298  magn= -0.0000
     atom  54 (R=0.418)  charge=  0.4522  magn=  0.0000
     atom  55 (R=0.418)  charge=  0.4511  magn=  0.0000
     atom  56 (R=0.418)  charge=  0.4538  magn= -0.0000

     End of self-consistent calculation

 ------ SPIN UP ------------

          k = 0.0000 0.0000 0.0000 ( 18029 PWs)   bands (ev):

   -56.6332 -56.5996 -55.7567 -55.7447 -55.7218 -55.7118 -55.6100 -55.5747
   -55.3919 -55.3561 -55.2981 -55.2906 -55.2642 -55.1930 -54.7245 -54.6159
   -33.0610 -32.9079 -32.8797 -32.8090 -32.7179 -32.6870 -32.2274 -32.2212
   -32.1527 -32.0407 -31.9944 -31.9703 -31.9518 -31.9306 -31.8970 -31.8925
   -31.8900 -31.8857 -31.8600 -31.8556 -31.8460 -31.8175 -31.7927 -31.7776
   -31.7646 -31.7463 -31.7364 -31.7116 -31.6902 -31.6364 -31.6226 -31.6123
   -31.5334 -31.5301 -31.5089 -31.4662 -31.4579 -31.4254 -31.4210 -31.3967
   -31.3741 -31.3145 -31.2309 -30.9712 -30.9553 -30.8732 -30.8380 -30.7470
   -16.7977 -16.3646 -16.1336 -15.9958 -15.9293 -15.8739 -15.8308 -15.7026
   -15.6362 -15.6288 -15.5877 -15.5578 -15.4868 -15.3478 -15.2492 -15.1955
   -15.1508 -15.0303 -14.9705 -14.9366 -14.9257 -14.8823 -14.8731 -14.6801
   -14.6572 -14.5643 -14.5411 -14.4218 -14.1847 -13.7964 -13.7015 -13.6864
   -12.7939  -7.4971  -4.3631  -3.8606  -3.7684  -3.7435  -3.6213  -3.5356
    -3.4278  -3.4148  -3.3259  -3.2143  -3.1693  -3.1219  -3.0055  -3.0031
    -2.8557  -2.8088  -2.8080  -2.8005  -2.7482  -2.7033  -2.6846  -2.6407
    -2.6357  -2.5872  -2.4794  -2.3802  -2.3055  -2.2854  -2.2788  -2.2440
    -2.1665  -2.1376  -2.1310  -2.1275  -2.0179  -1.8756  -1.8675  -1.8439
    -1.8019  -1.7983  -1.7560  -1.7401  -1.6220  -1.5329  -1.4297  -1.4144
    -1.3707  -1.3147  -1.3075  -1.2177  -1.1384  -1.0480  -1.0454  -0.9378
    -0.8891  -0.8718  -0.7806  -0.7219  -0.6830  -0.6558  -0.6442  -0.5448
    -0.5230  -0.5114  -0.4271  -0.4155  -0.3669  -0.2772  -0.2550  -0.2469
    -0.1635  -0.1608  -0.0640  -0.0242   0.0170   0.0517   0.1682   0.1858
     0.2836   0.3117   0.3411   0.4529   0.4685   0.5343   0.6092   0.6706
     0.6990   0.7236   0.7540   0.7731   0.8492   0.9600   0.9678   1.0724
     1.1039   1.2764   1.3152   1.3921   1.6028   1.6452   2.3046   2.6415
     2.8009   3.0994   3.2877   3.4009   3.6161   3.6319   3.6371   3.8081
     3.8602

[...]

          k =-0.0760-0.0000 0.0000 ( 17886 PWs)   bands (ev):

[...]

 ------ SPIN DOWN ----------

[...]

          k = 0.0380-0.0419 0.0000 ( 17876 PWs)   bands (ev):

[...]

          k =-0.0760-0.0839 0.0000 ( 17948 PWs)   bands (ev):

   -56.6163 -56.6160 -55.7416 -55.7357 -55.7290 -55.7285 -55.5926 -55.5919
   -55.3781 -55.3696 -55.2874 -55.2811 -55.2809 -55.1961 -54.7209 -54.6177
   -32.8935 -32.8932 -32.8778 -32.8776 -32.7618 -32.7616 -32.0572 -32.0549
   -32.0457 -32.0391 -31.9855 -31.9845 -31.9415 -31.9411 -31.9398 -31.9387
   -31.9310 -31.9281 -31.9259 -31.9243 -31.8451 -31.8431 -31.7941 -31.7913
   -31.7289 -31.7185 -31.6596 -31.6516 -31.6252 -31.6251 -31.6166 -31.5764
   -31.5722 -31.5449 -31.5107 -31.5064 -31.5063 -31.4673 -31.4672 -31.4615
   -31.4384 -31.3989 -31.1098 -30.9916 -30.9541 -30.9234 -30.8395 -30.8016
   -16.1465 -16.1444 -16.1116 -16.1113 -15.8427 -15.8391 -15.7954 -15.7929
   -15.6188 -15.6127 -15.4069 -15.3982 -15.3912 -15.3898 -15.2618 -15.2560
   -15.1896 -15.1792 -15.0893 -15.0800 -15.0242 -15.0177 -14.9746 -14.9536
   -14.6437 -14.6350 -14.5143 -14.4969 -14.3285 -13.7900 -13.7900 -13.7007
   -12.8131  -7.4890  -3.7759  -3.7515  -3.2452  -3.2449  -3.1810  -3.1800
    -3.0576  -3.0535  -2.9760  -2.9753  -2.8763  -2.8750  -2.7499  -2.7321
    -2.7295  -2.7279  -2.7097  -2.6797  -2.5759  -2.5703  -2.5611  -2.5478
    -2.4904  -2.4885  -2.4600  -2.3982  -2.3841  -2.3533  -2.3156  -2.2012
    -2.1911  -2.1774  -2.1469  -2.0836  -2.0778  -2.0646  -2.0222  -1.9918
    -1.9121  -1.8380  -1.8014  -1.6889  -1.6845  -1.6719  -1.6598  -1.5069
    -1.4668  -1.4360  -1.4299  -1.4225  -1.3742  -1.2809  -1.2734  -1.1407
    -1.1392  -1.0640  -0.9827  -0.9621  -0.9340  -0.8048  -0.7614  -0.7263
    -0.7186  -0.6900  -0.6693  -0.6484  -0.6035  -0.4686  -0.4570  -0.4184
    -0.3839  -0.3614  -0.3284  -0.2700  -0.1844  -0.1067  -0.1062  -0.0507
     0.0204   0.0790   0.1665   0.1756   0.1834   0.4626   0.5405   0.6310
     0.7069   0.7737   0.8364   0.8677   0.9231   0.9681   1.1024   1.1056
     1.1244   1.1248   1.1852   1.1889   1.3750   1.6502   2.1888   3.2144
     3.2147   3.2816   3.2820   3.6056   3.6114   3.7197   3.7290   3.8375
     3.8424

     the Fermi energy is     2.4812 ev

!    total energy              =   -2942.90761491 Ry
     estimated scf accuracy    <       0.00000006 Ry
     smearing contrib. (-TS)   =      -0.00485284 Ry
     internal energy E=F+TS    =   -2942.90276207 Ry

     The total energy is F=E-TS. E is the sum of the following terms:
     one-electron contribution =  -23242.38661328 Ry
     hartree contribution      =   11711.40008447 Ry
     xc contribution           =    -487.47220020 Ry
     ewald contribution        =    9075.55563785 Ry
     electric field correction =       0.00032910 Ry

     total magnetization       =    -0.00 Bohr mag/cell
     absolute magnetization    =     0.01 Bohr mag/cell

     convergence has been achieved in  67 iterations

     Forces acting on atoms (cartesian axes, Ry/au):

     atom    1 type  1   force =     0.00004115   -0.00040958    0.12410577
     atom    2 type  1   force =    -0.00010380   -0.00057309   -0.16064115
     atom    3 type  2   force =     0.00023348   -0.00026908   -0.06804873
     atom    4 type  2   force =     0.00001298   -0.00029123    0.02754732
     atom    5 type  2   force =    -0.01615749    0.00175554   -0.00938159
     atom    6 type  2   force =     0.01818829    0.00219434   -0.00900556
     atom    7 type  1   force =     0.00114958   -0.00377608    0.02178023
     atom    8 type  1   force =    -0.00057866   -0.00290393    0.11114230
     atom    9 type  2   force =    -0.00017851    0.00030508   -0.00049538
     atom   10 type  2   force =    -0.00196088    0.00129565   -0.07328886
     atom   11 type  2   force =     0.00024371   -0.00011334    0.00015308
     atom   12 type  2   force =    -0.00026339    0.00021188    0.00018665
     atom   13 type  1   force =    -0.00008981    0.00008034   -0.00028833
     atom   14 type  1   force =    -0.00058667    0.00044583    0.00047114
     atom   15 type  2   force =     0.00026772    0.00006794    0.00011634
     atom   16 type  2   force =    -0.00049259   -0.00036931    0.00052020
     atom   17 type  2   force =    -0.00061388    0.00023509    0.00007562
     atom   18 type  2   force =     0.00006944    0.00023146    0.00006526
     atom   19 type  1   force =     0.00037870   -0.00053735    0.00003246
     atom   20 type  1   force =    -0.00002544    0.00052262    0.00064568
     atom   21 type  2   force =     0.00005052   -0.00000866    0.09969979
     atom   22 type  2   force =     0.00026767    0.00003423   -0.00038985
     atom   23 type  2   force =    -0.07918027    0.00000028   -0.03245259
     atom   24 type  2   force =     0.07906497    0.00043966   -0.03247490
     atom   25 type  1   force =     0.00001582   -0.00041628    0.12363209
     atom   26 type  1   force =    -0.00010192   -0.00046377   -0.16077642
     atom   27 type  2   force =     0.00032932   -0.00048489   -0.06710124
     atom   28 type  2   force =     0.00002755   -0.00011914    0.02727375
     atom   29 type  2   force =    -0.01663354    0.00128002   -0.00948923
     atom   30 type  2   force =     0.01856310    0.00165780   -0.00912495
     atom   31 type  1   force =     0.00116775   -0.00138082    0.02120508
     atom   32 type  1   force =    -0.00053558    0.00034084    0.11179370
     atom   33 type  2   force =    -0.00015841   -0.00024855    0.00002610
     atom   34 type  2   force =    -0.00132438    0.00066855   -0.07275957
     atom   35 type  2   force =    -0.00077052   -0.00042412   -0.00003955
     atom   36 type  2   force =     0.00010521   -0.00000893    0.00009324
     atom   37 type  1   force =     0.00005520    0.00063553    0.00029250
     atom   38 type  1   force =    -0.00020782    0.00002093   -0.00011114
     atom   39 type  2   force =     0.00012619   -0.00016387    0.00070230
     atom   40 type  2   force =    -0.00018421   -0.00046269    0.00028277
     atom   41 type  2   force =     0.00001241   -0.00008046    0.00005389
     atom   42 type  2   force =     0.00044990    0.00001667    0.00002409
     atom   43 type  1   force =    -0.00023075   -0.00012557    0.00010951
     atom   44 type  1   force =    -0.00029948    0.00055002   -0.00002196
     atom   45 type  2   force =     0.00002431   -0.00003305    0.09972936
     atom   46 type  2   force =    -0.07918543    0.00005423   -0.03245328
     atom   47 type  2   force =     0.07906486    0.00047674   -0.03246884
     atom   48 type  3   force =     0.00086531    0.00230229   -0.00144990
     atom   49 type  4   force =     0.00035981   -0.02019255    0.00037548
     atom   50 type  5   force =    -0.00408387    0.00665861    0.00310422
     atom   51 type  5   force =     0.00162651    0.00972199   -0.00325737
     atom   52 type  5   force =     0.00214248    0.00212900    0.00047318
     atom   53 type  3   force =    -0.00000521   -0.00087251   -0.00006671
     atom   54 type  5   force =    -0.00003706    0.00021140   -0.00053160
     atom   55 type  5   force =     0.00016561    0.00031734   -0.00083842
     atom   56 type  5   force =    -0.00107999   -0.00013310    0.00124400

     Total force =     0.425185     Total SCF correction =     0.000511
  @ DRIVER MODE: Message from server: STATUS
  @ DRIVER MODE: Message from server: GETFORCE
  @ DRIVER MODE: Returning v,forces,stress,ensemble

     Writing output data file ./calc.save/
  @ DRIVER MODE: Message from server: EXIT
  @ DRIVE MODE: Exiting

     General routines

     Parallel routines

   This run was terminated on:  22:16:45  15Jul2021

   JOB DONE.