     Program PWSCF v.6.7GPU starts on 10Sep2021 at 22:28: 3

     R & G space division:  proc/nbgrp/npool/nimage =      10
     Reading input from /storage/home/hcoda1/3/ntian30/research/carbon/CxH_vib/CH2_calc/ads_slab/CH2O_c/out_0014/pw.inp
Warning: card &CELL ignored
Warning: card   CELL_DYNAMICS='IPI', ignored
Warning: card / ignored

     Current dimensions of program PWSCF are:
     Max number of different atomic species (ntypx) = 10
     Max number of k-points (npk) =  40000
     Max angular momentum in pseudopotentials (lmaxx) =  3
     Presently no symmetry can be used with electric field

     Message from routine cell_base_init:
     DEPRECATED: use true lattice parameter, not A to a.u. conversion factor

     IMPORTANT: XC functional enforced from input :
     Exchange-correlation= BEEF-VDW
                           (   1   4  43  14   2   0   0)
     Any further DFT definition will be discarded
     Please, verify this is what you really want

  @ DRIVER MODE: Connecting to
 qe_1139763_2792043.sched-torque.pace.gatech.eduuf6dqdgv_scratch
  using UNIX socket
  @ DRIVER MODE: Message from server: STATUS
  @ DRIVER MODE: Message from server: INIT
  @ DRIVER MODE: Receiving replica           0          -1
  @ DRIVER MODE: Receiving encoded integer          25
  @ DRIVER MODE:  SCF:  T  FORCE:  T  STRESS:  F  VC:  F  ENSEMBLE:  F
  @ DRIVER MODE:  SCF:  T  FORCE:  T  STRESS:  F  VC:  F  ENSEMBLE:  F

     Using Slab Decomposition

     bravais-lattice index     =            0
     lattice parameter (alat)  =       1.8897  a.u.
     unit-cell volume          =    6658.9804 (a.u.)^3
     number of atoms/cell      =           51
     number of atomic types    =            4
     number of electrons       =       390.00
     number of Kohn-Sham states=          205
     kinetic-energy cutoff     =      29.3995  Ry
     charge density cutoff     =     293.9946  Ry
     scf convergence threshold =      7.3E-08
     mixing beta               =       0.0500
     number of iterations used =            8  plain     mixing
     Exchange-correlation= BEEF-VDW
                           (   1   4  43  14   2   0   0)

     celldm(1)=   1.889726  celldm(2)=   0.000000  celldm(3)=   0.000000
     celldm(4)=   0.000000  celldm(5)=   0.000000  celldm(6)=   0.000000

     crystal axes: (cart. coord. in units of alat)
               a(1) = (   6.579727   0.000000   0.000000 )
               a(2) = (  -0.000775   5.961596   0.000000 )
               a(3) = (   0.000000   0.000000  25.155947 )

     reciprocal axes: (cart. coord. in units 2 pi/alat)
               b(1) = (  0.151982  0.000020  0.000000 )
               b(2) = (  0.000000  0.167740  0.000000 )
               b(3) = (  0.000000  0.000000  0.039752 )

     PseudoPot. # 1 for O  read from file:
     /storage/coda1/p-amedford6/0/shared/rich_project_chbe-medford/medford-share/data/pseudos_module/espresso/nninc/pbe/van/O.UPF
     MD5 check sum: 78c19812648e8988a0fe644b0f25305e
     Pseudo is Ultrasoft, Zval =  6.0
     Generated by new atomic code, or converted to UPF format
     Using radial grid of  737 points,  4 beta functions with:
                l(1) =   0
                l(2) =   0
                l(3) =   1
                l(4) =   1
     Q(r) pseudized with  8 coefficients,  rinner =    0.800   0.800   0.800

     PseudoPot. # 2 for Ti read from file:
     /storage/coda1/p-amedford6/0/shared/rich_project_chbe-medford/medford-share/data/pseudos_module/espresso/nninc/pbe/van/Ti.UPF
     MD5 check sum: 8e4df49b7f0d34bbd5052bf3f5ea0213
     Pseudo is Ultrasoft, Zval = 12.0
     Generated by new atomic code, or converted to UPF format
     Using radial grid of  851 points,  6 beta functions with:
                l(1) =   0
                l(2) =   0
                l(3) =   1
                l(4) =   1
                l(5) =   2
                l(6) =   2
     Q(r) pseudized with  8 coefficients,  rinner =    1.000   1.000   1.000
                                                       1.000   1.000

     PseudoPot. # 3 for C  read from file:
     /storage/coda1/p-amedford6/0/shared/rich_project_chbe-medford/medford-share/data/pseudos_module/espresso/nninc/pbe/van/C.UPF
     MD5 check sum: 1a69bf6b8db32088f5b2163dbdb77a27
     Pseudo is Ultrasoft, Zval =  4.0
     Generated by new atomic code, or converted to UPF format
     Using radial grid of  721 points,  4 beta functions with:
                l(1) =   0
                l(2) =   0
                l(3) =   1
                l(4) =   1
     Q(r) pseudized with  8 coefficients,  rinner =    0.800   0.800   0.800

     PseudoPot. # 4 for H  read from file:
     /storage/coda1/p-amedford6/0/shared/rich_project_chbe-medford/medford-share/data/pseudos_module/espresso/nninc/pbe/van/H.UPF
     MD5 check sum: b5ee9d7bfd3a09ee7748110bda690ff7
     Pseudo is Ultrasoft, Zval =  1.0
     Generated by new atomic code, or converted to UPF format
     Using radial grid of  615 points,  1 beta functions with:
                l(1) =   0
     Q(r) pseudized with  8 coefficients,  rinner =    0.800

     atomic species   valence    mass     pseudopotential
        O1             6.00    15.99900     O ( 1.00)
        Ti1           12.00    47.86700     Ti( 1.00)
        C1             4.00    12.01100     C ( 1.00)
        H1             1.00     1.00800     H ( 1.00)

     No symmetry found

   Cartesian axes

     site n.     atom                  positions (alat units)
         1           O1  tau(   1) = (   3.2904802   0.0005063   4.7018136  )
         2           O1  tau(   2) = (   3.2900926   2.9813045   4.7018136  )
         3           Ti1 tau(   3) = (   0.0004258   2.9801865   6.0000000  )
         4           Ti1 tau(   4) = (   0.0000382   5.9609847   6.0000000  )
         5           Ti1 tau(   5) = (   3.2906075   1.4906267   6.0002472  )
         6           Ti1 tau(   6) = (   3.2902200   4.4714249   6.0002472  )
         7           O1  tau(   7) = (   1.3043587   1.4918075   6.0039043  )
         8           O1  tau(   8) = (   1.3039711   4.4726057   6.0039043  )
         9           O1  tau(   9) = (   5.2767064   1.4903225   6.0039473  )
        10           O1  tau(  10) = (   5.2763189   4.4711207   6.0039473  )
        11           O1  tau(  11) = (   3.2906025   0.0005020   7.3038282  )
        12           O1  tau(  12) = (   3.2902150   2.9813002   7.3038282  )
        13           O1  tau(  13) = (   0.0006271   0.0005054   7.9858123  )
        14           O1  tau(  14) = (   0.0002396   2.9813036   7.9858123  )
        15           Ti1 tau(  15) = (   3.3026304   0.0558743   9.1529855  )
        16           Ti1 tau(  16) = (   3.3164045   3.0327615   9.1572159  )
        17           Ti1 tau(  17) = (   0.0278175   4.5359734   9.2551557  )
        18           Ti1 tau(  18) = (   0.0245227   1.6138560   9.3625275  )
        19           O1  tau(  19) = (   4.5942328   1.4918067   9.2879030  )
        20           O1  tau(  20) = (   4.5938453   4.4726049   9.2879030  )
        21           O1  tau(  21) = (   1.9868534   1.4903216   9.2879459  )
        22           O1  tau(  22) = (   1.9864658   4.4711199   9.2879459  )
        23           O1  tau(  23) = (   0.0082563   0.0105963  10.6032901  )
        24           O1  tau(  24) = (   0.0079484   2.9900140  10.5841352  )
        25           O1  tau(  25) = (   3.3038251   2.9929121  11.3473413  )
        26           O1  tau(  26) = (   3.3033308   0.0102956  11.3494618  )
        27           Ti1 tau(  27) = (   0.0317432   0.0173395  12.5007832  )
        28           Ti1 tau(  28) = (   3.3306627   4.4867663  12.4909107  )
        29           Ti1 tau(  29) = (   3.3307827   1.5098530  12.4883691  )
        30           Ti1 tau(  30) = (   0.0330478   2.9976760  12.7859357  )
        31           O1  tau(  31) = (   1.3012438   4.4818129  12.6408784  )
        32           O1  tau(  32) = (   1.3024292   1.5014896  12.6394904  )
        33           O1  tau(  33) = (   5.3013637   4.4812751  12.6442516  )
        34           O1  tau(  34) = (   5.3009141   1.5012301  12.6421300  )
        35           O1  tau(  35) = (   3.3022887   2.9886358  13.9251823  )
        36           O1  tau(  36) = (   3.3062039   0.0095056  13.9482717  )
        37           O1  tau(  37) = (   0.0260699   0.0177473  14.6866479  )
        38           O1  tau(  38) = (   0.0273203   2.9953000  14.7270975  )
        39           Ti1 tau(  39) = (   3.3120190   2.9903054  15.7171600  )
        40           Ti1 tau(  40) = (   3.3230935   0.0106652  15.7391692  )
        41           Ti1 tau(  41) = (   0.0328368   4.5824378  15.9539421  )
        42           Ti1 tau(  42) = (   0.0326753   1.3890416  16.0019494  )
        43           O1  tau(  43) = (   4.5622593   4.4711273  16.0916796  )
        44           O1  tau(  44) = (   4.5612194   1.5125715  16.1009491  )
        45           O1  tau(  45) = (   2.0595944   1.5153445  16.1103626  )
        46           O1  tau(  46) = (   2.0577381   4.4687033  16.1006481  )
        47           O1  tau(  47) = (   0.0167757   0.0040543  17.2075325  )
        48           O1  tau(  48) = (   6.5679879   3.0050237  17.4360139  )
        49           C1  tau(  49) = (   6.3840651   3.0748419  18.6981053  )
        50           H1  tau(  50) = (   6.3109919   4.0539401  19.1613311  )
        51           H1  tau(  51) = (   6.3054763   2.1576074  19.2739789  )

     number of k points=    10  Fermi-Dirac smearing, width (Ry)=  0.0073
                       cart. coord. in units 2pi/alat
        k(    1) = (   0.0000000   0.0000000   0.0000000), wk =   0.1250000
        k(    2) = (   0.0000000   0.0419351   0.0000000), wk =   0.2500000
        k(    3) = (   0.0000000  -0.0838702   0.0000000), wk =   0.1250000
        k(    4) = (   0.0379955   0.0000049   0.0000000), wk =   0.2500000
        k(    5) = (   0.0379955   0.0419400   0.0000000), wk =   0.2500000
        k(    6) = (   0.0379955  -0.0838652   0.0000000), wk =   0.2500000
        k(    7) = (   0.0379955  -0.0419301   0.0000000), wk =   0.2500000
        k(    8) = (  -0.0759910  -0.0000099   0.0000000), wk =   0.1250000
        k(    9) = (  -0.0759910   0.0419252   0.0000000), wk =   0.2500000
        k(   10) = (  -0.0759910  -0.0838800   0.0000000), wk =   0.1250000

     Initial potential from superposition of free atoms

     starting charge  373.99919, renormalised to  390.00000

     negative rho (up, down):  1.845E-02 0.000E+00

     %%%%%%%%%%%%%%%%%%%%%%%%%%%%%%%%%%%%%%%%%%%%%%%%%%%%%%%%%%%%%%%%%%%%%%%%
     %                                                                      %
     % You are using vdW-DF, which was implemented by the Thonhauser group. %
     % Please cite the following two papers that made this development      %
     % possible and the two reviews that describe the various versions:     %
     %                                                                      %
     %   T. Thonhauser et al., PRL 115, 136402 (2015).                      %
     %   T. Thonhauser et al., PRB 76, 125112 (2007).                       %
     %   K. Berland et al., Rep. Prog. Phys. 78, 066501 (2015).             %
     %   D.C. Langreth et al., J. Phys.: Condens. Matter 21, 084203 (2009). %
     %                                                                      %
     %                                                                      %
     % If you are calculating the stress with vdW-DF, please also cite:     %
     %                                                                      %
     %   R. Sabatini et al., J. Phys.: Condens. Matter 24, 424209 (2012).   %
     %                                                                      %
     %%%%%%%%%%%%%%%%%%%%%%%%%%%%%%%%%%%%%%%%%%%%%%%%%%%%%%%%%%%%%%%%%%%%%%%%

     Adding external electric field

     Computed dipole along edir(3) :
        Dipole               -5.1802 Ry au,        -13.1669 Debye
        Dipole field         -0.0098 Ry au,

        Potential amp.        0.9062 Ry
        Total length         46.3494 bohr

     Starting wfcs are  294 atomic wfcs
  @ DRIVER MODE: Message from server: STATUS
  @ DRIVER MODE: Message from server: POSDATA
  @ DRIVER MODE: Reading and sharing cell
  @ DRIVER MODE: Reading and sharing positions
  @ DRIVER MODE: Received positions

     Self-consistent Calculation

     iteration #  1     ecut=    29.40 Ry     beta= 0.05
     Davidson diagonalization with overlap
     c_bands:  5 eigenvalues not converged
     c_bands:  4 eigenvalues not converged
     c_bands:  2 eigenvalues not converged
     c_bands:  1 eigenvalues not converged
     c_bands:  2 eigenvalues not converged
     c_bands:  5 eigenvalues not converged
     c_bands:  2 eigenvalues not converged
     c_bands:  3 eigenvalues not converged
     c_bands:  2 eigenvalues not converged
     ethr =  1.00E-05,  avg # of iterations = 20.9

[...]

     total energy              =   -2823.07280487 Ry
     estimated scf accuracy    <    1181.30442302 Ry

     iteration #  2     ecut=    29.40 Ry     beta= 0.05
     Davidson diagonalization with overlap
     ethr =  1.00E-02,  avg # of iterations = 16.7

[...]

     iteration # 61     ecut=    29.40 Ry     beta= 0.05
     Davidson diagonalization with overlap
     c_bands:  1 eigenvalues not converged
     ethr =  8.76E-10,  avg # of iterations = 12.5

[...]

     total energy              =   -2930.16729202 Ry
     estimated scf accuracy    <       0.00000008 Ry

     iteration # 70     ecut=    29.40 Ry     beta= 0.05
     Davidson diagonalization with overlap
     ethr =  2.16E-11,  avg # of iterations = 11.0

     negative rho (up, down):  1.727E-02 0.000E+00

     Adding external electric field

     Computed dipole along edir(3) :
        Dipole                0.9327 Ry au,          2.3707 Debye
        Dipole field          0.0018 Ry au,

        Potential amp.       -0.1632 Ry
        Total length         46.3494 bohr

     End of self-consistent calculation

          k = 0.0000 0.0000 0.0000 ( 18029 PWs)   bands (ev):

   -55.8205 -55.8091 -55.7841 -55.7729 -55.7115 -55.6971 -55.6746 -55.6020
   -55.6007 -55.5897 -55.5792 -55.5561 -55.5245 -55.4867 -54.8468 -54.8128
   -32.3788 -32.2930 -32.1878 -32.1708 -32.1267 -32.1223 -32.1152 -32.0963
   -32.0691 -32.0519 -32.0499 -32.0237 -31.9938 -31.9907 -31.9792 -31.9574
   -31.9413 -31.9410 -31.9314 -31.9148 -31.8928 -31.8864 -31.8837 -31.8720
   -31.8630 -31.8459 -31.8440 -31.8208 -31.8154 -31.8149 -31.7896 -31.7620
   -31.7561 -31.7340 -31.7331 -31.7304 -31.7086 -31.7085 -31.6946 -31.6776
   -31.6755 -31.6749 -31.2569 -31.1592 -31.1369 -31.0736 -30.9876 -30.8762
   -19.8405 -16.5906 -16.2965 -16.1503 -16.0163 -15.9672 -15.8520 -15.6943
   -15.6153 -15.5491 -15.4936 -15.4411 -15.4038 -15.4025 -15.3730 -15.3597
   -15.3539 -15.3465 -15.2723 -15.2703 -15.2357 -15.2181 -15.2073 -15.1182
   -15.0574 -14.9973 -14.9508 -14.8926 -14.8393 -14.8257 -13.3475 -13.2291
    -9.2994  -5.5425  -5.5204  -3.9397  -3.7630  -3.7236  -3.7081  -3.6512
    -3.5295  -3.4232  -3.3960  -3.1058  -3.0181  -2.9882  -2.9775  -2.9647
    -2.8225  -2.7794  -2.6650  -2.6620  -2.6504  -2.6457  -2.6257  -2.5903
    -2.5832  -2.5390  -2.5162  -2.4072  -2.3674  -2.2578  -2.2442  -2.2151
    -2.1561  -2.1309  -2.1002  -2.0874  -2.0577  -2.0536  -2.0513  -2.0065
    -1.9058  -1.8182  -1.7507  -1.6686  -1.6302  -1.5378  -1.3789  -1.3096
    -1.2688  -1.2336  -1.1843  -1.1652  -1.1348  -1.1128  -1.0906  -1.0816
    -0.9839  -0.8717  -0.8615  -0.7631  -0.7027  -0.6841  -0.6693  -0.5782
    -0.5595  -0.5489  -0.4554  -0.3138  -0.3040  -0.2999  -0.1813  -0.1503
    -0.1272  -0.0824  -0.0575  -0.0228   0.0078   0.0628   0.1073   0.1178
     0.1645   0.1822   0.2077   0.3091   0.3614   0.3732   0.4271   0.4641
     0.6456   0.6661   0.8075   0.8730   1.0795   1.1778   1.2329   1.3466
     1.7653   1.8231   3.3448   3.3762   3.4013   3.4511   3.4971   3.5391
     3.5920   3.7873   3.8045   3.8134   3.8382

[...]

          k = 0.0380-0.0419 0.0000 ( 17876 PWs)   bands (ev):

[...]

          k =-0.0760-0.0000 0.0000 ( 17886 PWs)   bands (ev):

[...]

          k =-0.0760-0.0839 0.0000 ( 17948 PWs)   bands (ev):

   -55.8088 -55.7958 -55.7912 -55.7906 -55.7018 -55.6938 -55.6842 -55.6050
   -55.5974 -55.5756 -55.5730 -55.5706 -55.5306 -55.4892 -54.8304 -54.8291
   -32.1802 -32.1800 -32.1165 -32.1029 -32.1014 -32.0964 -32.0815 -32.0765
   -32.0622 -32.0333 -32.0253 -32.0106 -31.9941 -31.9574 -31.9463 -31.9376
   -31.9360 -31.9331 -31.9248 -31.9216 -31.9045 -31.9017 -31.8979 -31.8969
   -31.8942 -31.8910 -31.8793 -31.8561 -31.8287 -31.8279 -31.8274 -31.8053
   -31.8007 -31.7831 -31.7800 -31.7734 -31.7705 -31.7697 -31.7429 -31.7164
   -31.7089 -31.6844 -31.1504 -31.1488 -31.0703 -31.0693 -31.0312 -31.0301
   -19.8326 -16.0226 -15.9920 -15.8752 -15.7622 -15.7493 -15.7067 -15.6637
   -15.6157 -15.5574 -15.5545 -15.5063 -15.4872 -15.4832 -15.4386 -15.4058
   -15.3578 -15.3518 -15.3406 -15.3395 -15.2857 -15.2822 -15.2356 -15.2281
   -15.2075 -15.1685 -15.1651 -15.0948 -15.0603 -15.0045 -13.3314 -13.3292
    -9.3004  -5.5230  -5.4998  -3.5559  -3.3113  -3.2779  -3.1081  -2.9800
    -2.9702  -2.9118  -2.8279  -2.7906  -2.7458  -2.6960  -2.6927  -2.6708
    -2.6586  -2.6447  -2.6408  -2.6327  -2.5870  -2.5674  -2.5258  -2.4819
    -2.4742  -2.4607  -2.4549  -2.4149  -2.3990  -2.3873  -2.3801  -2.3742
    -2.3031  -2.2266  -2.1555  -2.0804  -2.0274  -2.0075  -1.9763  -1.9416
    -1.9068  -1.8895  -1.8725  -1.7484  -1.7258  -1.5772  -1.5613  -1.5384
    -1.5295  -1.4758  -1.4689  -1.3476  -1.2708  -1.2649  -1.1965  -1.1754
    -1.1467  -1.0982  -1.0758  -0.9959  -0.9536  -0.9109  -0.8568  -0.7962
    -0.7844  -0.7184  -0.7081  -0.6273  -0.6066  -0.5854  -0.5807  -0.5102
    -0.4762  -0.3969  -0.3858  -0.3630  -0.2623  -0.1970  -0.1920   0.0031
     0.1748   0.1796   0.1994   0.2992   0.3297   0.3728   0.4286   0.4442
     0.5308   0.5854   0.6764   0.6965   0.7053   0.7861   1.5365   1.5375
     1.6285   1.6390   3.2991   3.5638   3.6008   3.6049   3.6653   3.8186
     3.8217   3.8388   3.8481   3.9753   4.0004

     the Fermi energy is     3.3300 ev

!    total energy              =   -2930.16730836 Ry
     estimated scf accuracy    <       0.00000005 Ry
     smearing contrib. (-TS)   =      -0.03343217 Ry
     internal energy E=F+TS    =   -2930.13387620 Ry

     The total energy is F=E-TS. E is the sum of the following terms:
     one-electron contribution =  -24668.13923226 Ry
     hartree contribution      =   12419.52402901 Ry
     xc contribution           =    -481.26926193 Ry
     ewald contribution        =    9799.74894723 Ry
     electric field correction =       0.00164176 Ry

     convergence has been achieved in  70 iterations

     Forces acting on atoms (cartesian axes, Ry/au):

     atom    1 type  1   force =    -0.00010188    0.00005005    0.10426401
     atom    2 type  1   force =    -0.00009549    0.00004897    0.10432247
     atom    3 type  2   force =    -0.00025523   -0.00196180    0.10277818
     atom    4 type  2   force =    -0.00014931    0.00159842    0.11370264
     atom    5 type  2   force =    -0.00032954    0.00058481   -0.18044496
     atom    6 type  2   force =    -0.00019502   -0.00014389   -0.18079584
     atom    7 type  1   force =    -0.06895190    0.00062627   -0.02909970
     atom    8 type  1   force =    -0.06847862   -0.00120422   -0.02913868
     atom    9 type  1   force =     0.06858821    0.00111607   -0.02917874
     atom   10 type  1   force =     0.06820713   -0.00080703   -0.02922862
     atom   11 type  1   force =     0.00037495    0.00051324    0.04558869
     atom   12 type  1   force =     0.00056890    0.00075923    0.04712427
     atom   13 type  1   force =     0.00028126   -0.00577084   -0.03304362
     atom   14 type  1   force =     0.00033320    0.00397250   -0.02581820
     atom   15 type  2   force =     0.00003538   -0.00027755    0.00027556
     atom   16 type  2   force =     0.00013728    0.00013027   -0.00007352
     atom   17 type  2   force =    -0.00021836   -0.00067464    0.00127440
     atom   18 type  2   force =    -0.00028762   -0.00034967    0.00065691
     atom   19 type  1   force =    -0.01793156    0.00014896    0.00393934
     atom   20 type  1   force =    -0.01644891    0.00130544    0.00321021
     atom   21 type  1   force =     0.01956579   -0.00097884    0.00433417
     atom   22 type  1   force =     0.01782629    0.00103323    0.00344106
     atom   23 type  1   force =    -0.00014125   -0.00026054    0.00013275
     atom   24 type  1   force =    -0.00022443    0.00002822    0.00000557
     atom   25 type  1   force =    -0.00002533   -0.00010487   -0.00086455
     atom   26 type  1   force =    -0.00011581    0.00022886   -0.00015433
     atom   27 type  2   force =    -0.00004961   -0.00075883   -0.00091409
     atom   28 type  2   force =     0.00013822    0.00067917    0.00012380
     atom   29 type  2   force =     0.00009509   -0.00088767    0.00049842
     atom   30 type  2   force =    -0.00024941    0.00136652   -0.00045876
     atom   31 type  1   force =    -0.00021042   -0.00034059    0.00040731
     atom   32 type  1   force =    -0.00025919    0.00036054    0.00001282
     atom   33 type  1   force =     0.00001822   -0.00038874    0.00051810
     atom   34 type  1   force =     0.00021892    0.00043640    0.00022732
     atom   35 type  1   force =     0.00014770   -0.00005415   -0.00138100
     atom   36 type  1   force =    -0.00006932    0.00032620   -0.00014069
     atom   37 type  1   force =    -0.00073609    0.00009037    0.00044654
     atom   38 type  1   force =     0.00005775   -0.00023219   -0.00058344
     atom   39 type  2   force =    -0.00075131    0.00066259    0.00130886
     atom   40 type  2   force =    -0.00102449   -0.00006940    0.00040960
     atom   41 type  2   force =     0.00066146   -0.00091263   -0.00066694
     atom   42 type  2   force =     0.00057555    0.00107563   -0.00066068
     atom   43 type  1   force =    -0.00032269    0.00020568    0.00053922
     atom   44 type  1   force =     0.00052523    0.00013860    0.00050712
     atom   45 type  1   force =    -0.00064086   -0.00002737    0.00040133
     atom   46 type  1   force =     0.00018256    0.00015787    0.00055115
     atom   47 type  1   force =    -0.00041544    0.00079999    0.00148144
     atom   48 type  1   force =    -0.00072057   -0.00029492    0.00084389
     atom   49 type  3   force =     0.00080204   -0.00092683   -0.00081878
     atom   50 type  4   force =    -0.00005891   -0.00020825    0.00074989
     atom   51 type  4   force =     0.00011741   -0.00080862   -0.00061189

     Total force =     0.374430     Total SCF correction =     0.000402
  @ DRIVER MODE: Message from server: STATUS
  @ DRIVER MODE: Message from server: GETFORCE
  @ DRIVER MODE: Returning v,forces,stress,ensemble

     Writing output data file ./calc.save/
  @ DRIVER MODE: Message from server: EXIT
  @ DRIVE MODE: Exiting

     General routines

     Parallel routines

   This run was terminated on:  22:45:43  10Sep2021

   JOB DONE.