     Program PWSCF v.6.7GPU starts on 15Sep2021 at 16:17:14

     R & G space division:  proc/nbgrp/npool/nimage =      10
     Reading input from /storage/home/hcoda1/3/ntian30/research/carbon/CxH_vib/H2O_calc/ads_slab/CH2NNHHH2O_a/out_0002/pw.inp
Warning: card &CELL ignored
Warning: card   CELL_DYNAMICS='IPI', ignored
Warning: card / ignored

     Current dimensions of program PWSCF are:
     Max number of different atomic species (ntypx) = 10
     Max number of k-points (npk) =  40000
     Max angular momentum in pseudopotentials (lmaxx) =  3
     Presently no symmetry can be used with electric field

     Message from routine cell_base_init:
     DEPRECATED: use true lattice parameter, not A to a.u. conversion factor

     IMPORTANT: XC functional enforced from input :
     Exchange-correlation= BEEF-VDW
                           (   1   4  43  14   2   0   0)
     Any further DFT definition will be discarded
     Please, verify this is what you really want

  @ DRIVER MODE: Connecting to
 qe_1139763_2852611.sched-torque.pace.gatech.eduasdpm3di_scratch
  using UNIX socket
  @ DRIVER MODE: Message from server: STATUS
  @ DRIVER MODE: Message from server: INIT
  @ DRIVER MODE: Receiving replica           0          -1
  @ DRIVER MODE: Receiving encoded integer          25
  @ DRIVER MODE:  SCF:  T  FORCE:  T  STRESS:  F  VC:  F  ENSEMBLE:  F
  @ DRIVER MODE:  SCF:  T  FORCE:  T  STRESS:  F  VC:  F  ENSEMBLE:  F

     Using Slab Decomposition

     bravais-lattice index     =            0
     lattice parameter (alat)  =       1.8897  a.u.
     unit-cell volume          =    6658.9804 (a.u.)^3
     number of atoms/cell      =           57
     number of atomic types    =            5
     number of electrons       =       404.00
     number of Kohn-Sham states=          212
     kinetic-energy cutoff     =      29.3995  Ry
     charge density cutoff     =     293.9946  Ry
     scf convergence threshold =      7.3E-08
     mixing beta               =       0.0500
     number of iterations used =            8  plain     mixing
     Exchange-correlation= BEEF-VDW
                           (   1   4  43  14   2   0   0)

     celldm(1)=   1.889726  celldm(2)=   0.000000  celldm(3)=   0.000000
     celldm(4)=   0.000000  celldm(5)=   0.000000  celldm(6)=   0.000000

     crystal axes: (cart. coord. in units of alat)
               a(1) = (   6.579727   0.000000   0.000000 )
               a(2) = (  -0.000775   5.961596   0.000000 )
               a(3) = (   0.000000   0.000000  25.155947 )

     reciprocal axes: (cart. coord. in units 2 pi/alat)
               b(1) = (  0.151982  0.000020  0.000000 )
               b(2) = (  0.000000  0.167740  0.000000 )
               b(3) = (  0.000000  0.000000  0.039752 )

     PseudoPot. # 1 for Ti read from file:
     /storage/coda1/p-amedford6/0/shared/rich_project_chbe-medford/medford-share/data/pseudos_module/espresso/nninc/pbe/van/Ti.UPF
     MD5 check sum: 8e4df49b7f0d34bbd5052bf3f5ea0213
     Pseudo is Ultrasoft, Zval = 12.0
     Generated by new atomic code, or converted to UPF format
     Using radial grid of  851 points,  6 beta functions with:
                l(1) =   0
                l(2) =   0
                l(3) =   1
                l(4) =   1
                l(5) =   2
                l(6) =   2
     Q(r) pseudized with  8 coefficients,  rinner =    1.000   1.000   1.000
                                                       1.000   1.000

     PseudoPot. # 2 for O  read from file:
     /storage/coda1/p-amedford6/0/shared/rich_project_chbe-medford/medford-share/data/pseudos_module/espresso/nninc/pbe/van/O.UPF
     MD5 check sum: 78c19812648e8988a0fe644b0f25305e
     Pseudo is Ultrasoft, Zval =  6.0
     Generated by new atomic code, or converted to UPF format
     Using radial grid of  737 points,  4 beta functions with:
                l(1) =   0
                l(2) =   0
                l(3) =   1
                l(4) =   1
     Q(r) pseudized with  8 coefficients,  rinner =    0.800   0.800   0.800

     PseudoPot. # 3 for N  read from file:
     /storage/coda1/p-amedford6/0/shared/rich_project_chbe-medford/medford-share/data/pseudos_module/espresso/nninc/pbe/van/N.UPF
     MD5 check sum: 90d10febe142ad51ac9d5be1deb811c4
     Pseudo is Ultrasoft, Zval =  5.0
     Generated by new atomic code, or converted to UPF format
     Using radial grid of  729 points,  4 beta functions with:
                l(1) =   0
                l(2) =   0
                l(3) =   1
                l(4) =   1
     Q(r) pseudized with  8 coefficients,  rinner =    0.800   0.800   0.800

     PseudoPot. # 4 for C  read from file:
     /storage/coda1/p-amedford6/0/shared/rich_project_chbe-medford/medford-share/data/pseudos_module/espresso/nninc/pbe/van/C.UPF
     MD5 check sum: 1a69bf6b8db32088f5b2163dbdb77a27
     Pseudo is Ultrasoft, Zval =  4.0
     Generated by new atomic code, or converted to UPF format
     Using radial grid of  721 points,  4 beta functions with:
                l(1) =   0
                l(2) =   0
                l(3) =   1
                l(4) =   1
     Q(r) pseudized with  8 coefficients,  rinner =    0.800   0.800   0.800

     PseudoPot. # 5 for H  read from file:
     /storage/coda1/p-amedford6/0/shared/rich_project_chbe-medford/medford-share/data/pseudos_module/espresso/nninc/pbe/van/H.UPF
     MD5 check sum: b5ee9d7bfd3a09ee7748110bda690ff7
     Pseudo is Ultrasoft, Zval =  1.0
     Generated by new atomic code, or converted to UPF format
     Using radial grid of  615 points,  1 beta functions with:
                l(1) =   0
     Q(r) pseudized with  8 coefficients,  rinner =    0.800

     atomic species   valence    mass     pseudopotential
        Ti1           12.00    47.86700     Ti( 1.00)
        O1             6.00    15.99900     O ( 1.00)
        N1             5.00    14.00700     N ( 1.00)
        C1             4.00    12.01100     C ( 1.00)
        H1             1.00     1.00800     H ( 1.00)

     No symmetry found

   Cartesian axes

     site n.     atom                  positions (alat units)
         1           Ti1 tau(   1) = (   0.0004258   2.9801865   6.0000000  )
         2           Ti1 tau(   2) = (   3.2906075   1.4906267   6.0002472  )
         3           O1  tau(   3) = (   0.0006271   0.0005054   7.9858123  )
         4           O1  tau(   4) = (   3.2906025   0.0005020   7.3038282  )
         5           O1  tau(   5) = (   4.5942328   1.4918067   9.2879030  )
         6           O1  tau(   6) = (   1.9868534   1.4903216   9.2879459  )
         7           Ti1 tau(   7) = (   3.2907910   2.8959150   9.1758416  )
         8           Ti1 tau(   8) = (   0.0015273   1.4827037   9.2680791  )
         9           O1  tau(   9) = (   3.3121314   5.9338840  11.3691909  )
        10           O1  tau(  10) = (   0.0116148   5.9584955  10.6183126  )
        11           O1  tau(  11) = (   1.3134021   1.4784130  12.6451072  )
        12           O1  tau(  12) = (   5.3172625   1.4801399  12.6491864  )
        13           Ti1 tau(  13) = (   0.0380378   2.9573341  12.5222382  )
        14           Ti1 tau(  14) = (   3.3404755   1.4532591  12.5245293  )
        15           O1  tau(  15) = (   0.0239237   0.0366503  14.6894071  )
        16           O1  tau(  16) = (   3.3255740   5.9570089  14.0129324  )
        17           O1  tau(  17) = (   4.5846449   1.4795273  16.1858442  )
        18           O1  tau(  18) = (   2.0539891   1.4908220  16.1938258  )
        19           Ti1 tau(  19) = (   3.3028508   2.9322526  15.7076921  )
        20           Ti1 tau(  20) = (   0.0088316   1.3655950  16.0522487  )
        21           O1  tau(  21) = (   3.2904802   0.0005063   4.7018136  )
        22           O1  tau(  22) = (   0.0586005   5.8320325  17.2288864  )
        23           O1  tau(  23) = (   1.3043587   1.4918075   6.0039043  )
        24           O1  tau(  24) = (   5.2767064   1.4903225   6.0039473  )
        25           Ti1 tau(  25) = (   0.0000382   5.9609847   6.0000000  )
        26           Ti1 tau(  26) = (   3.2902200   4.4714249   6.0002472  )
        27           O1  tau(  27) = (   0.0002396   2.9813036   7.9858123  )
        28           O1  tau(  28) = (   3.2902150   2.9813002   7.3038282  )
        29           O1  tau(  29) = (   4.5938453   4.4726049   9.2879030  )
        30           O1  tau(  30) = (   1.9864658   4.4711199   9.2879459  )
        31           Ti1 tau(  31) = (   3.2891106   5.8743827   9.1763621  )
        32           Ti1 tau(  32) = (   0.0006254   4.4649316   9.2693709  )
        33           O1  tau(  33) = (   3.3142679   2.9660735  11.3641874  )
        34           O1  tau(  34) = (   0.0092240   2.9805883  10.6323155  )
        35           O1  tau(  35) = (   1.3108675   4.4558178  12.6782323  )
        36           O1  tau(  36) = (   5.3175068   4.4537340  12.6790822  )
        37           Ti1 tau(  37) = (   0.0418451   5.9490355  12.4996082  )
        38           Ti1 tau(  38) = (   3.3402151   4.4429940  12.5219265  )
        39           O1  tau(  39) = (   0.0332256   2.9148708  14.9327709  )
        40           O1  tau(  40) = (   3.3156017   2.9437717  13.9283311  )
        41           O1  tau(  41) = (   4.5915719   4.3868214  16.1197993  )
        42           O1  tau(  42) = (   2.0539401   4.4017640  16.0846163  )
        43           Ti1 tau(  43) = (   3.3369130   5.9116756  15.8392261  )
        44           Ti1 tau(  44) = (   0.0533093   4.5818758  15.8415549  )
        45           O1  tau(  45) = (   3.2900926   2.9813045   4.7018136  )
        46           O1  tau(  46) = (   1.3039711   4.4726057   6.0039043  )
        47           O1  tau(  47) = (   5.2763189   4.4711207   6.0039473  )
        48           N1  tau(  48) = (   6.5387229   2.7802708  18.1865785  )
        49           C1  tau(  49) = (   0.9724842   2.7744648  18.9576868  )
        50           H1  tau(  50) = (   0.9153086   3.0669255  20.0057840  )
        51           H1  tau(  51) = (   1.9225290   2.4867234  18.5393133  )
        52           N1  tau(  52) = (   5.2958906   3.1014149  18.7352402  )
        53           H1  tau(  53) = (   5.3913054   3.6367428  19.5974321  )
        54           H1  tau(  54) = (   4.7863746   3.6605970  18.0522289  )
        55           O1  tau(  55) = (   3.2511457   5.8152340  18.3397965  )
        56           H1  tau(  56) = (   3.7467739   0.6636339  18.5518981  )
        57           H1  tau(  57) = (   2.3053106   0.0674530  18.4201010  )

     number of k points=    10  Fermi-Dirac smearing, width (Ry)=  0.0073
                       cart. coord. in units 2pi/alat
        k(    1) = (   0.0000000   0.0000000   0.0000000), wk =   0.1250000
        k(    2) = (   0.0000000   0.0419351   0.0000000), wk =   0.2500000
        k(    3) = (   0.0000000  -0.0838702   0.0000000), wk =   0.1250000
        k(    4) = (   0.0379955   0.0000049   0.0000000), wk =   0.2500000
        k(    5) = (   0.0379955   0.0419400   0.0000000), wk =   0.2500000
        k(    6) = (   0.0379955  -0.0838652   0.0000000), wk =   0.2500000
        k(    7) = (   0.0379955  -0.0419301   0.0000000), wk =   0.2500000
        k(    8) = (  -0.0759910  -0.0000099   0.0000000), wk =   0.1250000
        k(    9) = (  -0.0759910   0.0419252   0.0000000), wk =   0.2500000
        k(   10) = (  -0.0759910  -0.0838800   0.0000000), wk =   0.1250000

     Initial potential from superposition of free atoms

     starting charge  387.99913, renormalised to  404.00000

     negative rho (up, down):  1.527E-02 0.000E+00

     %%%%%%%%%%%%%%%%%%%%%%%%%%%%%%%%%%%%%%%%%%%%%%%%%%%%%%%%%%%%%%%%%%%%%%%%
     %                                                                      %
     % You are using vdW-DF, which was implemented by the Thonhauser group. %
     % Please cite the following two papers that made this development      %
     % possible and the two reviews that describe the various versions:     %
     %                                                                      %
     %   T. Thonhauser et al., PRL 115, 136402 (2015).                      %
     %   T. Thonhauser et al., PRB 76, 125112 (2007).                       %
     %   K. Berland et al., Rep. Prog. Phys. 78, 066501 (2015).             %
     %   D.C. Langreth et al., J. Phys.: Condens. Matter 21, 084203 (2009). %
     %                                                                      %
     %                                                                      %
     % If you are calculating the stress with vdW-DF, please also cite:     %
     %                                                                      %
     %   R. Sabatini et al., J. Phys.: Condens. Matter 24, 424209 (2012).   %
     %                                                                      %
     %%%%%%%%%%%%%%%%%%%%%%%%%%%%%%%%%%%%%%%%%%%%%%%%%%%%%%%%%%%%%%%%%%%%%%%%

     Adding external electric field

     Computed dipole along edir(3) :
        Dipole              -14.3244 Ry au,        -36.4090 Debye
        Dipole field         -0.0270 Ry au,

        Potential amp.        2.5058 Ry
        Total length         46.3494 bohr

     Starting wfcs are  306 atomic wfcs
  @ DRIVER MODE: Message from server: STATUS
  @ DRIVER MODE: Message from server: POSDATA
  @ DRIVER MODE: Reading and sharing cell
  @ DRIVER MODE: Reading and sharing positions
  @ DRIVER MODE: Received positions

     Self-consistent Calculation

     iteration #  1     ecut=    29.40 Ry     beta= 0.05
     Davidson diagonalization with overlap
     c_bands:  4 eigenvalues not converged
     c_bands:  3 eigenvalues not converged
     c_bands:  5 eigenvalues not converged
     c_bands:  1 eigenvalues not converged
     c_bands:  2 eigenvalues not converged
     c_bands:  1 eigenvalues not converged
     c_bands:  2 eigenvalues not converged
     c_bands:  4 eigenvalues not converged
     c_bands:  5 eigenvalues not converged
     ethr =  1.00E-05,  avg # of iterations = 24.6

[...]

     total energy              =   -2233.93388564 Ry
     estimated scf accuracy    <    8445.23910685 Ry

     iteration #  2     ecut=    29.40 Ry     beta= 0.05
     Davidson diagonalization with overlap
     ethr =  1.00E-02,  avg # of iterations = 25.4

[...]

     iteration # 64     ecut=    29.40 Ry     beta= 0.05
     Davidson diagonalization with overlap
     c_bands:  1 eigenvalues not converged
     c_bands:  1 eigenvalues not converged
     ethr =  3.23E-10,  avg # of iterations = 15.8

[...]

     total energy              =   -2975.20573263 Ry
     estimated scf accuracy    <       0.00000007 Ry

     iteration # 71     ecut=    29.40 Ry     beta= 0.05
     Davidson diagonalization with overlap
     ethr =  1.85E-11,  avg # of iterations = 13.3

     negative rho (up, down):  1.521E-02 0.000E+00

     Adding external electric field

     Computed dipole along edir(3) :
        Dipole                1.4049 Ry au,          3.5710 Debye
        Dipole field          0.0027 Ry au,

        Potential amp.       -0.2458 Ry
        Total length         46.3494 bohr

     End of self-consistent calculation

          k = 0.0000 0.0000 0.0000 ( 18029 PWs)   bands (ev):

   -55.1854 -55.1495 -55.1455 -55.1114 -55.0976 -55.0661 -55.0332 -55.0281
   -55.0042 -54.9747 -54.9692 -54.9659 -54.9411 -54.8721 -54.1689 -54.1348
   -31.7508 -31.6370 -31.5973 -31.5547 -31.5039 -31.4936 -31.4867 -31.4793
   -31.4346 -31.4004 -31.3969 -31.3901 -31.3883 -31.3620 -31.3393 -31.3303
   -31.3295 -31.3231 -31.3035 -31.2974 -31.2792 -31.2740 -31.2585 -31.2451
   -31.2341 -31.2325 -31.2124 -31.2047 -31.2026 -31.1963 -31.1902 -31.1723
   -31.1680 -31.1573 -31.1524 -31.1396 -31.1183 -31.1143 -31.1027 -31.0871
   -31.0851 -31.0019 -30.5778 -30.4845 -30.4624 -30.3944 -30.3076 -30.1966
   -18.9179 -18.5004 -16.0114 -15.7462 -15.6105 -15.5005 -15.3841 -15.2550
   -15.2069 -15.0757 -15.0161 -14.9027 -14.8753 -14.8337 -14.8146 -14.8085
   -14.7505 -14.7226 -14.7159 -14.6907 -14.6802 -14.6589 -14.6195 -14.6132
   -14.5773 -14.5684 -14.5624 -14.4178 -14.3399 -14.2755 -13.9667 -13.7236
   -12.6711 -12.5538  -8.7770  -6.7063  -6.4461  -6.0725  -4.1518  -3.3545
    -3.1988  -3.1887  -3.1242  -3.0822  -3.0736  -3.0088  -2.9362  -2.7335
    -2.5983  -2.5716  -2.4522  -2.3862  -2.3816  -2.3286  -2.1858  -2.1812
    -2.1262  -2.0871  -2.0363  -2.0162  -1.9924  -1.9689  -1.9353  -1.9161
    -1.8887  -1.7543  -1.7349  -1.6606  -1.5982  -1.5874  -1.5293  -1.5051
    -1.4869  -1.4818  -1.4722  -1.4610  -1.4217  -1.4081  -1.3643  -1.3084
    -1.2043  -1.1178  -1.0236  -0.9489  -0.8824  -0.8199  -0.7583  -0.7494
    -0.6725  -0.6603  -0.5684  -0.5465  -0.5149  -0.4024  -0.3411  -0.3363
    -0.2723  -0.1702  -0.1419  -0.1265  -0.0555   0.0240   0.0429   0.0508
     0.0587   0.1814   0.2355   0.2640   0.3004   0.3719   0.3935   0.4386
     0.4881   0.4946   0.5755   0.6349   0.6862   0.7342   0.7561   0.7784
     0.7965   0.8060   0.8241   0.9062   0.9285   0.9581   1.0151   1.1707
     1.3286   1.4298   1.4455   1.7639   1.7771   1.8543   2.0386   2.4295
     2.4774   3.9107   3.9874   4.0462   4.0529   4.0620   4.1480   4.3923
     4.4081   4.4207   4.4327   4.4769

[...]

          k = 0.0380-0.0419 0.0000 ( 17876 PWs)   bands (ev):

[...]

          k =-0.0760-0.0000 0.0000 ( 17886 PWs)   bands (ev):

[...]

          k =-0.0760-0.0839 0.0000 ( 17948 PWs)   bands (ev):

   -55.1683 -55.1663 -55.1284 -55.1283 -55.0953 -55.0552 -55.0390 -55.0312
   -54.9897 -54.9832 -54.9680 -54.9584 -54.9576 -54.8740 -54.1518 -54.1518
   -31.5601 -31.5499 -31.5222 -31.4522 -31.4521 -31.4461 -31.4371 -31.4200
   -31.4199 -31.3990 -31.3882 -31.3855 -31.3730 -31.3470 -31.3227 -31.3173
   -31.3171 -31.3169 -31.3145 -31.3051 -31.2993 -31.2812 -31.2679 -31.2647
   -31.2512 -31.2484 -31.2479 -31.2479 -31.2387 -31.2332 -31.2234 -31.2223
   -31.2139 -31.2029 -31.1971 -31.1871 -31.1856 -31.1492 -31.1382 -31.1379
   -31.0954 -31.0882 -30.4750 -30.4750 -30.3904 -30.3903 -30.3510 -30.3510
   -18.9157 -18.4994 -15.5292 -15.4819 -15.3263 -15.1918 -15.1887 -15.1487
   -15.0933 -15.0219 -15.0012 -14.9574 -14.9468 -14.9280 -14.8917 -14.8837
   -14.8578 -14.7867 -14.7773 -14.7689 -14.7351 -14.6958 -14.6851 -14.6837
   -14.6669 -14.6370 -14.6338 -14.5364 -14.5342 -14.4435 -14.3068 -13.7391
   -12.6553 -12.6552  -8.7410  -6.7060  -6.3950  -6.1005  -4.1978  -3.2098
    -2.9379  -2.7460  -2.6408  -2.5389  -2.4115  -2.4056  -2.3204  -2.3121
    -2.2313  -2.1968  -2.1844  -2.1693  -2.0780  -2.0643  -2.0546  -2.0320
    -2.0155  -1.9977  -1.9659  -1.9600  -1.9363  -1.9093  -1.8991  -1.8978
    -1.8786  -1.8457  -1.8140  -1.7956  -1.7744  -1.7437  -1.7335  -1.6666
    -1.6253  -1.5369  -1.5023  -1.3868  -1.3850  -1.3654  -1.3096  -1.2880
    -1.2672  -1.2178  -1.2090  -1.1633  -1.0226  -0.9339  -0.9230  -0.8856
    -0.8368  -0.7880  -0.7403  -0.7257  -0.6593  -0.6381  -0.5460  -0.5299
    -0.4292  -0.3865  -0.3746  -0.3587  -0.2791  -0.2121  -0.1652  -0.1447
    -0.1404  -0.0902  -0.0756  -0.0623   0.0087   0.0568   0.0807   0.0952
     0.1359   0.3037   0.3651   0.3783   0.4963   0.5470   0.6379   0.7058
     0.7800   0.8062   0.8429   0.9337   0.9402   1.0166   1.1117   1.1257
     1.1601   1.2063   1.2550   1.2781   1.2830   2.2116   2.2129   2.2974
     2.2975   4.0539   4.1311   4.1884   4.2367   4.2460   4.3658   4.4279
     4.4704   4.4928   4.4950   4.5691

     the Fermi energy is     3.9687 ev

!    total energy              =   -2975.20575541 Ry
     estimated scf accuracy    <       0.00000004 Ry
     smearing contrib. (-TS)   =      -0.03731658 Ry
     internal energy E=F+TS    =   -2975.16843883 Ry

     The total energy is F=E-TS. E is the sum of the following terms:
     one-electron contribution =  -23538.20684271 Ry
     hartree contribution      =   11867.15143711 Ry
     xc contribution           =    -494.97477265 Ry
     ewald contribution        =    9190.85801450 Ry
     electric field correction =       0.00372492 Ry

     convergence has been achieved in  71 iterations

     Forces acting on atoms (cartesian axes, Ry/au):

     atom    1 type  1   force =     0.00006124   -0.00019790    0.09357554
     atom    2 type  1   force =    -0.00020596   -0.00020813   -0.17804181
     atom    3 type  2   force =     0.00011101   -0.00021352   -0.02068007
     atom    4 type  2   force =     0.00004937   -0.00197982    0.05807811
     atom    5 type  2   force =    -0.01003961   -0.00166432    0.00692681
     atom    6 type  2   force =     0.01218897   -0.00103289    0.00744199
     atom    7 type  1   force =     0.00022979    0.00248365   -0.01210561
     atom    8 type  1   force =    -0.00049442    0.00201036   -0.00192171
     atom    9 type  2   force =     0.00007016    0.00006316   -0.00005111
     atom   10 type  2   force =    -0.00044031   -0.00136860   -0.00315252
     atom   11 type  2   force =     0.00016012   -0.00007849   -0.00008063
     atom   12 type  2   force =    -0.00066216   -0.00012310    0.00007813
     atom   13 type  1   force =     0.00049978    0.00098570    0.00020835
     atom   14 type  1   force =    -0.00140286    0.00026268    0.00016044
     atom   15 type  2   force =    -0.00015651    0.00093291    0.00027418
     atom   16 type  2   force =    -0.00001692   -0.00043335    0.00014626
     atom   17 type  2   force =     0.00087981    0.00007350   -0.00017488
     atom   18 type  2   force =     0.00054961    0.00014052   -0.00027988
     atom   19 type  1   force =    -0.00111140    0.00092466    0.00044381
     atom   20 type  1   force =     0.00074550   -0.00014846   -0.00119342
     atom   21 type  2   force =     0.00001477   -0.00002317    0.10388645
     atom   22 type  2   force =     0.00015376    0.00094711    0.00008357
     atom   23 type  2   force =    -0.07052870   -0.00012322   -0.02696032
     atom   24 type  2   force =     0.07046918    0.00030602   -0.02702157
     atom   25 type  1   force =     0.00002789   -0.00018195    0.09304053
     atom   26 type  1   force =    -0.00009604   -0.00049071   -0.17795941
     atom   27 type  2   force =     0.00017358   -0.00035353   -0.01955485
     atom   28 type  2   force =     0.00011117   -0.00160316    0.05715801
     atom   29 type  2   force =    -0.01007824   -0.00085900    0.00630743
     atom   30 type  2   force =     0.01214088   -0.00061500    0.00686565
     atom   31 type  1   force =     0.00031618    0.00503641   -0.01527131
     atom   32 type  1   force =    -0.00039224   -0.00265978   -0.00235808
     atom   33 type  2   force =    -0.00002926   -0.00025909   -0.00004672
     atom   34 type  2   force =     0.00046484    0.00032890   -0.00054977
     atom   35 type  2   force =    -0.00011645   -0.00037224   -0.00007719
     atom   36 type  2   force =    -0.00043960   -0.00036252    0.00024017
     atom   37 type  1   force =     0.00027015   -0.00103699    0.00047894
     atom   38 type  1   force =    -0.00121282    0.00025521    0.00127852
     atom   39 type  2   force =    -0.00014168   -0.00046249    0.00033956
     atom   40 type  2   force =     0.00003046   -0.00041704    0.00043872
     atom   41 type  2   force =    -0.00014700    0.00000619    0.00002533
     atom   42 type  2   force =     0.00122096   -0.00027230    0.00015110
     atom   43 type  1   force =    -0.00115659   -0.00070609   -0.00014629
     atom   44 type  1   force =     0.00090668    0.00068038   -0.00022247
     atom   45 type  2   force =     0.00004162   -0.00001973    0.10381832
     atom   46 type  2   force =    -0.07056823   -0.00007215   -0.02697199
     atom   47 type  2   force =     0.07047801    0.00039445   -0.02700205
     atom   48 type  3   force =    -0.02449683    0.00291804   -0.00597975
     atom   49 type  4   force =     0.01430833    0.00045357    0.00852091
     atom   50 type  5   force =    -0.00039085   -0.00000932   -0.00028917
     atom   51 type  5   force =     0.00076502   -0.00010321    0.00072868
     atom   52 type  3   force =     0.00619974   -0.00255530   -0.00183419
     atom   53 type  5   force =     0.00062722    0.00074034   -0.00077268
     atom   54 type  5   force =     0.00092763    0.00090847   -0.00022029
     atom   55 type  2   force =    -0.00064161    0.00070027   -0.00000197
     atom   56 type  5   force =    -0.00028049   -0.00030913    0.00081081
     atom   57 type  5   force =     0.00005335   -0.00023677   -0.00058459

     Total force =     0.367080     Total SCF correction =     0.000542
  @ DRIVER MODE: Message from server: STATUS
  @ DRIVER MODE: Message from server: GETFORCE
  @ DRIVER MODE: Returning v,forces,stress,ensemble

     Writing output data file ./calc.save/
  @ DRIVER MODE: Message from server: EXIT
  @ DRIVE MODE: Exiting

     General routines

     Parallel routines

   This run was terminated on:  16:37:31  15Sep2021

   JOB DONE.