     Program PWSCF v.6.7GPU starts on 24Aug2021 at  3:18:56

     R & G space division:  proc/nbgrp/npool/nimage =       6
     Reading input from /storage/home/hcoda1/3/ntian30/research/carbon/CH2_vib/ads_slab/CH2N2_a/out_0028/pw.inp
Warning: card &CELL ignored
Warning: card   CELL_DYNAMICS='IPI', ignored
Warning: card / ignored

     Current dimensions of program PWSCF are:
     Max number of different atomic species (ntypx) = 10
     Max number of k-points (npk) =  40000
     Max angular momentum in pseudopotentials (lmaxx) =  3
     Presently no symmetry can be used with electric field

     Message from routine cell_base_init:
     DEPRECATED: use true lattice parameter, not A to a.u. conversion factor

     IMPORTANT: XC functional enforced from input :
     Exchange-correlation= BEEF-VDW
                           (   1   4  43  14   2   0   0)
     Any further DFT definition will be discarded
     Please, verify this is what you really want

  @ DRIVER MODE: Connecting to
 qe_1139763_2632803.sched-torque.pace.gatech.edu6hfalpmh_scratch
  using UNIX socket
  @ DRIVER MODE: Message from server: STATUS
  @ DRIVER MODE: Message from server: INIT
  @ DRIVER MODE: Receiving replica           0          -1
  @ DRIVER MODE: Receiving encoded integer          25
  @ DRIVER MODE:  SCF:  T  FORCE:  T  STRESS:  F  VC:  F  ENSEMBLE:  F
  @ DRIVER MODE:  SCF:  T  FORCE:  T  STRESS:  F  VC:  F  ENSEMBLE:  F

     Using Slab Decomposition

     bravais-lattice index     =            0
     lattice parameter (alat)  =       1.8897  a.u.
     unit-cell volume          =    6658.9804 (a.u.)^3
     number of atoms/cell      =           52
     number of atomic types    =            5
     number of electrons       =       394.00
     number of Kohn-Sham states=          207
     kinetic-energy cutoff     =      29.3995  Ry
     charge density cutoff     =     293.9946  Ry
     scf convergence threshold =      7.3E-08
     mixing beta               =       0.0500
     number of iterations used =            8  plain     mixing
     Exchange-correlation= BEEF-VDW
                           (   1   4  43  14   2   0   0)

     celldm(1)=   1.889726  celldm(2)=   0.000000  celldm(3)=   0.000000
     celldm(4)=   0.000000  celldm(5)=   0.000000  celldm(6)=   0.000000

     crystal axes: (cart. coord. in units of alat)
               a(1) = (   6.579727   0.000000   0.000000 )
               a(2) = (  -0.000775   5.961596   0.000000 )
               a(3) = (   0.000000   0.000000  25.155947 )

     reciprocal axes: (cart. coord. in units 2 pi/alat)
               b(1) = (  0.151982  0.000020  0.000000 )
               b(2) = (  0.000000  0.167740  0.000000 )
               b(3) = (  0.000000  0.000000  0.039752 )

     PseudoPot. # 1 for Ti read from file:
     /storage/coda1/p-amedford6/0/shared/rich_project_chbe-medford/medford-share/data/pseudos_module/espresso/nninc/pbe/van/Ti.UPF
     MD5 check sum: 8e4df49b7f0d34bbd5052bf3f5ea0213
     Pseudo is Ultrasoft, Zval = 12.0
     Generated by new atomic code, or converted to UPF format
     Using radial grid of  851 points,  6 beta functions with:
                l(1) =   0
                l(2) =   0
                l(3) =   1
                l(4) =   1
                l(5) =   2
                l(6) =   2
     Q(r) pseudized with  8 coefficients,  rinner =    1.000   1.000   1.000
                                                       1.000   1.000

     PseudoPot. # 2 for O  read from file:
     /storage/coda1/p-amedford6/0/shared/rich_project_chbe-medford/medford-share/data/pseudos_module/espresso/nninc/pbe/van/O.UPF
     MD5 check sum: 78c19812648e8988a0fe644b0f25305e
     Pseudo is Ultrasoft, Zval =  6.0
     Generated by new atomic code, or converted to UPF format
     Using radial grid of  737 points,  4 beta functions with:
                l(1) =   0
                l(2) =   0
                l(3) =   1
                l(4) =   1
     Q(r) pseudized with  8 coefficients,  rinner =    0.800   0.800   0.800

     PseudoPot. # 3 for N  read from file:
     /storage/coda1/p-amedford6/0/shared/rich_project_chbe-medford/medford-share/data/pseudos_module/espresso/nninc/pbe/van/N.UPF
     MD5 check sum: 90d10febe142ad51ac9d5be1deb811c4
     Pseudo is Ultrasoft, Zval =  5.0
     Generated by new atomic code, or converted to UPF format
     Using radial grid of  729 points,  4 beta functions with:
                l(1) =   0
                l(2) =   0
                l(3) =   1
                l(4) =   1
     Q(r) pseudized with  8 coefficients,  rinner =    0.800   0.800   0.800

     PseudoPot. # 4 for C  read from file:
     /storage/coda1/p-amedford6/0/shared/rich_project_chbe-medford/medford-share/data/pseudos_module/espresso/nninc/pbe/van/C.UPF
     MD5 check sum: 1a69bf6b8db32088f5b2163dbdb77a27
     Pseudo is Ultrasoft, Zval =  4.0
     Generated by new atomic code, or converted to UPF format
     Using radial grid of  721 points,  4 beta functions with:
                l(1) =   0
                l(2) =   0
                l(3) =   1
                l(4) =   1
     Q(r) pseudized with  8 coefficients,  rinner =    0.800   0.800   0.800

     PseudoPot. # 5 for H  read from file:
     /storage/coda1/p-amedford6/0/shared/rich_project_chbe-medford/medford-share/data/pseudos_module/espresso/nninc/pbe/van/H.UPF
     MD5 check sum: b5ee9d7bfd3a09ee7748110bda690ff7
     Pseudo is Ultrasoft, Zval =  1.0
     Generated by new atomic code, or converted to UPF format
     Using radial grid of  615 points,  1 beta functions with:
                l(1) =   0
     Q(r) pseudized with  8 coefficients,  rinner =    0.800

     atomic species   valence    mass     pseudopotential
        Ti1           12.00    47.86700     Ti( 1.00)
        O1             6.00    15.99900     O ( 1.00)
        N1             5.00    14.00700     N ( 1.00)
        C1             4.00    12.01100     C ( 1.00)
        H1             1.00     1.00800     H ( 1.00)

     No symmetry found

   Cartesian axes

     site n.     atom                  positions (alat units)
         1           Ti1 tau(   1) = (   0.0004258   2.9801865   6.0000000  )
         2           Ti1 tau(   2) = (   3.2906075   1.4906267   6.0002472  )
         3           O1  tau(   3) = (   0.0006271   0.0005054   7.9858123  )
         4           O1  tau(   4) = (   3.2906025   0.0005020   7.3038282  )
         5           O1  tau(   5) = (   4.5942328   1.4918067   9.2879030  )
         6           O1  tau(   6) = (   1.9868534   1.4903216   9.2879459  )
         7           Ti1 tau(   7) = (   3.2907910   2.8959150   9.1758416  )
         8           Ti1 tau(   8) = (   0.0015273   1.4827037   9.2680791  )
         9           O1  tau(   9) = (   3.2817373   5.9460525  11.2946146  )
        10           O1  tau(  10) = (   0.0116148   5.9584955  10.6183126  )
        11           O1  tau(  11) = (   1.3133758   1.4766388  12.6259016  )
        12           O1  tau(  12) = (   5.2926964   1.4629885  12.6363546  )
        13           Ti1 tau(  13) = (   6.4867702   2.9530348  12.7875790  )
        14           Ti1 tau(  14) = (   3.1556433   1.4654666  12.4614878  )
        15           O1  tau(  15) = (   0.0119351   5.9170239  14.6319389  )
        16           O1  tau(  16) = (   3.2888796   5.9458463  13.8730829  )
        17           O1  tau(  17) = (   4.5050169   1.4765614  15.9709225  )
        18           O1  tau(  18) = (   2.0372034   1.4852366  16.0641042  )
        19           Ti1 tau(  19) = (   3.3196583   2.9724019  15.6708981  )
        20           Ti1 tau(  20) = (   6.5671717   1.4125937  15.9950936  )
        21           O1  tau(  21) = (   3.2904802   0.0005063   4.7018136  )
        22           O1  tau(  22) = (   6.4769187   0.0355975  17.2006351  )
        23           O1  tau(  23) = (   1.3043587   1.4918075   6.0039043  )
        24           O1  tau(  24) = (   5.2767064   1.4903225   6.0039473  )
        25           Ti1 tau(  25) = (   0.0000382   5.9609847   6.0000000  )
        26           Ti1 tau(  26) = (   3.2902200   4.4714249   6.0002472  )
        27           O1  tau(  27) = (   0.0002396   2.9813036   7.9858123  )
        28           O1  tau(  28) = (   3.2902150   2.9813002   7.3038282  )
        29           O1  tau(  29) = (   4.5938453   4.4726049   9.2879030  )
        30           O1  tau(  30) = (   1.9864658   4.4711199   9.2879459  )
        31           Ti1 tau(  31) = (   3.2891106   5.8743827   9.1763621  )
        32           Ti1 tau(  32) = (   0.0006254   4.4649316   9.2693709  )
        33           O1  tau(  33) = (   3.2830713   2.9620590  11.2933342  )
        34           O1  tau(  34) = (   0.0092240   2.9805883  10.6323155  )
        35           O1  tau(  35) = (   1.3110001   4.4530301  12.6158702  )
        36           O1  tau(  36) = (   5.2890030   4.4574094  12.6263766  )
        37           Ti1 tau(  37) = (   6.4749751   5.9256585  12.7408108  )
        38           Ti1 tau(  38) = (   3.1548284   4.4449468  12.4552140  )
        39           O1  tau(  39) = (   6.5563663   2.9679540  14.6355405  )
        40           O1  tau(  40) = (   3.2955455   2.9696487  13.8658995  )
        41           O1  tau(  41) = (   4.4874099   4.4549745  16.0617524  )
        42           O1  tau(  42) = (   2.0361269   4.4599000  15.9844638  )
        43           Ti1 tau(  43) = (   3.2961532   5.9498675  15.6757175  )
        44           Ti1 tau(  44) = (   0.0931452   4.4613781  16.2340760  )
        45           O1  tau(  45) = (   3.2900926   2.9813045   4.7018136  )
        46           O1  tau(  46) = (   1.3039711   4.4726057   6.0039043  )
        47           O1  tau(  47) = (   5.2763189   4.4711207   6.0039473  )
        48           N1  tau(  48) = (   0.6376139   3.5490058  18.1121658  )
        49           C1  tau(  49) = (   1.1877089   3.2859424  19.2441644  )
        50           H1  tau(  50) = (   1.7795953   4.0554207  19.7143479  )
        51           H1  tau(  51) = (   1.0443441   2.3179332  19.7136356  )
        52           N1  tau(  52) = (   6.4637678   2.8286144  17.3583733  )

     number of k points=    10  Fermi-Dirac smearing, width (Ry)=  0.0073
                       cart. coord. in units 2pi/alat
        k(    1) = (   0.0000000   0.0000000   0.0000000), wk =   0.1250000
        k(    2) = (   0.0000000   0.0419351   0.0000000), wk =   0.2500000
        k(    3) = (   0.0000000  -0.0838702   0.0000000), wk =   0.1250000
        k(    4) = (   0.0379955   0.0000049   0.0000000), wk =   0.2500000
        k(    5) = (   0.0379955   0.0419400   0.0000000), wk =   0.2500000
        k(    6) = (   0.0379955  -0.0838652   0.0000000), wk =   0.2500000
        k(    7) = (   0.0379955  -0.0419301   0.0000000), wk =   0.2500000
        k(    8) = (  -0.0759910  -0.0000099   0.0000000), wk =   0.1250000
        k(    9) = (  -0.0759910   0.0419252   0.0000000), wk =   0.2500000
        k(   10) = (  -0.0759910  -0.0838800   0.0000000), wk =   0.1250000

     Initial potential from superposition of free atoms

     starting charge  377.99917, renormalised to  394.00000

     negative rho (up, down):  1.612E-02 0.000E+00

     %%%%%%%%%%%%%%%%%%%%%%%%%%%%%%%%%%%%%%%%%%%%%%%%%%%%%%%%%%%%%%%%%%%%%%%%
     %                                                                      %
     % You are using vdW-DF, which was implemented by the Thonhauser group. %
     % Please cite the following two papers that made this development      %
     % possible and the two reviews that describe the various versions:     %
     %                                                                      %
     %   T. Thonhauser et al., PRL 115, 136402 (2015).                      %
     %   T. Thonhauser et al., PRB 76, 125112 (2007).                       %
     %   K. Berland et al., Rep. Prog. Phys. 78, 066501 (2015).             %
     %   D.C. Langreth et al., J. Phys.: Condens. Matter 21, 084203 (2009). %
     %                                                                      %
     %                                                                      %
     % If you are calculating the stress with vdW-DF, please also cite:     %
     %                                                                      %
     %   R. Sabatini et al., J. Phys.: Condens. Matter 24, 424209 (2012).   %
     %                                                                      %
     %%%%%%%%%%%%%%%%%%%%%%%%%%%%%%%%%%%%%%%%%%%%%%%%%%%%%%%%%%%%%%%%%%%%%%%%

     Adding external electric field

     Computed dipole along edir(3) :
        Dipole               -7.0538 Ry au,        -17.9290 Debye
        Dipole field         -0.0133 Ry au,

        Potential amp.        1.2340 Ry
        Total length         46.3494 bohr

     Starting wfcs are  298 atomic wfcs
  @ DRIVER MODE: Message from server: STATUS
  @ DRIVER MODE: Message from server: POSDATA
  @ DRIVER MODE: Reading and sharing cell
  @ DRIVER MODE: Reading and sharing positions
  @ DRIVER MODE: Received positions

     Self-consistent Calculation

     iteration #  1     ecut=    29.40 Ry     beta= 0.05
     Davidson diagonalization with overlap
     c_bands:  1 eigenvalues not converged
     c_bands:  1 eigenvalues not converged
     c_bands:  1 eigenvalues not converged
     c_bands:  3 eigenvalues not converged
     ethr =  1.00E-05,  avg # of iterations = 18.0

[...]

     total energy              =   -2722.74157326 Ry
     estimated scf accuracy    <    2374.98748673 Ry

[...]

     iteration #  3     ecut=    29.40 Ry     beta= 0.05
     Davidson diagonalization with overlap
     ethr =  1.00E-02,  avg # of iterations = 14.9

[...]

     iteration # 67     ecut=    29.40 Ry     beta= 0.05
     Davidson diagonalization with overlap
     c_bands:  1 eigenvalues not converged
     ethr =  6.70E-10,  avg # of iterations =  6.9

[...]

     total energy              =   -2937.87536238 Ry
     estimated scf accuracy    <       0.00000012 Ry

     iteration # 72     ecut=    29.40 Ry     beta= 0.05
     Davidson diagonalization with overlap
     ethr =  2.93E-11,  avg # of iterations =  2.5

     negative rho (up, down):  1.679E-02 0.000E+00

     Adding external electric field

     Computed dipole along edir(3) :
        Dipole                0.3914 Ry au,          0.9950 Debye
        Dipole field          0.0007 Ry au,

        Potential amp.       -0.0685 Ry
        Total length         46.3494 bohr

     End of self-consistent calculation

          k = 0.0000 0.0000 0.0000 ( 18029 PWs)   bands (ev):

   -56.6437 -56.6100 -55.8564 -55.8449 -55.8212 -55.8120 -55.7883 -55.7527
   -55.6170 -55.5714 -55.4726 -55.4078 -55.3471 -55.3131 -55.0816 -54.8021
   -33.0765 -32.9230 -32.8948 -32.8159 -32.7244 -32.7019 -32.3345 -32.3283
   -32.3200 -32.1411 -32.1156 -32.0827 -32.0703 -32.0566 -32.0530 -32.0309
   -31.9992 -31.9972 -31.9928 -31.9869 -31.9770 -31.9669 -31.9599 -31.9567
   -31.9481 -31.9458 -31.9273 -31.9249 -31.8499 -31.7565 -31.7419 -31.7202
   -31.6831 -31.6767 -31.6591 -31.6480 -31.6315 -31.5985 -31.5757 -31.5600
   -31.4973 -31.4759 -31.3649 -31.3406 -31.2905 -31.1554 -31.0464 -30.9553
   -18.0996 -16.8410 -16.5056 -16.2736 -16.0313 -16.0266 -15.9398 -15.9050
   -15.8976 -15.7953 -15.7407 -15.7069 -15.6188 -15.6112 -15.4518 -15.3780
   -15.3537 -15.3439 -15.2260 -15.1764 -15.1614 -15.1128 -15.0751 -15.0204
   -14.8722 -14.8351 -14.7675 -14.6899 -14.5583 -14.3384 -13.8464 -13.7354
   -12.1742  -6.5603  -4.5542  -4.4123  -4.3954  -3.9839  -3.7887  -3.6709
    -3.5580  -3.5406  -3.5019  -3.2945  -3.2547  -3.2464  -3.1943  -3.1347
    -3.0803  -2.9394  -2.9087  -2.8600  -2.8514  -2.8347  -2.8216  -2.7534
    -2.6600  -2.5316  -2.5011  -2.4879  -2.4610  -2.3759  -2.3632  -2.2845
    -2.2660  -2.2357  -2.2097  -2.1960  -2.0474  -2.0304  -2.0024  -1.9792
    -1.9049  -1.8669  -1.8644  -1.7472  -1.6699  -1.5786  -1.5521  -1.4183
    -1.4107  -1.3683  -1.2946  -1.2740  -1.1834  -1.1342  -1.0684  -1.0474
    -0.9848  -0.9699  -0.8459  -0.8313  -0.8094  -0.7938  -0.6680  -0.6591
    -0.6240  -0.5480  -0.5448  -0.4912  -0.3821  -0.3569  -0.3297  -0.2955
    -0.2651  -0.2235  -0.1617  -0.1451  -0.0967  -0.0629   0.0188   0.1313
     0.1355   0.2159   0.2917   0.3215   0.4109   0.4597   0.5277   0.5957
     0.6209   0.6744   0.6928   0.7060   0.7964   0.8945   0.9107   0.9709
     1.2284   1.2679   1.4482   1.8856   2.2788   2.6209   2.7702   3.0743
     3.2027   3.3067   3.5775   3.6121   3.6505   3.7404   3.7581

[...]

          k = 0.0380-0.0419 0.0000 ( 17876 PWs)   bands (ev):

[...]

          k =-0.0760-0.0000 0.0000 ( 17886 PWs)   bands (ev):

[...]

          k =-0.0760-0.0839 0.0000 ( 17948 PWs)   bands (ev):

   -56.6272 -56.6264 -55.8417 -55.8346 -55.8296 -55.8283 -55.7720 -55.7688
   -55.6088 -55.5795 -55.4675 -55.4128 -55.3301 -55.3300 -55.0805 -54.8031
   -32.9092 -32.9081 -32.8933 -32.8928 -32.7689 -32.7681 -32.1583 -32.1559
   -32.1453 -32.1448 -32.1420 -32.1379 -32.0719 -32.0706 -32.0402 -32.0394
   -32.0312 -32.0293 -32.0275 -32.0250 -32.0230 -32.0221 -31.9762 -31.9709
   -31.9483 -31.9320 -31.8927 -31.8727 -31.8095 -31.7988 -31.7820 -31.7515
   -31.7030 -31.6721 -31.6720 -31.6541 -31.6426 -31.5982 -31.5573 -31.5571
   -31.5182 -31.5181 -31.4245 -31.3330 -31.2914 -31.1761 -31.0687 -31.0028
   -18.0904 -16.1932 -16.1896 -16.1524 -16.1518 -15.9535 -15.9489 -15.8980
   -15.8926 -15.7662 -15.7605 -15.5346 -15.5336 -15.5134 -15.4986 -15.4251
   -15.4106 -15.3865 -15.3741 -15.3509 -15.3355 -15.2201 -15.2040 -15.1666
   -15.1268 -14.8408 -14.7734 -14.7090 -14.5863 -14.4855 -13.8388 -13.8385
   -12.1802  -6.5493  -4.5422  -4.3673  -3.3264  -3.3217  -3.2606  -3.2492
    -3.2418  -3.1954  -3.1929  -3.0218  -3.0191  -3.0142  -3.0128  -2.8402
    -2.8390  -2.8200  -2.8043  -2.6993  -2.6840  -2.6670  -2.6484  -2.5985
    -2.5781  -2.5359  -2.5247  -2.5178  -2.5049  -2.4819  -2.4276  -2.4230
    -2.3645  -2.3400  -2.2433  -2.1887  -2.1875  -2.1641  -2.1304  -2.0542
    -2.0172  -1.8641  -1.8568  -1.7835  -1.7830  -1.6936  -1.6267  -1.5934
    -1.5402  -1.4915  -1.4815  -1.4344  -1.3466  -1.3345  -1.2651  -1.2514
    -1.2310  -1.1199  -1.0968  -1.0372  -0.9636  -0.9267  -0.8692  -0.8633
    -0.8449  -0.8324  -0.8014  -0.7447  -0.6773  -0.6450  -0.5919  -0.5524
    -0.5194  -0.4599  -0.3961  -0.3237  -0.2272  -0.1736  -0.1672  -0.1218
    -0.1079   0.0849   0.0947   0.1569   0.3302   0.4093   0.4975   0.5143
     0.5766   0.7159   0.7361   0.7459   0.7809   0.9748   1.0248   1.0793
     1.0796   1.0804   1.0986   1.8421   2.1337   3.1832   3.1840   3.2473
     3.2480   3.5692   3.5732   3.6755   3.6842   3.6928   3.6946

     the Fermi energy is     2.5001 ev

!    total energy              =   -2937.87538211 Ry
     estimated scf accuracy    <       0.00000007 Ry
     smearing contrib. (-TS)   =      -0.00686161 Ry
     internal energy E=F+TS    =   -2937.86852049 Ry

     The total energy is F=E-TS. E is the sum of the following terms:
     one-electron contribution =  -24389.77005757 Ry
     hartree contribution      =   12281.86686641 Ry
     xc contribution           =    -484.38874234 Ry
     ewald contribution        =    9654.42312384 Ry
     electric field correction =       0.00028916 Ry

     convergence has been achieved in  72 iterations

     Forces acting on atoms (cartesian axes, Ry/au):

     atom    1 type  1   force =    -0.00001747   -0.00038761    0.12077867
     atom    2 type  1   force =    -0.00005726   -0.00058929   -0.16263864
     atom    3 type  2   force =     0.00018739   -0.00020313   -0.06311202
     atom    4 type  2   force =    -0.00005817   -0.00048326    0.03062956
     atom    5 type  2   force =    -0.01677367    0.00081785   -0.00754373
     atom    6 type  2   force =     0.01809928    0.00143406   -0.00854856
     atom    7 type  1   force =     0.00080447   -0.00398383    0.01516093
     atom    8 type  1   force =    -0.00024995    0.00469068    0.10562468
     atom    9 type  2   force =    -0.00028636   -0.00003903    0.00067692
     atom   10 type  2   force =    -0.00276169    0.00065150   -0.06114499
     atom   11 type  2   force =     0.00049078    0.00022585   -0.00006400
     atom   12 type  2   force =    -0.00019004    0.00014680   -0.00016137
     atom   13 type  1   force =     0.00031532   -0.00011004   -0.00001093
     atom   14 type  1   force =    -0.00003693    0.00050741    0.00020691
     atom   15 type  2   force =    -0.00018700    0.00122794    0.00048922
     atom   16 type  2   force =     0.00008602   -0.00018270   -0.00039165
     atom   17 type  2   force =     0.00074010    0.00026139    0.00031957
     atom   18 type  2   force =    -0.00051545    0.00026621    0.00020899
     atom   19 type  1   force =     0.00028071    0.00027201   -0.00006244
     atom   20 type  1   force =     0.00024283   -0.00078121    0.00010487
     atom   21 type  2   force =     0.00005463    0.00005487    0.10012471
     atom   22 type  2   force =    -0.00013478    0.00262470   -0.00048618
     atom   23 type  2   force =    -0.07801968    0.00003428   -0.03196641
     atom   24 type  2   force =     0.07788789    0.00045349   -0.03196705
     atom   25 type  1   force =     0.00008229   -0.00038871    0.12038503
     atom   26 type  1   force =    -0.00010295   -0.00035303   -0.16277940
     atom   27 type  2   force =     0.00029474   -0.00045917   -0.06218348
     atom   28 type  2   force =    -0.00002904   -0.00028599    0.03048689
     atom   29 type  2   force =    -0.01726282    0.00115145   -0.00746526
     atom   30 type  2   force =     0.01854299    0.00141100   -0.00843471
     atom   31 type  1   force =     0.00072572   -0.00085006    0.01464907
     atom   32 type  1   force =    -0.00022696   -0.00735316    0.10638096
     atom   33 type  2   force =     0.00010127    0.00048879    0.00072992
     atom   34 type  2   force =    -0.00269240   -0.00007774   -0.07454044
     atom   35 type  2   force =     0.00058218   -0.00004065    0.00009387
     atom   36 type  2   force =    -0.00045396    0.00022277   -0.00002585
     atom   37 type  1   force =    -0.00015301    0.00064349    0.00004262
     atom   38 type  1   force =    -0.00018084    0.00050516    0.00020587
     atom   39 type  2   force =    -0.00020755   -0.00028365    0.00061718
     atom   40 type  2   force =     0.00016072    0.00001272    0.00006024
     atom   41 type  2   force =    -0.00055891   -0.00036464    0.00037074
     atom   42 type  2   force =     0.00094888   -0.00014842   -0.00031550
     atom   43 type  1   force =    -0.00024916   -0.00096936   -0.00004672
     atom   44 type  1   force =     0.00049141    0.00235272   -0.00168160
     atom   45 type  2   force =     0.00004775    0.00004357    0.10014341
     atom   46 type  2   force =    -0.07801364    0.00008847   -0.03193078
     atom   47 type  2   force =     0.07788925    0.00053179   -0.03194435
     atom   48 type  3   force =     0.00579278    0.00655772    0.00483331
     atom   49 type  4   force =     0.00077346    0.00019299    0.00035796
     atom   50 type  5   force =     0.00067131    0.00107532   -0.00019781
     atom   51 type  5   force =    -0.00044590    0.00014572    0.00100460
     atom   52 type  3   force =    -0.00642857   -0.01075802   -0.00504282

     Total force =     0.417541     Total SCF correction =     0.000688
  @ DRIVER MODE: Message from server: STATUS
  @ DRIVER MODE: Message from server: GETFORCE
  @ DRIVER MODE: Returning v,forces,stress,ensemble

     Writing output data file ./calc.save/
  @ DRIVER MODE: Message from server: EXIT
  @ DRIVE MODE: Exiting

     General routines

     Parallel routines

   This run was terminated on:   3:50:43  24Aug2021

   JOB DONE.