     Program PWSCF v.6.7GPU starts on 15Sep2021 at 18:27:30

     R & G space division:  proc/nbgrp/npool/nimage =      10
     Reading input from /storage/home/hcoda1/3/ntian30/research/carbon/CxH_vib/H2O_calc/ads_slab/CH2NNHHH2O_a/out_0008/pw.inp
Warning: card &CELL ignored
Warning: card   CELL_DYNAMICS='IPI', ignored
Warning: card / ignored

     Current dimensions of program PWSCF are:
     Max number of different atomic species (ntypx) = 10
     Max number of k-points (npk) =  40000
     Max angular momentum in pseudopotentials (lmaxx) =  3
     Presently no symmetry can be used with electric field

     Message from routine cell_base_init:
     DEPRECATED: use true lattice parameter, not A to a.u. conversion factor

     IMPORTANT: XC functional enforced from input :
     Exchange-correlation= BEEF-VDW
                           (   1   4  43  14   2   0   0)
     Any further DFT definition will be discarded
     Please, verify this is what you really want

  @ DRIVER MODE: Connecting to
 qe_1139763_2852611.sched-torque.pace.gatech.edur46a3rzr_scratch
  using UNIX socket
  @ DRIVER MODE: Message from server: STATUS
  @ DRIVER MODE: Message from server: INIT
  @ DRIVER MODE: Receiving replica           0          -1
  @ DRIVER MODE: Receiving encoded integer          25
  @ DRIVER MODE:  SCF:  T  FORCE:  T  STRESS:  F  VC:  F  ENSEMBLE:  F
  @ DRIVER MODE:  SCF:  T  FORCE:  T  STRESS:  F  VC:  F  ENSEMBLE:  F

     Using Slab Decomposition

     bravais-lattice index     =            0
     lattice parameter (alat)  =       1.8897  a.u.
     unit-cell volume          =    6658.9804 (a.u.)^3
     number of atoms/cell      =           57
     number of atomic types    =            5
     number of electrons       =       404.00
     number of Kohn-Sham states=          212
     kinetic-energy cutoff     =      29.3995  Ry
     charge density cutoff     =     293.9946  Ry
     scf convergence threshold =      7.3E-08
     mixing beta               =       0.0500
     number of iterations used =            8  plain     mixing
     Exchange-correlation= BEEF-VDW
                           (   1   4  43  14   2   0   0)

     celldm(1)=   1.889726  celldm(2)=   0.000000  celldm(3)=   0.000000
     celldm(4)=   0.000000  celldm(5)=   0.000000  celldm(6)=   0.000000

     crystal axes: (cart. coord. in units of alat)
               a(1) = (   6.579727   0.000000   0.000000 )
               a(2) = (  -0.000775   5.961596   0.000000 )
               a(3) = (   0.000000   0.000000  25.155947 )

     reciprocal axes: (cart. coord. in units 2 pi/alat)
               b(1) = (  0.151982  0.000020  0.000000 )
               b(2) = (  0.000000  0.167740  0.000000 )
               b(3) = (  0.000000  0.000000  0.039752 )

     PseudoPot. # 1 for Ti read from file:
     /storage/coda1/p-amedford6/0/shared/rich_project_chbe-medford/medford-share/data/pseudos_module/espresso/nninc/pbe/van/Ti.UPF
     MD5 check sum: 8e4df49b7f0d34bbd5052bf3f5ea0213
     Pseudo is Ultrasoft, Zval = 12.0
     Generated by new atomic code, or converted to UPF format
     Using radial grid of  851 points,  6 beta functions with:
                l(1) =   0
                l(2) =   0
                l(3) =   1
                l(4) =   1
                l(5) =   2
                l(6) =   2
     Q(r) pseudized with  8 coefficients,  rinner =    1.000   1.000   1.000
                                                       1.000   1.000

     PseudoPot. # 2 for O  read from file:
     /storage/coda1/p-amedford6/0/shared/rich_project_chbe-medford/medford-share/data/pseudos_module/espresso/nninc/pbe/van/O.UPF
     MD5 check sum: 78c19812648e8988a0fe644b0f25305e
     Pseudo is Ultrasoft, Zval =  6.0
     Generated by new atomic code, or converted to UPF format
     Using radial grid of  737 points,  4 beta functions with:
                l(1) =   0
                l(2) =   0
                l(3) =   1
                l(4) =   1
     Q(r) pseudized with  8 coefficients,  rinner =    0.800   0.800   0.800

     PseudoPot. # 3 for N  read from file:
     /storage/coda1/p-amedford6/0/shared/rich_project_chbe-medford/medford-share/data/pseudos_module/espresso/nninc/pbe/van/N.UPF
     MD5 check sum: 90d10febe142ad51ac9d5be1deb811c4
     Pseudo is Ultrasoft, Zval =  5.0
     Generated by new atomic code, or converted to UPF format
     Using radial grid of  729 points,  4 beta functions with:
                l(1) =   0
                l(2) =   0
                l(3) =   1
                l(4) =   1
     Q(r) pseudized with  8 coefficients,  rinner =    0.800   0.800   0.800

     PseudoPot. # 4 for C  read from file:
     /storage/coda1/p-amedford6/0/shared/rich_project_chbe-medford/medford-share/data/pseudos_module/espresso/nninc/pbe/van/C.UPF
     MD5 check sum: 1a69bf6b8db32088f5b2163dbdb77a27
     Pseudo is Ultrasoft, Zval =  4.0
     Generated by new atomic code, or converted to UPF format
     Using radial grid of  721 points,  4 beta functions with:
                l(1) =   0
                l(2) =   0
                l(3) =   1
                l(4) =   1
     Q(r) pseudized with  8 coefficients,  rinner =    0.800   0.800   0.800

     PseudoPot. # 5 for H  read from file:
     /storage/coda1/p-amedford6/0/shared/rich_project_chbe-medford/medford-share/data/pseudos_module/espresso/nninc/pbe/van/H.UPF
     MD5 check sum: b5ee9d7bfd3a09ee7748110bda690ff7
     Pseudo is Ultrasoft, Zval =  1.0
     Generated by new atomic code, or converted to UPF format
     Using radial grid of  615 points,  1 beta functions with:
                l(1) =   0
     Q(r) pseudized with  8 coefficients,  rinner =    0.800

     atomic species   valence    mass     pseudopotential
        Ti1           12.00    47.86700     Ti( 1.00)
        O1             6.00    15.99900     O ( 1.00)
        N1             5.00    14.00700     N ( 1.00)
        C1             4.00    12.01100     C ( 1.00)
        H1             1.00     1.00800     H ( 1.00)

     No symmetry found

   Cartesian axes

     site n.     atom                  positions (alat units)
         1           Ti1 tau(   1) = (   0.0004258   2.9801865   6.0000000  )
         2           Ti1 tau(   2) = (   3.2906075   1.4906267   6.0002472  )
         3           O1  tau(   3) = (   0.0006271   0.0005054   7.9858123  )
         4           O1  tau(   4) = (   3.2906025   0.0005020   7.3038282  )
         5           O1  tau(   5) = (   4.5942328   1.4918067   9.2879030  )
         6           O1  tau(   6) = (   1.9868534   1.4903216   9.2879459  )
         7           Ti1 tau(   7) = (   3.2907910   2.8959150   9.1758416  )
         8           Ti1 tau(   8) = (   0.0015273   1.4827037   9.2680791  )
         9           O1  tau(   9) = (   3.3121314   5.9338840  11.3691909  )
        10           O1  tau(  10) = (   0.0116148   5.9584955  10.6183126  )
        11           O1  tau(  11) = (   1.3134021   1.4784130  12.6451072  )
        12           O1  tau(  12) = (   5.3172625   1.4801399  12.6491864  )
        13           Ti1 tau(  13) = (   0.0380378   2.9573341  12.5222382  )
        14           Ti1 tau(  14) = (   3.3404755   1.4532591  12.5245293  )
        15           O1  tau(  15) = (   0.0239237   0.0366503  14.6894071  )
        16           O1  tau(  16) = (   3.3255740   5.9570089  14.0129324  )
        17           O1  tau(  17) = (   4.5846449   1.4795273  16.1858442  )
        18           O1  tau(  18) = (   2.0539891   1.4908220  16.1938258  )
        19           Ti1 tau(  19) = (   3.3028508   2.9322526  15.7076921  )
        20           Ti1 tau(  20) = (   0.0088316   1.3655950  16.0522487  )
        21           O1  tau(  21) = (   3.2904802   0.0005063   4.7018136  )
        22           O1  tau(  22) = (   0.0586005   5.8320325  17.2288864  )
        23           O1  tau(  23) = (   1.3043587   1.4918075   6.0039043  )
        24           O1  tau(  24) = (   5.2767064   1.4903225   6.0039473  )
        25           Ti1 tau(  25) = (   0.0000382   5.9609847   6.0000000  )
        26           Ti1 tau(  26) = (   3.2902200   4.4714249   6.0002472  )
        27           O1  tau(  27) = (   0.0002396   2.9813036   7.9858123  )
        28           O1  tau(  28) = (   3.2902150   2.9813002   7.3038282  )
        29           O1  tau(  29) = (   4.5938453   4.4726049   9.2879030  )
        30           O1  tau(  30) = (   1.9864658   4.4711199   9.2879459  )
        31           Ti1 tau(  31) = (   3.2891106   5.8743827   9.1763621  )
        32           Ti1 tau(  32) = (   0.0006254   4.4649316   9.2693709  )
        33           O1  tau(  33) = (   3.3142679   2.9660735  11.3641874  )
        34           O1  tau(  34) = (   0.0092240   2.9805883  10.6323155  )
        35           O1  tau(  35) = (   1.3108675   4.4558178  12.6782323  )
        36           O1  tau(  36) = (   5.3175068   4.4537340  12.6790822  )
        37           Ti1 tau(  37) = (   0.0418451   5.9490355  12.4996082  )
        38           Ti1 tau(  38) = (   3.3402151   4.4429940  12.5219265  )
        39           O1  tau(  39) = (   0.0332256   2.9148708  14.9327709  )
        40           O1  tau(  40) = (   3.3156017   2.9437717  13.9283311  )
        41           O1  tau(  41) = (   4.5915719   4.3868214  16.1197993  )
        42           O1  tau(  42) = (   2.0539401   4.4017640  16.0846163  )
        43           Ti1 tau(  43) = (   3.3369130   5.9116756  15.8392261  )
        44           Ti1 tau(  44) = (   0.0533093   4.5818758  15.8415549  )
        45           O1  tau(  45) = (   3.2900926   2.9813045   4.7018136  )
        46           O1  tau(  46) = (   1.3039711   4.4726057   6.0039043  )
        47           O1  tau(  47) = (   5.2763189   4.4711207   6.0039473  )
        48           N1  tau(  48) = (   6.5287229   2.7802708  18.1865785  )
        49           C1  tau(  49) = (   0.9824842   2.7744648  18.9576868  )
        50           H1  tau(  50) = (   0.9153086   3.0669255  20.0057840  )
        51           H1  tau(  51) = (   1.9225290   2.4867234  18.5393133  )
        52           N1  tau(  52) = (   5.2958906   3.1014149  18.7352402  )
        53           H1  tau(  53) = (   5.3913054   3.6367428  19.5974321  )
        54           H1  tau(  54) = (   4.7863746   3.6605970  18.0522289  )
        55           O1  tau(  55) = (   3.2511457   5.8152340  18.3397965  )
        56           H1  tau(  56) = (   3.7467739   0.6636339  18.5518981  )
        57           H1  tau(  57) = (   2.3053106   0.0674530  18.4201010  )

     number of k points=    10  Fermi-Dirac smearing, width (Ry)=  0.0073
                       cart. coord. in units 2pi/alat
        k(    1) = (   0.0000000   0.0000000   0.0000000), wk =   0.1250000
        k(    2) = (   0.0000000   0.0419351   0.0000000), wk =   0.2500000
        k(    3) = (   0.0000000  -0.0838702   0.0000000), wk =   0.1250000
        k(    4) = (   0.0379955   0.0000049   0.0000000), wk =   0.2500000
        k(    5) = (   0.0379955   0.0419400   0.0000000), wk =   0.2500000
        k(    6) = (   0.0379955  -0.0838652   0.0000000), wk =   0.2500000
        k(    7) = (   0.0379955  -0.0419301   0.0000000), wk =   0.2500000
        k(    8) = (  -0.0759910  -0.0000099   0.0000000), wk =   0.1250000
        k(    9) = (  -0.0759910   0.0419252   0.0000000), wk =   0.2500000
        k(   10) = (  -0.0759910  -0.0838800   0.0000000), wk =   0.1250000

     Initial potential from superposition of free atoms

     starting charge  387.99913, renormalised to  404.00000

     negative rho (up, down):  1.527E-02 0.000E+00

     %%%%%%%%%%%%%%%%%%%%%%%%%%%%%%%%%%%%%%%%%%%%%%%%%%%%%%%%%%%%%%%%%%%%%%%%
     %                                                                      %
     % You are using vdW-DF, which was implemented by the Thonhauser group. %
     % Please cite the following two papers that made this development      %
     % possible and the two reviews that describe the various versions:     %
     %                                                                      %
     %   T. Thonhauser et al., PRL 115, 136402 (2015).                      %
     %   T. Thonhauser et al., PRB 76, 125112 (2007).                       %
     %   K. Berland et al., Rep. Prog. Phys. 78, 066501 (2015).             %
     %   D.C. Langreth et al., J. Phys.: Condens. Matter 21, 084203 (2009). %
     %                                                                      %
     %                                                                      %
     % If you are calculating the stress with vdW-DF, please also cite:     %
     %                                                                      %
     %   R. Sabatini et al., J. Phys.: Condens. Matter 24, 424209 (2012).   %
     %                                                                      %
     %%%%%%%%%%%%%%%%%%%%%%%%%%%%%%%%%%%%%%%%%%%%%%%%%%%%%%%%%%%%%%%%%%%%%%%%

     Adding external electric field

     Computed dipole along edir(3) :
        Dipole              -14.3244 Ry au,        -36.4090 Debye
        Dipole field         -0.0270 Ry au,

        Potential amp.        2.5058 Ry
        Total length         46.3494 bohr

     Starting wfcs are  306 atomic wfcs
  @ DRIVER MODE: Message from server: STATUS
  @ DRIVER MODE: Message from server: POSDATA
  @ DRIVER MODE: Reading and sharing cell
  @ DRIVER MODE: Reading and sharing positions
  @ DRIVER MODE: Received positions

     Self-consistent Calculation

     iteration #  1     ecut=    29.40 Ry     beta= 0.05
     Davidson diagonalization with overlap
     c_bands:  4 eigenvalues not converged
     c_bands:  3 eigenvalues not converged
     c_bands:  5 eigenvalues not converged
     c_bands:  1 eigenvalues not converged
     c_bands:  2 eigenvalues not converged
     c_bands:  1 eigenvalues not converged
     c_bands:  2 eigenvalues not converged
     c_bands:  4 eigenvalues not converged
     c_bands:  5 eigenvalues not converged
     ethr =  1.00E-05,  avg # of iterations = 24.6

[...]

     total energy              =   -2233.96511511 Ry
     estimated scf accuracy    <    8445.22649201 Ry

     iteration #  2     ecut=    29.40 Ry     beta= 0.05
     Davidson diagonalization with overlap
     ethr =  1.00E-02,  avg # of iterations = 25.1

[...]

     iteration # 69     ecut=    29.40 Ry     beta= 0.05
     Davidson diagonalization with overlap
     c_bands:  1 eigenvalues not converged
     ethr =  3.61E-11,  avg # of iterations = 13.2

[...]

     total energy              =   -2975.20568868 Ry
     estimated scf accuracy    <       0.00000008 Ry

     iteration # 70     ecut=    29.40 Ry     beta= 0.05
     Davidson diagonalization with overlap
     ethr =  2.05E-11,  avg # of iterations =  7.5

     negative rho (up, down):  1.519E-02 0.000E+00

     Adding external electric field

     Computed dipole along edir(3) :
        Dipole                1.3944 Ry au,          3.5442 Debye
        Dipole field          0.0026 Ry au,

        Potential amp.       -0.2439 Ry
        Total length         46.3494 bohr

     End of self-consistent calculation

          k = 0.0000 0.0000 0.0000 ( 18029 PWs)   bands (ev):

   -55.1929 -55.1570 -55.1531 -55.1190 -55.1055 -55.0735 -55.0376 -55.0355
   -55.0116 -54.9824 -54.9766 -54.9738 -54.9488 -54.8759 -54.1763 -54.1422
   -31.7582 -31.6447 -31.6009 -31.5621 -31.5118 -31.5009 -31.4942 -31.4869
   -31.4421 -31.4079 -31.4043 -31.3977 -31.3958 -31.3695 -31.3465 -31.3378
   -31.3365 -31.3306 -31.3109 -31.3049 -31.2842 -31.2802 -31.2662 -31.2525
   -31.2414 -31.2382 -31.2160 -31.2120 -31.2101 -31.2037 -31.1978 -31.1800
   -31.1753 -31.1648 -31.1598 -31.1471 -31.1257 -31.1223 -31.1105 -31.0928
   -31.0921 -31.0053 -30.5852 -30.4918 -30.4697 -30.4017 -30.3149 -30.2039
   -18.9141 -18.4984 -16.0182 -15.7528 -15.6164 -15.5064 -15.3914 -15.2610
   -15.2141 -15.0828 -15.0233 -14.9100 -14.8808 -14.8387 -14.8187 -14.8150
   -14.7568 -14.7300 -14.7229 -14.6978 -14.6876 -14.6662 -14.6269 -14.6206
   -14.5846 -14.5720 -14.5698 -14.4248 -14.3473 -14.2829 -13.9679 -13.6285
   -12.6783 -12.5610  -8.8128  -6.7023  -6.4647  -6.0205  -4.1674  -3.3612
    -3.2059  -3.1826  -3.1292  -3.0895  -3.0570  -3.0086  -2.9432  -2.7394
    -2.6047  -2.5772  -2.4592  -2.3930  -2.3884  -2.3354  -2.1925  -2.1873
    -2.1320  -2.0921  -2.0428  -2.0228  -1.9997  -1.9759  -1.9414  -1.9219
    -1.8959  -1.7602  -1.7392  -1.6668  -1.6041  -1.5945  -1.5362  -1.5125
    -1.4923  -1.4873  -1.4795  -1.4661  -1.4277  -1.4143  -1.3712  -1.3117
    -1.2113  -1.1145  -1.0284  -0.9485  -0.8877  -0.8270  -0.7655  -0.7564
    -0.6791  -0.6664  -0.5759  -0.5495  -0.5220  -0.4089  -0.3448  -0.3415
    -0.2789  -0.1775  -0.1486  -0.1312  -0.0598   0.0171   0.0359   0.0451
     0.0518   0.1760   0.2284   0.2632   0.2946   0.3649   0.3864   0.4384
     0.4844   0.4912   0.5683   0.6292   0.6839   0.7344   0.7492   0.7757
     0.7928   0.8036   0.8193   0.8993   0.9223   0.9584   1.0083   1.1642
     1.3257   1.4226   1.4391   1.7567   1.7699   1.8471   2.0314   2.4221
     2.4700   3.9032   3.9801   4.0395   4.0452   4.0545   4.1404   4.3849
     4.4003   4.4133   4.4257   4.4697

[...]

          k = 0.0380-0.0419 0.0000 ( 17876 PWs)   bands (ev):

[...]

          k =-0.0760-0.0000 0.0000 ( 17886 PWs)   bands (ev):

[...]

          k =-0.0760-0.0839 0.0000 ( 17948 PWs)   bands (ev):

   -55.1758 -55.1739 -55.1361 -55.1359 -55.1032 -55.0625 -55.0464 -55.0355
   -54.9971 -54.9905 -54.9759 -54.9659 -54.9655 -54.8778 -54.1592 -54.1591
   -31.5675 -31.5574 -31.5258 -31.4599 -31.4597 -31.4536 -31.4447 -31.4275
   -31.4274 -31.4063 -31.3958 -31.3929 -31.3806 -31.3547 -31.3301 -31.3247
   -31.3244 -31.3242 -31.3218 -31.3126 -31.3071 -31.2882 -31.2749 -31.2724
   -31.2585 -31.2555 -31.2554 -31.2527 -31.2428 -31.2408 -31.2305 -31.2282
   -31.2212 -31.2103 -31.2044 -31.1945 -31.1933 -31.1570 -31.1460 -31.1457
   -31.1000 -31.0916 -30.4824 -30.4824 -30.3977 -30.3976 -30.3584 -30.3583
   -18.9119 -18.4975 -15.5338 -15.4889 -15.3336 -15.1991 -15.1959 -15.1556
   -15.0996 -15.0275 -15.0067 -14.9640 -14.9531 -14.9346 -14.8976 -14.8908
   -14.8644 -14.7939 -14.7844 -14.7760 -14.7421 -14.7032 -14.6925 -14.6911
   -14.6743 -14.6444 -14.6413 -14.5438 -14.5416 -14.4472 -14.3070 -13.6437
   -12.6626 -12.6624  -8.7761  -6.7020  -6.4146  -6.0487  -4.2153  -3.1818
    -2.9306  -2.7530  -2.6467  -2.5453  -2.4185  -2.4129  -2.3274  -2.3185
    -2.2376  -2.2038  -2.1915  -2.1751  -2.0843  -2.0711  -2.0599  -2.0392
    -2.0227  -2.0047  -1.9728  -1.9658  -1.9426  -1.9166  -1.9062  -1.9045
    -1.8836  -1.8524  -1.8211  -1.8020  -1.7814  -1.7509  -1.7387  -1.6704
    -1.6306  -1.5437  -1.5075  -1.3941  -1.3921  -1.3656  -1.3131  -1.2950
    -1.2731  -1.2249  -1.2151  -1.1693  -1.0224  -0.9409  -0.9301  -0.8913
    -0.8419  -0.7934  -0.7474  -0.7300  -0.6651  -0.6447  -0.5489  -0.5360
    -0.4303  -0.3929  -0.3811  -0.3649  -0.2809  -0.2181  -0.1716  -0.1520
    -0.1474  -0.0967  -0.0826  -0.0692   0.0027   0.0495   0.0733   0.0879
     0.1298   0.2991   0.3582   0.3727   0.4920   0.5424   0.6507   0.7090
     0.7858   0.8015   0.8369   0.9268   0.9336   1.0103   1.1046   1.1184
     1.1575   1.1991   1.2481   1.2708   1.2757   2.2044   2.2057   2.2899
     2.2901   4.0479   4.1226   4.1816   4.2288   4.2361   4.3591   4.4205
     4.4634   4.4851   4.4878   4.5644

     the Fermi energy is     3.9612 ev

!    total energy              =   -2975.20573280 Ry
     estimated scf accuracy    <       0.00000005 Ry
     smearing contrib. (-TS)   =      -0.03733213 Ry
     internal energy E=F+TS    =   -2975.16840067 Ry

     The total energy is F=E-TS. E is the sum of the following terms:
     one-electron contribution =  -23537.92432487 Ry
     hartree contribution      =   11866.94180512 Ry
     xc contribution           =    -494.96553330 Ry
     ewald contribution        =    9190.77598311 Ry
     electric field correction =       0.00366927 Ry

     convergence has been achieved in  70 iterations

     Forces acting on atoms (cartesian axes, Ry/au):

     atom    1 type  1   force =     0.00006080   -0.00019318    0.09363202
     atom    2 type  1   force =    -0.00020314   -0.00020569   -0.17801063
     atom    3 type  2   force =     0.00011036   -0.00020441   -0.02065075
     atom    4 type  2   force =     0.00004648   -0.00197505    0.05806425
     atom    5 type  2   force =    -0.01002126   -0.00166626    0.00693183
     atom    6 type  2   force =     0.01216486   -0.00103577    0.00744415
     atom    7 type  1   force =     0.00022435    0.00248587   -0.01210516
     atom    8 type  1   force =    -0.00049482    0.00204379   -0.00193671
     atom    9 type  2   force =     0.00006792    0.00006381   -0.00004589
     atom   10 type  2   force =    -0.00044574   -0.00135191   -0.00317732
     atom   11 type  2   force =     0.00015984   -0.00008259   -0.00009681
     atom   12 type  2   force =    -0.00067143   -0.00012189    0.00005963
     atom   13 type  1   force =     0.00051771    0.00098000    0.00030809
     atom   14 type  1   force =    -0.00140262    0.00027396    0.00018246
     atom   15 type  2   force =    -0.00019282    0.00093339    0.00011069
     atom   16 type  2   force =    -0.00001208   -0.00043256    0.00010497
     atom   17 type  2   force =     0.00057316    0.00001889   -0.00032614
     atom   18 type  2   force =     0.00067158    0.00014823   -0.00042463
     atom   19 type  1   force =    -0.00119673    0.00095124    0.00051613
     atom   20 type  1   force =     0.00057576    0.00017915   -0.00026528
     atom   21 type  2   force =     0.00001343   -0.00002131    0.10388892
     atom   22 type  2   force =     0.00004191    0.00086011   -0.00035820
     atom   23 type  2   force =    -0.07052737   -0.00010483   -0.02695541
     atom   24 type  2   force =     0.07046728    0.00031988   -0.02701895
     atom   25 type  1   force =     0.00002545   -0.00019175    0.09306704
     atom   26 type  1   force =    -0.00009569   -0.00049138   -0.17793482
     atom   27 type  2   force =     0.00017113   -0.00036891   -0.01955276
     atom   28 type  2   force =     0.00010938   -0.00160477    0.05714209
     atom   29 type  2   force =    -0.01007172   -0.00086040    0.00630918
     atom   30 type  2   force =     0.01213270   -0.00061402    0.00686750
     atom   31 type  1   force =     0.00031498    0.00503145   -0.01528618
     atom   32 type  1   force =    -0.00039096   -0.00267734   -0.00235945
     atom   33 type  2   force =    -0.00003211   -0.00025788   -0.00004817
     atom   34 type  2   force =     0.00046196    0.00031619   -0.00055843
     atom   35 type  2   force =    -0.00011688   -0.00036908   -0.00009860
     atom   36 type  2   force =    -0.00045256   -0.00036118    0.00021971
     atom   37 type  1   force =     0.00027304   -0.00103873    0.00057380
     atom   38 type  1   force =    -0.00122292    0.00024696    0.00130460
     atom   39 type  2   force =    -0.00012736   -0.00046777    0.00009724
     atom   40 type  2   force =     0.00003113   -0.00042077    0.00041772
     atom   41 type  2   force =    -0.00028343   -0.00002172    0.00006679
     atom   42 type  2   force =     0.00143951   -0.00023675   -0.00005858
     atom   43 type  1   force =    -0.00123019   -0.00071460    0.00004493
     atom   44 type  1   force =     0.00097844    0.00049578    0.00034212
     atom   45 type  2   force =     0.00004017   -0.00002021    0.10382665
     atom   46 type  2   force =    -0.07055624   -0.00008816   -0.02696675
     atom   47 type  2   force =     0.07046073    0.00037873   -0.02699612
     atom   48 type  3   force =     0.01247258   -0.00057664    0.00692508
     atom   49 type  4   force =    -0.02806809    0.00472174   -0.00260912
     atom   50 type  5   force =     0.00189402   -0.00036154   -0.00135771
     atom   51 type  5   force =     0.00983845   -0.00293370   -0.00424639
     atom   52 type  3   force =     0.00287082    0.00030664    0.00088724
     atom   53 type  5   force =     0.00004919    0.00051131   -0.00008658
     atom   54 type  5   force =    -0.00053106    0.00071594    0.00000082
     atom   55 type  2   force =    -0.00051294    0.00077241   -0.00024009
     atom   56 type  5   force =    -0.00035208   -0.00040069    0.00084873
     atom   57 type  5   force =    -0.00004689   -0.00028199   -0.00041273

     Total force =     0.367314     Total SCF correction =     0.000610
  @ DRIVER MODE: Message from server: STATUS
  @ DRIVER MODE: Message from server: GETFORCE
  @ DRIVER MODE: Returning v,forces,stress,ensemble

     Writing output data file ./calc.save/
  @ DRIVER MODE: Message from server: EXIT
  @ DRIVE MODE: Exiting

     General routines

     Parallel routines

   This run was terminated on:  18:47:24  15Sep2021

   JOB DONE.