     Program PWSCF v.6.7GPU starts on 21Sep2021 at  0:31:26

     R & G space division:  proc/nbgrp/npool/nimage =      10
     Reading input from /storage/home/hcoda1/3/ntian30/research/carbon/CxH_vib/H2O_calc/ads_slab/CH3H2O_a/out_0016/pw.inp
Warning: card &CELL ignored
Warning: card   CELL_DYNAMICS='IPI', ignored
Warning: card / ignored

     Current dimensions of program PWSCF are:
     Max number of different atomic species (ntypx) = 10
     Max number of k-points (npk) =  40000
     Max angular momentum in pseudopotentials (lmaxx) =  3
     Presently no symmetry can be used with electric field

     Message from routine cell_base_init:
     DEPRECATED: use true lattice parameter, not A to a.u. conversion factor

     IMPORTANT: XC functional enforced from input :
     Exchange-correlation= BEEF-VDW
                           (   1   4  43  14   2   0   0)
     Any further DFT definition will be discarded
     Please, verify this is what you really want

  @ DRIVER MODE: Connecting to
 qe_1139763_2911776.sched-torque.pace.gatech.eduxuggcuu1_scratch
  using UNIX socket
  @ DRIVER MODE: Message from server: STATUS
  @ DRIVER MODE: Message from server: INIT
  @ DRIVER MODE: Receiving replica           0          -1
  @ DRIVER MODE: Receiving encoded integer          25
  @ DRIVER MODE:  SCF:  T  FORCE:  T  STRESS:  F  VC:  F  ENSEMBLE:  F
  @ DRIVER MODE:  SCF:  T  FORCE:  T  STRESS:  F  VC:  F  ENSEMBLE:  F

     Using Slab Decomposition

     bravais-lattice index     =            0
     lattice parameter (alat)  =       1.8897  a.u.
     unit-cell volume          =    6658.9804 (a.u.)^3
     number of atoms/cell      =           54
     number of atomic types    =            4
     number of electrons       =       393.00
     number of Kohn-Sham states=          206
     kinetic-energy cutoff     =      29.3995  Ry
     charge density cutoff     =     293.9946  Ry
     scf convergence threshold =      7.3E-08
     mixing beta               =       0.0500
     number of iterations used =            8  plain     mixing
     Exchange-correlation= BEEF-VDW
                           (   1   4  43  14   2   0   0)

     celldm(1)=   1.889726  celldm(2)=   0.000000  celldm(3)=   0.000000
     celldm(4)=   0.000000  celldm(5)=   0.000000  celldm(6)=   0.000000

     crystal axes: (cart. coord. in units of alat)
               a(1) = (   6.579727   0.000000   0.000000 )
               a(2) = (  -0.000775   5.961596   0.000000 )
               a(3) = (   0.000000   0.000000  25.155947 )

     reciprocal axes: (cart. coord. in units 2 pi/alat)
               b(1) = (  0.151982  0.000020  0.000000 )
               b(2) = (  0.000000  0.167740  0.000000 )
               b(3) = (  0.000000  0.000000  0.039752 )

     PseudoPot. # 1 for Ti read from file:
     /storage/coda1/p-amedford6/0/shared/rich_project_chbe-medford/medford-share/data/pseudos_module/espresso/nninc/pbe/van/Ti.UPF
     MD5 check sum: 8e4df49b7f0d34bbd5052bf3f5ea0213
     Pseudo is Ultrasoft, Zval = 12.0
     Generated by new atomic code, or converted to UPF format
     Using radial grid of  851 points,  6 beta functions with:
                l(1) =   0
                l(2) =   0
                l(3) =   1
                l(4) =   1
                l(5) =   2
                l(6) =   2
     Q(r) pseudized with  8 coefficients,  rinner =    1.000   1.000   1.000
                                                       1.000   1.000

     PseudoPot. # 2 for O  read from file:
     /storage/coda1/p-amedford6/0/shared/rich_project_chbe-medford/medford-share/data/pseudos_module/espresso/nninc/pbe/van/O.UPF
     MD5 check sum: 78c19812648e8988a0fe644b0f25305e
     Pseudo is Ultrasoft, Zval =  6.0
     Generated by new atomic code, or converted to UPF format
     Using radial grid of  737 points,  4 beta functions with:
                l(1) =   0
                l(2) =   0
                l(3) =   1
                l(4) =   1
     Q(r) pseudized with  8 coefficients,  rinner =    0.800   0.800   0.800

     PseudoPot. # 3 for C  read from file:
     /storage/coda1/p-amedford6/0/shared/rich_project_chbe-medford/medford-share/data/pseudos_module/espresso/nninc/pbe/van/C.UPF
     MD5 check sum: 1a69bf6b8db32088f5b2163dbdb77a27
     Pseudo is Ultrasoft, Zval =  4.0
     Generated by new atomic code, or converted to UPF format
     Using radial grid of  721 points,  4 beta functions with:
                l(1) =   0
                l(2) =   0
                l(3) =   1
                l(4) =   1
     Q(r) pseudized with  8 coefficients,  rinner =    0.800   0.800   0.800

     PseudoPot. # 4 for H  read from file:
     /storage/coda1/p-amedford6/0/shared/rich_project_chbe-medford/medford-share/data/pseudos_module/espresso/nninc/pbe/van/H.UPF
     MD5 check sum: b5ee9d7bfd3a09ee7748110bda690ff7
     Pseudo is Ultrasoft, Zval =  1.0
     Generated by new atomic code, or converted to UPF format
     Using radial grid of  615 points,  1 beta functions with:
                l(1) =   0
     Q(r) pseudized with  8 coefficients,  rinner =    0.800

     atomic species   valence    mass     pseudopotential
        Ti1           12.00    47.86700     Ti( 1.00)
        O1             6.00    15.99900     O ( 1.00)
        C1             4.00    12.01100     C ( 1.00)
        H1             1.00     1.00800     H ( 1.00)

     No symmetry found

   Cartesian axes

     site n.     atom                  positions (alat units)
         1           Ti1 tau(   1) = (   0.0004258   2.9801865   6.0000000  )
         2           Ti1 tau(   2) = (   3.2906075   1.4906267   6.0002472  )
         3           O1  tau(   3) = (   0.0006271   0.0005054   7.9858123  )
         4           O1  tau(   4) = (   3.2906025   0.0005020   7.3038282  )
         5           O1  tau(   5) = (   4.5942328   1.4918067   9.2879030  )
         6           O1  tau(   6) = (   1.9868534   1.4903216   9.2879459  )
         7           Ti1 tau(   7) = (   3.3154911   2.9426235   9.1630835  )
         8           Ti1 tau(   8) = (   0.0285409   1.6075342   9.3657832  )
         9           O1  tau(   9) = (   3.2815087   0.0160907  11.3545821  )
        10           O1  tau(  10) = (   0.0024802   0.0106306  10.6007539  )
        11           O1  tau(  11) = (   1.2725489   1.5064038  12.6453836  )
        12           O1  tau(  12) = (   5.2753141   1.5150378  12.6350139  )
        13           Ti1 tau(  13) = (   0.0284581   2.9538459  12.7835337  )
        14           Ti1 tau(  14) = (   3.3388075   1.4895305  12.5082680  )
        15           O1  tau(  15) = (   6.5535251   0.0144872  14.6406477  )
        16           O1  tau(  16) = (   3.2781334   0.0285334  13.9682696  )
        17           O1  tau(  17) = (   4.5366274   1.5703088  16.0558364  )
        18           O1  tau(  18) = (   2.0012422   1.5648880  16.0484572  )
        19           Ti1 tau(  19) = (   3.2604835   3.0254881  15.6976271  )
        20           Ti1 tau(  20) = (   6.5333720   1.5229778  16.1593769  )
        21           O1  tau(  21) = (   3.2904802   0.0005063   4.7018136  )
        22           O1  tau(  22) = (   6.5574971   0.0350135  17.1872057  )
        23           O1  tau(  23) = (   1.3043587   1.4918075   6.0039043  )
        24           O1  tau(  24) = (   5.2767064   1.4903225   6.0039473  )
        25           Ti1 tau(  25) = (   0.0000382   5.9609847   6.0000000  )
        26           Ti1 tau(  26) = (   3.2902200   4.4714249   6.0002472  )
        27           O1  tau(  27) = (   0.0002396   2.9813036   7.9858123  )
        28           O1  tau(  28) = (   3.2902150   2.9813002   7.3038282  )
        29           O1  tau(  29) = (   4.5938453   4.4726049   9.2879030  )
        30           O1  tau(  30) = (   1.9864658   4.4711199   9.2879459  )
        31           Ti1 tau(  31) = (   3.3083403   5.9269411   9.1538128  )
        32           Ti1 tau(  32) = (   0.0303829   4.5362093   9.2612125  )
        33           O1  tau(  33) = (   3.2841341   2.9899418  11.3555480  )
        34           O1  tau(  34) = (   0.0038936   2.9924975  10.5838058  )
        35           O1  tau(  35) = (   1.2726398   4.4822405  12.6394144  )
        36           O1  tau(  36) = (   5.2736595   4.4864409  12.6303220  )
        37           Ti1 tau(  37) = (   0.0300145   5.9360250  12.5182071  )
        38           Ti1 tau(  38) = (   3.3377519   4.4811756  12.4937589  )
        39           O1  tau(  39) = (   6.5654514   3.0136449  14.7225067  )
        40           O1  tau(  40) = (   3.2707049   3.0114760  13.9116621  )
        41           O1  tau(  41) = (   4.5328936   4.4881537  16.0752462  )
        42           O1  tau(  42) = (   1.9999049   4.4921254  16.0707699  )
        43           Ti1 tau(  43) = (   3.2502456   0.0519323  15.7983500  )
        44           Ti1 tau(  44) = (   6.5407796   4.6451211  15.8442649  )
        45           O1  tau(  45) = (   3.2900926   2.9813045   4.7018136  )
        46           O1  tau(  46) = (   1.3039711   4.4726057   6.0039043  )
        47           O1  tau(  47) = (   5.2763189   4.4711207   6.0039473  )
        48           C1  tau(  48) = (   6.5619928   2.8946514  17.8930439  )
        49           H1  tau(  49) = (   6.5552299   3.9601472  18.1196503  )
        50           H1  tau(  50) = (   0.8760557   2.4950835  18.3732843  )
        51           H1  tau(  51) = (   5.6817198   2.4733575  18.3891814  )
        52           O1  tau(  52) = (   3.2572702   0.1178616  18.1992317  )
        53           H1  tau(  53) = (   4.0330629   5.5870706  18.5079137  )
        54           H1  tau(  54) = (   2.4710694   5.5989049  18.5058656  )

     number of k points=    10  Fermi-Dirac smearing, width (Ry)=  0.0073
                       cart. coord. in units 2pi/alat
        k(    1) = (   0.0000000   0.0000000   0.0000000), wk =   0.1250000
        k(    2) = (   0.0000000   0.0419351   0.0000000), wk =   0.2500000
        k(    3) = (   0.0000000  -0.0838702   0.0000000), wk =   0.1250000
        k(    4) = (   0.0379955   0.0000049   0.0000000), wk =   0.2500000
        k(    5) = (   0.0379955   0.0419400   0.0000000), wk =   0.2500000
        k(    6) = (   0.0379955  -0.0838652   0.0000000), wk =   0.2500000
        k(    7) = (   0.0379955  -0.0419301   0.0000000), wk =   0.2500000
        k(    8) = (  -0.0759910  -0.0000099   0.0000000), wk =   0.1250000
        k(    9) = (  -0.0759910   0.0419252   0.0000000), wk =   0.2500000
        k(   10) = (  -0.0759910  -0.0838800   0.0000000), wk =   0.1250000

     Initial potential from superposition of free atoms

     starting charge  376.99916, renormalised to  393.00000

     negative rho (up, down):  1.843E-02 0.000E+00

     %%%%%%%%%%%%%%%%%%%%%%%%%%%%%%%%%%%%%%%%%%%%%%%%%%%%%%%%%%%%%%%%%%%%%%%%
     %                                                                      %
     % You are using vdW-DF, which was implemented by the Thonhauser group. %
     % Please cite the following two papers that made this development      %
     % possible and the two reviews that describe the various versions:     %
     %                                                                      %
     %   T. Thonhauser et al., PRL 115, 136402 (2015).                      %
     %   T. Thonhauser et al., PRB 76, 125112 (2007).                       %
     %   K. Berland et al., Rep. Prog. Phys. 78, 066501 (2015).             %
     %   D.C. Langreth et al., J. Phys.: Condens. Matter 21, 084203 (2009). %
     %                                                                      %
     %                                                                      %
     % If you are calculating the stress with vdW-DF, please also cite:     %
     %                                                                      %
     %   R. Sabatini et al., J. Phys.: Condens. Matter 24, 424209 (2012).   %
     %                                                                      %
     %%%%%%%%%%%%%%%%%%%%%%%%%%%%%%%%%%%%%%%%%%%%%%%%%%%%%%%%%%%%%%%%%%%%%%%%

     Adding external electric field

     Computed dipole along edir(3) :
        Dipole               -6.6597 Ry au,        -16.9273 Debye
        Dipole field         -0.0126 Ry au,

        Potential amp.        1.1650 Ry
        Total length         46.3494 bohr

     Starting wfcs are  297 atomic wfcs
  @ DRIVER MODE: Message from server: STATUS
  @ DRIVER MODE: Message from server: POSDATA
  @ DRIVER MODE: Reading and sharing cell
  @ DRIVER MODE: Reading and sharing positions
  @ DRIVER MODE: Received positions

     Self-consistent Calculation

     iteration #  1     ecut=    29.40 Ry     beta= 0.05
     Davidson diagonalization with overlap
     c_bands:  2 eigenvalues not converged
     c_bands:  2 eigenvalues not converged
     c_bands:  2 eigenvalues not converged
     c_bands:  1 eigenvalues not converged
     c_bands:  1 eigenvalues not converged
     ethr =  1.00E-05,  avg # of iterations = 18.0

[...]

     total energy              =   -2713.81034614 Ry
     estimated scf accuracy    <    2414.31721539 Ry

[...]

     iteration #  3     ecut=    29.40 Ry     beta= 0.05
     Davidson diagonalization with overlap
     ethr =  1.00E-02,  avg # of iterations = 15.7

[...]

     iteration # 57     ecut=    29.40 Ry     beta= 0.05
     Davidson diagonalization with overlap
     c_bands:  1 eigenvalues not converged
     c_bands:  1 eigenvalues not converged
     ethr =  3.94E-11,  avg # of iterations = 14.9

[...]

     total energy              =   -2933.86690476 Ry
     estimated scf accuracy    <       0.00000018 Ry

     iteration # 59     ecut=    29.40 Ry     beta= 0.05
     Davidson diagonalization with overlap
     ethr =  3.94E-11,  avg # of iterations = 10.5

     negative rho (up, down):  1.750E-02 0.000E+00

     Adding external electric field

     Computed dipole along edir(3) :
        Dipole                0.8192 Ry au,          2.0823 Debye
        Dipole field          0.0015 Ry au,

        Potential amp.       -0.1433 Ry
        Total length         46.3494 bohr

     End of self-consistent calculation

          k = 0.0000 0.0000 0.0000 ( 18029 PWs)   bands (ev):

   -55.8887 -55.8527 -55.8461 -55.8202 -55.8095 -55.7782 -55.7451 -55.6895
   -55.6590 -55.6499 -55.6168 -55.6093 -55.5507 -55.5497 -54.8980 -54.8639
   -32.4036 -32.3576 -32.2614 -32.2404 -32.1804 -32.1606 -32.1600 -32.1264
   -32.1159 -32.1064 -32.0873 -32.0826 -32.0640 -32.0487 -32.0472 -32.0295
   -31.9977 -31.9918 -31.9797 -31.9788 -31.9536 -31.9506 -31.9453 -31.9300
   -31.9269 -31.9041 -31.9006 -31.8873 -31.8819 -31.8737 -31.8712 -31.8457
   -31.8211 -31.8049 -31.7934 -31.7911 -31.7689 -31.7541 -31.7523 -31.7364
   -31.7355 -31.6577 -31.3077 -31.2112 -31.1889 -31.1241 -31.0380 -30.9270
   -19.3371 -16.6139 -16.3378 -16.1891 -16.0504 -16.0142 -15.8145 -15.7024
   -15.5822 -15.5454 -15.4861 -15.4655 -15.4339 -15.4137 -15.4110 -15.3969
   -15.3895 -15.3367 -15.3279 -15.2927 -15.2911 -15.2645 -15.2090 -15.1638
   -15.1093 -15.0559 -15.0075 -14.9413 -14.8845 -14.8740 -13.3991 -13.2811
    -9.3097  -7.1386  -3.9850  -3.8332  -3.8154  -3.7803  -3.7184  -3.6260
    -3.4762  -3.3646  -3.2249  -3.0750  -3.0243  -3.0102  -3.0073  -2.9814
    -2.8821  -2.7587  -2.7357  -2.7053  -2.7002  -2.6814  -2.6809  -2.6431
    -2.5988  -2.5874  -2.5521  -2.5411  -2.3872  -2.3255  -2.3021  -2.2609
    -2.1998  -2.1903  -2.1562  -2.1418  -2.1333  -2.0962  -2.0788  -2.0320
    -1.9814  -1.9121  -1.8273  -1.7714  -1.6715  -1.5811  -1.5203  -1.4654
    -1.4324  -1.3327  -1.3155  -1.2885  -1.2166  -1.1895  -1.1215  -1.0718
    -0.9809  -0.9057  -0.8866  -0.8358  -0.7868  -0.6717  -0.6484  -0.6207
    -0.6171  -0.6016  -0.5791  -0.4218  -0.3947  -0.3303  -0.3218  -0.2096
    -0.2058  -0.1754  -0.1576  -0.0995  -0.0702   0.0004   0.0372   0.0784
     0.0880   0.1116   0.1219   0.1346   0.2260   0.3165   0.3412   0.4125
     0.4492   0.5654   0.6432   0.7607   0.8524   1.0330   1.0728   1.1259
     1.2025   1.2980   1.7126   1.7714   3.2963   3.3426   3.3626   3.3837
     3.4115   3.5427   3.6638   3.7483   3.7733   3.8055

[...]

          k = 0.0380-0.0419 0.0000 ( 17876 PWs)   bands (ev):

[...]

          k =-0.0760-0.0000 0.0000 ( 17886 PWs)   bands (ev):

[...]

          k =-0.0760-0.0839 0.0000 ( 17948 PWs)   bands (ev):

   -55.8765 -55.8647 -55.8303 -55.8251 -55.8178 -55.7637 -55.7596 -55.6916
   -55.6553 -55.6348 -55.6326 -55.6050 -55.5539 -55.5534 -54.8814 -54.8804
   -32.2160 -32.1995 -32.1807 -32.1687 -32.1670 -32.1503 -32.1224 -32.1186
   -32.1002 -32.0978 -32.0960 -32.0442 -32.0352 -32.0340 -32.0144 -32.0024
   -31.9974 -31.9967 -31.9950 -31.9938 -31.9908 -31.9772 -31.9722 -31.9645
   -31.9549 -31.9535 -31.9493 -31.9094 -31.8893 -31.8888 -31.8814 -31.8802
   -31.8597 -31.8393 -31.8375 -31.8295 -31.8155 -31.7977 -31.7946 -31.7786
   -31.7463 -31.7035 -31.2022 -31.2009 -31.1210 -31.1202 -31.0815 -31.0806
   -19.3363 -16.0766 -15.9642 -15.8463 -15.7694 -15.7473 -15.7130 -15.6640
   -15.6582 -15.5968 -15.5910 -15.5432 -15.5326 -15.5055 -15.4798 -15.4359
   -15.4146 -15.3941 -15.3731 -15.3375 -15.3166 -15.3061 -15.2680 -15.2563
   -15.2438 -15.2160 -15.2043 -15.1420 -15.0983 -15.0541 -13.3832 -13.3816
    -9.3253  -7.1319  -3.7136  -3.3629  -3.1704  -3.1131  -3.0141  -2.9653
    -2.9548  -2.8877  -2.8304  -2.8179  -2.7831  -2.7676  -2.7646  -2.7224
    -2.7197  -2.7064  -2.6746  -2.6710  -2.6608  -2.6297  -2.5829  -2.5682
    -2.5531  -2.5153  -2.4988  -2.4956  -2.4557  -2.4391  -2.4325  -2.4255
    -2.3855  -2.3742  -2.2136  -2.1496  -2.1189  -2.0430  -2.0218  -1.9891
    -1.9795  -1.9511  -1.9283  -1.8904  -1.7518  -1.7130  -1.7095  -1.6284
    -1.6025  -1.5757  -1.4685  -1.4049  -1.3775  -1.3684  -1.3023  -1.2643
    -1.2299  -1.1254  -1.0944  -1.0438  -0.9879  -0.9740  -0.9303  -0.8500
    -0.8439  -0.8096  -0.7934  -0.7705  -0.6526  -0.6093  -0.5990  -0.5511
    -0.5267  -0.5086  -0.4422  -0.4029  -0.4000  -0.3388  -0.2780  -0.2236
     0.0230   0.1250   0.1400   0.1602   0.2294   0.2785   0.4201   0.4335
     0.4421   0.5027   0.5594   0.6376   0.6629   0.6662   0.7447   1.1747
     1.4865   1.4877   1.5758   1.5852   3.5220   3.5261   3.5917   3.6323
     3.7587   3.7640   3.7841   3.7879   3.9035   3.9344

     the Fermi energy is     3.2649 ev

!    total energy              =   -2933.86695432 Ry
     estimated scf accuracy    <       0.00000005 Ry
     smearing contrib. (-TS)   =      -0.02305735 Ry
     internal energy E=F+TS    =   -2933.84389697 Ry

     The total energy is F=E-TS. E is the sum of the following terms:
     one-electron contribution =  -24504.13155233 Ry
     hartree contribution      =   12338.99035211 Ry
     xc contribution           =    -483.57844150 Ry
     ewald contribution        =    9714.87447824 Ry
     electric field correction =       0.00126651 Ry

     convergence has been achieved in  59 iterations

     Forces acting on atoms (cartesian axes, Ry/au):

     atom    1 type  1   force =    -0.00011181   -0.00195377    0.10546298
     atom    2 type  1   force =    -0.00038592    0.00132119   -0.17932180
     atom    3 type  2   force =     0.00026149   -0.00510933   -0.03369027
     atom    4 type  2   force =     0.00051808   -0.00077992    0.04636278
     atom    5 type  2   force =    -0.01893847   -0.00017295    0.00448914
     atom    6 type  2   force =     0.01983523    0.00140253    0.00400122
     atom    7 type  1   force =    -0.00040976   -0.00013640   -0.00041923
     atom    8 type  1   force =     0.00015551    0.00074848    0.00130888
     atom    9 type  2   force =     0.00012078   -0.00045228   -0.00099622
     atom   10 type  2   force =     0.00008530    0.00006296   -0.00009868
     atom   11 type  2   force =    -0.00055332   -0.00010701    0.00015372
     atom   12 type  2   force =     0.00099023   -0.00002690    0.00020326
     atom   13 type  1   force =    -0.00048147   -0.00077067    0.00048255
     atom   14 type  1   force =    -0.00028845   -0.00003030    0.00073443
     atom   15 type  2   force =     0.00005752   -0.00042914    0.00111930
     atom   16 type  2   force =    -0.00011421   -0.00003746   -0.00008069
     atom   17 type  2   force =    -0.00034689   -0.00039645    0.00012809
     atom   18 type  2   force =     0.00052790   -0.00012552    0.00007979
     atom   19 type  1   force =    -0.00102367    0.00020192    0.00080899
     atom   20 type  1   force =     0.00066598   -0.00055435   -0.00020531
     atom   21 type  2   force =    -0.00001318   -0.00000685    0.10411910
     atom   22 type  2   force =    -0.00023391   -0.00007918    0.00009473
     atom   23 type  2   force =    -0.06930537    0.00064001   -0.02952073
     atom   24 type  2   force =     0.06902205    0.00107528   -0.02958063
     atom   25 type  1   force =    -0.00014525    0.00132484    0.11502884
     atom   26 type  1   force =    -0.00023509   -0.00149201   -0.17961864
     atom   27 type  2   force =     0.00036218    0.00379572   -0.02633949
     atom   28 type  2   force =     0.00059900   -0.00051658    0.04862916
     atom   29 type  2   force =    -0.01843237    0.00191119    0.00401420
     atom   30 type  2   force =     0.01790135    0.00352219    0.00328766
     atom   31 type  1   force =    -0.00050730    0.00058758    0.00006178
     atom   32 type  1   force =     0.00013679   -0.00150958    0.00085339
     atom   33 type  2   force =    -0.00015392    0.00046609   -0.00159483
     atom   34 type  2   force =     0.00001743   -0.00083254   -0.00160748
     atom   35 type  2   force =     0.00012022    0.00020271   -0.00031003
     atom   36 type  2   force =     0.00031219    0.00018651   -0.00028588
     atom   37 type  1   force =     0.00008697    0.00043378   -0.00061566
     atom   38 type  1   force =    -0.00010727    0.00074905    0.00041145
     atom   39 type  2   force =    -0.00010317    0.00014479    0.00001007
     atom   40 type  2   force =     0.00040585    0.00042441    0.00024829
     atom   41 type  2   force =    -0.00070963   -0.00057974   -0.00036446
     atom   42 type  2   force =     0.00091324   -0.00057494   -0.00045563
     atom   43 type  1   force =    -0.00068180    0.00008385    0.00051991
     atom   44 type  1   force =     0.00057811   -0.00014153   -0.00064202
     atom   45 type  2   force =    -0.00002608   -0.00001798    0.10409748
     atom   46 type  2   force =    -0.06885820   -0.00085460   -0.02954924
     atom   47 type  2   force =     0.06866398   -0.00047302   -0.02961146
     atom   48 type  3   force =    -0.00290992    0.00218550   -0.00268491
     atom   49 type  4   force =    -0.00102307    0.00087311   -0.00189918
     atom   50 type  4   force =     0.00386794   -0.00315170    0.00221852
     atom   51 type  4   force =    -0.00013429   -0.00021179    0.00063642
     atom   52 type  2   force =    -0.00053073    0.00076263   -0.00138545
     atom   53 type  4   force =     0.00091057   -0.00110824    0.00081770
     atom   54 type  4   force =    -0.00035134   -0.00047357    0.00049408

     Total force =     0.375434     Total SCF correction =     0.000704
  @ DRIVER MODE: Message from server: STATUS
  @ DRIVER MODE: Message from server: GETFORCE
  @ DRIVER MODE: Returning v,forces,stress,ensemble

     Writing output data file ./calc.save/
  @ DRIVER MODE: Message from server: EXIT
  @ DRIVE MODE: Exiting

     General routines

     Parallel routines

   This run was terminated on:   0:58:20  21Sep2021

   JOB DONE.