     Program PWSCF v.6.7GPU starts on 26Sep2021 at 15:45:54

     R & G space division:  proc/nbgrp/npool/nimage =       8
     Reading input from /storage/home/hcoda1/3/ntian30/research/carbon/CxH_vib/CH_calc/ads_slab/CHONHNH2_b/out_0010/pw.inp
Warning: card &CELL ignored
Warning: card   CELL_DYNAMICS='IPI', ignored
Warning: card / ignored

     Current dimensions of program PWSCF are:
     Max number of different atomic species (ntypx) = 10
     Max number of k-points (npk) =  40000
     Max angular momentum in pseudopotentials (lmaxx) =  3
     Presently no symmetry can be used with electric field

     Message from routine cell_base_init:
     DEPRECATED: use true lattice parameter, not A to a.u. conversion factor

     IMPORTANT: XC functional enforced from input :
     Exchange-correlation= BEEF-VDW
                           (   1   4  43  14   2   0   0)
     Any further DFT definition will be discarded
     Please, verify this is what you really want

  @ DRIVER MODE: Connecting to
 qe_1139763_2982672.sched-torque.pace.gatech.edui87n7le8_scratch
  using UNIX socket
  @ DRIVER MODE: Message from server: STATUS
  @ DRIVER MODE: Message from server: INIT
  @ DRIVER MODE: Receiving replica           0          -1
  @ DRIVER MODE: Receiving encoded integer          25
  @ DRIVER MODE:  SCF:  T  FORCE:  T  STRESS:  F  VC:  F  ENSEMBLE:  F
  @ DRIVER MODE:  SCF:  T  FORCE:  T  STRESS:  F  VC:  F  ENSEMBLE:  F

     Using Slab Decomposition

     bravais-lattice index     =            0
     lattice parameter (alat)  =       1.8897  a.u.
     unit-cell volume          =    6658.9804 (a.u.)^3
     number of atoms/cell      =           55
     number of atomic types    =            5
     number of electrons       =       402.00
     number of Kohn-Sham states=          211
     kinetic-energy cutoff     =      29.3995  Ry
     charge density cutoff     =     293.9946  Ry
     scf convergence threshold =      7.3E-08
     mixing beta               =       0.0500
     number of iterations used =            8  plain     mixing
     Exchange-correlation= BEEF-VDW
                           (   1   4  43  14   2   0   0)

     celldm(1)=   1.889726  celldm(2)=   0.000000  celldm(3)=   0.000000
     celldm(4)=   0.000000  celldm(5)=   0.000000  celldm(6)=   0.000000

     crystal axes: (cart. coord. in units of alat)
               a(1) = (   6.579727   0.000000   0.000000 )
               a(2) = (  -0.000775   5.961596   0.000000 )
               a(3) = (   0.000000   0.000000  25.155947 )

     reciprocal axes: (cart. coord. in units 2 pi/alat)
               b(1) = (  0.151982  0.000020  0.000000 )
               b(2) = (  0.000000  0.167740  0.000000 )
               b(3) = (  0.000000  0.000000  0.039752 )

     PseudoPot. # 1 for O  read from file:
     /storage/coda1/p-amedford6/0/shared/rich_project_chbe-medford/medford-share/data/pseudos_module/espresso/nninc/pbe/van/O.UPF
     MD5 check sum: 78c19812648e8988a0fe644b0f25305e
     Pseudo is Ultrasoft, Zval =  6.0
     Generated by new atomic code, or converted to UPF format
     Using radial grid of  737 points,  4 beta functions with:
                l(1) =   0
                l(2) =   0
                l(3) =   1
                l(4) =   1
     Q(r) pseudized with  8 coefficients,  rinner =    0.800   0.800   0.800

     PseudoPot. # 2 for Ti read from file:
     /storage/coda1/p-amedford6/0/shared/rich_project_chbe-medford/medford-share/data/pseudos_module/espresso/nninc/pbe/van/Ti.UPF
     MD5 check sum: 8e4df49b7f0d34bbd5052bf3f5ea0213
     Pseudo is Ultrasoft, Zval = 12.0
     Generated by new atomic code, or converted to UPF format
     Using radial grid of  851 points,  6 beta functions with:
                l(1) =   0
                l(2) =   0
                l(3) =   1
                l(4) =   1
                l(5) =   2
                l(6) =   2
     Q(r) pseudized with  8 coefficients,  rinner =    1.000   1.000   1.000
                                                       1.000   1.000

     PseudoPot. # 3 for N  read from file:
     /storage/coda1/p-amedford6/0/shared/rich_project_chbe-medford/medford-share/data/pseudos_module/espresso/nninc/pbe/van/N.UPF
     MD5 check sum: 90d10febe142ad51ac9d5be1deb811c4
     Pseudo is Ultrasoft, Zval =  5.0
     Generated by new atomic code, or converted to UPF format
     Using radial grid of  729 points,  4 beta functions with:
                l(1) =   0
                l(2) =   0
                l(3) =   1
                l(4) =   1
     Q(r) pseudized with  8 coefficients,  rinner =    0.800   0.800   0.800

     PseudoPot. # 4 for H  read from file:
     /storage/coda1/p-amedford6/0/shared/rich_project_chbe-medford/medford-share/data/pseudos_module/espresso/nninc/pbe/van/H.UPF
     MD5 check sum: b5ee9d7bfd3a09ee7748110bda690ff7
     Pseudo is Ultrasoft, Zval =  1.0
     Generated by new atomic code, or converted to UPF format
     Using radial grid of  615 points,  1 beta functions with:
                l(1) =   0
     Q(r) pseudized with  8 coefficients,  rinner =    0.800

     PseudoPot. # 5 for C  read from file:
     /storage/coda1/p-amedford6/0/shared/rich_project_chbe-medford/medford-share/data/pseudos_module/espresso/nninc/pbe/van/C.UPF
     MD5 check sum: 1a69bf6b8db32088f5b2163dbdb77a27
     Pseudo is Ultrasoft, Zval =  4.0
     Generated by new atomic code, or converted to UPF format
     Using radial grid of  721 points,  4 beta functions with:
                l(1) =   0
                l(2) =   0
                l(3) =   1
                l(4) =   1
     Q(r) pseudized with  8 coefficients,  rinner =    0.800   0.800   0.800

     atomic species   valence    mass     pseudopotential
        O1             6.00    15.99900     O ( 1.00)
        Ti1           12.00    47.86700     Ti( 1.00)
        N1             5.00    14.00700     N ( 1.00)
        H1             1.00     1.00800     H ( 1.00)
        C1             4.00    12.01100     C ( 1.00)

     No symmetry found

   Cartesian axes

     site n.     atom                  positions (alat units)
         1           O1  tau(   1) = (   3.2904802   0.0005063   4.7018136  )
         2           O1  tau(   2) = (   3.2900926   2.9813045   4.7018136  )
         3           Ti1 tau(   3) = (   0.0004258   2.9801865   6.0000000  )
         4           Ti1 tau(   4) = (   0.0000382   5.9609847   6.0000000  )
         5           Ti1 tau(   5) = (   3.2906075   1.4906267   6.0002472  )
         6           Ti1 tau(   6) = (   3.2902200   4.4714249   6.0002472  )
         7           O1  tau(   7) = (   1.3043587   1.4918075   6.0039043  )
         8           O1  tau(   8) = (   1.3039711   4.4726057   6.0039043  )
         9           O1  tau(   9) = (   5.2767064   1.4903225   6.0039473  )
        10           O1  tau(  10) = (   5.2763189   4.4711207   6.0039473  )
        11           O1  tau(  11) = (   3.2906025   0.0005020   7.3038282  )
        12           O1  tau(  12) = (   3.2902150   2.9813002   7.3038282  )
        13           O1  tau(  13) = (   0.0006271   0.0005054   7.9858123  )
        14           O1  tau(  14) = (   0.0002396   2.9813036   7.9858123  )
        15           Ti1 tau(  15) = (   3.2907910   2.8959150   9.1758416  )
        16           Ti1 tau(  16) = (   3.2891106   5.8743827   9.1763621  )
        17           Ti1 tau(  17) = (   0.0015273   1.4827037   9.2680791  )
        18           Ti1 tau(  18) = (   0.0006254   4.4649316   9.2693709  )
        19           O1  tau(  19) = (   4.5942328   1.4918067   9.2879030  )
        20           O1  tau(  20) = (   4.5938453   4.4726049   9.2879030  )
        21           O1  tau(  21) = (   1.9868534   1.4903216   9.2879459  )
        22           O1  tau(  22) = (   1.9864658   4.4711199   9.2879459  )
        23           O1  tau(  23) = (   0.0116148   5.9584955  10.6183126  )
        24           O1  tau(  24) = (   0.0092240   2.9805883  10.6323155  )
        25           O1  tau(  25) = (   3.2729272   2.9749101  11.3358637  )
        26           O1  tau(  26) = (   3.2774458   5.9577983  11.3358029  )
        27           Ti1 tau(  27) = (   6.5123228   0.0223980  12.5466522  )
        28           Ti1 tau(  28) = (   6.5139447   2.9993280  12.6164542  )
        29           Ti1 tau(  29) = (   3.1950650   4.4673527  12.4897579  )
        30           Ti1 tau(  30) = (   3.1950454   1.4921031  12.4944583  )
        31           O1  tau(  31) = (   5.2839716   4.4726476  12.6140382  )
        32           O1  tau(  32) = (   1.2968206   4.4781603  12.6268461  )
        33           O1  tau(  33) = (   5.2856119   1.4917077  12.6233973  )
        34           O1  tau(  34) = (   1.2888650   1.4770595  12.6372879  )
        35           O1  tau(  35) = (   3.2788258   2.9629383  13.9230881  )
        36           O1  tau(  36) = (   3.2980453   5.9500611  13.9147740  )
        37           O1  tau(  37) = (   6.5334376   5.9389224  14.6738689  )
        38           O1  tau(  38) = (   6.5776160   3.0156023  14.6540868  )
        39           Ti1 tau(  39) = (   3.2542760   2.9504115  15.7371360  )
        40           Ti1 tau(  40) = (   3.3062714   5.9309079  15.7116640  )
        41           Ti1 tau(  41) = (   6.5650095   1.2976281  16.1142359  )
        42           Ti1 tau(  42) = (   0.0079766   4.4268374  15.8391656  )
        43           O1  tau(  43) = (   2.0280489   1.4492115  16.0660627  )
        44           O1  tau(  44) = (   4.5116609   1.4624326  16.0993158  )
        45           O1  tau(  45) = (   2.0244938   4.4513709  16.0356871  )
        46           O1  tau(  46) = (   4.5113612   4.4342832  16.0730653  )
        47           O1  tau(  47) = (   6.5716746   5.9215154  17.2308814  )
        48           N1  tau(  48) = (   5.9800345   2.9984367  18.5879729  )
        49           H1  tau(  49) = (   4.9797160   2.8340766  18.4383897  )
        50           H1  tau(  50) = (   1.6245422   1.3425840  19.0439533  )
        51           H1  tau(  51) = (   6.0578502   3.9810051  18.8619266  )
        52           N1  tau(  52) = (   2.1403542   1.9713023  19.6616680  )
        53           C1  tau(  53) = (   2.8938676   2.8537551  19.2737185  )
        54           H1  tau(  54) = (   3.3792091   3.5764479  19.9483559  )
        55           O1  tau(  55) = (   6.5521836   2.9666373  17.2729174  )

     number of k points=    10  Fermi-Dirac smearing, width (Ry)=  0.0073
                       cart. coord. in units 2pi/alat
        k(    1) = (   0.0000000   0.0000000   0.0000000), wk =   0.1250000
        k(    2) = (   0.0000000   0.0419351   0.0000000), wk =   0.2500000
        k(    3) = (   0.0000000  -0.0838702   0.0000000), wk =   0.1250000
        k(    4) = (   0.0379955   0.0000049   0.0000000), wk =   0.2500000
        k(    5) = (   0.0379955   0.0419400   0.0000000), wk =   0.2500000
        k(    6) = (   0.0379955  -0.0838652   0.0000000), wk =   0.2500000
        k(    7) = (   0.0379955  -0.0419301   0.0000000), wk =   0.2500000
        k(    8) = (  -0.0759910  -0.0000099   0.0000000), wk =   0.1250000
        k(    9) = (  -0.0759910   0.0419252   0.0000000), wk =   0.2500000
        k(   10) = (  -0.0759910  -0.0838800   0.0000000), wk =   0.1250000

     Initial potential from superposition of free atoms

     starting charge  385.99915, renormalised to  402.00000

     negative rho (up, down):  1.542E-02 0.000E+00

     %%%%%%%%%%%%%%%%%%%%%%%%%%%%%%%%%%%%%%%%%%%%%%%%%%%%%%%%%%%%%%%%%%%%%%%%
     %                                                                      %
     % You are using vdW-DF, which was implemented by the Thonhauser group. %
     % Please cite the following two papers that made this development      %
     % possible and the two reviews that describe the various versions:     %
     %                                                                      %
     %   T. Thonhauser et al., PRL 115, 136402 (2015).                      %
     %   T. Thonhauser et al., PRB 76, 125112 (2007).                       %
     %   K. Berland et al., Rep. Prog. Phys. 78, 066501 (2015).             %
     %   D.C. Langreth et al., J. Phys.: Condens. Matter 21, 084203 (2009). %
     %                                                                      %
     %                                                                      %
     % If you are calculating the stress with vdW-DF, please also cite:     %
     %                                                                      %
     %   R. Sabatini et al., J. Phys.: Condens. Matter 24, 424209 (2012).   %
     %                                                                      %
     %%%%%%%%%%%%%%%%%%%%%%%%%%%%%%%%%%%%%%%%%%%%%%%%%%%%%%%%%%%%%%%%%%%%%%%%

     Adding external electric field

     Computed dipole along edir(3) :
        Dipole              -12.8629 Ry au,        -32.6941 Debye
        Dipole field         -0.0243 Ry au,

        Potential amp.        2.2502 Ry
        Total length         46.3494 bohr

     Starting wfcs are  304 atomic wfcs
  @ DRIVER MODE: Message from server: STATUS
  @ DRIVER MODE: Message from server: POSDATA
  @ DRIVER MODE: Reading and sharing cell
  @ DRIVER MODE: Reading and sharing positions
  @ DRIVER MODE: Received positions

     Self-consistent Calculation

     iteration #  1     ecut=    29.40 Ry     beta= 0.05
     Davidson diagonalization with overlap
     c_bands:  5 eigenvalues not converged
     c_bands:  2 eigenvalues not converged
     c_bands:  2 eigenvalues not converged
     c_bands:  5 eigenvalues not converged
     c_bands:  3 eigenvalues not converged
     c_bands:  3 eigenvalues not converged
     c_bands:  2 eigenvalues not converged
     c_bands:  3 eigenvalues not converged
     c_bands:  1 eigenvalues not converged
     ethr =  1.00E-05,  avg # of iterations = 21.5

[...]

     total energy              =   -2369.73872913 Ry
     estimated scf accuracy    <    6837.16860282 Ry

     iteration #  2     ecut=    29.40 Ry     beta= 0.05
     Davidson diagonalization with overlap
     ethr =  1.00E-02,  avg # of iterations = 23.1

[...]

     iteration # 58     ecut=    29.40 Ry     beta= 0.05
     Davidson diagonalization with overlap
     c_bands:  1 eigenvalues not converged
     ethr =  4.97E-11,  avg # of iterations = 15.5

[...]

     total energy              =   -2972.58421091 Ry
     estimated scf accuracy    <       0.00000022 Ry

     iteration # 61     ecut=    29.40 Ry     beta= 0.05
     Davidson diagonalization with overlap
     ethr =  4.97E-11,  avg # of iterations =  9.9

     negative rho (up, down):  1.520E-02 0.000E+00

     Adding external electric field

     Computed dipole along edir(3) :
        Dipole                0.4776 Ry au,          1.2139 Debye
        Dipole field          0.0009 Ry au,

        Potential amp.       -0.0835 Ry
        Total length         46.3494 bohr

     End of self-consistent calculation

          k = 0.0000 0.0000 0.0000 ( 18029 PWs)   bands (ev):

   -55.8919 -55.8719 -55.8579 -55.8338 -55.7526 -55.7326 -55.7174 -55.7033
   -55.6908 -55.6692 -55.6678 -55.6338 -55.5213 -55.3080 -54.8709 -54.8368
   -32.4171 -32.3746 -32.2509 -32.2022 -32.1923 -32.1846 -32.1683 -32.1580
   -32.1352 -32.1023 -32.0570 -32.0464 -32.0442 -32.0416 -32.0258 -32.0050
   -31.9972 -31.9965 -31.9852 -31.9725 -31.9618 -31.9505 -31.9491 -31.9067
   -31.8997 -31.8944 -31.8925 -31.8827 -31.8722 -31.8680 -31.8637 -31.8437
   -31.8342 -31.8209 -31.8100 -31.8000 -31.7799 -31.7582 -31.7270 -31.5777
   -31.5398 -31.5222 -31.2780 -31.1895 -31.1671 -31.0947 -31.0082 -30.8972
   -18.6580 -16.6130 -16.3625 -16.1201 -16.0393 -16.0045 -15.8843 -15.8526
   -15.7303 -15.6194 -15.5249 -15.4493 -15.4299 -15.4287 -15.3890 -15.3774
   -15.3514 -15.3365 -15.3273 -15.3104 -15.2858 -15.2499 -15.2344 -15.2274
   -15.1366 -15.0598 -15.0263 -14.9789 -14.9733 -14.9494 -14.5610 -13.3731
   -13.2566 -12.2413  -8.1492  -5.2997  -4.9592  -4.5178  -3.9871  -3.8483
    -3.7979  -3.7300  -3.6867  -3.5110  -3.4007  -3.1457  -3.0718  -3.0518
    -3.0288  -2.9818  -2.8785  -2.8003  -2.7033  -2.6975  -2.6955  -2.6620
    -2.6526  -2.6355  -2.5932  -2.5732  -2.5059  -2.4342  -2.3973  -2.2910
    -2.2827  -2.2477  -2.2047  -2.1952  -2.1512  -2.1300  -2.1149  -2.1092
    -2.0957  -2.0574  -2.0248  -1.9151  -1.8792  -1.7974  -1.6846  -1.6087
    -1.5007  -1.4837  -1.3658  -1.3576  -1.3325  -1.3188  -1.2845  -1.2349
    -1.1800  -1.0765  -1.0484  -1.0166  -1.0118  -0.9117  -0.8519  -0.8273
    -0.7633  -0.6902  -0.6638  -0.6512  -0.6408  -0.6081  -0.3912  -0.3492
    -0.3298  -0.2977  -0.2510  -0.1967  -0.1595  -0.1121  -0.0718  -0.0064
     0.0034   0.0544   0.0787   0.0917   0.1078   0.1188   0.1350   0.2333
     0.3225   0.3610   0.3824   0.4581   0.4629   0.6351   0.7021   0.7642
     0.8759   1.0776   1.1515   1.2362   1.3435   1.7226   1.7505   1.7684
     3.2371   3.2390   3.3299   3.3722   3.3809   3.4813   3.5334   3.6936
     3.7270   3.7591   3.7974

[...]

          k = 0.0380-0.0419 0.0000 ( 17876 PWs)   bands (ev):

[...]

          k =-0.0760-0.0000 0.0000 ( 17886 PWs)   bands (ev):

[...]

          k =-0.0760-0.0839 0.0000 ( 17948 PWs)   bands (ev):

   -55.8753 -55.8743 -55.8592 -55.8463 -55.7388 -55.7312 -55.7234 -55.6998
   -55.6872 -55.6848 -55.6534 -55.6484 -55.5200 -55.3092 -54.8538 -54.8537
   -32.2275 -32.2143 -32.1903 -32.1895 -32.1705 -32.1695 -32.1207 -32.1123
   -32.0949 -32.0857 -32.0475 -32.0386 -32.0186 -32.0108 -32.0072 -32.0057
   -31.9996 -31.9950 -31.9939 -31.9914 -31.9876 -31.9846 -31.9499 -31.9478
   -31.9419 -31.9254 -31.9184 -31.9092 -31.8874 -31.8863 -31.8839 -31.8834
   -31.8780 -31.8678 -31.8645 -31.8623 -31.8566 -31.7559 -31.7302 -31.6486
   -31.5691 -31.5295 -31.1798 -31.1797 -31.0908 -31.0907 -31.0515 -31.0514
   -18.6428 -16.0317 -16.0105 -15.8859 -15.8473 -15.8108 -15.7712 -15.7593
   -15.6833 -15.6027 -15.5822 -15.5775 -15.4957 -15.4768 -15.4639 -15.4287
   -15.4156 -15.4052 -15.3994 -15.3603 -15.3491 -15.3399 -15.3316 -15.3240
   -15.2469 -15.2111 -15.2062 -15.1912 -15.0808 -14.9551 -14.7373 -13.3585
   -13.3583 -12.2539  -8.1493  -5.2965  -4.9643  -4.4424  -3.3183  -3.2856
    -3.1047  -3.0213  -3.0057  -2.9881  -2.8772  -2.8014  -2.7952  -2.7591
    -2.7282  -2.7208  -2.7108  -2.7080  -2.6841  -2.6738  -2.6235  -2.6024
    -2.5887  -2.5634  -2.5508  -2.5483  -2.5177  -2.5042  -2.4664  -2.4457
    -2.4257  -2.4143  -2.3927  -2.3245  -2.2083  -2.1250  -2.0933  -2.0342
    -2.0238  -1.9928  -1.9593  -1.9452  -1.9219  -1.8895  -1.8603  -1.7461
    -1.6377  -1.5824  -1.5805  -1.5047  -1.4679  -1.4251  -1.3780  -1.3240
    -1.2910  -1.2795  -1.2307  -1.1681  -1.1506  -1.0762  -1.0330  -1.0028
    -0.9597  -0.9370  -0.8648  -0.8522  -0.8496  -0.8154  -0.7275  -0.7075
    -0.6539  -0.6473  -0.6203  -0.5645  -0.5458  -0.5147  -0.3912  -0.3681
    -0.2426  -0.1758  -0.0852   0.0629   0.0849   0.1786   0.2187   0.2451
     0.3025   0.4045   0.4221   0.4347   0.4539   0.4852   0.5149   0.6379
     0.6520   0.6866   0.8067   1.5152   1.5157   1.5874   1.5884   1.5979
     3.2231   3.5693   3.5759   3.5962   3.6234   3.7559   3.7579   3.7758
     3.7772   3.9118   3.9285

     the Fermi energy is     3.2406 ev

!    total energy              =   -2972.58425473 Ry
     estimated scf accuracy    <       0.00000005 Ry
     smearing contrib. (-TS)   =      -0.03080001 Ry
     internal energy E=F+TS    =   -2972.55345473 Ry

     The total energy is F=E-TS. E is the sum of the following terms:
     one-electron contribution =  -23744.98085877 Ry
     hartree contribution      =   11963.78505914 Ry
     xc contribution           =    -493.07342109 Ry
     ewald contribution        =    9301.71533553 Ry
     electric field correction =       0.00043046 Ry

     convergence has been achieved in  61 iterations

     Forces acting on atoms (cartesian axes, Ry/au):

     atom    1 type  1   force =     0.00004493   -0.00002831    0.10324961
     atom    2 type  1   force =     0.00004966   -0.00004517    0.10329080
     atom    3 type  2   force =     0.00007775   -0.00023207    0.09626781
     atom    4 type  2   force =    -0.00001754   -0.00030439    0.09606425
     atom    5 type  2   force =     0.00002707   -0.00063351   -0.17553776
     atom    6 type  2   force =    -0.00001972   -0.00024240   -0.17549973
     atom    7 type  1   force =    -0.07156190   -0.00013997   -0.02767950
     atom    8 type  1   force =    -0.07154556   -0.00012824   -0.02765706
     atom    9 type  1   force =     0.07140651    0.00028624   -0.02775199
     atom   10 type  1   force =     0.07139198    0.00031004   -0.02771390
     atom   11 type  1   force =    -0.00005819   -0.00144985    0.05286962
     atom   12 type  1   force =    -0.00002849   -0.00126041    0.05321611
     atom   13 type  1   force =     0.00000596   -0.00000229   -0.02440115
     atom   14 type  1   force =     0.00009935   -0.00023080   -0.02343490
     atom   15 type  2   force =     0.00002504    0.00049015   -0.01061615
     atom   16 type  2   force =     0.00014507    0.00349989   -0.00995318
     atom   17 type  2   force =     0.00069473    0.01061718    0.02595742
     atom   18 type  2   force =     0.00083747   -0.01140765    0.02626694
     atom   19 type  1   force =    -0.01196289   -0.00051723    0.00382731
     atom   20 type  1   force =    -0.01230926   -0.00008829    0.00374007
     atom   21 type  1   force =     0.01292376   -0.00008631    0.00216745
     atom   22 type  1   force =     0.01317029    0.00047920    0.00212272
     atom   23 type  1   force =    -0.00431862    0.00133360   -0.01321807
     atom   24 type  1   force =    -0.00236750    0.00054782   -0.02180655
     atom   25 type  1   force =     0.00024246   -0.00090689    0.00016255
     atom   26 type  1   force =     0.00001691    0.00044021    0.00080581
     atom   27 type  2   force =    -0.00042413    0.00040388   -0.00004900
     atom   28 type  2   force =    -0.00068462   -0.00052054   -0.00001812
     atom   29 type  2   force =     0.00098187    0.00003036   -0.00019198
     atom   30 type  2   force =     0.00036207   -0.00073872   -0.00018328
     atom   31 type  1   force =     0.00085240    0.00012209    0.00023948
     atom   32 type  1   force =    -0.00045367   -0.00001733    0.00012563
     atom   33 type  1   force =     0.00042152   -0.00037414   -0.00001872
     atom   34 type  1   force =     0.00126424   -0.00022065   -0.00000573
     atom   35 type  1   force =     0.00030586   -0.00029293    0.00012172
     atom   36 type  1   force =     0.00026670    0.00025321   -0.00043810
     atom   37 type  1   force =     0.00019925   -0.00009931   -0.00065571
     atom   38 type  1   force =     0.00019511    0.00014818   -0.00018574
     atom   39 type  2   force =    -0.00079628    0.00015872   -0.00041832
     atom   40 type  2   force =    -0.00071141    0.00012457    0.00050546
     atom   41 type  2   force =     0.00017124   -0.00027418   -0.00025690
     atom   42 type  2   force =     0.00077438   -0.00006501    0.00025625
     atom   43 type  1   force =     0.00033165    0.00025796   -0.00035956
     atom   44 type  1   force =     0.00017914   -0.00003898   -0.00020282
     atom   45 type  1   force =     0.00037915    0.00020753    0.00001548
     atom   46 type  1   force =     0.00009953    0.00045725    0.00019664
     atom   47 type  1   force =     0.00010246   -0.00006292   -0.00022638
     atom   48 type  3   force =     0.00037169    0.00156769   -0.00010439
     atom   49 type  4   force =    -0.00157061   -0.00142323   -0.00079123
     atom   50 type  4   force =     0.00002388   -0.00033985   -0.00052793
     atom   51 type  4   force =     0.00121567    0.00104301    0.00006418
     atom   52 type  3   force =    -0.00083851   -0.00107481   -0.00013643
     atom   53 type  5   force =     0.00079102    0.00166449    0.00047753
     atom   54 type  4   force =    -0.00067034   -0.00103897   -0.00109739
     atom   55 type  1   force =    -0.00010852   -0.00015795   -0.00087312

     Total force =     0.367334     Total SCF correction =     0.000683
  @ DRIVER MODE: Message from server: STATUS
  @ DRIVER MODE: Message from server: GETFORCE
  @ DRIVER MODE: Returning v,forces,stress,ensemble

     Writing output data file ./calc.save/
  @ DRIVER MODE: Message from server: EXIT
  @ DRIVE MODE: Exiting

     General routines

     Parallel routines

   This run was terminated on:  16: 7:50  26Sep2021

   JOB DONE.