     Program PWSCF v.6.7GPU starts on  9Sep2021 at  0:58:33

     R & G space division:  proc/nbgrp/npool/nimage =      10
     Reading input from /storage/home/hcoda1/3/ntian30/research/carbon/CxH_vib/CH3_calc/ads_slab/CH3NNHHH_a/out_0009/pw.inp
Warning: card &CELL ignored
Warning: card   CELL_DYNAMICS='IPI', ignored
Warning: card / ignored

     Current dimensions of program PWSCF are:
     Max number of different atomic species (ntypx) = 10
     Max number of k-points (npk) =  40000
     Max angular momentum in pseudopotentials (lmaxx) =  3
     Presently no symmetry can be used with electric field

     Message from routine cell_base_init:
     DEPRECATED: use true lattice parameter, not A to a.u. conversion factor

     IMPORTANT: XC functional enforced from input :
     Exchange-correlation= BEEF-VDW
                           (   1   4  43  14   2   0   0)
     Any further DFT definition will be discarded
     Please, verify this is what you really want

  @ DRIVER MODE: Connecting to
 qe_1139763_2767399.sched-torque.pace.gatech.eduqly3b5yd_scratch
  using UNIX socket
  @ DRIVER MODE: Message from server: STATUS
  @ DRIVER MODE: Message from server: INIT
  @ DRIVER MODE: Receiving replica           0          -1
  @ DRIVER MODE: Receiving encoded integer          25
  @ DRIVER MODE:  SCF:  T  FORCE:  T  STRESS:  F  VC:  F  ENSEMBLE:  F
  @ DRIVER MODE:  SCF:  T  FORCE:  T  STRESS:  F  VC:  F  ENSEMBLE:  F

     Using Slab Decomposition

     bravais-lattice index     =            0
     lattice parameter (alat)  =       1.8897  a.u.
     unit-cell volume          =    6658.9804 (a.u.)^3
     number of atoms/cell      =           56
     number of atomic types    =            5
     number of electrons       =       398.00
     number of Kohn-Sham states=          209
     kinetic-energy cutoff     =      29.3995  Ry
     charge density cutoff     =     293.9946  Ry
     scf convergence threshold =      7.3E-08
     mixing beta               =       0.0500
     number of iterations used =            8  plain     mixing
     Exchange-correlation= BEEF-VDW
                           (   1   4  43  14   2   0   0)

     celldm(1)=   1.889726  celldm(2)=   0.000000  celldm(3)=   0.000000
     celldm(4)=   0.000000  celldm(5)=   0.000000  celldm(6)=   0.000000

     crystal axes: (cart. coord. in units of alat)
               a(1) = (   6.579727   0.000000   0.000000 )
               a(2) = (  -0.000775   5.961596   0.000000 )
               a(3) = (   0.000000   0.000000  25.155947 )

     reciprocal axes: (cart. coord. in units 2 pi/alat)
               b(1) = (  0.151982  0.000020  0.000000 )
               b(2) = (  0.000000  0.167740  0.000000 )
               b(3) = (  0.000000  0.000000  0.039752 )

     PseudoPot. # 1 for Ti read from file:
     /storage/coda1/p-amedford6/0/shared/rich_project_chbe-medford/medford-share/data/pseudos_module/espresso/nninc/pbe/van/Ti.UPF
     MD5 check sum: 8e4df49b7f0d34bbd5052bf3f5ea0213
     Pseudo is Ultrasoft, Zval = 12.0
     Generated by new atomic code, or converted to UPF format
     Using radial grid of  851 points,  6 beta functions with:
                l(1) =   0
                l(2) =   0
                l(3) =   1
                l(4) =   1
                l(5) =   2
                l(6) =   2
     Q(r) pseudized with  8 coefficients,  rinner =    1.000   1.000   1.000
                                                       1.000   1.000

     PseudoPot. # 2 for O  read from file:
     /storage/coda1/p-amedford6/0/shared/rich_project_chbe-medford/medford-share/data/pseudos_module/espresso/nninc/pbe/van/O.UPF
     MD5 check sum: 78c19812648e8988a0fe644b0f25305e
     Pseudo is Ultrasoft, Zval =  6.0
     Generated by new atomic code, or converted to UPF format
     Using radial grid of  737 points,  4 beta functions with:
                l(1) =   0
                l(2) =   0
                l(3) =   1
                l(4) =   1
     Q(r) pseudized with  8 coefficients,  rinner =    0.800   0.800   0.800

     PseudoPot. # 3 for N  read from file:
     /storage/coda1/p-amedford6/0/shared/rich_project_chbe-medford/medford-share/data/pseudos_module/espresso/nninc/pbe/van/N.UPF
     MD5 check sum: 90d10febe142ad51ac9d5be1deb811c4
     Pseudo is Ultrasoft, Zval =  5.0
     Generated by new atomic code, or converted to UPF format
     Using radial grid of  729 points,  4 beta functions with:
                l(1) =   0
                l(2) =   0
                l(3) =   1
                l(4) =   1
     Q(r) pseudized with  8 coefficients,  rinner =    0.800   0.800   0.800

     PseudoPot. # 4 for C  read from file:
     /storage/coda1/p-amedford6/0/shared/rich_project_chbe-medford/medford-share/data/pseudos_module/espresso/nninc/pbe/van/C.UPF
     MD5 check sum: 1a69bf6b8db32088f5b2163dbdb77a27
     Pseudo is Ultrasoft, Zval =  4.0
     Generated by new atomic code, or converted to UPF format
     Using radial grid of  721 points,  4 beta functions with:
                l(1) =   0
                l(2) =   0
                l(3) =   1
                l(4) =   1
     Q(r) pseudized with  8 coefficients,  rinner =    0.800   0.800   0.800

     PseudoPot. # 5 for H  read from file:
     /storage/coda1/p-amedford6/0/shared/rich_project_chbe-medford/medford-share/data/pseudos_module/espresso/nninc/pbe/van/H.UPF
     MD5 check sum: b5ee9d7bfd3a09ee7748110bda690ff7
     Pseudo is Ultrasoft, Zval =  1.0
     Generated by new atomic code, or converted to UPF format
     Using radial grid of  615 points,  1 beta functions with:
                l(1) =   0
     Q(r) pseudized with  8 coefficients,  rinner =    0.800

     atomic species   valence    mass     pseudopotential
        Ti1           12.00    47.86700     Ti( 1.00)
        O1             6.00    15.99900     O ( 1.00)
        N1             5.00    14.00700     N ( 1.00)
        C1             4.00    12.01100     C ( 1.00)
        H1             1.00     1.00800     H ( 1.00)

     No symmetry found

   Cartesian axes

     site n.     atom                  positions (alat units)
         1           Ti1 tau(   1) = (   0.0004258   2.9801865   6.0000000  )
         2           Ti1 tau(   2) = (   3.2906075   1.4906267   6.0002472  )
         3           O1  tau(   3) = (   0.0006271   0.0005054   7.9858123  )
         4           O1  tau(   4) = (   3.2906025   0.0005020   7.3038282  )
         5           O1  tau(   5) = (   4.5942328   1.4918067   9.2879030  )
         6           O1  tau(   6) = (   1.9868534   1.4903216   9.2879459  )
         7           Ti1 tau(   7) = (   3.2907910   2.8959150   9.1758416  )
         8           Ti1 tau(   8) = (   0.0015273   1.4827037   9.2680791  )
         9           O1  tau(   9) = (   3.3120675   0.0079458  11.3762204  )
        10           O1  tau(  10) = (   0.0116148   5.9584955  10.6183126  )
        11           O1  tau(  11) = (   1.3148726   1.5133626  12.6447579  )
        12           O1  tau(  12) = (   5.3140862   1.5122126  12.6508301  )
        13           Ti1 tau(  13) = (   0.0289753   2.9995974  12.5105963  )
        14           Ti1 tau(  14) = (   3.3300932   1.5144954  12.5190352  )
        15           O1  tau(  15) = (   0.0303621   0.0967028  14.6836000  )
        16           O1  tau(  16) = (   3.3188409   0.0235386  14.0025835  )
        17           O1  tau(  17) = (   4.5661268   1.5053193  16.2317874  )
        18           O1  tau(  18) = (   2.0488868   1.5039614  16.2002260  )
        19           Ti1 tau(  19) = (   3.3211226   2.9745325  15.7560014  )
        20           Ti1 tau(  20) = (   0.0641794   1.4487855  16.0607878  )
        21           O1  tau(  21) = (   3.2904802   0.0005063   4.7018136  )
        22           O1  tau(  22) = (   0.0207051   5.8381987  17.2232637  )
        23           O1  tau(  23) = (   1.3043587   1.4918075   6.0039043  )
        24           O1  tau(  24) = (   5.2767064   1.4903225   6.0039473  )
        25           Ti1 tau(  25) = (   0.0000382   5.9609847   6.0000000  )
        26           Ti1 tau(  26) = (   3.2902200   4.4714249   6.0002472  )
        27           O1  tau(  27) = (   0.0002396   2.9813036   7.9858123  )
        28           O1  tau(  28) = (   3.2902150   2.9813002   7.3038282  )
        29           O1  tau(  29) = (   4.5938453   4.4726049   9.2879030  )
        30           O1  tau(  30) = (   1.9864658   4.4711199   9.2879459  )
        31           Ti1 tau(  31) = (   3.2891106   5.8743827   9.1763621  )
        32           Ti1 tau(  32) = (   0.0006254   4.4649316   9.2693709  )
        33           O1  tau(  33) = (   3.3137607   3.0039157  11.3695003  )
        34           O1  tau(  34) = (   0.0092240   2.9805883  10.6323155  )
        35           O1  tau(  35) = (   1.3103219   4.4840529  12.6837359  )
        36           O1  tau(  36) = (   5.3166572   4.4842854  12.6901167  )
        37           Ti1 tau(  37) = (   0.0376818   0.0300362  12.4998423  )
        38           Ti1 tau(  38) = (   3.3279277   4.4933691  12.5326681  )
        39           O1  tau(  39) = (   0.0236785   2.9473731  14.9547601  )
        40           O1  tau(  40) = (   3.3158584   2.9778716  13.9675922  )
        41           O1  tau(  41) = (   4.5769684   4.4551829  16.1482216  )
        42           O1  tau(  42) = (   2.0574928   4.4544973  16.1629196  )
        43           Ti1 tau(  43) = (   3.3270828   0.0048838  15.7999907  )
        44           Ti1 tau(  44) = (   0.0216784   4.6657176  15.8371636  )
        45           O1  tau(  45) = (   3.2900926   2.9813045   4.7018136  )
        46           O1  tau(  46) = (   1.3039711   4.4726057   6.0039043  )
        47           O1  tau(  47) = (   5.2763189   4.4711207   6.0039473  )
        48           N1  tau(  48) = (   1.0300599   3.1028741  18.8625222  )
        49           N1  tau(  49) = (   6.4529598   2.6295754  18.1308714  )
        50           C1  tau(  50) = (   0.6566364   3.8075245  20.0867497  )
        51           H1  tau(  51) = (   6.5334193   4.6337433  19.9095685  )
        52           H1  tau(  52) = (   0.2127083   3.1054723  20.7945791  )
        53           H1  tau(  53) = (   1.5644534   4.2160081  20.5287796  )
        54           H1  tau(  54) = (   5.6912064   3.3271340  18.1715891  )
        55           H1  tau(  55) = (   6.1153184   1.7991689  18.5966666  )
        56           H1  tau(  56) = (   1.4989484   3.7555826  18.2384742  )

     number of k points=    10  Fermi-Dirac smearing, width (Ry)=  0.0073
                       cart. coord. in units 2pi/alat
        k(    1) = (   0.0000000   0.0000000   0.0000000), wk =   0.1250000
        k(    2) = (   0.0000000   0.0419351   0.0000000), wk =   0.2500000
        k(    3) = (   0.0000000  -0.0838702   0.0000000), wk =   0.1250000
        k(    4) = (   0.0379955   0.0000049   0.0000000), wk =   0.2500000
        k(    5) = (   0.0379955   0.0419400   0.0000000), wk =   0.2500000
        k(    6) = (   0.0379955  -0.0838652   0.0000000), wk =   0.2500000
        k(    7) = (   0.0379955  -0.0419301   0.0000000), wk =   0.2500000
        k(    8) = (  -0.0759910  -0.0000099   0.0000000), wk =   0.1250000
        k(    9) = (  -0.0759910   0.0419252   0.0000000), wk =   0.2500000
        k(   10) = (  -0.0759910  -0.0838800   0.0000000), wk =   0.1250000

     Initial potential from superposition of free atoms

     starting charge  381.99914, renormalised to  398.00000

     negative rho (up, down):  1.340E-02 0.000E+00

     %%%%%%%%%%%%%%%%%%%%%%%%%%%%%%%%%%%%%%%%%%%%%%%%%%%%%%%%%%%%%%%%%%%%%%%%
     %                                                                      %
     % You are using vdW-DF, which was implemented by the Thonhauser group. %
     % Please cite the following two papers that made this development      %
     % possible and the two reviews that describe the various versions:     %
     %                                                                      %
     %   T. Thonhauser et al., PRL 115, 136402 (2015).                      %
     %   T. Thonhauser et al., PRB 76, 125112 (2007).                       %
     %   K. Berland et al., Rep. Prog. Phys. 78, 066501 (2015).             %
     %   D.C. Langreth et al., J. Phys.: Condens. Matter 21, 084203 (2009). %
     %                                                                      %
     %                                                                      %
     % If you are calculating the stress with vdW-DF, please also cite:     %
     %                                                                      %
     %   R. Sabatini et al., J. Phys.: Condens. Matter 24, 424209 (2012).   %
     %                                                                      %
     %%%%%%%%%%%%%%%%%%%%%%%%%%%%%%%%%%%%%%%%%%%%%%%%%%%%%%%%%%%%%%%%%%%%%%%%

     Adding external electric field

     Computed dipole along edir(3) :
        Dipole              -11.7464 Ry au,        -29.8564 Debye
        Dipole field         -0.0222 Ry au,

        Potential amp.        2.0549 Ry
        Total length         46.3494 bohr

     Starting wfcs are  302 atomic wfcs
  @ DRIVER MODE: Message from server: STATUS
  @ DRIVER MODE: Message from server: POSDATA
  @ DRIVER MODE: Reading and sharing cell
  @ DRIVER MODE: Reading and sharing positions
  @ DRIVER MODE: Received positions

     Self-consistent Calculation

     iteration #  1     ecut=    29.40 Ry     beta= 0.05
     Davidson diagonalization with overlap
     c_bands:  1 eigenvalues not converged
     c_bands:  1 eigenvalues not converged
     c_bands:  1 eigenvalues not converged
     c_bands:  3 eigenvalues not converged
     c_bands:  3 eigenvalues not converged
     c_bands:  3 eigenvalues not converged
     c_bands:  4 eigenvalues not converged
     c_bands:  2 eigenvalues not converged
     ethr =  1.00E-05,  avg # of iterations = 21.6

[...]

     total energy              =   -2428.08504082 Ry
     estimated scf accuracy    <    5789.76667655 Ry

     iteration #  2     ecut=    29.40 Ry     beta= 0.05
     Davidson diagonalization with overlap
     ethr =  1.00E-02,  avg # of iterations = 22.4

[...]

     iteration # 67     ecut=    29.40 Ry     beta= 0.05
     Davidson diagonalization with overlap
     ethr =  4.22E-11,  avg # of iterations =  4.7

[...]

     total energy              =   -2942.85952300 Ry
     estimated scf accuracy    <       0.00000013 Ry

     iteration # 68     ecut=    29.40 Ry     beta= 0.05
     Davidson diagonalization with overlap
     c_bands:  1 eigenvalues not converged
     ethr =  3.39E-11,  avg # of iterations = 10.5

     negative rho (up, down):  1.464E-02 0.000E+00

     Adding external electric field

     Computed dipole along edir(3) :
        Dipole                1.2237 Ry au,          3.1103 Debye
        Dipole field          0.0023 Ry au,

        Potential amp.       -0.2141 Ry
        Total length         46.3494 bohr

     End of self-consistent calculation

          k = 0.0000 0.0000 0.0000 ( 18029 PWs)   bands (ev):

   -55.3474 -55.3105 -55.2998 -55.2681 -55.2657 -55.2314 -55.2241 -55.1888
   -55.1675 -55.1438 -55.1331 -55.1312 -55.0976 -55.0258 -54.3290 -54.2949
   -31.9159 -31.8004 -31.7923 -31.7127 -31.6631 -31.6570 -31.6504 -31.6369
   -31.5889 -31.5883 -31.5569 -31.5515 -31.5447 -31.5283 -31.5173 -31.5096
   -31.5026 -31.4873 -31.4848 -31.4648 -31.4524 -31.4443 -31.4173 -31.4136
   -31.4022 -31.4003 -31.3984 -31.3702 -31.3571 -31.3546 -31.3496 -31.3301
   -31.3270 -31.3188 -31.3175 -31.3154 -31.2813 -31.2674 -31.2596 -31.2425
   -31.2320 -31.2075 -30.7384 -30.6441 -30.6221 -30.5548 -30.4680 -30.3571
   -17.7762 -16.1838 -15.9161 -15.7762 -15.6664 -15.5473 -15.4289 -15.4093
   -15.2772 -15.1945 -15.0745 -15.0518 -15.0252 -15.0061 -14.9937 -14.9786
   -14.8928 -14.8869 -14.8695 -14.8422 -14.8359 -14.7932 -14.7857 -14.7459
   -14.7249 -14.7233 -14.5947 -14.5070 -14.4353 -14.1998 -13.1948 -12.8319
   -12.7144  -9.7292  -6.3503  -5.4163  -4.8755  -3.5398  -3.4993  -3.3675
    -3.2782  -3.2628  -3.2405  -3.1043  -2.9510  -2.7810  -2.7697  -2.7576
    -2.6375  -2.5599  -2.5536  -2.5288  -2.3779  -2.3558  -2.3049  -2.2395
    -2.2117  -2.1641  -2.1528  -2.1313  -2.1122  -2.0923  -2.0839  -1.9703
    -1.9193  -1.8264  -1.7708  -1.7432  -1.7075  -1.6799  -1.6663  -1.6372
    -1.6293  -1.5869  -1.5599  -1.5379  -1.4883  -1.3747  -1.2658  -1.2374
    -1.1383  -0.9858  -0.9648  -0.9404  -0.9292  -0.8528  -0.8348  -0.7906
    -0.7359  -0.7260  -0.6950  -0.5845  -0.5262  -0.4609  -0.3942  -0.3824
    -0.3357  -0.2741  -0.1613  -0.1373  -0.1149  -0.0894   0.0039   0.0434
     0.0883   0.1632   0.1825   0.1961   0.3029   0.3094   0.3908   0.4030
     0.4488   0.5350   0.5688   0.5916   0.5953   0.6086   0.6388   0.7055
     0.7302   0.7565   0.8316   0.9553   1.0325   1.1872   1.2505   1.2643
     1.5939   1.5983   1.6934   1.8772   2.2696   2.3178   3.7499   3.8194
     3.8942   3.9010   3.9129   3.9867   4.2239   4.2400   4.2525   4.2587
     4.2934

[...]

          k = 0.0380-0.0419 0.0000 ( 17876 PWs)   bands (ev):

[...]

          k =-0.0760-0.0000 0.0000 ( 17886 PWs)   bands (ev):

[...]

          k =-0.0760-0.0839 0.0000 ( 17948 PWs)   bands (ev):

   -55.3331 -55.3245 -55.2827 -55.2826 -55.2666 -55.2280 -55.2105 -55.2024
   -55.1519 -55.1482 -55.1472 -55.1147 -55.1143 -55.0271 -54.3120 -54.3118
   -31.7230 -31.7203 -31.7166 -31.6330 -31.6074 -31.6073 -31.6044 -31.5741
   -31.5740 -31.5557 -31.5484 -31.5460 -31.5400 -31.5099 -31.5031 -31.4849
   -31.4847 -31.4807 -31.4774 -31.4721 -31.4690 -31.4683 -31.4314 -31.4262
   -31.4240 -31.4195 -31.4151 -31.4037 -31.4026 -31.4023 -31.3953 -31.3854
   -31.3813 -31.3650 -31.3617 -31.3457 -31.3449 -31.3357 -31.2956 -31.2954
   -31.2854 -31.2368 -30.6348 -30.6347 -30.5509 -30.5509 -30.5114 -30.5113
   -17.7714 -15.7074 -15.5951 -15.5490 -15.3758 -15.3535 -15.3310 -15.3162
   -15.1885 -15.1700 -15.1419 -15.1156 -15.0906 -15.0629 -15.0516 -15.0466
   -14.9642 -14.9523 -14.9448 -14.9287 -14.8607 -14.8577 -14.8535 -14.8476
   -14.7970 -14.7944 -14.7149 -14.7004 -14.6989 -14.5019 -13.1956 -12.8159
   -12.8159  -9.7254  -6.3383  -5.4162  -4.8811  -3.4776  -2.8637  -2.8287
    -2.8048  -2.7885  -2.5913  -2.5532  -2.5163  -2.5042  -2.4048  -2.3626
    -2.3449  -2.3376  -2.2673  -2.2642  -2.2332  -2.2029  -2.1818  -2.1648
    -2.1510  -2.1292  -2.1046  -2.0749  -2.0688  -2.0539  -1.9998  -1.9972
    -1.9816  -1.9593  -1.9420  -1.9210  -1.9044  -1.8484  -1.7257  -1.7152
    -1.6617  -1.5545  -1.5500  -1.4705  -1.4657  -1.4224  -1.3931  -1.3809
    -1.3548  -1.1736  -1.1201  -1.0935  -1.0864  -1.0791  -0.9660  -0.9316
    -0.8732  -0.8578  -0.8318  -0.7339  -0.6842  -0.6790  -0.6030  -0.5659
    -0.5297  -0.4874  -0.3841  -0.3548  -0.3363  -0.3055  -0.3021  -0.2486
    -0.2431  -0.1664  -0.1186  -0.0825  -0.0682  -0.0371   0.1627   0.1719
     0.1896   0.3373   0.3601   0.5000   0.5437   0.5856   0.6466   0.6986
     0.7646   0.8051   0.9322   0.9598   0.9607   1.0311   1.0517   1.0634
     1.1091   1.1110   2.0499   2.0506   2.1377   2.1380   3.8927   3.9973
     4.0124   4.0577   4.1675   4.2413   4.2646   4.2914   4.3342   4.3370
     4.4011

     the Fermi energy is     3.8127 ev

!    total energy              =   -2942.85954563 Ry
     estimated scf accuracy    <       0.00000006 Ry
     smearing contrib. (-TS)   =      -0.03700891 Ry
     internal energy E=F+TS    =   -2942.82253672 Ry

     The total energy is F=E-TS. E is the sum of the following terms:
     one-electron contribution =  -23389.43000322 Ry
     hartree contribution      =   11787.25871234 Ry
     xc contribution           =    -487.75519815 Ry
     ewald contribution        =    9147.10112650 Ry
     electric field correction =       0.00282581 Ry

     convergence has been achieved in  68 iterations

     Forces acting on atoms (cartesian axes, Ry/au):

     atom    1 type  1   force =     0.00000201   -0.00027309    0.09310621
     atom    2 type  1   force =    -0.00014845   -0.00043779   -0.17826152
     atom    3 type  2   force =     0.00007691   -0.00007954   -0.02024487
     atom    4 type  2   force =     0.00001687   -0.00187131    0.05880080
     atom    5 type  2   force =    -0.01019037   -0.00054248    0.00774034
     atom    6 type  2   force =     0.01224512    0.00007617    0.00820157
     atom    7 type  1   force =     0.00038608    0.00329020   -0.01426060
     atom    8 type  1   force =    -0.00045860    0.00045920   -0.00456758
     atom    9 type  2   force =    -0.00002545   -0.00062135   -0.00035269
     atom   10 type  2   force =    -0.00059669    0.00091536   -0.00142410
     atom   11 type  2   force =    -0.00038224   -0.00010710    0.00023968
     atom   12 type  2   force =     0.00007517   -0.00005195    0.00004879
     atom   13 type  1   force =     0.00004616   -0.00032255    0.00013851
     atom   14 type  1   force =    -0.00035735    0.00014304    0.00041963
     atom   15 type  2   force =    -0.00017122    0.00056652    0.00025379
     atom   16 type  2   force =    -0.00008649   -0.00019624    0.00032133
     atom   17 type  2   force =    -0.00051382    0.00000723    0.00035430
     atom   18 type  2   force =     0.00017730   -0.00020080   -0.00013493
     atom   19 type  1   force =     0.00035229    0.00022205    0.00090782
     atom   20 type  1   force =    -0.00054063   -0.00086550    0.00020661
     atom   21 type  2   force =     0.00000155   -0.00010811    0.10395047
     atom   22 type  2   force =    -0.00019795   -0.00041524   -0.00072822
     atom   23 type  2   force =    -0.07035749   -0.00023277   -0.02686589
     atom   24 type  2   force =     0.07025535    0.00019557   -0.02694685
     atom   25 type  1   force =     0.00002214   -0.00026813    0.09277909
     atom   26 type  1   force =    -0.00012242   -0.00044154   -0.17830564
     atom   27 type  2   force =     0.00014119   -0.00033742   -0.01926267
     atom   28 type  2   force =     0.00008049   -0.00155153    0.05820171
     atom   29 type  2   force =    -0.01020572   -0.00033623    0.00695689
     atom   30 type  2   force =     0.01215590   -0.00009354    0.00749173
     atom   31 type  1   force =     0.00040181    0.00497139   -0.01539393
     atom   32 type  1   force =    -0.00037982   -0.00033896   -0.00466212
     atom   33 type  2   force =    -0.00021901   -0.00047436    0.00017995
     atom   34 type  2   force =    -0.00013989    0.00363791   -0.00059257
     atom   35 type  2   force =     0.00003388   -0.00058043    0.00032637
     atom   36 type  2   force =    -0.00019033   -0.00054692   -0.00002562
     atom   37 type  1   force =    -0.00027312   -0.00050207    0.00048387
     atom   38 type  1   force =    -0.00019010   -0.00089877    0.00044200
     atom   39 type  2   force =    -0.00047638   -0.00053536    0.00073556
     atom   40 type  2   force =     0.00001693   -0.00048033   -0.00041400
     atom   41 type  2   force =    -0.00071522   -0.00014733   -0.00009042
     atom   42 type  2   force =     0.00026836   -0.00028737   -0.00028605
     atom   43 type  1   force =     0.00004113   -0.00025162   -0.00008878
     atom   44 type  1   force =    -0.00007306   -0.00020815    0.00048647
     atom   45 type  2   force =     0.00000933   -0.00013971    0.10391943
     atom   46 type  2   force =    -0.07041485   -0.00017712   -0.02689828
     atom   47 type  2   force =     0.07028032    0.00026369   -0.02696841
     atom   48 type  3   force =     0.00039003   -0.00175140   -0.00053076
     atom   49 type  3   force =     0.00019482    0.02448905   -0.00395885
     atom   50 type  4   force =    -0.00263851   -0.00054012   -0.00067862
     atom   51 type  5   force =    -0.00068953    0.00015497    0.00011281
     atom   52 type  5   force =     0.00033157   -0.00004177    0.00038814
     atom   53 type  5   force =     0.00107468    0.00020457    0.00077056
     atom   54 type  5   force =     0.00573880   -0.00845627   -0.00167822
     atom   55 type  5   force =    -0.00309715   -0.01251063    0.00653122
     atom   56 type  5   force =    -0.00096434   -0.00137403   -0.00087345

     Total force =     0.367424     Total SCF correction =     0.000664
  @ DRIVER MODE: Message from server: STATUS
  @ DRIVER MODE: Message from server: GETFORCE
  @ DRIVER MODE: Returning v,forces,stress,ensemble

     Writing output data file ./calc.save/
  @ DRIVER MODE: Message from server: EXIT
  @ DRIVE MODE: Exiting

     General routines

     Parallel routines

   This run was terminated on:   1:17: 2   9Sep2021

   JOB DONE.