     Program PWSCF v.6.7GPU starts on 22Sep2021 at 20:27:15

     R & G space division:  proc/nbgrp/npool/nimage =      10
     Reading input from /storage/home/hcoda1/3/ntian30/research/carbon/CxH_vib/H2O_calc/ads_slab/CHNNHHHO_a/out_0013/pw.inp
Warning: card &CELL ignored
Warning: card   CELL_DYNAMICS='IPI', ignored
Warning: card / ignored

     Current dimensions of program PWSCF are:
     Max number of different atomic species (ntypx) = 10
     Max number of k-points (npk) =  40000
     Max angular momentum in pseudopotentials (lmaxx) =  3
     Presently no symmetry can be used with electric field

     Message from routine cell_base_init:
     DEPRECATED: use true lattice parameter, not A to a.u. conversion factor

     IMPORTANT: XC functional enforced from input :
     Exchange-correlation= BEEF-VDW
                           (   1   4  43  14   2   0   0)
     Any further DFT definition will be discarded
     Please, verify this is what you really want

  @ DRIVER MODE: Connecting to
 qe_1139763_2937315.sched-torque.pace.gatech.edukqj0mbkn_scratch
  using UNIX socket
  @ DRIVER MODE: Message from server: STATUS
  @ DRIVER MODE: Message from server: INIT
  @ DRIVER MODE: Receiving replica           0          -1
  @ DRIVER MODE: Receiving encoded integer          25
  @ DRIVER MODE:  SCF:  T  FORCE:  T  STRESS:  F  VC:  F  ENSEMBLE:  F
  @ DRIVER MODE:  SCF:  T  FORCE:  T  STRESS:  F  VC:  F  ENSEMBLE:  F

     Using Slab Decomposition

     bravais-lattice index     =            0
     lattice parameter (alat)  =       1.8897  a.u.
     unit-cell volume          =    6658.9804 (a.u.)^3
     number of atoms/cell      =           55
     number of atomic types    =            5
     number of electrons       =       402.00
     number of Kohn-Sham states=          211
     kinetic-energy cutoff     =      29.3995  Ry
     charge density cutoff     =     293.9946  Ry
     scf convergence threshold =      7.3E-08
     mixing beta               =       0.0500
     number of iterations used =            8  plain     mixing
     Exchange-correlation= BEEF-VDW
                           (   1   4  43  14   2   0   0)

     celldm(1)=   1.889726  celldm(2)=   0.000000  celldm(3)=   0.000000
     celldm(4)=   0.000000  celldm(5)=   0.000000  celldm(6)=   0.000000

     crystal axes: (cart. coord. in units of alat)
               a(1) = (   6.579727   0.000000   0.000000 )
               a(2) = (  -0.000775   5.961596   0.000000 )
               a(3) = (   0.000000   0.000000  25.155947 )

     reciprocal axes: (cart. coord. in units 2 pi/alat)
               b(1) = (  0.151982  0.000020  0.000000 )
               b(2) = (  0.000000  0.167740  0.000000 )
               b(3) = (  0.000000  0.000000  0.039752 )

     PseudoPot. # 1 for Ti read from file:
     /storage/coda1/p-amedford6/0/shared/rich_project_chbe-medford/medford-share/data/pseudos_module/espresso/nninc/pbe/van/Ti.UPF
     MD5 check sum: 8e4df49b7f0d34bbd5052bf3f5ea0213
     Pseudo is Ultrasoft, Zval = 12.0
     Generated by new atomic code, or converted to UPF format
     Using radial grid of  851 points,  6 beta functions with:
                l(1) =   0
                l(2) =   0
                l(3) =   1
                l(4) =   1
                l(5) =   2
                l(6) =   2
     Q(r) pseudized with  8 coefficients,  rinner =    1.000   1.000   1.000
                                                       1.000   1.000

     PseudoPot. # 2 for O  read from file:
     /storage/coda1/p-amedford6/0/shared/rich_project_chbe-medford/medford-share/data/pseudos_module/espresso/nninc/pbe/van/O.UPF
     MD5 check sum: 78c19812648e8988a0fe644b0f25305e
     Pseudo is Ultrasoft, Zval =  6.0
     Generated by new atomic code, or converted to UPF format
     Using radial grid of  737 points,  4 beta functions with:
                l(1) =   0
                l(2) =   0
                l(3) =   1
                l(4) =   1
     Q(r) pseudized with  8 coefficients,  rinner =    0.800   0.800   0.800

     PseudoPot. # 3 for N  read from file:
     /storage/coda1/p-amedford6/0/shared/rich_project_chbe-medford/medford-share/data/pseudos_module/espresso/nninc/pbe/van/N.UPF
     MD5 check sum: 90d10febe142ad51ac9d5be1deb811c4
     Pseudo is Ultrasoft, Zval =  5.0
     Generated by new atomic code, or converted to UPF format
     Using radial grid of  729 points,  4 beta functions with:
                l(1) =   0
                l(2) =   0
                l(3) =   1
                l(4) =   1
     Q(r) pseudized with  8 coefficients,  rinner =    0.800   0.800   0.800

     PseudoPot. # 4 for C  read from file:
     /storage/coda1/p-amedford6/0/shared/rich_project_chbe-medford/medford-share/data/pseudos_module/espresso/nninc/pbe/van/C.UPF
     MD5 check sum: 1a69bf6b8db32088f5b2163dbdb77a27
     Pseudo is Ultrasoft, Zval =  4.0
     Generated by new atomic code, or converted to UPF format
     Using radial grid of  721 points,  4 beta functions with:
                l(1) =   0
                l(2) =   0
                l(3) =   1
                l(4) =   1
     Q(r) pseudized with  8 coefficients,  rinner =    0.800   0.800   0.800

     PseudoPot. # 5 for H  read from file:
     /storage/coda1/p-amedford6/0/shared/rich_project_chbe-medford/medford-share/data/pseudos_module/espresso/nninc/pbe/van/H.UPF
     MD5 check sum: b5ee9d7bfd3a09ee7748110bda690ff7
     Pseudo is Ultrasoft, Zval =  1.0
     Generated by new atomic code, or converted to UPF format
     Using radial grid of  615 points,  1 beta functions with:
                l(1) =   0
     Q(r) pseudized with  8 coefficients,  rinner =    0.800

     atomic species   valence    mass     pseudopotential
        Ti1           12.00    47.86700     Ti( 1.00)
        O1             6.00    15.99900     O ( 1.00)
        N1             5.00    14.00700     N ( 1.00)
        C1             4.00    12.01100     C ( 1.00)
        H1             1.00     1.00800     H ( 1.00)

     No symmetry found

   Cartesian axes

     site n.     atom                  positions (alat units)
         1           Ti1 tau(   1) = (   0.0004258   2.9801865   6.0000000  )
         2           Ti1 tau(   2) = (   3.2906075   1.4906267   6.0002472  )
         3           O1  tau(   3) = (   0.0006271   0.0005054   7.9858123  )
         4           O1  tau(   4) = (   3.2906025   0.0005020   7.3038282  )
         5           O1  tau(   5) = (   4.5942328   1.4918067   9.2879030  )
         6           O1  tau(   6) = (   1.9868534   1.4903216   9.2879459  )
         7           Ti1 tau(   7) = (   3.2907910   2.8959150   9.1758416  )
         8           Ti1 tau(   8) = (   0.0015273   1.4827037   9.2680791  )
         9           O1  tau(   9) = (   3.3019041   5.9340972  11.2780832  )
        10           O1  tau(  10) = (   0.0116148   5.9584955  10.6183126  )
        11           O1  tau(  11) = (   1.2869077   1.4717189  12.6473688  )
        12           O1  tau(  12) = (   5.3188397   1.4655789  12.6430575  )
        13           Ti1 tau(  13) = (   0.0521173   3.0639968  12.7333969  )
        14           Ti1 tau(  14) = (   3.2906581   1.3001642  12.6471297  )
        15           O1  tau(  15) = (   0.0021475   5.9326859  14.6872502  )
        16           O1  tau(  16) = (   3.3040199   0.0265785  13.8678754  )
        17           O1  tau(  17) = (   4.6240569   1.6264218  16.1080407  )
        18           O1  tau(  18) = (   2.0715169   1.5429601  15.9546445  )
        19           Ti1 tau(  19) = (   3.3363059   2.9874148  15.6109769  )
        20           Ti1 tau(  20) = (   0.0492893   1.4028208  15.7974426  )
        21           O1  tau(  21) = (   3.2904802   0.0005063   4.7018136  )
        22           O1  tau(  22) = (   0.0944532   0.0627470  17.1934044  )
        23           O1  tau(  23) = (   1.3043587   1.4918075   6.0039043  )
        24           O1  tau(  24) = (   5.2767064   1.4903225   6.0039473  )
        25           Ti1 tau(  25) = (   0.0000382   5.9609847   6.0000000  )
        26           Ti1 tau(  26) = (   3.2902200   4.4714249   6.0002472  )
        27           O1  tau(  27) = (   0.0002396   2.9813036   7.9858123  )
        28           O1  tau(  28) = (   3.2902150   2.9813002   7.3038282  )
        29           O1  tau(  29) = (   4.5938453   4.4726049   9.2879030  )
        30           O1  tau(  30) = (   1.9864658   4.4711199   9.2879459  )
        31           Ti1 tau(  31) = (   3.2891106   5.8743827   9.1763621  )
        32           Ti1 tau(  32) = (   0.0006254   4.4649316   9.2693709  )
        33           O1  tau(  33) = (   3.3033179   3.0104581  11.2528581  )
        34           O1  tau(  34) = (   0.0092240   2.9805883  10.6323155  )
        35           O1  tau(  35) = (   1.3074756   4.4469578  12.6382572  )
        36           O1  tau(  36) = (   5.3202433   4.4545580  12.6357595  )
        37           Ti1 tau(  37) = (   6.5572640   0.0741000  12.5519234  )
        38           Ti1 tau(  38) = (   3.3179412   4.3950854  12.4030220  )
        39           O1  tau(  39) = (   0.0383827   2.9948909  14.7437145  )
        40           O1  tau(  40) = (   3.3238341   2.9662938  13.8354460  )
        41           O1  tau(  41) = (   4.5722604   4.5101538  15.9256862  )
        42           O1  tau(  42) = (   2.0839069   4.4665637  16.0501180  )
        43           Ti1 tau(  43) = (   3.2507700   5.9423238  16.2547716  )
        44           Ti1 tau(  44) = (   6.5063516   4.5631136  16.2071476  )
        45           O1  tau(  45) = (   3.2900926   2.9813045   4.7018136  )
        46           O1  tau(  46) = (   1.3039711   4.4726057   6.0039043  )
        47           O1  tau(  47) = (   5.2763189   4.4711207   6.0039473  )
        48           N1  tau(  48) = (   0.4124544   2.9287237  17.8391456  )
        49           C1  tau(  49) = (   1.3780350   3.0145335  18.6736463  )
        50           H1  tau(  50) = (   2.2927514   2.5668077  18.2879847  )
        51           N1  tau(  51) = (   5.7762606   3.6115528  18.1636368  )
        52           H1  tau(  52) = (   5.8537390   4.1179332  19.0469945  )
        53           H1  tau(  53) = (   5.0130290   2.9392956  18.1702355  )
        54           O1  tau(  54) = (   3.2882145   0.0116813  18.0866318  )
        55           H1  tau(  55) = (   2.5950809   5.5738040  18.6371346  )

     number of k points=    10  Fermi-Dirac smearing, width (Ry)=  0.0073
                       cart. coord. in units 2pi/alat
        k(    1) = (   0.0000000   0.0000000   0.0000000), wk =   0.1250000
        k(    2) = (   0.0000000   0.0419351   0.0000000), wk =   0.2500000
        k(    3) = (   0.0000000  -0.0838702   0.0000000), wk =   0.1250000
        k(    4) = (   0.0379955   0.0000049   0.0000000), wk =   0.2500000
        k(    5) = (   0.0379955   0.0419400   0.0000000), wk =   0.2500000
        k(    6) = (   0.0379955  -0.0838652   0.0000000), wk =   0.2500000
        k(    7) = (   0.0379955  -0.0419301   0.0000000), wk =   0.2500000
        k(    8) = (  -0.0759910  -0.0000099   0.0000000), wk =   0.1250000
        k(    9) = (  -0.0759910   0.0419252   0.0000000), wk =   0.2500000
        k(   10) = (  -0.0759910  -0.0838800   0.0000000), wk =   0.1250000

     Initial potential from superposition of free atoms

     starting charge  385.99915, renormalised to  402.00000

     negative rho (up, down):  1.703E-02 0.000E+00

     %%%%%%%%%%%%%%%%%%%%%%%%%%%%%%%%%%%%%%%%%%%%%%%%%%%%%%%%%%%%%%%%%%%%%%%%
     %                                                                      %
     % You are using vdW-DF, which was implemented by the Thonhauser group. %
     % Please cite the following two papers that made this development      %
     % possible and the two reviews that describe the various versions:     %
     %                                                                      %
     %   T. Thonhauser et al., PRL 115, 136402 (2015).                      %
     %   T. Thonhauser et al., PRB 76, 125112 (2007).                       %
     %   K. Berland et al., Rep. Prog. Phys. 78, 066501 (2015).             %
     %   D.C. Langreth et al., J. Phys.: Condens. Matter 21, 084203 (2009). %
     %                                                                      %
     %                                                                      %
     % If you are calculating the stress with vdW-DF, please also cite:     %
     %                                                                      %
     %   R. Sabatini et al., J. Phys.: Condens. Matter 24, 424209 (2012).   %
     %                                                                      %
     %%%%%%%%%%%%%%%%%%%%%%%%%%%%%%%%%%%%%%%%%%%%%%%%%%%%%%%%%%%%%%%%%%%%%%%%

     Adding external electric field

     Computed dipole along edir(3) :
        Dipole              -11.1544 Ry au,        -28.3516 Debye
        Dipole field         -0.0210 Ry au,

        Potential amp.        1.9513 Ry
        Total length         46.3494 bohr

     Starting wfcs are  304 atomic wfcs
  @ DRIVER MODE: Message from server: STATUS
  @ DRIVER MODE: Message from server: POSDATA
  @ DRIVER MODE: Reading and sharing cell
  @ DRIVER MODE: Reading and sharing positions
  @ DRIVER MODE: Received positions

     Self-consistent Calculation

     iteration #  1     ecut=    29.40 Ry     beta= 0.05
     Davidson diagonalization with overlap
     c_bands:  2 eigenvalues not converged
     c_bands:  3 eigenvalues not converged
     c_bands:  1 eigenvalues not converged
     c_bands:  5 eigenvalues not converged
     c_bands:  1 eigenvalues not converged
     c_bands:  1 eigenvalues not converged
     c_bands:  5 eigenvalues not converged
     c_bands:  3 eigenvalues not converged
     ethr =  1.00E-05,  avg # of iterations = 27.6

[...]

     total energy              =   -2400.30502103 Ry
     estimated scf accuracy    <    6416.16203723 Ry

     iteration #  2     ecut=    29.40 Ry     beta= 0.05
     Davidson diagonalization with overlap
     ethr =  1.00E-02,  avg # of iterations = 23.3

[...]

     iteration # 79     ecut=    29.40 Ry     beta= 0.05
     Davidson diagonalization with overlap
     c_bands:  1 eigenvalues not converged
     ethr =  5.69E-07,  avg # of iterations = 12.5

[...]

     total energy              =   -2972.60991495 Ry
     estimated scf accuracy    <       0.00000021 Ry

     iteration #106     ecut=    29.40 Ry     beta= 0.05
     Davidson diagonalization with overlap
     ethr =  3.37E-11,  avg # of iterations =  5.1

     negative rho (up, down):  1.638E-02 0.000E+00

     Adding external electric field

     Computed dipole along edir(3) :
        Dipole                0.2183 Ry au,          0.5548 Debye
        Dipole field          0.0004 Ry au,

        Potential amp.       -0.0382 Ry
        Total length         46.3494 bohr

     End of self-consistent calculation

          k = 0.0000 0.0000 0.0000 ( 18029 PWs)   bands (ev):

   -56.4684 -56.4347 -56.0114 -55.9755 -55.7597 -55.7052 -55.6464 -55.6364
   -55.6045 -55.5142 -55.5064 -55.4513 -55.4067 -55.2831 -55.2125 -55.1785
   -32.9150 -32.7598 -32.7325 -32.6283 -32.5395 -32.5360 -32.4930 -32.2430
   -32.2291 -32.2071 -32.1603 -32.1553 -32.1289 -32.1100 -32.0255 -32.0116
   -31.9941 -31.9809 -31.9627 -31.9245 -31.9176 -31.9105 -31.9076 -31.8843
   -31.8661 -31.8635 -31.8586 -31.8065 -31.7896 -31.7696 -31.7474 -31.7227
   -31.7111 -31.6950 -31.6781 -31.6731 -31.6457 -31.6077 -31.5962 -31.5770
   -31.5480 -31.5476 -31.5238 -31.5147 -31.4912 -31.4267 -31.3424 -31.2304
   -17.9031 -16.7401 -16.4735 -16.4032 -16.2039 -16.0142 -15.9211 -15.9044
   -15.8865 -15.7652 -15.7649 -15.6140 -15.5335 -15.4784 -15.4155 -15.4031
   -15.3346 -15.3181 -15.2540 -15.2264 -15.2134 -15.1879 -15.1384 -15.0772
   -15.0666 -15.0407 -14.8527 -14.8289 -14.8127 -14.6273 -14.5348 -13.7098
   -13.5981 -13.2153  -7.8477  -6.1745  -4.2654  -4.2564  -4.1394  -3.9349
    -3.7358  -3.6736  -3.5774  -3.4359  -3.4047  -3.1628  -3.1477  -3.1062
    -3.0174  -2.9887  -2.9621  -2.9025  -2.8443  -2.8247  -2.7637  -2.6869
    -2.6850  -2.6742  -2.6421  -2.6197  -2.5161  -2.4757  -2.4140  -2.3751
    -2.3486  -2.3385  -2.2992  -2.2441  -2.2165  -2.1642  -2.1460  -2.0650
    -2.0344  -1.9481  -1.8882  -1.8705  -1.8164  -1.7606  -1.7555  -1.6996
    -1.5683  -1.4585  -1.3919  -1.3494  -1.2957  -1.2404  -1.2102  -1.1554
    -1.0905  -1.0669  -1.0439  -1.0069  -0.9460  -0.9177  -0.8714  -0.8161
    -0.7392  -0.6723  -0.6269  -0.6050  -0.5007  -0.4353  -0.3968  -0.3812
    -0.3446  -0.2896  -0.2351  -0.1950  -0.1846  -0.1615  -0.1011   0.0229
     0.0337   0.0927   0.1476   0.1810   0.1935   0.2086   0.2709   0.3380
     0.4119   0.4549   0.4675   0.5252   0.5903   0.6288   0.7433   0.8121
     0.8387   0.8794   0.9561   1.0327   1.0468   1.3534   1.3671   1.3958
     2.5128   2.7668   2.8976   3.0772   3.1977   3.3331   3.6525   3.6689
     3.6805   3.7031   3.7947

[...]

          k = 0.0380-0.0419 0.0000 ( 17876 PWs)   bands (ev):

[...]

          k =-0.0760-0.0000 0.0000 ( 17886 PWs)   bands (ev):

[...]

          k =-0.0760-0.0839 0.0000 ( 17948 PWs)   bands (ev):

   -56.4517 -56.4512 -55.9998 -55.9870 -55.7537 -55.7110 -55.6378 -55.6348
   -55.6130 -55.5120 -55.5079 -55.4496 -55.4087 -55.2847 -55.1960 -55.1949
   -32.7456 -32.7451 -32.7312 -32.7310 -32.5809 -32.5799 -32.3217 -32.3107
   -32.1917 -32.1854 -32.1772 -32.1756 -32.0616 -32.0291 -31.9826 -31.9755
   -31.9611 -31.9571 -31.9480 -31.9400 -31.9375 -31.9295 -31.9078 -31.8705
   -31.8637 -31.8570 -31.8552 -31.8407 -31.8214 -31.7959 -31.7826 -31.7724
   -31.7259 -31.7092 -31.7020 -31.6817 -31.6515 -31.6321 -31.6308 -31.6006
   -31.5502 -31.5372 -31.5364 -31.4953 -31.4234 -31.4220 -31.3852 -31.3843
   -17.8937 -16.4540 -16.1457 -16.1348 -16.0172 -16.0116 -15.8582 -15.8390
   -15.8209 -15.7469 -15.6820 -15.6615 -15.5131 -15.5005 -15.4641 -15.4285
   -15.4004 -15.3635 -15.3588 -15.3353 -15.3019 -15.2365 -15.2151 -15.1901
   -15.1799 -15.1024 -14.9232 -14.8997 -14.8975 -14.8232 -14.6842 -13.7018
   -13.7008 -13.2264  -7.8117  -6.1051  -4.3855  -4.0865  -3.3161  -3.2523
    -3.1767  -3.1402  -3.1299  -3.0579  -3.0426  -2.9277  -2.8997  -2.8609
    -2.8343  -2.8238  -2.8035  -2.7528  -2.7299  -2.6857  -2.6689  -2.6670
    -2.6356  -2.5949  -2.5746  -2.5513  -2.5409  -2.4710  -2.4413  -2.3986
    -2.3826  -2.3703  -2.3227  -2.2615  -2.2418  -2.1871  -2.1747  -2.1430
    -2.1062  -2.0447  -2.0057  -1.9641  -1.8659  -1.8448  -1.7766  -1.6591
    -1.6378  -1.5540  -1.5261  -1.5047  -1.4825  -1.4052  -1.3719  -1.3388
    -1.2519  -1.2255  -1.2168  -1.1901  -1.1568  -1.1321  -1.0751  -1.0137
    -0.9183  -0.8550  -0.8430  -0.8243  -0.7847  -0.7582  -0.7173  -0.6253
    -0.6040  -0.5690  -0.5589  -0.5172  -0.4052  -0.3784  -0.2292  -0.1913
    -0.1025  -0.0749  -0.0553  -0.0140   0.1078   0.1352   0.1855   0.2058
     0.2651   0.3098   0.3610   0.4513   0.5533   0.5652   0.6969   0.7235
     0.7444   0.8178   0.9515   0.9921   1.2064   1.2110   1.2127   1.2149
     2.4937   3.3195   3.3219   3.3553   3.3676   3.5709   3.5909   3.7170
     3.8014   3.8106   3.8321

     the Fermi energy is     2.6933 ev

!    total energy              =   -2972.60991542 Ry
     estimated scf accuracy    <       0.00000006 Ry
     smearing contrib. (-TS)   =      -0.01174221 Ry
     internal energy E=F+TS    =   -2972.59817321 Ry

     The total energy is F=E-TS. E is the sum of the following terms:
     one-electron contribution =  -24036.63906550 Ry
     hartree contribution      =   12109.71024628 Ry
     xc contribution           =    -493.08178460 Ry
     ewald contribution        =    9447.41234070 Ry
     electric field correction =       0.00008991 Ry

     convergence has been achieved in 106 iterations

     Forces acting on atoms (cartesian axes, Ry/au):

     atom    1 type  1   force =    -0.00003591   -0.00046014    0.10838173
     atom    2 type  1   force =     0.00002041    0.00009155   -0.16409388
     atom    3 type  2   force =     0.00013329    0.00046782   -0.04119573
     atom    4 type  2   force =     0.00009382   -0.00056529    0.03215582
     atom    5 type  2   force =    -0.00379783   -0.00332813   -0.00776044
     atom    6 type  2   force =     0.00585953   -0.00273547   -0.00758571
     atom    7 type  1   force =     0.00017343   -0.00552229    0.03635588
     atom    8 type  1   force =     0.00013088    0.02544175    0.06353243
     atom    9 type  2   force =     0.00013862    0.00040701    0.00011585
     atom   10 type  2   force =    -0.00195064    0.00075978   -0.03779321
     atom   11 type  2   force =     0.00011183   -0.00015806   -0.00017371
     atom   12 type  2   force =    -0.00074803    0.00020299   -0.00018028
     atom   13 type  1   force =     0.00044433    0.00044890    0.00089899
     atom   14 type  1   force =    -0.00056328   -0.00027026    0.00016771
     atom   15 type  2   force =    -0.00013571    0.00000733    0.00077473
     atom   16 type  2   force =    -0.00012902    0.00032505   -0.00016506
     atom   17 type  2   force =    -0.00108174    0.00049890   -0.00000432
     atom   18 type  2   force =     0.00061671    0.00001182   -0.00024211
     atom   19 type  1   force =     0.00036702   -0.00073886   -0.00008155
     atom   20 type  1   force =    -0.00049339    0.00001332   -0.00012195
     atom   21 type  2   force =     0.00009660    0.00018675    0.10009237
     atom   22 type  2   force =    -0.00010836   -0.00034916    0.00031958
     atom   23 type  2   force =    -0.07740317    0.00001385   -0.03033001
     atom   24 type  2   force =     0.07739551    0.00043275   -0.03036884
     atom   25 type  1   force =    -0.00000508   -0.00032063    0.10856151
     atom   26 type  1   force =    -0.00004194   -0.00111404   -0.16412199
     atom   27 type  2   force =     0.00011769   -0.00017772   -0.03920940
     atom   28 type  2   force =     0.00011726    0.00118168    0.02837455
     atom   29 type  2   force =    -0.00229817    0.00467878   -0.01049304
     atom   30 type  2   force =     0.00437609    0.00496095   -0.01045356
     atom   31 type  1   force =     0.00005751    0.00317968    0.01917856
     atom   32 type  1   force =     0.00036667   -0.02766257    0.06527329
     atom   33 type  2   force =    -0.00003264   -0.00080230   -0.00042872
     atom   34 type  2   force =    -0.00062717    0.00085786   -0.05568557
     atom   35 type  2   force =    -0.00033980   -0.00023171   -0.00026586
     atom   36 type  2   force =    -0.00007554   -0.00003746   -0.00019177
     atom   37 type  1   force =     0.00029454   -0.00051969    0.00013941
     atom   38 type  1   force =    -0.00037183   -0.00014293    0.00028798
     atom   39 type  2   force =    -0.00016508    0.00034526   -0.00018300
     atom   40 type  2   force =    -0.00016504   -0.00026852   -0.00030703
     atom   41 type  2   force =    -0.00034464    0.00017021   -0.00001609
     atom   42 type  2   force =    -0.00041926   -0.00002035    0.00010721
     atom   43 type  1   force =     0.00034649    0.00026786    0.00002915
     atom   44 type  1   force =    -0.00041957    0.00019741   -0.00048994
     atom   45 type  2   force =     0.00010284    0.00001346    0.09990066
     atom   46 type  2   force =    -0.07743729   -0.00001171   -0.03033853
     atom   47 type  2   force =     0.07745663    0.00041938   -0.03037741
     atom   48 type  3   force =    -0.00144552    0.00036014    0.00034666
     atom   49 type  4   force =    -0.00785810    0.00313334    0.00183417
     atom   50 type  5   force =     0.00891883   -0.00392019   -0.00300947
     atom   51 type  3   force =     0.00086712   -0.00070458   -0.00020808
     atom   52 type  5   force =     0.00023526    0.00021566   -0.00038872
     atom   53 type  5   force =     0.00010214    0.00074179    0.00003816
     atom   54 type  2   force =     0.00074248    0.00073574   -0.00139540
     atom   55 type  5   force =    -0.00118981   -0.00070667    0.00079403

     Total force =     0.383122     Total SCF correction =     0.000806
  @ DRIVER MODE: Message from server: STATUS
  @ DRIVER MODE: Message from server: GETFORCE
  @ DRIVER MODE: Returning v,forces,stress,ensemble

     Writing output data file ./calc.save/
  @ DRIVER MODE: Message from server: EXIT
  @ DRIVE MODE: Exiting

     General routines

     Parallel routines

   This run was terminated on:  20:52:47  22Sep2021

   JOB DONE.