     Program PWSCF v.6.7GPU starts on 11Sep2021 at  3:12:31

     R & G space division:  proc/nbgrp/npool/nimage =      10
     Reading input from /storage/home/hcoda1/3/ntian30/research/carbon/CxH_vib/CH2_calc/ads_slab/CH2N2H_e/out_0028/pw.inp
Warning: card &CELL ignored
Warning: card   CELL_DYNAMICS='IPI', ignored
Warning: card / ignored

     Current dimensions of program PWSCF are:
     Max number of different atomic species (ntypx) = 10
     Max number of k-points (npk) =  40000
     Max angular momentum in pseudopotentials (lmaxx) =  3
     Presently no symmetry can be used with electric field

     Message from routine cell_base_init:
     DEPRECATED: use true lattice parameter, not A to a.u. conversion factor

     IMPORTANT: XC functional enforced from input :
     Exchange-correlation= BEEF-VDW
                           (   1   4  43  14   2   0   0)
     Any further DFT definition will be discarded
     Please, verify this is what you really want

  @ DRIVER MODE: Connecting to
 qe_1139763_2792041.sched-torque.pace.gatech.edunx1qe5de_scratch
  using UNIX socket
  @ DRIVER MODE: Message from server: STATUS
  @ DRIVER MODE: Message from server: INIT
  @ DRIVER MODE: Receiving replica           0          -1
  @ DRIVER MODE: Receiving encoded integer          25
  @ DRIVER MODE:  SCF:  T  FORCE:  T  STRESS:  F  VC:  F  ENSEMBLE:  F
  @ DRIVER MODE:  SCF:  T  FORCE:  T  STRESS:  F  VC:  F  ENSEMBLE:  F

     Using Slab Decomposition

     bravais-lattice index     =            0
     lattice parameter (alat)  =       1.8897  a.u.
     unit-cell volume          =    6658.9804 (a.u.)^3
     number of atoms/cell      =           53
     number of atomic types    =            5
     number of electrons       =       395.00
     number of Kohn-Sham states=          207
     kinetic-energy cutoff     =      29.3995  Ry
     charge density cutoff     =     293.9946  Ry
     scf convergence threshold =      7.3E-08
     mixing beta               =       0.0500
     number of iterations used =            8  plain     mixing
     Exchange-correlation= BEEF-VDW
                           (   1   4  43  14   2   0   0)

     celldm(1)=   1.889726  celldm(2)=   0.000000  celldm(3)=   0.000000
     celldm(4)=   0.000000  celldm(5)=   0.000000  celldm(6)=   0.000000

     crystal axes: (cart. coord. in units of alat)
               a(1) = (   6.579727   0.000000   0.000000 )
               a(2) = (  -0.000775   5.961596   0.000000 )
               a(3) = (   0.000000   0.000000  25.155947 )

     reciprocal axes: (cart. coord. in units 2 pi/alat)
               b(1) = (  0.151982  0.000020  0.000000 )
               b(2) = (  0.000000  0.167740  0.000000 )
               b(3) = (  0.000000  0.000000  0.039752 )

     PseudoPot. # 1 for Ti read from file:
     /storage/coda1/p-amedford6/0/shared/rich_project_chbe-medford/medford-share/data/pseudos_module/espresso/nninc/pbe/van/Ti.UPF
     MD5 check sum: 8e4df49b7f0d34bbd5052bf3f5ea0213
     Pseudo is Ultrasoft, Zval = 12.0
     Generated by new atomic code, or converted to UPF format
     Using radial grid of  851 points,  6 beta functions with:
                l(1) =   0
                l(2) =   0
                l(3) =   1
                l(4) =   1
                l(5) =   2
                l(6) =   2
     Q(r) pseudized with  8 coefficients,  rinner =    1.000   1.000   1.000
                                                       1.000   1.000

     PseudoPot. # 2 for O  read from file:
     /storage/coda1/p-amedford6/0/shared/rich_project_chbe-medford/medford-share/data/pseudos_module/espresso/nninc/pbe/van/O.UPF
     MD5 check sum: 78c19812648e8988a0fe644b0f25305e
     Pseudo is Ultrasoft, Zval =  6.0
     Generated by new atomic code, or converted to UPF format
     Using radial grid of  737 points,  4 beta functions with:
                l(1) =   0
                l(2) =   0
                l(3) =   1
                l(4) =   1
     Q(r) pseudized with  8 coefficients,  rinner =    0.800   0.800   0.800

     PseudoPot. # 3 for N  read from file:
     /storage/coda1/p-amedford6/0/shared/rich_project_chbe-medford/medford-share/data/pseudos_module/espresso/nninc/pbe/van/N.UPF
     MD5 check sum: 90d10febe142ad51ac9d5be1deb811c4
     Pseudo is Ultrasoft, Zval =  5.0
     Generated by new atomic code, or converted to UPF format
     Using radial grid of  729 points,  4 beta functions with:
                l(1) =   0
                l(2) =   0
                l(3) =   1
                l(4) =   1
     Q(r) pseudized with  8 coefficients,  rinner =    0.800   0.800   0.800

     PseudoPot. # 4 for C  read from file:
     /storage/coda1/p-amedford6/0/shared/rich_project_chbe-medford/medford-share/data/pseudos_module/espresso/nninc/pbe/van/C.UPF
     MD5 check sum: 1a69bf6b8db32088f5b2163dbdb77a27
     Pseudo is Ultrasoft, Zval =  4.0
     Generated by new atomic code, or converted to UPF format
     Using radial grid of  721 points,  4 beta functions with:
                l(1) =   0
                l(2) =   0
                l(3) =   1
                l(4) =   1
     Q(r) pseudized with  8 coefficients,  rinner =    0.800   0.800   0.800

     PseudoPot. # 5 for H  read from file:
     /storage/coda1/p-amedford6/0/shared/rich_project_chbe-medford/medford-share/data/pseudos_module/espresso/nninc/pbe/van/H.UPF
     MD5 check sum: b5ee9d7bfd3a09ee7748110bda690ff7
     Pseudo is Ultrasoft, Zval =  1.0
     Generated by new atomic code, or converted to UPF format
     Using radial grid of  615 points,  1 beta functions with:
                l(1) =   0
     Q(r) pseudized with  8 coefficients,  rinner =    0.800

     atomic species   valence    mass     pseudopotential
        Ti1           12.00    47.86700     Ti( 1.00)
        O1             6.00    15.99900     O ( 1.00)
        N1             5.00    14.00700     N ( 1.00)
        C1             4.00    12.01100     C ( 1.00)
        H1             1.00     1.00800     H ( 1.00)

     No symmetry found

   Cartesian axes

     site n.     atom                  positions (alat units)
         1           Ti1 tau(   1) = (   0.0004258   2.9801865   6.0000000  )
         2           Ti1 tau(   2) = (   3.2906075   1.4906267   6.0002472  )
         3           O1  tau(   3) = (   0.0006271   0.0005054   7.9858123  )
         4           O1  tau(   4) = (   3.2906025   0.0005020   7.3038282  )
         5           O1  tau(   5) = (   4.5942328   1.4918067   9.2879030  )
         6           O1  tau(   6) = (   1.9868534   1.4903216   9.2879459  )
         7           Ti1 tau(   7) = (   3.2907910   2.8959150   9.1758416  )
         8           Ti1 tau(   8) = (   0.0015273   1.4827037   9.2680791  )
         9           O1  tau(   9) = (   3.2922140   0.0036562  11.3253104  )
        10           O1  tau(  10) = (   0.0116148   5.9584955  10.6183126  )
        11           O1  tau(  11) = (   1.2860832   1.4889729  12.6258215  )
        12           O1  tau(  12) = (   5.2729595   1.4828594  12.6177116  )
        13           Ti1 tau(  13) = (   0.0641184   3.0073180  12.5883652  )
        14           Ti1 tau(  14) = (   3.3767723   1.4911129  12.4765728  )
        15           O1  tau(  15) = (   6.5781935   5.9569561  14.6821271  )
        16           O1  tau(  16) = (   3.2819581   0.0025077  13.9050320  )
        17           O1  tau(  17) = (   4.5172158   1.5234625  16.0337941  )
        18           O1  tau(  18) = (   2.0475084   1.5263597  16.0453316  )
        19           Ti1 tau(  19) = (   3.2743797   3.0127756  15.6984511  )
        20           Ti1 tau(  20) = (   6.5512008   1.5842238  15.7855373  )
        21           O1  tau(  21) = (   3.2904802   0.0005063   4.7018136  )
        22           O1  tau(  22) = (   6.5742344   0.0609322  17.2932839  )
        23           O1  tau(  23) = (   1.3043587   1.4918075   6.0039043  )
        24           O1  tau(  24) = (   5.2767064   1.4903225   6.0039473  )
        25           Ti1 tau(  25) = (   0.0000382   5.9609847   6.0000000  )
        26           Ti1 tau(  26) = (   3.2902200   4.4714249   6.0002472  )
        27           O1  tau(  27) = (   0.0002396   2.9813036   7.9858123  )
        28           O1  tau(  28) = (   3.2902150   2.9813002   7.3038282  )
        29           O1  tau(  29) = (   4.5938453   4.4726049   9.2879030  )
        30           O1  tau(  30) = (   1.9864658   4.4711199   9.2879459  )
        31           Ti1 tau(  31) = (   3.2891106   5.8743827   9.1763621  )
        32           Ti1 tau(  32) = (   0.0006254   4.4649316   9.2693709  )
        33           O1  tau(  33) = (   3.2917412   2.9831059  11.3263362  )
        34           O1  tau(  34) = (   0.0092240   2.9805883  10.6323155  )
        35           O1  tau(  35) = (   1.2859270   4.4784489  12.6216084  )
        36           O1  tau(  36) = (   5.2779610   4.4756213  12.6128944  )
        37           Ti1 tau(  37) = (   0.0616295   0.0157230  12.5710002  )
        38           Ti1 tau(  38) = (   3.3796684   4.4726909  12.4790056  )
        39           O1  tau(  39) = (   6.5693437   2.9756239  14.6354252  )
        40           O1  tau(  40) = (   3.2842310   3.0020566  13.9003041  )
        41           O1  tau(  41) = (   4.5171552   4.5052370  16.0986928  )
        42           O1  tau(  42) = (   2.0408908   4.5012300  16.0971631  )
        43           Ti1 tau(  43) = (   3.2680294   0.0293594  15.7040856  )
        44           Ti1 tau(  44) = (   6.5592110   4.6908586  16.1766550  )
        45           O1  tau(  45) = (   3.2900926   2.9813045   4.7018136  )
        46           O1  tau(  46) = (   1.3039711   4.4726057   6.0039043  )
        47           O1  tau(  47) = (   5.2763189   4.4711207   6.0039473  )
        48           N1  tau(  48) = (   0.0931655   2.5901963  18.5587852  )
        49           N1  tau(  49) = (   6.5755498   2.9338716  17.3126873  )
        50           C1  tau(  50) = (   0.1889803   3.3462807  19.6294495  )
        51           H1  tau(  51) = (   0.2540540   2.8541835  20.5836859  )
        52           H1  tau(  52) = (   0.1890997   4.4271571  19.5098884  )
        53           H1  tau(  53) = (   0.0969130   1.5623892  18.6894177  )

     number of k points=    10  Fermi-Dirac smearing, width (Ry)=  0.0073
                       cart. coord. in units 2pi/alat
        k(    1) = (   0.0000000   0.0000000   0.0000000), wk =   0.1250000
        k(    2) = (   0.0000000   0.0419351   0.0000000), wk =   0.2500000
        k(    3) = (   0.0000000  -0.0838702   0.0000000), wk =   0.1250000
        k(    4) = (   0.0379955   0.0000049   0.0000000), wk =   0.2500000
        k(    5) = (   0.0379955   0.0419400   0.0000000), wk =   0.2500000
        k(    6) = (   0.0379955  -0.0838652   0.0000000), wk =   0.2500000
        k(    7) = (   0.0379955  -0.0419301   0.0000000), wk =   0.2500000
        k(    8) = (  -0.0759910  -0.0000099   0.0000000), wk =   0.1250000
        k(    9) = (  -0.0759910   0.0419252   0.0000000), wk =   0.2500000
        k(   10) = (  -0.0759910  -0.0838800   0.0000000), wk =   0.1250000

     Initial potential from superposition of free atoms

     starting charge  378.99916, renormalised to  395.00000

     negative rho (up, down):  1.523E-02 0.000E+00

     %%%%%%%%%%%%%%%%%%%%%%%%%%%%%%%%%%%%%%%%%%%%%%%%%%%%%%%%%%%%%%%%%%%%%%%%
     %                                                                      %
     % You are using vdW-DF, which was implemented by the Thonhauser group. %
     % Please cite the following two papers that made this development      %
     % possible and the two reviews that describe the various versions:     %
     %                                                                      %
     %   T. Thonhauser et al., PRL 115, 136402 (2015).                      %
     %   T. Thonhauser et al., PRB 76, 125112 (2007).                       %
     %   K. Berland et al., Rep. Prog. Phys. 78, 066501 (2015).             %
     %   D.C. Langreth et al., J. Phys.: Condens. Matter 21, 084203 (2009). %
     %                                                                      %
     %                                                                      %
     % If you are calculating the stress with vdW-DF, please also cite:     %
     %                                                                      %
     %   R. Sabatini et al., J. Phys.: Condens. Matter 24, 424209 (2012).   %
     %                                                                      %
     %%%%%%%%%%%%%%%%%%%%%%%%%%%%%%%%%%%%%%%%%%%%%%%%%%%%%%%%%%%%%%%%%%%%%%%%

     Adding external electric field

     Computed dipole along edir(3) :
        Dipole               -8.7485 Ry au,        -22.2364 Debye
        Dipole field         -0.0165 Ry au,

        Potential amp.        1.5304 Ry
        Total length         46.3494 bohr

     Starting wfcs are  299 atomic wfcs
  @ DRIVER MODE: Message from server: STATUS
  @ DRIVER MODE: Message from server: POSDATA
  @ DRIVER MODE: Reading and sharing cell
  @ DRIVER MODE: Reading and sharing positions
  @ DRIVER MODE: Received positions

     Self-consistent Calculation

     iteration #  1     ecut=    29.40 Ry     beta= 0.05
     Davidson diagonalization with overlap
     c_bands:  2 eigenvalues not converged
     c_bands:  1 eigenvalues not converged
     c_bands:  1 eigenvalues not converged
     c_bands:  3 eigenvalues not converged
     c_bands:  2 eigenvalues not converged
     c_bands:  1 eigenvalues not converged
     c_bands:  1 eigenvalues not converged
     ethr =  1.00E-05,  avg # of iterations = 19.1

[...]

     total energy              =   -2617.00198749 Ry
     estimated scf accuracy    <    3577.70505563 Ry

     iteration #  2     ecut=    29.40 Ry     beta= 0.05
     Davidson diagonalization with overlap
     ethr =  1.00E-02,  avg # of iterations = 22.2

[...]

     iteration # 42     ecut=    29.40 Ry     beta= 0.05
     Davidson diagonalization with overlap
     c_bands:  1 eigenvalues not converged
     ethr =  1.19E-07,  avg # of iterations = 11.7

[...]

     total energy              =   -2939.15573628 Ry
     estimated scf accuracy    <       0.00000026 Ry

     iteration # 63     ecut=    29.40 Ry     beta= 0.05
     Davidson diagonalization with overlap
     ethr =  6.64E-11,  avg # of iterations =  6.9

     negative rho (up, down):  1.568E-02 0.000E+00

     Adding external electric field

     Computed dipole along edir(3) :
        Dipole                1.1191 Ry au,          2.8445 Debye
        Dipole field          0.0021 Ry au,

        Potential amp.       -0.1958 Ry
        Total length         46.3494 bohr

     End of self-consistent calculation

          k = 0.0000 0.0000 0.0000 ( 18029 PWs)   bands (ev):

   -55.5874 -55.5839 -55.5533 -55.5479 -55.4548 -55.4356 -55.4186 -55.4009
   -55.4004 -55.3670 -55.3620 -55.3283 -54.9564 -54.8686 -54.5653 -54.5313
   -32.1385 -32.0703 -31.9557 -31.8993 -31.8963 -31.8881 -31.8801 -31.8532
   -31.8311 -31.8111 -31.7791 -31.7695 -31.7630 -31.7395 -31.7367 -31.7237
   -31.6922 -31.6814 -31.6717 -31.6584 -31.6553 -31.6445 -31.6095 -31.6031
   -31.5934 -31.5898 -31.5855 -31.5770 -31.5662 -31.5640 -31.5395 -31.5297
   -31.5158 -31.5106 -31.5024 -31.4749 -31.4634 -31.1955 -31.1877 -31.1491
   -31.1012 -31.0475 -30.9724 -30.8842 -30.8618 -30.7892 -30.7027 -30.5915
   -18.9380 -16.3421 -16.0656 -15.8179 -15.7377 -15.7210 -15.6051 -15.4328
   -15.3165 -15.2650 -15.1620 -15.1611 -15.1248 -15.0904 -15.0421 -15.0389
   -15.0342 -15.0074 -14.9981 -14.9777 -14.9478 -14.9294 -14.8901 -14.7910
   -14.7725 -14.7232 -14.6941 -14.6678 -14.6478 -14.2643 -13.0676 -12.9512
   -12.7007  -8.8585  -6.3247  -4.8440  -3.7174  -3.6507  -3.5597  -3.4951
    -3.4562  -3.4179  -3.2273  -3.1879  -3.1423  -2.8362  -2.7755  -2.7572
    -2.7469  -2.7173  -2.4927  -2.4539  -2.4028  -2.3721  -2.3603  -2.3578
    -2.3562  -2.3264  -2.3081  -2.1671  -2.1326  -2.0422  -2.0027  -1.9962
    -1.9874  -1.9006  -1.8684  -1.8418  -1.8317  -1.8219  -1.7941  -1.7847
    -1.7763  -1.6422  -1.5633  -1.4116  -1.3910  -1.3507  -1.2193  -1.1955
    -1.0634  -1.0466  -1.0175  -0.9808  -0.9607  -0.8919  -0.7718  -0.7502
    -0.7145  -0.6995  -0.6090  -0.5708  -0.5030  -0.4687  -0.4444  -0.3969
    -0.3581  -0.3493  -0.3272  -0.2008  -0.0710  -0.0134  -0.0041   0.0231
     0.0916   0.1292   0.1898   0.2397   0.2496   0.2861   0.3375   0.3820
     0.3940   0.3965   0.4118   0.4499   0.5911   0.6076   0.6729   0.7181
     0.7616   0.8765   0.9284   1.0644   1.1563   1.3147   1.3842   1.4569
     1.5295   1.6491   2.0275   2.0470   2.0734   3.5429   3.6317   3.6758
     3.6813   3.7870   3.8823   3.9942   4.0141   4.0346   4.0898

[...]

          k = 0.0380-0.0419 0.0000 ( 17876 PWs)   bands (ev):

[...]

          k =-0.0760-0.0000 0.0000 ( 17886 PWs)   bands (ev):

[...]

          k =-0.0760-0.0839 0.0000 ( 17948 PWs)   bands (ev):

   -55.5705 -55.5700 -55.5661 -55.5654 -55.4422 -55.4312 -55.4212 -55.4146
   -55.3839 -55.3835 -55.3459 -55.3446 -54.9536 -54.8712 -54.5482 -54.5482
   -31.9419 -31.9401 -31.8858 -31.8853 -31.8658 -31.8651 -31.8381 -31.8378
   -31.8033 -31.7909 -31.7667 -31.7606 -31.7260 -31.7179 -31.7031 -31.7007
   -31.6986 -31.6957 -31.6899 -31.6896 -31.6861 -31.6835 -31.6555 -31.6479
   -31.6295 -31.6271 -31.6205 -31.6147 -31.5843 -31.5830 -31.5776 -31.5760
   -31.5614 -31.5609 -31.5605 -31.5587 -31.3661 -31.2323 -31.1963 -31.1631
   -31.1034 -31.0915 -30.8746 -30.8745 -30.7852 -30.7850 -30.7460 -30.7460
   -18.9342 -15.7722 -15.7575 -15.5314 -15.5161 -15.5049 -15.4959 -15.3486
   -15.3216 -15.2836 -15.2806 -15.2087 -15.1632 -15.1468 -15.1313 -15.1285
   -15.1100 -15.1020 -15.0535 -15.0465 -15.0454 -15.0275 -15.0210 -14.9065
   -14.9025 -14.8945 -14.8420 -14.7930 -14.6760 -14.3921 -13.0530 -13.0530
   -12.7064  -8.8586  -6.3191  -4.8050  -3.6652  -3.3098  -3.0599  -3.0486
    -2.7587  -2.7478  -2.7454  -2.7024  -2.5099  -2.5050  -2.4910  -2.4589
    -2.4254  -2.4142  -2.4043  -2.3902  -2.3847  -2.3360  -2.3140  -2.2689
    -2.2560  -2.2526  -2.2513  -2.2159  -2.2055  -2.1634  -2.1529  -2.1296
    -2.1174  -2.0854  -2.0545  -1.9075  -1.8213  -1.8023  -1.7285  -1.7216
    -1.6893  -1.6525  -1.6388  -1.5940  -1.5592  -1.4426  -1.3305  -1.2884
    -1.2739  -1.1739  -1.1375  -1.0994  -1.0467  -0.9725  -0.9645  -0.9353
    -0.8693  -0.7971  -0.7807  -0.7580  -0.6940  -0.6698  -0.5961  -0.5750
    -0.5502  -0.5452  -0.4885  -0.4229  -0.4071  -0.3555  -0.3474  -0.3063
    -0.2718  -0.2427  -0.2232  -0.0839  -0.0825  -0.0423   0.0923   0.1484
     0.3808   0.4303   0.4503   0.5218   0.6215   0.6700   0.6835   0.7251
     0.7346   0.7497   0.8096   0.9397   0.9453   1.0140   1.0548   1.1562
     1.8209   1.8213   1.8933   1.8934   1.9068   3.8391   3.8655   3.8784
     3.9021   4.0499   4.0598   4.0795   4.0801   4.2001   4.2211

     the Fermi energy is     3.5445 ev

!    total energy              =   -2939.15577414 Ry
     estimated scf accuracy    <       0.00000004 Ry
     smearing contrib. (-TS)   =      -0.02147329 Ry
     internal energy E=F+TS    =   -2939.13430085 Ry

     The total energy is F=E-TS. E is the sum of the following terms:
     one-electron contribution =  -24212.76137544 Ry
     hartree contribution      =   12196.22572180 Ry
     xc contribution           =    -485.24770112 Ry
     ewald contribution        =    9562.64669043 Ry
     electric field correction =       0.00236348 Ry

     convergence has been achieved in  63 iterations

     Forces acting on atoms (cartesian axes, Ry/au):

     atom    1 type  1   force =     0.00009012   -0.00018269    0.09642926
     atom    2 type  1   force =    -0.00019011   -0.00073121   -0.17538707
     atom    3 type  2   force =     0.00004452   -0.00013705   -0.02409549
     atom    4 type  2   force =     0.00007539   -0.00141054    0.05267240
     atom    5 type  2   force =    -0.01131189   -0.00007442    0.00339587
     atom    6 type  2   force =     0.01296171    0.00063985    0.00224184
     atom    7 type  1   force =    -0.00120003    0.00047397   -0.01223786
     atom    8 type  1   force =     0.00043359    0.00232900    0.02519844
     atom    9 type  2   force =    -0.00025291    0.00018932    0.00002406
     atom   10 type  2   force =    -0.00120770    0.00198277   -0.01304670
     atom   11 type  2   force =     0.00057800    0.00015879    0.00024020
     atom   12 type  2   force =    -0.00049800    0.00006335    0.00011782
     atom   13 type  1   force =    -0.00049823    0.00027130    0.00018949
     atom   14 type  1   force =     0.00060893   -0.00037076   -0.00029782
     atom   15 type  2   force =    -0.00006765    0.00027723    0.00004481
     atom   16 type  2   force =    -0.00002074    0.00018079    0.00057759
     atom   17 type  2   force =    -0.00054654   -0.00004393   -0.00006080
     atom   18 type  2   force =     0.00018897   -0.00012634   -0.00029970
     atom   19 type  1   force =     0.00013571    0.00076588    0.00048442
     atom   20 type  1   force =    -0.00000261    0.00036027   -0.00011070
     atom   21 type  2   force =     0.00009690   -0.00012385    0.10316445
     atom   22 type  2   force =    -0.00024784    0.00024487    0.00014927
     atom   23 type  2   force =    -0.07152363   -0.00021508   -0.02774300
     atom   24 type  2   force =     0.07152314    0.00024871   -0.02774797
     atom   25 type  1   force =     0.00011779   -0.00025586    0.09594867
     atom   26 type  1   force =    -0.00011371   -0.00044434   -0.17553908
     atom   27 type  2   force =     0.00009599   -0.00013074   -0.02334197
     atom   28 type  2   force =     0.00010965   -0.00121861    0.05263926
     atom   29 type  2   force =    -0.01155861   -0.00029983    0.00347585
     atom   30 type  2   force =     0.01314167    0.00016180    0.00228211
     atom   31 type  1   force =    -0.00120036    0.00346378   -0.01234863
     atom   32 type  1   force =     0.00054460   -0.00378702    0.02548267
     atom   33 type  2   force =     0.00002710   -0.00017591   -0.00003055
     atom   34 type  2   force =    -0.00098607    0.00046378   -0.02168364
     atom   35 type  2   force =     0.00014390    0.00001387    0.00018284
     atom   36 type  2   force =    -0.00014582    0.00002459    0.00006660
     atom   37 type  1   force =    -0.00044550   -0.00032928    0.00015944
     atom   38 type  1   force =     0.00043768    0.00027476   -0.00030131
     atom   39 type  2   force =    -0.00001760   -0.00043376    0.00031542
     atom   40 type  2   force =    -0.00012923   -0.00008785    0.00012631
     atom   41 type  2   force =    -0.00081310   -0.00016214   -0.00025516
     atom   42 type  2   force =     0.00088222    0.00002314   -0.00002311
     atom   43 type  1   force =    -0.00000692   -0.00077712    0.00010450
     atom   44 type  1   force =    -0.00003863   -0.00001155    0.00015112
     atom   45 type  2   force =     0.00010318   -0.00010982    0.10318322
     atom   46 type  2   force =    -0.07152308   -0.00015213   -0.02772883
     atom   47 type  2   force =     0.07153071    0.00029265   -0.02773466
     atom   48 type  3   force =     0.00034066   -0.00075573   -0.00067805
     atom   49 type  3   force =     0.00019162   -0.00016473   -0.00035822
     atom   50 type  4   force =    -0.00018733    0.01311898   -0.00012856
     atom   51 type  5   force =     0.00024666   -0.00038088    0.00035990
     atom   52 type  5   force =     0.00015528   -0.01369779    0.00143919
     atom   53 type  5   force =    -0.00007182    0.00076752    0.00033189

     Total force =     0.367236     Total SCF correction =     0.000347
  @ DRIVER MODE: Message from server: STATUS
  @ DRIVER MODE: Message from server: GETFORCE
  @ DRIVER MODE: Returning v,forces,stress,ensemble

     Writing output data file ./calc.save/
  @ DRIVER MODE: Message from server: EXIT
  @ DRIVE MODE: Exiting

     General routines

     Parallel routines

   This run was terminated on:   3:30:20  11Sep2021

   JOB DONE.