     Program PWSCF v.6.7GPU starts on 26Sep2021 at  4:31:19

     R & G space division:  proc/nbgrp/npool/nimage =       8
     Reading input from /storage/home/hcoda1/3/ntian30/research/carbon/CxH_vib/H2O_calc/ads_slab/CH3OHN2HO_a/out_0025/pw.inp
Warning: card &CELL ignored
Warning: card   CELL_DYNAMICS='IPI', ignored
Warning: card / ignored

     Current dimensions of program PWSCF are:
     Max number of different atomic species (ntypx) = 10
     Max number of k-points (npk) =  40000
     Max angular momentum in pseudopotentials (lmaxx) =  3
     Presently no symmetry can be used with electric field

     Message from routine cell_base_init:
     DEPRECATED: use true lattice parameter, not A to a.u. conversion factor

     IMPORTANT: XC functional enforced from input :
     Exchange-correlation= BEEF-VDW
                           (   1   4  43  14   2   0   0)
     Any further DFT definition will be discarded
     Please, verify this is what you really want

  @ DRIVER MODE: Connecting to
 qe_1139763_2971668.sched-torque.pace.gatech.edujkql80w1_scratch
  using UNIX socket
  @ DRIVER MODE: Message from server: STATUS
  @ DRIVER MODE: Message from server: INIT
  @ DRIVER MODE: Receiving replica           0          -1
  @ DRIVER MODE: Receiving encoded integer          25
  @ DRIVER MODE:  SCF:  T  FORCE:  T  STRESS:  F  VC:  F  ENSEMBLE:  F
  @ DRIVER MODE:  SCF:  T  FORCE:  T  STRESS:  F  VC:  F  ENSEMBLE:  F

     Using Slab Decomposition

     bravais-lattice index     =            0
     lattice parameter (alat)  =       1.8897  a.u.
     unit-cell volume          =    6658.9804 (a.u.)^3
     number of atoms/cell      =           57
     number of atomic types    =            5
     number of electrons       =       409.00
     number of Kohn-Sham states=          214
     kinetic-energy cutoff     =      29.3995  Ry
     charge density cutoff     =     293.9946  Ry
     scf convergence threshold =      7.3E-08
     mixing beta               =       0.0500
     number of iterations used =            8  plain     mixing
     Exchange-correlation= BEEF-VDW
                           (   1   4  43  14   2   0   0)

     celldm(1)=   1.889726  celldm(2)=   0.000000  celldm(3)=   0.000000
     celldm(4)=   0.000000  celldm(5)=   0.000000  celldm(6)=   0.000000

     crystal axes: (cart. coord. in units of alat)
               a(1) = (   6.579727   0.000000   0.000000 )
               a(2) = (  -0.000775   5.961596   0.000000 )
               a(3) = (   0.000000   0.000000  25.155947 )

     reciprocal axes: (cart. coord. in units 2 pi/alat)
               b(1) = (  0.151982  0.000020  0.000000 )
               b(2) = (  0.000000  0.167740  0.000000 )
               b(3) = (  0.000000  0.000000  0.039752 )

     PseudoPot. # 1 for Ti read from file:
     /storage/coda1/p-amedford6/0/shared/rich_project_chbe-medford/medford-share/data/pseudos_module/espresso/nninc/pbe/van/Ti.UPF
     MD5 check sum: 8e4df49b7f0d34bbd5052bf3f5ea0213
     Pseudo is Ultrasoft, Zval = 12.0
     Generated by new atomic code, or converted to UPF format
     Using radial grid of  851 points,  6 beta functions with:
                l(1) =   0
                l(2) =   0
                l(3) =   1
                l(4) =   1
                l(5) =   2
                l(6) =   2
     Q(r) pseudized with  8 coefficients,  rinner =    1.000   1.000   1.000
                                                       1.000   1.000

     PseudoPot. # 2 for O  read from file:
     /storage/coda1/p-amedford6/0/shared/rich_project_chbe-medford/medford-share/data/pseudos_module/espresso/nninc/pbe/van/O.UPF
     MD5 check sum: 78c19812648e8988a0fe644b0f25305e
     Pseudo is Ultrasoft, Zval =  6.0
     Generated by new atomic code, or converted to UPF format
     Using radial grid of  737 points,  4 beta functions with:
                l(1) =   0
                l(2) =   0
                l(3) =   1
                l(4) =   1
     Q(r) pseudized with  8 coefficients,  rinner =    0.800   0.800   0.800

     PseudoPot. # 3 for C  read from file:
     /storage/coda1/p-amedford6/0/shared/rich_project_chbe-medford/medford-share/data/pseudos_module/espresso/nninc/pbe/van/C.UPF
     MD5 check sum: 1a69bf6b8db32088f5b2163dbdb77a27
     Pseudo is Ultrasoft, Zval =  4.0
     Generated by new atomic code, or converted to UPF format
     Using radial grid of  721 points,  4 beta functions with:
                l(1) =   0
                l(2) =   0
                l(3) =   1
                l(4) =   1
     Q(r) pseudized with  8 coefficients,  rinner =    0.800   0.800   0.800

     PseudoPot. # 4 for H  read from file:
     /storage/coda1/p-amedford6/0/shared/rich_project_chbe-medford/medford-share/data/pseudos_module/espresso/nninc/pbe/van/H.UPF
     MD5 check sum: b5ee9d7bfd3a09ee7748110bda690ff7
     Pseudo is Ultrasoft, Zval =  1.0
     Generated by new atomic code, or converted to UPF format
     Using radial grid of  615 points,  1 beta functions with:
                l(1) =   0
     Q(r) pseudized with  8 coefficients,  rinner =    0.800

     PseudoPot. # 5 for N  read from file:
     /storage/coda1/p-amedford6/0/shared/rich_project_chbe-medford/medford-share/data/pseudos_module/espresso/nninc/pbe/van/N.UPF
     MD5 check sum: 90d10febe142ad51ac9d5be1deb811c4
     Pseudo is Ultrasoft, Zval =  5.0
     Generated by new atomic code, or converted to UPF format
     Using radial grid of  729 points,  4 beta functions with:
                l(1) =   0
                l(2) =   0
                l(3) =   1
                l(4) =   1
     Q(r) pseudized with  8 coefficients,  rinner =    0.800   0.800   0.800

     atomic species   valence    mass     pseudopotential
        Ti1           12.00    47.86700     Ti( 1.00)
        O1             6.00    15.99900     O ( 1.00)
        C1             4.00    12.01100     C ( 1.00)
        H1             1.00     1.00800     H ( 1.00)
        N1             5.00    14.00700     N ( 1.00)

     No symmetry found

   Cartesian axes

     site n.     atom                  positions (alat units)
         1           Ti1 tau(   1) = (   0.0004258   2.9801865   6.0000000  )
         2           Ti1 tau(   2) = (   3.2906075   1.4906267   6.0002472  )
         3           O1  tau(   3) = (   0.0006271   0.0005054   7.9858123  )
         4           O1  tau(   4) = (   3.2906025   0.0005020   7.3038282  )
         5           O1  tau(   5) = (   4.5942328   1.4918067   9.2879030  )
         6           O1  tau(   6) = (   1.9868534   1.4903216   9.2879459  )
         7           Ti1 tau(   7) = (   3.3371032   3.0268772   9.1887580  )
         8           Ti1 tau(   8) = (   0.0611061   1.5258697   9.2809523  )
         9           O1  tau(   9) = (   3.3143856   0.0188946  11.3581724  )
        10           O1  tau(  10) = (   0.0164151   0.0031400  10.5895864  )
        11           O1  tau(  11) = (   1.3088961   1.4994640  12.6347600  )
        12           O1  tau(  12) = (   5.3347766   1.4946156  12.6347356  )
        13           Ti1 tau(  13) = (   0.0202478   3.0292801  12.5720800  )
        14           Ti1 tau(  14) = (   3.3188568   1.5851219  12.4260843  )
        15           O1  tau(  15) = (   0.0445434   5.9450813  14.6510506  )
        16           O1  tau(  16) = (   3.3207065   5.8849141  14.0104376  )
        17           O1  tau(  17) = (   4.6249962   1.5116716  16.1313945  )
        18           O1  tau(  18) = (   2.0639035   1.5439872  16.0680944  )
        19           Ti1 tau(  19) = (   3.3360141   2.9454253  15.6763505  )
        20           Ti1 tau(  20) = (   0.0686920   1.3314864  15.9334539  )
        21           O1  tau(  21) = (   3.2904802   0.0005063   4.7018136  )
        22           O1  tau(  22) = (   0.0979609   0.0039778  17.1657837  )
        23           O1  tau(  23) = (   1.3043587   1.4918075   6.0039043  )
        24           O1  tau(  24) = (   5.2767064   1.4903225   6.0039473  )
        25           Ti1 tau(  25) = (   0.0000382   5.9609847   6.0000000  )
        26           Ti1 tau(  26) = (   3.2902200   4.4714249   6.0002472  )
        27           O1  tau(  27) = (   0.0002396   2.9813036   7.9858123  )
        28           O1  tau(  28) = (   3.2902150   2.9813002   7.3038282  )
        29           O1  tau(  29) = (   4.5938453   4.4726049   9.2879030  )
        30           O1  tau(  30) = (   1.9864658   4.4711199   9.2879459  )
        31           Ti1 tau(  31) = (   3.3368545   0.0404040   9.1664313  )
        32           Ti1 tau(  32) = (   0.0604674   4.4799263   9.2696248  )
        33           O1  tau(  33) = (   3.3137611   2.9662427  11.3084074  )
        34           O1  tau(  34) = (   0.0134136   2.9850836  10.6046154  )
        35           O1  tau(  35) = (   1.3054726   4.4719986  12.6384794  )
        36           O1  tau(  36) = (   5.3362180   4.4781181  12.6390536  )
        37           Ti1 tau(  37) = (   0.0365240   0.0487139  12.4702884  )
        38           Ti1 tau(  38) = (   3.3180881   4.6653017  12.7087268  )
        39           O1  tau(  39) = (   0.0228105   2.9918545  14.7761892  )
        40           O1  tau(  40) = (   3.3431522   2.9700269  13.9040455  )
        41           O1  tau(  41) = (   4.6265974   4.4152401  16.1544535  )
        42           O1  tau(  42) = (   2.0571238   4.3592187  16.1146037  )
        43           Ti1 tau(  43) = (   3.3848590   5.9294639  16.2700006  )
        44           Ti1 tau(  44) = (   0.0517009   4.5268197  15.8466567  )
        45           O1  tau(  45) = (   3.2900926   2.9813045   4.7018136  )
        46           O1  tau(  46) = (   1.3039711   4.4726057   6.0039043  )
        47           O1  tau(  47) = (   5.2763189   4.4711207   6.0039473  )
        48           C1  tau(  48) = (   5.9450987   3.0517216  18.8599509  )
        49           O1  tau(  49) = (   0.1802289   3.0084098  17.6484507  )
        50           H1  tau(  50) = (   4.9625852   2.6832861  18.5889656  )
        51           H1  tau(  51) = (   1.1163247   3.1442434  17.8758057  )
        52           H1  tau(  52) = (   6.3799442   2.3914015  19.6026461  )
        53           H1  tau(  53) = (   5.8846647   4.0795385  19.2151274  )
        54           N1  tau(  54) = (   5.7598779   3.1323611  22.9045362  )
        55           N1  tau(  55) = (   4.9845974   3.1850264  22.1203839  )
        56           O1  tau(  56) = (   3.1467188   0.0118795  18.1166202  )
        57           H1  tau(  57) = (   2.2164505   0.0865285  18.3868412  )

     number of k points=    10  Fermi-Dirac smearing, width (Ry)=  0.0073
                       cart. coord. in units 2pi/alat
        k(    1) = (   0.0000000   0.0000000   0.0000000), wk =   0.1250000
        k(    2) = (   0.0000000   0.0419351   0.0000000), wk =   0.2500000
        k(    3) = (   0.0000000  -0.0838702   0.0000000), wk =   0.1250000
        k(    4) = (   0.0379955   0.0000049   0.0000000), wk =   0.2500000
        k(    5) = (   0.0379955   0.0419400   0.0000000), wk =   0.2500000
        k(    6) = (   0.0379955  -0.0838652   0.0000000), wk =   0.2500000
        k(    7) = (   0.0379955  -0.0419301   0.0000000), wk =   0.2500000
        k(    8) = (  -0.0759910  -0.0000099   0.0000000), wk =   0.1250000
        k(    9) = (  -0.0759910   0.0419252   0.0000000), wk =   0.2500000
        k(   10) = (  -0.0759910  -0.0838800   0.0000000), wk =   0.1250000

     Initial potential from superposition of free atoms

     starting charge  392.99914, renormalised to  409.00000

     negative rho (up, down):  9.140E-03 0.000E+00

     %%%%%%%%%%%%%%%%%%%%%%%%%%%%%%%%%%%%%%%%%%%%%%%%%%%%%%%%%%%%%%%%%%%%%%%%
     %                                                                      %
     % You are using vdW-DF, which was implemented by the Thonhauser group. %
     % Please cite the following two papers that made this development      %
     % possible and the two reviews that describe the various versions:     %
     %                                                                      %
     %   T. Thonhauser et al., PRL 115, 136402 (2015).                      %
     %   T. Thonhauser et al., PRB 76, 125112 (2007).                       %
     %   K. Berland et al., Rep. Prog. Phys. 78, 066501 (2015).             %
     %   D.C. Langreth et al., J. Phys.: Condens. Matter 21, 084203 (2009). %
     %                                                                      %
     %                                                                      %
     % If you are calculating the stress with vdW-DF, please also cite:     %
     %                                                                      %
     %   R. Sabatini et al., J. Phys.: Condens. Matter 24, 424209 (2012).   %
     %                                                                      %
     %%%%%%%%%%%%%%%%%%%%%%%%%%%%%%%%%%%%%%%%%%%%%%%%%%%%%%%%%%%%%%%%%%%%%%%%

     Adding external electric field

     Computed dipole along edir(3) :
        Dipole              -18.8687 Ry au,        -47.9594 Debye
        Dipole field         -0.0356 Ry au,

        Potential amp.        3.3008 Ry
        Total length         46.3494 bohr

     Starting wfcs are  309 atomic wfcs
  @ DRIVER MODE: Message from server: STATUS
  @ DRIVER MODE: Message from server: POSDATA
  @ DRIVER MODE: Reading and sharing cell
  @ DRIVER MODE: Reading and sharing positions
  @ DRIVER MODE: Received positions

     Self-consistent Calculation

     iteration #  1     ecut=    29.40 Ry     beta= 0.05
     Davidson diagonalization with overlap
     c_bands:  5 eigenvalues not converged
     c_bands:  5 eigenvalues not converged
     c_bands:  1 eigenvalues not converged
     c_bands:  4 eigenvalues not converged
     c_bands:  1 eigenvalues not converged
     c_bands:  3 eigenvalues not converged
     ethr =  1.00E-05,  avg # of iterations = 27.3

[...]

     total energy              =   -2113.18752282 Ry
     estimated scf accuracy    <   10331.04708406 Ry

     iteration #  2     ecut=    29.40 Ry     beta= 0.05
     Davidson diagonalization with overlap
     ethr =  1.00E-02,  avg # of iterations = 29.9

[...]

     iteration # 96     ecut=    29.40 Ry     beta= 0.05
     Davidson diagonalization with overlap
     c_bands:  2 eigenvalues not converged
     ethr =  7.93E-11,  avg # of iterations = 15.3

[...]

     total energy              =   -3006.45831111 Ry
     estimated scf accuracy    <       0.00000012 Ry

     iteration # 98     ecut=    29.40 Ry     beta= 0.05
     Davidson diagonalization with overlap
     ethr =  2.90E-11,  avg # of iterations = 11.9

     negative rho (up, down):  1.064E-02 0.000E+00

     Adding external electric field

     Computed dipole along edir(3) :
        Dipole                1.0507 Ry au,          2.6707 Debye
        Dipole field          0.0020 Ry au,

        Potential amp.       -0.1838 Ry
        Total length         46.3494 bohr

     End of self-consistent calculation

          k = 0.0000 0.0000 0.0000 ( 18029 PWs)   bands (ev):

   -55.3286 -55.2533 -55.2180 -55.1436 -55.1220 -55.0870 -55.0511 -55.0464
   -55.0443 -55.0255 -55.0156 -54.9855 -54.8989 -54.8226 -54.2129 -54.1788
   -31.7313 -31.7226 -31.6348 -31.6232 -31.5822 -31.5689 -31.5440 -31.5424
   -31.5075 -31.4961 -31.4844 -31.4200 -31.4070 -31.4067 -31.3799 -31.3617
   -31.3534 -31.3362 -31.3352 -31.3239 -31.3165 -31.3121 -31.2659 -31.2637
   -31.2619 -31.2553 -31.2521 -31.2395 -31.2330 -31.2141 -31.2077 -31.1971
   -31.1955 -31.1754 -31.1710 -31.1630 -31.1618 -31.1277 -31.0877 -31.0680
   -31.0369 -31.0265 -30.6190 -30.5328 -30.5102 -30.4360 -30.3497 -30.2381
   -21.5079 -19.7119 -16.1350 -15.9052 -15.7259 -15.5239 -15.4671 -15.4007
   -15.2135 -15.1400 -14.9842 -14.8590 -14.8441 -14.7876 -14.7864 -14.7765
   -14.7475 -14.7226 -14.6772 -14.6658 -14.6605 -14.6569 -14.5954 -14.5529
   -14.5502 -14.5232 -14.5025 -14.3754 -14.3283 -14.2738 -14.1037 -14.0819
   -12.7126 -12.5965 -10.5802  -6.6878  -6.4147  -4.6685  -4.6314  -4.5898
    -4.4162  -3.6512  -3.3717  -3.2543  -3.1541  -3.1353  -3.0700  -3.0196
    -2.8048  -2.6961  -2.6357  -2.5230  -2.3958  -2.3593  -2.3060  -2.2773
    -2.1857  -2.1677  -2.1357  -2.1060  -2.0504  -2.0225  -2.0150  -2.0023
    -1.9269  -1.9199  -1.7901  -1.7851  -1.7289  -1.6368  -1.6190  -1.5962
    -1.5891  -1.5547  -1.5524  -1.5098  -1.4860  -1.4622  -1.4346  -1.3590
    -1.3393  -1.2761  -1.2388  -1.0073  -0.8523  -0.8276  -0.7472  -0.7311
    -0.7006  -0.6709  -0.6509  -0.6399  -0.6029  -0.5874  -0.4837  -0.3803
    -0.3715  -0.3120  -0.2742  -0.2695  -0.1339  -0.0890  -0.0147   0.0079
     0.0403   0.0614   0.1456   0.1944   0.2161   0.2827   0.3141   0.4195
     0.4570   0.4762   0.5176   0.5728   0.6334   0.6671   0.7066   0.7100
     0.7427   0.7919   0.8214   0.8560   0.8783   0.9253   1.0282   1.0655
     1.0761   1.2168   1.2278   1.3099   1.4346   1.4866   1.7595   1.8119
     1.8589   2.0043   2.3808   2.4277   3.8707   3.9734   3.9944   4.0156
     4.0834   4.1652   4.3305   4.3539   4.4182   4.5245

[...]

          k = 0.0380-0.0419 0.0000 ( 17876 PWs)   bands (ev):

[...]

          k =-0.0760-0.0000 0.0000 ( 17886 PWs)   bands (ev):

[...]

          k =-0.0760-0.0839 0.0000 ( 17948 PWs)   bands (ev):

   -55.3279 -55.2402 -55.2310 -55.1376 -55.1177 -55.0928 -55.0503 -55.0452
   -55.0372 -55.0289 -55.0165 -54.9948 -54.8952 -54.8262 -54.1961 -54.1955
   -31.6422 -31.5783 -31.5685 -31.5512 -31.5422 -31.5417 -31.5364 -31.5204
   -31.4579 -31.4530 -31.4144 -31.3933 -31.3816 -31.3764 -31.3602 -31.3576
   -31.3543 -31.3524 -31.3455 -31.3395 -31.3346 -31.3326 -31.3173 -31.3153
   -31.2964 -31.2856 -31.2563 -31.2498 -31.2471 -31.2428 -31.2350 -31.2334
   -31.2271 -31.2222 -31.2185 -31.2140 -31.2115 -31.1732 -31.1546 -31.0918
   -31.0739 -31.0304 -30.5231 -30.5227 -30.4328 -30.4313 -30.3930 -30.3921
   -21.5078 -19.7081 -16.1114 -15.5352 -15.3785 -15.2077 -15.1938 -15.1144
   -15.0229 -15.0052 -14.9744 -14.9611 -14.9442 -14.9197 -14.9115 -14.8764
   -14.8135 -14.7716 -14.7485 -14.7402 -14.6932 -14.6880 -14.6845 -14.6217
   -14.6144 -14.5963 -14.5716 -14.5118 -14.5028 -14.4021 -14.3874 -14.2150
   -12.6988 -12.6980 -10.5823  -6.6881  -6.4166  -4.6644  -4.6382  -4.5769
    -4.4088  -3.6167  -3.3621  -2.6836  -2.5987  -2.5315  -2.4315  -2.3530
    -2.2992  -2.2496  -2.2286  -2.1838  -2.1626  -2.0931  -2.0584  -2.0497
    -2.0303  -2.0281  -1.9975  -1.9822  -1.9694  -1.9482  -1.9198  -1.9026
    -1.8921  -1.8711  -1.8512  -1.8253  -1.8133  -1.8034  -1.7885  -1.7725
    -1.6616  -1.6451  -1.6123  -1.4501  -1.4386  -1.3691  -1.3374  -1.3110
    -1.3075  -1.2771  -1.2621  -1.2204  -1.1155  -1.0864  -1.0370  -0.9990
    -0.9032  -0.8870  -0.8360  -0.7851  -0.7392  -0.7107  -0.6801  -0.6650
    -0.6110  -0.4728  -0.4521  -0.4069  -0.2878  -0.2146  -0.1989  -0.1864
    -0.1645  -0.1415  -0.0950  -0.0868  -0.0249  -0.0124   0.0585   0.0625
     0.0916   0.1132   0.2156   0.3377   0.4164   0.4601   0.5050   0.5544
     0.5882   0.6705   0.7470   0.8331   0.9092   0.9386   0.9524   1.0701
     1.1026   1.1552   1.2012   1.2213   1.2796   1.3153   1.3556   1.3887
     2.1730   2.1867   2.2430   2.2487   4.0514   4.3015   4.3616   4.3785
     4.3883   4.4206   4.4421   4.4934   4.5098   4.5336

     the Fermi energy is     3.8809 ev

!    total energy              =   -3006.45831579 Ry
     estimated scf accuracy    <       0.00000006 Ry
     smearing contrib. (-TS)   =      -0.02082470 Ry
     internal energy E=F+TS    =   -3006.43749109 Ry

     The total energy is F=E-TS. E is the sum of the following terms:
     one-electron contribution =  -22317.82721582 Ry
     hartree contribution      =   11258.43654129 Ry
     xc contribution           =    -501.14855965 Ry
     ewald contribution        =    8554.09965967 Ry
     electric field correction =       0.00208342 Ry

     convergence has been achieved in  98 iterations

     Forces acting on atoms (cartesian axes, Ry/au):

     atom    1 type  1   force =    -0.00037512   -0.00017149    0.09496808
     atom    2 type  1   force =    -0.00035150    0.00512851   -0.17481669
     atom    3 type  2   force =     0.00070754    0.00012914   -0.02675075
     atom    4 type  2   force =     0.00129077    0.00083374    0.05205742
     atom    5 type  2   force =    -0.01095948   -0.00256062    0.00077516
     atom    6 type  2   force =     0.01193454   -0.00381140    0.00178478
     atom    7 type  1   force =    -0.00021545    0.00039836    0.00068795
     atom    8 type  1   force =     0.00013757    0.00022296    0.00016023
     atom    9 type  2   force =     0.00024979    0.00074766   -0.00066773
     atom   10 type  2   force =    -0.00038967    0.00015753    0.00014713
     atom   11 type  2   force =     0.00043329   -0.00014913    0.00011107
     atom   12 type  2   force =    -0.00084184   -0.00014823    0.00036284
     atom   13 type  1   force =     0.00043956    0.00035347   -0.00022229
     atom   14 type  1   force =    -0.00033948   -0.00069589    0.00093172
     atom   15 type  2   force =    -0.00013854   -0.00055175   -0.00099909
     atom   16 type  2   force =    -0.00027868   -0.00000052   -0.00022761
     atom   17 type  2   force =    -0.00097173    0.00030788   -0.00002483
     atom   18 type  2   force =     0.00047432    0.00069455   -0.00008423
     atom   19 type  1   force =     0.00027609   -0.00082271    0.00022343
     atom   20 type  1   force =    -0.00025328    0.00008027    0.00038315
     atom   21 type  2   force =    -0.00000205    0.00007453    0.10301964
     atom   22 type  2   force =    -0.00002798   -0.00014469    0.00101455
     atom   23 type  2   force =    -0.07195695    0.00012964   -0.02802271
     atom   24 type  2   force =     0.07179244    0.00062903   -0.02812851
     atom   25 type  1   force =    -0.00036814    0.00026277    0.10243304
     atom   26 type  1   force =    -0.00010665   -0.00474781   -0.17505727
     atom   27 type  2   force =     0.00084707    0.00117213   -0.02486698
     atom   28 type  2   force =     0.00119621    0.00025251    0.05168924
     atom   29 type  2   force =    -0.01192025    0.00381410    0.00172022
     atom   30 type  2   force =     0.01376257    0.00146378    0.00245255
     atom   31 type  1   force =    -0.00028448   -0.00016227    0.00081609
     atom   32 type  1   force =     0.00027945    0.00029311    0.00059459
     atom   33 type  2   force =     0.00000591    0.00020394    0.00008865
     atom   34 type  2   force =    -0.00027325   -0.00032100   -0.00055602
     atom   35 type  2   force =    -0.00023273    0.00004443   -0.00047503
     atom   36 type  2   force =    -0.00037783    0.00009053   -0.00009195
     atom   37 type  1   force =    -0.00005123   -0.00034969    0.00003517
     atom   38 type  1   force =    -0.00056558    0.00026975    0.00000298
     atom   39 type  2   force =    -0.00025365   -0.00025378    0.00077713
     atom   40 type  2   force =    -0.00019777    0.00012128    0.00029707
     atom   41 type  2   force =    -0.00139609   -0.00025698   -0.00008127
     atom   42 type  2   force =     0.00105316   -0.00014705   -0.00049456
     atom   43 type  1   force =    -0.00018524    0.00054419    0.00020290
     atom   44 type  1   force =    -0.00010043    0.00018215    0.00005790
     atom   45 type  2   force =     0.00000286    0.00013962    0.10259938
     atom   46 type  2   force =    -0.07184940   -0.00062019   -0.02796638
     atom   47 type  2   force =     0.07170890   -0.00012862   -0.02804246
     atom   48 type  3   force =    -0.00406407    0.00253290   -0.00304577
     atom   49 type  2   force =    -0.00104651   -0.00129000    0.00119564
     atom   50 type  4   force =    -0.00041564    0.00026827   -0.00089251
     atom   51 type  4   force =     0.00043793    0.00036813   -0.00067065
     atom   52 type  4   force =     0.00361637   -0.00275356    0.00237183
     atom   53 type  4   force =     0.00000971   -0.00045217   -0.00109283
     atom   54 type  5   force =     0.00013951   -0.00007529    0.00035784
     atom   55 type  5   force =    -0.00050099    0.00005789   -0.00032552
     atom   56 type  2   force =     0.00079801   -0.00055708    0.00047588
     atom   57 type  4   force =    -0.00030189   -0.00079686   -0.00119160

     Total force =     0.364888     Total SCF correction =     0.000510
  @ DRIVER MODE: Message from server: STATUS
  @ DRIVER MODE: Message from server: GETFORCE
  @ DRIVER MODE: Returning v,forces,stress,ensemble

     Writing output data file ./calc.save/
  @ DRIVER MODE: Message from server: EXIT
  @ DRIVE MODE: Exiting

     General routines

     Parallel routines

   This run was terminated on:   5:13:51  26Sep2021

   JOB DONE.