     Program PWSCF v.6.7GPU starts on 24Aug2021 at 13:18: 1

     R & G space division:  proc/nbgrp/npool/nimage =      72
     Reading input from /storage/home/hcoda1/3/ntian30/research/carbon/CH2_vib/ads_slab/CH2NHHH_a/out_0009/pw.inp
Warning: card &CELL ignored
Warning: card   CELL_DYNAMICS='IPI', ignored
Warning: card / ignored

     Current dimensions of program PWSCF are:
     Max number of different atomic species (ntypx) = 10
     Max number of k-points (npk) =  40000
     Max angular momentum in pseudopotentials (lmaxx) =  3
     Presently no symmetry can be used with electric field

     Message from routine cell_base_init:
     DEPRECATED: use true lattice parameter, not A to a.u. conversion factor

     IMPORTANT: XC functional enforced from input :
     Exchange-correlation= BEEF-VDW
                           (   1   4  43  14   2   0   0)
     Any further DFT definition will be discarded
     Please, verify this is what you really want

  @ DRIVER MODE: Connecting to
 qe_1139763_2641440.sched-torque.pace.gatech.edu8zs9tlbe_scratch
  using UNIX socket
  @ DRIVER MODE: Message from server: STATUS
  @ DRIVER MODE: Message from server: INIT
  @ DRIVER MODE: Receiving replica           0          -1
  @ DRIVER MODE: Receiving encoded integer          25
  @ DRIVER MODE:  SCF:  T  FORCE:  T  STRESS:  F  VC:  F  ENSEMBLE:  F
  @ DRIVER MODE:  SCF:  T  FORCE:  T  STRESS:  F  VC:  F  ENSEMBLE:  F

     Using Slab Decomposition

     bravais-lattice index     =            0
     lattice parameter (alat)  =       1.8897  a.u.
     unit-cell volume          =    6658.9804 (a.u.)^3
     number of atoms/cell      =           54
     number of atomic types    =            5
     number of electrons       =       392.00
     number of Kohn-Sham states=          206
     kinetic-energy cutoff     =      29.3995  Ry
     charge density cutoff     =     293.9946  Ry
     scf convergence threshold =      7.3E-08
     mixing beta               =       0.0500
     number of iterations used =            8  plain     mixing
     Exchange-correlation= BEEF-VDW
                           (   1   4  43  14   2   0   0)

     celldm(1)=   1.889726  celldm(2)=   0.000000  celldm(3)=   0.000000
     celldm(4)=   0.000000  celldm(5)=   0.000000  celldm(6)=   0.000000

     crystal axes: (cart. coord. in units of alat)
               a(1) = (   6.579727   0.000000   0.000000 )
               a(2) = (  -0.000775   5.961596   0.000000 )
               a(3) = (   0.000000   0.000000  25.155947 )

     reciprocal axes: (cart. coord. in units 2 pi/alat)
               b(1) = (  0.151982  0.000020  0.000000 )
               b(2) = (  0.000000  0.167740  0.000000 )
               b(3) = (  0.000000  0.000000  0.039752 )

     PseudoPot. # 1 for Ti read from file:
     /storage/coda1/p-amedford6/0/shared/rich_project_chbe-medford/medford-share/data/pseudos_module/espresso/nninc/pbe/van/Ti.UPF
     MD5 check sum: 8e4df49b7f0d34bbd5052bf3f5ea0213
     Pseudo is Ultrasoft, Zval = 12.0
     Generated by new atomic code, or converted to UPF format
     Using radial grid of  851 points,  6 beta functions with:
                l(1) =   0
                l(2) =   0
                l(3) =   1
                l(4) =   1
                l(5) =   2
                l(6) =   2
     Q(r) pseudized with  8 coefficients,  rinner =    1.000   1.000   1.000
                                                       1.000   1.000

     PseudoPot. # 2 for O  read from file:
     /storage/coda1/p-amedford6/0/shared/rich_project_chbe-medford/medford-share/data/pseudos_module/espresso/nninc/pbe/van/O.UPF
     MD5 check sum: 78c19812648e8988a0fe644b0f25305e
     Pseudo is Ultrasoft, Zval =  6.0
     Generated by new atomic code, or converted to UPF format
     Using radial grid of  737 points,  4 beta functions with:
                l(1) =   0
                l(2) =   0
                l(3) =   1
                l(4) =   1
     Q(r) pseudized with  8 coefficients,  rinner =    0.800   0.800   0.800

     PseudoPot. # 3 for N  read from file:
     /storage/coda1/p-amedford6/0/shared/rich_project_chbe-medford/medford-share/data/pseudos_module/espresso/nninc/pbe/van/N.UPF
     MD5 check sum: 90d10febe142ad51ac9d5be1deb811c4
     Pseudo is Ultrasoft, Zval =  5.0
     Generated by new atomic code, or converted to UPF format
     Using radial grid of  729 points,  4 beta functions with:
                l(1) =   0
                l(2) =   0
                l(3) =   1
                l(4) =   1
     Q(r) pseudized with  8 coefficients,  rinner =    0.800   0.800   0.800

     PseudoPot. # 4 for C  read from file:
     /storage/coda1/p-amedford6/0/shared/rich_project_chbe-medford/medford-share/data/pseudos_module/espresso/nninc/pbe/van/C.UPF
     MD5 check sum: 1a69bf6b8db32088f5b2163dbdb77a27
     Pseudo is Ultrasoft, Zval =  4.0
     Generated by new atomic code, or converted to UPF format
     Using radial grid of  721 points,  4 beta functions with:
                l(1) =   0
                l(2) =   0
                l(3) =   1
                l(4) =   1
     Q(r) pseudized with  8 coefficients,  rinner =    0.800   0.800   0.800

     PseudoPot. # 5 for H  read from file:
     /storage/coda1/p-amedford6/0/shared/rich_project_chbe-medford/medford-share/data/pseudos_module/espresso/nninc/pbe/van/H.UPF
     MD5 check sum: b5ee9d7bfd3a09ee7748110bda690ff7
     Pseudo is Ultrasoft, Zval =  1.0
     Generated by new atomic code, or converted to UPF format
     Using radial grid of  615 points,  1 beta functions with:
                l(1) =   0
     Q(r) pseudized with  8 coefficients,  rinner =    0.800

     atomic species   valence    mass     pseudopotential
        Ti1           12.00    47.86700     Ti( 1.00)
        O1             6.00    15.99900     O ( 1.00)
        N1             5.00    14.00700     N ( 1.00)
        C1             4.00    12.01100     C ( 1.00)
        H1             1.00     1.00800     H ( 1.00)

     No symmetry found

   Cartesian axes

     site n.     atom                  positions (alat units)
         1           Ti1 tau(   1) = (   0.0004258   2.9801865   6.0000000  )
         2           Ti1 tau(   2) = (   3.2906075   1.4906267   6.0002472  )
         3           O1  tau(   3) = (   0.0006271   0.0005054   7.9858123  )
         4           O1  tau(   4) = (   3.2906025   0.0005020   7.3038282  )
         5           O1  tau(   5) = (   4.5942328   1.4918067   9.2879030  )
         6           O1  tau(   6) = (   1.9868534   1.4903216   9.2879459  )
         7           Ti1 tau(   7) = (   3.2907910   2.8959150   9.1758416  )
         8           Ti1 tau(   8) = (   0.0015273   1.4827037   9.2680791  )
         9           O1  tau(   9) = (   3.2947057   0.0061428  11.3716447  )
        10           O1  tau(  10) = (   0.0116148   5.9584955  10.6183126  )
        11           O1  tau(  11) = (   1.2915649   1.4936813  12.6925814  )
        12           O1  tau(  12) = (   5.2970661   1.4944705  12.6810846  )
        13           Ti1 tau(  13) = (   0.0178387   2.9746902  12.5081746  )
        14           Ti1 tau(  14) = (   3.3154821   1.4870708  12.5273966  )
        15           O1  tau(  15) = (   6.5751158   5.8850184  14.6937530  )
        16           O1  tau(  16) = (   3.3021755   5.9482827  13.9948957  )
        17           O1  tau(  17) = (   4.5403780   1.5298489  16.1548813  )
        18           O1  tau(  18) = (   2.0255877   1.5226301  16.1187562  )
        19           Ti1 tau(  19) = (   3.2919084   3.0021400  15.7465462  )
        20           Ti1 tau(  20) = (   0.0121818   1.3098915  15.8601907  )
        21           O1  tau(  21) = (   3.2904802   0.0005063   4.7018136  )
        22           O1  tau(  22) = (   6.5726150   0.1553292  17.2405045  )
        23           O1  tau(  23) = (   1.3043587   1.4918075   6.0039043  )
        24           O1  tau(  24) = (   5.2767064   1.4903225   6.0039473  )
        25           Ti1 tau(  25) = (   0.0000382   5.9609847   6.0000000  )
        26           Ti1 tau(  26) = (   3.2902200   4.4714249   6.0002472  )
        27           O1  tau(  27) = (   0.0002396   2.9813036   7.9858123  )
        28           O1  tau(  28) = (   3.2902150   2.9813002   7.3038282  )
        29           O1  tau(  29) = (   4.5938453   4.4726049   9.2879030  )
        30           O1  tau(  30) = (   1.9864658   4.4711199   9.2879459  )
        31           Ti1 tau(  31) = (   3.2891106   5.8743827   9.1763621  )
        32           Ti1 tau(  32) = (   0.0006254   4.4649316   9.2693709  )
        33           O1  tau(  33) = (   3.2927311   2.9710310  11.3658552  )
        34           O1  tau(  34) = (   0.0092240   2.9805883  10.6323155  )
        35           O1  tau(  35) = (   1.2954064   4.4636889  12.6531092  )
        36           O1  tau(  36) = (   5.2951753   4.4642890  12.6444158  )
        37           Ti1 tau(  37) = (   0.0208150   5.9452171  12.5004641  )
        38           Ti1 tau(  38) = (   3.3163264   4.4646888  12.5160798  )
        39           O1  tau(  39) = (   6.5606049   3.0383603  14.9590055  )
        40           O1  tau(  40) = (   3.3003749   3.0012653  13.9593002  )
        41           O1  tau(  41) = (   4.5325621   4.4784225  16.2386555  )
        42           O1  tau(  42) = (   2.0180351   4.4745910  16.2101397  )
        43           Ti1 tau(  43) = (   3.2993765   0.0184524  15.7908042  )
        44           Ti1 tau(  44) = (   0.0223033   4.5207704  16.0490861  )
        45           O1  tau(  45) = (   3.2900926   2.9813045   4.7018136  )
        46           O1  tau(  46) = (   1.3039711   4.4726057   6.0039043  )
        47           O1  tau(  47) = (   5.2763189   4.4711207   6.0039473  )
        48           N1  tau(  48) = (   6.4337409   3.4053151  18.1409392  )
        49           C1  tau(  49) = (   1.0285230   3.1322446  19.0018829  )
        50           H1  tau(  50) = (   0.7475518   3.0234394  20.0507379  )
        51           H1  tau(  51) = (   1.7227964   3.9744885  18.9089305  )
        52           H1  tau(  52) = (   5.9280473   4.2150708  18.4935385  )
        53           H1  tau(  53) = (   5.7900178   2.6175148  18.1880975  )
        54           H1  tau(  54) = (   1.5159085   2.2300880  18.6641165  )

     number of k points=    10  Fermi-Dirac smearing, width (Ry)=  0.0073
                       cart. coord. in units 2pi/alat
        k(    1) = (   0.0000000   0.0000000   0.0000000), wk =   0.1250000
        k(    2) = (   0.0000000   0.0419351   0.0000000), wk =   0.2500000
        k(    3) = (   0.0000000  -0.0838702   0.0000000), wk =   0.1250000
        k(    4) = (   0.0379955   0.0000049   0.0000000), wk =   0.2500000
        k(    5) = (   0.0379955   0.0419400   0.0000000), wk =   0.2500000
        k(    6) = (   0.0379955  -0.0838652   0.0000000), wk =   0.2500000
        k(    7) = (   0.0379955  -0.0419301   0.0000000), wk =   0.2500000
        k(    8) = (  -0.0759910  -0.0000099   0.0000000), wk =   0.1250000
        k(    9) = (  -0.0759910   0.0419252   0.0000000), wk =   0.2500000
        k(   10) = (  -0.0759910  -0.0838800   0.0000000), wk =   0.1250000

     Initial potential from superposition of free atoms

     starting charge  375.99915, renormalised to  392.00000

     negative rho (up, down):  1.645E-02 0.000E+00

     %%%%%%%%%%%%%%%%%%%%%%%%%%%%%%%%%%%%%%%%%%%%%%%%%%%%%%%%%%%%%%%%%%%%%%%%
     %                                                                      %
     % You are using vdW-DF, which was implemented by the Thonhauser group. %
     % Please cite the following two papers that made this development      %
     % possible and the two reviews that describe the various versions:     %
     %                                                                      %
     %   T. Thonhauser et al., PRL 115, 136402 (2015).                      %
     %   T. Thonhauser et al., PRB 76, 125112 (2007).                       %
     %   K. Berland et al., Rep. Prog. Phys. 78, 066501 (2015).             %
     %   D.C. Langreth et al., J. Phys.: Condens. Matter 21, 084203 (2009). %
     %                                                                      %
     %                                                                      %
     % If you are calculating the stress with vdW-DF, please also cite:     %
     %                                                                      %
     %   R. Sabatini et al., J. Phys.: Condens. Matter 24, 424209 (2012).   %
     %                                                                      %
     %%%%%%%%%%%%%%%%%%%%%%%%%%%%%%%%%%%%%%%%%%%%%%%%%%%%%%%%%%%%%%%%%%%%%%%%

     Adding external electric field

     Computed dipole along edir(3) :
        Dipole               -7.5123 Ry au,        -19.0944 Debye
        Dipole field         -0.0142 Ry au,

        Potential amp.        1.3142 Ry
        Total length         46.3494 bohr

     Starting wfcs are  297 atomic wfcs
  @ DRIVER MODE: Message from server: STATUS
  @ DRIVER MODE: Message from server: POSDATA
  @ DRIVER MODE: Reading and sharing cell
  @ DRIVER MODE: Reading and sharing positions
  @ DRIVER MODE: Received positions

     Self-consistent Calculation

     iteration #  1     ecut=    29.40 Ry     beta= 0.05
     Davidson diagonalization with overlap
     c_bands:  1 eigenvalues not converged
     c_bands:  1 eigenvalues not converged
     c_bands:  2 eigenvalues not converged
     c_bands:  1 eigenvalues not converged
     c_bands:  1 eigenvalues not converged
     c_bands:  1 eigenvalues not converged
     ethr =  1.00E-05,  avg # of iterations = 19.3

[...]

     total energy              =   -2681.19973074 Ry
     estimated scf accuracy    <    2661.09367294 Ry

[...]

     iteration #  3     ecut=    29.40 Ry     beta= 0.05
     Davidson diagonalization with overlap
     ethr =  1.00E-02,  avg # of iterations = 14.2

[...]

     iteration # 88     ecut=    29.40 Ry     beta= 0.05
     Davidson diagonalization with overlap
     c_bands:  1 eigenvalues not converged
     ethr =  3.52E-11,  avg # of iterations = 12.4

[...]

     total energy              =   -2921.63236948 Ry
     estimated scf accuracy    <       0.00000010 Ry

     iteration # 89     ecut=    29.40 Ry     beta= 0.05
     Davidson diagonalization with overlap
     ethr =  2.66E-11,  avg # of iterations =  7.0

     negative rho (up, down):  1.723E-02 0.000E+00

     Adding external electric field

     Computed dipole along edir(3) :
        Dipole                1.3069 Ry au,          3.3217 Debye
        Dipole field          0.0025 Ry au,

        Potential amp.       -0.2286 Ry
        Total length         46.3494 bohr

     End of self-consistent calculation

          k = 0.0000 0.0000 0.0000 ( 18029 PWs)   bands (ev):

   -55.4306 -55.3936 -55.3805 -55.3556 -55.3464 -55.3133 -55.3082 -55.2738
   -55.2477 -55.2307 -55.2132 -55.2119 -55.1783 -55.0988 -54.4090 -54.3750
   -32.0000 -31.8853 -31.8730 -31.7970 -31.7477 -31.7377 -31.7350 -31.7180
   -31.6729 -31.6698 -31.6410 -31.6388 -31.6257 -31.6183 -31.6007 -31.5935
   -31.5861 -31.5738 -31.5687 -31.5455 -31.5330 -31.5297 -31.5017 -31.4944
   -31.4860 -31.4785 -31.4737 -31.4503 -31.4389 -31.4377 -31.4305 -31.4117
   -31.4110 -31.4047 -31.3987 -31.3956 -31.3618 -31.3523 -31.3404 -31.3233
   -31.3047 -31.2945 -30.8183 -30.7243 -30.7023 -30.6348 -30.5480 -30.4370
   -16.2922 -16.1549 -15.9743 -15.8294 -15.7480 -15.6286 -15.5173 -15.5034
   -15.3629 -15.2813 -15.1654 -15.1404 -15.1116 -15.0892 -15.0808 -15.0637
   -14.9728 -14.9679 -14.9557 -14.9231 -14.9220 -14.8777 -14.8672 -14.8252
   -14.8038 -14.8016 -14.6819 -14.5882 -14.5159 -14.2866 -12.9116 -12.7942
   -10.2206  -6.3056  -4.8074  -3.9489  -3.6094  -3.4512  -3.3688  -3.3343
    -3.3212  -3.1899  -3.0532  -2.9119  -2.8548  -2.8189  -2.7227  -2.6460
    -2.6389  -2.6191  -2.4650  -2.4301  -2.3859  -2.3372  -2.2987  -2.2406
    -2.2201  -2.2115  -2.1990  -2.1812  -2.1729  -2.0551  -1.9994  -1.9157
    -1.8567  -1.8338  -1.7836  -1.7634  -1.7435  -1.7195  -1.7100  -1.6693
    -1.6443  -1.6242  -1.5710  -1.4595  -1.3558  -1.3052  -1.1867  -1.0653
    -1.0282  -1.0162  -0.9661  -0.9376  -0.9156  -0.8582  -0.8065  -0.7774
    -0.7238  -0.6624  -0.6008  -0.5513  -0.4780  -0.4748  -0.4158  -0.3667
    -0.2459  -0.2134  -0.1964  -0.1686  -0.0781  -0.0398   0.0040   0.0840
     0.0952   0.1145   0.2084   0.2188   0.2927   0.3413   0.3581   0.4514
     0.4862   0.4986   0.5032   0.5255   0.5555   0.6054   0.6471   0.6736
     0.7404   0.8669   1.0798   1.1602   1.1842   1.5101   1.5200   1.6137
     1.7975   2.1895   2.2377   3.6673   3.7379   3.8137   3.8200   3.8327
     3.9057   4.1400   4.1637   4.1715   4.1781   4.1989

[...]

          k = 0.0380-0.0419 0.0000 ( 17876 PWs)   bands (ev):

[...]

          k =-0.0760-0.0000 0.0000 ( 17886 PWs)   bands (ev):

[...]

          k =-0.0760-0.0839 0.0000 ( 17948 PWs)   bands (ev):

   -55.4165 -55.4075 -55.3636 -55.3632 -55.3542 -55.3097 -55.2923 -55.2897
   -55.2342 -55.2321 -55.2284 -55.1956 -55.1949 -55.1001 -54.3921 -54.3918
   -31.8072 -31.8028 -31.8000 -31.7175 -31.6916 -31.6883 -31.6880 -31.6551
   -31.6550 -31.6395 -31.6329 -31.6302 -31.6235 -31.6012 -31.5861 -31.5695
   -31.5655 -31.5630 -31.5613 -31.5562 -31.5559 -31.5532 -31.5102 -31.5082
   -31.5052 -31.5012 -31.4987 -31.4855 -31.4832 -31.4829 -31.4813 -31.4652
   -31.4616 -31.4457 -31.4419 -31.4279 -31.4249 -31.4225 -31.3767 -31.3766
   -31.3703 -31.3094 -30.7150 -30.7148 -30.6309 -30.6307 -30.5914 -30.5914
   -16.1220 -15.7812 -15.6950 -15.6392 -15.4637 -15.4358 -15.4217 -15.4021
   -15.2730 -15.2473 -15.2215 -15.1992 -15.1782 -15.1405 -15.1329 -15.1281
   -15.0504 -15.0373 -15.0316 -15.0170 -14.9477 -14.9387 -14.9348 -14.9287
   -14.8782 -14.8745 -14.8314 -14.7808 -14.7776 -14.5627 -12.8957 -12.8956
   -10.2237  -6.2761  -4.8043  -3.9138  -2.9650  -2.9430  -2.8976  -2.8949
    -2.6798  -2.6424  -2.6068  -2.5830  -2.4912  -2.4489  -2.4301  -2.4293
    -2.3551  -2.3351  -2.3225  -2.2717  -2.2666  -2.2548  -2.2313  -2.1994
    -2.1734  -2.1590  -2.1492  -2.1308  -2.0874  -2.0732  -2.0537  -2.0330
    -2.0272  -2.0145  -1.9855  -1.9454  -1.8149  -1.8038  -1.7431  -1.6358
    -1.6309  -1.5558  -1.5452  -1.5005  -1.4868  -1.4621  -1.4276  -1.2481
    -1.2061  -1.1753  -1.1657  -1.1118  -1.0356  -1.0189  -0.9558  -0.9348
    -0.9163  -0.8117  -0.7686  -0.7535  -0.6636  -0.6549  -0.5722  -0.5224
    -0.4617  -0.4361  -0.4019  -0.3853  -0.3832  -0.3355  -0.3298  -0.2459
    -0.2001  -0.1641  -0.1505  -0.1183   0.0805   0.0874   0.1101   0.2557
     0.2751   0.4108   0.4379   0.4892   0.5689   0.6021   0.6827   0.7156
     0.8450   0.8758   0.8783   0.9479   0.9622   1.0242   1.0347   1.9705
     1.9712   2.0576   2.0579   3.8181   3.9097   3.9298   3.9723   4.0854
     4.1601   4.1845   4.2062   4.2533   4.2566   4.3178

     the Fermi energy is     3.7312 ev

!    total energy              =   -2921.63237269 Ry
     estimated scf accuracy    <       0.00000006 Ry
     smearing contrib. (-TS)   =      -0.03703085 Ry
     internal energy E=F+TS    =   -2921.59534184 Ry

     The total energy is F=E-TS. E is the sum of the following terms:
     one-electron contribution =  -24082.15712927 Ry
     hartree contribution      =   12130.22187936 Ry
     xc contribution           =    -481.76057761 Ry
     ewald contribution        =    9512.09726266 Ry
     electric field correction =       0.00322302 Ry

     convergence has been achieved in  89 iterations

     Forces acting on atoms (cartesian axes, Ry/au):

     atom    1 type  1   force =     0.00005202   -0.00024939    0.09318617
     atom    2 type  1   force =    -0.00013067   -0.00043920   -0.17823230
     atom    3 type  2   force =     0.00002174   -0.00040742   -0.02020572
     atom    4 type  2   force =    -0.00001303   -0.00187687    0.05855807
     atom    5 type  2   force =    -0.00994049   -0.00082573    0.00750298
     atom    6 type  2   force =     0.01145907   -0.00027285    0.00680068
     atom    7 type  1   force =    -0.00039356    0.00194196   -0.01465267
     atom    8 type  1   force =     0.00011242   -0.00011624   -0.00501132
     atom    9 type  2   force =    -0.00011704   -0.00005190    0.00000612
     atom   10 type  2   force =    -0.00117855    0.00218718   -0.00033311
     atom   11 type  2   force =    -0.00001194   -0.00019599    0.00006931
     atom   12 type  2   force =     0.00058647   -0.00051303    0.00012814
     atom   13 type  1   force =    -0.00071563    0.00034511   -0.00033718
     atom   14 type  1   force =    -0.00001222   -0.00059991    0.00005054
     atom   15 type  2   force =     0.00003985   -0.00055773   -0.00041147
     atom   16 type  2   force =     0.00023609    0.00060205    0.00049498
     atom   17 type  2   force =     0.00001633   -0.00056877    0.00032261
     atom   18 type  2   force =     0.00016255   -0.00006989    0.00041956
     atom   19 type  1   force =     0.00010682   -0.00028868    0.00176233
     atom   20 type  1   force =    -0.00027381    0.00049203    0.00024591
     atom   21 type  2   force =     0.00001038   -0.00009565    0.10387775
     atom   22 type  2   force =     0.00017110   -0.00016436    0.00054507
     atom   23 type  2   force =    -0.07045549   -0.00018757   -0.02693374
     atom   24 type  2   force =     0.07027782    0.00025652   -0.02697475
     atom   25 type  1   force =    -0.00001150   -0.00015560    0.09269258
     atom   26 type  1   force =    -0.00020186   -0.00049860   -0.17825748
     atom   27 type  2   force =     0.00007384   -0.00024604   -0.01925820
     atom   28 type  2   force =     0.00001663   -0.00165843    0.05790485
     atom   29 type  2   force =    -0.01051261   -0.00097806    0.00820212
     atom   30 type  2   force =     0.01191614   -0.00053307    0.00742877
     atom   31 type  1   force =    -0.00033867    0.00604059   -0.01543838
     atom   32 type  1   force =     0.00011694   -0.00039007   -0.00543115
     atom   33 type  2   force =     0.00030930   -0.00010611   -0.00032116
     atom   34 type  2   force =    -0.00063605   -0.00204605   -0.00051691
     atom   35 type  2   force =    -0.00040193   -0.00002269    0.00023969
     atom   36 type  2   force =     0.00067091   -0.00006929   -0.00003714
     atom   37 type  1   force =    -0.00035425   -0.00024164    0.00026920
     atom   38 type  1   force =     0.00001406    0.00041942   -0.00002744
     atom   39 type  2   force =     0.00022677   -0.00010837    0.00017264
     atom   40 type  2   force =     0.00017255    0.00025883    0.00009632
     atom   41 type  2   force =    -0.00042422    0.00028019   -0.00006877
     atom   42 type  2   force =     0.00047571    0.00085530   -0.00016330
     atom   43 type  1   force =     0.00046925    0.00057606    0.00025586
     atom   44 type  1   force =     0.00059127    0.00047391    0.00029023
     atom   45 type  2   force =     0.00001930   -0.00009851    0.10384706
     atom   46 type  2   force =    -0.07042787   -0.00012718   -0.02687278
     atom   47 type  2   force =     0.07025770    0.00030242   -0.02692783
     atom   48 type  3   force =     0.00069862   -0.00511010    0.00075709
     atom   49 type  4   force =     0.00105226    0.02126635    0.00068236
     atom   50 type  5   force =    -0.00080380   -0.00178851    0.00127570
     atom   51 type  5   force =    -0.00462762   -0.00746395    0.00090909
     atom   52 type  5   force =     0.00000479   -0.00047421    0.00096834
     atom   53 type  5   force =    -0.00169594    0.00084848   -0.00078764
     atom   54 type  5   force =     0.00334003   -0.00754871   -0.00276168

     Total force =     0.366861     Total SCF correction =     0.000417
  @ DRIVER MODE: Message from server: STATUS
  @ DRIVER MODE: Message from server: GETFORCE
  @ DRIVER MODE: Returning v,forces,stress,ensemble

     Writing output data file ./calc.save/
  @ DRIVER MODE: Message from server: EXIT
  @ DRIVE MODE: Exiting

     General routines

     Parallel routines

   This run was terminated on:  13:45:42  24Aug2021

   JOB DONE.