     Program PWSCF v.6.7GPU starts on 24Aug2021 at 17:14:30

     R & G space division:  proc/nbgrp/npool/nimage =      72
     Reading input from /storage/home/hcoda1/3/ntian30/research/carbon/CH2_vib/ads_slab/CH2NHH_a/out_0021/pw.inp
Warning: card &CELL ignored
Warning: card   CELL_DYNAMICS='IPI', ignored
Warning: card / ignored

     Current dimensions of program PWSCF are:
     Max number of different atomic species (ntypx) = 10
     Max number of k-points (npk) =  40000
     Max angular momentum in pseudopotentials (lmaxx) =  3
     Presently no symmetry can be used with electric field

     Message from routine cell_base_init:
     DEPRECATED: use true lattice parameter, not A to a.u. conversion factor

     IMPORTANT: XC functional enforced from input :
     Exchange-correlation= BEEF-VDW
                           (   1   4  43  14   2   0   0)
     Any further DFT definition will be discarded
     Please, verify this is what you really want

  @ DRIVER MODE: Connecting to
 qe_1139763_2641439.sched-torque.pace.gatech.edukyynib4h_scratch
  using UNIX socket
  @ DRIVER MODE: Message from server: STATUS
  @ DRIVER MODE: Message from server: INIT
  @ DRIVER MODE: Receiving replica           0          -1
  @ DRIVER MODE: Receiving encoded integer          25
  @ DRIVER MODE:  SCF:  T  FORCE:  T  STRESS:  F  VC:  F  ENSEMBLE:  F
  @ DRIVER MODE:  SCF:  T  FORCE:  T  STRESS:  F  VC:  F  ENSEMBLE:  F

     Using Slab Decomposition

     bravais-lattice index     =            0
     lattice parameter (alat)  =       1.8897  a.u.
     unit-cell volume          =    6658.9804 (a.u.)^3
     number of atoms/cell      =           53
     number of atomic types    =            5
     number of electrons       =       391.00
     number of Kohn-Sham states=          205
     kinetic-energy cutoff     =      29.3995  Ry
     charge density cutoff     =     293.9946  Ry
     scf convergence threshold =      7.3E-08
     mixing beta               =       0.0500
     number of iterations used =            8  plain     mixing
     Exchange-correlation= BEEF-VDW
                           (   1   4  43  14   2   0   0)

     celldm(1)=   1.889726  celldm(2)=   0.000000  celldm(3)=   0.000000
     celldm(4)=   0.000000  celldm(5)=   0.000000  celldm(6)=   0.000000

     crystal axes: (cart. coord. in units of alat)
               a(1) = (   6.579727   0.000000   0.000000 )
               a(2) = (  -0.000775   5.961596   0.000000 )
               a(3) = (   0.000000   0.000000  25.155947 )

     reciprocal axes: (cart. coord. in units 2 pi/alat)
               b(1) = (  0.151982  0.000020  0.000000 )
               b(2) = (  0.000000  0.167740  0.000000 )
               b(3) = (  0.000000  0.000000  0.039752 )

     PseudoPot. # 1 for Ti read from file:
     /storage/coda1/p-amedford6/0/shared/rich_project_chbe-medford/medford-share/data/pseudos_module/espresso/nninc/pbe/van/Ti.UPF
     MD5 check sum: 8e4df49b7f0d34bbd5052bf3f5ea0213
     Pseudo is Ultrasoft, Zval = 12.0
     Generated by new atomic code, or converted to UPF format
     Using radial grid of  851 points,  6 beta functions with:
                l(1) =   0
                l(2) =   0
                l(3) =   1
                l(4) =   1
                l(5) =   2
                l(6) =   2
     Q(r) pseudized with  8 coefficients,  rinner =    1.000   1.000   1.000
                                                       1.000   1.000

     PseudoPot. # 2 for O  read from file:
     /storage/coda1/p-amedford6/0/shared/rich_project_chbe-medford/medford-share/data/pseudos_module/espresso/nninc/pbe/van/O.UPF
     MD5 check sum: 78c19812648e8988a0fe644b0f25305e
     Pseudo is Ultrasoft, Zval =  6.0
     Generated by new atomic code, or converted to UPF format
     Using radial grid of  737 points,  4 beta functions with:
                l(1) =   0
                l(2) =   0
                l(3) =   1
                l(4) =   1
     Q(r) pseudized with  8 coefficients,  rinner =    0.800   0.800   0.800

     PseudoPot. # 3 for N  read from file:
     /storage/coda1/p-amedford6/0/shared/rich_project_chbe-medford/medford-share/data/pseudos_module/espresso/nninc/pbe/van/N.UPF
     MD5 check sum: 90d10febe142ad51ac9d5be1deb811c4
     Pseudo is Ultrasoft, Zval =  5.0
     Generated by new atomic code, or converted to UPF format
     Using radial grid of  729 points,  4 beta functions with:
                l(1) =   0
                l(2) =   0
                l(3) =   1
                l(4) =   1
     Q(r) pseudized with  8 coefficients,  rinner =    0.800   0.800   0.800

     PseudoPot. # 4 for C  read from file:
     /storage/coda1/p-amedford6/0/shared/rich_project_chbe-medford/medford-share/data/pseudos_module/espresso/nninc/pbe/van/C.UPF
     MD5 check sum: 1a69bf6b8db32088f5b2163dbdb77a27
     Pseudo is Ultrasoft, Zval =  4.0
     Generated by new atomic code, or converted to UPF format
     Using radial grid of  721 points,  4 beta functions with:
                l(1) =   0
                l(2) =   0
                l(3) =   1
                l(4) =   1
     Q(r) pseudized with  8 coefficients,  rinner =    0.800   0.800   0.800

     PseudoPot. # 5 for H  read from file:
     /storage/coda1/p-amedford6/0/shared/rich_project_chbe-medford/medford-share/data/pseudos_module/espresso/nninc/pbe/van/H.UPF
     MD5 check sum: b5ee9d7bfd3a09ee7748110bda690ff7
     Pseudo is Ultrasoft, Zval =  1.0
     Generated by new atomic code, or converted to UPF format
     Using radial grid of  615 points,  1 beta functions with:
                l(1) =   0
     Q(r) pseudized with  8 coefficients,  rinner =    0.800

     atomic species   valence    mass     pseudopotential
        Ti1           12.00    47.86700     Ti( 1.00)
        O1             6.00    15.99900     O ( 1.00)
        N1             5.00    14.00700     N ( 1.00)
        C1             4.00    12.01100     C ( 1.00)
        H1             1.00     1.00800     H ( 1.00)

     No symmetry found

   Cartesian axes

     site n.     atom                  positions (alat units)
         1           Ti1 tau(   1) = (   0.0004258   2.9801865   6.0000000  )
         2           Ti1 tau(   2) = (   3.2906075   1.4906267   6.0002472  )
         3           O1  tau(   3) = (   0.0006271   0.0005054   7.9858123  )
         4           O1  tau(   4) = (   3.2906025   0.0005020   7.3038282  )
         5           O1  tau(   5) = (   4.5942328   1.4918067   9.2879030  )
         6           O1  tau(   6) = (   1.9868534   1.4903216   9.2879459  )
         7           Ti1 tau(   7) = (   3.2907910   2.8959150   9.1758416  )
         8           Ti1 tau(   8) = (   0.0015273   1.4827037   9.2680791  )
         9           O1  tau(   9) = (   3.2941312   5.9515177  11.3840049  )
        10           O1  tau(  10) = (   0.0116148   5.9584955  10.6183126  )
        11           O1  tau(  11) = (   1.2915503   1.4777401  12.6967708  )
        12           O1  tau(  12) = (   5.3002239   1.4803738  12.6794006  )
        13           Ti1 tau(  13) = (   0.0161863   2.9610389  12.5056540  )
        14           Ti1 tau(  14) = (   3.3199580   1.4690355  12.5397617  )
        15           O1  tau(  15) = (   6.5577523   5.8663973  14.6994336  )
        16           O1  tau(  16) = (   3.3105950   5.9380289  14.0083265  )
        17           O1  tau(  17) = (   4.5355139   1.5078041  16.1868020  )
        18           O1  tau(  18) = (   2.0231344   1.4922588  16.1350940  )
        19           Ti1 tau(  19) = (   3.2781988   2.9761027  15.7713632  )
        20           Ti1 tau(  20) = (   0.0162001   1.2772015  15.8797579  )
        21           O1  tau(  21) = (   3.2904802   0.0005063   4.7018136  )
        22           O1  tau(  22) = (   6.5682446   0.1140876  17.2519115  )
        23           O1  tau(  23) = (   1.3043587   1.4918075   6.0039043  )
        24           O1  tau(  24) = (   5.2767064   1.4903225   6.0039473  )
        25           Ti1 tau(  25) = (   0.0000382   5.9609847   6.0000000  )
        26           Ti1 tau(  26) = (   3.2902200   4.4714249   6.0002472  )
        27           O1  tau(  27) = (   0.0002396   2.9813036   7.9858123  )
        28           O1  tau(  28) = (   3.2902150   2.9813002   7.3038282  )
        29           O1  tau(  29) = (   4.5938453   4.4726049   9.2879030  )
        30           O1  tau(  30) = (   1.9864658   4.4711199   9.2879459  )
        31           Ti1 tau(  31) = (   3.2891106   5.8743827   9.1763621  )
        32           Ti1 tau(  32) = (   0.0006254   4.4649316   9.2693709  )
        33           O1  tau(  33) = (   3.2958891   2.9587481  11.3780895  )
        34           O1  tau(  34) = (   0.0092240   2.9805883  10.6323155  )
        35           O1  tau(  35) = (   1.2947421   4.4484190  12.6652604  )
        36           O1  tau(  36) = (   5.2996063   4.4466420  12.6515021  )
        37           Ti1 tau(  37) = (   0.0283143   5.9336383  12.5061025  )
        38           Ti1 tau(  38) = (   3.3214233   4.4478814  12.5310514  )
        39           O1  tau(  39) = (   6.5589476   3.0029366  14.9874712  )
        40           O1  tau(  40) = (   3.3011147   2.9794859  13.9794371  )
        41           O1  tau(  41) = (   4.5155863   4.4560770  16.2359875  )
        42           O1  tau(  42) = (   2.0187475   4.4548860  16.2131175  )
        43           Ti1 tau(  43) = (   3.3138217   5.9556645  15.8088081  )
        44           Ti1 tau(  44) = (   0.0451788   4.5003401  16.0524233  )
        45           O1  tau(  45) = (   3.2900926   2.9813045   4.7018136  )
        46           O1  tau(  46) = (   1.3039711   4.4726057   6.0039043  )
        47           O1  tau(  47) = (   5.2763189   4.4711207   6.0039473  )
        48           N1  tau(  48) = (   6.2013940   3.4221407  18.2524812  )
        49           C1  tau(  49) = (   0.6861764   3.1362451  19.0985974  )
        50           H1  tau(  50) = (   1.2250757   3.9700495  19.5149693  )
        51           H1  tau(  51) = (   1.1126790   2.1386344  19.0481404  )
        52           H1  tau(  52) = (   5.7034377   4.2789310  18.4761913  )
        53           H1  tau(  53) = (   5.5430662   2.6552022  18.1284619  )

     number of k points=    10  Fermi-Dirac smearing, width (Ry)=  0.0073
                       cart. coord. in units 2pi/alat
        k(    1) = (   0.0000000   0.0000000   0.0000000), wk =   0.1250000
        k(    2) = (   0.0000000   0.0419351   0.0000000), wk =   0.2500000
        k(    3) = (   0.0000000  -0.0838702   0.0000000), wk =   0.1250000
        k(    4) = (   0.0379955   0.0000049   0.0000000), wk =   0.2500000
        k(    5) = (   0.0379955   0.0419400   0.0000000), wk =   0.2500000
        k(    6) = (   0.0379955  -0.0838652   0.0000000), wk =   0.2500000
        k(    7) = (   0.0379955  -0.0419301   0.0000000), wk =   0.2500000
        k(    8) = (  -0.0759910  -0.0000099   0.0000000), wk =   0.1250000
        k(    9) = (  -0.0759910   0.0419252   0.0000000), wk =   0.2500000
        k(   10) = (  -0.0759910  -0.0838800   0.0000000), wk =   0.1250000

     Initial potential from superposition of free atoms

     starting charge  374.99916, renormalised to  391.00000

     negative rho (up, down):  1.684E-02 0.000E+00

     %%%%%%%%%%%%%%%%%%%%%%%%%%%%%%%%%%%%%%%%%%%%%%%%%%%%%%%%%%%%%%%%%%%%%%%%
     %                                                                      %
     % You are using vdW-DF, which was implemented by the Thonhauser group. %
     % Please cite the following two papers that made this development      %
     % possible and the two reviews that describe the various versions:     %
     %                                                                      %
     %   T. Thonhauser et al., PRL 115, 136402 (2015).                      %
     %   T. Thonhauser et al., PRB 76, 125112 (2007).                       %
     %   K. Berland et al., Rep. Prog. Phys. 78, 066501 (2015).             %
     %   D.C. Langreth et al., J. Phys.: Condens. Matter 21, 084203 (2009). %
     %                                                                      %
     %                                                                      %
     % If you are calculating the stress with vdW-DF, please also cite:     %
     %                                                                      %
     %   R. Sabatini et al., J. Phys.: Condens. Matter 24, 424209 (2012).   %
     %                                                                      %
     %%%%%%%%%%%%%%%%%%%%%%%%%%%%%%%%%%%%%%%%%%%%%%%%%%%%%%%%%%%%%%%%%%%%%%%%

     Adding external electric field

     Computed dipole along edir(3) :
        Dipole               -6.9321 Ry au,        -17.6197 Debye
        Dipole field         -0.0131 Ry au,

        Potential amp.        1.2127 Ry
        Total length         46.3494 bohr

     Starting wfcs are  296 atomic wfcs
  @ DRIVER MODE: Message from server: STATUS
  @ DRIVER MODE: Message from server: POSDATA
  @ DRIVER MODE: Reading and sharing cell
  @ DRIVER MODE: Reading and sharing positions
  @ DRIVER MODE: Received positions

     Self-consistent Calculation

     iteration #  1     ecut=    29.40 Ry     beta= 0.05
     Davidson diagonalization with overlap
     c_bands:  1 eigenvalues not converged
     ethr =  1.00E-05,  avg # of iterations = 15.4

[...]

     total energy              =   -2713.44437697 Ry
     estimated scf accuracy    <    2282.81770495 Ry

[...]

     iteration #  3     ecut=    29.40 Ry     beta= 0.05
     Davidson diagonalization with overlap
     ethr =  1.00E-02,  avg # of iterations = 15.4

[...]

     iteration # 88     ecut=    29.40 Ry     beta= 0.05
     Davidson diagonalization with overlap
     ethr =  1.54E-10,  avg # of iterations =  8.1

[...]

     total energy              =   -2920.25686579 Ry
     estimated scf accuracy    <       0.00000046 Ry

     iteration # 92     ecut=    29.40 Ry     beta= 0.05
     Davidson diagonalization with overlap
     c_bands:  1 eigenvalues not converged
     ethr =  3.82E-11,  avg # of iterations = 14.6

     negative rho (up, down):  1.610E-02 0.000E+00

     Adding external electric field

     Computed dipole along edir(3) :
        Dipole                0.8910 Ry au,          2.2647 Debye
        Dipole field          0.0017 Ry au,

        Potential amp.       -0.1559 Ry
        Total length         46.3494 bohr

     End of self-consistent calculation

          k = 0.0000 0.0000 0.0000 ( 18029 PWs)   bands (ev):

   -55.7220 -55.6860 -55.6737 -55.6396 -55.6114 -55.6022 -55.5678 -55.5462
   -55.5384 -55.5118 -55.5053 -55.4716 -55.4647 -55.3044 -54.7057 -54.6717
   -32.2873 -32.1667 -32.0902 -32.0573 -32.0427 -32.0352 -32.0319 -32.0113
   -31.9626 -31.9569 -31.9338 -31.9280 -31.9186 -31.8910 -31.8756 -31.8737
   -31.8608 -31.8496 -31.8416 -31.8263 -31.8208 -31.7881 -31.7808 -31.7768
   -31.7486 -31.7447 -31.7343 -31.7308 -31.7250 -31.7208 -31.7047 -31.7030
   -31.6946 -31.6918 -31.6714 -31.6596 -31.6572 -31.6422 -31.6332 -31.6168
   -31.5250 -31.4724 -31.1153 -31.0207 -30.9986 -30.9316 -30.8448 -30.7340
   -16.6745 -16.5290 -16.2732 -16.1133 -16.0183 -15.9216 -15.7902 -15.7626
   -15.6464 -15.5697 -15.4282 -15.3978 -15.3820 -15.3604 -15.3431 -15.3309
   -15.2695 -15.2635 -15.2437 -15.2180 -15.2147 -15.1678 -15.1631 -15.1226
   -15.0987 -15.0461 -14.9681 -14.8837 -14.8108 -14.4897 -13.2085 -13.0910
    -9.5051  -6.8564  -4.9312  -3.8864  -3.7429  -3.6746  -3.6246  -3.6156
    -3.4742  -3.3003  -3.1541  -3.1397  -3.0764  -2.9945  -2.9268  -2.9131
    -2.8888  -2.7479  -2.7335  -2.6797  -2.6519  -2.5748  -2.5700  -2.5269
    -2.5079  -2.4733  -2.4692  -2.4392  -2.3002  -2.2920  -2.2522  -2.1904
    -2.1312  -2.1284  -2.0732  -2.0539  -2.0126  -2.0034  -1.9947  -1.9516
    -1.9469  -1.9130  -1.8181  -1.7476  -1.6206  -1.5842  -1.4414  -1.3632
    -1.3155  -1.2953  -1.2146  -1.2074  -1.1478  -1.1031  -1.1012  -1.0610
    -0.9495  -0.8681  -0.8156  -0.7580  -0.7241  -0.7075  -0.6227  -0.5252
    -0.5017  -0.4891  -0.4532  -0.3534  -0.3283  -0.2674  -0.2034  -0.1910
    -0.1781  -0.0931  -0.0556   0.0169   0.0669   0.0869   0.1640   0.1861
     0.2098   0.2157   0.2463   0.2621   0.3337   0.3531   0.3780   0.4653
     0.5860   0.8281   0.8873   0.8957   1.2162   1.2212   1.3168   1.5000
     1.8934   1.9417   3.3709   3.3884   3.4527   3.5210   3.5247   3.5868
     3.6117   3.8582   3.8775   3.8856   3.9032

[...]

          k = 0.0380-0.0419 0.0000 ( 17876 PWs)   bands (ev):

[...]

          k =-0.0760-0.0000 0.0000 ( 17886 PWs)   bands (ev):

[...]

          k =-0.0760-0.0839 0.0000 ( 17948 PWs)   bands (ev):

   -55.7053 -55.7024 -55.6567 -55.6564 -55.6070 -55.5858 -55.5841 -55.5425
   -55.5307 -55.5268 -55.4888 -55.4882 -55.4626 -55.3065 -54.6888 -54.6885
   -32.0929 -32.0904 -31.9998 -31.9818 -31.9818 -31.9787 -31.9691 -31.9479
   -31.9478 -31.9318 -31.9252 -31.9182 -31.9137 -31.8743 -31.8660 -31.8629
   -31.8586 -31.8539 -31.8496 -31.8447 -31.8309 -31.8119 -31.8001 -31.7991
   -31.7808 -31.7770 -31.7764 -31.7761 -31.7637 -31.7597 -31.7434 -31.7414
   -31.7394 -31.7299 -31.7218 -31.7191 -31.6855 -31.6690 -31.6686 -31.6500
   -31.5646 -31.5271 -31.0114 -31.0112 -30.9279 -30.9277 -30.8883 -30.8882
   -16.6415 -16.0383 -15.9456 -15.9075 -15.7595 -15.7218 -15.6868 -15.6745
   -15.5520 -15.5259 -15.5003 -15.4791 -15.4438 -15.4276 -15.4206 -15.3732
   -15.3413 -15.3218 -15.3162 -15.3041 -15.2411 -15.2332 -15.2293 -15.2222
   -15.1728 -15.1692 -15.0783 -15.0753 -15.0631 -14.7752 -13.1925 -13.1924
    -9.5067  -6.8387  -4.9117  -3.2142  -3.1871  -3.1606  -3.1236  -2.9782
    -2.9103  -2.8970  -2.8743  -2.7974  -2.7558  -2.7345  -2.6938  -2.6831
    -2.6306  -2.6037  -2.5765  -2.5603  -2.5559  -2.5394  -2.5185  -2.4838
    -2.4556  -2.4526  -2.4421  -2.4020  -2.3747  -2.3609  -2.3268  -2.3174
    -2.3099  -2.2804  -2.2207  -2.1148  -2.0907  -2.0588  -1.9647  -1.9311
    -1.9262  -1.8461  -1.8158  -1.7576  -1.7546  -1.7435  -1.5971  -1.5148
    -1.4717  -1.4691  -1.4471  -1.3200  -1.3106  -1.2259  -1.2034  -1.1938
    -1.1052  -1.0806  -1.0429  -1.0175  -0.9349  -0.9097  -0.8437  -0.7555
    -0.7192  -0.7112  -0.6796  -0.6768  -0.6276  -0.6162  -0.5351  -0.4928
    -0.4566  -0.4464  -0.4054  -0.2207  -0.2037  -0.1608  -0.0322   0.0133
     0.1455   0.1632   0.2278   0.3044   0.3365   0.3908   0.4268   0.5729
     0.5828   0.6149   0.6595   0.6689   0.7287   0.7378   1.6730   1.6737
     1.7616   1.7619   3.3932   3.6197   3.6264   3.6654   3.6882   3.8408
     3.8915   3.9296   3.9551   3.9602   3.9761

     the Fermi energy is     3.4389 ev

!    total energy              =   -2920.25686777 Ry
     estimated scf accuracy    <       0.00000007 Ry
     smearing contrib. (-TS)   =      -0.04300525 Ry
     internal energy E=F+TS    =   -2920.21386252 Ry

     The total energy is F=E-TS. E is the sum of the following terms:
     one-electron contribution =  -24043.95386561 Ry
     hartree contribution      =   12108.11525323 Ry
     xc contribution           =    -480.85096527 Ry
     ewald contribution        =    9496.47421695 Ry
     electric field correction =       0.00149817 Ry

     convergence has been achieved in  92 iterations

     Forces acting on atoms (cartesian axes, Ry/au):

     atom    1 type  1   force =     0.00008518   -0.00016033    0.09317645
     atom    2 type  1   force =    -0.00020620   -0.00024893   -0.17847616
     atom    3 type  2   force =     0.00003727   -0.00036699   -0.02007967
     atom    4 type  2   force =    -0.00001994   -0.00199807    0.05918118
     atom    5 type  2   force =    -0.01040757   -0.00113349    0.00788543
     atom    6 type  2   force =     0.01196580   -0.00051636    0.00730995
     atom    7 type  1   force =    -0.00041733    0.00229732   -0.01386808
     atom    8 type  1   force =     0.00003912   -0.00144598   -0.00476988
     atom    9 type  2   force =     0.00000307   -0.00028800   -0.00034888
     atom   10 type  2   force =    -0.00082687    0.00065937    0.00150173
     atom   11 type  2   force =     0.00010474   -0.00004092    0.00023778
     atom   12 type  2   force =    -0.00007963    0.00008562    0.00032221
     atom   13 type  1   force =    -0.00056744    0.00062072   -0.00009592
     atom   14 type  1   force =     0.00025584    0.00021364    0.00010017
     atom   15 type  2   force =    -0.00017315    0.00053740    0.00037662
     atom   16 type  2   force =    -0.00016161   -0.00006891   -0.00012203
     atom   17 type  2   force =    -0.00011071   -0.00004680   -0.00002573
     atom   18 type  2   force =    -0.00019350   -0.00015116   -0.00047648
     atom   19 type  1   force =    -0.00008025    0.00006366   -0.00009683
     atom   20 type  1   force =    -0.00008587   -0.00007708   -0.00016640
     atom   21 type  2   force =     0.00001244   -0.00001428    0.10403624
     atom   22 type  2   force =    -0.00001720    0.00037428    0.00074799
     atom   23 type  2   force =    -0.07039499   -0.00010088   -0.02688623
     atom   24 type  2   force =     0.07021022    0.00033013   -0.02694580
     atom   25 type  1   force =    -0.00000790   -0.00012291    0.09256486
     atom   26 type  1   force =    -0.00017970   -0.00039046   -0.17851916
     atom   27 type  2   force =     0.00009528   -0.00026643   -0.01916795
     atom   28 type  2   force =     0.00002801   -0.00176458    0.05850261
     atom   29 type  2   force =    -0.01089743   -0.00132817    0.00841984
     atom   30 type  2   force =     0.01235016   -0.00098909    0.00776920
     atom   31 type  1   force =    -0.00022594    0.00597862   -0.01474290
     atom   32 type  1   force =     0.00005896    0.00099050   -0.00535177
     atom   33 type  2   force =    -0.00030587    0.00024143    0.00014458
     atom   34 type  2   force =    -0.00022416   -0.00291125    0.00008582
     atom   35 type  2   force =     0.00060697    0.00021943   -0.00005406
     atom   36 type  2   force =    -0.00065595    0.00017891   -0.00028184
     atom   37 type  1   force =    -0.00054743   -0.00047835   -0.00008963
     atom   38 type  1   force =     0.00015936   -0.00050027    0.00011696
     atom   39 type  2   force =     0.00003116   -0.00024155    0.00034572
     atom   40 type  2   force =    -0.00000778    0.00045453   -0.00058764
     atom   41 type  2   force =    -0.00002880    0.00047988   -0.00016940
     atom   42 type  2   force =     0.00008417    0.00055658   -0.00012985
     atom   43 type  1   force =    -0.00010327    0.00031967   -0.00068931
     atom   44 type  1   force =    -0.00051063   -0.00024264    0.00009808
     atom   45 type  2   force =     0.00000329   -0.00002477    0.10400519
     atom   46 type  2   force =    -0.07037233   -0.00005416   -0.02685279
     atom   47 type  2   force =     0.07020597    0.00037436   -0.02690033
     atom   48 type  3   force =    -0.00074576   -0.00010304    0.00012099
     atom   49 type  4   force =     0.00518594   -0.01146372   -0.00161583
     atom   50 type  5   force =     0.00061992   -0.00045144   -0.00047305
     atom   51 type  5   force =    -0.00458168    0.01203350    0.00081841
     atom   52 type  5   force =     0.00051607   -0.00016945    0.00020071
     atom   53 type  5   force =     0.00047796    0.00115091   -0.00008515

     Total force =     0.366886     Total SCF correction =     0.001305
  @ DRIVER MODE: Message from server: STATUS
  @ DRIVER MODE: Message from server: GETFORCE
  @ DRIVER MODE: Returning v,forces,stress,ensemble

     Writing output data file ./calc.save/
  @ DRIVER MODE: Message from server: EXIT
  @ DRIVE MODE: Exiting

     General routines

     Parallel routines

   This run was terminated on:  17:37:57  24Aug2021

   JOB DONE.