     Program PWSCF v.6.7GPU starts on 23Sep2021 at 13:15:55

     R & G space division:  proc/nbgrp/npool/nimage =      10
     Reading input from /storage/home/hcoda1/3/ntian30/research/carbon/CxH_vib/H2O_calc/ads_slab/CH2NHNHH2O_b/out_0060/pw.inp
Warning: card &CELL ignored
Warning: card   CELL_DYNAMICS='IPI', ignored
Warning: card / ignored

     Current dimensions of program PWSCF are:
     Max number of different atomic species (ntypx) = 10
     Max number of k-points (npk) =  40000
     Max angular momentum in pseudopotentials (lmaxx) =  3
     Presently no symmetry can be used with electric field

     Message from routine cell_base_init:
     DEPRECATED: use true lattice parameter, not A to a.u. conversion factor

     IMPORTANT: XC functional enforced from input :
     Exchange-correlation= BEEF-VDW
                           (   1   4  43  14   2   0   0)
     Any further DFT definition will be discarded
     Please, verify this is what you really want

  @ DRIVER MODE: Connecting to
 qe_1139763_2937310.sched-torque.pace.gatech.edu6htl197u_scratch
  using UNIX socket
  @ DRIVER MODE: Message from server: STATUS
  @ DRIVER MODE: Message from server: INIT
  @ DRIVER MODE: Receiving replica           0          -1
  @ DRIVER MODE: Receiving encoded integer          25
  @ DRIVER MODE:  SCF:  T  FORCE:  T  STRESS:  F  VC:  F  ENSEMBLE:  F
  @ DRIVER MODE:  SCF:  T  FORCE:  T  STRESS:  F  VC:  F  ENSEMBLE:  F

     Using Slab Decomposition

     bravais-lattice index     =            0
     lattice parameter (alat)  =       1.8897  a.u.
     unit-cell volume          =    6658.9804 (a.u.)^3
     number of atoms/cell      =           57
     number of atomic types    =            5
     number of electrons       =       404.00
     number of Kohn-Sham states=          212
     kinetic-energy cutoff     =      29.3995  Ry
     charge density cutoff     =     293.9946  Ry
     scf convergence threshold =      7.3E-08
     mixing beta               =       0.0500
     number of iterations used =            8  plain     mixing
     Exchange-correlation= BEEF-VDW
                           (   1   4  43  14   2   0   0)

     celldm(1)=   1.889726  celldm(2)=   0.000000  celldm(3)=   0.000000
     celldm(4)=   0.000000  celldm(5)=   0.000000  celldm(6)=   0.000000

     crystal axes: (cart. coord. in units of alat)
               a(1) = (   6.579727   0.000000   0.000000 )
               a(2) = (  -0.000775   5.961596   0.000000 )
               a(3) = (   0.000000   0.000000  25.155947 )

     reciprocal axes: (cart. coord. in units 2 pi/alat)
               b(1) = (  0.151982  0.000020  0.000000 )
               b(2) = (  0.000000  0.167740  0.000000 )
               b(3) = (  0.000000  0.000000  0.039752 )

     PseudoPot. # 1 for Ti read from file:
     /storage/coda1/p-amedford6/0/shared/rich_project_chbe-medford/medford-share/data/pseudos_module/espresso/nninc/pbe/van/Ti.UPF
     MD5 check sum: 8e4df49b7f0d34bbd5052bf3f5ea0213
     Pseudo is Ultrasoft, Zval = 12.0
     Generated by new atomic code, or converted to UPF format
     Using radial grid of  851 points,  6 beta functions with:
                l(1) =   0
                l(2) =   0
                l(3) =   1
                l(4) =   1
                l(5) =   2
                l(6) =   2
     Q(r) pseudized with  8 coefficients,  rinner =    1.000   1.000   1.000
                                                       1.000   1.000

     PseudoPot. # 2 for O  read from file:
     /storage/coda1/p-amedford6/0/shared/rich_project_chbe-medford/medford-share/data/pseudos_module/espresso/nninc/pbe/van/O.UPF
     MD5 check sum: 78c19812648e8988a0fe644b0f25305e
     Pseudo is Ultrasoft, Zval =  6.0
     Generated by new atomic code, or converted to UPF format
     Using radial grid of  737 points,  4 beta functions with:
                l(1) =   0
                l(2) =   0
                l(3) =   1
                l(4) =   1
     Q(r) pseudized with  8 coefficients,  rinner =    0.800   0.800   0.800

     PseudoPot. # 3 for N  read from file:
     /storage/coda1/p-amedford6/0/shared/rich_project_chbe-medford/medford-share/data/pseudos_module/espresso/nninc/pbe/van/N.UPF
     MD5 check sum: 90d10febe142ad51ac9d5be1deb811c4
     Pseudo is Ultrasoft, Zval =  5.0
     Generated by new atomic code, or converted to UPF format
     Using radial grid of  729 points,  4 beta functions with:
                l(1) =   0
                l(2) =   0
                l(3) =   1
                l(4) =   1
     Q(r) pseudized with  8 coefficients,  rinner =    0.800   0.800   0.800

     PseudoPot. # 4 for C  read from file:
     /storage/coda1/p-amedford6/0/shared/rich_project_chbe-medford/medford-share/data/pseudos_module/espresso/nninc/pbe/van/C.UPF
     MD5 check sum: 1a69bf6b8db32088f5b2163dbdb77a27
     Pseudo is Ultrasoft, Zval =  4.0
     Generated by new atomic code, or converted to UPF format
     Using radial grid of  721 points,  4 beta functions with:
                l(1) =   0
                l(2) =   0
                l(3) =   1
                l(4) =   1
     Q(r) pseudized with  8 coefficients,  rinner =    0.800   0.800   0.800

     PseudoPot. # 5 for H  read from file:
     /storage/coda1/p-amedford6/0/shared/rich_project_chbe-medford/medford-share/data/pseudos_module/espresso/nninc/pbe/van/H.UPF
     MD5 check sum: b5ee9d7bfd3a09ee7748110bda690ff7
     Pseudo is Ultrasoft, Zval =  1.0
     Generated by new atomic code, or converted to UPF format
     Using radial grid of  615 points,  1 beta functions with:
                l(1) =   0
     Q(r) pseudized with  8 coefficients,  rinner =    0.800

     atomic species   valence    mass     pseudopotential
        Ti1           12.00    47.86700     Ti( 1.00)
        O1             6.00    15.99900     O ( 1.00)
        N1             5.00    14.00700     N ( 1.00)
        C1             4.00    12.01100     C ( 1.00)
        H1             1.00     1.00800     H ( 1.00)

     No symmetry found

   Cartesian axes

     site n.     atom                  positions (alat units)
         1           Ti1 tau(   1) = (   0.0004258   2.9801865   6.0000000  )
         2           Ti1 tau(   2) = (   3.2906075   1.4906267   6.0002472  )
         3           O1  tau(   3) = (   0.0006271   0.0005054   7.9858123  )
         4           O1  tau(   4) = (   3.2906025   0.0005020   7.3038282  )
         5           O1  tau(   5) = (   4.5942328   1.4918067   9.2879030  )
         6           O1  tau(   6) = (   1.9868534   1.4903216   9.2879459  )
         7           Ti1 tau(   7) = (   3.2907910   2.8959150   9.1758416  )
         8           Ti1 tau(   8) = (   0.0015273   1.4827037   9.2680791  )
         9           O1  tau(   9) = (   3.2740695   5.9399032  11.3612631  )
        10           O1  tau(  10) = (   0.0116148   5.9584955  10.6183126  )
        11           O1  tau(  11) = (   1.2665466   1.4659349  12.6457467  )
        12           O1  tau(  12) = (   5.2636777   1.4644475  12.6520517  )
        13           Ti1 tau(  13) = (   0.0254019   2.9535957  12.5508080  )
        14           Ti1 tau(  14) = (   3.3235577   1.4585364  12.5144190  )
        15           O1  tau(  15) = (   0.0066209   5.9388471  14.7046414  )
        16           O1  tau(  16) = (   3.2471877   5.9405099  14.0100224  )
        17           O1  tau(  17) = (   4.5302733   1.5208160  16.0462967  )
        18           O1  tau(  18) = (   1.9955500   1.4995475  16.2009832  )
        19           Ti1 tau(  19) = (   3.2567830   2.9699832  15.6929747  )
        20           Ti1 tau(  20) = (   6.4949666   1.4732860  15.8443191  )
        21           O1  tau(  21) = (   3.2904802   0.0005063   4.7018136  )
        22           O1  tau(  22) = (   6.4419287   5.8812218  17.2824568  )
        23           O1  tau(  23) = (   1.3043587   1.4918075   6.0039043  )
        24           O1  tau(  24) = (   5.2767064   1.4903225   6.0039473  )
        25           Ti1 tau(  25) = (   0.0000382   5.9609847   6.0000000  )
        26           Ti1 tau(  26) = (   3.2902200   4.4714249   6.0002472  )
        27           O1  tau(  27) = (   0.0002396   2.9813036   7.9858123  )
        28           O1  tau(  28) = (   3.2902150   2.9813002   7.3038282  )
        29           O1  tau(  29) = (   4.5938453   4.4726049   9.2879030  )
        30           O1  tau(  30) = (   1.9864658   4.4711199   9.2879459  )
        31           Ti1 tau(  31) = (   3.2891106   5.8743827   9.1763621  )
        32           Ti1 tau(  32) = (   0.0006254   4.4649316   9.2693709  )
        33           O1  tau(  33) = (   3.2800166   2.9600013  11.3546200  )
        34           O1  tau(  34) = (   0.0092240   2.9805883  10.6323155  )
        35           O1  tau(  35) = (   1.2663080   4.4508225  12.6496728  )
        36           O1  tau(  36) = (   5.2650692   4.4524444  12.6537221  )
        37           Ti1 tau(  37) = (   0.0180281   5.9297397  12.5120547  )
        38           Ti1 tau(  38) = (   3.3242103   4.4456960  12.5094407  )
        39           O1  tau(  39) = (   0.0028395   2.9305241  14.7702868  )
        40           O1  tau(  40) = (   3.2369197   2.9632653  13.9133312  )
        41           O1  tau(  41) = (   4.5259019   4.3784886  16.1008109  )
        42           O1  tau(  42) = (   2.0017919   4.4285960  16.1845674  )
        43           Ti1 tau(  43) = (   3.2453488   5.9423767  15.8283900  )
        44           Ti1 tau(  44) = (   6.5728488   4.6138345  16.0446011  )
        45           O1  tau(  45) = (   3.2900926   2.9813045   4.7018136  )
        46           O1  tau(  46) = (   1.3039711   4.4726057   6.0039043  )
        47           O1  tau(  47) = (   5.2763189   4.4711207   6.0039473  )
        48           N1  tau(  48) = (   0.9567011   2.5879941  18.4848429  )
        49           N1  tau(  49) = (   6.5185693   2.8362889  17.6364570  )
        50           C1  tau(  50) = (   1.0658718   2.8740630  19.7563100  )
        51           H1  tau(  51) = (   1.9437682   2.5238050  20.2723566  )
        52           H1  tau(  52) = (   0.2809834   3.4210577  20.2544045  )
        53           H1  tau(  53) = (   1.7014144   2.0656717  17.9989220  )
        54           H1  tau(  54) = (   5.6742842   3.0275795  18.1730567  )
        55           O1  tau(  55) = (   3.7618585   0.1297276  18.3074903  )
        56           H1  tau(  56) = (   4.7330396   0.0541995  18.1289380  )
        57           H1  tau(  57) = (   3.4892521   5.2388606  18.6888193  )

     number of k points=    10  Fermi-Dirac smearing, width (Ry)=  0.0073
                       cart. coord. in units 2pi/alat
        k(    1) = (   0.0000000   0.0000000   0.0000000), wk =   0.1250000
        k(    2) = (   0.0000000   0.0419351   0.0000000), wk =   0.2500000
        k(    3) = (   0.0000000  -0.0838702   0.0000000), wk =   0.1250000
        k(    4) = (   0.0379955   0.0000049   0.0000000), wk =   0.2500000
        k(    5) = (   0.0379955   0.0419400   0.0000000), wk =   0.2500000
        k(    6) = (   0.0379955  -0.0838652   0.0000000), wk =   0.2500000
        k(    7) = (   0.0379955  -0.0419301   0.0000000), wk =   0.2500000
        k(    8) = (  -0.0759910  -0.0000099   0.0000000), wk =   0.1250000
        k(    9) = (  -0.0759910   0.0419252   0.0000000), wk =   0.2500000
        k(   10) = (  -0.0759910  -0.0838800   0.0000000), wk =   0.1250000

     Initial potential from superposition of free atoms

     starting charge  387.99913, renormalised to  404.00000

     negative rho (up, down):  1.394E-02 0.000E+00

     %%%%%%%%%%%%%%%%%%%%%%%%%%%%%%%%%%%%%%%%%%%%%%%%%%%%%%%%%%%%%%%%%%%%%%%%
     %                                                                      %
     % You are using vdW-DF, which was implemented by the Thonhauser group. %
     % Please cite the following two papers that made this development      %
     % possible and the two reviews that describe the various versions:     %
     %                                                                      %
     %   T. Thonhauser et al., PRL 115, 136402 (2015).                      %
     %   T. Thonhauser et al., PRB 76, 125112 (2007).                       %
     %   K. Berland et al., Rep. Prog. Phys. 78, 066501 (2015).             %
     %   D.C. Langreth et al., J. Phys.: Condens. Matter 21, 084203 (2009). %
     %                                                                      %
     %                                                                      %
     % If you are calculating the stress with vdW-DF, please also cite:     %
     %                                                                      %
     %   R. Sabatini et al., J. Phys.: Condens. Matter 24, 424209 (2012).   %
     %                                                                      %
     %%%%%%%%%%%%%%%%%%%%%%%%%%%%%%%%%%%%%%%%%%%%%%%%%%%%%%%%%%%%%%%%%%%%%%%%

     Adding external electric field

     Computed dipole along edir(3) :
        Dipole              -14.1780 Ry au,        -36.0369 Debye
        Dipole field         -0.0268 Ry au,

        Potential amp.        2.4802 Ry
        Total length         46.3494 bohr

     Starting wfcs are  306 atomic wfcs
  @ DRIVER MODE: Message from server: STATUS
  @ DRIVER MODE: Message from server: POSDATA
  @ DRIVER MODE: Reading and sharing cell
  @ DRIVER MODE: Reading and sharing positions
  @ DRIVER MODE: Received positions

     Self-consistent Calculation

     iteration #  1     ecut=    29.40 Ry     beta= 0.05
     Davidson diagonalization with overlap
     c_bands:  4 eigenvalues not converged
     c_bands:  1 eigenvalues not converged
     c_bands:  2 eigenvalues not converged
     c_bands:  2 eigenvalues not converged
     c_bands:  1 eigenvalues not converged
     c_bands:  1 eigenvalues not converged
     c_bands:  4 eigenvalues not converged
     c_bands:  1 eigenvalues not converged
     c_bands:  1 eigenvalues not converged
     ethr =  1.00E-05,  avg # of iterations = 30.7

[...]

     total energy              =   -2249.26601461 Ry
     estimated scf accuracy    <    8255.81337699 Ry

     iteration #  2     ecut=    29.40 Ry     beta= 0.05
     Davidson diagonalization with overlap
     ethr =  1.00E-02,  avg # of iterations = 25.2

[...]

     iteration # 86     ecut=    29.40 Ry     beta= 0.05
     Davidson diagonalization with overlap
     ethr =  3.64E-11,  avg # of iterations =  9.8

[...]

     total energy              =   -2975.20163603 Ry
     estimated scf accuracy    <       0.00000008 Ry

     iteration # 87     ecut=    29.40 Ry     beta= 0.05
     Davidson diagonalization with overlap
     c_bands:  1 eigenvalues not converged
     ethr =  2.02E-11,  avg # of iterations = 10.1

     negative rho (up, down):  1.354E-02 0.000E+00

     Adding external electric field

     Computed dipole along edir(3) :
        Dipole                1.4240 Ry au,          3.6195 Debye
        Dipole field          0.0027 Ry au,

        Potential amp.       -0.2491 Ry
        Total length         46.3494 bohr

     End of self-consistent calculation

          k = 0.0000 0.0000 0.0000 ( 18029 PWs)   bands (ev):

   -55.1445 -55.1160 -55.1078 -55.0819 -55.0794 -55.0302 -54.9884 -54.9558
   -54.9407 -54.9247 -54.9205 -54.9173 -54.9076 -54.8352 -54.1286 -54.0945
   -31.7074 -31.6057 -31.5234 -31.4803 -31.4600 -31.4551 -31.4449 -31.4428
   -31.4059 -31.3857 -31.3637 -31.3604 -31.3440 -31.3219 -31.3052 -31.2913
   -31.2856 -31.2687 -31.2661 -31.2569 -31.2273 -31.2143 -31.2104 -31.1855
   -31.1787 -31.1729 -31.1634 -31.1579 -31.1561 -31.1489 -31.1373 -31.1353
   -31.1134 -31.1050 -31.1013 -31.0926 -31.0846 -31.0720 -31.0694 -31.0515
   -31.0488 -31.0154 -30.5372 -30.4449 -30.4228 -30.3537 -30.2670 -30.1560
   -19.2622 -18.5677 -15.9614 -15.6965 -15.5655 -15.4000 -15.3362 -15.1651
   -15.0845 -15.0192 -14.9336 -14.8748 -14.8605 -14.8542 -14.7627 -14.7446
   -14.6919 -14.6792 -14.6725 -14.6417 -14.6334 -14.5758 -14.5713 -14.5658
   -14.5320 -14.5192 -14.4895 -14.3717 -14.2910 -14.2341 -14.0235 -13.6694
   -12.6310 -12.5138 -10.0200  -6.8260  -6.4834  -6.3501  -4.0747  -3.9013
    -3.3130  -3.1711  -3.1515  -3.0688  -3.0451  -2.9214  -2.8664  -2.7058
    -2.5976  -2.4999  -2.4101  -2.3405  -2.3325  -2.3041  -2.1872  -2.1251
    -2.0789  -2.0357  -2.0172  -2.0043  -1.9559  -1.9199  -1.9176  -1.8508
    -1.8490  -1.7116  -1.6166  -1.6128  -1.5787  -1.5629  -1.4740  -1.4514
    -1.4414  -1.4356  -1.4292  -1.4218  -1.3873  -1.3426  -1.3177  -1.2328
    -1.1808  -1.1372  -1.0062  -0.9042  -0.8304  -0.7739  -0.6857  -0.6825
    -0.6148  -0.5491  -0.5350  -0.5330  -0.4726  -0.3513  -0.3059  -0.2539
    -0.2338  -0.2090  -0.1192  -0.1022  -0.0322   0.0406   0.0688   0.0789
     0.1005   0.2740   0.2815   0.3110   0.3297   0.4192   0.4714   0.5132
     0.5196   0.5422   0.6086   0.6469   0.7383   0.7858   0.7965   0.8173
     0.8390   0.8782   0.9551   0.9650   1.0059   1.0292   1.1700   1.2059
     1.2595   1.4756   1.4777   1.8070   1.8469   1.8941   2.0803   2.4685
     2.5159   3.9550   4.0447   4.0839   4.0856   4.1046   4.1902   4.3240
     4.4361   4.4467   4.4588   4.4807

[...]

          k = 0.0380-0.0419 0.0000 ( 17876 PWs)   bands (ev):

[...]

          k =-0.0760-0.0000 0.0000 ( 17886 PWs)   bands (ev):

[...]

          k =-0.0760-0.0839 0.0000 ( 17948 PWs)   bands (ev):

   -55.1297 -55.1223 -55.0990 -55.0988 -55.0775 -55.0212 -54.9974 -54.9409
   -54.9344 -54.9260 -54.9249 -54.9240 -54.9141 -54.8386 -54.1116 -54.1114
   -31.5159 -31.5076 -31.4223 -31.4209 -31.4208 -31.4054 -31.3914 -31.3911
   -31.3668 -31.3647 -31.3597 -31.3529 -31.3419 -31.3115 -31.2817 -31.2749
   -31.2743 -31.2738 -31.2693 -31.2637 -31.2567 -31.2387 -31.2244 -31.2219
   -31.2188 -31.2184 -31.2181 -31.1967 -31.1741 -31.1655 -31.1640 -31.1547
   -31.1487 -31.1462 -31.1442 -31.1432 -31.1416 -31.1119 -31.1056 -31.1038
   -31.0894 -31.0589 -30.4355 -30.4354 -30.3498 -30.3496 -30.3104 -30.3103
   -19.2597 -18.5672 -15.4557 -15.2987 -15.2855 -15.1341 -15.1196 -15.1113
   -15.0866 -15.0111 -14.9922 -14.9283 -14.9157 -14.8717 -14.8456 -14.8327
   -14.8217 -14.7285 -14.7211 -14.7149 -14.6990 -14.6484 -14.6363 -14.6192
   -14.5959 -14.5918 -14.5551 -14.4905 -14.4872 -14.4553 -14.2246 -13.6802
   -12.6155 -12.6153 -10.0228  -6.8199  -6.4862  -6.3425  -4.0503  -3.8882
    -2.9337  -2.7207  -2.5279  -2.5067  -2.4641  -2.3669  -2.3258  -2.2851
    -2.1888  -2.1395  -2.1240  -2.1020  -2.0881  -2.0290  -2.0248  -2.0220
    -1.9858  -1.9775  -1.9631  -1.9384  -1.9157  -1.8821  -1.8680  -1.8575
    -1.8447  -1.8054  -1.7858  -1.7573  -1.7443  -1.7150  -1.6986  -1.6285
    -1.5251  -1.4951  -1.4419  -1.3497  -1.3312  -1.3254  -1.2403  -1.2064
    -1.1939  -1.1791  -1.1653  -1.1032  -0.9685  -0.8796  -0.8695  -0.8174
    -0.7520  -0.7181  -0.6757  -0.6485  -0.6208  -0.5668  -0.5170  -0.4926
    -0.4193  -0.3658  -0.3599  -0.3275  -0.1817  -0.1576  -0.1101  -0.1081
    -0.0937  -0.0845   0.0050   0.0218   0.0661   0.0859   0.1258   0.1443
     0.2173   0.2338   0.3532   0.4227   0.4847   0.5910   0.7320   0.7450
     0.8170   0.8781   0.9172   0.9829   1.0406   1.0735   1.1561   1.1661
     1.1822   1.2838   1.3331   1.3397   1.3566   2.2527   2.2543   2.3358
     2.3360   4.1174   4.1400   4.2292   4.2429   4.2951   4.3780   4.4673
     4.4939   4.5287   4.5329   4.6106

     the Fermi energy is     4.0032 ev

!    total energy              =   -2975.20164012 Ry
     estimated scf accuracy    <       0.00000006 Ry
     smearing contrib. (-TS)   =      -0.03820495 Ry
     internal energy E=F+TS    =   -2975.16343518 Ry

     The total energy is F=E-TS. E is the sum of the following terms:
     one-electron contribution =  -23645.83913453 Ry
     hartree contribution      =   11921.10110304 Ry
     xc contribution           =    -494.97130201 Ry
     ewald contribution        =    9244.54207157 Ry
     electric field correction =       0.00382675 Ry

     convergence has been achieved in  87 iterations

     Forces acting on atoms (cartesian axes, Ry/au):

     atom    1 type  1   force =     0.00013933   -0.00013130    0.09419056
     atom    2 type  1   force =    -0.00023338   -0.00026342   -0.17731159
     atom    3 type  2   force =     0.00001593   -0.00026137   -0.02172276
     atom    4 type  2   force =    -0.00004271   -0.00184557    0.05694550
     atom    5 type  2   force =    -0.01107251   -0.00172007    0.00687414
     atom    6 type  2   force =     0.01215934   -0.00091251    0.00494033
     atom    7 type  1   force =    -0.00121778    0.00155896   -0.01220341
     atom    8 type  1   force =     0.00072513    0.00496669    0.00605465
     atom    9 type  2   force =     0.00026531    0.00051076    0.00032477
     atom   10 type  2   force =    -0.00307205   -0.00067244   -0.00503150
     atom   11 type  2   force =     0.00080761    0.00021695   -0.00023718
     atom   12 type  2   force =    -0.00006676    0.00051507    0.00001019
     atom   13 type  1   force =    -0.00021071    0.00010798   -0.00009492
     atom   14 type  1   force =    -0.00001377    0.00011961   -0.00009935
     atom   15 type  2   force =    -0.00006026    0.00004863    0.00026972
     atom   16 type  2   force =     0.00040678    0.00036240   -0.00012038
     atom   17 type  2   force =     0.00015107   -0.00016915    0.00041092
     atom   18 type  2   force =     0.00011522   -0.00021004    0.00016085
     atom   19 type  1   force =     0.00028745    0.00047530   -0.00003602
     atom   20 type  1   force =     0.00004158    0.00047658    0.00018814
     atom   21 type  2   force =     0.00004857    0.00002736    0.10366405
     atom   22 type  2   force =     0.00055201   -0.00001313   -0.00017762
     atom   23 type  2   force =    -0.07080815   -0.00008620   -0.02719229
     atom   24 type  2   force =     0.07064196    0.00039786   -0.02722999
     atom   25 type  1   force =    -0.00006309   -0.00027807    0.09391369
     atom   26 type  1   force =    -0.00030815   -0.00035485   -0.17748075
     atom   27 type  2   force =     0.00000782   -0.00022858   -0.02076765
     atom   28 type  2   force =     0.00003461   -0.00148565    0.05597438
     atom   29 type  2   force =    -0.01134533   -0.00053274    0.00691115
     atom   30 type  2   force =     0.01230400   -0.00025475    0.00492746
     atom   31 type  1   force =    -0.00121415    0.00505548   -0.01498714
     atom   32 type  1   force =     0.00092418   -0.00601853    0.00588410
     atom   33 type  2   force =     0.00035550   -0.00013397    0.00011909
     atom   34 type  2   force =    -0.00261113   -0.00151210   -0.00573766
     atom   35 type  2   force =     0.00036182    0.00029950   -0.00030214
     atom   36 type  2   force =     0.00044626    0.00040323   -0.00006483
     atom   37 type  1   force =    -0.00016165   -0.00015823   -0.00017711
     atom   38 type  1   force =     0.00004447    0.00032846    0.00044251
     atom   39 type  2   force =     0.00007836    0.00084542   -0.00076517
     atom   40 type  2   force =     0.00003799   -0.00008626    0.00002897
     atom   41 type  2   force =     0.00092732    0.00039701    0.00044258
     atom   42 type  2   force =    -0.00083956    0.00019746   -0.00017759
     atom   43 type  1   force =     0.00040124   -0.00096645    0.00027250
     atom   44 type  1   force =     0.00014978   -0.00002586   -0.00050776
     atom   45 type  2   force =     0.00002007   -0.00002097    0.10366256
     atom   46 type  2   force =    -0.07080082   -0.00000628   -0.02720719
     atom   47 type  2   force =     0.07062808    0.00039925   -0.02720350
     atom   48 type  3   force =    -0.00072549    0.00012924    0.00027578
     atom   49 type  3   force =     0.00029581    0.00008171   -0.00082044
     atom   50 type  4   force =     0.00024760   -0.00014507    0.00014346
     atom   51 type  5   force =    -0.00011073   -0.00009988    0.00018602
     atom   52 type  5   force =     0.00030983   -0.00063760   -0.00018601
     atom   53 type  5   force =    -0.00051088    0.00064913    0.00037481
     atom   54 type  5   force =     0.00091145    0.00047510    0.00018302
     atom   55 type  2   force =    -0.00219451   -0.00584356    0.00302038
     atom   56 type  5   force =     0.00074865   -0.00048023   -0.00038950
     atom   57 type  5   force =     0.00209143    0.00650968   -0.00256485

     Total force =     0.365792     Total SCF correction =     0.000896
  @ DRIVER MODE: Message from server: STATUS
  @ DRIVER MODE: Message from server: GETFORCE
  @ DRIVER MODE: Returning v,forces,stress,ensemble

     Writing output data file ./calc.save/
  @ DRIVER MODE: Message from server: EXIT
  @ DRIVE MODE: Exiting

     General routines

     Parallel routines

   This run was terminated on:  13:40: 7  23Sep2021

   JOB DONE.