     Program PWSCF v.6.7GPU starts on 16Sep2021 at  2:49:12

     R & G space division:  proc/nbgrp/npool/nimage =      10
     Reading input from /storage/home/hcoda1/3/ntian30/research/carbon/CxH_vib/H2O_calc/ads_slab/CHNHH2O_a/out_0034/pw.inp
Warning: card &CELL ignored
Warning: card   CELL_DYNAMICS='IPI', ignored
Warning: card / ignored

     Current dimensions of program PWSCF are:
     Max number of different atomic species (ntypx) = 10
     Max number of k-points (npk) =  40000
     Max angular momentum in pseudopotentials (lmaxx) =  3
     Presently no symmetry can be used with electric field

     Message from routine cell_base_init:
     DEPRECATED: use true lattice parameter, not A to a.u. conversion factor

     IMPORTANT: XC functional enforced from input :
     Exchange-correlation= BEEF-VDW
                           (   1   4  43  14   2   0   0)
     Any further DFT definition will be discarded
     Please, verify this is what you really want

  @ DRIVER MODE: Connecting to
 qe_1139763_2852628.sched-torque.pace.gatech.edugt36uf2s_scratch
  using UNIX socket
  @ DRIVER MODE: Message from server: STATUS
  @ DRIVER MODE: Message from server: INIT
  @ DRIVER MODE: Receiving replica           0          -1
  @ DRIVER MODE: Receiving encoded integer          25
  @ DRIVER MODE:  SCF:  T  FORCE:  T  STRESS:  F  VC:  F  ENSEMBLE:  F
  @ DRIVER MODE:  SCF:  T  FORCE:  T  STRESS:  F  VC:  F  ENSEMBLE:  F

     Using Slab Decomposition

     bravais-lattice index     =            0
     lattice parameter (alat)  =       1.8897  a.u.
     unit-cell volume          =    6658.9804 (a.u.)^3
     number of atoms/cell      =           54
     number of atomic types    =            5
     number of electrons       =       397.00
     number of Kohn-Sham states=          208
     kinetic-energy cutoff     =      29.3995  Ry
     charge density cutoff     =     293.9946  Ry
     scf convergence threshold =      7.3E-08
     mixing beta               =       0.0500
     number of iterations used =            8  plain     mixing
     Exchange-correlation= BEEF-VDW
                           (   1   4  43  14   2   0   0)

     celldm(1)=   1.889726  celldm(2)=   0.000000  celldm(3)=   0.000000
     celldm(4)=   0.000000  celldm(5)=   0.000000  celldm(6)=   0.000000

     crystal axes: (cart. coord. in units of alat)
               a(1) = (   6.579727   0.000000   0.000000 )
               a(2) = (  -0.000775   5.961596   0.000000 )
               a(3) = (   0.000000   0.000000  25.155947 )

     reciprocal axes: (cart. coord. in units 2 pi/alat)
               b(1) = (  0.151982  0.000020  0.000000 )
               b(2) = (  0.000000  0.167740  0.000000 )
               b(3) = (  0.000000  0.000000  0.039752 )

     PseudoPot. # 1 for Ti read from file:
     /storage/coda1/p-amedford6/0/shared/rich_project_chbe-medford/medford-share/data/pseudos_module/espresso/nninc/pbe/van/Ti.UPF
     MD5 check sum: 8e4df49b7f0d34bbd5052bf3f5ea0213
     Pseudo is Ultrasoft, Zval = 12.0
     Generated by new atomic code, or converted to UPF format
     Using radial grid of  851 points,  6 beta functions with:
                l(1) =   0
                l(2) =   0
                l(3) =   1
                l(4) =   1
                l(5) =   2
                l(6) =   2
     Q(r) pseudized with  8 coefficients,  rinner =    1.000   1.000   1.000
                                                       1.000   1.000

     PseudoPot. # 2 for O  read from file:
     /storage/coda1/p-amedford6/0/shared/rich_project_chbe-medford/medford-share/data/pseudos_module/espresso/nninc/pbe/van/O.UPF
     MD5 check sum: 78c19812648e8988a0fe644b0f25305e
     Pseudo is Ultrasoft, Zval =  6.0
     Generated by new atomic code, or converted to UPF format
     Using radial grid of  737 points,  4 beta functions with:
                l(1) =   0
                l(2) =   0
                l(3) =   1
                l(4) =   1
     Q(r) pseudized with  8 coefficients,  rinner =    0.800   0.800   0.800

     PseudoPot. # 3 for N  read from file:
     /storage/coda1/p-amedford6/0/shared/rich_project_chbe-medford/medford-share/data/pseudos_module/espresso/nninc/pbe/van/N.UPF
     MD5 check sum: 90d10febe142ad51ac9d5be1deb811c4
     Pseudo is Ultrasoft, Zval =  5.0
     Generated by new atomic code, or converted to UPF format
     Using radial grid of  729 points,  4 beta functions with:
                l(1) =   0
                l(2) =   0
                l(3) =   1
                l(4) =   1
     Q(r) pseudized with  8 coefficients,  rinner =    0.800   0.800   0.800

     PseudoPot. # 4 for C  read from file:
     /storage/coda1/p-amedford6/0/shared/rich_project_chbe-medford/medford-share/data/pseudos_module/espresso/nninc/pbe/van/C.UPF
     MD5 check sum: 1a69bf6b8db32088f5b2163dbdb77a27
     Pseudo is Ultrasoft, Zval =  4.0
     Generated by new atomic code, or converted to UPF format
     Using radial grid of  721 points,  4 beta functions with:
                l(1) =   0
                l(2) =   0
                l(3) =   1
                l(4) =   1
     Q(r) pseudized with  8 coefficients,  rinner =    0.800   0.800   0.800

     PseudoPot. # 5 for H  read from file:
     /storage/coda1/p-amedford6/0/shared/rich_project_chbe-medford/medford-share/data/pseudos_module/espresso/nninc/pbe/van/H.UPF
     MD5 check sum: b5ee9d7bfd3a09ee7748110bda690ff7
     Pseudo is Ultrasoft, Zval =  1.0
     Generated by new atomic code, or converted to UPF format
     Using radial grid of  615 points,  1 beta functions with:
                l(1) =   0
     Q(r) pseudized with  8 coefficients,  rinner =    0.800

     atomic species   valence    mass     pseudopotential
        Ti1           12.00    47.86700     Ti( 1.00)
        O1             6.00    15.99900     O ( 1.00)
        N1             5.00    14.00700     N ( 1.00)
        C1             4.00    12.01100     C ( 1.00)
        H1             1.00     1.00800     H ( 1.00)

     No symmetry found

   Cartesian axes

     site n.     atom                  positions (alat units)
         1           Ti1 tau(   1) = (   0.0004258   2.9801865   6.0000000  )
         2           Ti1 tau(   2) = (   3.2906075   1.4906267   6.0002472  )
         3           O1  tau(   3) = (   0.0006271   0.0005054   7.9858123  )
         4           O1  tau(   4) = (   3.2906025   0.0005020   7.3038282  )
         5           O1  tau(   5) = (   4.5942328   1.4918067   9.2879030  )
         6           O1  tau(   6) = (   1.9868534   1.4903216   9.2879459  )
         7           Ti1 tau(   7) = (   3.2907910   2.8959150   9.1758416  )
         8           Ti1 tau(   8) = (   0.0015273   1.4827037   9.2680791  )
         9           O1  tau(   9) = (   3.2914171   5.9475995  11.3455371  )
        10           O1  tau(  10) = (   0.0116148   5.9584955  10.6183126  )
        11           O1  tau(  11) = (   1.3057669   1.4807986  12.6390077  )
        12           O1  tau(  12) = (   5.3035249   1.4749620  12.6227664  )
        13           Ti1 tau(  13) = (   6.5294082   2.9362577  12.6231083  )
        14           Ti1 tau(  14) = (   3.2175537   1.4615748  12.5070279  )
        15           O1  tau(  15) = (   6.5585639   5.9474800  14.6380151  )
        16           O1  tau(  16) = (   3.3125803   5.9531145  13.9695519  )
        17           O1  tau(  17) = (   4.5393379   1.5011389  16.1071157  )
        18           O1  tau(  18) = (   2.0094023   1.5044898  16.0307267  )
        19           Ti1 tau(  19) = (   3.2760958   2.9523363  15.6877793  )
        20           Ti1 tau(  20) = (   0.0277933   1.3451898  16.0452527  )
        21           O1  tau(  21) = (   3.2904802   0.0005063   4.7018136  )
        22           O1  tau(  22) = (   0.0198929   5.9263875  17.1601691  )
        23           O1  tau(  23) = (   1.3043587   1.4918075   6.0039043  )
        24           O1  tau(  24) = (   5.2767064   1.4903225   6.0039473  )
        25           Ti1 tau(  25) = (   0.0000382   5.9609847   6.0000000  )
        26           Ti1 tau(  26) = (   3.2902200   4.4714249   6.0002472  )
        27           O1  tau(  27) = (   0.0002396   2.9813036   7.9858123  )
        28           O1  tau(  28) = (   3.2902150   2.9813002   7.3038282  )
        29           O1  tau(  29) = (   4.5938453   4.4726049   9.2879030  )
        30           O1  tau(  30) = (   1.9864658   4.4711199   9.2879459  )
        31           Ti1 tau(  31) = (   3.2891106   5.8743827   9.1763621  )
        32           Ti1 tau(  32) = (   0.0006254   4.4649316   9.2693709  )
        33           O1  tau(  33) = (   3.2862706   2.9662616  11.3468726  )
        34           O1  tau(  34) = (   0.0092240   2.9805883  10.6323155  )
        35           O1  tau(  35) = (   1.3102706   4.4726941  12.6361575  )
        36           O1  tau(  36) = (   5.3014905   4.4644878  12.6181669  )
        37           Ti1 tau(  37) = (   6.5311680   5.9227251  12.5202533  )
        38           Ti1 tau(  38) = (   3.2191334   4.4553394  12.5017427  )
        39           O1  tau(  39) = (   6.5614274   2.9920157  14.6796082  )
        40           O1  tau(  40) = (   3.3146075   2.9603188  13.8993185  )
        41           O1  tau(  41) = (   4.5484517   4.4144432  16.0509510  )
        42           O1  tau(  42) = (   2.0146171   4.4214036  15.9967612  )
        43           Ti1 tau(  43) = (   3.3303817   5.9274347  15.8100502  )
        44           Ti1 tau(  44) = (   0.0273359   4.4939047  15.8144843  )
        45           O1  tau(  45) = (   3.2900926   2.9813045   4.7018136  )
        46           O1  tau(  46) = (   1.3039711   4.4726057   6.0039043  )
        47           O1  tau(  47) = (   5.2763189   4.4711207   6.0039473  )
        48           N1  tau(  48) = (   6.5134970   2.9613368  17.6459670  )
        49           C1  tau(  49) = (   0.7931072   3.0267964  18.6255283  )
        50           H1  tau(  50) = (   1.8307262   2.9311331  18.2395185  )
        51           H1  tau(  51) = (   5.5494773   3.0666896  17.9713127  )
        52           O1  tau(  52) = (   3.1855344   5.8058271  18.1612476  )
        53           H1  tau(  53) = (   3.8461454   0.3122996  18.7034462  )
        54           H1  tau(  54) = (   2.3120581   0.0053998  18.5533318  )

     number of k points=    10  Fermi-Dirac smearing, width (Ry)=  0.0073
                       cart. coord. in units 2pi/alat
        k(    1) = (   0.0000000   0.0000000   0.0000000), wk =   0.1250000
        k(    2) = (   0.0000000   0.0419351   0.0000000), wk =   0.2500000
        k(    3) = (   0.0000000  -0.0838702   0.0000000), wk =   0.1250000
        k(    4) = (   0.0379955   0.0000049   0.0000000), wk =   0.2500000
        k(    5) = (   0.0379955   0.0419400   0.0000000), wk =   0.2500000
        k(    6) = (   0.0379955  -0.0838652   0.0000000), wk =   0.2500000
        k(    7) = (   0.0379955  -0.0419301   0.0000000), wk =   0.2500000
        k(    8) = (  -0.0759910  -0.0000099   0.0000000), wk =   0.1250000
        k(    9) = (  -0.0759910   0.0419252   0.0000000), wk =   0.2500000
        k(   10) = (  -0.0759910  -0.0838800   0.0000000), wk =   0.1250000

     Initial potential from superposition of free atoms

     starting charge  380.99916, renormalised to  397.00000

     negative rho (up, down):  1.755E-02 0.000E+00

     %%%%%%%%%%%%%%%%%%%%%%%%%%%%%%%%%%%%%%%%%%%%%%%%%%%%%%%%%%%%%%%%%%%%%%%%
     %                                                                      %
     % You are using vdW-DF, which was implemented by the Thonhauser group. %
     % Please cite the following two papers that made this development      %
     % possible and the two reviews that describe the various versions:     %
     %                                                                      %
     %   T. Thonhauser et al., PRL 115, 136402 (2015).                      %
     %   T. Thonhauser et al., PRB 76, 125112 (2007).                       %
     %   K. Berland et al., Rep. Prog. Phys. 78, 066501 (2015).             %
     %   D.C. Langreth et al., J. Phys.: Condens. Matter 21, 084203 (2009). %
     %                                                                      %
     %                                                                      %
     % If you are calculating the stress with vdW-DF, please also cite:     %
     %                                                                      %
     %   R. Sabatini et al., J. Phys.: Condens. Matter 24, 424209 (2012).   %
     %                                                                      %
     %%%%%%%%%%%%%%%%%%%%%%%%%%%%%%%%%%%%%%%%%%%%%%%%%%%%%%%%%%%%%%%%%%%%%%%%

     Adding external electric field

     Computed dipole along edir(3) :
        Dipole               -9.1667 Ry au,        -23.2993 Debye
        Dipole field         -0.0173 Ry au,

        Potential amp.        1.6036 Ry
        Total length         46.3494 bohr

     Starting wfcs are  300 atomic wfcs
  @ DRIVER MODE: Message from server: STATUS
  @ DRIVER MODE: Message from server: POSDATA
  @ DRIVER MODE: Reading and sharing cell
  @ DRIVER MODE: Reading and sharing positions
  @ DRIVER MODE: Received positions

     Self-consistent Calculation

     iteration #  1     ecut=    29.40 Ry     beta= 0.05
     Davidson diagonalization with overlap
     c_bands:  1 eigenvalues not converged
     c_bands:  1 eigenvalues not converged
     c_bands:  1 eigenvalues not converged
     c_bands:  1 eigenvalues not converged
     c_bands:  1 eigenvalues not converged
     c_bands:  1 eigenvalues not converged
     c_bands:  1 eigenvalues not converged
     c_bands:  1 eigenvalues not converged
     c_bands:  1 eigenvalues not converged
     ethr =  1.00E-05,  avg # of iterations = 19.8

[...]

     total energy              =   -2547.28071338 Ry
     estimated scf accuracy    <    4504.90340375 Ry

     iteration #  2     ecut=    29.40 Ry     beta= 0.05
     Davidson diagonalization with overlap
     ethr =  1.00E-02,  avg # of iterations = 26.0

[...]

     iteration # 75     ecut=    29.40 Ry     beta= 0.05
     Davidson diagonalization with overlap
     c_bands:  1 eigenvalues not converged
     ethr =  3.29E-11,  avg # of iterations = 12.5

[...]

     total energy              =   -2952.61569174 Ry
     estimated scf accuracy    <       0.00000012 Ry

     iteration # 76     ecut=    29.40 Ry     beta= 0.05
     Davidson diagonalization with overlap
     ethr =  3.10E-11,  avg # of iterations =  5.0

     negative rho (up, down):  1.616E-02 0.000E+00

     Adding external electric field

     Computed dipole along edir(3) :
        Dipole                0.4067 Ry au,          1.0338 Debye
        Dipole field          0.0008 Ry au,

        Potential amp.       -0.0711 Ry
        Total length         46.3494 bohr

     End of self-consistent calculation

          k = 0.0000 0.0000 0.0000 ( 18029 PWs)   bands (ev):

   -56.0241 -55.9997 -55.9926 -55.9900 -55.9634 -55.8698 -55.8373 -55.8284
   -55.8249 -55.8116 -55.8031 -55.7781 -55.7484 -55.5789 -55.0095 -54.9755
   -32.5455 -32.5079 -32.4011 -32.3692 -32.3363 -32.3162 -32.3071 -32.3015
   -32.2675 -32.2367 -32.2250 -32.2184 -32.2089 -32.1964 -32.1787 -32.1765
   -32.1519 -32.1297 -32.1285 -32.1252 -32.0924 -32.0813 -32.0725 -32.0401
   -32.0294 -32.0278 -32.0240 -32.0198 -32.0168 -32.0114 -31.9968 -31.9859
   -31.9837 -31.9824 -31.9703 -31.9643 -31.9606 -31.9421 -31.9226 -31.8397
   -31.8227 -31.7359 -31.4169 -31.3278 -31.3054 -31.2337 -31.1471 -31.0360
   -19.2091 -16.7566 -16.5164 -16.3416 -16.2014 -16.1706 -15.9539 -15.8522
   -15.7813 -15.7271 -15.6579 -15.6064 -15.5723 -15.5630 -15.5462 -15.5229
   -15.5029 -15.4801 -15.4571 -15.4451 -15.4387 -15.3966 -15.3892 -15.3732
   -15.3546 -15.2484 -15.1845 -15.1603 -15.1149 -15.0918 -14.7384 -13.5116
   -13.3951  -7.8689  -7.0519  -4.1548  -4.0601  -3.9852  -3.9442  -3.9293
    -3.7732  -3.6950  -3.5459  -3.5184  -3.3080  -3.2756  -3.2206  -3.1954
    -3.1339  -3.0720  -2.9769  -2.9331  -2.8565  -2.8403  -2.8278  -2.8048
    -2.7848  -2.7682  -2.7279  -2.6642  -2.5941  -2.5602  -2.4469  -2.4211
    -2.4143  -2.3468  -2.3396  -2.3280  -2.3147  -2.2832  -2.2612  -2.2582
    -2.1870  -2.1547  -2.0843  -2.0324  -1.9714  -1.8532  -1.7024  -1.6398
    -1.5892  -1.5280  -1.5038  -1.4680  -1.4458  -1.4218  -1.3627  -1.3046
    -1.2399  -1.2280  -1.1573  -1.0651  -0.9934  -0.9547  -0.8850  -0.8237
    -0.8021  -0.7741  -0.7659  -0.7572  -0.7079  -0.5356  -0.4796  -0.4660
    -0.4262  -0.3434  -0.3128  -0.3031  -0.2540  -0.2459  -0.2059  -0.1171
    -0.0981  -0.0631  -0.0452  -0.0317   0.0013   0.0207   0.1758   0.1966
     0.2389   0.2604   0.3629   0.4692   0.5360   0.6235   0.7179   0.9369
     1.0129   1.0899   1.2039   1.5850   1.6310   2.7800   3.1041   3.1928
     3.2309   3.2369   3.2711   3.3417   3.5582   3.5892   3.6065   3.6626

[...]

          k = 0.0380-0.0419 0.0000 ( 17876 PWs)   bands (ev):

[...]

          k =-0.0760-0.0000 0.0000 ( 17886 PWs)   bands (ev):

[...]

          k =-0.0760-0.0839 0.0000 ( 17948 PWs)   bands (ev):

   -56.0077 -56.0062 -55.9912 -55.9835 -55.9790 -55.8606 -55.8377 -55.8266
   -55.8208 -55.8189 -55.7955 -55.7944 -55.7468 -55.5804 -54.9926 -54.9923
   -32.3593 -32.3435 -32.3237 -32.3227 -32.3022 -32.3010 -32.2800 -32.2720
   -32.2526 -32.2198 -32.2048 -32.2004 -32.1959 -32.1745 -32.1468 -32.1418
   -32.1371 -32.1349 -32.1332 -32.1317 -32.1308 -32.1279 -32.1272 -32.1256
   -32.0787 -32.0595 -32.0507 -32.0391 -32.0272 -32.0248 -32.0236 -32.0217
   -32.0212 -32.0105 -32.0087 -31.9985 -31.9921 -31.9778 -31.9722 -31.8436
   -31.8277 -31.8228 -31.3182 -31.3179 -31.2298 -31.2294 -31.1905 -31.1903
   -19.2082 -16.2156 -16.0959 -16.0413 -15.9483 -15.9228 -15.9084 -15.8344
   -15.7820 -15.7287 -15.7192 -15.6951 -15.6809 -15.6733 -15.6146 -15.5862
   -15.5619 -15.5509 -15.5074 -15.4946 -15.4867 -15.4729 -15.4709 -15.4647
   -15.4210 -15.3897 -15.3527 -15.3487 -15.2094 -15.1007 -15.0104 -13.4970
   -13.4966  -7.8783  -7.0533  -3.9135  -3.6482  -3.4936  -3.3166  -3.2659
    -3.1670  -3.1549  -3.1239  -3.1036  -2.9945  -2.9349  -2.9221  -2.9004
    -2.8596  -2.8499  -2.8432  -2.8382  -2.8038  -2.8022  -2.7655  -2.7470
    -2.7149  -2.7016  -2.6958  -2.6890  -2.6651  -2.6456  -2.6060  -2.5910
    -2.5749  -2.5448  -2.5073  -2.3742  -2.3048  -2.2272  -2.2202  -2.1797
    -2.1670  -2.1476  -2.1042  -2.0865  -2.0591  -1.9781  -1.9026  -1.7483
    -1.7302  -1.7064  -1.6759  -1.6148  -1.5225  -1.4976  -1.4696  -1.4234
    -1.4060  -1.3482  -1.3272  -1.2967  -1.2412  -1.1787  -1.1411  -1.1135
    -1.0688  -1.0036  -0.9834  -0.9615  -0.9488  -0.8875  -0.7794  -0.7727
    -0.7670  -0.7173  -0.7020  -0.6724  -0.6518  -0.5596  -0.4802  -0.4202
    -0.3234  -0.1592  -0.0790   0.0185   0.0557   0.1004   0.1452   0.1868
     0.2838   0.2858   0.3583   0.3886   0.4062   0.4883   0.4993   0.5223
     0.6829   1.3755   1.3767   1.4505   1.4511   2.8148   3.3615   3.4079
     3.4420   3.4887   3.5915   3.6116   3.6402   3.6420   3.7204   3.7688

     the Fermi energy is     3.1073 ev

!    total energy              =   -2952.61570348 Ry
     estimated scf accuracy    <       0.00000005 Ry
     smearing contrib. (-TS)   =      -0.02583957 Ry
     internal energy E=F+TS    =   -2952.58986391 Ry

     The total energy is F=E-TS. E is the sum of the following terms:
     one-electron contribution =  -24509.44817028 Ry
     hartree contribution      =   12341.91227843 Ry
     xc contribution           =    -487.95845985 Ry
     ewald contribution        =    9702.90417562 Ry
     electric field correction =       0.00031217 Ry

     convergence has been achieved in  76 iterations

     Forces acting on atoms (cartesian axes, Ry/au):

     atom    1 type  1   force =    -0.00003384   -0.00030006    0.09593139
     atom    2 type  1   force =     0.00005545   -0.00049217   -0.17612012
     atom    3 type  2   force =     0.00010451   -0.00009809   -0.02431499
     atom    4 type  2   force =     0.00000841   -0.00163474    0.05391305
     atom    5 type  2   force =    -0.01178522   -0.00141467    0.00394196
     atom    6 type  2   force =     0.01321322   -0.00102352    0.00318383
     atom    7 type  1   force =     0.00034568    0.00068524   -0.00764779
     atom    8 type  1   force =     0.00026739    0.01496150    0.02334055
     atom    9 type  2   force =    -0.00004992    0.00018763    0.00011411
     atom   10 type  2   force =    -0.00219306    0.00049809   -0.01743309
     atom   11 type  2   force =     0.00046631   -0.00026910   -0.00021332
     atom   12 type  2   force =    -0.00083364   -0.00017747    0.00000448
     atom   13 type  1   force =     0.00046157    0.00044457    0.00005211
     atom   14 type  1   force =    -0.00018992    0.00003396    0.00088671
     atom   15 type  2   force =    -0.00013388   -0.00002593   -0.00075345
     atom   16 type  2   force =     0.00000605    0.00052015   -0.00027307
     atom   17 type  2   force =    -0.00049513    0.00028373    0.00011876
     atom   18 type  2   force =     0.00026414    0.00020258   -0.00024144
     atom   19 type  1   force =     0.00070818    0.00062121   -0.00044653
     atom   20 type  1   force =    -0.00052204    0.00033302   -0.00003445
     atom   21 type  2   force =     0.00006419   -0.00000186    0.10332868
     atom   22 type  2   force =    -0.00026599   -0.00017820    0.00058526
     atom   23 type  2   force =    -0.07136150   -0.00010679   -0.02762904
     atom   24 type  2   force =     0.07128165    0.00034164   -0.02769914
     atom   25 type  1   force =     0.00024127   -0.00029661    0.09576379
     atom   26 type  1   force =     0.00011441   -0.00029152   -0.17604807
     atom   27 type  2   force =     0.00014044   -0.00029003   -0.02321185
     atom   28 type  2   force =     0.00000096   -0.00132442    0.05367095
     atom   29 type  2   force =    -0.01213129    0.00039918    0.00378640
     atom   30 type  2   force =     0.01351813    0.00101374    0.00303037
     atom   31 type  1   force =     0.00024614    0.00375328   -0.01143748
     atom   32 type  1   force =     0.00044567   -0.01662456    0.02315515
     atom   33 type  2   force =     0.00017787    0.00009851   -0.00032831
     atom   34 type  2   force =    -0.00191289   -0.00010412   -0.02071059
     atom   35 type  2   force =     0.00045821    0.00006000    0.00007592
     atom   36 type  2   force =    -0.00087962   -0.00000683    0.00033050
     atom   37 type  1   force =     0.00080840    0.00005271   -0.00028773
     atom   38 type  1   force =     0.00000343    0.00013655    0.00039071
     atom   39 type  2   force =    -0.00025271    0.00043656   -0.00055318
     atom   40 type  2   force =    -0.00039383   -0.00007839   -0.00019672
     atom   41 type  2   force =    -0.00060426    0.00030549    0.00020535
     atom   42 type  2   force =     0.00007787    0.00021856    0.00015221
     atom   43 type  1   force =     0.00034516   -0.00015458    0.00039359
     atom   44 type  1   force =    -0.00009954   -0.00028240    0.00044110
     atom   45 type  2   force =     0.00006732   -0.00000297    0.10330194
     atom   46 type  2   force =    -0.07134428   -0.00004846   -0.02760938
     atom   47 type  2   force =     0.07126581    0.00038178   -0.02768263
     atom   48 type  3   force =     0.00129024    0.00100487    0.00040150
     atom   49 type  4   force =    -0.00028506   -0.00021990   -0.00054657
     atom   50 type  5   force =    -0.00000162   -0.00059467    0.00018784
     atom   51 type  5   force =     0.00018979   -0.00054960    0.00011158
     atom   52 type  2   force =     0.00616048    0.00430473    0.00662052
     atom   53 type  5   force =    -0.00676819   -0.00475110   -0.00538083
     atom   54 type  5   force =    -0.00026094    0.00006343   -0.00062053

     Total force =     0.368093     Total SCF correction =     0.000603
  @ DRIVER MODE: Message from server: STATUS
  @ DRIVER MODE: Message from server: GETFORCE
  @ DRIVER MODE: Returning v,forces,stress,ensemble

     Writing output data file ./calc.save/
  @ DRIVER MODE: Message from server: EXIT
  @ DRIVE MODE: Exiting

     General routines

     Parallel routines

   This run was terminated on:   3: 9:19  16Sep2021

   JOB DONE.