     Program PWSCF v.6.7GPU starts on 15Sep2021 at 22:48:46

     R & G space division:  proc/nbgrp/npool/nimage =      10
     Reading input from /storage/home/hcoda1/3/ntian30/research/carbon/CxH_vib/H2O_calc/ads_slab/CHNHHH2O_a/out_0022/pw.inp
Warning: card &CELL ignored
Warning: card   CELL_DYNAMICS='IPI', ignored
Warning: card / ignored

     Current dimensions of program PWSCF are:
     Max number of different atomic species (ntypx) = 10
     Max number of k-points (npk) =  40000
     Max angular momentum in pseudopotentials (lmaxx) =  3
     Presently no symmetry can be used with electric field

     Message from routine cell_base_init:
     DEPRECATED: use true lattice parameter, not A to a.u. conversion factor

     IMPORTANT: XC functional enforced from input :
     Exchange-correlation= BEEF-VDW
                           (   1   4  43  14   2   0   0)
     Any further DFT definition will be discarded
     Please, verify this is what you really want

  @ DRIVER MODE: Connecting to
 qe_1139763_2852629.sched-torque.pace.gatech.edufm_y9cl9_scratch
  using UNIX socket
  @ DRIVER MODE: Message from server: STATUS
  @ DRIVER MODE: Message from server: INIT
  @ DRIVER MODE: Receiving replica           0          -1
  @ DRIVER MODE: Receiving encoded integer          25
  @ DRIVER MODE:  SCF:  T  FORCE:  T  STRESS:  F  VC:  F  ENSEMBLE:  F
  @ DRIVER MODE:  SCF:  T  FORCE:  T  STRESS:  F  VC:  F  ENSEMBLE:  F

     Using Slab Decomposition

     bravais-lattice index     =            0
     lattice parameter (alat)  =       1.8897  a.u.
     unit-cell volume          =    6658.9804 (a.u.)^3
     number of atoms/cell      =           55
     number of atomic types    =            5
     number of electrons       =       398.00
     number of Kohn-Sham states=          209
     kinetic-energy cutoff     =      29.3995  Ry
     charge density cutoff     =     293.9946  Ry
     scf convergence threshold =      7.3E-08
     mixing beta               =       0.0500
     number of iterations used =            8  plain     mixing
     Exchange-correlation= BEEF-VDW
                           (   1   4  43  14   2   0   0)

     celldm(1)=   1.889726  celldm(2)=   0.000000  celldm(3)=   0.000000
     celldm(4)=   0.000000  celldm(5)=   0.000000  celldm(6)=   0.000000

     crystal axes: (cart. coord. in units of alat)
               a(1) = (   6.579727   0.000000   0.000000 )
               a(2) = (  -0.000775   5.961596   0.000000 )
               a(3) = (   0.000000   0.000000  25.155947 )

     reciprocal axes: (cart. coord. in units 2 pi/alat)
               b(1) = (  0.151982  0.000020  0.000000 )
               b(2) = (  0.000000  0.167740  0.000000 )
               b(3) = (  0.000000  0.000000  0.039752 )

     PseudoPot. # 1 for Ti read from file:
     /storage/coda1/p-amedford6/0/shared/rich_project_chbe-medford/medford-share/data/pseudos_module/espresso/nninc/pbe/van/Ti.UPF
     MD5 check sum: 8e4df49b7f0d34bbd5052bf3f5ea0213
     Pseudo is Ultrasoft, Zval = 12.0
     Generated by new atomic code, or converted to UPF format
     Using radial grid of  851 points,  6 beta functions with:
                l(1) =   0
                l(2) =   0
                l(3) =   1
                l(4) =   1
                l(5) =   2
                l(6) =   2
     Q(r) pseudized with  8 coefficients,  rinner =    1.000   1.000   1.000
                                                       1.000   1.000

     PseudoPot. # 2 for O  read from file:
     /storage/coda1/p-amedford6/0/shared/rich_project_chbe-medford/medford-share/data/pseudos_module/espresso/nninc/pbe/van/O.UPF
     MD5 check sum: 78c19812648e8988a0fe644b0f25305e
     Pseudo is Ultrasoft, Zval =  6.0
     Generated by new atomic code, or converted to UPF format
     Using radial grid of  737 points,  4 beta functions with:
                l(1) =   0
                l(2) =   0
                l(3) =   1
                l(4) =   1
     Q(r) pseudized with  8 coefficients,  rinner =    0.800   0.800   0.800

     PseudoPot. # 3 for N  read from file:
     /storage/coda1/p-amedford6/0/shared/rich_project_chbe-medford/medford-share/data/pseudos_module/espresso/nninc/pbe/van/N.UPF
     MD5 check sum: 90d10febe142ad51ac9d5be1deb811c4
     Pseudo is Ultrasoft, Zval =  5.0
     Generated by new atomic code, or converted to UPF format
     Using radial grid of  729 points,  4 beta functions with:
                l(1) =   0
                l(2) =   0
                l(3) =   1
                l(4) =   1
     Q(r) pseudized with  8 coefficients,  rinner =    0.800   0.800   0.800

     PseudoPot. # 4 for C  read from file:
     /storage/coda1/p-amedford6/0/shared/rich_project_chbe-medford/medford-share/data/pseudos_module/espresso/nninc/pbe/van/C.UPF
     MD5 check sum: 1a69bf6b8db32088f5b2163dbdb77a27
     Pseudo is Ultrasoft, Zval =  4.0
     Generated by new atomic code, or converted to UPF format
     Using radial grid of  721 points,  4 beta functions with:
                l(1) =   0
                l(2) =   0
                l(3) =   1
                l(4) =   1
     Q(r) pseudized with  8 coefficients,  rinner =    0.800   0.800   0.800

     PseudoPot. # 5 for H  read from file:
     /storage/coda1/p-amedford6/0/shared/rich_project_chbe-medford/medford-share/data/pseudos_module/espresso/nninc/pbe/van/H.UPF
     MD5 check sum: b5ee9d7bfd3a09ee7748110bda690ff7
     Pseudo is Ultrasoft, Zval =  1.0
     Generated by new atomic code, or converted to UPF format
     Using radial grid of  615 points,  1 beta functions with:
                l(1) =   0
     Q(r) pseudized with  8 coefficients,  rinner =    0.800

     atomic species   valence    mass     pseudopotential
        Ti1           12.00    47.86700     Ti( 1.00)
        O1             6.00    15.99900     O ( 1.00)
        N1             5.00    14.00700     N ( 1.00)
        C1             4.00    12.01100     C ( 1.00)
        H1             1.00     1.00800     H ( 1.00)

     No symmetry found

   Cartesian axes

     site n.     atom                  positions (alat units)
         1           Ti1 tau(   1) = (   0.0004258   2.9801865   6.0000000  )
         2           Ti1 tau(   2) = (   3.2906075   1.4906267   6.0002472  )
         3           O1  tau(   3) = (   0.0006271   0.0005054   7.9858123  )
         4           O1  tau(   4) = (   3.2906025   0.0005020   7.3038282  )
         5           O1  tau(   5) = (   4.5942328   1.4918067   9.2879030  )
         6           O1  tau(   6) = (   1.9868534   1.4903216   9.2879459  )
         7           Ti1 tau(   7) = (   3.2907910   2.8959150   9.1758416  )
         8           Ti1 tau(   8) = (   0.0015273   1.4827037   9.2680791  )
         9           O1  tau(   9) = (   3.2943807   5.9438157  11.3430345  )
        10           O1  tau(  10) = (   0.0116148   5.9584955  10.6183126  )
        11           O1  tau(  11) = (   1.2953376   1.4759649  12.6292060  )
        12           O1  tau(  12) = (   5.2846356   1.4785235  12.6176154  )
        13           Ti1 tau(  13) = (   0.0556596   2.9564334  12.6140783  )
        14           Ti1 tau(  14) = (   3.3658323   1.4657407  12.4949608  )
        15           O1  tau(  15) = (   6.5664030   0.0209144  14.6477191  )
        16           O1  tau(  16) = (   3.3113265   5.9542485  13.9698242  )
        17           O1  tau(  17) = (   4.5454210   1.5146250  16.1225105  )
        18           O1  tau(  18) = (   2.0305911   1.5113983  16.0894517  )
        19           Ti1 tau(  19) = (   3.2587399   2.9544808  15.6767922  )
        20           Ti1 tau(  20) = (   6.5654577   1.5458692  15.9193722  )
        21           O1  tau(  21) = (   3.2904802   0.0005063   4.7018136  )
        22           O1  tau(  22) = (   0.0418464   5.8849155  17.2380659  )
        23           O1  tau(  23) = (   1.3043587   1.4918075   6.0039043  )
        24           O1  tau(  24) = (   5.2767064   1.4903225   6.0039473  )
        25           Ti1 tau(  25) = (   0.0000382   5.9609847   6.0000000  )
        26           Ti1 tau(  26) = (   3.2902200   4.4714249   6.0002472  )
        27           O1  tau(  27) = (   0.0002396   2.9813036   7.9858123  )
        28           O1  tau(  28) = (   3.2902150   2.9813002   7.3038282  )
        29           O1  tau(  29) = (   4.5938453   4.4726049   9.2879030  )
        30           O1  tau(  30) = (   1.9864658   4.4711199   9.2879459  )
        31           Ti1 tau(  31) = (   3.2891106   5.8743827   9.1763621  )
        32           Ti1 tau(  32) = (   0.0006254   4.4649316   9.2693709  )
        33           O1  tau(  33) = (   3.2978316   2.9705197  11.3397625  )
        34           O1  tau(  34) = (   0.0092240   2.9805883  10.6323155  )
        35           O1  tau(  35) = (   1.2936985   4.4655287  12.6460247  )
        36           O1  tau(  36) = (   5.2856521   4.4646452  12.6308247  )
        37           Ti1 tau(  37) = (   0.0515089   5.9379728  12.5308627  )
        38           Ti1 tau(  38) = (   3.3654372   4.4547101  12.4935900  )
        39           O1  tau(  39) = (   6.5748852   2.9443291  14.6951209  )
        40           O1  tau(  40) = (   3.2957406   2.9584624  13.8938737  )
        41           O1  tau(  41) = (   4.5486474   4.4154460  16.0876977  )
        42           O1  tau(  42) = (   2.0388008   4.4257786  16.0448984  )
        43           Ti1 tau(  43) = (   3.3137362   5.9209902  15.7922403  )
        44           Ti1 tau(  44) = (   0.0032603   4.6697478  15.9558853  )
        45           O1  tau(  45) = (   3.2900926   2.9813045   4.7018136  )
        46           O1  tau(  46) = (   1.3039711   4.4726057   6.0039043  )
        47           O1  tau(  47) = (   5.2763189   4.4711207   6.0039473  )
        48           N1  tau(  48) = (   5.6270067   3.1633449  18.6203826  )
        49           C1  tau(  49) = (   0.0237924   2.7940403  17.7774691  )
        50           H1  tau(  50) = (   0.9584034   2.6460975  18.3247808  )
        51           H1  tau(  51) = (   4.7713523   3.5631088  18.2436842  )
        52           H1  tau(  52) = (   5.8168525   3.4166350  19.5804594  )
        53           O1  tau(  53) = (   3.2115967   5.9081562  18.2546127  )
        54           H1  tau(  54) = (   3.8106726   0.6855978  18.4519937  )
        55           H1  tau(  55) = (   2.3006756   0.2828797  18.3268221  )

     number of k points=    10  Fermi-Dirac smearing, width (Ry)=  0.0073
                       cart. coord. in units 2pi/alat
        k(    1) = (   0.0000000   0.0000000   0.0000000), wk =   0.1250000
        k(    2) = (   0.0000000   0.0419351   0.0000000), wk =   0.2500000
        k(    3) = (   0.0000000  -0.0838702   0.0000000), wk =   0.1250000
        k(    4) = (   0.0379955   0.0000049   0.0000000), wk =   0.2500000
        k(    5) = (   0.0379955   0.0419400   0.0000000), wk =   0.2500000
        k(    6) = (   0.0379955  -0.0838652   0.0000000), wk =   0.2500000
        k(    7) = (   0.0379955  -0.0419301   0.0000000), wk =   0.2500000
        k(    8) = (  -0.0759910  -0.0000099   0.0000000), wk =   0.1250000
        k(    9) = (  -0.0759910   0.0419252   0.0000000), wk =   0.2500000
        k(   10) = (  -0.0759910  -0.0838800   0.0000000), wk =   0.1250000

     Initial potential from superposition of free atoms

     starting charge  381.99915, renormalised to  398.00000

     negative rho (up, down):  1.708E-02 0.000E+00

     %%%%%%%%%%%%%%%%%%%%%%%%%%%%%%%%%%%%%%%%%%%%%%%%%%%%%%%%%%%%%%%%%%%%%%%%
     %                                                                      %
     % You are using vdW-DF, which was implemented by the Thonhauser group. %
     % Please cite the following two papers that made this development      %
     % possible and the two reviews that describe the various versions:     %
     %                                                                      %
     %   T. Thonhauser et al., PRL 115, 136402 (2015).                      %
     %   T. Thonhauser et al., PRB 76, 125112 (2007).                       %
     %   K. Berland et al., Rep. Prog. Phys. 78, 066501 (2015).             %
     %   D.C. Langreth et al., J. Phys.: Condens. Matter 21, 084203 (2009). %
     %                                                                      %
     %                                                                      %
     % If you are calculating the stress with vdW-DF, please also cite:     %
     %                                                                      %
     %   R. Sabatini et al., J. Phys.: Condens. Matter 24, 424209 (2012).   %
     %                                                                      %
     %%%%%%%%%%%%%%%%%%%%%%%%%%%%%%%%%%%%%%%%%%%%%%%%%%%%%%%%%%%%%%%%%%%%%%%%

     Adding external electric field

     Computed dipole along edir(3) :
        Dipole              -10.1352 Ry au,        -25.7611 Debye
        Dipole field         -0.0191 Ry au,

        Potential amp.        1.7730 Ry
        Total length         46.3494 bohr

     Starting wfcs are  301 atomic wfcs
  @ DRIVER MODE: Message from server: STATUS
  @ DRIVER MODE: Message from server: POSDATA
  @ DRIVER MODE: Reading and sharing cell
  @ DRIVER MODE: Reading and sharing positions
  @ DRIVER MODE: Received positions

     Self-consistent Calculation

     iteration #  1     ecut=    29.40 Ry     beta= 0.05
     Davidson diagonalization with overlap
     c_bands:  2 eigenvalues not converged
     c_bands:  1 eigenvalues not converged
     c_bands:  1 eigenvalues not converged
     c_bands:  3 eigenvalues not converged
     c_bands:  1 eigenvalues not converged
     c_bands:  3 eigenvalues not converged
     c_bands:  3 eigenvalues not converged
     c_bands:  3 eigenvalues not converged
     c_bands:  1 eigenvalues not converged
     ethr =  1.00E-05,  avg # of iterations = 19.8

[...]

     total energy              =   -2497.72042745 Ry
     estimated scf accuracy    <    5094.09599673 Ry

     iteration #  2     ecut=    29.40 Ry     beta= 0.05
     Davidson diagonalization with overlap
     ethr =  1.00E-02,  avg # of iterations = 25.9

[...]

     iteration # 48     ecut=    29.40 Ry     beta= 0.05
     Davidson diagonalization with overlap
     c_bands:  1 eigenvalues not converged
     ethr =  9.11E-09,  avg # of iterations = 12.9

[...]

     total energy              =   -2953.88251984 Ry
     estimated scf accuracy    <       0.00000011 Ry

     iteration # 66     ecut=    29.40 Ry     beta= 0.05
     Davidson diagonalization with overlap
     ethr =  2.19E-11,  avg # of iterations =  9.3

     negative rho (up, down):  1.666E-02 0.000E+00

     Adding external electric field

     Computed dipole along edir(3) :
        Dipole                1.2934 Ry au,          3.2876 Debye
        Dipole field          0.0024 Ry au,

        Potential amp.       -0.2263 Ry
        Total length         46.3494 bohr

     End of self-consistent calculation

          k = 0.0000 0.0000 0.0000 ( 18029 PWs)   bands (ev):

   -55.4431 -55.4369 -55.4174 -55.4090 -55.4008 -55.2995 -55.2577 -55.2514
   -55.2359 -55.2345 -55.2168 -55.2011 -54.8590 -54.7676 -54.4298 -54.3958
   -31.9930 -31.9269 -31.8184 -31.7945 -31.7540 -31.7501 -31.7346 -31.7250
   -31.6859 -31.6845 -31.6546 -31.6386 -31.6275 -31.6171 -31.5960 -31.5836
   -31.5744 -31.5488 -31.5453 -31.5096 -31.5008 -31.4982 -31.4646 -31.4525
   -31.4465 -31.4439 -31.4361 -31.4350 -31.4347 -31.4089 -31.4087 -31.4036
   -31.3871 -31.3826 -31.3584 -31.3503 -31.3439 -31.1909 -31.0771 -31.0254
   -30.9653 -30.9292 -30.8373 -30.7479 -30.7256 -30.6540 -30.5675 -30.4564
   -19.0624 -16.4458 -16.2005 -15.9393 -15.7552 -15.6264 -15.5991 -15.4252
   -15.2903 -15.1882 -15.1259 -15.0691 -15.0490 -15.0014 -14.9984 -14.9868
   -14.9838 -14.9529 -14.9049 -14.8838 -14.8639 -14.8226 -14.8135 -14.7969
   -14.7474 -14.7083 -14.6140 -14.5822 -14.5559 -14.5160 -14.0314 -12.9324
   -12.8158  -9.0099  -6.8699  -6.6676  -4.2554  -3.5716  -3.4094  -3.3551
    -3.3456  -3.3208  -3.2310  -3.0922  -2.9547  -2.7215  -2.6594  -2.6235
    -2.5911  -2.5537  -2.4373  -2.3856  -2.3744  -2.3093  -2.2620  -2.2539
    -2.2410  -2.2199  -2.2045  -2.1432  -2.1291  -2.0301  -1.9879  -1.9176
    -1.8575  -1.8257  -1.7752  -1.7602  -1.7165  -1.7135  -1.6984  -1.6795
    -1.6658  -1.6501  -1.5906  -1.5304  -1.4528  -1.2676  -1.2346  -1.1182
    -1.0898  -1.0588  -1.0145  -0.9309  -0.9041  -0.8821  -0.8424  -0.7516
    -0.7255  -0.6788  -0.5902  -0.5006  -0.4543  -0.4288  -0.3492  -0.3136
    -0.2856  -0.2192  -0.2121  -0.2003  -0.1234  -0.0683   0.0375   0.0741
     0.1084   0.1241   0.1383   0.2230   0.2617   0.3191   0.3633   0.4162
     0.4521   0.4668   0.5028   0.5240   0.5389   0.5660   0.5778   0.7607
     0.8018   0.8309   0.8616   0.9472   1.0482   1.1149   1.1983   1.2679
     1.5149   1.5924   1.6455   1.7829   2.1645   2.2108   3.6279   3.7563
     3.7747   3.7929   3.8239   3.8870   3.9497   4.1390   4.1614   4.1829
     4.2110

[...]

          k = 0.0380-0.0419 0.0000 ( 17876 PWs)   bands (ev):

[...]

          k =-0.0760-0.0000 0.0000 ( 17886 PWs)   bands (ev):

[...]

          k =-0.0760-0.0839 0.0000 ( 17948 PWs)   bands (ev):

   -55.4266 -55.4254 -55.4206 -55.4174 -55.4153 -55.2906 -55.2665 -55.2374
   -55.2362 -55.2312 -55.2196 -55.2165 -54.8559 -54.7707 -54.4128 -54.4127
   -31.8025 -31.7919 -31.7426 -31.7418 -31.7272 -31.7205 -31.7194 -31.7030
   -31.6880 -31.6469 -31.6395 -31.6342 -31.6241 -31.6059 -31.5701 -31.5598
   -31.5558 -31.5553 -31.5533 -31.5466 -31.5465 -31.5454 -31.5423 -31.5032
   -31.4823 -31.4766 -31.4653 -31.4522 -31.4469 -31.4427 -31.4405 -31.4405
   -31.4341 -31.4308 -31.4113 -31.4059 -31.2523 -31.1928 -31.0703 -31.0432
   -31.0265 -30.9653 -30.7383 -30.7382 -30.6501 -30.6499 -30.6108 -30.6107
   -19.0613 -16.4351 -15.6904 -15.5612 -15.4326 -15.3750 -15.3696 -15.3108
   -15.3067 -15.1932 -15.1837 -15.1552 -15.1303 -15.1134 -15.0850 -15.0658
   -15.0041 -14.9836 -14.9801 -14.9499 -14.9210 -14.9081 -14.9031 -14.8883
   -14.8846 -14.8305 -14.7746 -14.7714 -14.6601 -14.5571 -14.1881 -12.9177
   -12.9174  -9.0195  -6.8553  -6.6854  -4.2229  -3.2367  -2.9746  -2.7935
    -2.6880  -2.6319  -2.5686  -2.5499  -2.3836  -2.3685  -2.3585  -2.3216
    -2.3052  -2.2839  -2.2736  -2.2689  -2.2422  -2.2306  -2.2124  -2.1806
    -2.1479  -2.1298  -2.1216  -2.1154  -2.0989  -2.0801  -2.0573  -2.0362
    -2.0305  -2.0050  -1.9651  -1.9395  -1.8808  -1.7464  -1.7093  -1.6687
    -1.5991  -1.5925  -1.5386  -1.5225  -1.4954  -1.4677  -1.4041  -1.3808
    -1.2335  -1.1683  -1.1524  -1.1360  -1.1219  -1.0003  -0.9596  -0.8906
    -0.8643  -0.7950  -0.7645  -0.7526  -0.7059  -0.6045  -0.5916  -0.5397
    -0.5278  -0.4313  -0.4087  -0.3976  -0.3627  -0.3181  -0.2496  -0.2089
    -0.1941  -0.1845  -0.1513  -0.1443  -0.1040   0.0163   0.0762   0.1378
     0.2093   0.3137   0.4236   0.4361   0.5849   0.6115   0.6255   0.7309
     0.8174   0.8478   0.8677   0.8957   0.8984   1.0228   1.0703   1.0800
     1.0816   1.2324   1.9545   1.9559   2.0303   2.0308   3.7357   3.9361
     3.9572   3.9992   4.0456   4.1771   4.1860   4.2203   4.2216   4.3060
     4.3377

     the Fermi energy is     3.6873 ev

!    total energy              =   -2953.88255053 Ry
     estimated scf accuracy    <       0.00000005 Ry
     smearing contrib. (-TS)   =      -0.03289506 Ry
     internal energy E=F+TS    =   -2953.84965547 Ry

     The total energy is F=E-TS. E is the sum of the following terms:
     one-electron contribution =  -24258.40714172 Ry
     hartree contribution      =   12222.74667593 Ry
     xc contribution           =    -488.84009883 Ry
     ewald contribution        =    9570.64775208 Ry
     electric field correction =       0.00315707 Ry

     convergence has been achieved in  66 iterations

     Forces acting on atoms (cartesian axes, Ry/au):

     atom    1 type  1   force =     0.00020833   -0.00020215    0.09615732
     atom    2 type  1   force =    -0.00010992   -0.00027489   -0.17605857
     atom    3 type  2   force =     0.00002685    0.00001876   -0.02487737
     atom    4 type  2   force =     0.00003396   -0.00160191    0.05418572
     atom    5 type  2   force =    -0.01181382   -0.00148208    0.00427088
     atom    6 type  2   force =     0.01357023   -0.00071205    0.00347928
     atom    7 type  1   force =    -0.00083348    0.00087281   -0.01027525
     atom    8 type  1   force =     0.00025501    0.01223127    0.02351590
     atom    9 type  2   force =    -0.00035661   -0.00008053   -0.00023380
     atom   10 type  2   force =    -0.00088221   -0.00045162   -0.01484313
     atom   11 type  2   force =     0.00041430    0.00008689    0.00017426
     atom   12 type  2   force =    -0.00040532   -0.00007394    0.00002254
     atom   13 type  1   force =    -0.00065578   -0.00007388   -0.00155961
     atom   14 type  1   force =     0.00058598    0.00018973    0.00033416
     atom   15 type  2   force =     0.00057691    0.00042987    0.00009547
     atom   16 type  2   force =    -0.00028192    0.00005187    0.00035007
     atom   17 type  2   force =    -0.00015812   -0.00032820   -0.00051562
     atom   18 type  2   force =     0.00012300   -0.00013513   -0.00008707
     atom   19 type  1   force =     0.00081577   -0.00005407    0.00068269
     atom   20 type  1   force =    -0.00043308   -0.00057244    0.00007578
     atom   21 type  2   force =     0.00006192    0.00004391    0.10335686
     atom   22 type  2   force =     0.00035777    0.00078341   -0.00023308
     atom   23 type  2   force =    -0.07130551   -0.00008043   -0.02764664
     atom   24 type  2   force =     0.07126198    0.00036147   -0.02768326
     atom   25 type  1   force =    -0.00006200   -0.00014124    0.09567191
     atom   26 type  1   force =    -0.00020115   -0.00031300   -0.17600361
     atom   27 type  2   force =     0.00012423   -0.00039983   -0.02388275
     atom   28 type  2   force =     0.00009646   -0.00126769    0.05365103
     atom   29 type  2   force =    -0.01204604    0.00045287    0.00379816
     atom   30 type  2   force =     0.01368250    0.00069076    0.00307898
     atom   31 type  1   force =    -0.00060609    0.00370283   -0.01331510
     atom   32 type  1   force =     0.00021095   -0.01323076    0.02338290
     atom   33 type  2   force =    -0.00007823   -0.00005874   -0.00028812
     atom   34 type  2   force =    -0.00008719    0.00021793   -0.01831964
     atom   35 type  2   force =     0.00033564   -0.00048742    0.00024074
     atom   36 type  2   force =    -0.00031390   -0.00016248    0.00010630
     atom   37 type  1   force =    -0.00083502   -0.00023453   -0.00007830
     atom   38 type  1   force =     0.00047354    0.00008858    0.00066693
     atom   39 type  2   force =    -0.00002212    0.00081466   -0.00003395
     atom   40 type  2   force =    -0.00023122   -0.00017882   -0.00065355
     atom   41 type  2   force =     0.00037319    0.00048307    0.00011043
     atom   42 type  2   force =    -0.00076462    0.00020987    0.00005245
     atom   43 type  1   force =     0.00075940    0.00026188   -0.00008570
     atom   44 type  1   force =    -0.00028901   -0.00098831    0.00043836
     atom   45 type  2   force =     0.00005999    0.00003795    0.10331851
     atom   46 type  2   force =    -0.07128936   -0.00001865   -0.02761184
     atom   47 type  2   force =     0.07123650    0.00040450   -0.02763391
     atom   48 type  3   force =    -0.00577576    0.00409465   -0.00202177
     atom   49 type  4   force =    -0.00019082    0.00117287   -0.00078692
     atom   50 type  5   force =     0.00060718   -0.00031816    0.00103566
     atom   51 type  5   force =     0.00563473   -0.00258062    0.00172061
     atom   52 type  5   force =     0.00034037    0.00001096    0.00047982
     atom   53 type  2   force =    -0.00145712   -0.00114698   -0.00067465
     atom   54 type  5   force =    -0.00072310    0.00088317    0.00048265
     atom   55 type  5   force =    -0.00001816   -0.00094600    0.00046684

     Total force =     0.367735     Total SCF correction =     0.000764
  @ DRIVER MODE: Message from server: STATUS
  @ DRIVER MODE: Message from server: GETFORCE
  @ DRIVER MODE: Returning v,forces,stress,ensemble

     Writing output data file ./calc.save/
  @ DRIVER MODE: Message from server: EXIT
  @ DRIVE MODE: Exiting

     General routines

     Parallel routines

   This run was terminated on:  23: 6:27  15Sep2021

   JOB DONE.