     Program PWSCF v.6.7GPU starts on 26Sep2021 at 14:17:22

     R & G space division:  proc/nbgrp/npool/nimage =       8
     Reading input from /storage/home/hcoda1/3/ntian30/research/carbon/CxH_vib/H2O_calc/ads_slab/CH3N2OHHO_l/out_0048/pw.inp
Warning: card &CELL ignored
Warning: card   CELL_DYNAMICS='IPI', ignored
Warning: card / ignored

     Current dimensions of program PWSCF are:
     Max number of different atomic species (ntypx) = 10
     Max number of k-points (npk) =  40000
     Max angular momentum in pseudopotentials (lmaxx) =  3
     Presently no symmetry can be used with electric field

     Message from routine cell_base_init:
     DEPRECATED: use true lattice parameter, not A to a.u. conversion factor

     IMPORTANT: XC functional enforced from input :
     Exchange-correlation= BEEF-VDW
                           (   1   4  43  14   2   0   0)
     Any further DFT definition will be discarded
     Please, verify this is what you really want

  @ DRIVER MODE: Connecting to
 qe_1139763_2971669.sched-torque.pace.gatech.edu_pith70q_scratch
  using UNIX socket
  @ DRIVER MODE: Message from server: STATUS
  @ DRIVER MODE: Message from server: INIT
  @ DRIVER MODE: Receiving replica           0          -1
  @ DRIVER MODE: Receiving encoded integer          25
  @ DRIVER MODE:  SCF:  T  FORCE:  T  STRESS:  F  VC:  F  ENSEMBLE:  F
  @ DRIVER MODE:  SCF:  T  FORCE:  T  STRESS:  F  VC:  F  ENSEMBLE:  F

     Using Slab Decomposition

     bravais-lattice index     =            0
     lattice parameter (alat)  =       1.8897  a.u.
     unit-cell volume          =    6658.9804 (a.u.)^3
     number of atoms/cell      =           57
     number of atomic types    =            5
     number of electrons       =       409.00
     number of Kohn-Sham states=          214
     kinetic-energy cutoff     =      29.3995  Ry
     charge density cutoff     =     293.9946  Ry
     scf convergence threshold =      7.3E-08
     mixing beta               =       0.0500
     number of iterations used =            8  plain     mixing
     Exchange-correlation= BEEF-VDW
                           (   1   4  43  14   2   0   0)

     celldm(1)=   1.889726  celldm(2)=   0.000000  celldm(3)=   0.000000
     celldm(4)=   0.000000  celldm(5)=   0.000000  celldm(6)=   0.000000

     crystal axes: (cart. coord. in units of alat)
               a(1) = (   6.579727   0.000000   0.000000 )
               a(2) = (  -0.000775   5.961596   0.000000 )
               a(3) = (   0.000000   0.000000  25.155947 )

     reciprocal axes: (cart. coord. in units 2 pi/alat)
               b(1) = (  0.151982  0.000020  0.000000 )
               b(2) = (  0.000000  0.167740  0.000000 )
               b(3) = (  0.000000  0.000000  0.039752 )

     PseudoPot. # 1 for Ti read from file:
     /storage/coda1/p-amedford6/0/shared/rich_project_chbe-medford/medford-share/data/pseudos_module/espresso/nninc/pbe/van/Ti.UPF
     MD5 check sum: 8e4df49b7f0d34bbd5052bf3f5ea0213
     Pseudo is Ultrasoft, Zval = 12.0
     Generated by new atomic code, or converted to UPF format
     Using radial grid of  851 points,  6 beta functions with:
                l(1) =   0
                l(2) =   0
                l(3) =   1
                l(4) =   1
                l(5) =   2
                l(6) =   2
     Q(r) pseudized with  8 coefficients,  rinner =    1.000   1.000   1.000
                                                       1.000   1.000

     PseudoPot. # 2 for O  read from file:
     /storage/coda1/p-amedford6/0/shared/rich_project_chbe-medford/medford-share/data/pseudos_module/espresso/nninc/pbe/van/O.UPF
     MD5 check sum: 78c19812648e8988a0fe644b0f25305e
     Pseudo is Ultrasoft, Zval =  6.0
     Generated by new atomic code, or converted to UPF format
     Using radial grid of  737 points,  4 beta functions with:
                l(1) =   0
                l(2) =   0
                l(3) =   1
                l(4) =   1
     Q(r) pseudized with  8 coefficients,  rinner =    0.800   0.800   0.800

     PseudoPot. # 3 for N  read from file:
     /storage/coda1/p-amedford6/0/shared/rich_project_chbe-medford/medford-share/data/pseudos_module/espresso/nninc/pbe/van/N.UPF
     MD5 check sum: 90d10febe142ad51ac9d5be1deb811c4
     Pseudo is Ultrasoft, Zval =  5.0
     Generated by new atomic code, or converted to UPF format
     Using radial grid of  729 points,  4 beta functions with:
                l(1) =   0
                l(2) =   0
                l(3) =   1
                l(4) =   1
     Q(r) pseudized with  8 coefficients,  rinner =    0.800   0.800   0.800

     PseudoPot. # 4 for C  read from file:
     /storage/coda1/p-amedford6/0/shared/rich_project_chbe-medford/medford-share/data/pseudos_module/espresso/nninc/pbe/van/C.UPF
     MD5 check sum: 1a69bf6b8db32088f5b2163dbdb77a27
     Pseudo is Ultrasoft, Zval =  4.0
     Generated by new atomic code, or converted to UPF format
     Using radial grid of  721 points,  4 beta functions with:
                l(1) =   0
                l(2) =   0
                l(3) =   1
                l(4) =   1
     Q(r) pseudized with  8 coefficients,  rinner =    0.800   0.800   0.800

     PseudoPot. # 5 for H  read from file:
     /storage/coda1/p-amedford6/0/shared/rich_project_chbe-medford/medford-share/data/pseudos_module/espresso/nninc/pbe/van/H.UPF
     MD5 check sum: b5ee9d7bfd3a09ee7748110bda690ff7
     Pseudo is Ultrasoft, Zval =  1.0
     Generated by new atomic code, or converted to UPF format
     Using radial grid of  615 points,  1 beta functions with:
                l(1) =   0
     Q(r) pseudized with  8 coefficients,  rinner =    0.800

     atomic species   valence    mass     pseudopotential
        Ti1           12.00    47.86700     Ti( 1.00)
        O1             6.00    15.99900     O ( 1.00)
        N1             5.00    14.00700     N ( 1.00)
        C1             4.00    12.01100     C ( 1.00)
        H1             1.00     1.00800     H ( 1.00)

     No symmetry found

   Cartesian axes

     site n.     atom                  positions (alat units)
         1           Ti1 tau(   1) = (   0.0004258   2.9801865   6.0000000  )
         2           Ti1 tau(   2) = (   3.2906075   1.4906267   6.0002472  )
         3           O1  tau(   3) = (   0.0006271   0.0005054   7.9858123  )
         4           O1  tau(   4) = (   3.2906025   0.0005020   7.3038282  )
         5           O1  tau(   5) = (   4.5942328   1.4918067   9.2879030  )
         6           O1  tau(   6) = (   1.9868534   1.4903216   9.2879459  )
         7           Ti1 tau(   7) = (   3.2907910   2.8959150   9.1758416  )
         8           Ti1 tau(   8) = (   0.0015273   1.4827037   9.2680791  )
         9           O1  tau(   9) = (   3.2779673   5.9607700  11.3423085  )
        10           O1  tau(  10) = (   0.0116148   5.9584955  10.6183126  )
        11           O1  tau(  11) = (   1.2787083   1.4818767  12.6451794  )
        12           O1  tau(  12) = (   5.2707140   1.4872516  12.6060838  )
        13           Ti1 tau(  13) = (   0.0520196   2.9452147  12.6012095  )
        14           Ti1 tau(  14) = (   3.3669591   1.4706787  12.5087448  )
        15           O1  tau(  15) = (   6.5166736   5.9505275  14.6414754  )
        16           O1  tau(  16) = (   3.3002175   0.0041348  13.9548274  )
        17           O1  tau(  17) = (   4.5235890   1.5203341  16.0633414  )
        18           O1  tau(  18) = (   1.9992342   1.5602939  15.9747780  )
        19           Ti1 tau(  19) = (   3.2541499   3.0080313  15.6961896  )
        20           Ti1 tau(  20) = (   6.5591015   1.5323982  15.7823192  )
        21           O1  tau(  21) = (   3.2904802   0.0005063   4.7018136  )
        22           O1  tau(  22) = (   0.0960927   0.0099221  17.2178370  )
        23           O1  tau(  23) = (   1.3043587   1.4918075   6.0039043  )
        24           O1  tau(  24) = (   5.2767064   1.4903225   6.0039473  )
        25           Ti1 tau(  25) = (   0.0000382   5.9609847   6.0000000  )
        26           Ti1 tau(  26) = (   3.2902200   4.4714249   6.0002472  )
        27           O1  tau(  27) = (   0.0002396   2.9813036   7.9858123  )
        28           O1  tau(  28) = (   3.2902150   2.9813002   7.3038282  )
        29           O1  tau(  29) = (   4.5938453   4.4726049   9.2879030  )
        30           O1  tau(  30) = (   1.9864658   4.4711199   9.2879459  )
        31           Ti1 tau(  31) = (   3.2891106   5.8743827   9.1763621  )
        32           Ti1 tau(  32) = (   0.0006254   4.4649316   9.2693709  )
        33           O1  tau(  33) = (   3.2807211   2.9768430  11.3440791  )
        34           O1  tau(  34) = (   0.0092240   2.9805883  10.6323155  )
        35           O1  tau(  35) = (   1.2789702   4.4681595  12.6395138  )
        36           O1  tau(  36) = (   5.2737968   4.4775610  12.6008310  )
        37           Ti1 tau(  37) = (   0.0460201   5.9176504  12.5434570  )
        38           Ti1 tau(  38) = (   3.3658678   4.4646095  12.4976877  )
        39           O1  tau(  39) = (   6.5297297   2.9761478  14.6509524  )
        40           O1  tau(  40) = (   3.3085871   2.9961499  13.9017917  )
        41           O1  tau(  41) = (   4.5138497   4.4896837  16.1272785  )
        42           O1  tau(  42) = (   1.9961282   4.4344792  16.0060688  )
        43           Ti1 tau(  43) = (   3.3116018   0.0224549  15.7990204  )
        44           Ti1 tau(  44) = (   6.5775847   4.6577750  16.0638065  )
        45           O1  tau(  45) = (   3.2900926   2.9813045   4.7018136  )
        46           O1  tau(  46) = (   1.3039711   4.4726057   6.0039043  )
        47           O1  tau(  47) = (   5.2763189   4.4711207   6.0039473  )
        48           N1  tau(  48) = (   6.5065777   2.6139801  18.6303060  )
        49           N1  tau(  49) = (   6.5364102   2.8728423  17.4370429  )
        50           C1  tau(  50) = (   6.4341180   3.7235584  19.6105657  )
        51           H1  tau(  51) = (   6.3066687   4.7022679  19.1488110  )
        52           H1  tau(  52) = (   5.6164842   3.4805663  20.2913871  )
        53           H1  tau(  53) = (   0.7823074   3.6964598  20.1845303  )
        54           O1  tau(  54) = (   3.0314481   5.0835218  18.9911038  )
        55           H1  tau(  55) = (   1.7414717   0.2044793  18.0342669  )
        56           O1  tau(  56) = (   2.7372941   0.2572207  18.0778760  )
        57           H1  tau(  57) = (   3.9343361   5.3466317  19.2487757  )

     number of k points=    10  Fermi-Dirac smearing, width (Ry)=  0.0073
                       cart. coord. in units 2pi/alat
        k(    1) = (   0.0000000   0.0000000   0.0000000), wk =   0.1250000
        k(    2) = (   0.0000000   0.0419351   0.0000000), wk =   0.2500000
        k(    3) = (   0.0000000  -0.0838702   0.0000000), wk =   0.1250000
        k(    4) = (   0.0379955   0.0000049   0.0000000), wk =   0.2500000
        k(    5) = (   0.0379955   0.0419400   0.0000000), wk =   0.2500000
        k(    6) = (   0.0379955  -0.0838652   0.0000000), wk =   0.2500000
        k(    7) = (   0.0379955  -0.0419301   0.0000000), wk =   0.2500000
        k(    8) = (  -0.0759910  -0.0000099   0.0000000), wk =   0.1250000
        k(    9) = (  -0.0759910   0.0419252   0.0000000), wk =   0.2500000
        k(   10) = (  -0.0759910  -0.0838800   0.0000000), wk =   0.1250000

     Initial potential from superposition of free atoms

     starting charge  392.99914, renormalised to  409.00000

     negative rho (up, down):  1.422E-02 0.000E+00

     %%%%%%%%%%%%%%%%%%%%%%%%%%%%%%%%%%%%%%%%%%%%%%%%%%%%%%%%%%%%%%%%%%%%%%%%
     %                                                                      %
     % You are using vdW-DF, which was implemented by the Thonhauser group. %
     % Please cite the following two papers that made this development      %
     % possible and the two reviews that describe the various versions:     %
     %                                                                      %
     %   T. Thonhauser et al., PRL 115, 136402 (2015).                      %
     %   T. Thonhauser et al., PRB 76, 125112 (2007).                       %
     %   K. Berland et al., Rep. Prog. Phys. 78, 066501 (2015).             %
     %   D.C. Langreth et al., J. Phys.: Condens. Matter 21, 084203 (2009). %
     %                                                                      %
     %                                                                      %
     % If you are calculating the stress with vdW-DF, please also cite:     %
     %                                                                      %
     %   R. Sabatini et al., J. Phys.: Condens. Matter 24, 424209 (2012).   %
     %                                                                      %
     %%%%%%%%%%%%%%%%%%%%%%%%%%%%%%%%%%%%%%%%%%%%%%%%%%%%%%%%%%%%%%%%%%%%%%%%

     Adding external electric field

     Computed dipole along edir(3) :
        Dipole              -16.7512 Ry au,        -42.5774 Debye
        Dipole field         -0.0316 Ry au,

        Potential amp.        2.9304 Ry
        Total length         46.3494 bohr

     Starting wfcs are  309 atomic wfcs
  @ DRIVER MODE: Message from server: STATUS
  @ DRIVER MODE: Message from server: POSDATA
  @ DRIVER MODE: Reading and sharing cell
  @ DRIVER MODE: Reading and sharing positions
  @ DRIVER MODE: Received positions

     Self-consistent Calculation

     iteration #  1     ecut=    29.40 Ry     beta= 0.05
     Davidson diagonalization with overlap
     c_bands:  5 eigenvalues not converged
     c_bands:  5 eigenvalues not converged
     c_bands:  3 eigenvalues not converged
     c_bands:  1 eigenvalues not converged
     c_bands:  4 eigenvalues not converged
     c_bands:  2 eigenvalues not converged
     c_bands:  5 eigenvalues not converged
     ethr =  1.00E-05,  avg # of iterations = 26.6

[...]

     total energy              =   -2110.46273166 Ry
     estimated scf accuracy    <   10326.61304032 Ry

     iteration #  2     ecut=    29.40 Ry     beta= 0.05
     Davidson diagonalization with overlap
     ethr =  1.00E-02,  avg # of iterations = 31.9

[...]

     iteration # 69     ecut=    29.40 Ry     beta= 0.05
     Davidson diagonalization with overlap
     c_bands:  1 eigenvalues not converged
     ethr =  8.70E-11,  avg # of iterations = 15.6

[...]

     total energy              =   -3006.13722922 Ry
     estimated scf accuracy    <       0.00000031 Ry

     iteration # 70     ecut=    29.40 Ry     beta= 0.05
     Davidson diagonalization with overlap
     ethr =  7.70E-11,  avg # of iterations = 10.8

     negative rho (up, down):  1.469E-02 0.000E+00

     Adding external electric field

     Computed dipole along edir(3) :
        Dipole                0.8111 Ry au,          2.0617 Debye
        Dipole field          0.0015 Ry au,

        Potential amp.       -0.1419 Ry
        Total length         46.3494 bohr

     End of self-consistent calculation

          k = 0.0000 0.0000 0.0000 ( 18029 PWs)   bands (ev):

   -55.6038 -55.5698 -55.5615 -55.5331 -55.5252 -55.4395 -55.4182 -55.4025
   -55.3843 -55.3820 -55.3643 -55.3482 -54.9866 -54.9154 -54.5845 -54.5505
   -32.1022 -32.0870 -31.9474 -31.9393 -31.9166 -31.8964 -31.8719 -31.8588
   -31.8477 -31.7931 -31.7784 -31.7626 -31.7561 -31.7392 -31.7274 -31.7175
   -31.7089 -31.7001 -31.6884 -31.6614 -31.6610 -31.6407 -31.6089 -31.6078
   -31.5981 -31.5936 -31.5913 -31.5806 -31.5622 -31.5584 -31.5526 -31.5477
   -31.5366 -31.5353 -31.5260 -31.5131 -31.4941 -31.2646 -31.2073 -31.1757
   -31.1227 -31.1004 -30.9917 -30.9032 -30.8807 -30.8084 -30.7219 -30.6108
   -20.7463 -18.2974 -16.3037 -16.0777 -15.8933 -15.7643 -15.7091 -15.5551
   -15.4946 -15.4085 -15.3380 -15.2012 -15.1487 -15.1403 -15.1337 -15.1155
   -15.1091 -15.0494 -15.0380 -15.0366 -15.0258 -14.9977 -14.9586 -14.9456
   -14.9408 -14.8577 -14.7644 -14.7419 -14.7213 -14.7178 -14.6605 -14.2720
   -13.0864 -12.9700 -11.2815  -6.8142  -5.7450  -5.3760  -4.1822  -3.8051
    -3.7718  -3.6712  -3.5486  -3.5101  -3.4309  -3.3831  -3.2295  -3.0794
    -3.0363  -2.8503  -2.7815  -2.7543  -2.7106  -2.6274  -2.5197  -2.4664
    -2.4115  -2.4071  -2.3933  -2.3773  -2.3601  -2.3435  -2.2356  -2.2174
    -2.1637  -2.1446  -2.1183  -1.9831  -1.9555  -1.9276  -1.9174  -1.8889
    -1.8768  -1.8632  -1.8361  -1.8175  -1.7786  -1.7537  -1.6226  -1.5801
    -1.5395  -1.4470  -1.3874  -1.3285  -1.2321  -1.1998  -1.1307  -1.0604
    -1.0548  -1.0351  -1.0018  -0.9935  -0.8673  -0.7627  -0.7525  -0.6793
    -0.6180  -0.5673  -0.5266  -0.4610  -0.3778  -0.3604  -0.3528  -0.3320
    -0.2799  -0.2559  -0.0966  -0.0573  -0.0095   0.0159   0.0731   0.1062
     0.1488   0.1892   0.2293   0.2790   0.3129   0.3462   0.3645   0.3790
     0.3942   0.4254   0.4463   0.6129   0.6475   0.6706   0.7318   0.7616
     0.8435   0.9058   0.9657   1.0517   1.1602   1.3652   1.4381   1.5295
     1.6300   2.0094   2.0552   2.8303   3.5255   3.6175   3.6585   3.6890
     3.7704   3.7825   3.9833   4.0054   4.0351   4.1104

[...]

          k = 0.0380-0.0419 0.0000 ( 17876 PWs)   bands (ev):

[...]

          k =-0.0760-0.0000 0.0000 ( 17886 PWs)   bands (ev):

[...]

          k =-0.0760-0.0839 0.0000 ( 17948 PWs)   bands (ev):

   -55.5872 -55.5863 -55.5464 -55.5402 -55.5312 -55.4278 -55.4143 -55.4014
   -55.4005 -55.3665 -55.3660 -55.3639 -54.9828 -54.9192 -54.5675 -54.5673
   -31.9164 -31.9026 -31.9020 -31.8990 -31.8823 -31.8814 -31.8251 -31.8166
   -31.8039 -31.7842 -31.7757 -31.7522 -31.7473 -31.7214 -31.7156 -31.7147
   -31.7069 -31.7061 -31.7059 -31.7043 -31.7019 -31.6998 -31.6727 -31.6448
   -31.6309 -31.6271 -31.6184 -31.6023 -31.6012 -31.5961 -31.5908 -31.5819
   -31.5788 -31.5714 -31.5703 -31.5687 -31.4151 -31.2663 -31.2457 -31.1838
   -31.1616 -31.1243 -30.8935 -30.8934 -30.8045 -30.8043 -30.7652 -30.7651
   -20.7457 -18.2934 -15.7412 -15.6955 -15.6301 -15.5627 -15.5277 -15.4574
   -15.4138 -15.3723 -15.3198 -15.2820 -15.2732 -15.2131 -15.1930 -15.1602
   -15.1510 -15.1213 -15.1119 -15.1098 -15.0562 -15.0502 -15.0443 -15.0374
   -15.0311 -14.9718 -14.9322 -14.9244 -14.9195 -14.8208 -14.6983 -14.4399
   -13.0718 -13.0717 -11.2798  -6.8370  -5.7422  -5.3526  -4.1108  -3.8073
    -3.7570  -3.1231  -3.0197  -2.8267  -2.7986  -2.7131  -2.7091  -2.6661
    -2.5439  -2.5110  -2.4646  -2.4467  -2.4258  -2.4171  -2.4115  -2.3914
    -2.3852  -2.3665  -2.3371  -2.3173  -2.2845  -2.2723  -2.2593  -2.2503
    -2.2369  -2.2140  -2.2117  -2.1637  -2.1431  -2.1245  -2.0611  -2.0278
    -1.8416  -1.7926  -1.7477  -1.7409  -1.7199  -1.6889  -1.6736  -1.6568
    -1.6098  -1.5890  -1.5112  -1.4671  -1.3282  -1.3081  -1.2922  -1.2718
    -1.2047  -1.1469  -1.0970  -1.0113  -1.0058  -0.9568  -0.8638  -0.8045
    -0.7968  -0.7656  -0.7102  -0.7003  -0.6598  -0.5668  -0.5611  -0.5427
    -0.5364  -0.4605  -0.4168  -0.3548  -0.3467  -0.3268  -0.2959  -0.2679
    -0.2345  -0.1956  -0.0997  -0.0664   0.0273   0.1330   0.2101   0.3452
     0.4637   0.4764   0.5615   0.5858   0.6867   0.6983   0.7103   0.7520
     0.7875   0.8127   0.9315   0.9453   0.9670   0.9926   1.0831   1.8015
     1.8025   1.8749   1.8751   2.8199   3.7670   3.8812   3.9131   3.9237
     4.0085   4.0455   4.0642   4.0662   4.1311   4.2046

     the Fermi energy is     3.5284 ev

!    total energy              =   -3006.13726652 Ry
     estimated scf accuracy    <       0.00000004 Ry
     smearing contrib. (-TS)   =      -0.02166460 Ry
     internal energy E=F+TS    =   -3006.11560192 Ry

     The total energy is F=E-TS. E is the sum of the following terms:
     one-electron contribution =  -23513.47637212 Ry
     hartree contribution      =   11854.73337645 Ry
     xc contribution           =    -501.16828061 Ry
     ewald contribution        =    9153.79443279 Ry
     electric field correction =       0.00124157 Ry

     convergence has been achieved in  70 iterations

     Forces acting on atoms (cartesian axes, Ry/au):

     atom    1 type  1   force =     0.00019086   -0.00032243    0.09613579
     atom    2 type  1   force =    -0.00010802   -0.00050541   -0.17561602
     atom    3 type  2   force =    -0.00003343   -0.00015865   -0.02419006
     atom    4 type  2   force =     0.00000674   -0.00155686    0.05345903
     atom    5 type  2   force =    -0.01166378   -0.00075862    0.00385724
     atom    6 type  2   force =     0.01285461   -0.00002372    0.00197189
     atom    7 type  1   force =    -0.00131480    0.00026497   -0.00659298
     atom    8 type  1   force =     0.00074070    0.00794281    0.02426000
     atom    9 type  2   force =     0.00000821    0.00002823    0.00002493
     atom   10 type  2   force =    -0.00082726    0.00166396   -0.01689873
     atom   11 type  2   force =    -0.00001606    0.00002254   -0.00000638
     atom   12 type  2   force =    -0.00002135    0.00000763   -0.00001040
     atom   13 type  1   force =     0.00002517   -0.00000313    0.00006975
     atom   14 type  1   force =     0.00000941    0.00004844    0.00001301
     atom   15 type  2   force =    -0.00000866    0.00003116   -0.00001820
     atom   16 type  2   force =    -0.00000130   -0.00004094   -0.00000398
     atom   17 type  2   force =    -0.00002793   -0.00003254    0.00008814
     atom   18 type  2   force =     0.00001684    0.00006923   -0.00005882
     atom   19 type  1   force =    -0.00003785   -0.00005800    0.00000599
     atom   20 type  1   force =     0.00013666   -0.00016368    0.00003168
     atom   21 type  2   force =     0.00006384   -0.00005158    0.10321432
     atom   22 type  2   force =    -0.00029726   -0.00015750   -0.00014012
     atom   23 type  2   force =    -0.07149890   -0.00011620   -0.02773317
     atom   24 type  2   force =     0.07139216    0.00028983   -0.02773594
     atom   25 type  1   force =    -0.00004514   -0.00028800    0.09577941
     atom   26 type  1   force =    -0.00021525   -0.00035142   -0.17588051
     atom   27 type  2   force =     0.00004600   -0.00017459   -0.02324030
     atom   28 type  2   force =     0.00007208   -0.00125759    0.05306204
     atom   29 type  2   force =    -0.01201219    0.00042385    0.00403533
     atom   30 type  2   force =     0.01309930    0.00076877    0.00212061
     atom   31 type  1   force =    -0.00118003    0.00400767   -0.00988954
     atom   32 type  1   force =     0.00067495   -0.01005307    0.02472817
     atom   33 type  2   force =     0.00001737   -0.00001153    0.00000854
     atom   34 type  2   force =    -0.00025132    0.00012924   -0.02260514
     atom   35 type  2   force =    -0.00000239    0.00000873   -0.00002121
     atom   36 type  2   force =    -0.00002671    0.00002757   -0.00002960
     atom   37 type  1   force =     0.00000481   -0.00004195    0.00004258
     atom   38 type  1   force =     0.00002374    0.00006033    0.00005533
     atom   39 type  2   force =    -0.00006775   -0.00001319   -0.00005004
     atom   40 type  2   force =     0.00000056   -0.00004005   -0.00004431
     atom   41 type  2   force =    -0.00003472    0.00001591    0.00000811
     atom   42 type  2   force =     0.00005086   -0.00006647   -0.00003972
     atom   43 type  1   force =    -0.00027116   -0.00002658   -0.00008851
     atom   44 type  1   force =     0.00013113    0.00022783    0.00017824
     atom   45 type  2   force =     0.00004793   -0.00008653    0.10322280
     atom   46 type  2   force =    -0.07151116   -0.00008562   -0.02775050
     atom   47 type  2   force =     0.07141492    0.00035707   -0.02774127
     atom   48 type  3   force =     0.00011437   -0.00010340    0.00019033
     atom   49 type  3   force =    -0.00002358    0.00006859   -0.00014085
     atom   50 type  4   force =    -0.00001228    0.00006073   -0.00004176
     atom   51 type  5   force =    -0.00003301   -0.00004618    0.00003317
     atom   52 type  5   force =     0.00002114    0.00001099    0.00003686
     atom   53 type  5   force =    -0.00008321    0.00000436   -0.00000821
     atom   54 type  2   force =     0.00208091   -0.00011461   -0.00100549
     atom   55 type  5   force =    -0.00016150    0.00096794   -0.00167785
     atom   56 type  2   force =    -0.00176083   -0.00068888    0.00243491
     atom   57 type  5   force =     0.00030355   -0.00010947    0.00019145

     Total force =     0.367160     Total SCF correction =     0.000549
  @ DRIVER MODE: Message from server: STATUS
  @ DRIVER MODE: Message from server: GETFORCE
  @ DRIVER MODE: Returning v,forces,stress,ensemble

     Writing output data file ./calc.save/
  @ DRIVER MODE: Message from server: EXIT
  @ DRIVE MODE: Exiting

     General routines

     Parallel routines

   This run was terminated on:  14:45: 5  26Sep2021

   JOB DONE.