     Program PWSCF v.6.7GPU starts on 13Oct2021 at  0:13:15

     R & G space division:  proc/nbgrp/npool/nimage =       8
     Reading input from /storage/home/hcoda1/3/ntian30/research/carbon/ACS_vib/ads_slab/HNNH/out_0021/pw.inp
Warning: card &CELL ignored
Warning: card   CELL_DYNAMICS='IPI', ignored
Warning: card / ignored

     Current dimensions of program PWSCF are:
     Max number of different atomic species (ntypx) = 10
     Max number of k-points (npk) =  40000
     Max angular momentum in pseudopotentials (lmaxx) =  3
     Presently no symmetry can be used with electric field

     Message from routine cell_base_init:
     DEPRECATED: use true lattice parameter, not A to a.u. conversion factor

     IMPORTANT: XC functional enforced from input :
     Exchange-correlation= BEEF-VDW
                           (   1   4  43  14   2   0   0)
     Any further DFT definition will be discarded
     Please, verify this is what you really want

  @ DRIVER MODE: Connecting to
 qe_1139763_3181311.sched-torque.pace.gatech.eduil56kw6d_scratch
  using UNIX socket
  @ DRIVER MODE: Message from server: STATUS
  @ DRIVER MODE: Message from server: INIT
  @ DRIVER MODE: Receiving replica           0          -1
  @ DRIVER MODE: Receiving encoded integer          25
  @ DRIVER MODE:  SCF:  T  FORCE:  T  STRESS:  F  VC:  F  ENSEMBLE:  F
  @ DRIVER MODE:  SCF:  T  FORCE:  T  STRESS:  F  VC:  F  ENSEMBLE:  F

     Using Slab Decomposition

     bravais-lattice index     =            0
     lattice parameter (alat)  =       1.8897  a.u.
     unit-cell volume          =    6658.9804 (a.u.)^3
     number of atoms/cell      =           51
     number of atomic types    =            4
     number of electrons       =       390.00
     number of Kohn-Sham states=          205
     kinetic-energy cutoff     =      29.3995  Ry
     charge density cutoff     =     293.9946  Ry
     scf convergence threshold =      7.3E-08
     mixing beta               =       0.0500
     number of iterations used =            8  plain     mixing
     Exchange-correlation= BEEF-VDW
                           (   1   4  43  14   2   0   0)

     celldm(1)=   1.889726  celldm(2)=   0.000000  celldm(3)=   0.000000
     celldm(4)=   0.000000  celldm(5)=   0.000000  celldm(6)=   0.000000

     crystal axes: (cart. coord. in units of alat)
               a(1) = (   6.579727   0.000000   0.000000 )
               a(2) = (  -0.000775   5.961596   0.000000 )
               a(3) = (   0.000000   0.000000  25.155947 )

     reciprocal axes: (cart. coord. in units 2 pi/alat)
               b(1) = (  0.151982  0.000020  0.000000 )
               b(2) = (  0.000000  0.167740  0.000000 )
               b(3) = (  0.000000  0.000000  0.039752 )

     PseudoPot. # 1 for Ti read from file:
     /storage/coda1/p-amedford6/0/shared/rich_project_chbe-medford/medford-share/data/pseudos_module/espresso/nninc/pbe/van/Ti.UPF
     MD5 check sum: 8e4df49b7f0d34bbd5052bf3f5ea0213
     Pseudo is Ultrasoft, Zval = 12.0
     Generated by new atomic code, or converted to UPF format
     Using radial grid of  851 points,  6 beta functions with:
                l(1) =   0
                l(2) =   0
                l(3) =   1
                l(4) =   1
                l(5) =   2
                l(6) =   2
     Q(r) pseudized with  8 coefficients,  rinner =    1.000   1.000   1.000
                                                       1.000   1.000

     PseudoPot. # 2 for O  read from file:
     /storage/coda1/p-amedford6/0/shared/rich_project_chbe-medford/medford-share/data/pseudos_module/espresso/nninc/pbe/van/O.UPF
     MD5 check sum: 78c19812648e8988a0fe644b0f25305e
     Pseudo is Ultrasoft, Zval =  6.0
     Generated by new atomic code, or converted to UPF format
     Using radial grid of  737 points,  4 beta functions with:
                l(1) =   0
                l(2) =   0
                l(3) =   1
                l(4) =   1
     Q(r) pseudized with  8 coefficients,  rinner =    0.800   0.800   0.800

     PseudoPot. # 3 for H  read from file:
     /storage/coda1/p-amedford6/0/shared/rich_project_chbe-medford/medford-share/data/pseudos_module/espresso/nninc/pbe/van/H.UPF
     MD5 check sum: b5ee9d7bfd3a09ee7748110bda690ff7
     Pseudo is Ultrasoft, Zval =  1.0
     Generated by new atomic code, or converted to UPF format
     Using radial grid of  615 points,  1 beta functions with:
                l(1) =   0
     Q(r) pseudized with  8 coefficients,  rinner =    0.800

     PseudoPot. # 4 for N  read from file:
     /storage/coda1/p-amedford6/0/shared/rich_project_chbe-medford/medford-share/data/pseudos_module/espresso/nninc/pbe/van/N.UPF
     MD5 check sum: 90d10febe142ad51ac9d5be1deb811c4
     Pseudo is Ultrasoft, Zval =  5.0
     Generated by new atomic code, or converted to UPF format
     Using radial grid of  729 points,  4 beta functions with:
                l(1) =   0
                l(2) =   0
                l(3) =   1
                l(4) =   1
     Q(r) pseudized with  8 coefficients,  rinner =    0.800   0.800   0.800

     atomic species   valence    mass     pseudopotential
        Ti1           12.00    47.86700     Ti( 1.00)
        O1             6.00    15.99900     O ( 1.00)
        H1             1.00     1.00800     H ( 1.00)
        N1             5.00    14.00700     N ( 1.00)

     No symmetry found

   Cartesian axes

     site n.     atom                  positions (alat units)
         1           Ti1 tau(   1) = (   0.0004258   2.9801865   6.0000000  )
         2           Ti1 tau(   2) = (   3.2906075   1.4906267   6.0002472  )
         3           O1  tau(   3) = (   0.0006271   0.0005054   7.9858123  )
         4           O1  tau(   4) = (   3.2906025   0.0005020   7.3038282  )
         5           O1  tau(   5) = (   4.5942328   1.4918067   9.2879030  )
         6           O1  tau(   6) = (   1.9868534   1.4903216   9.2879459  )
         7           Ti1 tau(   7) = (   3.2908881   2.9042228   9.1664735  )
         8           Ti1 tau(   8) = (   0.0028208   1.4453605   9.2576896  )
         9           O1  tau(   9) = (   3.2707936   0.0024169  11.3547307  )
        10           O1  tau(  10) = (   6.5771562   5.9613851  10.5998947  )
        11           O1  tau(  11) = (   1.2750810   1.4887983  12.6623546  )
        12           O1  tau(  12) = (   5.2735957   1.4941237  12.6366476  )
        13           Ti1 tau(  13) = (   6.5484273   3.0048924  12.8091026  )
        14           Ti1 tau(  14) = (   3.2635572   1.4892482  12.5038529  )
        15           O1  tau(  15) = (   6.5112577   5.9342846  14.6610847  )
        16           O1  tau(  16) = (   3.2966729   5.9487847  13.9562402  )
        17           O1  tau(  17) = (   4.4981853   1.5100712  16.1215815  )
        18           O1  tau(  18) = (   1.9927245   1.4809274  16.0269182  )
        19           Ti1 tau(  19) = (   3.2349744   2.9714856  15.7300180  )
        20           Ti1 tau(  20) = (   6.5689460   1.3052557  15.9023701  )
        21           O1  tau(  21) = (   3.2904802   0.0005063   4.7018136  )
        22           O1  tau(  22) = (   6.5497555   0.0700294  17.2054191  )
        23           O1  tau(  23) = (   1.3043587   1.4918075   6.0039043  )
        24           O1  tau(  24) = (   5.2767064   1.4903225   6.0039473  )
        25           Ti1 tau(  25) = (   0.0000382   5.9609847   6.0000000  )
        26           Ti1 tau(  26) = (   3.2902200   4.4714249   6.0002472  )
        27           O1  tau(  27) = (   0.0002396   2.9813036   7.9858123  )
        28           O1  tau(  28) = (   3.2902150   2.9813002   7.3038282  )
        29           O1  tau(  29) = (   4.5938453   4.4726049   9.2879030  )
        30           O1  tau(  30) = (   1.9864658   4.4711199   9.2879459  )
        31           Ti1 tau(  31) = (   3.2899333   5.8856170   9.1744801  )
        32           Ti1 tau(  32) = (   0.0020137   4.3658053   9.3606106  )
        33           O1  tau(  33) = (   3.2690173   2.9735267  11.3530824  )
        34           O1  tau(  34) = (   0.0002412   2.9750176  10.5666245  )
        35           O1  tau(  35) = (   1.2748646   4.4726994  12.6423647  )
        36           O1  tau(  36) = (   5.2720213   4.4664742  12.6163582  )
        37           Ti1 tau(  37) = (   6.5582605   0.0201509  12.4985948  )
        38           Ti1 tau(  38) = (   3.2618569   4.4653106  12.4956167  )
        39           O1  tau(  39) = (   6.5348066   3.0079926  14.7180217  )
        40           O1  tau(  40) = (   3.2797409   2.9875293  13.9337705  )
        41           O1  tau(  41) = (   4.5027845   4.4373921  16.1556124  )
        42           O1  tau(  42) = (   1.9850320   4.4617864  16.0830993  )
        43           Ti1 tau(  43) = (   3.2823567   5.9555293  15.7495178  )
        44           Ti1 tau(  44) = (   6.5552429   4.5047081  16.0597439  )
        45           O1  tau(  45) = (   3.2900926   2.9813045   4.7018136  )
        46           O1  tau(  46) = (   1.3039711   4.4726057   6.0039043  )
        47           O1  tau(  47) = (   5.2763189   4.4711207   6.0039473  )
        48           H1  tau(  48) = (   0.5659039   2.5807529  19.4396776  )
        49           N1  tau(  49) = (   0.9330341   2.9538053  18.5544450  )
        50           N1  tau(  50) = (   6.5241730   3.1816813  17.7405862  )
        51           H1  tau(  51) = (   5.5906726   2.9968531  18.1306748  )

     number of k points=    10  Fermi-Dirac smearing, width (Ry)=  0.0073
                       cart. coord. in units 2pi/alat
        k(    1) = (   0.0000000   0.0000000   0.0000000), wk =   0.1250000
        k(    2) = (   0.0000000   0.0419351   0.0000000), wk =   0.2500000
        k(    3) = (   0.0000000  -0.0838702   0.0000000), wk =   0.1250000
        k(    4) = (   0.0379955   0.0000049   0.0000000), wk =   0.2500000
        k(    5) = (   0.0379955   0.0419400   0.0000000), wk =   0.2500000
        k(    6) = (   0.0379955  -0.0838652   0.0000000), wk =   0.2500000
        k(    7) = (   0.0379955  -0.0419301   0.0000000), wk =   0.2500000
        k(    8) = (  -0.0759910  -0.0000099   0.0000000), wk =   0.1250000
        k(    9) = (  -0.0759910   0.0419252   0.0000000), wk =   0.2500000
        k(   10) = (  -0.0759910  -0.0838800   0.0000000), wk =   0.1250000

     Initial potential from superposition of free atoms

     starting charge  373.99921, renormalised to  390.00000

     negative rho (up, down):  1.941E-02 0.000E+00

     %%%%%%%%%%%%%%%%%%%%%%%%%%%%%%%%%%%%%%%%%%%%%%%%%%%%%%%%%%%%%%%%%%%%%%%%
     %                                                                      %
     % You are using vdW-DF, which was implemented by the Thonhauser group. %
     % Please cite the following two papers that made this development      %
     % possible and the two reviews that describe the various versions:     %
     %                                                                      %
     %   T. Thonhauser et al., PRL 115, 136402 (2015).                      %
     %   T. Thonhauser et al., PRB 76, 125112 (2007).                       %
     %   K. Berland et al., Rep. Prog. Phys. 78, 066501 (2015).             %
     %   D.C. Langreth et al., J. Phys.: Condens. Matter 21, 084203 (2009). %
     %                                                                      %
     %                                                                      %
     % If you are calculating the stress with vdW-DF, please also cite:     %
     %                                                                      %
     %   R. Sabatini et al., J. Phys.: Condens. Matter 24, 424209 (2012).   %
     %                                                                      %
     %%%%%%%%%%%%%%%%%%%%%%%%%%%%%%%%%%%%%%%%%%%%%%%%%%%%%%%%%%%%%%%%%%%%%%%%

     Adding external electric field

     Computed dipole along edir(3) :
        Dipole               -5.1488 Ry au,        -13.0871 Debye
        Dipole field         -0.0097 Ry au,

        Potential amp.        0.9007 Ry
        Total length         46.3494 bohr

     Starting wfcs are  294 atomic wfcs
  @ DRIVER MODE: Message from server: STATUS
  @ DRIVER MODE: Message from server: POSDATA
  @ DRIVER MODE: Reading and sharing cell
  @ DRIVER MODE: Reading and sharing positions
  @ DRIVER MODE: Received positions

     Self-consistent Calculation

     iteration #  1     ecut=    29.40 Ry     beta= 0.05
     Davidson diagonalization with overlap
     c_bands:  5 eigenvalues not converged
     c_bands:  3 eigenvalues not converged
     c_bands:  3 eigenvalues not converged
     c_bands:  1 eigenvalues not converged
     c_bands:  3 eigenvalues not converged
     c_bands:  2 eigenvalues not converged
     c_bands:  3 eigenvalues not converged
     ethr =  1.00E-05,  avg # of iterations = 20.5

[...]

     total energy              =   -2837.93881302 Ry
     estimated scf accuracy    <     990.88910174 Ry

     iteration #  2     ecut=    29.40 Ry     beta= 0.05
     Davidson diagonalization with overlap
     ethr =  1.00E-02,  avg # of iterations = 16.3

[...]

     iteration # 55     ecut=    29.40 Ry     beta= 0.05
     Davidson diagonalization with overlap
     c_bands:  2 eigenvalues not converged
     ethr =  4.96E-09,  avg # of iterations = 14.7

[...]

     total energy              =   -2926.39983004 Ry
     estimated scf accuracy    <       0.00000008 Ry

     iteration # 77     ecut=    29.40 Ry     beta= 0.05
     Davidson diagonalization with overlap
     ethr =  2.05E-11,  avg # of iterations = 13.8

     negative rho (up, down):  1.911E-02 0.000E+00

     Adding external electric field

     Computed dipole along edir(3) :
        Dipole                0.7857 Ry au,          1.9971 Debye
        Dipole field          0.0015 Ry au,

        Potential amp.       -0.1374 Ry
        Total length         46.3494 bohr

     End of self-consistent calculation

          k = 0.0000 0.0000 0.0000 ( 18029 PWs)   bands (ev):

   -55.9567 -55.9435 -55.9188 -55.9069 -55.8659 -55.8250 -55.8023 -55.7897
   -55.7316 -55.7071 -55.6734 -55.6169 -55.5680 -55.4988 -54.9239 -54.8899
   -32.5108 -32.4226 -32.3064 -32.2970 -32.2737 -32.2511 -32.2265 -32.1987
   -32.1920 -32.1840 -32.1644 -32.1516 -32.1260 -32.1236 -32.1159 -32.0979
   -32.0907 -32.0745 -32.0549 -32.0449 -32.0208 -32.0079 -31.9992 -31.9988
   -31.9832 -31.9692 -31.9511 -31.9431 -31.9302 -31.9214 -31.9164 -31.8915
   -31.8836 -31.8557 -31.8383 -31.8208 -31.8176 -31.8048 -31.7983 -31.7316
   -31.6842 -31.6126 -31.3321 -31.2408 -31.2182 -31.1484 -31.0621 -30.9513
   -18.0776 -16.7132 -16.4116 -16.2771 -16.1308 -16.0849 -15.9837 -15.7996
   -15.6964 -15.6452 -15.5809 -15.5576 -15.5548 -15.5036 -15.4941 -15.4882
   -15.4641 -15.4250 -15.3898 -15.3488 -15.3455 -15.3383 -15.3051 -15.2432
   -15.2127 -15.1157 -15.0615 -14.9650 -14.9609 -14.8281 -13.4271 -13.3102
   -10.3017  -6.6257  -4.0636  -3.9454  -3.8791  -3.8341  -3.7781  -3.5742
    -3.5207  -3.3228  -3.2501  -3.1467  -3.1026  -3.0835  -3.0776  -3.0107
    -2.8704  -2.7740  -2.7652  -2.7514  -2.7292  -2.7175  -2.7083  -2.6930
    -2.6868  -2.6428  -2.5681  -2.5009  -2.4368  -2.3767  -2.3258  -2.2463
    -2.2325  -2.2176  -2.2063  -2.2006  -2.1649  -2.1573  -2.1467  -2.0186
    -1.9955  -1.9064  -1.7839  -1.7629  -1.6478  -1.5674  -1.5493  -1.4193
    -1.3832  -1.3499  -1.3166  -1.2709  -1.2375  -1.2271  -1.1522  -1.1105
    -1.0147  -0.9786  -0.8793  -0.8343  -0.8290  -0.7688  -0.6910  -0.6797
    -0.6658  -0.5270  -0.4401  -0.4307  -0.4269  -0.3434  -0.2878  -0.2353
    -0.1883  -0.1797  -0.1609  -0.1218  -0.0941   0.0045   0.0141   0.0477
     0.0615   0.0997   0.1896   0.2586   0.2717   0.3311   0.3467   0.5563
     0.5674   0.5781   0.7171   0.7642   1.0121   1.0971   1.1234   1.2846
     1.6775   1.7324   3.1499   3.2381   3.2539   3.2908   3.3547   3.4005
     3.5535   3.6053   3.6500   3.6769   3.7016

[...]

          k = 0.0380-0.0419 0.0000 ( 17876 PWs)   bands (ev):

[...]

          k =-0.0760-0.0000 0.0000 ( 17886 PWs)   bands (ev):

[...]

          k =-0.0760-0.0839 0.0000 ( 17948 PWs)   bands (ev):

   -55.9461 -55.9292 -55.9279 -55.9223 -55.8608 -55.8146 -55.8072 -55.8000
   -55.7286 -55.6905 -55.6901 -55.6195 -55.5638 -55.5029 -54.9074 -54.9063
   -32.3157 -32.3114 -32.2481 -32.2480 -32.2388 -32.2302 -32.2136 -32.2128
   -32.1560 -32.1530 -32.1475 -32.1407 -32.1240 -32.0981 -32.0792 -32.0718
   -32.0677 -32.0657 -32.0629 -32.0604 -32.0481 -32.0289 -32.0224 -32.0147
   -32.0127 -32.0097 -32.0074 -32.0037 -31.9546 -31.9319 -31.9278 -31.9276
   -31.9127 -31.8999 -31.8957 -31.8892 -31.8451 -31.8193 -31.8147 -31.7358
   -31.7209 -31.6576 -31.2316 -31.2303 -31.1455 -31.1445 -31.1058 -31.1047
   -18.0723 -16.1512 -16.1231 -15.9733 -15.8822 -15.8710 -15.8259 -15.7673
   -15.7385 -15.6826 -15.6497 -15.6312 -15.6144 -15.5975 -15.5729 -15.5246
   -15.4747 -15.4688 -15.4590 -15.4438 -15.3932 -15.3837 -15.3586 -15.3503
   -15.3274 -15.2627 -15.2410 -15.1950 -15.1153 -14.9934 -13.4137 -13.4101
   -10.3063  -6.6264  -3.4370  -3.4041  -3.3138  -3.2067  -3.0971  -3.0925
    -3.0135  -2.9508  -2.9111  -2.8624  -2.8190  -2.7948  -2.7630  -2.7588
    -2.7513  -2.7392  -2.7309  -2.6988  -2.6858  -2.6822  -2.6451  -2.6306
    -2.6088  -2.6016  -2.5611  -2.5493  -2.5346  -2.4918  -2.4888  -2.4835
    -2.4787  -2.2873  -2.2474  -2.2008  -2.1502  -2.0707  -2.0547  -2.0414
    -2.0006  -1.9859  -1.9751  -1.9073  -1.8124  -1.6942  -1.6586  -1.6355
    -1.6227  -1.5811  -1.4054  -1.3732  -1.3581  -1.3357  -1.3037  -1.2509
    -1.2191  -1.1999  -1.1049  -1.0844  -1.0412  -0.9672  -0.9115  -0.8914
    -0.8607  -0.8232  -0.7788  -0.7397  -0.6977  -0.6823  -0.6174  -0.5688
    -0.5240  -0.5046  -0.4861  -0.4020  -0.3240  -0.2986  -0.0962   0.0367
     0.0703   0.0829   0.2196   0.2357   0.2725   0.3436   0.3766   0.4198
     0.4781   0.5833   0.5862   0.5977   0.6073   0.6671   1.4584   1.4631
     1.5376   1.5495   3.2139   3.3983   3.4418   3.4813   3.5424   3.6857
     3.7098   3.7113   3.7342   3.7881   3.8556

     the Fermi energy is     3.1949 ev

!    total energy              =   -2926.39984053 Ry
     estimated scf accuracy    <       0.00000003 Ry
     smearing contrib. (-TS)   =      -0.03281076 Ry
     internal energy E=F+TS    =   -2926.36702977 Ry

     The total energy is F=E-TS. E is the sum of the following terms:
     one-electron contribution =  -24581.07466262 Ry
     hartree contribution      =   12374.68000576 Ry
     xc contribution           =    -480.78796770 Ry
     ewald contribution        =    9760.81442977 Ry
     electric field correction =       0.00116503 Ry

     convergence has been achieved in  77 iterations

     Forces acting on atoms (cartesian axes, Ry/au):

     atom    1 type  1   force =     0.00019612    0.00160788    0.10333202
     atom    2 type  1   force =     0.00006765   -0.00227962   -0.17659193
     atom    3 type  2   force =     0.00018074    0.00648303   -0.03462122
     atom    4 type  2   force =    -0.00004760   -0.00102714    0.05241520
     atom    5 type  2   force =    -0.01732319   -0.00087048    0.00516350
     atom    6 type  2   force =     0.01633771   -0.00066402    0.00402547
     atom    7 type  1   force =     0.00051482    0.00280400   -0.00769436
     atom    8 type  1   force =    -0.00011346   -0.00003497    0.00050310
     atom    9 type  2   force =     0.00013819   -0.00018814   -0.00051026
     atom   10 type  2   force =     0.00007036   -0.00015608   -0.00040340
     atom   11 type  2   force =     0.00025559    0.00016587    0.00030948
     atom   12 type  2   force =     0.00017318    0.00030580    0.00019162
     atom   13 type  1   force =    -0.00040920    0.00068513   -0.00081426
     atom   14 type  1   force =    -0.00039567   -0.00004767   -0.00102507
     atom   15 type  2   force =     0.00001230    0.00078848    0.00011607
     atom   16 type  2   force =     0.00004161   -0.00015087    0.00086681
     atom   17 type  2   force =     0.00032518    0.00039508    0.00037841
     atom   18 type  2   force =    -0.00043136    0.00031141    0.00011749
     atom   19 type  1   force =     0.00013872   -0.00039274    0.00043962
     atom   20 type  1   force =    -0.00006808   -0.00149708    0.00001011
     atom   21 type  2   force =     0.00012934   -0.00007665    0.10332163
     atom   22 type  2   force =    -0.00027232    0.00031915    0.00139877
     atom   23 type  2   force =    -0.07031277    0.00112609   -0.02965138
     atom   24 type  2   force =     0.07030323    0.00155674   -0.02965820
     atom   25 type  1   force =     0.00010753   -0.00166320    0.11619852
     atom   26 type  1   force =    -0.00002473    0.00128871   -0.17607071
     atom   27 type  2   force =     0.00011152   -0.00260200   -0.02894871
     atom   28 type  2   force =    -0.00004030   -0.00141383    0.05146933
     atom   29 type  2   force =    -0.01884112    0.00098094    0.00642868
     atom   30 type  2   force =     0.01784560    0.00162562    0.00534374
     atom   31 type  1   force =     0.00052028   -0.00133939   -0.01365757
     atom   32 type  1   force =    -0.00010152   -0.00101401    0.00068653
     atom   33 type  2   force =     0.00007380   -0.00014485   -0.00046906
     atom   34 type  2   force =     0.00008722   -0.00065079    0.00083186
     atom   35 type  2   force =     0.00038114   -0.00019352    0.00040159
     atom   36 type  2   force =     0.00007542   -0.00014622    0.00030113
     atom   37 type  1   force =    -0.00014664    0.00022064   -0.00004978
     atom   38 type  1   force =    -0.00051765   -0.00054573   -0.00080574
     atom   39 type  2   force =    -0.00035694   -0.00050175    0.00093232
     atom   40 type  2   force =     0.00010649   -0.00015251    0.00149741
     atom   41 type  2   force =     0.00035008   -0.00046825    0.00021642
     atom   42 type  2   force =    -0.00073903   -0.00021180   -0.00009986
     atom   43 type  1   force =     0.00020451    0.00013815    0.00005426
     atom   44 type  1   force =    -0.00020535    0.00142376    0.00067079
     atom   45 type  2   force =     0.00012403   -0.00004338    0.10351002
     atom   46 type  2   force =    -0.07074513   -0.00146571   -0.02961510
     atom   47 type  2   force =     0.07072543   -0.00103539   -0.02964884
     atom   48 type  3   force =     0.00027672   -0.00100986    0.00039011
     atom   49 type  4   force =     0.00186816    0.00124646   -0.00049519
     atom   50 type  4   force =    -0.00222058   -0.00159565    0.00053061
     atom   51 type  3   force =     0.00156998    0.00011033   -0.00122196

     Total force =     0.374596     Total SCF correction =     0.000485
  @ DRIVER MODE: Message from server: STATUS
  @ DRIVER MODE: Message from server: GETFORCE
  @ DRIVER MODE: Returning v,forces,stress,ensemble

     Writing output data file ./calc.save/
  @ DRIVER MODE: Message from server: EXIT
  @ DRIVE MODE: Exiting

     General routines

     Parallel routines

   This run was terminated on:   0:43:22  13Oct2021

   JOB DONE.