     Program PWSCF v.6.7GPU starts on 24Aug2021 at 22:33:58

     R & G space division:  proc/nbgrp/npool/nimage =       6
     Reading input from /storage/home/hcoda1/3/ntian30/research/carbon/CH3_vib_end_on/ads_slab/CH3NHNH2_a/out_0011/pw.inp
Warning: card &CELL ignored
Warning: card   CELL_DYNAMICS='IPI', ignored
Warning: card / ignored

     Current dimensions of program PWSCF are:
     Max number of different atomic species (ntypx) = 10
     Max number of k-points (npk) =  40000
     Max angular momentum in pseudopotentials (lmaxx) =  3
     Presently no symmetry can be used with electric field

     Message from routine cell_base_init:
     DEPRECATED: use true lattice parameter, not A to a.u. conversion factor

     IMPORTANT: XC functional enforced from input :
     Exchange-correlation= BEEF-VDW
                           (   1   4  43  14   2   0   0)
     Any further DFT definition will be discarded
     Please, verify this is what you really want

  @ DRIVER MODE: Connecting to
 qe_1139763_2643871.sched-torque.pace.gatech.edu_28p_23w_scratch
  using UNIX socket
  @ DRIVER MODE: Message from server: STATUS
  @ DRIVER MODE: Message from server: INIT
  @ DRIVER MODE: Receiving replica           0          -1
  @ DRIVER MODE: Receiving encoded integer          25
  @ DRIVER MODE:  SCF:  T  FORCE:  T  STRESS:  F  VC:  F  ENSEMBLE:  F
  @ DRIVER MODE:  SCF:  T  FORCE:  T  STRESS:  F  VC:  F  ENSEMBLE:  F

     Using Slab Decomposition

     bravais-lattice index     =            0
     lattice parameter (alat)  =       1.8897  a.u.
     unit-cell volume          =    6658.9804 (a.u.)^3
     number of atoms/cell      =           56
     number of atomic types    =            5
     number of electrons       =       398.00
     number of Kohn-Sham states=          209
     kinetic-energy cutoff     =      29.3995  Ry
     charge density cutoff     =     293.9946  Ry
     scf convergence threshold =      7.3E-08
     mixing beta               =       0.0500
     number of iterations used =            8  plain     mixing
     Exchange-correlation= BEEF-VDW
                           (   1   4  43  14   2   0   0)

     celldm(1)=   1.889726  celldm(2)=   0.000000  celldm(3)=   0.000000
     celldm(4)=   0.000000  celldm(5)=   0.000000  celldm(6)=   0.000000

     crystal axes: (cart. coord. in units of alat)
               a(1) = (   6.579727   0.000000   0.000000 )
               a(2) = (  -0.000775   5.961596   0.000000 )
               a(3) = (   0.000000   0.000000  25.155947 )

     reciprocal axes: (cart. coord. in units 2 pi/alat)
               b(1) = (  0.151982  0.000020  0.000000 )
               b(2) = (  0.000000  0.167740  0.000000 )
               b(3) = (  0.000000  0.000000  0.039752 )

     PseudoPot. # 1 for Ti read from file:
     /storage/coda1/p-amedford6/0/shared/rich_project_chbe-medford/medford-share/data/pseudos_module/espresso/nninc/pbe/van/Ti.UPF
     MD5 check sum: 8e4df49b7f0d34bbd5052bf3f5ea0213
     Pseudo is Ultrasoft, Zval = 12.0
     Generated by new atomic code, or converted to UPF format
     Using radial grid of  851 points,  6 beta functions with:
                l(1) =   0
                l(2) =   0
                l(3) =   1
                l(4) =   1
                l(5) =   2
                l(6) =   2
     Q(r) pseudized with  8 coefficients,  rinner =    1.000   1.000   1.000
                                                       1.000   1.000

     PseudoPot. # 2 for O  read from file:
     /storage/coda1/p-amedford6/0/shared/rich_project_chbe-medford/medford-share/data/pseudos_module/espresso/nninc/pbe/van/O.UPF
     MD5 check sum: 78c19812648e8988a0fe644b0f25305e
     Pseudo is Ultrasoft, Zval =  6.0
     Generated by new atomic code, or converted to UPF format
     Using radial grid of  737 points,  4 beta functions with:
                l(1) =   0
                l(2) =   0
                l(3) =   1
                l(4) =   1
     Q(r) pseudized with  8 coefficients,  rinner =    0.800   0.800   0.800

     PseudoPot. # 3 for N  read from file:
     /storage/coda1/p-amedford6/0/shared/rich_project_chbe-medford/medford-share/data/pseudos_module/espresso/nninc/pbe/van/N.UPF
     MD5 check sum: 90d10febe142ad51ac9d5be1deb811c4
     Pseudo is Ultrasoft, Zval =  5.0
     Generated by new atomic code, or converted to UPF format
     Using radial grid of  729 points,  4 beta functions with:
                l(1) =   0
                l(2) =   0
                l(3) =   1
                l(4) =   1
     Q(r) pseudized with  8 coefficients,  rinner =    0.800   0.800   0.800

     PseudoPot. # 4 for C  read from file:
     /storage/coda1/p-amedford6/0/shared/rich_project_chbe-medford/medford-share/data/pseudos_module/espresso/nninc/pbe/van/C.UPF
     MD5 check sum: 1a69bf6b8db32088f5b2163dbdb77a27
     Pseudo is Ultrasoft, Zval =  4.0
     Generated by new atomic code, or converted to UPF format
     Using radial grid of  721 points,  4 beta functions with:
                l(1) =   0
                l(2) =   0
                l(3) =   1
                l(4) =   1
     Q(r) pseudized with  8 coefficients,  rinner =    0.800   0.800   0.800

     PseudoPot. # 5 for H  read from file:
     /storage/coda1/p-amedford6/0/shared/rich_project_chbe-medford/medford-share/data/pseudos_module/espresso/nninc/pbe/van/H.UPF
     MD5 check sum: b5ee9d7bfd3a09ee7748110bda690ff7
     Pseudo is Ultrasoft, Zval =  1.0
     Generated by new atomic code, or converted to UPF format
     Using radial grid of  615 points,  1 beta functions with:
                l(1) =   0
     Q(r) pseudized with  8 coefficients,  rinner =    0.800

     atomic species   valence    mass     pseudopotential
        Ti1           12.00    47.86700     Ti( 1.00)
        O1             6.00    15.99900     O ( 1.00)
        N1             5.00    14.00700     N ( 1.00)
        C1             4.00    12.01100     C ( 1.00)
        H1             1.00     1.00800     H ( 1.00)

     No symmetry found

   Cartesian axes

     site n.     atom                  positions (alat units)
         1           Ti1 tau(   1) = (   0.0004258   2.9801865   6.0000000  )
         2           Ti1 tau(   2) = (   3.2906075   1.4906267   6.0002472  )
         3           O1  tau(   3) = (   0.0006271   0.0005054   7.9858123  )
         4           O1  tau(   4) = (   3.2906025   0.0005020   7.3038282  )
         5           O1  tau(   5) = (   4.5942328   1.4918067   9.2879030  )
         6           O1  tau(   6) = (   1.9868534   1.4903216   9.2879459  )
         7           Ti1 tau(   7) = (   3.2907910   2.8959150   9.1758416  )
         8           Ti1 tau(   8) = (   0.0015273   1.4827037   9.2680791  )
         9           O1  tau(   9) = (   3.2714441   0.0289406  11.3813764  )
        10           O1  tau(  10) = (   0.0116148   5.9584955  10.6183126  )
        11           O1  tau(  11) = (   1.2692032   1.5162281  12.7122965  )
        12           O1  tau(  12) = (   5.2779133   1.5159715  12.6811497  )
        13           Ti1 tau(  13) = (   6.5579218   3.0031650  12.5037829  )
        14           Ti1 tau(  14) = (   3.2791490   1.5128154  12.5375672  )
        15           O1  tau(  15) = (   6.5208524   5.8954130  14.6845636  )
        16           O1  tau(  16) = (   3.2849572   0.0099931  14.0031570  )
        17           O1  tau(  17) = (   4.4884262   1.5607690  16.1641467  )
        18           O1  tau(  18) = (   1.9729656   1.5430890  16.0903287  )
        19           Ti1 tau(  19) = (   3.2372663   3.0309179  15.7728032  )
        20           Ti1 tau(  20) = (   6.5553692   1.3539605  15.8053163  )
        21           O1  tau(  21) = (   3.2904802   0.0005063   4.7018136  )
        22           O1  tau(  22) = (   6.5123495   0.2165906  17.2215032  )
        23           O1  tau(  23) = (   1.3043587   1.4918075   6.0039043  )
        24           O1  tau(  24) = (   5.2767064   1.4903225   6.0039473  )
        25           Ti1 tau(  25) = (   0.0000382   5.9609847   6.0000000  )
        26           Ti1 tau(  26) = (   3.2902200   4.4714249   6.0002472  )
        27           O1  tau(  27) = (   0.0002396   2.9813036   7.9858123  )
        28           O1  tau(  28) = (   3.2902150   2.9813002   7.3038282  )
        29           O1  tau(  29) = (   4.5938453   4.4726049   9.2879030  )
        30           O1  tau(  30) = (   1.9864658   4.4711199   9.2879459  )
        31           Ti1 tau(  31) = (   3.2891106   5.8743827   9.1763621  )
        32           Ti1 tau(  32) = (   0.0006254   4.4649316   9.2693709  )
        33           O1  tau(  33) = (   3.2699379   2.9911670  11.3762017  )
        34           O1  tau(  34) = (   0.0092240   2.9805883  10.6323155  )
        35           O1  tau(  35) = (   1.2730946   4.4825978  12.6662957  )
        36           O1  tau(  36) = (   5.2742290   4.4829497  12.6320226  )
        37           Ti1 tau(  37) = (   6.5783117   0.0079037  12.5026730  )
        38           Ti1 tau(  38) = (   3.2784283   4.4905194  12.5286134  )
        39           O1  tau(  39) = (   6.5033290   3.0824797  14.9867588  )
        40           O1  tau(  40) = (   3.2824109   3.0350539  13.9807796  )
        41           O1  tau(  41) = (   4.4804250   4.5097483  16.2808085  )
        42           O1  tau(  42) = (   1.9642025   4.5165872  16.2225063  )
        43           Ti1 tau(  43) = (   3.2609991   0.0502580  15.7998297  )
        44           Ti1 tau(  44) = (   6.5501253   4.5826093  16.0954727  )
        45           O1  tau(  45) = (   3.2900926   2.9813045   4.7018136  )
        46           O1  tau(  46) = (   1.3039711   4.4726057   6.0039043  )
        47           O1  tau(  47) = (   5.2763189   4.4711207   6.0039473  )
        48           N1  tau(  48) = (   0.8845045   3.2634721  19.1145209  )
        49           N1  tau(  49) = (   6.3504243   3.3997271  18.1787592  )
        50           C1  tau(  50) = (   1.2927081   4.5631590  19.6429350  )
        51           H1  tau(  51) = (   0.4658632   5.1229972  20.1056819  )
        52           H1  tau(  52) = (   2.0600825   4.3818216  20.3958833  )
        53           H1  tau(  53) = (   1.7018904   5.1738364  18.8453250  )
        54           H1  tau(  54) = (   0.5628611   2.6866381  19.8888112  )
        55           H1  tau(  55) = (   5.6051421   3.9827062  18.5884547  )
        56           H1  tau(  56) = (   5.9567982   2.4624696  18.0937858  )

     number of k points=    10  Fermi-Dirac smearing, width (Ry)=  0.0073
                       cart. coord. in units 2pi/alat
        k(    1) = (   0.0000000   0.0000000   0.0000000), wk =   0.1250000
        k(    2) = (   0.0000000   0.0419351   0.0000000), wk =   0.2500000
        k(    3) = (   0.0000000  -0.0838702   0.0000000), wk =   0.1250000
        k(    4) = (   0.0379955   0.0000049   0.0000000), wk =   0.2500000
        k(    5) = (   0.0379955   0.0419400   0.0000000), wk =   0.2500000
        k(    6) = (   0.0379955  -0.0838652   0.0000000), wk =   0.2500000
        k(    7) = (   0.0379955  -0.0419301   0.0000000), wk =   0.2500000
        k(    8) = (  -0.0759910  -0.0000099   0.0000000), wk =   0.1250000
        k(    9) = (  -0.0759910   0.0419252   0.0000000), wk =   0.2500000
        k(   10) = (  -0.0759910  -0.0838800   0.0000000), wk =   0.1250000

     Initial potential from superposition of free atoms

     starting charge  381.99914, renormalised to  398.00000

     negative rho (up, down):  1.415E-02 0.000E+00

     %%%%%%%%%%%%%%%%%%%%%%%%%%%%%%%%%%%%%%%%%%%%%%%%%%%%%%%%%%%%%%%%%%%%%%%%
     %                                                                      %
     % You are using vdW-DF, which was implemented by the Thonhauser group. %
     % Please cite the following two papers that made this development      %
     % possible and the two reviews that describe the various versions:     %
     %                                                                      %
     %   T. Thonhauser et al., PRL 115, 136402 (2015).                      %
     %   T. Thonhauser et al., PRB 76, 125112 (2007).                       %
     %   K. Berland et al., Rep. Prog. Phys. 78, 066501 (2015).             %
     %   D.C. Langreth et al., J. Phys.: Condens. Matter 21, 084203 (2009). %
     %                                                                      %
     %                                                                      %
     % If you are calculating the stress with vdW-DF, please also cite:     %
     %                                                                      %
     %   R. Sabatini et al., J. Phys.: Condens. Matter 24, 424209 (2012).   %
     %                                                                      %
     %%%%%%%%%%%%%%%%%%%%%%%%%%%%%%%%%%%%%%%%%%%%%%%%%%%%%%%%%%%%%%%%%%%%%%%%

     Adding external electric field

     Computed dipole along edir(3) :
        Dipole              -11.7131 Ry au,        -29.7717 Debye
        Dipole field         -0.0221 Ry au,

        Potential amp.        2.0490 Ry
        Total length         46.3494 bohr

     Starting wfcs are  302 atomic wfcs
  @ DRIVER MODE: Message from server: STATUS
  @ DRIVER MODE: Message from server: POSDATA
  @ DRIVER MODE: Reading and sharing cell
  @ DRIVER MODE: Reading and sharing positions
  @ DRIVER MODE: Received positions

     Self-consistent Calculation

     iteration #  1     ecut=    29.40 Ry     beta= 0.05
     Davidson diagonalization with overlap
     c_bands:  3 eigenvalues not converged
     c_bands:  1 eigenvalues not converged
     c_bands:  1 eigenvalues not converged
     c_bands:  4 eigenvalues not converged
     c_bands:  1 eigenvalues not converged
     c_bands:  4 eigenvalues not converged
     c_bands:  5 eigenvalues not converged
     c_bands:  2 eigenvalues not converged
     ethr =  1.00E-05,  avg # of iterations = 21.9

[...]

     total energy              =   -2424.46214787 Ry
     estimated scf accuracy    <    5831.23295505 Ry

     iteration #  2     ecut=    29.40 Ry     beta= 0.05
     Davidson diagonalization with overlap
     ethr =  1.00E-02,  avg # of iterations = 22.3

[...]

     iteration # 75     ecut=    29.40 Ry     beta= 0.05
     Davidson diagonalization with overlap
     c_bands:  1 eigenvalues not converged
     ethr =  8.55E-11,  avg # of iterations = 14.9

[...]

     total energy              =   -2942.84381656 Ry
     estimated scf accuracy    <       0.00000013 Ry

     iteration # 77     ecut=    29.40 Ry     beta= 0.05
     Davidson diagonalization with overlap
     ethr =  3.23E-11,  avg # of iterations = 12.5

     negative rho (up, down):  1.513E-02 0.000E+00

     Adding external electric field

     Computed dipole along edir(3) :
        Dipole                1.4967 Ry au,          3.8042 Debye
        Dipole field          0.0028 Ry au,

        Potential amp.       -0.2618 Ry
        Total length         46.3494 bohr

     End of self-consistent calculation

          k = 0.0000 0.0000 0.0000 ( 18029 PWs)   bands (ev):

   -55.1993 -55.1621 -55.1513 -55.1215 -55.1172 -55.0805 -55.0777 -55.0428
   -55.0234 -55.0104 -54.9890 -54.9841 -54.9504 -54.8538 -54.1836 -54.1495
   -31.7656 -31.6486 -31.6442 -31.5658 -31.5126 -31.5116 -31.5088 -31.4902
   -31.4404 -31.4368 -31.4090 -31.4067 -31.3964 -31.3791 -31.3665 -31.3602
   -31.3537 -31.3439 -31.3366 -31.3197 -31.3039 -31.3013 -31.2691 -31.2656
   -31.2552 -31.2542 -31.2354 -31.2261 -31.2085 -31.2081 -31.2036 -31.1830
   -31.1828 -31.1797 -31.1726 -31.1701 -31.1368 -31.1271 -31.1124 -31.0955
   -31.0670 -31.0474 -30.5932 -30.4985 -30.4765 -30.4094 -30.3226 -30.2118
   -17.9173 -16.0326 -15.7702 -15.6247 -15.5125 -15.4013 -15.2817 -15.2512
   -15.1314 -15.0553 -14.9213 -14.8950 -14.8727 -14.8491 -14.8373 -14.8246
   -14.7488 -14.7423 -14.7264 -14.6981 -14.6960 -14.6510 -14.6412 -14.6018
   -14.5766 -14.5557 -14.4511 -14.3627 -14.2886 -14.0721 -13.4544 -12.6862
   -12.5687  -9.7014  -6.5826  -6.0581  -4.5807  -3.3713  -3.2612  -3.2230
    -3.1372  -3.1036  -3.0934  -3.0020  -2.9481  -2.7895  -2.6471  -2.6228
    -2.4903  -2.4154  -2.3990  -2.3747  -2.2448  -2.2112  -2.1584  -2.1213
    -2.0603  -2.0322  -2.0061  -1.9904  -1.9592  -1.9502  -1.9252  -1.8372
    -1.7771  -1.6879  -1.6693  -1.5989  -1.5942  -1.5580  -1.5372  -1.4917
    -1.4812  -1.4350  -1.4250  -1.4124  -1.3920  -1.2679  -1.2208  -1.1109
    -1.0500  -0.9627  -0.8410  -0.8010  -0.7870  -0.6962  -0.6874  -0.6567
    -0.5787  -0.5757  -0.5451  -0.4368  -0.3716  -0.3082  -0.2493  -0.2233
    -0.1898  -0.1125  -0.0218   0.0145   0.0314   0.0543   0.1546   0.1896
     0.2452   0.3121   0.3236   0.3369   0.4174   0.4578   0.5328   0.5695
     0.5872   0.6758   0.7026   0.7301   0.7306   0.7685   0.7828   0.8224
     0.8710   0.8979   0.9842   1.0349   1.1048   1.3495   1.4022   1.4087
     1.7347   1.7427   1.8391   2.0225   2.4157   2.4641   3.8972   3.9659
     4.0419   4.0468   4.0692   4.1330   4.3708   4.3937   4.4029   4.4051
     4.4315

[...]

          k = 0.0380-0.0419 0.0000 ( 17876 PWs)   bands (ev):

[...]

          k =-0.0760-0.0000 0.0000 ( 17886 PWs)   bands (ev):

[...]

          k =-0.0760-0.0839 0.0000 ( 17948 PWs)   bands (ev):

   -55.1855 -55.1757 -55.1344 -55.1340 -55.1201 -55.0762 -55.0633 -55.0571
   -55.0147 -55.0076 -55.0044 -54.9675 -54.9671 -54.8549 -54.1667 -54.1663
   -31.5737 -31.5719 -31.5659 -31.4812 -31.4594 -31.4592 -31.4563 -31.4257
   -31.4255 -31.4103 -31.3994 -31.3977 -31.3889 -31.3628 -31.3537 -31.3410
   -31.3400 -31.3362 -31.3329 -31.3270 -31.3255 -31.3195 -31.2804 -31.2771
   -31.2769 -31.2753 -31.2576 -31.2567 -31.2541 -31.2537 -31.2493 -31.2406
   -31.2377 -31.2207 -31.2173 -31.2014 -31.2005 -31.1977 -31.1483 -31.1479
   -31.1234 -31.0714 -30.4893 -30.4890 -30.4058 -30.4055 -30.3661 -30.3660
   -17.9139 -15.5567 -15.4277 -15.3986 -15.2422 -15.2059 -15.1727 -15.1594
   -15.0383 -15.0012 -14.9764 -14.9671 -14.9494 -14.9090 -14.9034 -14.8964
   -14.8260 -14.8068 -14.8025 -14.7803 -14.7220 -14.7130 -14.7091 -14.7016
   -14.6509 -14.6473 -14.5662 -14.5566 -14.5534 -14.3740 -13.4578 -12.6702
   -12.6701  -9.7177  -6.5661  -6.0583  -4.5593  -3.2341  -2.9598  -2.6901
    -2.6855  -2.6572  -2.4561  -2.3934  -2.3630  -2.3583  -2.2603  -2.2238
    -2.1995  -2.1954  -2.1307  -2.1152  -2.0867  -2.0546  -2.0383  -2.0254
    -2.0127  -1.9971  -1.9692  -1.9317  -1.9237  -1.9160  -1.8852  -1.8616
    -1.8387  -1.8174  -1.8030  -1.7847  -1.7585  -1.7369  -1.6006  -1.5678
    -1.4984  -1.4610  -1.4109  -1.4066  -1.3348  -1.2984  -1.2484  -1.2360
    -1.2197  -1.0792  -1.0213  -0.9700  -0.9501  -0.9391  -0.8112  -0.7960
    -0.7241  -0.7054  -0.6889  -0.6151  -0.5635  -0.5251  -0.5113  -0.4183
    -0.4027  -0.3366  -0.2342  -0.2114  -0.1977  -0.1569  -0.1538  -0.1067
    -0.0997  -0.0154   0.0288   0.0638   0.0746   0.1105   0.3032   0.3196
     0.3292   0.4824   0.4985   0.6397   0.6834   0.7496   0.8086   0.8477
     0.9092   0.9465   1.0460   1.0871   1.1043   1.1110   1.1738   1.1858
     1.2486   1.2593   2.1952   2.1958   2.2839   2.2842   4.0431   4.1505
     4.1582   4.1998   4.3196   4.3499   4.4123   4.4395   4.4811   4.4843
     4.5444

     the Fermi energy is     3.9605 ev

!    total energy              =   -2942.84382584 Ry
     estimated scf accuracy    <       0.00000006 Ry
     smearing contrib. (-TS)   =      -0.03707816 Ry
     internal energy E=F+TS    =   -2942.80674768 Ry

     The total energy is F=E-TS. E is the sum of the following terms:
     one-electron contribution =  -23369.03449812 Ry
     hartree contribution      =   11778.71895001 Ry
     xc contribution           =    -487.73439706 Ry
     ewald contribution        =    9135.23897019 Ry
     electric field correction =       0.00422730 Ry

     convergence has been achieved in  77 iterations

     Forces acting on atoms (cartesian axes, Ry/au):

     atom    1 type  1   force =     0.00017070   -0.00032673    0.09328487
     atom    2 type  1   force =    -0.00006221   -0.00043116   -0.17824373
     atom    3 type  2   force =     0.00002719   -0.00032227   -0.02004534
     atom    4 type  2   force =     0.00002078   -0.00183494    0.05924549
     atom    5 type  2   force =    -0.01046378   -0.00026185    0.00863244
     atom    6 type  2   force =     0.01147630    0.00040949    0.00644494
     atom    7 type  1   force =    -0.00100652    0.00212611   -0.01399544
     atom    8 type  1   force =     0.00081730   -0.00095061   -0.00573574
     atom    9 type  2   force =    -0.00010116    0.00012827   -0.00001384
     atom   10 type  2   force =    -0.00185410    0.00411265    0.00025611
     atom   11 type  2   force =    -0.00005881   -0.00063876    0.00027242
     atom   12 type  2   force =    -0.00002269   -0.00040534    0.00052831
     atom   13 type  1   force =     0.00004037    0.00010299    0.00035825
     atom   14 type  1   force =    -0.00036902    0.00000032    0.00009516
     atom   15 type  2   force =     0.00051058    0.00039638   -0.00042569
     atom   16 type  2   force =     0.00031856   -0.00035022   -0.00008621
     atom   17 type  2   force =    -0.00061485   -0.00003725   -0.00001607
     atom   18 type  2   force =     0.00053852   -0.00019631    0.00002959
     atom   19 type  1   force =    -0.00000022   -0.00051087    0.00017870
     atom   20 type  1   force =     0.00068997    0.00015427    0.00082878
     atom   21 type  2   force =     0.00012218   -0.00012854    0.10406019
     atom   22 type  2   force =    -0.00038227    0.00015566   -0.00012705
     atom   23 type  2   force =    -0.07027267   -0.00022214   -0.02687332
     atom   24 type  2   force =     0.07026247    0.00021506   -0.02689887
     atom   25 type  1   force =     0.00008253   -0.00032140    0.09259241
     atom   26 type  1   force =    -0.00003488   -0.00059538   -0.17837306
     atom   27 type  2   force =     0.00012891   -0.00016628   -0.01909652
     atom   28 type  2   force =     0.00005108   -0.00163385    0.05860617
     atom   29 type  2   force =    -0.01106457   -0.00055631    0.00931203
     atom   30 type  2   force =     0.01198182   -0.00001895    0.00720243
     atom   31 type  1   force =    -0.00093129    0.00646340   -0.01506048
     atom   32 type  1   force =     0.00085524    0.00102258   -0.00586989
     atom   33 type  2   force =     0.00017434   -0.00057086   -0.00004632
     atom   34 type  2   force =    -0.00185731   -0.00052120   -0.00050215
     atom   35 type  2   force =    -0.00044376    0.00006273   -0.00044780
     atom   36 type  2   force =     0.00034327   -0.00011882    0.00017062
     atom   37 type  1   force =    -0.00051663   -0.00024707    0.00024680
     atom   38 type  1   force =    -0.00004533   -0.00014770   -0.00007956
     atom   39 type  2   force =     0.00030019   -0.00061418   -0.00015688
     atom   40 type  2   force =    -0.00060294   -0.00051495    0.00023366
     atom   41 type  2   force =    -0.00037178   -0.00067553   -0.00080047
     atom   42 type  2   force =     0.00051257   -0.00006494   -0.00010643
     atom   43 type  1   force =     0.00024382   -0.00021984   -0.00024962
     atom   44 type  1   force =     0.00062544    0.00006689    0.00024349
     atom   45 type  2   force =     0.00013223   -0.00014206    0.10401779
     atom   46 type  2   force =    -0.07027556   -0.00016160   -0.02684371
     atom   47 type  2   force =     0.07024427    0.00026157   -0.02690123
     atom   48 type  3   force =     0.00061050    0.00185536   -0.00458793
     atom   49 type  3   force =    -0.00006714    0.00293030    0.01151642
     atom   50 type  4   force =    -0.00040964   -0.00170763   -0.00040568
     atom   51 type  5   force =    -0.00072515    0.00160641    0.00071936
     atom   52 type  5   force =     0.00037801   -0.00035681   -0.00013743
     atom   53 type  5   force =     0.00084669    0.00042888   -0.00118157
     atom   54 type  5   force =    -0.00145812   -0.00171383   -0.00028909
     atom   55 type  5   force =     0.00335780   -0.00348157   -0.00414040
     atom   56 type  5   force =    -0.00185123   -0.00133156   -0.00133891

     Total force =     0.366652     Total SCF correction =     0.000901
  @ DRIVER MODE: Message from server: STATUS
  @ DRIVER MODE: Message from server: GETFORCE
  @ DRIVER MODE: Returning v,forces,stress,ensemble

     Writing output data file ./calc.save/
  @ DRIVER MODE: Message from server: EXIT
  @ DRIVE MODE: Exiting

     General routines

     Parallel routines

   This run was terminated on:  23: 8:21  24Aug2021

   JOB DONE.