     Program PWSCF v.6.7GPU starts on 24Aug2021 at  4:10:32

     R & G space division:  proc/nbgrp/npool/nimage =       6
     Reading input from /storage/home/hcoda1/3/ntian30/research/carbon/CH_vib/ads_slab/CHN2H_a/out_0029/pw.inp
Warning: card &CELL ignored
Warning: card   CELL_DYNAMICS='IPI', ignored
Warning: card / ignored

     Current dimensions of program PWSCF are:
     Max number of different atomic species (ntypx) = 10
     Max number of k-points (npk) =  40000
     Max angular momentum in pseudopotentials (lmaxx) =  3
     Presently no symmetry can be used with electric field

     Message from routine cell_base_init:
     DEPRECATED: use true lattice parameter, not A to a.u. conversion factor

     IMPORTANT: XC functional enforced from input :
     Exchange-correlation= BEEF-VDW
                           (   1   4  43  14   2   0   0)
     Any further DFT definition will be discarded
     Please, verify this is what you really want

  @ DRIVER MODE: Connecting to
 qe_1139763_2632792.sched-torque.pace.gatech.edu5hqvalef_scratch
  using UNIX socket
  @ DRIVER MODE: Message from server: STATUS
  @ DRIVER MODE: Message from server: INIT
  @ DRIVER MODE: Receiving replica           0          -1
  @ DRIVER MODE: Receiving encoded integer          25
  @ DRIVER MODE:  SCF:  T  FORCE:  T  STRESS:  F  VC:  F  ENSEMBLE:  F
  @ DRIVER MODE:  SCF:  T  FORCE:  T  STRESS:  F  VC:  F  ENSEMBLE:  F

     Using Slab Decomposition

     bravais-lattice index     =            0
     lattice parameter (alat)  =       1.8897  a.u.
     unit-cell volume          =    6658.9804 (a.u.)^3
     number of atoms/cell      =           52
     number of atomic types    =            5
     number of electrons       =       394.00
     number of Kohn-Sham states=          207
     kinetic-energy cutoff     =      29.3995  Ry
     charge density cutoff     =     293.9946  Ry
     scf convergence threshold =      7.3E-08
     mixing beta               =       0.0500
     number of iterations used =            8  plain     mixing
     Exchange-correlation= BEEF-VDW
                           (   1   4  43  14   2   0   0)

     celldm(1)=   1.889726  celldm(2)=   0.000000  celldm(3)=   0.000000
     celldm(4)=   0.000000  celldm(5)=   0.000000  celldm(6)=   0.000000

     crystal axes: (cart. coord. in units of alat)
               a(1) = (   6.579727   0.000000   0.000000 )
               a(2) = (  -0.000775   5.961596   0.000000 )
               a(3) = (   0.000000   0.000000  25.155947 )

     reciprocal axes: (cart. coord. in units 2 pi/alat)
               b(1) = (  0.151982  0.000020  0.000000 )
               b(2) = (  0.000000  0.167740  0.000000 )
               b(3) = (  0.000000  0.000000  0.039752 )

     PseudoPot. # 1 for Ti read from file:
     /storage/coda1/p-amedford6/0/shared/rich_project_chbe-medford/medford-share/data/pseudos_module/espresso/nninc/pbe/van/Ti.UPF
     MD5 check sum: 8e4df49b7f0d34bbd5052bf3f5ea0213
     Pseudo is Ultrasoft, Zval = 12.0
     Generated by new atomic code, or converted to UPF format
     Using radial grid of  851 points,  6 beta functions with:
                l(1) =   0
                l(2) =   0
                l(3) =   1
                l(4) =   1
                l(5) =   2
                l(6) =   2
     Q(r) pseudized with  8 coefficients,  rinner =    1.000   1.000   1.000
                                                       1.000   1.000

     PseudoPot. # 2 for O  read from file:
     /storage/coda1/p-amedford6/0/shared/rich_project_chbe-medford/medford-share/data/pseudos_module/espresso/nninc/pbe/van/O.UPF
     MD5 check sum: 78c19812648e8988a0fe644b0f25305e
     Pseudo is Ultrasoft, Zval =  6.0
     Generated by new atomic code, or converted to UPF format
     Using radial grid of  737 points,  4 beta functions with:
                l(1) =   0
                l(2) =   0
                l(3) =   1
                l(4) =   1
     Q(r) pseudized with  8 coefficients,  rinner =    0.800   0.800   0.800

     PseudoPot. # 3 for N  read from file:
     /storage/coda1/p-amedford6/0/shared/rich_project_chbe-medford/medford-share/data/pseudos_module/espresso/nninc/pbe/van/N.UPF
     MD5 check sum: 90d10febe142ad51ac9d5be1deb811c4
     Pseudo is Ultrasoft, Zval =  5.0
     Generated by new atomic code, or converted to UPF format
     Using radial grid of  729 points,  4 beta functions with:
                l(1) =   0
                l(2) =   0
                l(3) =   1
                l(4) =   1
     Q(r) pseudized with  8 coefficients,  rinner =    0.800   0.800   0.800

     PseudoPot. # 4 for C  read from file:
     /storage/coda1/p-amedford6/0/shared/rich_project_chbe-medford/medford-share/data/pseudos_module/espresso/nninc/pbe/van/C.UPF
     MD5 check sum: 1a69bf6b8db32088f5b2163dbdb77a27
     Pseudo is Ultrasoft, Zval =  4.0
     Generated by new atomic code, or converted to UPF format
     Using radial grid of  721 points,  4 beta functions with:
                l(1) =   0
                l(2) =   0
                l(3) =   1
                l(4) =   1
     Q(r) pseudized with  8 coefficients,  rinner =    0.800   0.800   0.800

     PseudoPot. # 5 for H  read from file:
     /storage/coda1/p-amedford6/0/shared/rich_project_chbe-medford/medford-share/data/pseudos_module/espresso/nninc/pbe/van/H.UPF
     MD5 check sum: b5ee9d7bfd3a09ee7748110bda690ff7
     Pseudo is Ultrasoft, Zval =  1.0
     Generated by new atomic code, or converted to UPF format
     Using radial grid of  615 points,  1 beta functions with:
                l(1) =   0
     Q(r) pseudized with  8 coefficients,  rinner =    0.800

     atomic species   valence    mass     pseudopotential
        Ti1           12.00    47.86700     Ti( 1.00)
        O1             6.00    15.99900     O ( 1.00)
        N1             5.00    14.00700     N ( 1.00)
        C1             4.00    12.01100     C ( 1.00)
        H1             1.00     1.00800     H ( 1.00)

     No symmetry found

   Cartesian axes

     site n.     atom                  positions (alat units)
         1           Ti1 tau(   1) = (   0.0004258   2.9801865   6.0000000  )
         2           Ti1 tau(   2) = (   3.2906075   1.4906267   6.0002472  )
         3           O1  tau(   3) = (   0.0006271   0.0005054   7.9858123  )
         4           O1  tau(   4) = (   3.2906025   0.0005020   7.3038282  )
         5           O1  tau(   5) = (   4.5942328   1.4918067   9.2879030  )
         6           O1  tau(   6) = (   1.9868534   1.4903216   9.2879459  )
         7           Ti1 tau(   7) = (   3.2907910   2.8959150   9.1758416  )
         8           Ti1 tau(   8) = (   0.0015273   1.4827037   9.2680791  )
         9           O1  tau(   9) = (   3.3079035   5.9465650  11.3667630  )
        10           O1  tau(  10) = (   0.0116148   5.9584955  10.6183126  )
        11           O1  tau(  11) = (   1.3159687   1.4802111  12.6598234  )
        12           O1  tau(  12) = (   5.3141237   1.4785834  12.6569702  )
        13           Ti1 tau(  13) = (   0.0356438   2.9569522  12.5500042  )
        14           Ti1 tau(  14) = (   3.3321116   1.4682926  12.5176941  )
        15           O1  tau(  15) = (   0.0287262   5.9365737  14.6848071  )
        16           O1  tau(  16) = (   3.3260766   5.9477468  13.9918032  )
        17           O1  tau(  17) = (   4.5788076   1.5006004  16.1778977  )
        18           O1  tau(  18) = (   2.0653823   1.4932191  16.1519216  )
        19           Ti1 tau(  19) = (   3.3252840   2.9629899  15.7366588  )
        20           Ti1 tau(  20) = (   0.0567170   1.3280226  15.9864722  )
        21           O1  tau(  21) = (   3.2904802   0.0005063   4.7018136  )
        22           O1  tau(  22) = (   0.0395201   5.9563027  17.2132275  )
        23           O1  tau(  23) = (   1.3043587   1.4918075   6.0039043  )
        24           O1  tau(  24) = (   5.2767064   1.4903225   6.0039473  )
        25           Ti1 tau(  25) = (   0.0000382   5.9609847   6.0000000  )
        26           Ti1 tau(  26) = (   3.2902200   4.4714249   6.0002472  )
        27           O1  tau(  27) = (   0.0002396   2.9813036   7.9858123  )
        28           O1  tau(  28) = (   3.2902150   2.9813002   7.3038282  )
        29           O1  tau(  29) = (   4.5938453   4.4726049   9.2879030  )
        30           O1  tau(  30) = (   1.9864658   4.4711199   9.2879459  )
        31           Ti1 tau(  31) = (   3.2891106   5.8743827   9.1763621  )
        32           Ti1 tau(  32) = (   0.0006254   4.4649316   9.2693709  )
        33           O1  tau(  33) = (   3.3109971   2.9638951  11.3609806  )
        34           O1  tau(  34) = (   0.0092240   2.9805883  10.6323155  )
        35           O1  tau(  35) = (   1.3172493   4.4579999  12.6547637  )
        36           O1  tau(  36) = (   5.3123203   4.4599931  12.6537913  )
        37           Ti1 tau(  37) = (   0.0349292   5.9384232  12.5038109  )
        38           Ti1 tau(  38) = (   3.3308216   4.4462378  12.5132791  )
        39           O1  tau(  39) = (   0.0262156   2.9786664  14.8481040  )
        40           O1  tau(  40) = (   3.3240488   2.9673873  13.9486158  )
        41           O1  tau(  41) = (   4.5778164   4.4375445  16.1741249  )
        42           O1  tau(  42) = (   2.0647505   4.4412733  16.1578575  )
        43           Ti1 tau(  43) = (   3.3314326   5.9455663  15.7867969  )
        44           Ti1 tau(  44) = (   0.0345939   4.5236910  15.9072353  )
        45           O1  tau(  45) = (   3.2900926   2.9813045   4.7018136  )
        46           O1  tau(  46) = (   1.3039711   4.4726057   6.0039043  )
        47           O1  tau(  47) = (   5.2763189   4.4711207   6.0039473  )
        48           N1  tau(  48) = (   0.8843530   3.1395628  18.6524426  )
        49           C1  tau(  49) = (   1.8908588   3.1194352  19.2834450  )
        50           H1  tau(  50) = (   2.4245030   3.8971110  19.8100181  )
        51           N1  tau(  51) = (   6.5588057   2.9807634  17.7841789  )
        52           H1  tau(  52) = (   5.6432114   2.8891999  18.2170943  )

     number of k points=    10  Fermi-Dirac smearing, width (Ry)=  0.0073
                       cart. coord. in units 2pi/alat
        k(    1) = (   0.0000000   0.0000000   0.0000000), wk =   0.1250000
        k(    2) = (   0.0000000   0.0419351   0.0000000), wk =   0.2500000
        k(    3) = (   0.0000000  -0.0838702   0.0000000), wk =   0.1250000
        k(    4) = (   0.0379955   0.0000049   0.0000000), wk =   0.2500000
        k(    5) = (   0.0379955   0.0419400   0.0000000), wk =   0.2500000
        k(    6) = (   0.0379955  -0.0838652   0.0000000), wk =   0.2500000
        k(    7) = (   0.0379955  -0.0419301   0.0000000), wk =   0.2500000
        k(    8) = (  -0.0759910  -0.0000099   0.0000000), wk =   0.1250000
        k(    9) = (  -0.0759910   0.0419252   0.0000000), wk =   0.2500000
        k(   10) = (  -0.0759910  -0.0838800   0.0000000), wk =   0.1250000

     Initial potential from superposition of free atoms

     starting charge  377.99917, renormalised to  394.00000

     negative rho (up, down):  1.653E-02 0.000E+00

     %%%%%%%%%%%%%%%%%%%%%%%%%%%%%%%%%%%%%%%%%%%%%%%%%%%%%%%%%%%%%%%%%%%%%%%%
     %                                                                      %
     % You are using vdW-DF, which was implemented by the Thonhauser group. %
     % Please cite the following two papers that made this development      %
     % possible and the two reviews that describe the various versions:     %
     %                                                                      %
     %   T. Thonhauser et al., PRL 115, 136402 (2015).                      %
     %   T. Thonhauser et al., PRB 76, 125112 (2007).                       %
     %   K. Berland et al., Rep. Prog. Phys. 78, 066501 (2015).             %
     %   D.C. Langreth et al., J. Phys.: Condens. Matter 21, 084203 (2009). %
     %                                                                      %
     %                                                                      %
     % If you are calculating the stress with vdW-DF, please also cite:     %
     %                                                                      %
     %   R. Sabatini et al., J. Phys.: Condens. Matter 24, 424209 (2012).   %
     %                                                                      %
     %%%%%%%%%%%%%%%%%%%%%%%%%%%%%%%%%%%%%%%%%%%%%%%%%%%%%%%%%%%%%%%%%%%%%%%%

     Adding external electric field

     Computed dipole along edir(3) :
        Dipole               -8.4987 Ry au,        -21.6015 Debye
        Dipole field         -0.0160 Ry au,

        Potential amp.        1.4867 Ry
        Total length         46.3494 bohr

     Starting wfcs are  298 atomic wfcs
  @ DRIVER MODE: Message from server: STATUS
  @ DRIVER MODE: Message from server: POSDATA
  @ DRIVER MODE: Reading and sharing cell
  @ DRIVER MODE: Reading and sharing positions
  @ DRIVER MODE: Received positions

     Self-consistent Calculation

     iteration #  1     ecut=    29.40 Ry     beta= 0.05
     Davidson diagonalization with overlap
     c_bands:  1 eigenvalues not converged
     c_bands:  1 eigenvalues not converged
     c_bands:  2 eigenvalues not converged
     c_bands:  2 eigenvalues not converged
     c_bands:  2 eigenvalues not converged
     c_bands:  1 eigenvalues not converged
     ethr =  1.00E-05,  avg # of iterations = 19.0

[...]

     total energy              =   -2624.25699104 Ry
     estimated scf accuracy    <    3488.43410843 Ry

[...]

     iteration #  3     ecut=    29.40 Ry     beta= 0.05
     Davidson diagonalization with overlap
     ethr =  1.00E-02,  avg # of iterations = 15.3

[...]

     iteration # 74     ecut=    29.40 Ry     beta= 0.05
     Davidson diagonalization with overlap
     ethr =  6.20E-11,  avg # of iterations =  9.4

[...]

     total energy              =   -2937.80853649 Ry
     estimated scf accuracy    <       0.00000010 Ry

     iteration # 77     ecut=    29.40 Ry     beta= 0.05
     Davidson diagonalization with overlap
     c_bands:  1 eigenvalues not converged
     c_bands:  1 eigenvalues not converged
     ethr =  1.95E-11,  avg # of iterations = 12.2

     negative rho (up, down):  1.629E-02 0.000E+00

     Adding external electric field

     Computed dipole along edir(3) :
        Dipole                1.2916 Ry au,          3.2829 Debye
        Dipole field          0.0024 Ry au,

        Potential amp.       -0.2259 Ry
        Total length         46.3494 bohr

     End of self-consistent calculation

          k = 0.0000 0.0000 0.0000 ( 18029 PWs)   bands (ev):

   -55.4359 -55.3998 -55.3997 -55.3656 -55.3294 -55.3135 -55.2705 -55.2487
   -55.2449 -55.2340 -55.2263 -55.2142 -55.1930 -55.1667 -54.4179 -54.3838
   -32.0049 -31.8903 -31.8301 -31.7993 -31.7553 -31.7477 -31.7379 -31.7292
   -31.6893 -31.6826 -31.6450 -31.6442 -31.6370 -31.6096 -31.5903 -31.5720
   -31.5679 -31.5616 -31.5530 -31.5474 -31.5131 -31.5118 -31.5023 -31.4936
   -31.4791 -31.4567 -31.4510 -31.4498 -31.4446 -31.4403 -31.4373 -31.4230
   -31.4150 -31.4089 -31.4030 -31.3979 -31.3771 -31.3633 -31.3616 -31.3557
   -31.3350 -31.2737 -30.8268 -30.7338 -30.7117 -30.6432 -30.5565 -30.4456
   -20.2328 -16.2507 -15.9784 -15.8349 -15.7111 -15.6263 -15.4996 -15.4615
   -15.3490 -15.3413 -15.2281 -15.1526 -15.0854 -15.0833 -15.0673 -15.0388
   -14.9881 -14.9711 -14.9686 -14.9262 -14.9241 -14.8822 -14.8626 -14.8286
   -14.8108 -14.7918 -14.7752 -14.6521 -14.5825 -14.5238 -14.1632 -12.9205
   -12.8033  -8.8554  -7.1616  -5.4270  -4.7230  -3.5957  -3.4358  -3.3490
    -3.3324  -3.3308  -3.1639  -3.0362  -2.8086  -2.7721  -2.6972  -2.6428
    -2.6248  -2.6031  -2.4254  -2.4009  -2.3413  -2.3144  -2.2765  -2.2462
    -2.2213  -2.2028  -2.1940  -2.1754  -2.1622  -2.0009  -1.9023  -1.8717
    -1.8359  -1.8217  -1.7621  -1.7292  -1.7235  -1.7212  -1.7122  -1.6691
    -1.6503  -1.6016  -1.5003  -1.4678  -1.4421  -1.3184  -1.3016  -1.1546
    -1.0685  -0.9840  -0.9767  -0.9098  -0.9051  -0.8713  -0.8197  -0.7955
    -0.7713  -0.6378  -0.5679  -0.5111  -0.4953  -0.4506  -0.4051  -0.3694
    -0.2762  -0.2116  -0.2040  -0.1919  -0.0273  -0.0132   0.0340   0.0835
     0.1078   0.1568   0.1818   0.2514   0.2856   0.3309   0.3610   0.4579
     0.4975   0.5179   0.5317   0.5512   0.5635   0.6241   0.6908   0.7093
     0.7575   0.8137   0.9255   1.1225   1.1851   1.1979   1.5144   1.5484
     1.6047   1.7899   2.1796   2.2273   3.6641   3.7356   3.7994   3.8144
     3.8230   3.8997   4.0752   4.1474   4.1629   4.1696   4.1810

[...]

          k = 0.0380-0.0419 0.0000 ( 17876 PWs)   bands (ev):

[...]

          k =-0.0760-0.0000 0.0000 ( 17886 PWs)   bands (ev):

[...]

          k =-0.0760-0.0839 0.0000 ( 17948 PWs)   bands (ev):

   -55.4190 -55.4165 -55.3828 -55.3824 -55.3261 -55.3050 -55.2790 -55.2405
   -55.2372 -55.2322 -55.2299 -55.2100 -55.2097 -55.1709 -54.4009 -54.4007
   -31.8099 -31.8069 -31.7486 -31.7285 -31.7055 -31.7053 -31.6935 -31.6749
   -31.6746 -31.6464 -31.6371 -31.6316 -31.6286 -31.5882 -31.5662 -31.5631
   -31.5629 -31.5552 -31.5547 -31.5441 -31.5315 -31.5220 -31.5117 -31.5080
   -31.5036 -31.5022 -31.5018 -31.4973 -31.4733 -31.4654 -31.4654 -31.4627
   -31.4460 -31.4438 -31.4432 -31.4343 -31.4328 -31.4280 -31.3901 -31.3897
   -31.3849 -31.3652 -30.7245 -30.7243 -30.6395 -30.6392 -30.5999 -30.5998
   -20.2315 -15.7063 -15.6860 -15.6270 -15.4212 -15.4194 -15.4063 -15.3923
   -15.3770 -15.2335 -15.2152 -15.1986 -15.1808 -15.1383 -15.1351 -15.1198
   -15.1104 -15.0094 -15.0073 -15.0052 -15.0038 -14.9413 -14.9333 -14.9196
   -14.8851 -14.8819 -14.8528 -14.7829 -14.7800 -14.6478 -14.4839 -12.9049
   -12.9048  -8.8411  -7.1806  -5.4255  -4.7064  -2.9613  -2.8909  -2.8479
    -2.6382  -2.6155  -2.6007  -2.5179  -2.4687  -2.4066  -2.3992  -2.3932
    -2.3335  -2.2984  -2.2848  -2.2665  -2.2584  -2.2414  -2.2195  -2.2088
    -2.1629  -2.1511  -2.1415  -2.1073  -2.0934  -2.0749  -2.0514  -2.0344
    -2.0165  -2.0110  -1.9914  -1.8310  -1.7795  -1.7331  -1.6810  -1.6725
    -1.6278  -1.6202  -1.5263  -1.4916  -1.4628  -1.4357  -1.4269  -1.2351
    -1.2203  -1.1674  -1.1629  -1.1394  -0.9839  -0.9634  -0.9476  -0.9304
    -0.8849  -0.8021  -0.7961  -0.7585  -0.6514  -0.6212  -0.6133  -0.5644
    -0.4437  -0.4210  -0.3986  -0.3927  -0.3870  -0.2942  -0.2768  -0.2688
    -0.2358  -0.2022  -0.1515  -0.1450  -0.0924   0.0901   0.1344   0.2002
     0.2793   0.4479   0.4871   0.5141   0.5557   0.6168   0.6899   0.7059
     0.7707   0.8646   0.8794   0.9087   0.9816   1.0347   1.0425   1.0668
     1.9627   1.9635   2.0473   2.0474   3.8347   3.8457   3.9082   3.9451
     3.9940   4.0841   4.1830   4.1993   4.2428   4.2440   4.3276

     the Fermi energy is     3.7180 ev

!    total energy              =   -2937.80855209 Ry
     estimated scf accuracy    <       0.00000003 Ry
     smearing contrib. (-TS)   =      -0.03814077 Ry
     internal energy E=F+TS    =   -2937.77041132 Ry

     The total energy is F=E-TS. E is the sum of the following terms:
     one-electron contribution =  -24092.80614298 Ry
     hartree contribution      =   12136.45947172 Ry
     xc contribution           =    -484.38830881 Ry
     ewald contribution        =    9502.96142060 Ry
     electric field correction =       0.00314815 Ry

     convergence has been achieved in  77 iterations

     Forces acting on atoms (cartesian axes, Ry/au):

     atom    1 type  1   force =     0.00006347   -0.00011525    0.09407204
     atom    2 type  1   force =    -0.00016135   -0.00022715   -0.17762471
     atom    3 type  2   force =     0.00011113   -0.00021417   -0.02136706
     atom    4 type  2   force =     0.00002453   -0.00184203    0.05753352
     atom    5 type  2   force =    -0.01069479   -0.00139216    0.00633345
     atom    6 type  2   force =     0.01276284   -0.00074712    0.00661507
     atom    7 type  1   force =     0.00011534    0.00196895   -0.01405893
     atom    8 type  1   force =    -0.00046883    0.00583128    0.00396407
     atom    9 type  2   force =     0.00036227    0.00022784   -0.00008712
     atom   10 type  2   force =    -0.00024068    0.00021307   -0.00512611
     atom   11 type  2   force =     0.00005006   -0.00015401   -0.00044714
     atom   12 type  2   force =    -0.00029326    0.00000658    0.00008867
     atom   13 type  1   force =    -0.00025559    0.00001639   -0.00029876
     atom   14 type  1   force =    -0.00008808    0.00014895   -0.00017194
     atom   15 type  2   force =    -0.00049846   -0.00040292   -0.00018653
     atom   16 type  2   force =    -0.00017797    0.00019133    0.00006049
     atom   17 type  2   force =     0.00007708   -0.00010161   -0.00003728
     atom   18 type  2   force =    -0.00040035   -0.00014494   -0.00048715
     atom   19 type  1   force =    -0.00033968    0.00014271   -0.00033631
     atom   20 type  1   force =    -0.00015030   -0.00007588    0.00054432
     atom   21 type  2   force =     0.00001506    0.00001609    0.10381898
     atom   22 type  2   force =     0.00001582    0.00011052   -0.00008132
     atom   23 type  2   force =    -0.07061336   -0.00008612   -0.02704398
     atom   24 type  2   force =     0.07050776    0.00035694   -0.02709571
     atom   25 type  1   force =     0.00001233   -0.00007683    0.09370132
     atom   26 type  1   force =    -0.00013862   -0.00015866   -0.17768635
     atom   27 type  2   force =     0.00013576   -0.00023371   -0.02035780
     atom   28 type  2   force =     0.00006610   -0.00154998    0.05700414
     atom   29 type  2   force =    -0.01103464   -0.00053723    0.00635744
     atom   30 type  2   force =     0.01295683   -0.00027451    0.00665025
     atom   31 type  1   force =     0.00029802    0.00520773   -0.01483024
     atom   32 type  1   force =    -0.00040182   -0.00658213    0.00413630
     atom   33 type  2   force =     0.00015847    0.00008015   -0.00031963
     atom   34 type  2   force =     0.00035800   -0.00101844   -0.00203237
     atom   35 type  2   force =    -0.00031357    0.00015320   -0.00021146
     atom   36 type  2   force =    -0.00004127    0.00000151    0.00011803
     atom   37 type  1   force =    -0.00007310    0.00023643   -0.00014899
     atom   38 type  1   force =     0.00006137    0.00025365    0.00020428
     atom   39 type  2   force =    -0.00009214    0.00020454    0.00006993
     atom   40 type  2   force =    -0.00029541    0.00009421   -0.00018074
     atom   41 type  2   force =    -0.00014246   -0.00013961    0.00016386
     atom   42 type  2   force =    -0.00020584    0.00017392   -0.00020453
     atom   43 type  1   force =    -0.00023680    0.00012139   -0.00016307
     atom   44 type  1   force =     0.00009184   -0.00045747   -0.00011280
     atom   45 type  2   force =     0.00001184   -0.00000125    0.10382969
     atom   46 type  2   force =    -0.07063679   -0.00003233   -0.02705704
     atom   47 type  2   force =     0.07051178    0.00040513   -0.02709168
     atom   48 type  3   force =    -0.00108506   -0.00029365    0.00086005
     atom   49 type  4   force =    -0.00140195    0.00042087   -0.00047304
     atom   50 type  5   force =     0.00004486   -0.00007277   -0.00027356
     atom   51 type  3   force =     0.00691417    0.00040096   -0.00516543
     atom   52 type  5   force =    -0.00524456   -0.00005242    0.00463286

     Total force =     0.366142     Total SCF correction =     0.000418
  @ DRIVER MODE: Message from server: STATUS
  @ DRIVER MODE: Message from server: GETFORCE
  @ DRIVER MODE: Returning v,forces,stress,ensemble

     Writing output data file ./calc.save/
  @ DRIVER MODE: Message from server: EXIT
  @ DRIVE MODE: Exiting

     General routines

     Parallel routines

   This run was terminated on:   4:43:23  24Aug2021

   JOB DONE.