     Program PWSCF v.6.7GPU starts on 23Sep2021 at  2:12: 7

     R & G space division:  proc/nbgrp/npool/nimage =      10
     Reading input from /storage/home/hcoda1/3/ntian30/research/carbon/CxH_vib/H2O_calc/ads_slab/CH2N2HHO_a/out_0029/pw.inp
Warning: card &CELL ignored
Warning: card   CELL_DYNAMICS='IPI', ignored
Warning: card / ignored

     Current dimensions of program PWSCF are:
     Max number of different atomic species (ntypx) = 10
     Max number of k-points (npk) =  40000
     Max angular momentum in pseudopotentials (lmaxx) =  3
     Presently no symmetry can be used with electric field

     Message from routine cell_base_init:
     DEPRECATED: use true lattice parameter, not A to a.u. conversion factor

     IMPORTANT: XC functional enforced from input :
     Exchange-correlation= BEEF-VDW
                           (   1   4  43  14   2   0   0)
     Any further DFT definition will be discarded
     Please, verify this is what you really want

  @ DRIVER MODE: Connecting to
 qe_1139763_2937323.sched-torque.pace.gatech.edundi_kabc_scratch
  using UNIX socket
  @ DRIVER MODE: Message from server: STATUS
  @ DRIVER MODE: Message from server: INIT
  @ DRIVER MODE: Receiving replica           0          -1
  @ DRIVER MODE: Receiving encoded integer          25
  @ DRIVER MODE:  SCF:  T  FORCE:  T  STRESS:  F  VC:  F  ENSEMBLE:  F
  @ DRIVER MODE:  SCF:  T  FORCE:  T  STRESS:  F  VC:  F  ENSEMBLE:  F

     Using Slab Decomposition

     bravais-lattice index     =            0
     lattice parameter (alat)  =       1.8897  a.u.
     unit-cell volume          =    6658.9804 (a.u.)^3
     number of atoms/cell      =           55
     number of atomic types    =            5
     number of electrons       =       402.00
     number of Kohn-Sham states=          211
     kinetic-energy cutoff     =      29.3995  Ry
     charge density cutoff     =     293.9946  Ry
     scf convergence threshold =      7.3E-08
     mixing beta               =       0.0500
     number of iterations used =            8  plain     mixing
     Exchange-correlation= BEEF-VDW
                           (   1   4  43  14   2   0   0)

     celldm(1)=   1.889726  celldm(2)=   0.000000  celldm(3)=   0.000000
     celldm(4)=   0.000000  celldm(5)=   0.000000  celldm(6)=   0.000000

     crystal axes: (cart. coord. in units of alat)
               a(1) = (   6.579727   0.000000   0.000000 )
               a(2) = (  -0.000775   5.961596   0.000000 )
               a(3) = (   0.000000   0.000000  25.155947 )

     reciprocal axes: (cart. coord. in units 2 pi/alat)
               b(1) = (  0.151982  0.000020  0.000000 )
               b(2) = (  0.000000  0.167740  0.000000 )
               b(3) = (  0.000000  0.000000  0.039752 )

     PseudoPot. # 1 for Ti read from file:
     /storage/coda1/p-amedford6/0/shared/rich_project_chbe-medford/medford-share/data/pseudos_module/espresso/nninc/pbe/van/Ti.UPF
     MD5 check sum: 8e4df49b7f0d34bbd5052bf3f5ea0213
     Pseudo is Ultrasoft, Zval = 12.0
     Generated by new atomic code, or converted to UPF format
     Using radial grid of  851 points,  6 beta functions with:
                l(1) =   0
                l(2) =   0
                l(3) =   1
                l(4) =   1
                l(5) =   2
                l(6) =   2
     Q(r) pseudized with  8 coefficients,  rinner =    1.000   1.000   1.000
                                                       1.000   1.000

     PseudoPot. # 2 for O  read from file:
     /storage/coda1/p-amedford6/0/shared/rich_project_chbe-medford/medford-share/data/pseudos_module/espresso/nninc/pbe/van/O.UPF
     MD5 check sum: 78c19812648e8988a0fe644b0f25305e
     Pseudo is Ultrasoft, Zval =  6.0
     Generated by new atomic code, or converted to UPF format
     Using radial grid of  737 points,  4 beta functions with:
                l(1) =   0
                l(2) =   0
                l(3) =   1
                l(4) =   1
     Q(r) pseudized with  8 coefficients,  rinner =    0.800   0.800   0.800

     PseudoPot. # 3 for N  read from file:
     /storage/coda1/p-amedford6/0/shared/rich_project_chbe-medford/medford-share/data/pseudos_module/espresso/nninc/pbe/van/N.UPF
     MD5 check sum: 90d10febe142ad51ac9d5be1deb811c4
     Pseudo is Ultrasoft, Zval =  5.0
     Generated by new atomic code, or converted to UPF format
     Using radial grid of  729 points,  4 beta functions with:
                l(1) =   0
                l(2) =   0
                l(3) =   1
                l(4) =   1
     Q(r) pseudized with  8 coefficients,  rinner =    0.800   0.800   0.800

     PseudoPot. # 4 for C  read from file:
     /storage/coda1/p-amedford6/0/shared/rich_project_chbe-medford/medford-share/data/pseudos_module/espresso/nninc/pbe/van/C.UPF
     MD5 check sum: 1a69bf6b8db32088f5b2163dbdb77a27
     Pseudo is Ultrasoft, Zval =  4.0
     Generated by new atomic code, or converted to UPF format
     Using radial grid of  721 points,  4 beta functions with:
                l(1) =   0
                l(2) =   0
                l(3) =   1
                l(4) =   1
     Q(r) pseudized with  8 coefficients,  rinner =    0.800   0.800   0.800

     PseudoPot. # 5 for H  read from file:
     /storage/coda1/p-amedford6/0/shared/rich_project_chbe-medford/medford-share/data/pseudos_module/espresso/nninc/pbe/van/H.UPF
     MD5 check sum: b5ee9d7bfd3a09ee7748110bda690ff7
     Pseudo is Ultrasoft, Zval =  1.0
     Generated by new atomic code, or converted to UPF format
     Using radial grid of  615 points,  1 beta functions with:
                l(1) =   0
     Q(r) pseudized with  8 coefficients,  rinner =    0.800

     atomic species   valence    mass     pseudopotential
        Ti1           12.00    47.86700     Ti( 1.00)
        O1             6.00    15.99900     O ( 1.00)
        N1             5.00    14.00700     N ( 1.00)
        C1             4.00    12.01100     C ( 1.00)
        H1             1.00     1.00800     H ( 1.00)

     No symmetry found

   Cartesian axes

     site n.     atom                  positions (alat units)
         1           Ti1 tau(   1) = (   0.0004258   2.9801865   6.0000000  )
         2           Ti1 tau(   2) = (   3.2906075   1.4906267   6.0002472  )
         3           O1  tau(   3) = (   0.0006271   0.0005054   7.9858123  )
         4           O1  tau(   4) = (   3.2906025   0.0005020   7.3038282  )
         5           O1  tau(   5) = (   4.5942328   1.4918067   9.2879030  )
         6           O1  tau(   6) = (   1.9868534   1.4903216   9.2879459  )
         7           Ti1 tau(   7) = (   3.2907910   2.8959150   9.1758416  )
         8           Ti1 tau(   8) = (   0.0015273   1.4827037   9.2680791  )
         9           O1  tau(   9) = (   3.3002520   5.9418316  11.2747492  )
        10           O1  tau(  10) = (   0.0116148   5.9584955  10.6183126  )
        11           O1  tau(  11) = (   1.2897458   1.4862980  12.6211975  )
        12           O1  tau(  12) = (   5.3051886   1.5023792  12.6347999  )
        13           Ti1 tau(  13) = (   0.0146078   2.8478158  12.7200684  )
        14           Ti1 tau(  14) = (   3.3063360   1.3081926  12.6482236  )
        15           O1  tau(  15) = (   0.0235978   5.9609164  14.6274833  )
        16           O1  tau(  16) = (   3.2983906   0.0399142  13.8749830  )
        17           O1  tau(  17) = (   4.5813539   1.5856785  16.0626423  )
        18           O1  tau(  18) = (   2.0324892   1.5097802  16.0098020  )
        19           Ti1 tau(  19) = (   3.2774956   2.9544257  15.6266065  )
        20           Ti1 tau(  20) = (   6.5530467   1.3151789  15.9772938  )
        21           O1  tau(  21) = (   3.2904802   0.0005063   4.7018136  )
        22           O1  tau(  22) = (   6.5059356   5.9265713  17.1294848  )
        23           O1  tau(  23) = (   1.3043587   1.4918075   6.0039043  )
        24           O1  tau(  24) = (   5.2767064   1.4903225   6.0039473  )
        25           Ti1 tau(  25) = (   0.0000382   5.9609847   6.0000000  )
        26           Ti1 tau(  26) = (   3.2902200   4.4714249   6.0002472  )
        27           O1  tau(  27) = (   0.0002396   2.9813036   7.9858123  )
        28           O1  tau(  28) = (   3.2902150   2.9813002   7.3038282  )
        29           O1  tau(  29) = (   4.5938453   4.4726049   9.2879030  )
        30           O1  tau(  30) = (   1.9864658   4.4711199   9.2879459  )
        31           Ti1 tau(  31) = (   3.2891106   5.8743827   9.1763621  )
        32           Ti1 tau(  32) = (   0.0006254   4.4649316   9.2693709  )
        33           O1  tau(  33) = (   3.2992753   3.0242338  11.2405823  )
        34           O1  tau(  34) = (   0.0092240   2.9805883  10.6323155  )
        35           O1  tau(  35) = (   1.2972400   4.4705050  12.6241655  )
        36           O1  tau(  36) = (   5.3008088   4.4694758  12.6340222  )
        37           Ti1 tau(  37) = (   0.0289225   5.8314391  12.5906285  )
        38           Ti1 tau(  38) = (   3.3189507   4.3956991  12.4097224  )
        39           O1  tau(  39) = (   0.0312427   2.9750824  14.7260556  )
        40           O1  tau(  40) = (   3.2762925   2.9668711  13.8358254  )
        41           O1  tau(  41) = (   4.5358187   4.4455929  15.9064879  )
        42           O1  tau(  42) = (   2.0572077   4.4429961  16.0439637  )
        43           Ti1 tau(  43) = (   3.2186928   5.9141907  16.2420754  )
        44           Ti1 tau(  44) = (   6.4642982   4.4840528  15.9061301  )
        45           O1  tau(  45) = (   3.2900926   2.9813045   4.7018136  )
        46           O1  tau(  46) = (   1.3039711   4.4726057   6.0039043  )
        47           O1  tau(  47) = (   5.2763189   4.4711207   6.0039473  )
        48           N1  tau(  48) = (   0.2499663   2.3419386  17.9913213  )
        49           C1  tau(  49) = (   0.6208863   1.8700663  19.1394302  )
        50           H1  tau(  50) = (   0.7431952   2.5333404  19.9929579  )
        51           H1  tau(  51) = (   0.8399735   0.8189210  19.2161768  )
        52           N1  tau(  52) = (   6.5658643   3.6116587  17.7652569  )
        53           H1  tau(  53) = (   0.1300021   4.2235620  18.5825096  )
        54           O1  tau(  54) = (   3.3713844   5.9089882  18.0735649  )
        55           H1  tau(  55) = (   4.1655974   0.3538959  18.4550359  )

     number of k points=    10  Fermi-Dirac smearing, width (Ry)=  0.0073
                       cart. coord. in units 2pi/alat
        k(    1) = (   0.0000000   0.0000000   0.0000000), wk =   0.1250000
        k(    2) = (   0.0000000   0.0419351   0.0000000), wk =   0.2500000
        k(    3) = (   0.0000000  -0.0838702   0.0000000), wk =   0.1250000
        k(    4) = (   0.0379955   0.0000049   0.0000000), wk =   0.2500000
        k(    5) = (   0.0379955   0.0419400   0.0000000), wk =   0.2500000
        k(    6) = (   0.0379955  -0.0838652   0.0000000), wk =   0.2500000
        k(    7) = (   0.0379955  -0.0419301   0.0000000), wk =   0.2500000
        k(    8) = (  -0.0759910  -0.0000099   0.0000000), wk =   0.1250000
        k(    9) = (  -0.0759910   0.0419252   0.0000000), wk =   0.2500000
        k(   10) = (  -0.0759910  -0.0838800   0.0000000), wk =   0.1250000

     Initial potential from superposition of free atoms

     starting charge  385.99915, renormalised to  402.00000

     negative rho (up, down):  1.591E-02 0.000E+00

     %%%%%%%%%%%%%%%%%%%%%%%%%%%%%%%%%%%%%%%%%%%%%%%%%%%%%%%%%%%%%%%%%%%%%%%%
     %                                                                      %
     % You are using vdW-DF, which was implemented by the Thonhauser group. %
     % Please cite the following two papers that made this development      %
     % possible and the two reviews that describe the various versions:     %
     %                                                                      %
     %   T. Thonhauser et al., PRL 115, 136402 (2015).                      %
     %   T. Thonhauser et al., PRB 76, 125112 (2007).                       %
     %   K. Berland et al., Rep. Prog. Phys. 78, 066501 (2015).             %
     %   D.C. Langreth et al., J. Phys.: Condens. Matter 21, 084203 (2009). %
     %                                                                      %
     %                                                                      %
     % If you are calculating the stress with vdW-DF, please also cite:     %
     %                                                                      %
     %   R. Sabatini et al., J. Phys.: Condens. Matter 24, 424209 (2012).   %
     %                                                                      %
     %%%%%%%%%%%%%%%%%%%%%%%%%%%%%%%%%%%%%%%%%%%%%%%%%%%%%%%%%%%%%%%%%%%%%%%%

     Adding external electric field

     Computed dipole along edir(3) :
        Dipole              -11.3488 Ry au,        -28.8458 Debye
        Dipole field         -0.0214 Ry au,

        Potential amp.        1.9853 Ry
        Total length         46.3494 bohr

     Starting wfcs are  304 atomic wfcs
  @ DRIVER MODE: Message from server: STATUS
  @ DRIVER MODE: Message from server: POSDATA
  @ DRIVER MODE: Reading and sharing cell
  @ DRIVER MODE: Reading and sharing positions
  @ DRIVER MODE: Received positions

     Self-consistent Calculation

     iteration #  1     ecut=    29.40 Ry     beta= 0.05
     Davidson diagonalization with overlap
     c_bands:  4 eigenvalues not converged
     c_bands:  3 eigenvalues not converged
     c_bands:  3 eigenvalues not converged
     c_bands:  5 eigenvalues not converged
     c_bands:  5 eigenvalues not converged
     c_bands:  1 eigenvalues not converged
     c_bands:  5 eigenvalues not converged
     c_bands:  4 eigenvalues not converged
     c_bands:  5 eigenvalues not converged
     c_bands:  1 eigenvalues not converged
     ethr =  1.00E-05,  avg # of iterations = 24.0

[...]

     total energy              =   -2410.19042652 Ry
     estimated scf accuracy    <    6308.02158727 Ry

     iteration #  2     ecut=    29.40 Ry     beta= 0.05
     Davidson diagonalization with overlap
     ethr =  1.00E-02,  avg # of iterations = 23.0

[...]

     iteration # 34     ecut=    29.40 Ry     beta= 0.05
     Davidson diagonalization with overlap
     c_bands:  1 eigenvalues not converged
     c_bands:  1 eigenvalues not converged
     c_bands:  1 eigenvalues not converged
     c_bands:  1 eigenvalues not converged
     ethr =  2.34E-06,  avg # of iterations = 12.9

[...]

     total energy              =   -2972.72730085 Ry
     estimated scf accuracy    <       0.00000049 Ry

     iteration # 56     ecut=    29.40 Ry     beta= 0.05
     Davidson diagonalization with overlap
     ethr =  5.59E-11,  avg # of iterations =  6.0

     negative rho (up, down):  1.620E-02 0.000E+00

     Adding external electric field

     Computed dipole along edir(3) :
        Dipole                0.4591 Ry au,          1.1668 Debye
        Dipole field          0.0009 Ry au,

        Potential amp.       -0.0803 Ry
        Total length         46.3494 bohr

     End of self-consistent calculation

          k = 0.0000 0.0000 0.0000 ( 18029 PWs)   bands (ev):

   -56.5451 -56.5115 -55.8881 -55.8526 -55.6254 -55.5658 -55.3765 -55.3221
   -55.2934 -55.2275 -55.1941 -55.1921 -55.1602 -55.0288 -55.0220 -54.9738
   -32.9771 -32.8296 -32.8016 -32.7127 -32.6215 -32.6028 -32.3712 -32.1076
   -32.1059 -32.0784 -32.0313 -32.0276 -31.9946 -31.8658 -31.8541 -31.8463
   -31.7931 -31.7696 -31.7286 -31.7062 -31.6838 -31.6438 -31.6350 -31.5837
   -31.5829 -31.5776 -31.5727 -31.5351 -31.5307 -31.5188 -31.5110 -31.5019
   -31.4805 -31.4765 -31.4210 -31.4037 -31.3974 -31.3464 -31.3211 -31.2905
   -31.2790 -31.2758 -31.2389 -31.2307 -31.2092 -31.2079 -31.1660 -31.1458
   -17.7922 -16.7286 -16.2917 -16.1646 -15.9789 -15.9137 -15.8839 -15.8553
   -15.7918 -15.6069 -15.5370 -15.5059 -15.5051 -15.4424 -15.2744 -15.1778
   -15.1518 -15.0872 -15.0110 -14.9866 -14.9483 -14.8997 -14.8624 -14.8521
   -14.8381 -14.7978 -14.6830 -14.5986 -14.4959 -14.3197 -14.2988 -13.6917
   -13.5822 -11.9698  -7.6830  -5.1434  -4.3583  -4.2798  -3.7974  -3.7688
    -3.6079  -3.4234  -3.3735  -3.2188  -3.1641  -3.1224  -3.0639  -3.0492
    -2.9464  -2.8019  -2.7898  -2.7412  -2.7234  -2.7139  -2.6934  -2.5898
    -2.5250  -2.5188  -2.4225  -2.3297  -2.3068  -2.2702  -2.2328  -2.2225
    -2.1809  -2.1385  -2.0861  -2.0508  -2.0278  -1.9323  -1.9137  -1.8060
    -1.7906  -1.7584  -1.7440  -1.7177  -1.6805  -1.6186  -1.5549  -1.4360
    -1.3429  -1.3243  -1.2518  -1.2401  -1.2233  -1.0585  -1.0168  -1.0123
    -0.9541  -0.8774  -0.8533  -0.7909  -0.7528  -0.7073  -0.6531  -0.6111
    -0.5776  -0.4573  -0.4500  -0.3933  -0.3100  -0.2934  -0.2620  -0.2389
    -0.1605  -0.1021  -0.0639   0.0126   0.0686   0.0769   0.1238   0.1769
     0.2866   0.3305   0.3537   0.3857   0.4274   0.4523   0.5190   0.5660
     0.5966   0.6072   0.6834   0.7843   0.8017   0.8290   0.9281   0.9455
     1.0393   1.0749   1.0838   1.1781   1.1963   1.3669   1.4054   1.5837
     2.3752   2.7202   2.8707   3.1533   3.1707   3.4642   3.6835   3.7101
     3.7132   3.7973   3.9359

[...]

          k = 0.0380-0.0419 0.0000 ( 17876 PWs)   bands (ev):

[...]

          k =-0.0760-0.0000 0.0000 ( 17886 PWs)   bands (ev):

[...]

          k =-0.0760-0.0839 0.0000 ( 17948 PWs)   bands (ev):

   -56.5286 -56.5279 -55.8762 -55.8644 -55.6201 -55.5711 -55.3704 -55.3280
   -55.2914 -55.2260 -55.1939 -55.1777 -55.1764 -55.0301 -55.0149 -54.9807
   -32.8156 -32.8148 -32.7943 -32.7933 -32.6657 -32.6654 -32.1972 -32.1877
   -32.0698 -32.0569 -32.0566 -32.0487 -31.9282 -31.8893 -31.8479 -31.8413
   -31.7981 -31.7919 -31.6996 -31.6668 -31.6215 -31.6070 -31.5879 -31.5837
   -31.5676 -31.5605 -31.5424 -31.5297 -31.5244 -31.5235 -31.5150 -31.5057
   -31.4690 -31.4618 -31.4273 -31.4023 -31.4016 -31.4001 -31.3834 -31.3632
   -31.3621 -31.2951 -31.2712 -31.2495 -31.2424 -31.2319 -31.2105 -31.1688
   -17.7782 -16.1450 -16.1114 -16.1072 -16.0249 -16.0225 -15.8179 -15.8109
   -15.6276 -15.6026 -15.5252 -15.4565 -15.3516 -15.3153 -15.2941 -15.2439
   -15.1927 -15.1671 -15.1073 -15.0745 -14.9930 -14.9606 -14.9461 -14.9357
   -14.9005 -14.8457 -14.7172 -14.6851 -14.6655 -14.5795 -14.4496 -13.6863
   -13.6856 -11.9274  -7.6117  -5.2053  -4.4329  -3.7427  -3.2223  -3.1945
    -3.1472  -3.1384  -2.9382  -2.8996  -2.8720  -2.8244  -2.7856  -2.7658
    -2.7276  -2.7214  -2.6384  -2.5855  -2.5544  -2.5421  -2.5187  -2.4570
    -2.4323  -2.4091  -2.3977  -2.3597  -2.3476  -2.3372  -2.3132  -2.2482
    -2.1964  -2.1453  -2.1118  -2.0679  -2.0183  -2.0118  -1.9774  -1.9668
    -1.8863  -1.8033  -1.7579  -1.6833  -1.6021  -1.5670  -1.5415  -1.5230
    -1.4764  -1.4271  -1.3987  -1.3509  -1.3221  -1.2673  -1.2381  -1.2244
    -1.1548  -1.1192  -1.0506  -1.0273  -0.9475  -0.8379  -0.7799  -0.7611
    -0.7309  -0.7206  -0.6495  -0.5833  -0.5418  -0.5192  -0.4475  -0.4367
    -0.4109  -0.3612  -0.3461  -0.3141  -0.1997  -0.1325  -0.0793   0.0041
     0.0465   0.0855   0.1697   0.2236   0.2403   0.3199   0.3998   0.4808
     0.4957   0.5378   0.5433   0.7076   0.7385   0.8479   0.8825   0.9552
     0.9909   1.0310   1.1502   1.1950   1.2169   1.2182   1.2397   1.2592
     2.3199   3.2903   3.2930   3.3431   3.3512   3.6201   3.6284   3.7646
     3.7666   3.8900   3.9287

     the Fermi energy is     2.5978 ev

!    total energy              =   -2972.72737507 Ry
     estimated scf accuracy    <       0.00000006 Ry
     smearing contrib. (-TS)   =      -0.00734421 Ry
     internal energy E=F+TS    =   -2972.72003086 Ry

     The total energy is F=E-TS. E is the sum of the following terms:
     one-electron contribution =  -24034.27721018 Ry
     hartree contribution      =   12110.79728542 Ry
     xc contribution           =    -493.27838302 Ry
     ewald contribution        =    9444.03787924 Ry
     electric field correction =       0.00039768 Ry

     convergence has been achieved in  56 iterations

     Forces acting on atoms (cartesian axes, Ry/au):

     atom    1 type  1   force =     0.00000143   -0.00044545    0.11639141
     atom    2 type  1   force =    -0.00008061    0.00014249   -0.15926686
     atom    3 type  2   force =     0.00002461    0.00000458   -0.05279559
     atom    4 type  2   force =     0.00005175   -0.00013100    0.02451407
     atom    5 type  2   force =    -0.00347397   -0.00224328   -0.01048215
     atom    6 type  2   force =     0.00526866   -0.00174384   -0.01068096
     atom    7 type  1   force =     0.00000097   -0.00613979    0.04658150
     atom    8 type  1   force =     0.00041589    0.01611236    0.08067005
     atom    9 type  2   force =    -0.00001380   -0.00064158   -0.00008232
     atom   10 type  2   force =    -0.00257744    0.00059636   -0.05009161
     atom   11 type  2   force =    -0.00055299   -0.00013370   -0.00024231
     atom   12 type  2   force =     0.00059102   -0.00028346   -0.00008572
     atom   13 type  1   force =    -0.00018123    0.00042156    0.00044197
     atom   14 type  1   force =     0.00018611    0.00013961   -0.00085813
     atom   15 type  2   force =    -0.00017293   -0.00005101   -0.00093311
     atom   16 type  2   force =     0.00012744   -0.00062083    0.00056267
     atom   17 type  2   force =    -0.00003057    0.00054562    0.00006732
     atom   18 type  2   force =     0.00014946    0.00057238   -0.00030436
     atom   19 type  1   force =    -0.00056368   -0.00017298   -0.00026917
     atom   20 type  1   force =     0.00060880    0.00037167   -0.00003394
     atom   21 type  2   force =     0.00004842    0.00021614    0.09889866
     atom   22 type  2   force =    -0.00008368   -0.00065630   -0.00043220
     atom   23 type  2   force =    -0.07991769    0.00004211   -0.03167701
     atom   24 type  2   force =     0.07981692    0.00047644   -0.03173607
     atom   25 type  1   force =     0.00006847   -0.00056554    0.11666003
     atom   26 type  1   force =    -0.00010949   -0.00142815   -0.15977221
     atom   27 type  2   force =     0.00007095   -0.00070239   -0.05080826
     atom   28 type  2   force =     0.00005432    0.00167200    0.02004626
     atom   29 type  2   force =    -0.00167696    0.00506141   -0.01377351
     atom   30 type  2   force =     0.00358849    0.00548181   -0.01390452
     atom   31 type  1   force =    -0.00017130    0.00219071    0.03207551
     atom   32 type  1   force =     0.00032814   -0.01972243    0.08034143
     atom   33 type  2   force =     0.00013941   -0.00041071   -0.00009711
     atom   34 type  2   force =    -0.00159011    0.00086040   -0.06358408
     atom   35 type  2   force =     0.00041232    0.00003182   -0.00026010
     atom   36 type  2   force =     0.00014339   -0.00005050   -0.00033171
     atom   37 type  1   force =    -0.00013088   -0.00018762   -0.00005796
     atom   38 type  1   force =     0.00014648    0.00043850    0.00031935
     atom   39 type  2   force =    -0.00028735    0.00048565   -0.00020153
     atom   40 type  2   force =     0.00024447    0.00011316    0.00035935
     atom   41 type  2   force =     0.00079918    0.00010483   -0.00024631
     atom   42 type  2   force =    -0.00086575   -0.00037876   -0.00011530
     atom   43 type  1   force =    -0.00051568    0.00033870   -0.00043398
     atom   44 type  1   force =    -0.00007990    0.00112945   -0.00264917
     atom   45 type  2   force =     0.00005565    0.00003328    0.09870294
     atom   46 type  2   force =    -0.07997350    0.00000761   -0.03167527
     atom   47 type  2   force =     0.07986567    0.00043626   -0.03174537
     atom   48 type  3   force =    -0.00045752   -0.00032183   -0.00404090
     atom   49 type  4   force =    -0.00113516    0.00269960   -0.00135066
     atom   50 type  5   force =    -0.00007429   -0.00014406   -0.00002874
     atom   51 type  5   force =    -0.00004010    0.00029516   -0.00044995
     atom   52 type  3   force =     0.00319012    0.00093507    0.01925981
     atom   53 type  5   force =    -0.00241128   -0.00464418   -0.01033990
     atom   54 type  2   force =    -0.00031910   -0.00018033   -0.00065178
     atom   55 type  5   force =     0.00108843    0.00004299    0.00059752

     Total force =     0.397756     Total SCF correction =     0.000538
  @ DRIVER MODE: Message from server: STATUS
  @ DRIVER MODE: Message from server: GETFORCE
  @ DRIVER MODE: Returning v,forces,stress,ensemble

     Writing output data file ./calc.save/
  @ DRIVER MODE: Message from server: EXIT
  @ DRIVE MODE: Exiting

     General routines

     Parallel routines

   This run was terminated on:   2:28:40  23Sep2021

   JOB DONE.