     Program PWSCF v.6.7GPU starts on  9Sep2021 at  0:43:51

     R & G space division:  proc/nbgrp/npool/nimage =      10
     Reading input from /storage/home/hcoda1/3/ntian30/research/carbon/CxH_vib/CH3_calc/ads_slab/CH3N2_c/out_0009/pw.inp
Warning: card &CELL ignored
Warning: card   CELL_DYNAMICS='IPI', ignored
Warning: card / ignored

     Current dimensions of program PWSCF are:
     Max number of different atomic species (ntypx) = 10
     Max number of k-points (npk) =  40000
     Max angular momentum in pseudopotentials (lmaxx) =  3
     Presently no symmetry can be used with electric field

     Message from routine cell_base_init:
     DEPRECATED: use true lattice parameter, not A to a.u. conversion factor

     IMPORTANT: XC functional enforced from input :
     Exchange-correlation= BEEF-VDW
                           (   1   4  43  14   2   0   0)
     Any further DFT definition will be discarded
     Please, verify this is what you really want

  @ DRIVER MODE: Connecting to
 qe_1139763_2767397.sched-torque.pace.gatech.edu5zo37aim_scratch
  using UNIX socket
  @ DRIVER MODE: Message from server: STATUS
  @ DRIVER MODE: Message from server: INIT
  @ DRIVER MODE: Receiving replica           0          -1
  @ DRIVER MODE: Receiving encoded integer          25
  @ DRIVER MODE:  SCF:  T  FORCE:  T  STRESS:  F  VC:  F  ENSEMBLE:  F
  @ DRIVER MODE:  SCF:  T  FORCE:  T  STRESS:  F  VC:  F  ENSEMBLE:  F

     Using Slab Decomposition

     bravais-lattice index     =            0
     lattice parameter (alat)  =       1.8897  a.u.
     unit-cell volume          =    6658.9804 (a.u.)^3
     number of atoms/cell      =           53
     number of atomic types    =            5
     number of electrons       =       395.00
     number of Kohn-Sham states=          207
     kinetic-energy cutoff     =      29.3995  Ry
     charge density cutoff     =     293.9946  Ry
     scf convergence threshold =      7.3E-08
     mixing beta               =       0.0500
     number of iterations used =            8  plain     mixing
     Exchange-correlation= BEEF-VDW
                           (   1   4  43  14   2   0   0)

     celldm(1)=   1.889726  celldm(2)=   0.000000  celldm(3)=   0.000000
     celldm(4)=   0.000000  celldm(5)=   0.000000  celldm(6)=   0.000000

     crystal axes: (cart. coord. in units of alat)
               a(1) = (   6.579727   0.000000   0.000000 )
               a(2) = (  -0.000775   5.961596   0.000000 )
               a(3) = (   0.000000   0.000000  25.155947 )

     reciprocal axes: (cart. coord. in units 2 pi/alat)
               b(1) = (  0.151982  0.000020  0.000000 )
               b(2) = (  0.000000  0.167740  0.000000 )
               b(3) = (  0.000000  0.000000  0.039752 )

     PseudoPot. # 1 for Ti read from file:
     /storage/coda1/p-amedford6/0/shared/rich_project_chbe-medford/medford-share/data/pseudos_module/espresso/nninc/pbe/van/Ti.UPF
     MD5 check sum: 8e4df49b7f0d34bbd5052bf3f5ea0213
     Pseudo is Ultrasoft, Zval = 12.0
     Generated by new atomic code, or converted to UPF format
     Using radial grid of  851 points,  6 beta functions with:
                l(1) =   0
                l(2) =   0
                l(3) =   1
                l(4) =   1
                l(5) =   2
                l(6) =   2
     Q(r) pseudized with  8 coefficients,  rinner =    1.000   1.000   1.000
                                                       1.000   1.000

     PseudoPot. # 2 for O  read from file:
     /storage/coda1/p-amedford6/0/shared/rich_project_chbe-medford/medford-share/data/pseudos_module/espresso/nninc/pbe/van/O.UPF
     MD5 check sum: 78c19812648e8988a0fe644b0f25305e
     Pseudo is Ultrasoft, Zval =  6.0
     Generated by new atomic code, or converted to UPF format
     Using radial grid of  737 points,  4 beta functions with:
                l(1) =   0
                l(2) =   0
                l(3) =   1
                l(4) =   1
     Q(r) pseudized with  8 coefficients,  rinner =    0.800   0.800   0.800

     PseudoPot. # 3 for N  read from file:
     /storage/coda1/p-amedford6/0/shared/rich_project_chbe-medford/medford-share/data/pseudos_module/espresso/nninc/pbe/van/N.UPF
     MD5 check sum: 90d10febe142ad51ac9d5be1deb811c4
     Pseudo is Ultrasoft, Zval =  5.0
     Generated by new atomic code, or converted to UPF format
     Using radial grid of  729 points,  4 beta functions with:
                l(1) =   0
                l(2) =   0
                l(3) =   1
                l(4) =   1
     Q(r) pseudized with  8 coefficients,  rinner =    0.800   0.800   0.800

     PseudoPot. # 4 for C  read from file:
     /storage/coda1/p-amedford6/0/shared/rich_project_chbe-medford/medford-share/data/pseudos_module/espresso/nninc/pbe/van/C.UPF
     MD5 check sum: 1a69bf6b8db32088f5b2163dbdb77a27
     Pseudo is Ultrasoft, Zval =  4.0
     Generated by new atomic code, or converted to UPF format
     Using radial grid of  721 points,  4 beta functions with:
                l(1) =   0
                l(2) =   0
                l(3) =   1
                l(4) =   1
     Q(r) pseudized with  8 coefficients,  rinner =    0.800   0.800   0.800

     PseudoPot. # 5 for H  read from file:
     /storage/coda1/p-amedford6/0/shared/rich_project_chbe-medford/medford-share/data/pseudos_module/espresso/nninc/pbe/van/H.UPF
     MD5 check sum: b5ee9d7bfd3a09ee7748110bda690ff7
     Pseudo is Ultrasoft, Zval =  1.0
     Generated by new atomic code, or converted to UPF format
     Using radial grid of  615 points,  1 beta functions with:
                l(1) =   0
     Q(r) pseudized with  8 coefficients,  rinner =    0.800

     atomic species   valence    mass     pseudopotential
        Ti1           12.00    47.86700     Ti( 1.00)
        O1             6.00    15.99900     O ( 1.00)
        N1             5.00    14.00700     N ( 1.00)
        C1             4.00    12.01100     C ( 1.00)
        H1             1.00     1.00800     H ( 1.00)

     No symmetry found

   Cartesian axes

     site n.     atom                  positions (alat units)
         1           Ti1 tau(   1) = (   0.0004258   2.9801865   6.0000000  )
         2           Ti1 tau(   2) = (   3.2906075   1.4906267   6.0002472  )
         3           O1  tau(   3) = (   0.0006271   0.0005054   7.9858123  )
         4           O1  tau(   4) = (   3.2906025   0.0005020   7.3038282  )
         5           O1  tau(   5) = (   4.5942328   1.4918067   9.2879030  )
         6           O1  tau(   6) = (   1.9868534   1.4903216   9.2879459  )
         7           Ti1 tau(   7) = (   3.2907910   2.8959150   9.1758416  )
         8           Ti1 tau(   8) = (   0.0015273   1.4827037   9.2680791  )
         9           O1  tau(   9) = (   3.2868105   5.9447858  11.3346005  )
        10           O1  tau(  10) = (   0.0116148   5.9584955  10.6183126  )
        11           O1  tau(  11) = (   1.2897616   1.4699164  12.6258314  )
        12           O1  tau(  12) = (   5.2713851   1.4716199  12.6109895  )
        13           Ti1 tau(  13) = (   0.0629619   2.9460495  12.6207869  )
        14           Ti1 tau(  14) = (   3.3778125   1.4702366  12.4807322  )
        15           O1  tau(  15) = (   6.5741670   5.9392046  14.6271830  )
        16           O1  tau(  16) = (   3.2925211   5.9405975  13.9303826  )
        17           O1  tau(  17) = (   4.5331425   1.4971777  16.0590535  )
        18           O1  tau(  18) = (   2.0416154   1.4974824  16.0477615  )
        19           Ti1 tau(  19) = (   3.2901388   2.9722967  15.7036181  )
        20           Ti1 tau(  20) = (   6.5714728   1.5019933  15.8140906  )
        21           O1  tau(  21) = (   3.2904802   0.0005063   4.7018136  )
        22           O1  tau(  22) = (   6.5775371   0.0159386  17.1814867  )
        23           O1  tau(  23) = (   1.3043587   1.4918075   6.0039043  )
        24           O1  tau(  24) = (   5.2767064   1.4903225   6.0039473  )
        25           Ti1 tau(  25) = (   0.0000382   5.9609847   6.0000000  )
        26           Ti1 tau(  26) = (   3.2902200   4.4714249   6.0002472  )
        27           O1  tau(  27) = (   0.0002396   2.9813036   7.9858123  )
        28           O1  tau(  28) = (   3.2902150   2.9813002   7.3038282  )
        29           O1  tau(  29) = (   4.5938453   4.4726049   9.2879030  )
        30           O1  tau(  30) = (   1.9864658   4.4711199   9.2879459  )
        31           Ti1 tau(  31) = (   3.2891106   5.8743827   9.1763621  )
        32           Ti1 tau(  32) = (   0.0006254   4.4649316   9.2693709  )
        33           O1  tau(  33) = (   3.2909631   2.9655588  11.3316111  )
        34           O1  tau(  34) = (   0.0092240   2.9805883  10.6323155  )
        35           O1  tau(  35) = (   1.2884032   4.4536117  12.6269208  )
        36           O1  tau(  36) = (   5.2752684   4.4605011  12.6109535  )
        37           Ti1 tau(  37) = (   0.0626277   5.9200555  12.5524633  )
        38           Ti1 tau(  38) = (   3.3797810   4.4486816  12.4846537  )
        39           O1  tau(  39) = (   6.5720240   2.9440667  14.6479771  )
        40           O1  tau(  40) = (   3.2941106   2.9728877  13.9057494  )
        41           O1  tau(  41) = (   4.5311790   4.4530262  16.1020043  )
        42           O1  tau(  42) = (   2.0427069   4.4534008  16.0946336  )
        43           Ti1 tau(  43) = (   3.2818950   5.9508925  15.7274921  )
        44           Ti1 tau(  44) = (   6.5750914   4.6476268  16.0792144  )
        45           O1  tau(  45) = (   3.2900926   2.9813045   4.7018136  )
        46           O1  tau(  46) = (   1.3039711   4.4726057   6.0039043  )
        47           O1  tau(  47) = (   5.2763189   4.4711207   6.0039473  )
        48           N1  tau(  48) = (   0.0795740   2.6614725  18.6386781  )
        49           N1  tau(  49) = (   0.0132033   2.8694178  17.4383708  )
        50           C1  tau(  50) = (   0.1510961   3.8031638  19.5808395  )
        51           H1  tau(  51) = (   6.4701351   4.7592986  19.1328852  )
        52           H1  tau(  52) = (   6.0910372   3.5604803  20.4266230  )
        53           H1  tau(  53) = (   1.1812797   3.8285794  19.9476819  )

     number of k points=    10  Fermi-Dirac smearing, width (Ry)=  0.0073
                       cart. coord. in units 2pi/alat
        k(    1) = (   0.0000000   0.0000000   0.0000000), wk =   0.1250000
        k(    2) = (   0.0000000   0.0419351   0.0000000), wk =   0.2500000
        k(    3) = (   0.0000000  -0.0838702   0.0000000), wk =   0.1250000
        k(    4) = (   0.0379955   0.0000049   0.0000000), wk =   0.2500000
        k(    5) = (   0.0379955   0.0419400   0.0000000), wk =   0.2500000
        k(    6) = (   0.0379955  -0.0838652   0.0000000), wk =   0.2500000
        k(    7) = (   0.0379955  -0.0419301   0.0000000), wk =   0.2500000
        k(    8) = (  -0.0759910  -0.0000099   0.0000000), wk =   0.1250000
        k(    9) = (  -0.0759910   0.0419252   0.0000000), wk =   0.2500000
        k(   10) = (  -0.0759910  -0.0838800   0.0000000), wk =   0.1250000

     Initial potential from superposition of free atoms

     starting charge  378.99916, renormalised to  395.00000

     negative rho (up, down):  1.506E-02 0.000E+00

     %%%%%%%%%%%%%%%%%%%%%%%%%%%%%%%%%%%%%%%%%%%%%%%%%%%%%%%%%%%%%%%%%%%%%%%%
     %                                                                      %
     % You are using vdW-DF, which was implemented by the Thonhauser group. %
     % Please cite the following two papers that made this development      %
     % possible and the two reviews that describe the various versions:     %
     %                                                                      %
     %   T. Thonhauser et al., PRL 115, 136402 (2015).                      %
     %   T. Thonhauser et al., PRB 76, 125112 (2007).                       %
     %   K. Berland et al., Rep. Prog. Phys. 78, 066501 (2015).             %
     %   D.C. Langreth et al., J. Phys.: Condens. Matter 21, 084203 (2009). %
     %                                                                      %
     %                                                                      %
     % If you are calculating the stress with vdW-DF, please also cite:     %
     %                                                                      %
     %   R. Sabatini et al., J. Phys.: Condens. Matter 24, 424209 (2012).   %
     %                                                                      %
     %%%%%%%%%%%%%%%%%%%%%%%%%%%%%%%%%%%%%%%%%%%%%%%%%%%%%%%%%%%%%%%%%%%%%%%%

     Adding external electric field

     Computed dipole along edir(3) :
        Dipole               -8.8495 Ry au,        -22.4931 Debye
        Dipole field         -0.0167 Ry au,

        Potential amp.        1.5481 Ry
        Total length         46.3494 bohr

     Starting wfcs are  299 atomic wfcs
  @ DRIVER MODE: Message from server: STATUS
  @ DRIVER MODE: Message from server: POSDATA
  @ DRIVER MODE: Reading and sharing cell
  @ DRIVER MODE: Reading and sharing positions
  @ DRIVER MODE: Received positions

     Self-consistent Calculation

     iteration #  1     ecut=    29.40 Ry     beta= 0.05
     Davidson diagonalization with overlap
     c_bands:  1 eigenvalues not converged
     c_bands:  2 eigenvalues not converged
     c_bands:  1 eigenvalues not converged
     c_bands:  3 eigenvalues not converged
     c_bands:  3 eigenvalues not converged
     c_bands:  1 eigenvalues not converged
     ethr =  1.00E-05,  avg # of iterations = 19.1

[...]

     total energy              =   -2605.60592162 Ry
     estimated scf accuracy    <    3699.78057874 Ry

     iteration #  2     ecut=    29.40 Ry     beta= 0.05
     Davidson diagonalization with overlap
     ethr =  1.00E-02,  avg # of iterations = 22.3

[...]

     iteration # 85     ecut=    29.40 Ry     beta= 0.05
     Davidson diagonalization with overlap
     c_bands:  1 eigenvalues not converged
     ethr =  4.46E-11,  avg # of iterations = 11.5

[...]

     total energy              =   -2939.15475057 Ry
     estimated scf accuracy    <       0.00000009 Ry

     iteration # 87     ecut=    29.40 Ry     beta= 0.05
     Davidson diagonalization with overlap
     ethr =  2.16E-11,  avg # of iterations = 13.2

     negative rho (up, down):  1.565E-02 0.000E+00

     Adding external electric field

     Computed dipole along edir(3) :
        Dipole                0.7149 Ry au,          1.8171 Debye
        Dipole field          0.0013 Ry au,

        Potential amp.       -0.1251 Ry
        Total length         46.3494 bohr

     End of self-consistent calculation

          k = 0.0000 0.0000 0.0000 ( 18029 PWs)   bands (ev):

   -55.8907 -55.8754 -55.8567 -55.8395 -55.7915 -55.7251 -55.7001 -55.6990
   -55.6888 -55.6650 -55.6641 -55.6305 -55.2742 -55.0910 -54.8680 -54.8340
   -32.4297 -32.3731 -32.2254 -32.2236 -32.1978 -32.1946 -32.1837 -32.1547
   -32.1331 -32.1200 -32.0977 -32.0626 -32.0561 -32.0428 -32.0288 -32.0152
   -32.0135 -31.9950 -31.9804 -31.9478 -31.9395 -31.9348 -31.8942 -31.8896
   -31.8868 -31.8831 -31.8752 -31.8695 -31.8662 -31.8393 -31.8388 -31.8299
   -31.8291 -31.8170 -31.8055 -31.7764 -31.7690 -31.5562 -31.4497 -31.3519
   -31.3489 -31.3059 -31.2751 -31.1868 -31.1644 -31.0918 -31.0053 -30.8943
   -18.4799 -16.6281 -16.3635 -16.1353 -16.0410 -16.0083 -15.8905 -15.7281
   -15.6106 -15.5556 -15.4582 -15.4385 -15.4260 -15.3939 -15.3765 -15.3701
   -15.3368 -15.3321 -15.3139 -15.2986 -15.2502 -15.2263 -15.2032 -15.1048
   -15.0590 -15.0256 -15.0108 -14.9468 -14.9415 -14.4365 -13.3707 -13.2543
   -11.3844  -6.9347  -4.3629  -3.9981  -3.9073  -3.8753  -3.8426  -3.7962
    -3.7392  -3.6219  -3.4947  -3.4323  -3.1214  -3.0735  -3.0578  -3.0403
    -3.0026  -2.7953  -2.7437  -2.7040  -2.6796  -2.6721  -2.6611  -2.6539
    -2.6418  -2.6030  -2.5017  -2.4319  -2.4266  -2.3405  -2.2895  -2.2651
    -2.2027  -2.1828  -2.1613  -2.1381  -2.1262  -2.1062  -2.0853  -2.0744
    -1.9711  -1.8786  -1.7509  -1.6899  -1.6767  -1.6600  -1.6497  -1.4982
    -1.3670  -1.3333  -1.3260  -1.3155  -1.2821  -1.2706  -1.1870  -1.0603
    -1.0474  -1.0073  -0.9562  -0.8978  -0.8721  -0.7703  -0.7336  -0.6568
    -0.6516  -0.6349  -0.5825  -0.5343  -0.3718  -0.3306  -0.3044  -0.2819
    -0.2577  -0.1865  -0.1648  -0.0489  -0.0313  -0.0135   0.0466   0.0700
     0.0828   0.0927   0.1106   0.1288   0.1462   0.3133   0.3857   0.4374
     0.4615   0.5203   0.6447   0.7131   0.7682   0.8683   1.0796   1.1538
     1.2470   1.3460   1.7251   1.7707   2.6524   3.2490   3.3295   3.3786
     3.3936   3.4904   3.5239   3.7004   3.7017   3.7305   3.8006

[...]

          k = 0.0380-0.0419 0.0000 ( 17876 PWs)   bands (ev):

[...]

          k =-0.0760-0.0000 0.0000 ( 17886 PWs)   bands (ev):

[...]

          k =-0.0760-0.0839 0.0000 ( 17948 PWs)   bands (ev):

   -55.8741 -55.8731 -55.8576 -55.8571 -55.7881 -55.7127 -55.7034 -55.7012
   -55.6830 -55.6805 -55.6481 -55.6467 -55.2727 -55.0923 -54.8510 -54.8509
   -32.2343 -32.2324 -32.1888 -32.1880 -32.1696 -32.1686 -32.1653 -32.1296
   -32.0838 -32.0809 -32.0753 -32.0744 -32.0381 -32.0080 -32.0006 -31.9999
   -31.9936 -31.9935 -31.9933 -31.9925 -31.9890 -31.9869 -31.9844 -31.9325
   -31.9194 -31.9078 -31.9065 -31.8944 -31.8820 -31.8815 -31.8791 -31.8780
   -31.8625 -31.8618 -31.8527 -31.8495 -31.6850 -31.5579 -31.4599 -31.4036
   -31.3534 -31.3327 -31.1771 -31.1770 -31.0879 -31.0878 -31.0486 -31.0486
   -18.4758 -16.0640 -16.0379 -15.8380 -15.8049 -15.8008 -15.7864 -15.6776
   -15.5922 -15.5858 -15.5831 -15.5172 -15.4875 -15.4711 -15.4301 -15.4172
   -15.4102 -15.3981 -15.3889 -15.3509 -15.3436 -15.3265 -15.3190 -15.2348
   -15.2070 -15.2029 -15.1772 -15.0581 -14.9254 -14.6138 -13.3562 -13.3560
   -11.3821  -6.9466  -4.2751  -3.9165  -3.8495  -3.3534  -3.3246  -3.0843
    -3.0455  -3.0317  -2.9785  -2.8170  -2.7866  -2.7609  -2.7492  -2.7176
    -2.7125  -2.7000  -2.6954  -2.6754  -2.6343  -2.6148  -2.5964  -2.5772
    -2.5578  -2.5439  -2.5286  -2.5117  -2.5020  -2.4628  -2.4392  -2.4277
    -2.4090  -2.3972  -2.2411  -2.1177  -2.0828  -2.0286  -2.0182  -1.9973
    -1.9575  -1.9536  -1.9417  -1.8768  -1.8086  -1.6544  -1.6190  -1.5898
    -1.5758  -1.5596  -1.4955  -1.4559  -1.3673  -1.2947  -1.2706  -1.2660
    -1.1984  -1.1101  -1.1043  -1.0571  -1.0149  -1.0041  -0.9487  -0.8838
    -0.8530  -0.8488  -0.7977  -0.7277  -0.7088  -0.6588  -0.6519  -0.6076
    -0.5534  -0.5480  -0.5239  -0.4821  -0.4005  -0.3765  -0.2387  -0.1582
    -0.0357   0.0782   0.1724   0.1869   0.2668   0.3188   0.4020   0.4202
     0.4306   0.4405   0.4838   0.5655   0.6418   0.6567   0.7025   0.8238
     1.5175   1.5183   1.5904   1.5906   2.7144   3.4956   3.5402   3.5829
     3.6151   3.7212   3.7537   3.7773   3.7784   3.8062   3.9186

     the Fermi energy is     3.2441 ev

!    total energy              =   -2939.15476002 Ry
     estimated scf accuracy    <       0.00000006 Ry
     smearing contrib. (-TS)   =      -0.02246724 Ry
     internal energy E=F+TS    =   -2939.13229279 Ry

     The total energy is F=E-TS. E is the sum of the following terms:
     one-electron contribution =  -24176.28133072 Ry
     hartree contribution      =   12175.42710440 Ry
     xc contribution           =    -485.18677742 Ry
     ewald contribution        =    9546.90774648 Ry
     electric field correction =       0.00096448 Ry

     convergence has been achieved in  87 iterations

     Forces acting on atoms (cartesian axes, Ry/au):

     atom    1 type  1   force =     0.00011496   -0.00025110    0.09665347
     atom    2 type  1   force =    -0.00012212   -0.00049870   -0.17521416
     atom    3 type  2   force =     0.00000085   -0.00010606   -0.02500520
     atom    4 type  2   force =     0.00005192   -0.00149956    0.05299445
     atom    5 type  2   force =    -0.01214054   -0.00109326    0.00361435
     atom    6 type  2   force =     0.01369124   -0.00028425    0.00228955
     atom    7 type  1   force =    -0.00117188    0.00036666   -0.01147176
     atom    8 type  1   force =     0.00055973    0.00942715    0.02857858
     atom    9 type  2   force =     0.00019633    0.00052772   -0.00016111
     atom   10 type  2   force =    -0.00114697    0.00027789   -0.01824814
     atom   11 type  2   force =    -0.00010026   -0.00004028   -0.00014164
     atom   12 type  2   force =     0.00011112    0.00018793    0.00018013
     atom   13 type  1   force =     0.00008556   -0.00030394    0.00039993
     atom   14 type  1   force =     0.00022543    0.00017452    0.00018375
     atom   15 type  2   force =     0.00021959   -0.00059740    0.00010916
     atom   16 type  2   force =    -0.00033203    0.00033166    0.00041776
     atom   17 type  2   force =    -0.00023843    0.00042176   -0.00011384
     atom   18 type  2   force =     0.00021112    0.00016771    0.00025745
     atom   19 type  1   force =    -0.00007328    0.00009659   -0.00012326
     atom   20 type  1   force =    -0.00059934   -0.00056570   -0.00023830
     atom   21 type  2   force =     0.00008925    0.00001179    0.10321112
     atom   22 type  2   force =    -0.00018699   -0.00093435    0.00118265
     atom   23 type  2   force =    -0.07145639   -0.00007834   -0.02769749
     atom   24 type  2   force =     0.07142453    0.00034341   -0.02770538
     atom   25 type  1   force =     0.00006899   -0.00021850    0.09637084
     atom   26 type  1   force =    -0.00022681   -0.00026161   -0.17562559
     atom   27 type  2   force =     0.00007020   -0.00025146   -0.02400691
     atom   28 type  2   force =     0.00009598   -0.00126135    0.05285834
     atom   29 type  2   force =    -0.01238082    0.00004146    0.00352969
     atom   30 type  2   force =     0.01384706    0.00033406    0.00217401
     atom   31 type  1   force =    -0.00113534    0.00332343   -0.01188019
     atom   32 type  1   force =     0.00065155   -0.01118930    0.02917440
     atom   33 type  2   force =     0.00010777   -0.00020166   -0.00041379
     atom   34 type  2   force =    -0.00090156   -0.00093377   -0.02491880
     atom   35 type  2   force =    -0.00038373    0.00030500    0.00001797
     atom   36 type  2   force =     0.00071607    0.00031356    0.00033569
     atom   37 type  1   force =     0.00000821   -0.00024579    0.00001108
     atom   38 type  1   force =    -0.00001901    0.00010449   -0.00002004
     atom   39 type  2   force =     0.00032818    0.00068618   -0.00102592
     atom   40 type  2   force =    -0.00030633    0.00010330    0.00020655
     atom   41 type  2   force =    -0.00032035    0.00047572    0.00028925
     atom   42 type  2   force =    -0.00010087    0.00039698    0.00060144
     atom   43 type  1   force =    -0.00004569    0.00045221    0.00028490
     atom   44 type  1   force =    -0.00041128    0.00015927    0.00029592
     atom   45 type  2   force =     0.00007996   -0.00002826    0.10321131
     atom   46 type  2   force =    -0.07148821   -0.00003030   -0.02770902
     atom   47 type  2   force =     0.07145426    0.00039287   -0.02773606
     atom   48 type  3   force =     0.00055212   -0.00412514    0.00347758
     atom   49 type  3   force =     0.00049924    0.00484034   -0.00204787
     atom   50 type  4   force =     0.00174305    0.00095668   -0.00157710
     atom   51 type  5   force =     0.00014018    0.00091888   -0.00049051
     atom   52 type  5   force =    -0.00123198   -0.00094807    0.00080763
     atom   53 type  5   force =    -0.00082424   -0.00019110   -0.00014685

     Total force =     0.368381     Total SCF correction =     0.000642
  @ DRIVER MODE: Message from server: STATUS
  @ DRIVER MODE: Message from server: GETFORCE
  @ DRIVER MODE: Returning v,forces,stress,ensemble

     Writing output data file ./calc.save/
  @ DRIVER MODE: Message from server: EXIT
  @ DRIVE MODE: Exiting

     General routines

     Parallel routines

   This run was terminated on:   1: 6:32   9Sep2021

   JOB DONE.