     Program PWSCF v.6.7GPU starts on 26Sep2021 at  3:27:23

     R & G space division:  proc/nbgrp/npool/nimage =       8
     Reading input from /storage/home/hcoda1/3/ntian30/research/carbon/CxH_vib/H2O_calc/ads_slab/CH3N2OHHO_l/out_0026/pw.inp
Warning: card &CELL ignored
Warning: card   CELL_DYNAMICS='IPI', ignored
Warning: card / ignored

     Current dimensions of program PWSCF are:
     Max number of different atomic species (ntypx) = 10
     Max number of k-points (npk) =  40000
     Max angular momentum in pseudopotentials (lmaxx) =  3
     Presently no symmetry can be used with electric field

     Message from routine cell_base_init:
     DEPRECATED: use true lattice parameter, not A to a.u. conversion factor

     IMPORTANT: XC functional enforced from input :
     Exchange-correlation= BEEF-VDW
                           (   1   4  43  14   2   0   0)
     Any further DFT definition will be discarded
     Please, verify this is what you really want

  @ DRIVER MODE: Connecting to
 qe_1139763_2971669.sched-torque.pace.gatech.eduifzmclx2_scratch
  using UNIX socket
  @ DRIVER MODE: Message from server: STATUS
  @ DRIVER MODE: Message from server: INIT
  @ DRIVER MODE: Receiving replica           0          -1
  @ DRIVER MODE: Receiving encoded integer          25
  @ DRIVER MODE:  SCF:  T  FORCE:  T  STRESS:  F  VC:  F  ENSEMBLE:  F
  @ DRIVER MODE:  SCF:  T  FORCE:  T  STRESS:  F  VC:  F  ENSEMBLE:  F

     Using Slab Decomposition

     bravais-lattice index     =            0
     lattice parameter (alat)  =       1.8897  a.u.
     unit-cell volume          =    6658.9804 (a.u.)^3
     number of atoms/cell      =           57
     number of atomic types    =            5
     number of electrons       =       409.00
     number of Kohn-Sham states=          214
     kinetic-energy cutoff     =      29.3995  Ry
     charge density cutoff     =     293.9946  Ry
     scf convergence threshold =      7.3E-08
     mixing beta               =       0.0500
     number of iterations used =            8  plain     mixing
     Exchange-correlation= BEEF-VDW
                           (   1   4  43  14   2   0   0)

     celldm(1)=   1.889726  celldm(2)=   0.000000  celldm(3)=   0.000000
     celldm(4)=   0.000000  celldm(5)=   0.000000  celldm(6)=   0.000000

     crystal axes: (cart. coord. in units of alat)
               a(1) = (   6.579727   0.000000   0.000000 )
               a(2) = (  -0.000775   5.961596   0.000000 )
               a(3) = (   0.000000   0.000000  25.155947 )

     reciprocal axes: (cart. coord. in units 2 pi/alat)
               b(1) = (  0.151982  0.000020  0.000000 )
               b(2) = (  0.000000  0.167740  0.000000 )
               b(3) = (  0.000000  0.000000  0.039752 )

     PseudoPot. # 1 for Ti read from file:
     /storage/coda1/p-amedford6/0/shared/rich_project_chbe-medford/medford-share/data/pseudos_module/espresso/nninc/pbe/van/Ti.UPF
     MD5 check sum: 8e4df49b7f0d34bbd5052bf3f5ea0213
     Pseudo is Ultrasoft, Zval = 12.0
     Generated by new atomic code, or converted to UPF format
     Using radial grid of  851 points,  6 beta functions with:
                l(1) =   0
                l(2) =   0
                l(3) =   1
                l(4) =   1
                l(5) =   2
                l(6) =   2
     Q(r) pseudized with  8 coefficients,  rinner =    1.000   1.000   1.000
                                                       1.000   1.000

     PseudoPot. # 2 for O  read from file:
     /storage/coda1/p-amedford6/0/shared/rich_project_chbe-medford/medford-share/data/pseudos_module/espresso/nninc/pbe/van/O.UPF
     MD5 check sum: 78c19812648e8988a0fe644b0f25305e
     Pseudo is Ultrasoft, Zval =  6.0
     Generated by new atomic code, or converted to UPF format
     Using radial grid of  737 points,  4 beta functions with:
                l(1) =   0
                l(2) =   0
                l(3) =   1
                l(4) =   1
     Q(r) pseudized with  8 coefficients,  rinner =    0.800   0.800   0.800

     PseudoPot. # 3 for N  read from file:
     /storage/coda1/p-amedford6/0/shared/rich_project_chbe-medford/medford-share/data/pseudos_module/espresso/nninc/pbe/van/N.UPF
     MD5 check sum: 90d10febe142ad51ac9d5be1deb811c4
     Pseudo is Ultrasoft, Zval =  5.0
     Generated by new atomic code, or converted to UPF format
     Using radial grid of  729 points,  4 beta functions with:
                l(1) =   0
                l(2) =   0
                l(3) =   1
                l(4) =   1
     Q(r) pseudized with  8 coefficients,  rinner =    0.800   0.800   0.800

     PseudoPot. # 4 for C  read from file:
     /storage/coda1/p-amedford6/0/shared/rich_project_chbe-medford/medford-share/data/pseudos_module/espresso/nninc/pbe/van/C.UPF
     MD5 check sum: 1a69bf6b8db32088f5b2163dbdb77a27
     Pseudo is Ultrasoft, Zval =  4.0
     Generated by new atomic code, or converted to UPF format
     Using radial grid of  721 points,  4 beta functions with:
                l(1) =   0
                l(2) =   0
                l(3) =   1
                l(4) =   1
     Q(r) pseudized with  8 coefficients,  rinner =    0.800   0.800   0.800

     PseudoPot. # 5 for H  read from file:
     /storage/coda1/p-amedford6/0/shared/rich_project_chbe-medford/medford-share/data/pseudos_module/espresso/nninc/pbe/van/H.UPF
     MD5 check sum: b5ee9d7bfd3a09ee7748110bda690ff7
     Pseudo is Ultrasoft, Zval =  1.0
     Generated by new atomic code, or converted to UPF format
     Using radial grid of  615 points,  1 beta functions with:
                l(1) =   0
     Q(r) pseudized with  8 coefficients,  rinner =    0.800

     atomic species   valence    mass     pseudopotential
        Ti1           12.00    47.86700     Ti( 1.00)
        O1             6.00    15.99900     O ( 1.00)
        N1             5.00    14.00700     N ( 1.00)
        C1             4.00    12.01100     C ( 1.00)
        H1             1.00     1.00800     H ( 1.00)

     No symmetry found

   Cartesian axes

     site n.     atom                  positions (alat units)
         1           Ti1 tau(   1) = (   0.0004258   2.9801865   6.0000000  )
         2           Ti1 tau(   2) = (   3.2906075   1.4906267   6.0002472  )
         3           O1  tau(   3) = (   0.0006271   0.0005054   7.9858123  )
         4           O1  tau(   4) = (   3.2906025   0.0005020   7.3038282  )
         5           O1  tau(   5) = (   4.5942328   1.4918067   9.2879030  )
         6           O1  tau(   6) = (   1.9868534   1.4903216   9.2879459  )
         7           Ti1 tau(   7) = (   3.2907910   2.8959150   9.1758416  )
         8           Ti1 tau(   8) = (   0.0015273   1.4827037   9.2680791  )
         9           O1  tau(   9) = (   3.2779673   5.9607700  11.3423085  )
        10           O1  tau(  10) = (   0.0116148   5.9584955  10.6183126  )
        11           O1  tau(  11) = (   1.2787083   1.4818767  12.6451794  )
        12           O1  tau(  12) = (   5.2707140   1.4872516  12.6060838  )
        13           Ti1 tau(  13) = (   0.0520196   2.9452147  12.6012095  )
        14           Ti1 tau(  14) = (   3.3669591   1.4706787  12.5087448  )
        15           O1  tau(  15) = (   6.5166736   5.9505275  14.6414754  )
        16           O1  tau(  16) = (   3.3002175   0.0041348  13.9548274  )
        17           O1  tau(  17) = (   4.5235890   1.5203341  16.0633414  )
        18           O1  tau(  18) = (   1.9992342   1.5602939  15.9747780  )
        19           Ti1 tau(  19) = (   3.2541499   3.0080313  15.6961896  )
        20           Ti1 tau(  20) = (   6.5591015   1.5323982  15.7823192  )
        21           O1  tau(  21) = (   3.2904802   0.0005063   4.7018136  )
        22           O1  tau(  22) = (   0.0960927   0.0099221  17.2178370  )
        23           O1  tau(  23) = (   1.3043587   1.4918075   6.0039043  )
        24           O1  tau(  24) = (   5.2767064   1.4903225   6.0039473  )
        25           Ti1 tau(  25) = (   0.0000382   5.9609847   6.0000000  )
        26           Ti1 tau(  26) = (   3.2902200   4.4714249   6.0002472  )
        27           O1  tau(  27) = (   0.0002396   2.9813036   7.9858123  )
        28           O1  tau(  28) = (   3.2902150   2.9813002   7.3038282  )
        29           O1  tau(  29) = (   4.5938453   4.4726049   9.2879030  )
        30           O1  tau(  30) = (   1.9864658   4.4711199   9.2879459  )
        31           Ti1 tau(  31) = (   3.2891106   5.8743827   9.1763621  )
        32           Ti1 tau(  32) = (   0.0006254   4.4649316   9.2693709  )
        33           O1  tau(  33) = (   3.2807211   2.9768430  11.3440791  )
        34           O1  tau(  34) = (   0.0092240   2.9805883  10.6323155  )
        35           O1  tau(  35) = (   1.2789702   4.4681595  12.6395138  )
        36           O1  tau(  36) = (   5.2737968   4.4775610  12.6008310  )
        37           Ti1 tau(  37) = (   0.0460201   5.9176504  12.5434570  )
        38           Ti1 tau(  38) = (   3.3658678   4.4646095  12.4976877  )
        39           O1  tau(  39) = (   6.5297297   2.9761478  14.6509524  )
        40           O1  tau(  40) = (   3.3085871   2.9961499  13.9017917  )
        41           O1  tau(  41) = (   4.5138497   4.4896837  16.1272785  )
        42           O1  tau(  42) = (   1.9961282   4.4344792  16.0060688  )
        43           Ti1 tau(  43) = (   3.3116018   0.0224549  15.7990204  )
        44           Ti1 tau(  44) = (   6.5775847   4.6577750  16.0638065  )
        45           O1  tau(  45) = (   3.2900926   2.9813045   4.7018136  )
        46           O1  tau(  46) = (   1.3039711   4.4726057   6.0039043  )
        47           O1  tau(  47) = (   5.2763189   4.4711207   6.0039473  )
        48           N1  tau(  48) = (   6.5065777   2.6139801  18.6303060  )
        49           N1  tau(  49) = (   6.5364102   2.8728423  17.4370429  )
        50           C1  tau(  50) = (   6.4341180   3.7235584  19.6105657  )
        51           H1  tau(  51) = (   6.3066687   4.7022679  19.1488110  )
        52           H1  tau(  52) = (   5.6264842   3.4805663  20.2913871  )
        53           H1  tau(  53) = (   0.7823074   3.6964598  20.1845303  )
        54           O1  tau(  54) = (   3.0314481   5.0835218  18.9911038  )
        55           H1  tau(  55) = (   1.7414717   0.2044793  18.0242669  )
        56           O1  tau(  56) = (   2.7372941   0.2572207  18.0778760  )
        57           H1  tau(  57) = (   3.9343361   5.3466317  19.2487757  )

     number of k points=    10  Fermi-Dirac smearing, width (Ry)=  0.0073
                       cart. coord. in units 2pi/alat
        k(    1) = (   0.0000000   0.0000000   0.0000000), wk =   0.1250000
        k(    2) = (   0.0000000   0.0419351   0.0000000), wk =   0.2500000
        k(    3) = (   0.0000000  -0.0838702   0.0000000), wk =   0.1250000
        k(    4) = (   0.0379955   0.0000049   0.0000000), wk =   0.2500000
        k(    5) = (   0.0379955   0.0419400   0.0000000), wk =   0.2500000
        k(    6) = (   0.0379955  -0.0838652   0.0000000), wk =   0.2500000
        k(    7) = (   0.0379955  -0.0419301   0.0000000), wk =   0.2500000
        k(    8) = (  -0.0759910  -0.0000099   0.0000000), wk =   0.1250000
        k(    9) = (  -0.0759910   0.0419252   0.0000000), wk =   0.2500000
        k(   10) = (  -0.0759910  -0.0838800   0.0000000), wk =   0.1250000

     Initial potential from superposition of free atoms

     starting charge  392.99914, renormalised to  409.00000

     negative rho (up, down):  1.422E-02 0.000E+00

     %%%%%%%%%%%%%%%%%%%%%%%%%%%%%%%%%%%%%%%%%%%%%%%%%%%%%%%%%%%%%%%%%%%%%%%%
     %                                                                      %
     % You are using vdW-DF, which was implemented by the Thonhauser group. %
     % Please cite the following two papers that made this development      %
     % possible and the two reviews that describe the various versions:     %
     %                                                                      %
     %   T. Thonhauser et al., PRL 115, 136402 (2015).                      %
     %   T. Thonhauser et al., PRB 76, 125112 (2007).                       %
     %   K. Berland et al., Rep. Prog. Phys. 78, 066501 (2015).             %
     %   D.C. Langreth et al., J. Phys.: Condens. Matter 21, 084203 (2009). %
     %                                                                      %
     %                                                                      %
     % If you are calculating the stress with vdW-DF, please also cite:     %
     %                                                                      %
     %   R. Sabatini et al., J. Phys.: Condens. Matter 24, 424209 (2012).   %
     %                                                                      %
     %%%%%%%%%%%%%%%%%%%%%%%%%%%%%%%%%%%%%%%%%%%%%%%%%%%%%%%%%%%%%%%%%%%%%%%%

     Adding external electric field

     Computed dipole along edir(3) :
        Dipole              -16.7505 Ry au,        -42.5754 Debye
        Dipole field         -0.0316 Ry au,

        Potential amp.        2.9302 Ry
        Total length         46.3494 bohr

     Starting wfcs are  309 atomic wfcs
  @ DRIVER MODE: Message from server: STATUS
  @ DRIVER MODE: Message from server: POSDATA
  @ DRIVER MODE: Reading and sharing cell
  @ DRIVER MODE: Reading and sharing positions
  @ DRIVER MODE: Received positions

     Self-consistent Calculation

     iteration #  1     ecut=    29.40 Ry     beta= 0.05
     Davidson diagonalization with overlap
     c_bands:  5 eigenvalues not converged
     c_bands:  5 eigenvalues not converged
     c_bands:  3 eigenvalues not converged
     c_bands:  1 eigenvalues not converged
     c_bands:  4 eigenvalues not converged
     c_bands:  2 eigenvalues not converged
     c_bands:  5 eigenvalues not converged
     ethr =  1.00E-05,  avg # of iterations = 26.6

[...]

     total energy              =   -2110.44777114 Ry
     estimated scf accuracy    <   10326.54779704 Ry

     iteration #  2     ecut=    29.40 Ry     beta= 0.05
     Davidson diagonalization with overlap
     ethr =  1.00E-02,  avg # of iterations = 32.1

[...]

     iteration # 61     ecut=    29.40 Ry     beta= 0.05
     Davidson diagonalization with overlap
     c_bands:  1 eigenvalues not converged
     ethr =  5.65E-10,  avg # of iterations = 13.0

[...]

     total energy              =   -3006.13716990 Ry
     estimated scf accuracy    <       0.00000009 Ry

     iteration # 68     ecut=    29.40 Ry     beta= 0.05
     Davidson diagonalization with overlap
     ethr =  2.30E-11,  avg # of iterations =  8.6

     negative rho (up, down):  1.470E-02 0.000E+00

     Adding external electric field

     Computed dipole along edir(3) :
        Dipole                0.8104 Ry au,          2.0598 Debye
        Dipole field          0.0015 Ry au,

        Potential amp.       -0.1418 Ry
        Total length         46.3494 bohr

     End of self-consistent calculation

          k = 0.0000 0.0000 0.0000 ( 18029 PWs)   bands (ev):

   -55.6043 -55.5702 -55.5621 -55.5336 -55.5259 -55.4404 -55.4188 -55.4034
   -55.3849 -55.3826 -55.3654 -55.3489 -54.9878 -54.9176 -54.5853 -54.5512
   -32.1029 -32.0874 -31.9482 -31.9402 -31.9173 -31.8970 -31.8725 -31.8594
   -31.8483 -31.7938 -31.7788 -31.7633 -31.7566 -31.7399 -31.7285 -31.7182
   -31.7093 -31.7007 -31.6890 -31.6622 -31.6615 -31.6415 -31.6096 -31.6084
   -31.5990 -31.5945 -31.5921 -31.5813 -31.5633 -31.5590 -31.5534 -31.5484
   -31.5376 -31.5359 -31.5266 -31.5147 -31.4947 -31.2657 -31.2092 -31.1779
   -31.1244 -31.1019 -30.9925 -30.9038 -30.8814 -30.8091 -30.7226 -30.6116
   -20.7368 -18.2965 -16.3046 -16.0785 -15.8947 -15.7650 -15.7100 -15.5534
   -15.4951 -15.4092 -15.3387 -15.2020 -15.1496 -15.1409 -15.1350 -15.1162
   -15.1103 -15.0500 -15.0390 -15.0375 -15.0265 -14.9987 -14.9597 -14.9464
   -14.9415 -14.8587 -14.7654 -14.7426 -14.7222 -14.7190 -14.6612 -14.2755
   -13.0874 -12.9709 -11.2916  -6.8204  -5.7517  -5.3630  -4.1819  -3.8235
    -3.7665  -3.6719  -3.5494  -3.5106  -3.4311  -3.3843  -3.2301  -3.0789
    -3.0257  -2.8512  -2.7823  -2.7550  -2.7114  -2.6279  -2.5206  -2.4676
    -2.4121  -2.4079  -2.3941  -2.3782  -2.3609  -2.3443  -2.2369  -2.2181
    -2.1653  -2.1456  -2.1191  -1.9841  -1.9564  -1.9289  -1.9179  -1.8903
    -1.8779  -1.8637  -1.8369  -1.8182  -1.7791  -1.7546  -1.6254  -1.5804
    -1.5446  -1.4487  -1.3879  -1.3278  -1.2327  -1.2004  -1.1320  -1.0614
    -1.0557  -1.0357  -1.0025  -0.9943  -0.8680  -0.7637  -0.7535  -0.6800
    -0.6187  -0.5686  -0.5274  -0.4622  -0.3787  -0.3612  -0.3534  -0.3329
    -0.2812  -0.2567  -0.0973  -0.0587  -0.0104   0.0147   0.0720   0.1051
     0.1481   0.1881   0.2281   0.2781   0.3122   0.3453   0.3637   0.3780
     0.3934   0.4247   0.4454   0.6111   0.6464   0.6697   0.7309   0.7601
     0.8465   0.9035   0.9672   1.0509   1.1592   1.3644   1.4372   1.5287
     1.6291   2.0086   2.0544   2.8307   3.5248   3.6169   3.6579   3.6882
     3.7697   3.7814   3.9827   4.0046   4.0343   4.1103

[...]

          k = 0.0380-0.0419 0.0000 ( 17876 PWs)   bands (ev):

[...]

          k =-0.0760-0.0000 0.0000 ( 17886 PWs)   bands (ev):

[...]

          k =-0.0760-0.0839 0.0000 ( 17948 PWs)   bands (ev):

   -55.5877 -55.5867 -55.5470 -55.5409 -55.5317 -55.4286 -55.4152 -55.4020
   -55.4011 -55.3672 -55.3671 -55.3645 -54.9839 -54.9214 -54.5683 -54.5681
   -31.9171 -31.9031 -31.9023 -31.8997 -31.8829 -31.8819 -31.8257 -31.8171
   -31.8047 -31.7850 -31.7765 -31.7528 -31.7480 -31.7221 -31.7163 -31.7156
   -31.7073 -31.7067 -31.7065 -31.7049 -31.7026 -31.7006 -31.6739 -31.6456
   -31.6318 -31.6280 -31.6192 -31.6029 -31.6019 -31.5968 -31.5915 -31.5825
   -31.5794 -31.5722 -31.5713 -31.5695 -31.4167 -31.2674 -31.2478 -31.1860
   -31.1633 -31.1257 -30.8942 -30.8941 -30.8053 -30.8051 -30.7660 -30.7659
   -20.7362 -18.2925 -15.7421 -15.6955 -15.6304 -15.5634 -15.5283 -15.4582
   -15.4147 -15.3728 -15.3208 -15.2827 -15.2737 -15.2142 -15.1938 -15.1612
   -15.1518 -15.1223 -15.1127 -15.1106 -15.0569 -15.0510 -15.0450 -15.0380
   -15.0318 -14.9730 -14.9331 -14.9251 -14.9201 -14.8218 -14.6995 -14.4441
   -13.0728 -13.0726 -11.2899  -6.8430  -5.7490  -5.3398  -4.1102  -3.8113
    -3.7667  -3.1132  -3.0206  -2.8270  -2.7967  -2.7138  -2.7097  -2.6669
    -2.5448  -2.5118  -2.4658  -2.4476  -2.4266  -2.4179  -2.4123  -2.3922
    -2.3861  -2.3675  -2.3386  -2.3180  -2.2853  -2.2730  -2.2600  -2.2517
    -2.2377  -2.2148  -2.2125  -2.1643  -2.1438  -2.1252  -2.0621  -2.0295
    -1.8425  -1.7934  -1.7484  -1.7416  -1.7213  -1.6896  -1.6742  -1.6573
    -1.6107  -1.5900  -1.5119  -1.4720  -1.3289  -1.3088  -1.2930  -1.2726
    -1.2057  -1.1478  -1.0980  -1.0121  -1.0068  -0.9579  -0.8649  -0.8058
    -0.7981  -0.7662  -0.7108  -0.7012  -0.6607  -0.5675  -0.5618  -0.5442
    -0.5379  -0.4627  -0.4178  -0.3555  -0.3474  -0.3275  -0.2967  -0.2686
    -0.2353  -0.1965  -0.1005  -0.0672   0.0264   0.1319   0.2088   0.3440
     0.4628   0.4755   0.5603   0.5845   0.6857   0.6973   0.7095   0.7508
     0.7866   0.8111   0.9309   0.9448   0.9677   0.9953   1.0823   1.8006
     1.8015   1.8741   1.8743   2.8203   3.7663   3.8804   3.9123   3.9229
     4.0079   4.0448   4.0636   4.0655   4.1305   4.2040

     the Fermi energy is     3.5277 ev

!    total energy              =   -3006.13720902 Ry
     estimated scf accuracy    <       0.00000004 Ry
     smearing contrib. (-TS)   =      -0.02166909 Ry
     internal energy E=F+TS    =   -3006.11553993 Ry

     The total energy is F=E-TS. E is the sum of the following terms:
     one-electron contribution =  -23514.00723861 Ry
     hartree contribution      =   11854.98527764 Ry
     xc contribution           =    -501.17324120 Ry
     ewald contribution        =    9154.07842291 Ry
     electric field correction =       0.00123933 Ry

     convergence has been achieved in  68 iterations

     Forces acting on atoms (cartesian axes, Ry/au):

     atom    1 type  1   force =     0.00020784   -0.00032211    0.09616204
     atom    2 type  1   force =    -0.00012551   -0.00051053   -0.17557642
     atom    3 type  2   force =    -0.00003077   -0.00015786   -0.02419073
     atom    4 type  2   force =     0.00000595   -0.00155653    0.05346021
     atom    5 type  2   force =    -0.01166843   -0.00075703    0.00385550
     atom    6 type  2   force =     0.01285761   -0.00002313    0.00196930
     atom    7 type  1   force =    -0.00131899    0.00026209   -0.00660665
     atom    8 type  1   force =     0.00074497    0.00793794    0.02424569
     atom    9 type  2   force =     0.00000674    0.00002770    0.00001794
     atom   10 type  2   force =    -0.00082768    0.00166448   -0.01689421
     atom   11 type  2   force =    -0.00001608    0.00002927    0.00000096
     atom   12 type  2   force =    -0.00001176    0.00001477   -0.00000300
     atom   13 type  1   force =     0.00001571   -0.00000694    0.00003421
     atom   14 type  1   force =     0.00001287    0.00003737    0.00001566
     atom   15 type  2   force =    -0.00000682    0.00001384    0.00000354
     atom   16 type  2   force =    -0.00001117   -0.00003493   -0.00004346
     atom   17 type  2   force =    -0.00001379   -0.00000856    0.00002680
     atom   18 type  2   force =    -0.00002465   -0.00000332   -0.00003023
     atom   19 type  1   force =     0.00005202   -0.00007331    0.00001717
     atom   20 type  1   force =     0.00002709    0.00002272   -0.00005807
     atom   21 type  2   force =     0.00005703   -0.00004901    0.10320546
     atom   22 type  2   force =    -0.00001668   -0.00003841   -0.00006333
     atom   23 type  2   force =    -0.07148189   -0.00011787   -0.02771070
     atom   24 type  2   force =     0.07138640    0.00028897   -0.02771976
     atom   25 type  1   force =    -0.00003222   -0.00028678    0.09579579
     atom   26 type  1   force =    -0.00023168   -0.00034741   -0.17583537
     atom   27 type  2   force =     0.00004876   -0.00017465   -0.02323971
     atom   28 type  2   force =     0.00007170   -0.00125861    0.05306584
     atom   29 type  2   force =    -0.01201591    0.00042558    0.00403250
     atom   30 type  2   force =     0.01310373    0.00076869    0.00211936
     atom   31 type  1   force =    -0.00118023    0.00400627   -0.00990939
     atom   32 type  1   force =     0.00067617   -0.01004674    0.02471834
     atom   33 type  2   force =     0.00001558   -0.00001098    0.00000209
     atom   34 type  2   force =    -0.00025138    0.00012765   -0.02259708
     atom   35 type  2   force =    -0.00000294   -0.00000229   -0.00001531
     atom   36 type  2   force =    -0.00001697    0.00001867   -0.00002268
     atom   37 type  1   force =    -0.00000056   -0.00004495    0.00002205
     atom   38 type  1   force =     0.00002864    0.00007872    0.00005214
     atom   39 type  2   force =    -0.00005620   -0.00001265   -0.00002739
     atom   40 type  2   force =    -0.00000624   -0.00004035   -0.00000492
     atom   41 type  2   force =     0.00000109   -0.00000726   -0.00002820
     atom   42 type  2   force =    -0.00000801   -0.00001312   -0.00001446
     atom   43 type  1   force =     0.00004527   -0.00002362   -0.00005774
     atom   44 type  1   force =     0.00003681   -0.00002658   -0.00000124
     atom   45 type  2   force =     0.00004439   -0.00008973    0.10320703
     atom   46 type  2   force =    -0.07149789   -0.00008313   -0.02773102
     atom   47 type  2   force =     0.07141112    0.00035800   -0.02772275
     atom   48 type  3   force =     0.00000532    0.00004125    0.00015426
     atom   49 type  3   force =     0.00002489   -0.00001856   -0.00008823
     atom   50 type  4   force =     0.00715179    0.00170893   -0.00472021
     atom   51 type  5   force =    -0.00018576   -0.00008509    0.00023064
     atom   52 type  5   force =    -0.00773226   -0.00185693    0.00514415
     atom   53 type  5   force =     0.00069038    0.00024601   -0.00068737
     atom   54 type  2   force =     0.00099352   -0.00002413   -0.00131768
     atom   55 type  5   force =    -0.00011088   -0.00000532   -0.00003605
     atom   56 type  2   force =    -0.00112111   -0.00003059    0.00134441
     atom   57 type  5   force =     0.00028109    0.00007009    0.00005024

     Total force =     0.367319     Total SCF correction =     0.000405
  @ DRIVER MODE: Message from server: STATUS
  @ DRIVER MODE: Message from server: GETFORCE
  @ DRIVER MODE: Returning v,forces,stress,ensemble

     Writing output data file ./calc.save/
  @ DRIVER MODE: Message from server: EXIT
  @ DRIVE MODE: Exiting

     General routines

     Parallel routines

   This run was terminated on:   3:56:31  26Sep2021

   JOB DONE.