     Program PWSCF v.6.7GPU starts on 23Aug2021 at 22:41:40

     R & G space division:  proc/nbgrp/npool/nimage =       6
     Reading input from /storage/home/hcoda1/3/ntian30/research/carbon/CH_vib/ads_slab/CHNH_a/out_0022/pw.inp
Warning: card &CELL ignored
Warning: card   CELL_DYNAMICS='IPI', ignored
Warning: card / ignored

     Current dimensions of program PWSCF are:
     Max number of different atomic species (ntypx) = 10
     Max number of k-points (npk) =  40000
     Max angular momentum in pseudopotentials (lmaxx) =  3
     Presently no symmetry can be used with electric field

     Message from routine cell_base_init:
     DEPRECATED: use true lattice parameter, not A to a.u. conversion factor

     IMPORTANT: XC functional enforced from input :
     Exchange-correlation= BEEF-VDW
                           (   1   4  43  14   2   0   0)
     Any further DFT definition will be discarded
     Please, verify this is what you really want

  @ DRIVER MODE: Connecting to
 qe_1139763_2632799.sched-torque.pace.gatech.edu2y2y5b62_scratch
  using UNIX socket
  @ DRIVER MODE: Message from server: STATUS
  @ DRIVER MODE: Message from server: INIT
  @ DRIVER MODE: Receiving replica           0          -1
  @ DRIVER MODE: Receiving encoded integer          25
  @ DRIVER MODE:  SCF:  T  FORCE:  T  STRESS:  F  VC:  F  ENSEMBLE:  F
  @ DRIVER MODE:  SCF:  T  FORCE:  T  STRESS:  F  VC:  F  ENSEMBLE:  F

     Using Slab Decomposition

     bravais-lattice index     =            0
     lattice parameter (alat)  =       1.8897  a.u.
     unit-cell volume          =    6658.9804 (a.u.)^3
     number of atoms/cell      =           51
     number of atomic types    =            5
     number of electrons       =       389.00
     number of Kohn-Sham states=          204
     kinetic-energy cutoff     =      29.3995  Ry
     charge density cutoff     =     293.9946  Ry
     scf convergence threshold =      7.3E-08
     mixing beta               =       0.0500
     number of iterations used =            8  plain     mixing
     Exchange-correlation= BEEF-VDW
                           (   1   4  43  14   2   0   0)

     celldm(1)=   1.889726  celldm(2)=   0.000000  celldm(3)=   0.000000
     celldm(4)=   0.000000  celldm(5)=   0.000000  celldm(6)=   0.000000

     crystal axes: (cart. coord. in units of alat)
               a(1) = (   6.579727   0.000000   0.000000 )
               a(2) = (  -0.000775   5.961596   0.000000 )
               a(3) = (   0.000000   0.000000  25.155947 )

     reciprocal axes: (cart. coord. in units 2 pi/alat)
               b(1) = (  0.151982  0.000020  0.000000 )
               b(2) = (  0.000000  0.167740  0.000000 )
               b(3) = (  0.000000  0.000000  0.039752 )

     PseudoPot. # 1 for Ti read from file:
     /storage/coda1/p-amedford6/0/shared/rich_project_chbe-medford/medford-share/data/pseudos_module/espresso/nninc/pbe/van/Ti.UPF
     MD5 check sum: 8e4df49b7f0d34bbd5052bf3f5ea0213
     Pseudo is Ultrasoft, Zval = 12.0
     Generated by new atomic code, or converted to UPF format
     Using radial grid of  851 points,  6 beta functions with:
                l(1) =   0
                l(2) =   0
                l(3) =   1
                l(4) =   1
                l(5) =   2
                l(6) =   2
     Q(r) pseudized with  8 coefficients,  rinner =    1.000   1.000   1.000
                                                       1.000   1.000

     PseudoPot. # 2 for O  read from file:
     /storage/coda1/p-amedford6/0/shared/rich_project_chbe-medford/medford-share/data/pseudos_module/espresso/nninc/pbe/van/O.UPF
     MD5 check sum: 78c19812648e8988a0fe644b0f25305e
     Pseudo is Ultrasoft, Zval =  6.0
     Generated by new atomic code, or converted to UPF format
     Using radial grid of  737 points,  4 beta functions with:
                l(1) =   0
                l(2) =   0
                l(3) =   1
                l(4) =   1
     Q(r) pseudized with  8 coefficients,  rinner =    0.800   0.800   0.800

     PseudoPot. # 3 for N  read from file:
     /storage/coda1/p-amedford6/0/shared/rich_project_chbe-medford/medford-share/data/pseudos_module/espresso/nninc/pbe/van/N.UPF
     MD5 check sum: 90d10febe142ad51ac9d5be1deb811c4
     Pseudo is Ultrasoft, Zval =  5.0
     Generated by new atomic code, or converted to UPF format
     Using radial grid of  729 points,  4 beta functions with:
                l(1) =   0
                l(2) =   0
                l(3) =   1
                l(4) =   1
     Q(r) pseudized with  8 coefficients,  rinner =    0.800   0.800   0.800

     PseudoPot. # 4 for C  read from file:
     /storage/coda1/p-amedford6/0/shared/rich_project_chbe-medford/medford-share/data/pseudos_module/espresso/nninc/pbe/van/C.UPF
     MD5 check sum: 1a69bf6b8db32088f5b2163dbdb77a27
     Pseudo is Ultrasoft, Zval =  4.0
     Generated by new atomic code, or converted to UPF format
     Using radial grid of  721 points,  4 beta functions with:
                l(1) =   0
                l(2) =   0
                l(3) =   1
                l(4) =   1
     Q(r) pseudized with  8 coefficients,  rinner =    0.800   0.800   0.800

     PseudoPot. # 5 for H  read from file:
     /storage/coda1/p-amedford6/0/shared/rich_project_chbe-medford/medford-share/data/pseudos_module/espresso/nninc/pbe/van/H.UPF
     MD5 check sum: b5ee9d7bfd3a09ee7748110bda690ff7
     Pseudo is Ultrasoft, Zval =  1.0
     Generated by new atomic code, or converted to UPF format
     Using radial grid of  615 points,  1 beta functions with:
                l(1) =   0
     Q(r) pseudized with  8 coefficients,  rinner =    0.800

     atomic species   valence    mass     pseudopotential
        Ti1           12.00    47.86700     Ti( 1.00)
        O1             6.00    15.99900     O ( 1.00)
        N1             5.00    14.00700     N ( 1.00)
        C1             4.00    12.01100     C ( 1.00)
        H1             1.00     1.00800     H ( 1.00)

     No symmetry found

   Cartesian axes

     site n.     atom                  positions (alat units)
         1           Ti1 tau(   1) = (   0.0004258   2.9801865   6.0000000  )
         2           Ti1 tau(   2) = (   3.2906075   1.4906267   6.0002472  )
         3           O1  tau(   3) = (   0.0006271   0.0005054   7.9858123  )
         4           O1  tau(   4) = (   3.2906025   0.0005020   7.3038282  )
         5           O1  tau(   5) = (   4.5942328   1.4918067   9.2879030  )
         6           O1  tau(   6) = (   1.9868534   1.4903216   9.2879459  )
         7           Ti1 tau(   7) = (   3.2907910   2.8959150   9.1758416  )
         8           Ti1 tau(   8) = (   0.0015273   1.4827037   9.2680791  )
         9           O1  tau(   9) = (   3.3107583   5.9394213  11.3440837  )
        10           O1  tau(  10) = (   0.0116148   5.9584955  10.6183126  )
        11           O1  tau(  11) = (   1.3209705   1.4681434  12.6387851  )
        12           O1  tau(  12) = (   5.3117763   1.4689694  12.6372993  )
        13           Ti1 tau(  13) = (   6.5586693   2.9297660  12.6634068  )
        14           Ti1 tau(  14) = (   3.2703198   1.4638114  12.4955107  )
        15           O1  tau(  15) = (   0.0083729   5.9498784  14.6531507  )
        16           O1  tau(  16) = (   3.3267446   5.9373244  13.9471573  )
        17           O1  tau(  17) = (   4.5400383   1.4607670  16.1300196  )
        18           O1  tau(  18) = (   2.0562451   1.4605895  16.0859588  )
        19           Ti1 tau(  19) = (   3.3219294   2.9366742  15.7081325  )
        20           Ti1 tau(  20) = (   0.0794022   1.3719971  16.1804440  )
        21           O1  tau(  21) = (   3.2904802   0.0005063   4.7018136  )
        22           O1  tau(  22) = (   0.0048811   5.8540159  17.1722642  )
        23           O1  tau(  23) = (   1.3043587   1.4918075   6.0039043  )
        24           O1  tau(  24) = (   5.2767064   1.4903225   6.0039473  )
        25           Ti1 tau(  25) = (   0.0000382   5.9609847   6.0000000  )
        26           Ti1 tau(  26) = (   3.2902200   4.4714249   6.0002472  )
        27           O1  tau(  27) = (   0.0002396   2.9813036   7.9858123  )
        28           O1  tau(  28) = (   3.2902150   2.9813002   7.3038282  )
        29           O1  tau(  29) = (   4.5938453   4.4726049   9.2879030  )
        30           O1  tau(  30) = (   1.9864658   4.4711199   9.2879459  )
        31           Ti1 tau(  31) = (   3.2891106   5.8743827   9.1763621  )
        32           Ti1 tau(  32) = (   0.0006254   4.4649316   9.2693709  )
        33           O1  tau(  33) = (   3.3036409   2.9595551  11.3414423  )
        34           O1  tau(  34) = (   0.0092240   2.9805883  10.6323155  )
        35           O1  tau(  35) = (   1.3251634   4.4629088  12.6456700  )
        36           O1  tau(  36) = (   5.3099897   4.4533368  12.6426351  )
        37           Ti1 tau(  37) = (   0.0071655   5.9203210  12.5194715  )
        38           Ti1 tau(  38) = (   3.2774562   4.4456010  12.4944480  )
        39           O1  tau(  39) = (   0.0172281   2.9510719  14.7337574  )
        40           O1  tau(  40) = (   3.3230371   2.9488945  13.9167408  )
        41           O1  tau(  41) = (   4.5572773   4.4147185  16.0816828  )
        42           O1  tau(  42) = (   2.0601761   4.4202290  16.0727324  )
        43           Ti1 tau(  43) = (   3.3574729   5.9210026  15.7440268  )
        44           Ti1 tau(  44) = (   0.0706454   4.5402764  15.7844247  )
        45           O1  tau(  45) = (   3.2900926   2.9813045   4.7018136  )
        46           O1  tau(  46) = (   1.3039711   4.4726057   6.0039043  )
        47           O1  tau(  47) = (   5.2763189   4.4711207   6.0039473  )
        48           N1  tau(  48) = (   6.3928749   2.8496863  17.7411295  )
        49           C1  tau(  49) = (   0.6235525   2.6789418  18.7295412  )
        50           H1  tau(  50) = (   1.5351458   2.1120716  18.4733693  )
        51           H1  tau(  51) = (   5.5197072   3.3330476  17.9821812  )

     number of k points=    10  Fermi-Dirac smearing, width (Ry)=  0.0073
                       cart. coord. in units 2pi/alat
        k(    1) = (   0.0000000   0.0000000   0.0000000), wk =   0.1250000
        k(    2) = (   0.0000000   0.0419351   0.0000000), wk =   0.2500000
        k(    3) = (   0.0000000  -0.0838702   0.0000000), wk =   0.1250000
        k(    4) = (   0.0379955   0.0000049   0.0000000), wk =   0.2500000
        k(    5) = (   0.0379955   0.0419400   0.0000000), wk =   0.2500000
        k(    6) = (   0.0379955  -0.0838652   0.0000000), wk =   0.2500000
        k(    7) = (   0.0379955  -0.0419301   0.0000000), wk =   0.2500000
        k(    8) = (  -0.0759910  -0.0000099   0.0000000), wk =   0.1250000
        k(    9) = (  -0.0759910   0.0419252   0.0000000), wk =   0.2500000
        k(   10) = (  -0.0759910  -0.0838800   0.0000000), wk =   0.1250000

     Initial potential from superposition of free atoms

     starting charge  372.99918, renormalised to  389.00000

     negative rho (up, down):  1.910E-02 0.000E+00

     %%%%%%%%%%%%%%%%%%%%%%%%%%%%%%%%%%%%%%%%%%%%%%%%%%%%%%%%%%%%%%%%%%%%%%%%
     %                                                                      %
     % You are using vdW-DF, which was implemented by the Thonhauser group. %
     % Please cite the following two papers that made this development      %
     % possible and the two reviews that describe the various versions:     %
     %                                                                      %
     %   T. Thonhauser et al., PRL 115, 136402 (2015).                      %
     %   T. Thonhauser et al., PRB 76, 125112 (2007).                       %
     %   K. Berland et al., Rep. Prog. Phys. 78, 066501 (2015).             %
     %   D.C. Langreth et al., J. Phys.: Condens. Matter 21, 084203 (2009). %
     %                                                                      %
     %                                                                      %
     % If you are calculating the stress with vdW-DF, please also cite:     %
     %                                                                      %
     %   R. Sabatini et al., J. Phys.: Condens. Matter 24, 424209 (2012).   %
     %                                                                      %
     %%%%%%%%%%%%%%%%%%%%%%%%%%%%%%%%%%%%%%%%%%%%%%%%%%%%%%%%%%%%%%%%%%%%%%%%

     Adding external electric field

     Computed dipole along edir(3) :
        Dipole               -4.7381 Ry au,        -12.0430 Debye
        Dipole field         -0.0089 Ry au,

        Potential amp.        0.8289 Ry
        Total length         46.3494 bohr

     Starting wfcs are  294 atomic wfcs
  @ DRIVER MODE: Message from server: STATUS
  @ DRIVER MODE: Message from server: POSDATA
  @ DRIVER MODE: Reading and sharing cell
  @ DRIVER MODE: Reading and sharing positions
  @ DRIVER MODE: Received positions

     Self-consistent Calculation

     iteration #  1     ecut=    29.40 Ry     beta= 0.05
     Davidson diagonalization with overlap
     c_bands:  4 eigenvalues not converged
     c_bands:  2 eigenvalues not converged
     c_bands:  1 eigenvalues not converged
     c_bands:  3 eigenvalues not converged
     c_bands:  2 eigenvalues not converged
     c_bands:  1 eigenvalues not converged
     c_bands:  2 eigenvalues not converged
     c_bands:  2 eigenvalues not converged
     c_bands:  1 eigenvalues not converged
     c_bands:  1 eigenvalues not converged
     ethr =  1.00E-05,  avg # of iterations = 20.0

[...]

     total energy              =   -2847.42621495 Ry
     estimated scf accuracy    <     788.91977458 Ry

     iteration #  2     ecut=    29.40 Ry     beta= 0.05
     Davidson diagonalization with overlap
     ethr =  1.00E-02,  avg # of iterations = 15.3

[...]

     iteration # 67     ecut=    29.40 Ry     beta= 0.05
     Davidson diagonalization with overlap
     c_bands:  1 eigenvalues not converged
     ethr =  2.42E-11,  avg # of iterations = 13.0

[...]

     total energy              =   -2917.76277348 Ry
     estimated scf accuracy    <       0.00000010 Ry

     iteration # 70     ecut=    29.40 Ry     beta= 0.05
     Davidson diagonalization with overlap
     ethr =  2.35E-11,  avg # of iterations =  5.6

     negative rho (up, down):  1.797E-02 0.000E+00

     Adding external electric field

     Computed dipole along edir(3) :
        Dipole                0.1180 Ry au,          0.2998 Debye
        Dipole field          0.0002 Ry au,

        Potential amp.       -0.0206 Ry
        Total length         46.3494 bohr

     End of self-consistent calculation

          k = 0.0000 0.0000 0.0000 ( 18029 PWs)   bands (ev):

   -56.3250 -56.3197 -56.2886 -56.2856 -56.2195 -56.1856 -56.1598 -56.1448
   -56.1270 -56.1074 -56.0927 -56.0739 -55.9227 -55.7643 -55.3045 -55.2704
   -32.8869 -32.8032 -32.6715 -32.6674 -32.6395 -32.6276 -32.6120 -32.5976
   -32.5620 -32.5550 -32.5335 -32.5303 -32.5034 -32.4721 -32.4707 -32.4605
   -32.4561 -32.4251 -32.4242 -32.4176 -32.3921 -32.3810 -32.3769 -32.3452
   -32.3389 -32.3260 -32.3253 -32.3187 -32.3143 -32.3102 -32.2915 -32.2765
   -32.2759 -32.2637 -32.2594 -32.2296 -32.2230 -32.2164 -32.1359 -32.0486
   -31.9982 -31.8955 -31.7121 -31.6227 -31.6004 -31.5287 -31.4421 -31.3311
   -17.0847 -16.8180 -16.6515 -16.4987 -16.4639 -16.3527 -16.1869 -16.0626
   -16.0188 -15.9992 -15.9186 -15.8959 -15.8669 -15.8581 -15.8543 -15.8350
   -15.8298 -15.7761 -15.7538 -15.7372 -15.7105 -15.6916 -15.6683 -15.6336
   -15.5352 -15.4798 -15.4557 -15.3878 -15.3190 -14.9880 -13.8073 -13.6908
    -8.2604  -4.4505  -4.3625  -4.2743  -4.2298  -4.1870  -3.9712  -3.8989
    -3.8946  -3.6955  -3.5645  -3.5167  -3.5013  -3.4600  -3.4587  -3.2456
    -3.2054  -3.1431  -3.1385  -3.1209  -3.1165  -3.0893  -3.0806  -3.0596
    -3.0119  -2.9324  -2.8700  -2.7670  -2.7351  -2.6834  -2.6588  -2.6349
    -2.5980  -2.5881  -2.5796  -2.5609  -2.5459  -2.5318  -2.4434  -2.3979
    -2.2932  -2.1584  -2.1442  -2.1221  -1.9389  -1.8848  -1.8079  -1.7885
    -1.7585  -1.7447  -1.7172  -1.6321  -1.5565  -1.5213  -1.4515  -1.4475
    -1.3594  -1.3171  -1.2283  -1.2003  -1.1651  -1.0880  -1.0787  -1.0720
    -1.0210  -0.8267  -0.8020  -0.7949  -0.7737  -0.7101  -0.6541  -0.6173
    -0.5588  -0.5311  -0.4902  -0.4054  -0.3982  -0.3627  -0.3414  -0.3268
    -0.2980  -0.2931  -0.1037  -0.0990  -0.0546  -0.0421   0.0443   0.1980
     0.2911   0.3284   0.4019   0.6389   0.7172   0.7945   0.9081   1.2896
     1.3357   2.5443   2.8121   2.8844   2.9001   2.9415   3.0365   3.0476
     3.2635   3.2737   3.3000   3.3200

[...]

          k = 0.0380-0.0419 0.0000 ( 17876 PWs)   bands (ev):

[...]

          k =-0.0760-0.0000 0.0000 ( 17886 PWs)   bands (ev):

[...]

          k =-0.0760-0.0839 0.0000 ( 17948 PWs)   bands (ev):

   -56.3095 -56.3039 -56.3036 -56.3016 -56.2140 -56.1766 -56.1651 -56.1537
   -56.1112 -56.1078 -56.0925 -56.0894 -55.9212 -55.7656 -55.2876 -55.2872
   -32.6934 -32.6865 -32.6191 -32.6179 -32.6002 -32.5982 -32.5967 -32.5868
   -32.5279 -32.5232 -32.5225 -32.5109 -32.4851 -32.4561 -32.4502 -32.4402
   -32.4337 -32.4289 -32.4253 -32.4237 -32.4231 -32.4219 -32.4209 -32.3908
   -32.3864 -32.3692 -32.3567 -32.3444 -32.3337 -32.3243 -32.3227 -32.3148
   -32.3131 -32.3057 -32.3042 -32.2868 -32.2827 -32.2120 -32.1384 -32.0700
   -32.0019 -31.9469 -31.6132 -31.6129 -31.5249 -31.5246 -31.4855 -31.4854
   -16.5311 -16.4906 -16.3208 -16.2580 -16.2468 -16.2350 -16.1920 -16.0767
   -16.0482 -16.0293 -16.0085 -15.9955 -15.9715 -15.9616 -15.8700 -15.8575
   -15.8545 -15.8321 -15.7929 -15.7884 -15.7822 -15.7757 -15.7598 -15.7578
   -15.7229 -15.6486 -15.6444 -15.4247 -15.3329 -15.2659 -13.7927 -13.7923
    -8.2636  -4.0700  -3.8204  -3.7698  -3.6448  -3.5534  -3.4931  -3.4727
    -3.3977  -3.2779  -3.2192  -3.2120  -3.2018  -3.1710  -3.1648  -3.1439
    -3.1338  -3.1208  -3.0779  -3.0572  -3.0414  -3.0312  -3.0055  -2.9920
    -2.9700  -2.9600  -2.9475  -2.9230  -2.8874  -2.8853  -2.8567  -2.8488
    -2.6245  -2.6103  -2.5470  -2.4978  -2.4745  -2.4632  -2.4601  -2.4021
    -2.3819  -2.3600  -2.2631  -2.1960  -2.0434  -2.0267  -2.0187  -1.9801
    -1.9474  -1.8148  -1.7563  -1.7380  -1.7053  -1.6549  -1.6459  -1.5833
    -1.5663  -1.5290  -1.4595  -1.4230  -1.3767  -1.3579  -1.2833  -1.2769
    -1.2440  -1.1906  -1.1104  -1.0902  -1.0725  -1.0604  -1.0061  -0.9662
    -0.9219  -0.8685  -0.7974  -0.7024  -0.6222  -0.4720  -0.4101  -0.3096
    -0.2491  -0.2110  -0.1572  -0.1281  -0.0416  -0.0103  -0.0080   0.0533
     0.0895   0.1892   0.1944   0.2121   0.4402   1.0796   1.0808   1.1550
     1.1557   2.5492   3.0781   3.0922   3.1038   3.1516   3.3097   3.3157
     3.3428   3.3450   3.4349   3.4680

     the Fermi energy is     2.8133 ev

!    total energy              =   -2917.76278743 Ry
     estimated scf accuracy    <       0.00000004 Ry
     smearing contrib. (-TS)   =      -0.02762482 Ry
     internal energy E=F+TS    =   -2917.73516261 Ry

     The total energy is F=E-TS. E is the sum of the following terms:
     one-electron contribution =  -24683.89556053 Ry
     hartree contribution      =   12421.75340041 Ry
     xc contribution           =    -479.08052948 Ry
     ewald contribution        =    9823.48750074 Ry
     electric field correction =       0.00002626 Ry

     convergence has been achieved in  70 iterations

     Forces acting on atoms (cartesian axes, Ry/au):

     atom    1 type  1   force =     0.00012364   -0.00024255    0.09634314
     atom    2 type  1   force =    -0.00005523   -0.00047794   -0.17577208
     atom    3 type  2   force =     0.00009022   -0.00008173   -0.02480988
     atom    4 type  2   force =     0.00006359   -0.00165863    0.05385945
     atom    5 type  2   force =    -0.01231204   -0.00181433    0.00350796
     atom    6 type  2   force =     0.01428481   -0.00153236    0.00391390
     atom    7 type  1   force =     0.00061061    0.00061664   -0.01169840
     atom    8 type  1   force =    -0.00019841    0.02055336    0.02642027
     atom    9 type  2   force =    -0.00054953    0.00047470   -0.00021741
     atom   10 type  2   force =    -0.00145371   -0.00067098   -0.01374605
     atom   11 type  2   force =     0.00039604    0.00026103   -0.00018740
     atom   12 type  2   force =    -0.00052997    0.00053514   -0.00042231
     atom   13 type  1   force =     0.00051822   -0.00033541   -0.00081776
     atom   14 type  1   force =    -0.00116347    0.00108851   -0.00112973
     atom   15 type  2   force =     0.00002858   -0.00010180    0.00073475
     atom   16 type  2   force =     0.00022474    0.00067257   -0.00036683
     atom   17 type  2   force =    -0.00074879    0.00037611   -0.00094033
     atom   18 type  2   force =     0.00116841    0.00074857    0.00042305
     atom   19 type  1   force =    -0.00026910    0.00062270   -0.00102038
     atom   20 type  1   force =    -0.00037470    0.00061087   -0.00019779
     atom   21 type  2   force =     0.00004807    0.00002517    0.10339782
     atom   22 type  2   force =     0.00039042   -0.00085113    0.00068157
     atom   23 type  2   force =    -0.07130607   -0.00004915   -0.02763462
     atom   24 type  2   force =     0.07127107    0.00033946   -0.02773687
     atom   25 type  1   force =     0.00020132   -0.00035537    0.09605315
     atom   26 type  1   force =     0.00001128   -0.00025568   -0.17592499
     atom   27 type  2   force =     0.00021930   -0.00036802   -0.02360192
     atom   28 type  2   force =     0.00006432   -0.00138114    0.05392115
     atom   29 type  2   force =    -0.01263373    0.00048338    0.00327151
     atom   30 type  2   force =     0.01458076    0.00113435    0.00365569
     atom   31 type  1   force =     0.00072504    0.00351212   -0.01312583
     atom   32 type  1   force =     0.00000337   -0.02244660    0.02632200
     atom   33 type  2   force =     0.00006033   -0.00002291    0.00097689
     atom   34 type  2   force =    -0.00088575   -0.00053985   -0.01872246
     atom   35 type  2   force =    -0.00026090   -0.00022888    0.00018061
     atom   36 type  2   force =     0.00011846   -0.00033091   -0.00003962
     atom   37 type  1   force =     0.00038531    0.00059851   -0.00047951
     atom   38 type  1   force =    -0.00132474   -0.00095517   -0.00048823
     atom   39 type  2   force =     0.00001625    0.00110354   -0.00055024
     atom   40 type  2   force =    -0.00013560   -0.00011252   -0.00031307
     atom   41 type  2   force =     0.00052546    0.00031612    0.00014828
     atom   42 type  2   force =    -0.00075472    0.00004933   -0.00030867
     atom   43 type  1   force =    -0.00041837   -0.00015556   -0.00066224
     atom   44 type  1   force =    -0.00010018    0.00058065   -0.00082926
     atom   45 type  2   force =     0.00006332   -0.00000947    0.10338076
     atom   46 type  2   force =    -0.07129160   -0.00005851   -0.02763918
     atom   47 type  2   force =     0.07126549    0.00042989   -0.02770238
     atom   48 type  3   force =    -0.00687993    0.00445843    0.00142647
     atom   49 type  4   force =     0.00038381    0.00051312   -0.00013440
     atom   50 type  5   force =    -0.00075800   -0.00041853   -0.00013799
     atom   51 type  5   force =     0.00656232   -0.00464914   -0.00126058

     Total force =     0.369106     Total SCF correction =     0.000729
  @ DRIVER MODE: Message from server: STATUS
  @ DRIVER MODE: Message from server: GETFORCE
  @ DRIVER MODE: Returning v,forces,stress,ensemble

     Writing output data file ./calc.save/
  @ DRIVER MODE: Message from server: EXIT
  @ DRIVE MODE: Exiting

     General routines

     Parallel routines

   This run was terminated on:  23:10:40  23Aug2021

   JOB DONE.