     Program PWSCF v.6.7GPU starts on  7Oct2021 at 11: 1:54

     R & G space division:  proc/nbgrp/npool/nimage =       8
     Reading input from /storage/home/hcoda1/3/ntian30/research/carbon/CxH_vib/pristine/ads_slab/HO_a/out_0001/pw.inp
Warning: card &CELL ignored
Warning: card   CELL_DYNAMICS='IPI', ignored
Warning: card / ignored

     Current dimensions of program PWSCF are:
     Max number of different atomic species (ntypx) = 10
     Max number of k-points (npk) =  40000
     Max angular momentum in pseudopotentials (lmaxx) =  3
     Presently no symmetry can be used with electric field

     Message from routine cell_base_init:
     DEPRECATED: use true lattice parameter, not A to a.u. conversion factor

     IMPORTANT: XC functional enforced from input :
     Exchange-correlation= BEEF-VDW
                           (   1   4  43  14   2   0   0)
     Any further DFT definition will be discarded
     Please, verify this is what you really want

  @ DRIVER MODE: Connecting to
 qe_1139763_3117414.sched-torque.pace.gatech.educsx6_zbb_scratch
  using UNIX socket
  @ DRIVER MODE: Message from server: STATUS
  @ DRIVER MODE: Message from server: INIT
  @ DRIVER MODE: Receiving replica           0          -1
  @ DRIVER MODE: Receiving encoded integer          25
  @ DRIVER MODE:  SCF:  T  FORCE:  T  STRESS:  F  VC:  F  ENSEMBLE:  F
  @ DRIVER MODE:  SCF:  T  FORCE:  T  STRESS:  F  VC:  F  ENSEMBLE:  F

     Using Slab Decomposition

     bravais-lattice index     =            0
     lattice parameter (alat)  =       1.8897  a.u.
     unit-cell volume          =    6658.9804 (a.u.)^3
     number of atoms/cell      =           50
     number of atomic types    =            3
     number of electrons       =       391.00
     number of Kohn-Sham states=          205
     kinetic-energy cutoff     =      29.3995  Ry
     charge density cutoff     =     293.9946  Ry
     scf convergence threshold =      7.3E-08
     mixing beta               =       0.0500
     number of iterations used =            8  plain     mixing
     Exchange-correlation= BEEF-VDW
                           (   1   4  43  14   2   0   0)

     celldm(1)=   1.889726  celldm(2)=   0.000000  celldm(3)=   0.000000
     celldm(4)=   0.000000  celldm(5)=   0.000000  celldm(6)=   0.000000

     crystal axes: (cart. coord. in units of alat)
               a(1) = (   6.579727   0.000000   0.000000 )
               a(2) = (  -0.000775   5.961596   0.000000 )
               a(3) = (   0.000000   0.000000  25.155947 )

     reciprocal axes: (cart. coord. in units 2 pi/alat)
               b(1) = (  0.151982  0.000020  0.000000 )
               b(2) = (  0.000000  0.167740  0.000000 )
               b(3) = (  0.000000  0.000000  0.039752 )

     PseudoPot. # 1 for Ti read from file:
     /storage/coda1/p-amedford6/0/shared/rich_project_chbe-medford/medford-share/data/pseudos_module/espresso/nninc/pbe/van/Ti.UPF
     MD5 check sum: 8e4df49b7f0d34bbd5052bf3f5ea0213
     Pseudo is Ultrasoft, Zval = 12.0
     Generated by new atomic code, or converted to UPF format
     Using radial grid of  851 points,  6 beta functions with:
                l(1) =   0
                l(2) =   0
                l(3) =   1
                l(4) =   1
                l(5) =   2
                l(6) =   2
     Q(r) pseudized with  8 coefficients,  rinner =    1.000   1.000   1.000
                                                       1.000   1.000

     PseudoPot. # 2 for O  read from file:
     /storage/coda1/p-amedford6/0/shared/rich_project_chbe-medford/medford-share/data/pseudos_module/espresso/nninc/pbe/van/O.UPF
     MD5 check sum: 78c19812648e8988a0fe644b0f25305e
     Pseudo is Ultrasoft, Zval =  6.0
     Generated by new atomic code, or converted to UPF format
     Using radial grid of  737 points,  4 beta functions with:
                l(1) =   0
                l(2) =   0
                l(3) =   1
                l(4) =   1
     Q(r) pseudized with  8 coefficients,  rinner =    0.800   0.800   0.800

     PseudoPot. # 3 for H  read from file:
     /storage/coda1/p-amedford6/0/shared/rich_project_chbe-medford/medford-share/data/pseudos_module/espresso/nninc/pbe/van/H.UPF
     MD5 check sum: b5ee9d7bfd3a09ee7748110bda690ff7
     Pseudo is Ultrasoft, Zval =  1.0
     Generated by new atomic code, or converted to UPF format
     Using radial grid of  615 points,  1 beta functions with:
                l(1) =   0
     Q(r) pseudized with  8 coefficients,  rinner =    0.800

     atomic species   valence    mass     pseudopotential
        Ti1           12.00    47.86700     Ti( 1.00)
        O1             6.00    15.99900     O ( 1.00)
        H1             1.00     1.00800     H ( 1.00)

     No symmetry found

   Cartesian axes

     site n.     atom                  positions (alat units)
         1           Ti1 tau(   1) = (   0.0004258   2.9801865   6.0000000  )
         2           Ti1 tau(   2) = (   3.2906075   1.4906267   6.0002472  )
         3           O1  tau(   3) = (   0.0006271   0.0005054   7.9858123  )
         4           O1  tau(   4) = (   3.2906025   0.0005020   7.3038282  )
         5           O1  tau(   5) = (   4.5942328   1.4918067   9.2879030  )
         6           O1  tau(   6) = (   1.9868534   1.4903216   9.2879459  )
         7           Ti1 tau(   7) = (   3.3248368   2.9353415   9.1581132  )
         8           Ti1 tau(   8) = (   0.0348061   1.4328757   9.2698444  )
         9           O1  tau(   9) = (   3.2558153   5.9608867  11.3540807  )
        10           O1  tau(  10) = (   6.5787777   5.9580609  10.6102199  )
        11           O1  tau(  11) = (   1.2578461   1.4922241  12.6657876  )
        12           O1  tau(  12) = (   5.2569931   1.4893933  12.6381393  )
        13           Ti1 tau(  13) = (   6.5294230   2.9904941  12.8452735  )
        14           Ti1 tau(  14) = (   3.2579094   1.4843304  12.4961006  )
        15           O1  tau(  15) = (   6.5186568   0.0062952  14.7209196  )
        16           O1  tau(  16) = (   3.2668583   0.0047471  13.9447273  )
        17           O1  tau(  17) = (   4.4776800   1.5076002  16.1086166  )
        18           O1  tau(  18) = (   1.9743396   1.5021368  16.0673285  )
        19           Ti1 tau(  19) = (   3.2504849   2.9915922  15.7337648  )
        20           Ti1 tau(  20) = (   6.5638180   1.3940782  16.0359698  )
        21           O1  tau(  21) = (   3.2904802   0.0005063   4.7018136  )
        22           O1  tau(  22) = (   6.5319333   0.0131466  17.2434795  )
        23           O1  tau(  23) = (   1.3043587   1.4918075   6.0039043  )
        24           O1  tau(  24) = (   5.2767064   1.4903225   6.0039473  )
        25           Ti1 tau(  25) = (   0.0000382   5.9609847   6.0000000  )
        26           Ti1 tau(  26) = (   3.2902200   4.4714249   6.0002472  )
        27           O1  tau(  27) = (   0.0002396   2.9813036   7.9858123  )
        28           O1  tau(  28) = (   3.2902150   2.9813002   7.3038282  )
        29           O1  tau(  29) = (   4.5938453   4.4726049   9.2879030  )
        30           O1  tau(  30) = (   1.9864658   4.4711199   9.2879459  )
        31           Ti1 tau(  31) = (   3.3025199   5.9118878   9.1541808  )
        32           Ti1 tau(  32) = (   0.0289454   4.3516898   9.3667734  )
        33           O1  tau(  33) = (   3.2607980   2.9788302  11.3532926  )
        34           O1  tau(  34) = (   6.5774047   2.9692645  10.5656574  )
        35           O1  tau(  35) = (   1.2571186   4.4720179  12.6628446  )
        36           O1  tau(  36) = (   5.2563914   4.4739326  12.6347338  )
        37           Ti1 tau(  37) = (   6.5611204   0.0114005  12.5205682  )
        38           Ti1 tau(  38) = (   3.2560456   4.4634797  12.4976326  )
        39           O1  tau(  39) = (   6.4988029   2.9873628  14.7163224  )
        40           O1  tau(  40) = (   3.2643784   2.9861877  13.9386898  )
        41           O1  tau(  41) = (   4.4776508   4.4728947  16.1063220  )
        42           O1  tau(  42) = (   1.9753228   4.4765485  16.0727810  )
        43           Ti1 tau(  43) = (   3.2601155   0.0105718  15.7379043  )
        44           Ti1 tau(  44) = (   6.5588044   4.5863390  16.0547194  )
        45           O1  tau(  45) = (   3.2900926   2.9813045   4.7018136  )
        46           O1  tau(  46) = (   6.4741149   2.9911911  17.3728393  )
        47           O1  tau(  47) = (   1.3039711   4.4726057   6.0039043  )
        48           O1  tau(  48) = (   5.2763189   4.4711207   6.0039473  )
        49           H1  tau(  49) = (   0.3351658   2.7570926  19.1939219  )
        50           O1  tau(  50) = (   0.9073542   3.0070444  18.4391685  )

     number of k points=    10  Fermi-Dirac smearing, width (Ry)=  0.0073
                       cart. coord. in units 2pi/alat
        k(    1) = (   0.0000000   0.0000000   0.0000000), wk =   0.1250000
        k(    2) = (   0.0000000   0.0419351   0.0000000), wk =   0.2500000
        k(    3) = (   0.0000000  -0.0838702   0.0000000), wk =   0.1250000
        k(    4) = (   0.0379955   0.0000049   0.0000000), wk =   0.2500000
        k(    5) = (   0.0379955   0.0419400   0.0000000), wk =   0.2500000
        k(    6) = (   0.0379955  -0.0838652   0.0000000), wk =   0.2500000
        k(    7) = (   0.0379955  -0.0419301   0.0000000), wk =   0.2500000
        k(    8) = (  -0.0759910  -0.0000099   0.0000000), wk =   0.1250000
        k(    9) = (  -0.0759910   0.0419252   0.0000000), wk =   0.2500000
        k(   10) = (  -0.0759910  -0.0838800   0.0000000), wk =   0.1250000

     Initial potential from superposition of free atoms

     starting charge  374.99924, renormalised to  391.00000

     negative rho (up, down):  2.047E-02 0.000E+00

     %%%%%%%%%%%%%%%%%%%%%%%%%%%%%%%%%%%%%%%%%%%%%%%%%%%%%%%%%%%%%%%%%%%%%%%%
     %                                                                      %
     % You are using vdW-DF, which was implemented by the Thonhauser group. %
     % Please cite the following two papers that made this development      %
     % possible and the two reviews that describe the various versions:     %
     %                                                                      %
     %   T. Thonhauser et al., PRL 115, 136402 (2015).                      %
     %   T. Thonhauser et al., PRB 76, 125112 (2007).                       %
     %   K. Berland et al., Rep. Prog. Phys. 78, 066501 (2015).             %
     %   D.C. Langreth et al., J. Phys.: Condens. Matter 21, 084203 (2009). %
     %                                                                      %
     %                                                                      %
     % If you are calculating the stress with vdW-DF, please also cite:     %
     %                                                                      %
     %   R. Sabatini et al., J. Phys.: Condens. Matter 24, 424209 (2012).   %
     %                                                                      %
     %%%%%%%%%%%%%%%%%%%%%%%%%%%%%%%%%%%%%%%%%%%%%%%%%%%%%%%%%%%%%%%%%%%%%%%%

     Adding external electric field

     Computed dipole along edir(3) :
        Dipole               -5.3562 Ry au,        -13.6140 Debye
        Dipole field         -0.0101 Ry au,

        Potential amp.        0.9370 Ry
        Total length         46.3494 bohr

     Starting wfcs are  293 atomic wfcs
  @ DRIVER MODE: Message from server: STATUS
  @ DRIVER MODE: Message from server: POSDATA
  @ DRIVER MODE: Reading and sharing cell
  @ DRIVER MODE: Reading and sharing positions
  @ DRIVER MODE: Received positions

     Self-consistent Calculation

     iteration #  1     ecut=    29.40 Ry     beta= 0.05
     Davidson diagonalization with overlap
     c_bands:  3 eigenvalues not converged
     c_bands:  2 eigenvalues not converged
     c_bands:  2 eigenvalues not converged
     c_bands:  4 eigenvalues not converged
     c_bands:  3 eigenvalues not converged
     c_bands:  1 eigenvalues not converged
     c_bands:  1 eigenvalues not converged
     c_bands:  2 eigenvalues not converged
     ethr =  1.00E-05,  avg # of iterations = 19.6

[...]

     total energy              =   -2813.97466463 Ry
     estimated scf accuracy    <    1500.89112653 Ry

     iteration #  2     ecut=    29.40 Ry     beta= 0.05
     Davidson diagonalization with overlap
     ethr =  1.00E-02,  avg # of iterations = 17.5

[...]

     iteration # 58     ecut=    29.40 Ry     beta= 0.05
     Davidson diagonalization with overlap
     c_bands:  1 eigenvalues not converged
     c_bands:  2 eigenvalues not converged
     c_bands:  1 eigenvalues not converged
     c_bands:  1 eigenvalues not converged
     ethr =  2.50E-09,  avg # of iterations = 18.3

[...]

     total energy              =   -2949.69596881 Ry
     estimated scf accuracy    <       0.00000021 Ry

     iteration # 69     ecut=    29.40 Ry     beta= 0.05
     Davidson diagonalization with overlap
     ethr =  5.09E-11,  avg # of iterations = 10.6

     negative rho (up, down):  2.019E-02 0.000E+00

     Adding external electric field

     Computed dipole along edir(3) :
        Dipole                0.7100 Ry au,          1.8047 Debye
        Dipole field          0.0013 Ry au,

        Potential amp.       -0.1242 Ry
        Total length         46.3494 bohr

     End of self-consistent calculation

          k = 0.0000 0.0000 0.0000 ( 18029 PWs)   bands (ev):

   -56.0604 -56.0444 -56.0230 -56.0080 -55.9323 -55.9298 -55.8898 -55.8879
   -55.8617 -55.8388 -55.8231 -55.8142 -55.7810 -55.6904 -55.0699 -55.0358
   -32.6074 -32.5265 -32.4565 -32.3870 -32.3825 -32.3581 -32.3517 -32.3238
   -32.2926 -32.2786 -32.2687 -32.2566 -32.2484 -32.2249 -32.2210 -32.1957
   -32.1878 -32.1740 -32.1698 -32.1487 -32.1320 -32.1258 -32.1102 -32.0935
   -32.0772 -32.0676 -32.0654 -32.0640 -32.0568 -32.0473 -32.0390 -32.0385
   -32.0245 -32.0141 -32.0008 -31.9832 -31.9664 -31.9579 -31.9193 -31.9136
   -31.8848 -31.8802 -31.4798 -31.3826 -31.3602 -31.2964 -31.2103 -31.0992
   -20.3855 -16.7830 -16.5049 -16.3635 -16.2050 -16.1594 -16.0540 -15.8817
   -15.7558 -15.7272 -15.6601 -15.6147 -15.6124 -15.5912 -15.5788 -15.5642
   -15.5554 -15.5335 -15.4752 -15.4641 -15.4550 -15.4301 -15.3857 -15.3298
   -15.2596 -15.1867 -15.1731 -15.1184 -15.0511 -15.0139 -14.4597 -13.5711
   -13.4528  -5.7680  -4.2558  -4.1323  -3.9639  -3.9422  -3.9168  -3.8487
    -3.5964  -3.5904  -3.4043  -3.2143  -3.2025  -3.1745  -3.1659  -3.1587
    -2.9372  -2.8821  -2.8766  -2.8683  -2.8612  -2.8196  -2.8073  -2.7939
    -2.7909  -2.7613  -2.6923  -2.6288  -2.5688  -2.4562  -2.4385  -2.3953
    -2.3586  -2.3188  -2.3147  -2.3104  -2.2592  -2.2459  -2.2192  -2.1849
    -2.1207  -1.9841  -1.8813  -1.8303  -1.7553  -1.6949  -1.5522  -1.5079
    -1.4572  -1.4481  -1.3917  -1.3639  -1.3330  -1.2767  -1.2325  -1.2209
    -1.1281  -1.0544  -1.0003  -0.9448  -0.8954  -0.8847  -0.8005  -0.7765
    -0.7506  -0.7182  -0.5299  -0.5056  -0.5037  -0.4084  -0.3794  -0.3340
    -0.3026  -0.2702  -0.2416  -0.2091  -0.1567  -0.0965  -0.0896  -0.0573
    -0.0551  -0.0177   0.0060   0.1239   0.1654   0.1885   0.2613   0.2835
     0.4356   0.4791   0.5924   0.7023   0.8488   0.8567   0.9539   1.0365
     1.1249   1.5432   1.6041   3.1305   3.1574   3.1805   3.2115   3.2817
     3.4035   3.5147   3.5554   3.5904   3.6184

[...]

          k = 0.0380-0.0419 0.0000 ( 17876 PWs)   bands (ev):

[...]

          k =-0.0760-0.0000 0.0000 ( 17886 PWs)   bands (ev):

[...]

          k =-0.0760-0.0839 0.0000 ( 17948 PWs)   bands (ev):

   -56.0495 -56.0337 -56.0284 -56.0239 -55.9285 -55.9197 -55.8994 -55.8811
   -55.8655 -55.8458 -55.8199 -55.7993 -55.7966 -55.6926 -55.0534 -55.0522
   -32.4116 -32.4072 -32.3621 -32.3512 -32.3415 -32.3346 -32.3168 -32.3163
   -32.3075 -32.2574 -32.2435 -32.2416 -32.2205 -32.2037 -32.1946 -32.1762
   -32.1737 -32.1677 -32.1659 -32.1536 -32.1327 -32.1283 -32.1231 -32.1195
   -32.1146 -32.1141 -32.1096 -32.0949 -32.0828 -32.0732 -32.0689 -32.0551
   -32.0528 -32.0510 -32.0419 -32.0243 -32.0175 -32.0047 -32.0028 -31.9912
   -31.9233 -31.8881 -31.3736 -31.3722 -31.2932 -31.2923 -31.2539 -31.2529
   -20.3803 -16.2126 -16.2021 -15.9863 -15.9624 -15.9603 -15.8962 -15.8210
   -15.8029 -15.7723 -15.7699 -15.7097 -15.7002 -15.6870 -15.6421 -15.5915
   -15.5551 -15.5503 -15.5385 -15.4996 -15.4964 -15.4697 -15.4335 -15.4089
   -15.3939 -15.3823 -15.3773 -15.3245 -15.2716 -15.1867 -14.4972 -13.5554
   -13.5528  -5.7613  -4.1124  -3.5043  -3.4907  -3.3491  -3.1791  -3.1766
    -3.1208  -3.0879  -2.9706  -2.9598  -2.9184  -2.8930  -2.8844  -2.8631
    -2.8382  -2.8287  -2.8208  -2.8042  -2.7956  -2.7709  -2.7522  -2.7018
    -2.6947  -2.6794  -2.6574  -2.6490  -2.6238  -2.6058  -2.5923  -2.5779
    -2.5646  -2.4634  -2.3406  -2.3080  -2.2345  -2.1902  -2.1447  -2.1396
    -2.1064  -2.0984  -2.0856  -1.9703  -1.9001  -1.7780  -1.7691  -1.7544
    -1.7208  -1.6225  -1.5952  -1.5532  -1.4672  -1.4560  -1.3638  -1.3344
    -1.3102  -1.2513  -1.2003  -1.1537  -1.1326  -1.0411  -1.0218  -1.0058
    -0.9548  -0.9333  -0.8723  -0.8406  -0.7947  -0.7787  -0.7088  -0.6706
    -0.6312  -0.5627  -0.5521  -0.5282  -0.4843  -0.4078  -0.1625  -0.0614
    -0.0404   0.0064   0.0342   0.0563   0.1788   0.1878   0.2386   0.2693
     0.3533   0.4077   0.4680   0.4862   0.5188   0.5857   0.7919   1.3139
     1.3157   1.4053   1.4166   3.3211   3.3767   3.3958   3.4438   3.5873
     3.5931   3.6155   3.6215   3.6774   3.7132

     the Fermi energy is     3.0972 ev

!    total energy              =   -2949.69598470 Ry
     estimated scf accuracy    <       0.00000007 Ry
     smearing contrib. (-TS)   =      -0.02330203 Ry
     internal energy E=F+TS    =   -2949.67268267 Ry

     The total energy is F=E-TS. E is the sum of the following terms:
     one-electron contribution =  -24640.68406850 Ry
     hartree contribution      =   12404.75320548 Ry
     xc contribution           =    -484.01093848 Ry
     ewald contribution        =    9770.26816750 Ry
     electric field correction =       0.00095133 Ry

     convergence has been achieved in  69 iterations

     Forces acting on atoms (cartesian axes, Ry/au):

     atom    1 type  1   force =    -0.00008678    0.00154220    0.10635974
     atom    2 type  1   force =    -0.00010893    0.00000591   -0.17997475
     atom    3 type  2   force =     0.00022146    0.00713777   -0.03467123
     atom    4 type  2   force =     0.00039179   -0.00051220    0.04595717
     atom    5 type  2   force =    -0.01961290   -0.00190656    0.00433488
     atom    6 type  2   force =     0.01833263   -0.00056870    0.00277523
     atom    7 type  1   force =    -0.00036704   -0.00056868    0.00008661
     atom    8 type  1   force =     0.00024354   -0.00021284    0.00018169
     atom    9 type  2   force =     0.00032578   -0.00028667   -0.00043743
     atom   10 type  2   force =    -0.00002813   -0.00034383    0.00000821
     atom   11 type  2   force =     0.00002471   -0.00010456    0.00004289
     atom   12 type  2   force =     0.00054999   -0.00005184    0.00005675
     atom   13 type  1   force =    -0.00012368   -0.00015052    0.00002231
     atom   14 type  1   force =    -0.00029244    0.00034004    0.00009825
     atom   15 type  2   force =     0.00058089   -0.00017822   -0.00058498
     atom   16 type  2   force =    -0.00003407   -0.00015819    0.00080274
     atom   17 type  2   force =    -0.00050842   -0.00021677   -0.00040383
     atom   18 type  2   force =     0.00030097   -0.00004348   -0.00004508
     atom   19 type  1   force =     0.00089183   -0.00026427    0.00105464
     atom   20 type  1   force =    -0.00015788    0.00085445   -0.00009897
     atom   21 type  2   force =     0.00004669   -0.00000645    0.10418395
     atom   22 type  2   force =    -0.00020300   -0.00032237   -0.00009976
     atom   23 type  2   force =    -0.06851203    0.00090939   -0.02984824
     atom   24 type  2   force =     0.06838025    0.00144940   -0.02984966
     atom   25 type  1   force =     0.00009188   -0.00148113    0.11889778
     atom   26 type  1   force =    -0.00028189   -0.00076347   -0.17993343
     atom   27 type  2   force =     0.00046103   -0.00348993   -0.02899509
     atom   28 type  2   force =     0.00073283   -0.00072885    0.04751342
     atom   29 type  2   force =    -0.02067289   -0.00019558    0.00520197
     atom   30 type  2   force =     0.01978633    0.00203971    0.00389266
     atom   31 type  1   force =    -0.00029819   -0.00010545   -0.00016436
     atom   32 type  1   force =     0.00007977    0.00044576    0.00031352
     atom   33 type  2   force =    -0.00013019    0.00029135    0.00019347
     atom   34 type  2   force =    -0.00004792    0.00036621   -0.00047016
     atom   35 type  2   force =     0.00031748   -0.00015569    0.00012790
     atom   36 type  2   force =     0.00034212   -0.00009956    0.00023317
     atom   37 type  1   force =    -0.00126542    0.00043064   -0.00043314
     atom   38 type  1   force =    -0.00029483   -0.00002319    0.00004559
     atom   39 type  2   force =     0.00027631    0.00001885   -0.00061005
     atom   40 type  2   force =    -0.00004838    0.00005404   -0.00037523
     atom   41 type  2   force =     0.00017585    0.00014651   -0.00009543
     atom   42 type  2   force =    -0.00044480   -0.00007839    0.00037110
     atom   43 type  1   force =     0.00101802    0.00000311   -0.00058232
     atom   44 type  1   force =    -0.00008716   -0.00042034    0.00069331
     atom   45 type  2   force =     0.00004618    0.00001137    0.10423639
     atom   46 type  2   force =     0.00019325    0.00054868   -0.00187466
     atom   47 type  2   force =    -0.06896461   -0.00125273   -0.02978135
     atom   48 type  2   force =     0.06871757   -0.00096289   -0.02980758
     atom   49 type  3   force =     0.00692387    0.00173210   -0.00600710
     atom   50 type  2   force =    -0.00688145   -0.00267415    0.00745848

     Total force =     0.377703     Total SCF correction =     0.001037
  @ DRIVER MODE: Message from server: STATUS
  @ DRIVER MODE: Message from server: GETFORCE
  @ DRIVER MODE: Returning v,forces,stress,ensemble

     Writing output data file ./calc.save/
  @ DRIVER MODE: Message from server: EXIT
  @ DRIVE MODE: Exiting

     General routines

     Parallel routines

   This run was terminated on:  11:30:11   7Oct2021

   JOB DONE.