     Program PWSCF v.6.7GPU starts on 19Oct2021 at  0:31: 2

     R & G space division:  proc/nbgrp/npool/nimage =       8
     Reading input from /storage/home/hcoda1/3/ntian30/research/carbon/CxH_vib/Thiel_calc/ads_slab/NH2NH2HH_perslab/out_0027/pw.inp
Warning: card &CELL ignored
Warning: card   CELL_DYNAMICS='IPI', ignored
Warning: card / ignored

     Current dimensions of program PWSCF are:
     Max number of different atomic species (ntypx) = 10
     Max number of k-points (npk) =  40000
     Max angular momentum in pseudopotentials (lmaxx) =  3
     Presently no symmetry can be used with electric field

     Message from routine cell_base_init:
     DEPRECATED: use true lattice parameter, not A to a.u. conversion factor

     IMPORTANT: XC functional enforced from input :
     Exchange-correlation= BEEF-VDW
                           (   1   4  43  14   2   0   0)
     Any further DFT definition will be discarded
     Please, verify this is what you really want

  @ DRIVER MODE: Connecting to
 qe_1139763_3255137.sched-torque.pace.gatech.eduy8omwy6i_scratch
  using UNIX socket
  @ DRIVER MODE: Message from server: STATUS
  @ DRIVER MODE: Message from server: INIT
  @ DRIVER MODE: Receiving replica           0          -1
  @ DRIVER MODE: Receiving encoded integer          25
  @ DRIVER MODE:  SCF:  T  FORCE:  T  STRESS:  F  VC:  F  ENSEMBLE:  F
  @ DRIVER MODE:  SCF:  T  FORCE:  T  STRESS:  F  VC:  F  ENSEMBLE:  F

     Using Slab Decomposition

     bravais-lattice index     =            0
     lattice parameter (alat)  =       1.8897  a.u.
     unit-cell volume          =    9988.4706 (a.u.)^3
     number of atoms/cell      =           61
     number of atomic types    =            4
     number of electrons       =       442.00
     number of Kohn-Sham states=          231
     kinetic-energy cutoff     =      29.3995  Ry
     charge density cutoff     =     293.9946  Ry
     scf convergence threshold =      7.3E-08
     mixing beta               =       0.0500
     number of iterations used =            8  plain     mixing
     Exchange-correlation= BEEF-VDW
                           (   1   4  43  14   2   0   0)

     celldm(1)=   1.889726  celldm(2)=   0.000000  celldm(3)=   0.000000
     celldm(4)=   0.000000  celldm(5)=   0.000000  celldm(6)=   0.000000

     crystal axes: (cart. coord. in units of alat)
               a(1) = (   6.579727   0.000000   0.000000 )
               a(2) = (  -0.001163   8.942395   0.000000 )
               a(3) = (   0.000000   0.000000  25.155947 )

     reciprocal axes: (cart. coord. in units 2 pi/alat)
               b(1) = (  0.151982  0.000020  0.000000 )
               b(2) = (  0.000000  0.111827  0.000000 )
               b(3) = (  0.000000  0.000000  0.039752 )

     PseudoPot. # 1 for O  read from file:
     /storage/coda1/p-amedford6/0/shared/rich_project_chbe-medford/medford-share/data/pseudos_module/espresso/nninc/pbe/van/O.UPF
     MD5 check sum: 78c19812648e8988a0fe644b0f25305e
     Pseudo is Ultrasoft, Zval =  6.0
     Generated by new atomic code, or converted to UPF format
     Using radial grid of  737 points,  4 beta functions with:
                l(1) =   0
                l(2) =   0
                l(3) =   1
                l(4) =   1
     Q(r) pseudized with  8 coefficients,  rinner =    0.800   0.800   0.800

     PseudoPot. # 2 for Ti read from file:
     /storage/coda1/p-amedford6/0/shared/rich_project_chbe-medford/medford-share/data/pseudos_module/espresso/nninc/pbe/van/Ti.UPF
     MD5 check sum: 8e4df49b7f0d34bbd5052bf3f5ea0213
     Pseudo is Ultrasoft, Zval = 12.0
     Generated by new atomic code, or converted to UPF format
     Using radial grid of  851 points,  6 beta functions with:
                l(1) =   0
                l(2) =   0
                l(3) =   1
                l(4) =   1
                l(5) =   2
                l(6) =   2
     Q(r) pseudized with  8 coefficients,  rinner =    1.000   1.000   1.000
                                                       1.000   1.000

     PseudoPot. # 3 for N  read from file:
     /storage/coda1/p-amedford6/0/shared/rich_project_chbe-medford/medford-share/data/pseudos_module/espresso/nninc/pbe/van/N.UPF
     MD5 check sum: 90d10febe142ad51ac9d5be1deb811c4
     Pseudo is Ultrasoft, Zval =  5.0
     Generated by new atomic code, or converted to UPF format
     Using radial grid of  729 points,  4 beta functions with:
                l(1) =   0
                l(2) =   0
                l(3) =   1
                l(4) =   1
     Q(r) pseudized with  8 coefficients,  rinner =    0.800   0.800   0.800

     PseudoPot. # 4 for H  read from file:
     /storage/coda1/p-amedford6/0/shared/rich_project_chbe-medford/medford-share/data/pseudos_module/espresso/nninc/pbe/van/H.UPF
     MD5 check sum: b5ee9d7bfd3a09ee7748110bda690ff7
     Pseudo is Ultrasoft, Zval =  1.0
     Generated by new atomic code, or converted to UPF format
     Using radial grid of  615 points,  1 beta functions with:
                l(1) =   0
     Q(r) pseudized with  8 coefficients,  rinner =    0.800

     atomic species   valence    mass     pseudopotential
        O1             6.00    15.99900     O ( 1.00)
        Ti1           12.00    47.86700     Ti( 1.00)
        N1             5.00    14.00700     N ( 1.00)
        H1             1.00     1.00800     H ( 1.00)

     No symmetry found

   Cartesian axes

     site n.     atom                  positions (alat units)
         1           O1  tau(   1) = (   0.0007354   0.0005023  10.5931620  )
         2           O1  tau(   2) = (   3.2456387   0.0208629  13.8623892  )
         3           O1  tau(   3) = (   6.5569189   0.0555649  17.3369326  )
         4           O1  tau(   4) = (   0.0006271   0.0005054   7.9858123  )
         5           O1  tau(   5) = (   3.2933513   8.9300833  11.1812556  )
         6           O1  tau(   6) = (   0.0337597   0.0712708  14.6279364  )
         7           O1  tau(   7) = (   1.9868534   1.4903216   9.2879459  )
         8           O1  tau(   8) = (   5.2215124   1.6184176  12.5791628  )
         9           O1  tau(   9) = (   1.9922958   1.5902288  16.0980526  )
        10           Ti1 tau(  10) = (   0.0007404   1.4906270   9.2895810  )
        11           Ti1 tau(  11) = (   3.2860490   1.3455809  12.4359399  )
        12           Ti1 tau(  12) = (   6.5618936   1.3602716  15.8812525  )
        13           O1  tau(  13) = (   4.5942328   1.4918067   9.2879030  )
        14           O1  tau(  14) = (   1.3307156   1.5887400  12.5381291  )
        15           O1  tau(  15) = (   4.5725103   1.6118788  16.0006659  )
        16           Ti1 tau(  16) = (   3.2902859   2.9801868   9.2893338  )
        17           Ti1 tau(  17) = (   0.0046584   2.8227806  12.4510757  )
        18           Ti1 tau(  18) = (   3.2555632   2.8898243  15.6661830  )
        19           O1  tau(  19) = (   0.0003479   2.9813005  10.5931620  )
        20           O1  tau(  20) = (   3.2279248   2.9553539  13.8813459  )
        21           O1  tau(  21) = (   0.0002396   2.9813036   7.9858123  )
        22           O1  tau(  22) = (   3.2889556   2.9859946  11.1941525  )
        23           O1  tau(  23) = (   0.0559812   2.9852445  14.6488683  )
        24           O1  tau(  24) = (   1.9864658   4.4711199   9.2879459  )
        25           O1  tau(  25) = (   5.2314886   4.5920767  12.6107679  )
        26           O1  tau(  26) = (   1.9969377   4.5324570  16.1535429  )
        27           Ti1 tau(  27) = (   0.0003529   4.4714252   9.2895810  )
        28           Ti1 tau(  28) = (   3.2845268   4.3564118  12.5295435  )
        29           Ti1 tau(  29) = (   6.5676402   4.3565080  15.8255799  )
        30           O1  tau(  30) = (   4.5938453   4.4726049   9.2879030  )
        31           O1  tau(  31) = (   1.3315080   4.5776727  12.5731030  )
        32           O1  tau(  32) = (   4.5871741   4.4544688  15.9274438  )
        33           Ti1 tau(  33) = (   3.2898983   5.9609850   9.2893338  )
        34           Ti1 tau(  34) = (   6.5783773   5.8108302  12.4536689  )
        35           Ti1 tau(  35) = (   3.3162440   5.8110762  16.0333210  )
        36           O1  tau(  36) = (  -0.0000397   5.9620987  10.5931620  )
        37           O1  tau(  37) = (   3.2636778   5.9869953  13.9790019  )
        38           O1  tau(  38) = (   6.4104969   6.0475349  17.2872242  )
        39           O1  tau(  39) = (  -0.0001480   5.9621018   7.9858123  )
        40           O1  tau(  40) = (   3.2905218   5.9516507  11.2202175  )
        41           O1  tau(  41) = (   0.0617018   5.9803669  14.6637187  )
        42           O1  tau(  42) = (   1.9860782   7.4519181   9.2879459  )
        43           O1  tau(  43) = (   5.2407037   7.5572870  12.6049163  )
        44           O1  tau(  44) = (   1.9881273   7.5959696  16.0809372  )
        45           Ti1 tau(  45) = (  -0.0000347   7.4522234   9.2895810  )
        46           Ti1 tau(  46) = (   3.2912638   7.2305267  12.6172466  )
        47           Ti1 tau(  47) = (   0.0232661   7.3094817  15.9177444  )
        48           O1  tau(  48) = (   4.5934577   7.4534031   9.2879030  )
        49           O1  tau(  49) = (   1.3287160   7.5404973  12.5734398  )
        50           O1  tau(  50) = (   4.6507959   7.6754627  15.9163669  )
        51           Ti1 tau(  51) = (   3.2895107   8.9417832   9.2893338  )
        52           Ti1 tau(  52) = (   0.0077981   8.7799231  12.4640552  )
        53           Ti1 tau(  53) = (   3.2910717   8.8534038  15.6608489  )
        54           N1  tau(  54) = (   3.7626148   6.0985185  18.0019073  )
        55           H1  tau(  55) = (   3.4663780   5.3841571  18.6619304  )
        56           H1  tau(  56) = (   3.5565419   6.9988739  18.4208443  )
        57           N1  tau(  57) = (   6.5319303   3.0529623  17.4095181  )
        58           H1  tau(  58) = (   5.7013393   3.0040474  17.9904383  )
        59           H1  tau(  59) = (   0.7603229   3.1006543  18.0203722  )
        60           H1  tau(  60) = (   5.4974376   6.0468821  17.7423635  )
        61           H1  tau(  61) = (   0.7324116   0.0679216  17.9402240  )

     number of k points=    10  Fermi-Dirac smearing, width (Ry)=  0.0073
                       cart. coord. in units 2pi/alat
        k(    1) = (   0.0000000   0.0000000   0.0000000), wk =   0.1250000
        k(    2) = (   0.0000000   0.0279567   0.0000000), wk =   0.2500000
        k(    3) = (   0.0000000  -0.0559134   0.0000000), wk =   0.1250000
        k(    4) = (   0.0379955   0.0000049   0.0000000), wk =   0.2500000
        k(    5) = (   0.0379955   0.0279617   0.0000000), wk =   0.2500000
        k(    6) = (   0.0379955  -0.0559085   0.0000000), wk =   0.2500000
        k(    7) = (   0.0379955  -0.0279518   0.0000000), wk =   0.2500000
        k(    8) = (  -0.0759910  -0.0000099   0.0000000), wk =   0.1250000
        k(    9) = (  -0.0759910   0.0279468   0.0000000), wk =   0.2500000
        k(   10) = (  -0.0759910  -0.0559233   0.0000000), wk =   0.1250000

     Initial potential from superposition of free atoms

     starting charge  423.99908, renormalised to  442.00000

     negative rho (up, down):  3.745E-02 0.000E+00

     %%%%%%%%%%%%%%%%%%%%%%%%%%%%%%%%%%%%%%%%%%%%%%%%%%%%%%%%%%%%%%%%%%%%%%%%
     %                                                                      %
     % You are using vdW-DF, which was implemented by the Thonhauser group. %
     % Please cite the following two papers that made this development      %
     % possible and the two reviews that describe the various versions:     %
     %                                                                      %
     %   T. Thonhauser et al., PRL 115, 136402 (2015).                      %
     %   T. Thonhauser et al., PRB 76, 125112 (2007).                       %
     %   K. Berland et al., Rep. Prog. Phys. 78, 066501 (2015).             %
     %   D.C. Langreth et al., J. Phys.: Condens. Matter 21, 084203 (2009). %
     %                                                                      %
     %                                                                      %
     % If you are calculating the stress with vdW-DF, please also cite:     %
     %                                                                      %
     %   R. Sabatini et al., J. Phys.: Condens. Matter 24, 424209 (2012).   %
     %                                                                      %
     %%%%%%%%%%%%%%%%%%%%%%%%%%%%%%%%%%%%%%%%%%%%%%%%%%%%%%%%%%%%%%%%%%%%%%%%

     Adding external electric field

     Computed dipole along edir(3) :
        Dipole               -5.9687 Ry au,        -15.1708 Debye
        Dipole field         -0.0075 Ry au,

        Potential amp.        0.6961 Ry
        Total length         46.3494 bohr

     Starting wfcs are  334 atomic wfcs
  @ DRIVER MODE: Message from server: STATUS
  @ DRIVER MODE: Message from server: POSDATA
  @ DRIVER MODE: Reading and sharing cell
  @ DRIVER MODE: Reading and sharing positions
  @ DRIVER MODE: Received positions

     Self-consistent Calculation

     iteration #  1     ecut=    29.40 Ry     beta= 0.05
     Davidson diagonalization with overlap
     c_bands:  1 eigenvalues not converged
     c_bands:  3 eigenvalues not converged
     c_bands:  5 eigenvalues not converged
     c_bands:  2 eigenvalues not converged
     c_bands:  4 eigenvalues not converged
     c_bands:  4 eigenvalues not converged
     c_bands:  4 eigenvalues not converged
     c_bands:  2 eigenvalues not converged
     c_bands:  5 eigenvalues not converged
     ethr =  1.00E-05,  avg # of iterations = 21.0

[...]

     total energy              =   -3277.93387437 Ry
     estimated scf accuracy    <     239.62329932 Ry

     iteration #  2     ecut=    29.40 Ry     beta= 0.05
     Davidson diagonalization with overlap
     ethr =  1.00E-02,  avg # of iterations = 16.2

[...]

     iteration # 60     ecut=    29.40 Ry     beta= 0.05
     Davidson diagonalization with overlap
     c_bands:  1 eigenvalues not converged
     ethr =  1.94E-10,  avg # of iterations = 15.2

[...]

     total energy              =   -3295.80755606 Ry
     estimated scf accuracy    <       0.00000011 Ry

     iteration # 66     ecut=    29.40 Ry     beta= 0.05
     Davidson diagonalization with overlap
     ethr =  2.54E-11,  avg # of iterations = 12.7

     negative rho (up, down):  3.606E-02 0.000E+00

     Adding external electric field

     Computed dipole along edir(3) :
        Dipole                1.5103 Ry au,          3.8388 Debye
        Dipole field          0.0019 Ry au,

        Potential amp.       -0.1761 Ry
        Total length         46.3494 bohr

     End of self-consistent calculation

          k = 0.0000 0.0000 0.0000 ( 26871 PWs)   bands (ev):

   -57.7245 -57.6988 -57.6886 -57.6623 -57.6534 -57.6198 -57.6060 -57.5984
   -57.5707 -57.5577 -57.5082 -57.4775 -57.4612 -57.4549 -57.4469 -56.7466
   -56.7225 -56.7179 -34.1061 -34.1031 -34.0943 -34.0855 -34.0732 -34.0565
   -34.0560 -34.0418 -34.0287 -34.0175 -33.9876 -33.9694 -33.9497 -33.9436
   -33.9359 -33.9175 -33.9123 -33.9107 -33.8923 -33.8871 -33.8652 -33.8629
   -33.8426 -33.8330 -33.8289 -33.8227 -33.8120 -33.8099 -33.8045 -33.7951
   -33.7836 -33.7816 -33.7675 -33.7319 -33.7227 -33.7185 -33.7039 -33.7030
   -33.6954 -33.6944 -33.6831 -33.6747 -33.6679 -33.6620 -33.6395 -33.0619
   -33.0608 -33.0563 -33.0447 -33.0404 -32.9727 -32.9107 -32.9053 -32.7725
   -19.3036 -18.7601 -18.5254 -18.2269 -18.0162 -17.9739 -17.9408 -17.8195
   -17.7840 -17.7600 -17.6622 -17.6511 -17.5877 -17.5339 -17.5058 -17.4571
   -17.4391 -17.3785 -17.3644 -17.3562 -17.3509 -17.3407 -17.3305 -17.2651
   -17.2379 -17.2097 -17.1707 -17.1551 -17.1485 -17.1410 -17.1185 -16.8459
   -15.4997 -15.2131 -15.1550 -15.1538 -15.0821  -6.9871  -6.8124  -6.6480
    -6.3410  -5.8602  -5.7865  -5.6373  -5.5133  -5.2213  -5.1932  -5.1420
    -5.1155  -5.0866  -5.0219  -5.0019  -4.9888  -4.9336  -4.9161  -4.8435
    -4.8206  -4.7792  -4.7552  -4.7296  -4.6849  -4.6446  -4.6174  -4.6055
    -4.5748  -4.5673  -4.5107  -4.4871  -4.4578  -4.4521  -4.4360  -4.3268
    -4.2945  -4.2381  -4.1692  -4.0925  -4.0392  -4.0310  -3.9746  -3.9554
    -3.9030  -3.8630  -3.8263  -3.8172  -3.7808  -3.7425  -3.6432  -3.6106
    -3.5880  -3.5222  -3.5001  -3.4314  -3.4139  -3.3807  -3.3391  -3.3330
    -3.2963  -3.1980  -3.1638  -3.0839  -3.0268  -2.9738  -2.9348  -2.8897
    -2.8438  -2.8105  -2.7850  -2.7037  -2.6276  -2.5434  -2.4933  -2.4806
    -2.4688  -2.4181  -2.4112  -2.4084  -2.3517  -2.3257  -2.3149  -2.2773
    -2.2258  -2.2031  -2.1407  -2.0958  -2.0606  -1.9932  -1.9775  -1.8967
    -1.8879  -1.8269  -1.7836  -1.7441  -1.6326  -1.5976  -1.5653  -1.5627
    -1.4439  -1.4076  -1.1435  -1.0044  -0.7861  -0.7535  -0.5002  -0.4514
    -0.4486  -0.1856  -0.1822  -0.0540   1.3223   1.5111   1.6444   1.7002
     1.7051   1.7386   1.8047   1.8914   1.9168   1.9636   1.9954

[...]

          k = 0.0380-0.0280 0.0000 ( 26873 PWs)   bands (ev):

[...]

          k =-0.0760-0.0000 0.0000 ( 26902 PWs)   bands (ev):

[...]

          k =-0.0760-0.0559 0.0000 ( 26868 PWs)   bands (ev):

   -57.7209 -57.7066 -57.6844 -57.6611 -57.6534 -57.6205 -57.6073 -57.5981
   -57.5701 -57.5574 -57.5084 -57.4725 -57.4651 -57.4607 -57.4421 -56.7404
   -56.7349 -56.7115 -34.1935 -34.1565 -34.1539 -34.0943 -34.0601 -34.0523
   -34.0416 -34.0390 -34.0016 -33.9678 -33.9338 -33.9202 -33.9146 -33.9132
   -33.9021 -33.8999 -33.8803 -33.8730 -33.8683 -33.8682 -33.8644 -33.8588
   -33.8536 -33.8456 -33.8312 -33.8263 -33.8237 -33.8186 -33.8143 -33.7934
   -33.7928 -33.7704 -33.7635 -33.7561 -33.7503 -33.7319 -33.7258 -33.7204
   -33.7005 -33.7004 -33.6984 -33.6950 -33.6859 -33.6677 -33.6509 -33.1507
   -33.0616 -33.0563 -33.0339 -32.9542 -32.9482 -32.8865 -32.8720 -32.8666
   -19.2902 -18.7343 -18.2718 -18.1350 -17.9630 -17.9218 -17.8478 -17.8347
   -17.8229 -17.7936 -17.7015 -17.6786 -17.6518 -17.5689 -17.5501 -17.5002
   -17.4563 -17.4431 -17.4248 -17.4139 -17.4057 -17.3890 -17.3551 -17.3231
   -17.2905 -17.2385 -17.1765 -17.1577 -17.1092 -17.0945 -17.0639 -16.8797
   -15.4944 -15.2111 -15.2091 -15.0923 -15.0834  -6.9917  -6.8443  -6.6400
    -6.3225  -5.5170  -5.4539  -5.3706  -5.3560  -5.2382  -5.2056  -5.0144
    -5.0041  -4.9894  -4.9571  -4.9253  -4.8891  -4.8626  -4.8384  -4.8248
    -4.8111  -4.7896  -4.7638  -4.7518  -4.7355  -4.6915  -4.6446  -4.6383
    -4.6272  -4.6047  -4.5504  -4.5054  -4.4777  -4.4250  -4.4220  -4.3414
    -4.3180  -4.3001  -4.2257  -4.2176  -4.0964  -3.9482  -3.8871  -3.8670
    -3.8431  -3.7957  -3.7855  -3.7320  -3.7103  -3.6927  -3.5560  -3.4742
    -3.4506  -3.4158  -3.3846  -3.3616  -3.3260  -3.2984  -3.2765  -3.2510
    -3.2349  -3.1822  -3.1659  -3.1227  -3.0803  -2.9987  -2.9547  -2.8965
    -2.8736  -2.8554  -2.8370  -2.8333  -2.8127  -2.7800  -2.7510  -2.6959
    -2.6862  -2.6556  -2.5841  -2.5295  -2.5015  -2.4768  -2.4346  -2.4277
    -2.2727  -2.2535  -2.2203  -2.2082  -2.1348  -2.0912  -1.9997  -1.9731
    -1.9506  -1.8791  -1.8073  -1.7639  -1.7074  -1.5110  -1.5023  -1.3832
    -1.3464  -1.2976  -1.2719  -1.2277  -1.0693  -0.7340  -0.6627  -0.3795
    -0.3682  -0.3422  -0.1868  -0.1805   1.4295   1.4531   1.5381   1.5946
     1.6133   1.6510   1.6638   1.7029   1.7235   1.7800   1.9156

     the Fermi energy is     1.3732 ev

!    total energy              =   -3295.80757819 Ry
     estimated scf accuracy    <       0.00000005 Ry
     smearing contrib. (-TS)   =      -0.03571783 Ry
     internal energy E=F+TS    =   -3295.77186036 Ry

     The total energy is F=E-TS. E is the sum of the following terms:
     one-electron contribution =  -34705.76197434 Ry
     hartree contribution      =   17418.79354586 Ry
     xc contribution           =    -543.86445337 Ry
     ewald contribution        =   14535.05815186 Ry
     electric field correction =       0.00286963 Ry

     convergence has been achieved in  66 iterations

     Forces acting on atoms (cartesian axes, Ry/au):

     atom    1 type  1   force =    -0.00168661    0.00376913    0.05471745
     atom    2 type  1   force =     0.00024253   -0.00250778   -0.00840419
     atom    3 type  1   force =     0.00043849   -0.00344646    0.00038792
     atom    4 type  1   force =     0.00004327   -0.00003024    0.10677682
     atom    5 type  1   force =    -0.00020489    0.00064836    0.00658823
     atom    6 type  1   force =     0.00004776   -0.00447892    0.00370766
     atom    7 type  1   force =     0.06647579    0.00078890   -0.02965372
     atom    8 type  1   force =     0.00658928   -0.02713217    0.00195965
     atom    9 type  1   force =     0.00669636   -0.02260158    0.00508687
     atom   10 type  2   force =    -0.00010890   -0.00451062   -0.18344451
     atom   11 type  2   force =     0.00067422    0.02088733   -0.00414205
     atom   12 type  2   force =    -0.00162148    0.02773358   -0.00683193
     atom   13 type  1   force =    -0.06653311    0.00044464   -0.02979641
     atom   14 type  1   force =    -0.00433101   -0.02771128    0.00253485
     atom   15 type  1   force =    -0.00650404   -0.02336972    0.00509188
     atom   16 type  2   force =     0.00008350    0.00069243    0.06699490
     atom   17 type  2   force =    -0.00238433    0.03353485    0.00351700
     atom   18 type  2   force =     0.00124026    0.02461476   -0.00366805
     atom   19 type  1   force =    -0.00169763    0.00675141    0.05326975
     atom   20 type  1   force =     0.00023496   -0.00117311   -0.00659449
     atom   21 type  1   force =     0.00003486    0.00110168    0.10724059
     atom   22 type  1   force =    -0.00025186   -0.00199096    0.00722290
     atom   23 type  1   force =     0.00070316   -0.00586435    0.00409264
     atom   24 type  1   force =     0.06750617    0.00138164   -0.02905585
     atom   25 type  1   force =     0.00527694   -0.03015305    0.00245848
     atom   26 type  1   force =     0.00666802   -0.02612925   -0.00410782
     atom   27 type  2   force =     0.00011092   -0.00120160   -0.18673930
     atom   28 type  2   force =     0.00008304    0.02387794   -0.00246080
     atom   29 type  2   force =    -0.00128055    0.02207616    0.00119587
     atom   30 type  1   force =    -0.06761246    0.00087696   -0.02890828
     atom   31 type  1   force =    -0.00536834   -0.02961967    0.00279851
     atom   32 type  1   force =    -0.00434445   -0.02244599    0.00251579
     atom   33 type  2   force =    -0.00004564    0.00132241    0.07474151
     atom   34 type  2   force =     0.00092085    0.03692467    0.00407060
     atom   35 type  2   force =    -0.00206368    0.03475615    0.00504167
     atom   36 type  1   force =    -0.00186660    0.00289593    0.05589807
     atom   37 type  1   force =     0.00131787    0.00402076   -0.01135249
     atom   38 type  1   force =     0.00017374   -0.00395448    0.00411521
     atom   39 type  1   force =     0.00002121   -0.00063399    0.10727397
     atom   40 type  1   force =     0.00015778   -0.00141151    0.00715931
     atom   41 type  1   force =    -0.00026682   -0.00402297    0.00182103
     atom   42 type  1   force =     0.06783903   -0.00221378   -0.02969522
     atom   43 type  1   force =     0.00368424   -0.02636707    0.00153142
     atom   44 type  1   force =     0.01001195   -0.01798454    0.00266290
     atom   45 type  2   force =     0.00002985    0.00217263   -0.18330027
     atom   46 type  2   force =    -0.00023719    0.01478268    0.00205974
     atom   47 type  2   force =     0.00297571    0.02640692   -0.00876045
     atom   48 type  1   force =    -0.06790288   -0.00284228   -0.02985440
     atom   49 type  1   force =    -0.00374760   -0.02551335    0.00183053
     atom   50 type  1   force =    -0.00792660   -0.02366885    0.00525031
     atom   51 type  2   force =     0.00045542   -0.00351111    0.06840900
     atom   52 type  2   force =    -0.00011549    0.03119123    0.00596591
     atom   53 type  2   force =    -0.00214319    0.02593520   -0.00060061
     atom   54 type  3   force =     0.00068889   -0.00193791   -0.00091671
     atom   55 type  4   force =    -0.00071536    0.00038558   -0.00050642
     atom   56 type  4   force =     0.00027223    0.00088543    0.00128140
     atom   57 type  3   force =     0.00075943   -0.00317303    0.00003887
     atom   58 type  4   force =     0.00109351    0.00155941   -0.00048180
     atom   59 type  4   force =     0.00002135    0.00027874    0.00075049
     atom   60 type  4   force =    -0.00139689    0.00004128    0.00010520
     atom   61 type  4   force =    -0.00121501   -0.00113713    0.00111088

     Total force =     0.459526     Total SCF correction =     0.000471
  @ DRIVER MODE: Message from server: STATUS
  @ DRIVER MODE: Message from server: GETFORCE
  @ DRIVER MODE: Returning v,forces,stress,ensemble

     Writing output data file ./calc.save/
  @ DRIVER MODE: Message from server: EXIT
  @ DRIVE MODE: Exiting

     General routines

     Parallel routines

   This run was terminated on:   1: 5:10  19Oct2021

   JOB DONE.