     Program PWSCF v.6.7GPU starts on  9Sep2021 at  2:32:47

     R & G space division:  proc/nbgrp/npool/nimage =      10
     Reading input from /storage/home/hcoda1/3/ntian30/research/carbon/CxH_vib/CH_calc/ads_slab/CHN2_c/out_0015/pw.inp
Warning: card &CELL ignored
Warning: card   CELL_DYNAMICS='IPI', ignored
Warning: card / ignored

     Current dimensions of program PWSCF are:
     Max number of different atomic species (ntypx) = 10
     Max number of k-points (npk) =  40000
     Max angular momentum in pseudopotentials (lmaxx) =  3
     Presently no symmetry can be used with electric field

     Message from routine cell_base_init:
     DEPRECATED: use true lattice parameter, not A to a.u. conversion factor

     IMPORTANT: XC functional enforced from input :
     Exchange-correlation= BEEF-VDW
                           (   1   4  43  14   2   0   0)
     Any further DFT definition will be discarded
     Please, verify this is what you really want

  @ DRIVER MODE: Connecting to
 qe_1139763_2767377.sched-torque.pace.gatech.edune485ysm_scratch
  using UNIX socket
  @ DRIVER MODE: Message from server: STATUS
  @ DRIVER MODE: Message from server: INIT
  @ DRIVER MODE: Receiving replica           0          -1
  @ DRIVER MODE: Receiving encoded integer          25
  @ DRIVER MODE:  SCF:  T  FORCE:  T  STRESS:  F  VC:  F  ENSEMBLE:  F
  @ DRIVER MODE:  SCF:  T  FORCE:  T  STRESS:  F  VC:  F  ENSEMBLE:  F

     Using Slab Decomposition

     bravais-lattice index     =            0
     lattice parameter (alat)  =       1.8897  a.u.
     unit-cell volume          =    6658.9804 (a.u.)^3
     number of atoms/cell      =           51
     number of atomic types    =            5
     number of electrons       =       393.00
     number of Kohn-Sham states=          206
     kinetic-energy cutoff     =      29.3995  Ry
     charge density cutoff     =     293.9946  Ry
     scf convergence threshold =      7.3E-08
     mixing beta               =       0.0500
     number of iterations used =            8  plain     mixing
     Exchange-correlation= BEEF-VDW
                           (   1   4  43  14   2   0   0)

     celldm(1)=   1.889726  celldm(2)=   0.000000  celldm(3)=   0.000000
     celldm(4)=   0.000000  celldm(5)=   0.000000  celldm(6)=   0.000000

     crystal axes: (cart. coord. in units of alat)
               a(1) = (   6.579727   0.000000   0.000000 )
               a(2) = (  -0.000775   5.961596   0.000000 )
               a(3) = (   0.000000   0.000000  25.155947 )

     reciprocal axes: (cart. coord. in units 2 pi/alat)
               b(1) = (  0.151982  0.000020  0.000000 )
               b(2) = (  0.000000  0.167740  0.000000 )
               b(3) = (  0.000000  0.000000  0.039752 )

     PseudoPot. # 1 for Ti read from file:
     /storage/coda1/p-amedford6/0/shared/rich_project_chbe-medford/medford-share/data/pseudos_module/espresso/nninc/pbe/van/Ti.UPF
     MD5 check sum: 8e4df49b7f0d34bbd5052bf3f5ea0213
     Pseudo is Ultrasoft, Zval = 12.0
     Generated by new atomic code, or converted to UPF format
     Using radial grid of  851 points,  6 beta functions with:
                l(1) =   0
                l(2) =   0
                l(3) =   1
                l(4) =   1
                l(5) =   2
                l(6) =   2
     Q(r) pseudized with  8 coefficients,  rinner =    1.000   1.000   1.000
                                                       1.000   1.000

     PseudoPot. # 2 for O  read from file:
     /storage/coda1/p-amedford6/0/shared/rich_project_chbe-medford/medford-share/data/pseudos_module/espresso/nninc/pbe/van/O.UPF
     MD5 check sum: 78c19812648e8988a0fe644b0f25305e
     Pseudo is Ultrasoft, Zval =  6.0
     Generated by new atomic code, or converted to UPF format
     Using radial grid of  737 points,  4 beta functions with:
                l(1) =   0
                l(2) =   0
                l(3) =   1
                l(4) =   1
     Q(r) pseudized with  8 coefficients,  rinner =    0.800   0.800   0.800

     PseudoPot. # 3 for C  read from file:
     /storage/coda1/p-amedford6/0/shared/rich_project_chbe-medford/medford-share/data/pseudos_module/espresso/nninc/pbe/van/C.UPF
     MD5 check sum: 1a69bf6b8db32088f5b2163dbdb77a27
     Pseudo is Ultrasoft, Zval =  4.0
     Generated by new atomic code, or converted to UPF format
     Using radial grid of  721 points,  4 beta functions with:
                l(1) =   0
                l(2) =   0
                l(3) =   1
                l(4) =   1
     Q(r) pseudized with  8 coefficients,  rinner =    0.800   0.800   0.800

     PseudoPot. # 4 for H  read from file:
     /storage/coda1/p-amedford6/0/shared/rich_project_chbe-medford/medford-share/data/pseudos_module/espresso/nninc/pbe/van/H.UPF
     MD5 check sum: b5ee9d7bfd3a09ee7748110bda690ff7
     Pseudo is Ultrasoft, Zval =  1.0
     Generated by new atomic code, or converted to UPF format
     Using radial grid of  615 points,  1 beta functions with:
                l(1) =   0
     Q(r) pseudized with  8 coefficients,  rinner =    0.800

     PseudoPot. # 5 for N  read from file:
     /storage/coda1/p-amedford6/0/shared/rich_project_chbe-medford/medford-share/data/pseudos_module/espresso/nninc/pbe/van/N.UPF
     MD5 check sum: 90d10febe142ad51ac9d5be1deb811c4
     Pseudo is Ultrasoft, Zval =  5.0
     Generated by new atomic code, or converted to UPF format
     Using radial grid of  729 points,  4 beta functions with:
                l(1) =   0
                l(2) =   0
                l(3) =   1
                l(4) =   1
     Q(r) pseudized with  8 coefficients,  rinner =    0.800   0.800   0.800

     atomic species   valence    mass     pseudopotential
        Ti1           12.00    47.86700     Ti( 1.00)
        O1             6.00    15.99900     O ( 1.00)
        C1             4.00    12.01100     C ( 1.00)
        H1             1.00     1.00800     H ( 1.00)
        N1             5.00    14.00700     N ( 1.00)

     No symmetry found

   Cartesian axes

     site n.     atom                  positions (alat units)
         1           Ti1 tau(   1) = (   0.0004258   2.9801865   6.0000000  )
         2           Ti1 tau(   2) = (   3.2906075   1.4906267   6.0002472  )
         3           O1  tau(   3) = (   0.0006271   0.0005054   7.9858123  )
         4           O1  tau(   4) = (   3.2906025   0.0005020   7.3038282  )
         5           O1  tau(   5) = (   4.5942328   1.4918067   9.2879030  )
         6           O1  tau(   6) = (   1.9868534   1.4903216   9.2879459  )
         7           Ti1 tau(   7) = (   3.2907910   2.8959150   9.1758416  )
         8           Ti1 tau(   8) = (   0.0015273   1.4827037   9.2680791  )
         9           O1  tau(   9) = (   3.2947523   5.9577806  11.3289702  )
        10           O1  tau(  10) = (   0.0116148   5.9584955  10.6183126  )
        11           O1  tau(  11) = (   1.2923655   1.4808044  12.6140338  )
        12           O1  tau(  12) = (   5.2760440   1.4916827  12.6110895  )
        13           Ti1 tau(  13) = (   0.0641422   2.9468446  12.6204329  )
        14           Ti1 tau(  14) = (   3.3828727   1.4858934  12.4752560  )
        15           O1  tau(  15) = (   0.0059231   0.0169234  14.6319368  )
        16           O1  tau(  16) = (   3.2943198   0.0056150  13.9184638  )
        17           O1  tau(  17) = (   4.5468153   1.5236546  16.0329375  )
        18           O1  tau(  18) = (   2.0515374   1.5217879  16.0554076  )
        19           Ti1 tau(  19) = (   3.2830080   3.0033146  15.6914404  )
        20           Ti1 tau(  20) = (   0.0154850   1.5188701  15.8391361  )
        21           O1  tau(  21) = (   3.2904802   0.0005063   4.7018136  )
        22           O1  tau(  22) = (   6.5736218   0.0255948  17.1842280  )
        23           O1  tau(  23) = (   1.3043587   1.4918075   6.0039043  )
        24           O1  tau(  24) = (   5.2767064   1.4903225   6.0039473  )
        25           Ti1 tau(  25) = (   0.0000382   5.9609847   6.0000000  )
        26           Ti1 tau(  26) = (   3.2902200   4.4714249   6.0002472  )
        27           O1  tau(  27) = (   0.0002396   2.9813036   7.9858123  )
        28           O1  tau(  28) = (   3.2902150   2.9813002   7.3038282  )
        29           O1  tau(  29) = (   4.5938453   4.4726049   9.2879030  )
        30           O1  tau(  30) = (   1.9864658   4.4711199   9.2879459  )
        31           Ti1 tau(  31) = (   3.2891106   5.8743827   9.1763621  )
        32           Ti1 tau(  32) = (   0.0006254   4.4649316   9.2693709  )
        33           O1  tau(  33) = (   3.2953046   2.9833475  11.3259646  )
        34           O1  tau(  34) = (   0.0092240   2.9805883  10.6323155  )
        35           O1  tau(  35) = (   1.2912205   4.4696366  12.6263023  )
        36           O1  tau(  36) = (   5.2799819   4.4751186  12.6219323  )
        37           Ti1 tau(  37) = (   0.0684868   5.9252938  12.5505524  )
        38           Ti1 tau(  38) = (   3.3848087   4.4651122  12.4793038  )
        39           O1  tau(  39) = (   0.0176302   2.9443755  14.6544446  )
        40           O1  tau(  40) = (   3.2854840   2.9900965  13.8959901  )
        41           O1  tau(  41) = (   4.5427396   4.4796010  16.0582459  )
        42           O1  tau(  42) = (   2.0519076   4.4830995  16.0738147  )
        43           Ti1 tau(  43) = (   3.3192208   0.0178015  15.7165103  )
        44           Ti1 tau(  44) = (   0.0190484   4.6579992  16.0750729  )
        45           O1  tau(  45) = (   3.2900926   2.9813045   4.7018136  )
        46           O1  tau(  46) = (   1.3039711   4.4726057   6.0039043  )
        47           O1  tau(  47) = (   5.2763189   4.4711207   6.0039473  )
        48           C1  tau(  48) = (   0.0285071   2.9528277  17.6086602  )
        49           H1  tau(  49) = (   0.9556717   2.9086103  18.1759260  )
        50           N1  tau(  50) = (   5.5646879   2.9015633  18.3869838  )
        51           N1  tau(  51) = (   4.5815072   2.8727048  18.9619008  )

     number of k points=    10  Fermi-Dirac smearing, width (Ry)=  0.0073
                       cart. coord. in units 2pi/alat
        k(    1) = (   0.0000000   0.0000000   0.0000000), wk =   0.1250000
        k(    2) = (   0.0000000   0.0419351   0.0000000), wk =   0.2500000
        k(    3) = (   0.0000000  -0.0838702   0.0000000), wk =   0.1250000
        k(    4) = (   0.0379955   0.0000049   0.0000000), wk =   0.2500000
        k(    5) = (   0.0379955   0.0419400   0.0000000), wk =   0.2500000
        k(    6) = (   0.0379955  -0.0838652   0.0000000), wk =   0.2500000
        k(    7) = (   0.0379955  -0.0419301   0.0000000), wk =   0.2500000
        k(    8) = (  -0.0759910  -0.0000099   0.0000000), wk =   0.1250000
        k(    9) = (  -0.0759910   0.0419252   0.0000000), wk =   0.2500000
        k(   10) = (  -0.0759910  -0.0838800   0.0000000), wk =   0.1250000

     Initial potential from superposition of free atoms

     starting charge  376.99918, renormalised to  393.00000

     negative rho (up, down):  1.908E-02 0.000E+00

     %%%%%%%%%%%%%%%%%%%%%%%%%%%%%%%%%%%%%%%%%%%%%%%%%%%%%%%%%%%%%%%%%%%%%%%%
     %                                                                      %
     % You are using vdW-DF, which was implemented by the Thonhauser group. %
     % Please cite the following two papers that made this development      %
     % possible and the two reviews that describe the various versions:     %
     %                                                                      %
     %   T. Thonhauser et al., PRL 115, 136402 (2015).                      %
     %   T. Thonhauser et al., PRB 76, 125112 (2007).                       %
     %   K. Berland et al., Rep. Prog. Phys. 78, 066501 (2015).             %
     %   D.C. Langreth et al., J. Phys.: Condens. Matter 21, 084203 (2009). %
     %                                                                      %
     %                                                                      %
     % If you are calculating the stress with vdW-DF, please also cite:     %
     %                                                                      %
     %   R. Sabatini et al., J. Phys.: Condens. Matter 24, 424209 (2012).   %
     %                                                                      %
     %%%%%%%%%%%%%%%%%%%%%%%%%%%%%%%%%%%%%%%%%%%%%%%%%%%%%%%%%%%%%%%%%%%%%%%%

     Adding external electric field

     Computed dipole along edir(3) :
        Dipole               -7.1729 Ry au,        -18.2316 Debye
        Dipole field         -0.0135 Ry au,

        Potential amp.        1.2548 Ry
        Total length         46.3494 bohr

     Starting wfcs are  297 atomic wfcs
  @ DRIVER MODE: Message from server: STATUS
  @ DRIVER MODE: Message from server: POSDATA
  @ DRIVER MODE: Reading and sharing cell
  @ DRIVER MODE: Reading and sharing positions
  @ DRIVER MODE: Received positions

     Self-consistent Calculation

     iteration #  1     ecut=    29.40 Ry     beta= 0.05
     Davidson diagonalization with overlap
     c_bands:  1 eigenvalues not converged
     c_bands:  1 eigenvalues not converged
     c_bands:  1 eigenvalues not converged
     c_bands:  1 eigenvalues not converged
     c_bands:  2 eigenvalues not converged
     c_bands:  1 eigenvalues not converged
     c_bands:  2 eigenvalues not converged
     ethr =  1.00E-05,  avg # of iterations = 19.0

[...]

     total energy              =   -2708.67803930 Ry
     estimated scf accuracy    <    2526.26812374 Ry

[...]

     iteration #  3     ecut=    29.40 Ry     beta= 0.05
     Davidson diagonalization with overlap
     ethr =  1.00E-02,  avg # of iterations = 16.1

[...]

     iteration # 52     ecut=    29.40 Ry     beta= 0.05
     Davidson diagonalization with overlap
     c_bands:  1 eigenvalues not converged
     ethr =  8.65E-08,  avg # of iterations = 14.0

[...]

     total energy              =   -2936.64845407 Ry
     estimated scf accuracy    <       0.00000008 Ry

     iteration # 74     ecut=    29.40 Ry     beta= 0.05
     Davidson diagonalization with overlap
     ethr =  2.15E-11,  avg # of iterations =  5.0

     negative rho (up, down):  1.866E-02 0.000E+00

     Adding external electric field

     Computed dipole along edir(3) :
        Dipole                0.3016 Ry au,          0.7666 Debye
        Dipole field          0.0006 Ry au,

        Potential amp.       -0.0528 Ry
        Total length         46.3494 bohr

     End of self-consistent calculation

          k = 0.0000 0.0000 0.0000 ( 18029 PWs)   bands (ev):

   -56.1897 -56.1808 -56.1556 -56.1442 -56.0925 -56.0337 -56.0227 -55.9983
   -55.9966 -55.9641 -55.9610 -55.9274 -55.7097 -55.4397 -55.1657 -55.1316
   -32.7361 -32.6720 -32.5350 -32.5341 -32.5007 -32.4971 -32.4825 -32.4520
   -32.4322 -32.4209 -32.4040 -32.3840 -32.3617 -32.3419 -32.3341 -32.3204
   -32.3183 -32.2939 -32.2789 -32.2469 -32.2442 -32.2418 -32.2060 -32.1918
   -32.1911 -32.1884 -32.1864 -32.1765 -32.1634 -32.1480 -32.1437 -32.1372
   -32.1323 -32.1290 -32.1144 -32.1046 -32.0736 -31.9686 -31.8958 -31.7092
   -31.7006 -31.6535 -31.5727 -31.4846 -31.4622 -31.3895 -31.3030 -31.1919
   -20.6580 -16.9411 -16.6662 -16.4466 -16.3441 -16.3184 -16.2049 -16.0310
   -15.9115 -15.8678 -15.7648 -15.7487 -15.7251 -15.6930 -15.6849 -15.6780
   -15.6435 -15.6318 -15.6154 -15.6023 -15.5478 -15.5266 -15.5085 -15.4133
   -15.3685 -15.3262 -15.3167 -15.2502 -15.2441 -14.7398 -13.6681 -13.6347
   -13.5518  -5.8666  -4.8086  -4.5833  -4.3127  -4.1495  -4.0953  -4.0484
    -3.9972  -3.8084  -3.7465  -3.4314  -3.4022  -3.3765  -3.3610  -3.3480
    -3.3129  -3.1037  -3.0571  -3.0213  -2.9992  -2.9749  -2.9677  -2.9604
    -2.9519  -2.9090  -2.8551  -2.7761  -2.7368  -2.6440  -2.6040  -2.5816
    -2.5011  -2.4867  -2.4634  -2.4321  -2.4270  -2.4226  -2.3891  -2.3735
    -2.2414  -2.1832  -2.0541  -1.9940  -1.9664  -1.7952  -1.7623  -1.6586
    -1.6486  -1.6165  -1.5933  -1.5801  -1.4919  -1.3708  -1.3482  -1.3291
    -1.2860  -1.2098  -1.1715  -1.0786  -1.0448  -0.9727  -0.9534  -0.9515
    -0.9403  -0.8941  -0.7427  -0.6765  -0.6445  -0.5964  -0.5768  -0.5297
    -0.4880  -0.4649  -0.3522  -0.3199  -0.3160  -0.2610  -0.2523  -0.2147
    -0.2100  -0.1958  -0.1804  -0.1594   0.0018   0.0873   0.1505   0.1649
     0.2980   0.3511   0.4129   0.4695   0.5688   0.7831   0.8564   0.9446
     1.0487   1.4274   1.4729   1.6371   2.9458   3.0312   3.0786   3.0951
     3.1890   3.1963   3.3999   3.4217   3.4289   3.4960

[...]

          k = 0.0380-0.0419 0.0000 ( 17876 PWs)   bands (ev):

[...]

          k =-0.0760-0.0000 0.0000 ( 17886 PWs)   bands (ev):

[...]

          k =-0.0760-0.0839 0.0000 ( 17948 PWs)   bands (ev):

   -56.1730 -56.1721 -56.1657 -56.1591 -56.0880 -56.0271 -56.0220 -56.0084
   -55.9820 -55.9797 -55.9450 -55.9436 -55.7087 -55.4405 -55.1487 -55.1485
   -32.5409 -32.5375 -32.4875 -32.4869 -32.4683 -32.4675 -32.4661 -32.4427
   -32.3894 -32.3859 -32.3833 -32.3812 -32.3504 -32.3166 -32.3135 -32.3084
   -32.3003 -32.2937 -32.2926 -32.2916 -32.2877 -32.2844 -32.2821 -32.2413
   -32.2285 -32.2269 -32.2126 -32.2009 -32.1810 -32.1802 -32.1766 -32.1755
   -32.1599 -32.1592 -32.1545 -32.1522 -32.0654 -31.9711 -31.8910 -31.7697
   -31.7060 -31.6742 -31.4749 -31.4748 -31.3855 -31.3854 -31.3463 -31.3462
   -20.6575 -16.3797 -16.3513 -16.1401 -16.1111 -16.1045 -16.0952 -15.9861
   -15.9000 -15.8850 -15.8830 -15.8184 -15.7949 -15.7783 -15.7342 -15.7205
   -15.7158 -15.7092 -15.7023 -15.6504 -15.6455 -15.6261 -15.6188 -15.5435
   -15.5047 -15.5011 -15.4859 -15.3627 -15.2289 -14.9157 -13.6537 -13.6535
   -13.6423  -5.8654  -4.7464  -4.5735  -3.6730  -3.6383  -3.4594  -3.3832
    -3.3574  -3.3446  -3.2795  -3.1146  -3.0939  -3.0720  -3.0607  -3.0222
    -3.0203  -3.0059  -2.9962  -2.9785  -2.9404  -2.9096  -2.8860  -2.8581
    -2.8557  -2.8457  -2.8175  -2.8032  -2.7775  -2.7622  -2.7418  -2.7275
    -2.7079  -2.6949  -2.5777  -2.4234  -2.3919  -2.3265  -2.3178  -2.2929
    -2.2600  -2.2528  -2.2381  -2.1889  -2.0601  -1.9292  -1.8915  -1.8738
    -1.8207  -1.7966  -1.7651  -1.6510  -1.6135  -1.5746  -1.5412  -1.4793
    -1.4476  -1.4093  -1.3604  -1.3343  -1.2674  -1.2453  -1.1860  -1.1508
    -1.1461  -1.1151  -1.0327  -0.9580  -0.9569  -0.9359  -0.9112  -0.8821
    -0.8282  -0.8027  -0.6980  -0.6727  -0.5732  -0.5011  -0.4673  -0.2226
    -0.1566  -0.1281  -0.1112  -0.0573   0.0172   0.0961   0.1211   0.1316
     0.1869   0.2596   0.2626   0.3522   0.3603   0.3948   0.5195   1.2203
     1.2211   1.2926   1.2929   1.6071   3.2301   3.2352   3.2831   3.3056
     3.4477   3.4555   3.4786   3.4794   3.5901   3.6159

     the Fermi energy is     2.9443 ev

!    total energy              =   -2936.64846616 Ry
     estimated scf accuracy    <       0.00000004 Ry
     smearing contrib. (-TS)   =      -0.02176359 Ry
     internal energy E=F+TS    =   -2936.62670257 Ry

     The total energy is F=E-TS. E is the sum of the following terms:
     one-electron contribution =  -24545.22929053 Ry
     hartree contribution      =   12355.66265155 Ry
     xc contribution           =    -483.53120509 Ry
     ewald contribution        =    9736.47096983 Ry
     electric field correction =       0.00017167 Ry

     convergence has been achieved in  74 iterations

     Forces acting on atoms (cartesian axes, Ry/au):

     atom    1 type  1   force =     0.00022154   -0.00016756    0.09653594
     atom    2 type  1   force =    -0.00008911   -0.00054436   -0.17537329
     atom    3 type  2   force =    -0.00001931   -0.00007190   -0.02487981
     atom    4 type  2   force =     0.00006827   -0.00140758    0.05270707
     atom    5 type  2   force =    -0.01181277   -0.00063767    0.00343535
     atom    6 type  2   force =     0.01354068    0.00002999    0.00245987
     atom    7 type  1   force =    -0.00104852    0.00054912   -0.01190108
     atom    8 type  1   force =     0.00049381    0.00952194    0.02772079
     atom    9 type  2   force =     0.00003782    0.00091955   -0.00043580
     atom   10 type  2   force =    -0.00161330    0.00102027   -0.01731795
     atom   11 type  2   force =     0.00043673    0.00014126    0.00024693
     atom   12 type  2   force =    -0.00048283   -0.00017169    0.00011219
     atom   13 type  1   force =     0.00090064    0.00138114   -0.00034576
     atom   14 type  1   force =    -0.00069885    0.00001072   -0.00007050
     atom   15 type  2   force =     0.00005921   -0.00041292    0.00019478
     atom   16 type  2   force =     0.00027816    0.00025731    0.00105619
     atom   17 type  2   force =     0.00008228   -0.00034646    0.00024304
     atom   18 type  2   force =    -0.00004492   -0.00021778    0.00041129
     atom   19 type  1   force =    -0.00014601   -0.00090089    0.00074291
     atom   20 type  1   force =     0.00016813   -0.00000395    0.00083846
     atom   21 type  2   force =     0.00008335   -0.00004850    0.10315874
     atom   22 type  2   force =     0.00009733   -0.00042098   -0.00059795
     atom   23 type  2   force =    -0.07153396   -0.00011868   -0.02772711
     atom   24 type  2   force =     0.07148939    0.00028939   -0.02773627
     atom   25 type  1   force =     0.00000854   -0.00019523    0.09609973
     atom   26 type  1   force =    -0.00018345   -0.00028219   -0.17550770
     atom   27 type  2   force =     0.00005915   -0.00023414   -0.02384427
     atom   28 type  2   force =     0.00010965   -0.00115925    0.05258988
     atom   29 type  2   force =    -0.01194035    0.00045148    0.00310591
     atom   30 type  2   force =     0.01358396    0.00085699    0.00215622
     atom   31 type  1   force =    -0.00089236    0.00310395   -0.01276447
     atom   32 type  1   force =     0.00046660   -0.01168499    0.02818333
     atom   33 type  2   force =     0.00030390   -0.00090471   -0.00020616
     atom   34 type  2   force =    -0.00077023    0.00070884   -0.02377589
     atom   35 type  2   force =    -0.00067081   -0.00004041    0.00005602
     atom   36 type  2   force =     0.00036764   -0.00021739    0.00000720
     atom   37 type  1   force =     0.00090009   -0.00125712   -0.00039726
     atom   38 type  1   force =    -0.00090817    0.00020178    0.00031132
     atom   39 type  2   force =    -0.00010164    0.00048231    0.00015990
     atom   40 type  2   force =     0.00011955   -0.00029808    0.00029745
     atom   41 type  2   force =     0.00007450    0.00045553    0.00034028
     atom   42 type  2   force =    -0.00011279    0.00041004    0.00038643
     atom   43 type  1   force =    -0.00029076    0.00111525   -0.00004067
     atom   44 type  1   force =    -0.00024400   -0.00034344    0.00063274
     atom   45 type  2   force =     0.00007148   -0.00008014    0.10314988
     atom   46 type  2   force =    -0.07154692   -0.00010381   -0.02773760
     atom   47 type  2   force =     0.07152383    0.00033432   -0.02776135
     atom   48 type  3   force =    -0.00093393   -0.00106132    0.00035690
     atom   49 type  4   force =     0.00050012   -0.00061506    0.00107739
     atom   50 type  5   force =     0.00140308    0.00364169   -0.00010667
     atom   51 type  5   force =    -0.00136443   -0.00193466   -0.00024657

     Total force =     0.367931     Total SCF correction =     0.000582
  @ DRIVER MODE: Message from server: STATUS
  @ DRIVER MODE: Message from server: GETFORCE
  @ DRIVER MODE: Returning v,forces,stress,ensemble

     Writing output data file ./calc.save/
  @ DRIVER MODE: Message from server: EXIT
  @ DRIVE MODE: Exiting

     General routines

     Parallel routines

   This run was terminated on:   2:52:35   9Sep2021

   JOB DONE.