     Program PWSCF v.6.7GPU starts on  2Aug2021 at 20:35:26

     R & G space division:  proc/nbgrp/npool/nimage =      16
     Reading input from /storage/home/hcoda1/3/ntian30/research/carbon/02Aug_vib_paired/ads_slab/CH3NNHH_a/out_0028/pw.inp
Warning: card &CELL ignored
Warning: card   CELL_DYNAMICS='IPI', ignored
Warning: card / ignored

     Current dimensions of program PWSCF are:
     Max number of different atomic species (ntypx) = 10
     Max number of k-points (npk) =  40000
     Max angular momentum in pseudopotentials (lmaxx) =  3
     Presently no symmetry can be used with electric field

     Message from routine cell_base_init:
     DEPRECATED: use true lattice parameter, not A to a.u. conversion factor

     IMPORTANT: XC functional enforced from input :
     Exchange-correlation= BEEF-VDW
                           (   1   4  43  14   2   0   0)
     Any further DFT definition will be discarded
     Please, verify this is what you really want

  @ DRIVER MODE: Connecting to
 qe_1139763_2482543.sched-torque.pace.gatech.eduw5nz9umr_scratch
  using UNIX socket
  @ DRIVER MODE: Message from server: STATUS
  @ DRIVER MODE: Message from server: INIT
  @ DRIVER MODE: Receiving replica           0          -1
  @ DRIVER MODE: Receiving encoded integer          25
  @ DRIVER MODE:  SCF:  T  FORCE:  T  STRESS:  F  VC:  F  ENSEMBLE:  F
  @ DRIVER MODE:  SCF:  T  FORCE:  T  STRESS:  F  VC:  F  ENSEMBLE:  F

     Using Slab Decomposition

     bravais-lattice index     =            0
     lattice parameter (alat)  =       1.8897  a.u.
     unit-cell volume          =    6658.9804 (a.u.)^3
     number of atoms/cell      =           55
     number of atomic types    =            5
     number of electrons       =       397.00
     number of Kohn-Sham states=          208
     kinetic-energy cutoff     =      29.3995  Ry
     charge density cutoff     =     293.9946  Ry
     scf convergence threshold =      7.3E-08
     mixing beta               =       0.0500
     number of iterations used =            8  plain     mixing
     Exchange-correlation= BEEF-VDW
                           (   1   4  43  14   2   0   0)

     celldm(1)=   1.889726  celldm(2)=   0.000000  celldm(3)=   0.000000
     celldm(4)=   0.000000  celldm(5)=   0.000000  celldm(6)=   0.000000

     crystal axes: (cart. coord. in units of alat)
               a(1) = (   6.579727   0.000000   0.000000 )
               a(2) = (  -0.000775   5.961596   0.000000 )
               a(3) = (   0.000000   0.000000  25.155947 )

     reciprocal axes: (cart. coord. in units 2 pi/alat)
               b(1) = (  0.151982  0.000020  0.000000 )
               b(2) = (  0.000000  0.167740  0.000000 )
               b(3) = (  0.000000  0.000000  0.039752 )

     PseudoPot. # 1 for Ti read from file:
     /storage/coda1/p-amedford6/0/shared/rich_project_chbe-medford/medford-share/data/pseudos_module/espresso/nninc/pbe/van/Ti.UPF
     MD5 check sum: 8e4df49b7f0d34bbd5052bf3f5ea0213
     Pseudo is Ultrasoft, Zval = 12.0
     Generated by new atomic code, or converted to UPF format
     Using radial grid of  851 points,  6 beta functions with:
                l(1) =   0
                l(2) =   0
                l(3) =   1
                l(4) =   1
                l(5) =   2
                l(6) =   2
     Q(r) pseudized with  8 coefficients,  rinner =    1.000   1.000   1.000
                                                       1.000   1.000

     PseudoPot. # 2 for O  read from file:
     /storage/coda1/p-amedford6/0/shared/rich_project_chbe-medford/medford-share/data/pseudos_module/espresso/nninc/pbe/van/O.UPF
     MD5 check sum: 78c19812648e8988a0fe644b0f25305e
     Pseudo is Ultrasoft, Zval =  6.0
     Generated by new atomic code, or converted to UPF format
     Using radial grid of  737 points,  4 beta functions with:
                l(1) =   0
                l(2) =   0
                l(3) =   1
                l(4) =   1
     Q(r) pseudized with  8 coefficients,  rinner =    0.800   0.800   0.800

     PseudoPot. # 3 for N  read from file:
     /storage/coda1/p-amedford6/0/shared/rich_project_chbe-medford/medford-share/data/pseudos_module/espresso/nninc/pbe/van/N.UPF
     MD5 check sum: 90d10febe142ad51ac9d5be1deb811c4
     Pseudo is Ultrasoft, Zval =  5.0
     Generated by new atomic code, or converted to UPF format
     Using radial grid of  729 points,  4 beta functions with:
                l(1) =   0
                l(2) =   0
                l(3) =   1
                l(4) =   1
     Q(r) pseudized with  8 coefficients,  rinner =    0.800   0.800   0.800

     PseudoPot. # 4 for C  read from file:
     /storage/coda1/p-amedford6/0/shared/rich_project_chbe-medford/medford-share/data/pseudos_module/espresso/nninc/pbe/van/C.UPF
     MD5 check sum: 1a69bf6b8db32088f5b2163dbdb77a27
     Pseudo is Ultrasoft, Zval =  4.0
     Generated by new atomic code, or converted to UPF format
     Using radial grid of  721 points,  4 beta functions with:
                l(1) =   0
                l(2) =   0
                l(3) =   1
                l(4) =   1
     Q(r) pseudized with  8 coefficients,  rinner =    0.800   0.800   0.800

     PseudoPot. # 5 for H  read from file:
     /storage/coda1/p-amedford6/0/shared/rich_project_chbe-medford/medford-share/data/pseudos_module/espresso/nninc/pbe/van/H.UPF
     MD5 check sum: b5ee9d7bfd3a09ee7748110bda690ff7
     Pseudo is Ultrasoft, Zval =  1.0
     Generated by new atomic code, or converted to UPF format
     Using radial grid of  615 points,  1 beta functions with:
                l(1) =   0
     Q(r) pseudized with  8 coefficients,  rinner =    0.800

     atomic species   valence    mass     pseudopotential
        Ti1           12.00    47.86700     Ti( 1.00)
        O1             6.00    15.99900     O ( 1.00)
        N1             5.00    14.00700     N ( 1.00)
        C1             4.00    12.01100     C ( 1.00)
        H1             1.00     1.00800     H ( 1.00)

     No symmetry found

   Cartesian axes

     site n.     atom                  positions (alat units)
         1           Ti1 tau(   1) = (   0.0004258   2.9801865   6.0000000  )
         2           Ti1 tau(   2) = (   3.2906075   1.4906267   6.0002472  )
         3           O1  tau(   3) = (   0.0006271   0.0005054   7.9858123  )
         4           O1  tau(   4) = (   3.2906025   0.0005020   7.3038282  )
         5           O1  tau(   5) = (   4.5942328   1.4918067   9.2879030  )
         6           O1  tau(   6) = (   1.9868534   1.4903216   9.2879459  )
         7           Ti1 tau(   7) = (   3.2907910   2.8959150   9.1758416  )
         8           Ti1 tau(   8) = (   0.0015273   1.4827037   9.2680791  )
         9           O1  tau(   9) = (   3.3049802   0.0007868  11.3057318  )
        10           O1  tau(  10) = (   0.0116148   5.9584955  10.6183126  )
        11           O1  tau(  11) = (   1.3244024   1.4905818  12.6109357  )
        12           O1  tau(  12) = (   5.3168099   1.4893704  12.6271843  )
        13           Ti1 tau(  13) = (   6.5373159   3.0114403  12.6515439  )
        14           Ti1 tau(  14) = (   3.2156784   1.4952808  12.4541107  )
        15           O1  tau(  15) = (   0.0550716   5.9579553  14.6769760  )
        16           O1  tau(  16) = (   3.3119233   0.0240268  13.8744051  )
        17           O1  tau(  17) = (   4.5754650   1.5399768  16.1198157  )
        18           O1  tau(  18) = (   2.0928293   1.5118261  15.9950610  )
        19           Ti1 tau(  19) = (   3.3312717   3.0210965  15.6459898  )
        20           Ti1 tau(  20) = (   0.0837956   1.4057146  15.8023643  )
        21           O1  tau(  21) = (   3.2904802   0.0005063   4.7018136  )
        22           O1  tau(  22) = (   0.0662678   0.0194342  17.2484716  )
        23           O1  tau(  23) = (   1.3043587   1.4918075   6.0039043  )
        24           O1  tau(  24) = (   5.2767064   1.4903225   6.0039473  )
        25           Ti1 tau(  25) = (   0.0000382   5.9609847   6.0000000  )
        26           Ti1 tau(  26) = (   3.2902200   4.4714249   6.0002472  )
        27           O1  tau(  27) = (   0.0002396   2.9813036   7.9858123  )
        28           O1  tau(  28) = (   3.2902150   2.9813002   7.3038282  )
        29           O1  tau(  29) = (   4.5938453   4.4726049   9.2879030  )
        30           O1  tau(  30) = (   1.9864658   4.4711199   9.2879459  )
        31           Ti1 tau(  31) = (   3.2891106   5.8743827   9.1763621  )
        32           Ti1 tau(  32) = (   0.0006254   4.4649316   9.2693709  )
        33           O1  tau(  33) = (   3.3066024   2.9928613  11.3071500  )
        34           O1  tau(  34) = (   0.0092240   2.9805883  10.6323155  )
        35           O1  tau(  35) = (   1.3207996   4.4694119  12.6241097  )
        36           O1  tau(  36) = (   5.3140488   4.4801720  12.6365454  )
        37           Ti1 tau(  37) = (   6.5381296   0.0208815  12.5444857  )
        38           Ti1 tau(  38) = (   3.2183512   4.4801350  12.4586296  )
        39           O1  tau(  39) = (   0.0202472   2.9427232  14.7250097  )
        40           O1  tau(  40) = (   3.3152672   2.9848540  13.8607131  )
        41           O1  tau(  41) = (   4.5737023   4.5140360  15.9163038  )
        42           O1  tau(  42) = (   2.1295162   4.4918226  16.0779194  )
        43           Ti1 tau(  43) = (   3.3279662   0.0229233  15.6733299  )
        44           Ti1 tau(  44) = (   6.5520288   4.5036137  16.2892914  )
        45           O1  tau(  45) = (   3.2900926   2.9813045   4.7018136  )
        46           O1  tau(  46) = (   1.3039711   4.4726057   6.0039043  )
        47           O1  tau(  47) = (   5.2763189   4.4711207   6.0039473  )
        48           N1  tau(  48) = (   0.3708600   2.9881754  17.6030774  )
        49           C1  tau(  49) = (   1.3543844   2.7351176  18.6431602  )
        50           H1  tau(  50) = (   1.5086739   3.6319226  19.2591966  )
        51           H1  tau(  51) = (   1.0320479   1.9069190  19.2840631  )
        52           H1  tau(  52) = (   2.3019873   2.4596563  18.1994378  )
        53           N1  tau(  53) = (   5.7269228   3.4566738  18.1314761  )
        54           H1  tau(  54) = (   5.8315057   4.0292447  18.9662490  )
        55           H1  tau(  55) = (   5.0361168   2.7172796  18.2515220  )

     number of k points=    10  Fermi-Dirac smearing, width (Ry)=  0.0073
                       cart. coord. in units 2pi/alat
        k(    1) = (   0.0000000   0.0000000   0.0000000), wk =   0.1250000
        k(    2) = (   0.0000000   0.0419351   0.0000000), wk =   0.2500000
        k(    3) = (   0.0000000  -0.0838702   0.0000000), wk =   0.1250000
        k(    4) = (   0.0379955   0.0000049   0.0000000), wk =   0.2500000
        k(    5) = (   0.0379955   0.0419400   0.0000000), wk =   0.2500000
        k(    6) = (   0.0379955  -0.0838652   0.0000000), wk =   0.2500000
        k(    7) = (   0.0379955  -0.0419301   0.0000000), wk =   0.2500000
        k(    8) = (  -0.0759910  -0.0000099   0.0000000), wk =   0.1250000
        k(    9) = (  -0.0759910   0.0419252   0.0000000), wk =   0.2500000
        k(   10) = (  -0.0759910  -0.0838800   0.0000000), wk =   0.1250000

     Initial potential from superposition of free atoms

     starting charge  380.99914, renormalised to  397.00000

     negative rho (up, down):  1.665E-02 0.000E+00

     %%%%%%%%%%%%%%%%%%%%%%%%%%%%%%%%%%%%%%%%%%%%%%%%%%%%%%%%%%%%%%%%%%%%%%%%
     %                                                                      %
     % You are using vdW-DF, which was implemented by the Thonhauser group. %
     % Please cite the following two papers that made this development      %
     % possible and the two reviews that describe the various versions:     %
     %                                                                      %
     %   T. Thonhauser et al., PRL 115, 136402 (2015).                      %
     %   T. Thonhauser et al., PRB 76, 125112 (2007).                       %
     %   K. Berland et al., Rep. Prog. Phys. 78, 066501 (2015).             %
     %   D.C. Langreth et al., J. Phys.: Condens. Matter 21, 084203 (2009). %
     %                                                                      %
     %                                                                      %
     % If you are calculating the stress with vdW-DF, please also cite:     %
     %                                                                      %
     %   R. Sabatini et al., J. Phys.: Condens. Matter 24, 424209 (2012).   %
     %                                                                      %
     %%%%%%%%%%%%%%%%%%%%%%%%%%%%%%%%%%%%%%%%%%%%%%%%%%%%%%%%%%%%%%%%%%%%%%%%

     Adding external electric field

     Computed dipole along edir(3) :
        Dipole               -9.2540 Ry au,        -23.5213 Debye
        Dipole field         -0.0175 Ry au,

        Potential amp.        1.6188 Ry
        Total length         46.3494 bohr

     Starting wfcs are  301 atomic wfcs
  @ DRIVER MODE: Message from server: STATUS
  @ DRIVER MODE: Message from server: POSDATA
  @ DRIVER MODE: Reading and sharing cell
  @ DRIVER MODE: Reading and sharing positions
  @ DRIVER MODE: Received positions

     Self-consistent Calculation

     iteration #  1     ecut=    29.40 Ry     beta= 0.05
     Davidson diagonalization with overlap
     c_bands:  1 eigenvalues not converged
     c_bands:  2 eigenvalues not converged
     c_bands:  1 eigenvalues not converged
     c_bands:  2 eigenvalues not converged
     c_bands:  2 eigenvalues not converged
     c_bands:  1 eigenvalues not converged
     c_bands:  2 eigenvalues not converged
     c_bands:  2 eigenvalues not converged
     c_bands:  4 eigenvalues not converged
     ethr =  1.00E-05,  avg # of iterations = 19.7

[...]

     total energy              =   -2525.58531094 Ry
     estimated scf accuracy    <    4612.71283262 Ry

     iteration #  2     ecut=    29.40 Ry     beta= 0.05
     Davidson diagonalization with overlap
     ethr =  1.00E-02,  avg # of iterations = 22.7

[...]

     iteration # 59     ecut=    29.40 Ry     beta= 0.05
     Davidson diagonalization with overlap
     c_bands:  1 eigenvalues not converged
     ethr =  7.75E-11,  avg # of iterations =  9.7

[...]

     total energy              =   -2941.63746124 Ry
     estimated scf accuracy    <       0.00000017 Ry

     iteration # 60     ecut=    29.40 Ry     beta= 0.05
     Davidson diagonalization with overlap
     ethr =  4.34E-11,  avg # of iterations =  7.6

     negative rho (up, down):  1.675E-02 0.000E+00

     Adding external electric field

     Computed dipole along edir(3) :
        Dipole                1.1499 Ry au,          2.9228 Debye
        Dipole field          0.0022 Ry au,

        Potential amp.       -0.2012 Ry
        Total length         46.3494 bohr

     End of self-consistent calculation

          k = 0.0000 0.0000 0.0000 ( 18029 PWs)   bands (ev):

   -55.5722 -55.5692 -55.5354 -55.5352 -55.4587 -55.4222 -55.4208 -55.3871
   -55.3698 -55.3357 -55.3247 -55.2909 -55.0314 -54.8874 -54.5354 -54.5014
   -32.1350 -32.0504 -31.9559 -31.8915 -31.8866 -31.8718 -31.8616 -31.8173
   -31.8097 -31.8035 -31.7832 -31.7580 -31.7541 -31.7247 -31.7216 -31.7141
   -31.6724 -31.6592 -31.6565 -31.6475 -31.6467 -31.6267 -31.6105 -31.5948
   -31.5680 -31.5669 -31.5654 -31.5574 -31.5551 -31.5286 -31.5049 -31.5039
   -31.4982 -31.4914 -31.4792 -31.4732 -31.4384 -31.3077 -31.2563 -31.1582
   -31.1402 -31.0481 -30.9418 -30.8552 -30.8327 -30.7589 -30.6724 -30.5611
   -17.5930 -16.3609 -16.0476 -15.8364 -15.7253 -15.7208 -15.6370 -15.4159
   -15.2959 -15.2803 -15.1642 -15.1593 -15.1004 -15.0598 -15.0535 -15.0477
   -15.0130 -15.0008 -14.9824 -14.9523 -14.9137 -14.8960 -14.8762 -14.7701
   -14.7082 -14.6981 -14.6824 -14.6154 -14.5715 -14.2074 -13.0374 -12.9212
   -12.5466  -9.2107  -6.3485  -5.0980  -4.2147  -3.7392  -3.5482  -3.4723
    -3.4377  -3.3737  -3.3488  -3.1811  -3.1740  -2.7961  -2.7752  -2.7561
    -2.7344  -2.7318  -2.4639  -2.4111  -2.3946  -2.3921  -2.3747  -2.3568
    -2.3355  -2.3249  -2.2964  -2.2906  -2.1546  -2.1100  -2.0312  -2.0008
    -1.9910  -1.8773  -1.8540  -1.8325  -1.8216  -1.8072  -1.7791  -1.7710
    -1.7508  -1.6419  -1.5333  -1.4598  -1.4151  -1.3604  -1.3448  -1.1611
    -1.1111  -1.0519  -1.0267  -1.0017  -0.9865  -0.9529  -0.8788  -0.8552
    -0.7130  -0.6748  -0.6218  -0.5955  -0.5649  -0.5088  -0.4741  -0.4463
    -0.3503  -0.3370  -0.3252  -0.3124  -0.2529  -0.0645  -0.0172   0.0009
     0.0166   0.1166   0.1563   0.1791   0.2160   0.2719   0.2977   0.3645
     0.3945   0.4142   0.4239   0.4479   0.4703   0.6020   0.6296   0.6595
     0.7186   0.7725   0.8492   0.9612   1.0473   1.1003   1.2014   1.4199
     1.4872   1.5708   1.6809   1.7028   2.0566   2.1016   3.5659   3.6562
     3.6945   3.7084   3.8153   3.8671   4.0148   4.0246   4.0675   4.0975

[...]

          k = 0.0380-0.0419 0.0000 ( 17876 PWs)   bands (ev):

[...]

          k =-0.0760-0.0000 0.0000 ( 17886 PWs)   bands (ev):

[...]

          k =-0.0760-0.0839 0.0000 ( 17948 PWs)   bands (ev):

   -55.5569 -55.5528 -55.5515 -55.5504 -55.4479 -55.4315 -55.4071 -55.4020
   -55.3543 -55.3509 -55.3094 -55.3063 -55.0299 -54.8887 -54.5185 -54.5182
   -31.9399 -31.9312 -31.8662 -31.8653 -31.8476 -31.8465 -31.8421 -31.8268
   -31.8001 -31.7864 -31.7669 -31.7480 -31.7199 -31.7114 -31.7062 -31.6812
   -31.6791 -31.6725 -31.6711 -31.6668 -31.6638 -31.6509 -31.6477 -31.6437
   -31.6246 -31.6123 -31.6022 -31.6004 -31.5516 -31.5494 -31.5423 -31.5406
   -31.5335 -31.5300 -31.5248 -31.5232 -31.4132 -31.3201 -31.2581 -31.2191
   -31.1458 -31.0601 -30.8455 -30.8452 -30.7548 -30.7544 -30.7158 -30.7156
   -17.5812 -15.8185 -15.7830 -15.5252 -15.5177 -15.5159 -15.4742 -15.3517
   -15.3031 -15.2764 -15.2648 -15.2460 -15.2394 -15.1349 -15.1222 -15.1050
   -15.0951 -15.0693 -15.0255 -15.0197 -15.0125 -15.0022 -14.9903 -14.9260
   -14.8709 -14.8671 -14.7587 -14.6641 -14.5215 -14.4376 -13.0231 -13.0229
   -12.5661  -9.1713  -6.3079  -5.1277  -4.1476  -3.4192  -3.1197  -3.0757
    -2.7872  -2.7679  -2.7541  -2.6377  -2.5179  -2.5088  -2.4840  -2.4610
    -2.4281  -2.4140  -2.4057  -2.3973  -2.3788  -2.3598  -2.3488  -2.3103
    -2.2409  -2.2337  -2.2259  -2.2160  -2.1995  -2.1756  -2.1658  -2.1376
    -2.1133  -2.0805  -2.0212  -1.9899  -1.8396  -1.7931  -1.7402  -1.6946
    -1.6862  -1.6570  -1.6234  -1.6158  -1.5085  -1.4941  -1.4584  -1.3287
    -1.2673  -1.2593  -1.2265  -1.1411  -1.1015  -0.9720  -0.9590  -0.9230
    -0.8695  -0.8581  -0.8211  -0.7836  -0.7314  -0.6799  -0.6357  -0.6114
    -0.5950  -0.5228  -0.5221  -0.4762  -0.4186  -0.3504  -0.3253  -0.3176
    -0.2863  -0.2423  -0.1963  -0.1313  -0.0567  -0.0366  -0.0209   0.0768
     0.1531   0.3692   0.4147   0.5164   0.5363   0.5613   0.6245   0.6732
     0.7429   0.7569   0.7861   0.8600   0.8817   0.9730   0.9835   0.9999
     1.1786   1.6346   1.8526   1.8535   1.9212   1.9217   3.8599   3.8735
     3.8996   3.9237   4.0851   4.0889   4.1013   4.1039   4.2247   4.2546

     the Fermi energy is     3.5646 ev

!    total energy              =   -2941.63751015 Ry
     estimated scf accuracy    <       0.00000006 Ry
     smearing contrib. (-TS)   =      -0.02170658 Ry
     internal energy E=F+TS    =   -2941.61580357 Ry

     The total energy is F=E-TS. E is the sum of the following terms:
     one-electron contribution =  -24405.33098755 Ry
     hartree contribution      =   12294.62103196 Ry
     xc contribution           =    -486.94636175 Ry
     ewald contribution        =    9656.03801844 Ry
     electric field correction =       0.00249533 Ry

     convergence has been achieved in  60 iterations

     Forces acting on atoms (cartesian axes, Ry/au):

     atom    1 type  1   force =     0.00003158   -0.00018586    0.09684190
     atom    2 type  1   force =     0.00010206   -0.00067291   -0.17456436
     atom    3 type  2   force =     0.00020146   -0.00005190   -0.02507350
     atom    4 type  2   force =     0.00001236   -0.00122792    0.05106722
     atom    5 type  2   force =    -0.01107515   -0.00078769    0.00212713
     atom    6 type  2   force =     0.01302750   -0.00028741    0.00280370
     atom    7 type  1   force =     0.00114164    0.00020311   -0.01337348
     atom    8 type  1   force =    -0.00018490    0.01541499    0.02795612
     atom    9 type  2   force =    -0.00011414    0.00045224    0.00002228
     atom   10 type  2   force =    -0.00221665    0.00097676   -0.01128089
     atom   11 type  2   force =     0.00030095   -0.00011650    0.00017595
     atom   12 type  2   force =    -0.00027358   -0.00012342    0.00040262
     atom   13 type  1   force =    -0.00008188   -0.00027878    0.00010973
     atom   14 type  1   force =     0.00011691    0.00012429   -0.00004762
     atom   15 type  2   force =     0.00010776   -0.00054264   -0.00033356
     atom   16 type  2   force =    -0.00044194    0.00016718    0.00028311
     atom   17 type  2   force =    -0.00018615   -0.00002700   -0.00008667
     atom   18 type  2   force =    -0.00037278    0.00001816    0.00020810
     atom   19 type  1   force =    -0.00000355    0.00030593   -0.00035362
     atom   20 type  1   force =    -0.00029619    0.00000259    0.00023124
     atom   21 type  2   force =     0.00004957   -0.00009900    0.10296928
     atom   22 type  2   force =    -0.00076522   -0.00040489    0.00035655
     atom   23 type  2   force =    -0.07179419   -0.00021993   -0.02779664
     atom   24 type  2   force =     0.07176509    0.00023678   -0.02784942
     atom   25 type  1   force =     0.00003790   -0.00022890    0.09637196
     atom   26 type  1   force =    -0.00000846   -0.00029967   -0.17481653
     atom   27 type  2   force =     0.00020354   -0.00025430   -0.02391642
     atom   28 type  2   force =     0.00007596   -0.00095591    0.05128986
     atom   29 type  2   force =    -0.01107648    0.00095537    0.00148698
     atom   30 type  2   force =     0.01288108    0.00119772    0.00211500
     atom   31 type  1   force =     0.00114928    0.00257743   -0.01568983
     atom   32 type  1   force =    -0.00001747   -0.01668688    0.02887534
     atom   33 type  2   force =    -0.00017780   -0.00045294    0.00044350
     atom   34 type  2   force =    -0.00258338    0.00114290   -0.01892147
     atom   35 type  2   force =    -0.00010266   -0.00010734    0.00004321
     atom   36 type  2   force =    -0.00004571   -0.00018505    0.00022799
     atom   37 type  1   force =    -0.00024323   -0.00016684    0.00048875
     atom   38 type  1   force =     0.00010094   -0.00053509    0.00034633
     atom   39 type  2   force =     0.00004814    0.00046333    0.00021026
     atom   40 type  2   force =    -0.00032156   -0.00013222   -0.00070001
     atom   41 type  2   force =     0.00016355    0.00001194    0.00006201
     atom   42 type  2   force =    -0.00015339    0.00017555    0.00023007
     atom   43 type  1   force =     0.00005162   -0.00040540   -0.00074178
     atom   44 type  1   force =    -0.00054239    0.00132993   -0.00025341
     atom   45 type  2   force =     0.00006026   -0.00010968    0.10297004
     atom   46 type  2   force =    -0.07180920   -0.00016797   -0.02781088
     atom   47 type  2   force =     0.07176502    0.00021577   -0.02785498
     atom   48 type  3   force =    -0.00044562   -0.00113396    0.00001081
     atom   49 type  4   force =    -0.00217989    0.00323274    0.00152548
     atom   50 type  5   force =    -0.00076985    0.00014100    0.00076493
     atom   51 type  5   force =    -0.00004451   -0.00090959   -0.00045500
     atom   52 type  5   force =     0.00391319   -0.00265330   -0.00113284
     atom   53 type  3   force =     0.00034004    0.00042615    0.00066386
     atom   54 type  5   force =     0.00065575   -0.00022188    0.00112252
     atom   55 type  5   force =     0.00002476    0.00086097   -0.00175088

     Total force =     0.367129     Total SCF correction =     0.000458
  @ DRIVER MODE: Message from server: STATUS
  @ DRIVER MODE: Message from server: GETFORCE
  @ DRIVER MODE: Returning v,forces,stress,ensemble

     Writing output data file ./calc.save/
  @ DRIVER MODE: Message from server: EXIT
  @ DRIVE MODE: Exiting

     General routines

     Parallel routines

   This run was terminated on:  20:48:11   2Aug2021

   JOB DONE.