     Program PWSCF v.6.7GPU starts on 14Sep2021 at 23:32:36

     R & G space division:  proc/nbgrp/npool/nimage =      10
     Reading input from /storage/home/hcoda1/3/ntian30/research/carbon/CxH_vib/CH_calc/ads_slab/CHOHN2_a/out_0029/pw.inp
Warning: card &CELL ignored
Warning: card   CELL_DYNAMICS='IPI', ignored
Warning: card / ignored

     Current dimensions of program PWSCF are:
     Max number of different atomic species (ntypx) = 10
     Max number of k-points (npk) =  40000
     Max angular momentum in pseudopotentials (lmaxx) =  3
     Presently no symmetry can be used with electric field

     Message from routine cell_base_init:
     DEPRECATED: use true lattice parameter, not A to a.u. conversion factor

     IMPORTANT: XC functional enforced from input :
     Exchange-correlation= BEEF-VDW
                           (   1   4  43  14   2   0   0)
     Any further DFT definition will be discarded
     Please, verify this is what you really want

  @ DRIVER MODE: Connecting to
 qe_1139763_2840439.sched-torque.pace.gatech.edut9nsbl7z_scratch
  using UNIX socket
  @ DRIVER MODE: Message from server: STATUS
  @ DRIVER MODE: Message from server: INIT
  @ DRIVER MODE: Receiving replica           0          -1
  @ DRIVER MODE: Receiving encoded integer          25
  @ DRIVER MODE:  SCF:  T  FORCE:  T  STRESS:  F  VC:  F  ENSEMBLE:  F
  @ DRIVER MODE:  SCF:  T  FORCE:  T  STRESS:  F  VC:  F  ENSEMBLE:  F

     Using Slab Decomposition

     bravais-lattice index     =            0
     lattice parameter (alat)  =       1.8897  a.u.
     unit-cell volume          =    6658.9804 (a.u.)^3
     number of atoms/cell      =           53
     number of atomic types    =            5
     number of electrons       =       400.00
     number of Kohn-Sham states=          210
     kinetic-energy cutoff     =      29.3995  Ry
     charge density cutoff     =     293.9946  Ry
     scf convergence threshold =      7.3E-08
     mixing beta               =       0.0500
     number of iterations used =            8  plain     mixing
     Exchange-correlation= BEEF-VDW
                           (   1   4  43  14   2   0   0)

     celldm(1)=   1.889726  celldm(2)=   0.000000  celldm(3)=   0.000000
     celldm(4)=   0.000000  celldm(5)=   0.000000  celldm(6)=   0.000000

     crystal axes: (cart. coord. in units of alat)
               a(1) = (   6.579727   0.000000   0.000000 )
               a(2) = (  -0.000775   5.961596   0.000000 )
               a(3) = (   0.000000   0.000000  25.155947 )

     reciprocal axes: (cart. coord. in units 2 pi/alat)
               b(1) = (  0.151982  0.000020  0.000000 )
               b(2) = (  0.000000  0.167740  0.000000 )
               b(3) = (  0.000000  0.000000  0.039752 )

     PseudoPot. # 1 for C  read from file:
     /storage/coda1/p-amedford6/0/shared/rich_project_chbe-medford/medford-share/data/pseudos_module/espresso/nninc/pbe/van/C.UPF
     MD5 check sum: 1a69bf6b8db32088f5b2163dbdb77a27
     Pseudo is Ultrasoft, Zval =  4.0
     Generated by new atomic code, or converted to UPF format
     Using radial grid of  721 points,  4 beta functions with:
                l(1) =   0
                l(2) =   0
                l(3) =   1
                l(4) =   1
     Q(r) pseudized with  8 coefficients,  rinner =    0.800   0.800   0.800

     PseudoPot. # 2 for H  read from file:
     /storage/coda1/p-amedford6/0/shared/rich_project_chbe-medford/medford-share/data/pseudos_module/espresso/nninc/pbe/van/H.UPF
     MD5 check sum: b5ee9d7bfd3a09ee7748110bda690ff7
     Pseudo is Ultrasoft, Zval =  1.0
     Generated by new atomic code, or converted to UPF format
     Using radial grid of  615 points,  1 beta functions with:
                l(1) =   0
     Q(r) pseudized with  8 coefficients,  rinner =    0.800

     PseudoPot. # 3 for O  read from file:
     /storage/coda1/p-amedford6/0/shared/rich_project_chbe-medford/medford-share/data/pseudos_module/espresso/nninc/pbe/van/O.UPF
     MD5 check sum: 78c19812648e8988a0fe644b0f25305e
     Pseudo is Ultrasoft, Zval =  6.0
     Generated by new atomic code, or converted to UPF format
     Using radial grid of  737 points,  4 beta functions with:
                l(1) =   0
                l(2) =   0
                l(3) =   1
                l(4) =   1
     Q(r) pseudized with  8 coefficients,  rinner =    0.800   0.800   0.800

     PseudoPot. # 4 for Ti read from file:
     /storage/coda1/p-amedford6/0/shared/rich_project_chbe-medford/medford-share/data/pseudos_module/espresso/nninc/pbe/van/Ti.UPF
     MD5 check sum: 8e4df49b7f0d34bbd5052bf3f5ea0213
     Pseudo is Ultrasoft, Zval = 12.0
     Generated by new atomic code, or converted to UPF format
     Using radial grid of  851 points,  6 beta functions with:
                l(1) =   0
                l(2) =   0
                l(3) =   1
                l(4) =   1
                l(5) =   2
                l(6) =   2
     Q(r) pseudized with  8 coefficients,  rinner =    1.000   1.000   1.000
                                                       1.000   1.000

     PseudoPot. # 5 for N  read from file:
     /storage/coda1/p-amedford6/0/shared/rich_project_chbe-medford/medford-share/data/pseudos_module/espresso/nninc/pbe/van/N.UPF
     MD5 check sum: 90d10febe142ad51ac9d5be1deb811c4
     Pseudo is Ultrasoft, Zval =  5.0
     Generated by new atomic code, or converted to UPF format
     Using radial grid of  729 points,  4 beta functions with:
                l(1) =   0
                l(2) =   0
                l(3) =   1
                l(4) =   1
     Q(r) pseudized with  8 coefficients,  rinner =    0.800   0.800   0.800

     atomic species   valence    mass     pseudopotential
        C1             4.00    12.01100     C ( 1.00)
        H1             1.00     1.00800     H ( 1.00)
        O1             6.00    15.99900     O ( 1.00)
        Ti1           12.00    47.86700     Ti( 1.00)
        N1             5.00    14.00700     N ( 1.00)

     No symmetry found

   Cartesian axes

     site n.     atom                  positions (alat units)
         1           C1  tau(   1) = (   5.6818245   3.0934261  18.8613826  )
         2           H1  tau(   2) = (   0.9295697   3.0331078  18.1055300  )
         3           H1  tau(   3) = (   5.3049293   4.0639705  19.1352297  )
         4           O1  tau(   4) = (   3.2904802   0.0005063   4.7018136  )
         5           O1  tau(   5) = (   3.2900926   2.9813045   4.7018136  )
         6           O1  tau(   6) = (   1.3043587   1.4918075   6.0039043  )
         7           O1  tau(   7) = (   1.3039711   4.4726057   6.0039043  )
         8           O1  tau(   8) = (   5.2767064   1.4903225   6.0039473  )
         9           O1  tau(   9) = (   5.2763189   4.4711207   6.0039473  )
        10           O1  tau(  10) = (   3.2906025   0.0005020   7.3038282  )
        11           O1  tau(  11) = (   3.2902150   2.9813002   7.3038282  )
        12           O1  tau(  12) = (   0.0006271   0.0005054   7.9858123  )
        13           O1  tau(  13) = (   0.0002396   2.9813036   7.9858123  )
        14           O1  tau(  14) = (   4.5942328   1.4918067   9.2879030  )
        15           O1  tau(  15) = (   4.5938453   4.4726049   9.2879030  )
        16           O1  tau(  16) = (   1.9868534   1.4903216   9.2879459  )
        17           O1  tau(  17) = (   1.9864658   4.4711199   9.2879459  )
        18           O1  tau(  18) = (   6.5737290   0.0025997  10.6073112  )
        19           O1  tau(  19) = (   6.5745157   2.9846488  10.6292520  )
        20           O1  tau(  20) = (   3.2733922   2.9888808  11.3669225  )
        21           O1  tau(  21) = (   3.2734535   0.0083669  11.3733985  )
        22           O1  tau(  22) = (   1.2686495   4.4776606  12.6533150  )
        23           O1  tau(  23) = (   1.2691242   1.4995788  12.6525255  )
        24           O1  tau(  24) = (   5.2697113   4.4789153  12.6558726  )
        25           O1  tau(  25) = (   5.2698035   1.4991558  12.6558074  )
        26           O1  tau(  26) = (   3.2614338   2.9920807  13.9552461  )
        27           O1  tau(  27) = (   3.2541646   0.0113981  14.0020514  )
        28           O1  tau(  28) = (   6.5688946   0.0096870  14.6775192  )
        29           O1  tau(  29) = (   6.5667413   2.9928499  14.8718366  )
        30           O1  tau(  30) = (   4.5340645   4.4751187  16.1466513  )
        31           O1  tau(  31) = (   4.5349815   1.5188077  16.1513287  )
        32           O1  tau(  32) = (   2.0116004   1.5352794  16.1924295  )
        33           O1  tau(  33) = (   2.0125852   4.4566501  16.1924965  )
        34           O1  tau(  34) = (   6.5583959   0.0051910  17.1951124  )
        35           O1  tau(  35) = (   0.0128280   2.9917589  17.7791131  )
        36           Ti1 tau(  36) = (   0.0004258   2.9801865   6.0000000  )
        37           Ti1 tau(  37) = (   0.0000382   5.9609847   6.0000000  )
        38           Ti1 tau(  38) = (   3.2906075   1.4906267   6.0002472  )
        39           Ti1 tau(  39) = (   3.2902200   4.4714249   6.0002472  )
        40           Ti1 tau(  40) = (   3.3204229   0.0006979   9.1540291  )
        41           Ti1 tau(  41) = (   3.3226256   2.9815539   9.1563990  )
        42           Ti1 tau(  42) = (   0.0414996   4.4578595   9.2720048  )
        43           Ti1 tau(  43) = (   0.0419130   1.4910583   9.2667342  )
        44           Ti1 tau(  44) = (   6.5463313   0.0151476  12.4833176  )
        45           Ti1 tau(  45) = (   3.2510826   4.4792010  12.5152252  )
        46           Ti1 tau(  46) = (   3.2519543   1.5009035  12.5151888  )
        47           Ti1 tau(  47) = (   6.5510796   2.9946678  12.5453677  )
        48           Ti1 tau(  48) = (   3.2768179   2.9983465  15.7429562  )
        49           Ti1 tau(  49) = (   3.2517467   0.0179395  15.7976682  )
        50           Ti1 tau(  50) = (   6.5407926   4.5826425  15.9111250  )
        51           Ti1 tau(  51) = (   6.5448107   1.3670631  15.9596882  )
        52           N1  tau(  52) = (   4.6962475   1.0170953  19.6789386  )
        53           N1  tau(  53) = (   5.1479752   2.0001232  19.2934520  )

     number of k points=    10  Fermi-Dirac smearing, width (Ry)=  0.0073
                       cart. coord. in units 2pi/alat
        k(    1) = (   0.0000000   0.0000000   0.0000000), wk =   0.1250000
        k(    2) = (   0.0000000   0.0419351   0.0000000), wk =   0.2500000
        k(    3) = (   0.0000000  -0.0838702   0.0000000), wk =   0.1250000
        k(    4) = (   0.0379955   0.0000049   0.0000000), wk =   0.2500000
        k(    5) = (   0.0379955   0.0419400   0.0000000), wk =   0.2500000
        k(    6) = (   0.0379955  -0.0838652   0.0000000), wk =   0.2500000
        k(    7) = (   0.0379955  -0.0419301   0.0000000), wk =   0.2500000
        k(    8) = (  -0.0759910  -0.0000099   0.0000000), wk =   0.1250000
        k(    9) = (  -0.0759910   0.0419252   0.0000000), wk =   0.2500000
        k(   10) = (  -0.0759910  -0.0838800   0.0000000), wk =   0.1250000

     Initial potential from superposition of free atoms

     starting charge  383.99917, renormalised to  400.00000

     negative rho (up, down):  1.648E-02 0.000E+00

     %%%%%%%%%%%%%%%%%%%%%%%%%%%%%%%%%%%%%%%%%%%%%%%%%%%%%%%%%%%%%%%%%%%%%%%%
     %                                                                      %
     % You are using vdW-DF, which was implemented by the Thonhauser group. %
     % Please cite the following two papers that made this development      %
     % possible and the two reviews that describe the various versions:     %
     %                                                                      %
     %   T. Thonhauser et al., PRL 115, 136402 (2015).                      %
     %   T. Thonhauser et al., PRB 76, 125112 (2007).                       %
     %   K. Berland et al., Rep. Prog. Phys. 78, 066501 (2015).             %
     %   D.C. Langreth et al., J. Phys.: Condens. Matter 21, 084203 (2009). %
     %                                                                      %
     %                                                                      %
     % If you are calculating the stress with vdW-DF, please also cite:     %
     %                                                                      %
     %   R. Sabatini et al., J. Phys.: Condens. Matter 24, 424209 (2012).   %
     %                                                                      %
     %%%%%%%%%%%%%%%%%%%%%%%%%%%%%%%%%%%%%%%%%%%%%%%%%%%%%%%%%%%%%%%%%%%%%%%%

     Adding external electric field

     Computed dipole along edir(3) :
        Dipole              -12.5060 Ry au,        -31.7872 Debye
        Dipole field         -0.0236 Ry au,

        Potential amp.        2.1877 Ry
        Total length         46.3494 bohr

     Starting wfcs are  302 atomic wfcs
  @ DRIVER MODE: Message from server: STATUS
  @ DRIVER MODE: Message from server: POSDATA
  @ DRIVER MODE: Reading and sharing cell
  @ DRIVER MODE: Reading and sharing positions
  @ DRIVER MODE: Received positions

     Self-consistent Calculation

     iteration #  1     ecut=    29.40 Ry     beta= 0.05
     Davidson diagonalization with overlap
     c_bands:  3 eigenvalues not converged
     c_bands:  1 eigenvalues not converged
     c_bands:  4 eigenvalues not converged
     c_bands:  3 eigenvalues not converged
     c_bands:  5 eigenvalues not converged
     c_bands:  5 eigenvalues not converged
     c_bands:  1 eigenvalues not converged
     c_bands:  2 eigenvalues not converged
     c_bands:  1 eigenvalues not converged
     ethr =  1.00E-05,  avg # of iterations = 20.9

[...]

     total energy              =   -2397.04230622 Ry
     estimated scf accuracy    <    6493.99916681 Ry

     iteration #  2     ecut=    29.40 Ry     beta= 0.05
     Davidson diagonalization with overlap
     ethr =  1.00E-02,  avg # of iterations = 23.7

[...]

     iteration # 54     ecut=    29.40 Ry     beta= 0.05
     Davidson diagonalization with overlap
     c_bands:  1 eigenvalues not converged
     ethr =  7.20E-10,  avg # of iterations = 16.5

[...]

     total energy              =   -2970.16554849 Ry
     estimated scf accuracy    <       0.00000018 Ry

     iteration # 61     ecut=    29.40 Ry     beta= 0.05
     Davidson diagonalization with overlap
     ethr =  4.55E-11,  avg # of iterations =  9.8

     negative rho (up, down):  1.635E-02 0.000E+00

     Adding external electric field

     Computed dipole along edir(3) :
        Dipole                0.8334 Ry au,          2.1184 Debye
        Dipole field          0.0016 Ry au,

        Potential amp.       -0.1458 Ry
        Total length         46.3494 bohr

     End of self-consistent calculation

          k = 0.0000 0.0000 0.0000 ( 18029 PWs)   bands (ev):

   -55.5591 -55.5287 -55.5230 -55.4943 -55.4553 -55.4487 -55.4367 -55.4023
   -55.3973 -55.3834 -55.3631 -55.3547 -55.3419 -55.3081 -54.6219 -54.5878
   -32.1292 -32.0611 -32.0240 -31.9326 -31.8787 -31.8727 -31.8689 -31.8515
   -31.8170 -31.8077 -31.7714 -31.7702 -31.7635 -31.7442 -31.7348 -31.7127
   -31.7098 -31.6941 -31.6856 -31.6827 -31.6816 -31.6743 -31.6540 -31.6448
   -31.6440 -31.6259 -31.6243 -31.5967 -31.5891 -31.5859 -31.5702 -31.5479
   -31.5475 -31.5459 -31.5377 -31.5265 -31.5226 -31.4961 -31.4861 -31.4772
   -31.4663 -31.4526 -31.0343 -30.9311 -30.9095 -30.8505 -30.7642 -30.6531
   -21.1432 -20.3278 -16.3843 -16.1282 -15.9813 -15.8825 -15.7768 -15.6409
   -15.6047 -15.4981 -15.3681 -15.2854 -15.2309 -15.2213 -15.2068 -15.1955
   -15.1789 -15.1753 -15.1161 -15.0867 -15.0617 -15.0475 -15.0394 -15.0040
   -14.9487 -14.9420 -14.9282 -14.7882 -14.7203 -14.6607 -14.3588 -14.2720
   -13.1226 -13.0031  -8.5317  -6.8091  -5.6745  -4.5714  -4.0443  -3.7688
    -3.7147  -3.5667  -3.4920  -3.4739  -3.4261  -3.3037  -3.1520  -2.9909
    -2.9067  -2.8428  -2.8150  -2.7645  -2.7253  -2.6969  -2.5199  -2.5072
    -2.4769  -2.4510  -2.4334  -2.4272  -2.3985  -2.3292  -2.3082  -2.3011
    -2.2779  -2.1432  -2.1258  -2.0281  -1.9851  -1.9561  -1.8974  -1.8829
    -1.8781  -1.8482  -1.8273  -1.8136  -1.8093  -1.7709  -1.5863  -1.5854
    -1.4657  -1.4230  -1.3401  -1.2897  -1.1189  -1.1166  -1.0635  -1.0456
    -1.0043  -0.9643  -0.9603  -0.9174  -0.8026  -0.7172  -0.6694  -0.5984
    -0.5599  -0.4956  -0.4609  -0.3567  -0.3474  -0.3348  -0.3169  -0.1966
    -0.1298  -0.0906  -0.0584  -0.0130  -0.0003   0.0989   0.1168   0.1980
     0.2051   0.2629   0.2654   0.3684   0.3867   0.3881   0.4135   0.4326
     0.5202   0.5911   0.5968   0.6117   0.7808   0.9697   0.9987   1.0412
     1.2913   1.3939   1.4042   1.5293   1.5631   1.9911   2.0466   3.5367
     3.6048   3.6440   3.6615   3.6762   3.7437   4.0005   4.0263   4.0444
     4.0587   4.0680

[...]

          k = 0.0380-0.0419 0.0000 ( 17876 PWs)   bands (ev):

[...]

          k =-0.0760-0.0000 0.0000 ( 17886 PWs)   bands (ev):

[...]

          k =-0.0760-0.0839 0.0000 ( 17948 PWs)   bands (ev):

   -55.5414 -55.5405 -55.5134 -55.5093 -55.4518 -55.4411 -55.4301 -55.4098
   -55.3903 -55.3810 -55.3790 -55.3576 -55.3260 -55.3242 -54.6048 -54.6048
   -31.9819 -31.9329 -31.9315 -31.8520 -31.8408 -31.8370 -31.8184 -31.8063
   -31.7985 -31.7781 -31.7617 -31.7595 -31.7548 -31.7151 -31.7129 -31.7029
   -31.6976 -31.6967 -31.6871 -31.6818 -31.6810 -31.6802 -31.6675 -31.6450
   -31.6422 -31.6415 -31.6388 -31.6364 -31.6323 -31.6299 -31.6276 -31.6018
   -31.6000 -31.5903 -31.5795 -31.5789 -31.5681 -31.5512 -31.5497 -31.5388
   -31.5122 -31.5094 -30.9221 -30.9221 -30.8470 -30.8469 -30.8074 -30.8073
   -21.1411 -20.3273 -15.9378 -15.8000 -15.7401 -15.5631 -15.5552 -15.5474
   -15.5233 -15.3836 -15.3709 -15.3577 -15.3201 -15.3099 -15.2926 -15.2826
   -15.2690 -15.1519 -15.1500 -15.1412 -15.1385 -15.0767 -15.0734 -15.0586
   -15.0421 -15.0023 -15.0017 -14.9888 -14.9848 -14.8202 -14.7228 -14.2796
   -13.1044 -13.1036  -8.5217  -6.8136  -5.6815  -4.5517  -4.0106  -3.6829
    -3.0775  -3.0341  -3.0020  -2.7771  -2.7616  -2.7226  -2.6885  -2.6317
    -2.5566  -2.5459  -2.5416  -2.4753  -2.4660  -2.4556  -2.4524  -2.4407
    -2.3858  -2.3845  -2.3459  -2.3408  -2.2957  -2.2672  -2.2559  -2.2321
    -2.2212  -2.2211  -2.2006  -2.1835  -2.1683  -2.1631  -2.0549  -2.0012
    -1.9174  -1.8909  -1.8018  -1.7854  -1.7706  -1.6932  -1.6575  -1.6349
    -1.5734  -1.5699  -1.4988  -1.3769  -1.3569  -1.3496  -1.2780  -1.2232
    -1.1907  -1.1464  -1.0961  -1.0399  -1.0258  -0.9395  -0.8874  -0.8687
    -0.7627  -0.7503  -0.6986  -0.5891  -0.5557  -0.5536  -0.5491  -0.5370
    -0.4603  -0.4428  -0.3938  -0.3530  -0.3041  -0.2792  -0.2592  -0.0596
    -0.0454   0.0247   0.1263   0.1638   0.3359   0.3568   0.3901   0.4626
     0.5078   0.5189   0.6023   0.7126   0.7172   0.7533   0.8280   0.8669
     0.8753   0.9138   1.4820   1.7558   1.7565   1.8602   1.8634   3.6873
     3.7747   3.7905   3.8232   3.8692   3.9596   4.0452   4.0624   4.0896
     4.0985   4.1762

     the Fermi energy is     3.5925 ev

!    total energy              =   -2970.16559141 Ry
     estimated scf accuracy    <       0.00000006 Ry
     smearing contrib. (-TS)   =      -0.03779176 Ry
     internal energy E=F+TS    =   -2970.12779965 Ry

     The total energy is F=E-TS. E is the sum of the following terms:
     one-electron contribution =  -23548.81309018 Ry
     hartree contribution      =   11866.21475918 Ry
     xc contribution           =    -491.71192669 Ry
     ewald contribution        =    9204.18114720 Ry
     electric field correction =       0.00131084 Ry

     convergence has been achieved in  61 iterations

     Forces acting on atoms (cartesian axes, Ry/au):

     atom    1 type  1   force =     0.00099621    0.00116388    0.00090745
     atom    2 type  2   force =     0.00065759   -0.00013817    0.00016960
     atom    3 type  2   force =     0.00009768   -0.00050896   -0.00015890
     atom    4 type  3   force =     0.00006011   -0.00000189    0.10501240
     atom    5 type  3   force =     0.00004387    0.00002615    0.10502344
     atom    6 type  3   force =    -0.06774953   -0.00001320   -0.02683795
     atom    7 type  3   force =    -0.06779409   -0.00059994   -0.02687114
     atom    8 type  3   force =     0.06762579    0.00043681   -0.02689608
     atom    9 type  3   force =     0.06766340   -0.00016522   -0.02693419
     atom   10 type  3   force =     0.00071967    0.00002113    0.05053791
     atom   11 type  3   force =     0.00077406    0.00001160    0.05061193
     atom   12 type  3   force =     0.00061076   -0.00003585   -0.02309765
     atom   13 type  3   force =     0.00057195   -0.00016957   -0.02182212
     atom   14 type  3   force =    -0.01560270   -0.00017519    0.00501388
     atom   15 type  3   force =    -0.01566961    0.00008130    0.00498523
     atom   16 type  3   force =     0.01437825    0.00025700    0.00479186
     atom   17 type  3   force =     0.01445340    0.00059332    0.00480126
     atom   18 type  3   force =    -0.00007341    0.00000272   -0.00007302
     atom   19 type  3   force =    -0.00013571   -0.00000423   -0.00021103
     atom   20 type  3   force =    -0.00012196    0.00007419   -0.00006100
     atom   21 type  3   force =     0.00004310   -0.00011766    0.00012253
     atom   22 type  3   force =     0.00026737    0.00025327    0.00002257
     atom   23 type  3   force =     0.00002114    0.00005053    0.00006663
     atom   24 type  3   force =    -0.00018149    0.00011925    0.00020448
     atom   25 type  3   force =     0.00006366   -0.00011845    0.00009490
     atom   26 type  3   force =     0.00023442   -0.00014330    0.00002742
     atom   27 type  3   force =    -0.00008816    0.00018033   -0.00012137
     atom   28 type  3   force =    -0.00008515    0.00024457    0.00002047
     atom   29 type  3   force =     0.00031450   -0.00003015    0.00028864
     atom   30 type  3   force =     0.00020758   -0.00013109   -0.00022906
     atom   31 type  3   force =     0.00020476   -0.00001526    0.00014969
     atom   32 type  3   force =     0.00000434   -0.00019339    0.00015701
     atom   33 type  3   force =    -0.00003482   -0.00011618   -0.00009414
     atom   34 type  3   force =     0.00001489   -0.00001000    0.00025694
     atom   35 type  3   force =    -0.00091211   -0.00015925   -0.00066238
     atom   36 type  4   force =    -0.00022295    0.00012267    0.09296526
     atom   37 type  4   force =    -0.00016130   -0.00012043    0.09677004
     atom   38 type  4   force =    -0.00010537    0.00034241   -0.18353078
     atom   39 type  4   force =    -0.00005261   -0.00057842   -0.18368241
     atom   40 type  4   force =     0.00000509    0.00004574    0.00015811
     atom   41 type  4   force =     0.00016664   -0.00002586    0.00005316
     atom   42 type  4   force =    -0.00036320    0.00013517   -0.00011319
     atom   43 type  4   force =    -0.00021711    0.00028867    0.00015527
     atom   44 type  4   force =     0.00018847    0.00014547    0.00029649
     atom   45 type  4   force =    -0.00008061    0.00002536    0.00021258
     atom   46 type  4   force =    -0.00011289    0.00008227    0.00020794
     atom   47 type  4   force =    -0.00007503   -0.00013406   -0.00017835
     atom   48 type  4   force =    -0.00006697   -0.00021787   -0.00030254
     atom   49 type  4   force =    -0.00011802   -0.00003407   -0.00004977
     atom   50 type  4   force =    -0.00006079   -0.00030556   -0.00046074
     atom   51 type  4   force =     0.00018116   -0.00036442   -0.00060153
     atom   52 type  5   force =    -0.00595851   -0.01184516    0.00437822
     atom   53 type  5   force =     0.00547425    0.01176901   -0.00547394

     Total force =     0.369116     Total SCF correction =     0.000686
  @ DRIVER MODE: Message from server: STATUS
  @ DRIVER MODE: Message from server: GETFORCE
  @ DRIVER MODE: Returning v,forces,stress,ensemble

     Writing output data file ./calc.save/
  @ DRIVER MODE: Message from server: EXIT
  @ DRIVE MODE: Exiting

     General routines

     Parallel routines

   This run was terminated on:  23:49:27  14Sep2021

   JOB DONE.