     Program PWSCF v.6.7GPU starts on 16Jul2021 at  0:49:41

     R & G space division:  proc/nbgrp/npool/nimage =      16
     Reading input from /storage/home/hcoda1/3/ntian30/research/carbon/15Jul_vib/ads_slab/CH3N2H_a/out_0012/pw.inp
Warning: card &CELL ignored
Warning: card   CELL_DYNAMICS='IPI', ignored
Warning: card / ignored

     Current dimensions of program PWSCF are:
     Max number of different atomic species (ntypx) = 10
     Max number of k-points (npk) =  40000
     Max angular momentum in pseudopotentials (lmaxx) =  3
     Presently no symmetry can be used with electric field

     Message from routine cell_base_init:
     DEPRECATED: use true lattice parameter, not A to a.u. conversion factor

     IMPORTANT: XC functional enforced from input :
     Exchange-correlation= BEEF-VDW
                           (   1   4  43  14   2   0   0)
     Any further DFT definition will be discarded
     Please, verify this is what you really want

  @ DRIVER MODE: Connecting to
 qe_1139763_2351646.sched-torque.pace.gatech.edua7r0f0r1_scratch
  using UNIX socket
  @ DRIVER MODE: Message from server: STATUS
  @ DRIVER MODE: Message from server: INIT
  @ DRIVER MODE: Receiving replica           0          -1
  @ DRIVER MODE: Receiving encoded integer          25
  @ DRIVER MODE:  SCF:  T  FORCE:  T  STRESS:  F  VC:  F  ENSEMBLE:  F
  @ DRIVER MODE:  SCF:  T  FORCE:  T  STRESS:  F  VC:  F  ENSEMBLE:  F

     Using Slab Decomposition

     bravais-lattice index     =            0
     lattice parameter (alat)  =       1.8897  a.u.
     unit-cell volume          =    6658.9804 (a.u.)^3
     number of atoms/cell      =           54
     number of atomic types    =            5
     number of electrons       =       396.00
     number of Kohn-Sham states=          208
     kinetic-energy cutoff     =      29.3995  Ry
     charge density cutoff     =     293.9946  Ry
     scf convergence threshold =      7.3E-08
     mixing beta               =       0.0500
     number of iterations used =            8  plain     mixing
     Exchange-correlation= BEEF-VDW
                           (   1   4  43  14   2   0   0)

     celldm(1)=   1.889726  celldm(2)=   0.000000  celldm(3)=   0.000000
     celldm(4)=   0.000000  celldm(5)=   0.000000  celldm(6)=   0.000000

     crystal axes: (cart. coord. in units of alat)
               a(1) = (   6.579727   0.000000   0.000000 )
               a(2) = (  -0.000775   5.961596   0.000000 )
               a(3) = (   0.000000   0.000000  25.155947 )

     reciprocal axes: (cart. coord. in units 2 pi/alat)
               b(1) = (  0.151982  0.000020  0.000000 )
               b(2) = (  0.000000  0.167740  0.000000 )
               b(3) = (  0.000000  0.000000  0.039752 )

     PseudoPot. # 1 for Ti read from file:
     /storage/coda1/p-amedford6/0/shared/rich_project_chbe-medford/medford-share/data/pseudos_module/espresso/nninc/pbe/van/Ti.UPF
     MD5 check sum: 8e4df49b7f0d34bbd5052bf3f5ea0213
     Pseudo is Ultrasoft, Zval = 12.0
     Generated by new atomic code, or converted to UPF format
     Using radial grid of  851 points,  6 beta functions with:
                l(1) =   0
                l(2) =   0
                l(3) =   1
                l(4) =   1
                l(5) =   2
                l(6) =   2
     Q(r) pseudized with  8 coefficients,  rinner =    1.000   1.000   1.000
                                                       1.000   1.000

     PseudoPot. # 2 for O  read from file:
     /storage/coda1/p-amedford6/0/shared/rich_project_chbe-medford/medford-share/data/pseudos_module/espresso/nninc/pbe/van/O.UPF
     MD5 check sum: 78c19812648e8988a0fe644b0f25305e
     Pseudo is Ultrasoft, Zval =  6.0
     Generated by new atomic code, or converted to UPF format
     Using radial grid of  737 points,  4 beta functions with:
                l(1) =   0
                l(2) =   0
                l(3) =   1
                l(4) =   1
     Q(r) pseudized with  8 coefficients,  rinner =    0.800   0.800   0.800

     PseudoPot. # 3 for N  read from file:
     /storage/coda1/p-amedford6/0/shared/rich_project_chbe-medford/medford-share/data/pseudos_module/espresso/nninc/pbe/van/N.UPF
     MD5 check sum: 90d10febe142ad51ac9d5be1deb811c4
     Pseudo is Ultrasoft, Zval =  5.0
     Generated by new atomic code, or converted to UPF format
     Using radial grid of  729 points,  4 beta functions with:
                l(1) =   0
                l(2) =   0
                l(3) =   1
                l(4) =   1
     Q(r) pseudized with  8 coefficients,  rinner =    0.800   0.800   0.800

     PseudoPot. # 4 for C  read from file:
     /storage/coda1/p-amedford6/0/shared/rich_project_chbe-medford/medford-share/data/pseudos_module/espresso/nninc/pbe/van/C.UPF
     MD5 check sum: 1a69bf6b8db32088f5b2163dbdb77a27
     Pseudo is Ultrasoft, Zval =  4.0
     Generated by new atomic code, or converted to UPF format
     Using radial grid of  721 points,  4 beta functions with:
                l(1) =   0
                l(2) =   0
                l(3) =   1
                l(4) =   1
     Q(r) pseudized with  8 coefficients,  rinner =    0.800   0.800   0.800

     PseudoPot. # 5 for H  read from file:
     /storage/coda1/p-amedford6/0/shared/rich_project_chbe-medford/medford-share/data/pseudos_module/espresso/nninc/pbe/van/H.UPF
     MD5 check sum: b5ee9d7bfd3a09ee7748110bda690ff7
     Pseudo is Ultrasoft, Zval =  1.0
     Generated by new atomic code, or converted to UPF format
     Using radial grid of  615 points,  1 beta functions with:
                l(1) =   0
     Q(r) pseudized with  8 coefficients,  rinner =    0.800

     atomic species   valence    mass     pseudopotential
        Ti1           12.00    47.86700     Ti( 1.00)
        O1             6.00    15.99900     O ( 1.00)
        N1             5.00    14.00700     N ( 1.00)
        C1             4.00    12.01100     C ( 1.00)
        H1             1.00     1.00800     H ( 1.00)

     Starting magnetic structure
     atomic species   magnetization
        Ti1          0.000
        O1           0.000
        N1           0.000
        C1           0.025
        H1           0.000

     No symmetry found

   Cartesian axes

     site n.     atom                  positions (alat units)
         1           Ti1 tau(   1) = (   0.0004258   2.9801865   6.0000000  )
         2           Ti1 tau(   2) = (   3.2906075   1.4906267   6.0002472  )
         3           O1  tau(   3) = (   0.0006271   0.0005054   7.9858123  )
         4           O1  tau(   4) = (   3.2906025   0.0005020   7.3038282  )
         5           O1  tau(   5) = (   4.5942328   1.4918067   9.2879030  )
         6           O1  tau(   6) = (   1.9868534   1.4903216   9.2879459  )
         7           Ti1 tau(   7) = (   3.2907910   2.8959150   9.1758416  )
         8           Ti1 tau(   8) = (   0.0015273   1.4827037   9.2680791  )
         9           O1  tau(   9) = (   3.3106937   0.0084137  11.2927479  )
        10           O1  tau(  10) = (   0.0116148   5.9584955  10.6183126  )
        11           O1  tau(  11) = (   1.3255326   1.5151957  12.5859258  )
        12           O1  tau(  12) = (   5.3246634   1.4871208  12.6441624  )
        13           Ti1 tau(  13) = (   6.5358624   2.9940264  12.7507449  )
        14           Ti1 tau(  14) = (   3.1828407   1.5032771  12.4528579  )
        15           O1  tau(  15) = (   0.1336207   0.0073438  14.6266748  )
        16           O1  tau(  16) = (   3.2550344   0.0288700  13.8306396  )
        17           O1  tau(  17) = (   4.6334483   1.5013943  15.9792279  )
        18           O1  tau(  18) = (   2.1409664   1.5470880  15.9954950  )
        19           Ti1 tau(  19) = (   3.4798582   3.0305884  15.6593850  )
        20           Ti1 tau(  20) = (   0.1386493   1.3724552  15.8613965  )
        21           O1  tau(  21) = (   3.2904802   0.0005063   4.7018136  )
        22           O1  tau(  22) = (   0.1429122   0.0333940  17.1908172  )
        23           O1  tau(  23) = (   1.3043587   1.4918075   6.0039043  )
        24           O1  tau(  24) = (   5.2767064   1.4903225   6.0039473  )
        25           Ti1 tau(  25) = (   0.0000382   5.9609847   6.0000000  )
        26           Ti1 tau(  26) = (   3.2902200   4.4714249   6.0002472  )
        27           O1  tau(  27) = (   0.0002396   2.9813036   7.9858123  )
        28           O1  tau(  28) = (   3.2902150   2.9813002   7.3038282  )
        29           O1  tau(  29) = (   4.5938453   4.4726049   9.2879030  )
        30           O1  tau(  30) = (   1.9864658   4.4711199   9.2879459  )
        31           Ti1 tau(  31) = (   3.2891106   5.8743827   9.1763621  )
        32           Ti1 tau(  32) = (   0.0006254   4.4649316   9.2693709  )
        33           O1  tau(  33) = (   3.3137399   2.9960163  11.2943833  )
        34           O1  tau(  34) = (   0.0092240   2.9805883  10.6323155  )
        35           O1  tau(  35) = (   1.3234708   4.4688006  12.5930975  )
        36           O1  tau(  36) = (   5.3222282   4.4932535  12.6449723  )
        37           Ti1 tau(  37) = (   6.5041614   0.0053836  12.5833808  )
        38           Ti1 tau(  38) = (   3.1843229   4.4812189  12.4522442  )
        39           O1  tau(  39) = (   0.0584892   2.9792810  14.6723703  )
        40           O1  tau(  40) = (   3.3232524   2.9928384  13.8523860  )
        41           O1  tau(  41) = (   4.6237859   4.5837569  15.7472905  )
        42           O1  tau(  42) = (   2.1882403   4.4693611  16.1038286  )
        43           Ti1 tau(  43) = (   3.3015484   0.0242660  15.6383815  )
        44           Ti1 tau(  44) = (   0.0181797   4.4930750  16.1931172  )
        45           O1  tau(  45) = (   3.2900926   2.9813045   4.7018136  )
        46           O1  tau(  46) = (   1.3039711   4.4726057   6.0039043  )
        47           O1  tau(  47) = (   5.2763189   4.4711207   6.0039473  )
        48           N1  tau(  48) = (   0.2677213   2.8760844  17.5655548  )
        49           C1  tau(  49) = (   1.2271684   2.7639891  18.6698760  )
        50           H1  tau(  50) = (   1.2930054   3.7106696  19.2072709  )
        51           H1  tau(  51) = (   0.8976878   1.9730418  19.3402421  )
        52           H1  tau(  52) = (   2.2102292   2.4972526  18.2850250  )
        53           N1  tau(  53) = (   5.6732178   3.4927010  17.8452151  )
        54           H1  tau(  54) = (   5.7345573   4.0058295  18.7343860  )

     number of k points=    10  Fermi-Dirac smearing, width (Ry)=  0.0073
                       cart. coord. in units 2pi/alat
        k(    1) = (   0.0000000   0.0000000   0.0000000), wk =   0.0625000
        k(    2) = (   0.0000000   0.0419351   0.0000000), wk =   0.1250000
        k(    3) = (   0.0000000  -0.0838702   0.0000000), wk =   0.0625000
        k(    4) = (   0.0379955   0.0000049   0.0000000), wk =   0.1250000
        k(    5) = (   0.0379955   0.0419400   0.0000000), wk =   0.1250000
        k(    6) = (   0.0379955  -0.0838652   0.0000000), wk =   0.1250000
        k(    7) = (   0.0379955  -0.0419301   0.0000000), wk =   0.1250000
[...]
     %                                                                      %
     % You are using vdW-DF, which was implemented by the Thonhauser group. %
     % Please cite the following two papers that made this development      %
     % possible and the two reviews that describe the various versions:     %
     %                                                                      %
     %   T. Thonhauser et al., PRL 115, 136402 (2015).                      %
     %   T. Thonhauser et al., PRB 76, 125112 (2007).                       %
     %   K. Berland et al., Rep. Prog. Phys. 78, 066501 (2015).             %
     %   D.C. Langreth et al., J. Phys.: Condens. Matter 21, 084203 (2009). %
     %                                                                      %
     %                                                                      %
     % If you are calculating the stress with vdW-DF, please also cite:     %
     %                                                                      %
     %   R. Sabatini et al., J. Phys.: Condens. Matter 24, 424209 (2012).   %
     %                                                                      %
     %%%%%%%%%%%%%%%%%%%%%%%%%%%%%%%%%%%%%%%%%%%%%%%%%%%%%%%%%%%%%%%%%%%%%%%%

     Adding external electric field

     Computed dipole along edir(3) :
        Dipole               -8.2254 Ry au,        -20.9069 Debye
        Dipole field         -0.0155 Ry au,

        Potential amp.        1.4389 Ry
        Total length         46.3494 bohr

[...]

     Starting wfcs are  300 atomic wfcs
  @ DRIVER MODE: Message from server: STATUS
  @ DRIVER MODE: Message from server: POSDATA
  @ DRIVER MODE: Reading and sharing cell
  @ DRIVER MODE: Reading and sharing positions
  @ DRIVER MODE: Received positions

     Self-consistent Calculation

     iteration #  1     ecut=    29.40 Ry     beta= 0.05
     Davidson diagonalization with overlap
     c_bands:  1 eigenvalues not converged
     c_bands:  1 eigenvalues not converged
     c_bands:  1 eigenvalues not converged
     c_bands:  1 eigenvalues not converged
     c_bands:  4 eigenvalues not converged
     c_bands:  1 eigenvalues not converged
     c_bands:  4 eigenvalues not converged
     c_bands:  2 eigenvalues not converged
     c_bands:  1 eigenvalues not converged
     c_bands:  1 eigenvalues not converged
     c_bands:  1 eigenvalues not converged
     c_bands:  1 eigenvalues not converged
     c_bands:  1 eigenvalues not converged
     c_bands:  1 eigenvalues not converged
     c_bands:  2 eigenvalues not converged
     c_bands:  1 eigenvalues not converged
     c_bands:  4 eigenvalues not converged
     c_bands:  2 eigenvalues not converged
     c_bands:  1 eigenvalues not converged
     c_bands:  1 eigenvalues not converged
     ethr =  1.00E-05,  avg # of iterations = 20.0

[...]

     total energy              =   -2607.57824286 Ry
     estimated scf accuracy    <    3675.43638565 Ry

     total magnetization       =     0.00 Bohr mag/cell
     absolute magnetization    =     0.03 Bohr mag/cell

[...]

     iteration #  3     ecut=    29.40 Ry     beta= 0.05
     Davidson diagonalization with overlap
     ethr =  1.00E-02,  avg # of iterations = 13.9

[...]

     iteration # 55     ecut=    29.40 Ry     beta= 0.05
     Davidson diagonalization with overlap
     c_bands:  1 eigenvalues not converged
     ethr =  1.19E-06,  avg # of iterations =  7.8

[...]

     total energy              =   -2940.35259771 Ry
     estimated scf accuracy    <       0.00000014 Ry

[...]

     iteration #138     ecut=    29.40 Ry     beta= 0.05
     Davidson diagonalization with overlap
     ethr =  3.63E-11,  avg # of iterations =  8.3

     negative rho (up, down):  8.761E-03 8.761E-03

[...]

     Adding external electric field

     Computed dipole along edir(3) :
        Dipole                0.7430 Ry au,          1.8885 Debye
        Dipole field          0.0014 Ry au,

        Potential amp.       -0.1300 Ry
        Total length         46.3494 bohr

     Magnetic moment per site  (integrated on atomic sphere of radius R)
     atom   1 (R=0.746)  charge=  8.1023  magn= -0.0014
     atom   2 (R=0.746)  charge=  8.0882  magn= -0.0001
     atom   3 (R=0.746)  charge=  5.0689  magn=  0.0001
     atom   4 (R=0.746)  charge=  5.1050  magn=  0.0000
     atom   5 (R=0.746)  charge=  5.0706  magn=  0.0000
     atom   6 (R=0.746)  charge=  5.0718  magn=  0.0000
     atom   7 (R=0.746)  charge=  8.0835  magn= -0.0000
     atom   8 (R=0.746)  charge=  8.0700  magn= -0.0002
     atom   9 (R=0.746)  charge=  5.0893  magn=  0.0000
     atom  10 (R=0.746)  charge=  5.0576  magn=  0.0000
     atom  11 (R=0.746)  charge=  5.0764  magn=  0.0000
     atom  12 (R=0.746)  charge=  5.0717  magn=  0.0000
     atom  13 (R=0.746)  charge=  8.0706  magn= -0.0000
     atom  14 (R=0.746)  charge=  8.0890  magn= -0.0000
     atom  15 (R=0.746)  charge=  5.0553  magn= -0.0000
     atom  16 (R=0.746)  charge=  5.0986  magn=  0.0000
     atom  17 (R=0.746)  charge=  5.0495  magn= -0.0000
     atom  18 (R=0.746)  charge=  5.0672  magn=  0.0000
     atom  19 (R=0.746)  charge=  8.1078  magn= -0.0000
     atom  20 (R=0.746)  charge=  8.0960  magn= -0.0001
     atom  21 (R=0.746)  charge=  4.9490  magn=  0.0001
     atom  22 (R=0.746)  charge=  5.0410  magn= -0.0000
     atom  23 (R=0.746)  charge=  5.0611  magn=  0.0002
     atom  24 (R=0.746)  charge=  5.0612  magn=  0.0002
     atom  25 (R=0.746)  charge=  8.1023  magn= -0.0014
     atom  26 (R=0.746)  charge=  8.0882  magn= -0.0001
     atom  27 (R=0.746)  charge=  5.0670  magn=  0.0001
     atom  28 (R=0.746)  charge=  5.1051  magn=  0.0000
     atom  29 (R=0.746)  charge=  5.0714  magn=  0.0000
     atom  30 (R=0.746)  charge=  5.0726  magn=  0.0000
     atom  31 (R=0.746)  charge=  8.0844  magn= -0.0000
     atom  32 (R=0.746)  charge=  8.0704  magn= -0.0002
     atom  33 (R=0.746)  charge=  5.0889  magn=  0.0000
     atom  34 (R=0.746)  charge=  5.0199  magn=  0.0000
     atom  35 (R=0.746)  charge=  5.0760  magn=  0.0000
     atom  36 (R=0.746)  charge=  5.0723  magn=  0.0000
     atom  37 (R=0.746)  charge=  8.0776  magn= -0.0000
     atom  38 (R=0.746)  charge=  8.0890  magn= -0.0000
     atom  39 (R=0.746)  charge=  5.0527  magn=  0.0000
     atom  40 (R=0.746)  charge=  5.0891  magn=  0.0000
     atom  41 (R=0.746)  charge=  5.0851  magn=  0.0000
     atom  42 (R=0.746)  charge=  5.0437  magn= -0.0000
     atom  43 (R=0.746)  charge=  8.1145  magn= -0.0000
     atom  44 (R=0.746)  charge=  8.1351  magn= -0.0006
     atom  45 (R=0.746)  charge=  4.9491  magn=  0.0001
     atom  46 (R=0.746)  charge=  5.0611  magn=  0.0002
     atom  47 (R=0.746)  charge=  5.0612  magn=  0.0002
     atom  48 (R=0.424)  charge=  1.3488  magn= -0.0003
     atom  49 (R=0.449)  charge=  0.8472  magn=  0.0000
     atom  50 (R=0.424)  charge=  0.4534  magn= -0.0000
     atom  51 (R=0.424)  charge=  0.4527  magn= -0.0000
     atom  52 (R=0.424)  charge=  0.4538  magn= -0.0000
     atom  53 (R=0.424)  charge=  1.3504  magn= -0.0004
     atom  54 (R=0.424)  charge=  0.4593  magn= -0.0000

     End of self-consistent calculation

 ------ SPIN UP ------------

          k = 0.0000 0.0000 0.0000 ( 18029 PWs)   bands (ev):

   -56.0182 -55.9842 -55.8012 -55.7623 -55.7212 -55.6867 -55.6607 -55.6357
   -55.6265 -55.6010 -55.5732 -55.4938 -55.2392 -54.9156 -54.8816 -54.7856
   -32.4854 -32.3432 -32.3120 -32.2886 -32.1879 -32.1727 -32.1633 -32.1251
   -32.1082 -32.0959 -32.0787 -32.0421 -32.0190 -31.9788 -31.9718 -31.9699
   -31.9379 -31.9278 -31.9172 -31.8923 -31.8840 -31.8660 -31.8599 -31.8564
   -31.8358 -31.8345 -31.8255 -31.8218 -31.8155 -31.7992 -31.7914 -31.7897
   -31.7733 -31.7483 -31.6900 -31.6629 -31.6142 -31.4655 -31.4624 -31.3189
   -31.2395 -31.2166 -31.2035 -31.1361 -31.0501 -30.9898 -30.9389 -30.9097
   -17.2903 -16.5559 -16.3650 -16.0749 -15.9243 -15.9051 -15.7855 -15.6880
   -15.6102 -15.5107 -15.4579 -15.4028 -15.3910 -15.3658 -15.3071 -15.2846
   -15.2438 -15.2258 -15.1837 -15.1731 -15.1276 -15.1045 -15.0826 -15.0490
   -14.9835 -14.9133 -14.9000 -14.7446 -14.6046 -14.4530 -13.4168 -13.3020
   -11.5240  -8.3467  -4.9861  -3.9983  -3.9424  -3.8729  -3.8587  -3.7710
    -3.6894  -3.4379  -3.4145  -3.3545  -3.0672  -3.0203  -2.9961  -2.9915
    -2.8937  -2.7539  -2.7233  -2.6633  -2.6584  -2.6367  -2.6174  -2.6005
    -2.5432  -2.4888  -2.4706  -2.4294  -2.2943  -2.2694  -2.2645  -2.2425
    -2.1731  -2.1635  -2.0993  -2.0807  -2.0584  -2.0396  -2.0030  -1.8699
    -1.8368  -1.7729  -1.6950  -1.6010  -1.5212  -1.4872  -1.4030  -1.3829
    -1.3434  -1.2579  -1.2553  -1.1771  -1.1425  -1.0693  -1.0430  -1.0056
    -0.8954  -0.8689  -0.8110  -0.7534  -0.7073  -0.6948  -0.6527  -0.6285
    -0.6230  -0.6086  -0.5956  -0.4023  -0.3711  -0.2282  -0.1824  -0.1580
    -0.1173  -0.0949  -0.0362  -0.0124  -0.0074   0.0327   0.0510   0.0936
     0.1493   0.1635   0.1902   0.2834   0.3155   0.3705   0.4966   0.5108
     0.5984   0.6656   0.7717   0.7846   0.8368   0.9673   1.0635   1.0865
     1.1066   1.3120   1.4166   1.6707   1.7132   3.0295   3.1750   3.2713
     3.3785   3.4987   3.5733   3.6128   3.7866   3.8239   3.8657   3.9243

[...]

          k =-0.0760-0.0000 0.0000 ( 17886 PWs)   bands (ev):

[...]

 ------ SPIN DOWN ----------

[...]

          k = 0.0380-0.0419 0.0000 ( 17876 PWs)   bands (ev):

[...]

          k =-0.0760-0.0839 0.0000 ( 17948 PWs)   bands (ev):

   -56.0048 -56.0028 -55.7891 -55.7742 -55.7080 -55.7005 -55.6452 -55.6421
   -55.6224 -55.6144 -55.5693 -55.4976 -55.2386 -54.8988 -54.8987 -54.7868
   -32.3031 -32.3022 -32.3004 -32.2988 -32.1507 -32.1385 -32.1278 -32.1256
   -32.0471 -32.0344 -32.0242 -32.0201 -32.0133 -32.0107 -31.9670 -31.9615
   -31.9527 -31.9406 -31.9103 -31.8990 -31.8868 -31.8824 -31.8782 -31.8769
   -31.8730 -31.8688 -31.8520 -31.8467 -31.8413 -31.8369 -31.8318 -31.8139
   -31.7950 -31.7917 -31.7622 -31.7040 -31.6050 -31.4680 -31.4619 -31.2539
   -31.2297 -31.2295 -31.1325 -31.1322 -31.0935 -31.0933 -31.0026 -30.9145
   -17.2717 -15.9731 -15.9447 -15.8368 -15.8174 -15.7292 -15.7159 -15.6010
   -15.5933 -15.5806 -15.5143 -15.4683 -15.4578 -15.3759 -15.3490 -15.3376
   -15.3128 -15.3030 -15.2966 -15.2858 -15.2739 -15.1933 -15.1882 -15.1867
   -15.1114 -15.0882 -14.9028 -14.8595 -14.6624 -14.6152 -13.4040 -13.4036
   -11.5280  -8.3275  -4.9926  -3.9035  -3.8475  -3.2753  -3.2392  -3.0232
    -2.9974  -2.9770  -2.9474  -2.7629  -2.7491  -2.7426  -2.7254  -2.7125
    -2.6754  -2.6563  -2.6436  -2.5775  -2.5685  -2.5472  -2.5424  -2.5329
    -2.5138  -2.4983  -2.4907  -2.4710  -2.4565  -2.4121  -2.3579  -2.3351
    -2.2857  -2.1910  -2.0876  -2.0401  -2.0261  -2.0182  -1.9951  -1.9860
    -1.9458  -1.9331  -1.8471  -1.6641  -1.6161  -1.5539  -1.5480  -1.5427
    -1.4840  -1.4252  -1.3940  -1.3162  -1.2432  -1.1915  -1.1606  -1.1359
    -1.1024  -1.0348  -0.9685  -0.9490  -0.9358  -0.9067  -0.9031  -0.8862
    -0.8070  -0.7257  -0.6836  -0.6528  -0.6299  -0.6160  -0.5999  -0.5777
    -0.4712  -0.4020  -0.3545  -0.3095  -0.2682  -0.2245  -0.1062  -0.0912
     0.1022   0.1693   0.1950   0.2734   0.3699   0.3959   0.4065   0.4703
     0.5458   0.6084   0.6427   0.6974   0.7132   0.7343   0.8012   1.0188
     1.0721   1.4810   1.4826   1.5316   1.5326   2.9918   3.6740   3.6812
     3.6847   3.6948   3.7156   3.7391   3.7912   3.8260   3.9279   3.9484

     the Fermi energy is     3.1387 ev

!    total energy              =   -2940.35259779 Ry
     estimated scf accuracy    <       0.00000007 Ry
     smearing contrib. (-TS)   =      -0.01869895 Ry
     internal energy E=F+TS    =   -2940.33389884 Ry

     The total energy is F=E-TS. E is the sum of the following terms:
     one-electron contribution =  -24659.72028725 Ry
     hartree contribution      =   12419.03142297 Ry
     xc contribution           =    -486.05052545 Ry
     ewald contribution        =    9786.40444913 Ry
     electric field correction =       0.00104176 Ry

     total magnetization       =    -0.01 Bohr mag/cell
     absolute magnetization    =     0.01 Bohr mag/cell

     convergence has been achieved in 138 iterations

     Forces acting on atoms (cartesian axes, Ry/au):

     atom    1 type  1   force =     0.00023507   -0.00036097    0.10153488
     atom    2 type  1   force =     0.00001102   -0.00086028   -0.17139997
     atom    3 type  2   force =     0.00029116    0.00021795   -0.03324415
     atom    4 type  2   force =     0.00003240   -0.00079200    0.04483197
     atom    5 type  2   force =    -0.01195610   -0.00021165   -0.00233164
     atom    6 type  2   force =     0.01438872    0.00038227   -0.00113177
     atom    7 type  1   force =     0.00140355   -0.00131139   -0.00431595
     atom    8 type  1   force =    -0.00077363    0.02219550    0.05617925
     atom    9 type  2   force =     0.00002885   -0.00032754    0.00047020
     atom   10 type  2   force =    -0.00266826    0.00207103   -0.02592817
     atom   11 type  2   force =     0.00003349    0.00024655   -0.00005885
     atom   12 type  2   force =     0.00008473    0.00073849    0.00002015
     atom   13 type  1   force =    -0.00004356    0.00014618    0.00018030
     atom   14 type  1   force =     0.00029313    0.00030812   -0.00002449
     atom   15 type  2   force =     0.00019658   -0.00021880    0.00006365
     atom   16 type  2   force =    -0.00002332   -0.00013596    0.00079084
     atom   17 type  2   force =    -0.00007310   -0.00077464    0.00005682
     atom   18 type  2   force =     0.00052946   -0.00068589    0.00038682
     atom   19 type  1   force =    -0.00014959   -0.00047104    0.00018241
     atom   20 type  1   force =     0.00009717    0.00016306   -0.00012626
     atom   21 type  2   force =     0.00006348   -0.00001038    0.10210384
     atom   22 type  2   force =     0.00000687   -0.00032398    0.00047930
     atom   23 type  2   force =    -0.07328429   -0.00015830   -0.02887142
     atom   24 type  2   force =     0.07323467    0.00033623   -0.02891765
     atom   25 type  1   force =    -0.00026725   -0.00030103    0.10196191
     atom   26 type  1   force =     0.00003157   -0.00020176   -0.17139182
     atom   27 type  2   force =     0.00036492   -0.00022956   -0.03196103
     atom   28 type  2   force =     0.00009248   -0.00057229    0.04544987
     atom   29 type  2   force =    -0.01210360    0.00213139   -0.00288888
     atom   30 type  2   force =     0.01441527    0.00229270   -0.00163157
     atom   31 type  1   force =     0.00158680    0.00092885   -0.00562252
     atom   32 type  1   force =    -0.00059795   -0.02475668    0.05720866
     atom   33 type  2   force =     0.00015167    0.00035995    0.00062811
     atom   34 type  2   force =    -0.00420955    0.00211918   -0.04831039
     atom   35 type  2   force =     0.00062105   -0.00058403    0.00001481
     atom   36 type  2   force =    -0.00040477   -0.00075182    0.00014278
     atom   37 type  1   force =     0.00006391    0.00061877   -0.00007687
     atom   38 type  1   force =     0.00005004   -0.00012466   -0.00015559
     atom   39 type  2   force =     0.00018865   -0.00003166   -0.00057211
     atom   40 type  2   force =    -0.00007916   -0.00003408   -0.00032633
     atom   41 type  2   force =     0.00008176    0.00047772   -0.00004312
     atom   42 type  2   force =     0.00004472    0.00037689    0.00074226
     atom   43 type  1   force =    -0.00023443   -0.00013085    0.00010018
     atom   44 type  1   force =     0.00014451    0.00011443    0.00027693
     atom   45 type  2   force =     0.00004652   -0.00004873    0.10216288
     atom   46 type  2   force =    -0.07328824   -0.00009447   -0.02884119
     atom   47 type  2   force =     0.07324095    0.00027934   -0.02887970
     atom   48 type  3   force =     0.00170201    0.00048485    0.00614902
     atom   49 type  4   force =     0.00258621   -0.00116532   -0.01744974
     atom   50 type  5   force =     0.00004050    0.00368763    0.00352292
     atom   51 type  5   force =    -0.00250494   -0.00457224    0.00547936
     atom   52 type  5   force =    -0.00335521    0.00046355    0.00333607
     atom   53 type  3   force =    -0.00014048   -0.00046371    0.00053743
     atom   54 type  5   force =    -0.00022646   -0.00043490   -0.00049243

     Total force =     0.378370     Total SCF correction =     0.000822
  @ DRIVER MODE: Message from server: STATUS
  @ DRIVER MODE: Message from server: GETFORCE
  @ DRIVER MODE: Returning v,forces,stress,ensemble

     Writing output data file ./calc.save/
  @ DRIVER MODE: Message from server: EXIT
  @ DRIVE MODE: Exiting

     General routines

     Parallel routines

   This run was terminated on:   1:41: 6  16Jul2021

   JOB DONE.