     Program PWSCF v.6.7GPU starts on 16Sep2021 at  3:19:42

     R & G space division:  proc/nbgrp/npool/nimage =      10
     Reading input from /storage/home/hcoda1/3/ntian30/research/carbon/CxH_vib/H2O_calc/ads_slab/CH3NNH3H2O_a/out_0033/pw.inp
Warning: card &CELL ignored
Warning: card   CELL_DYNAMICS='IPI', ignored
Warning: card / ignored

     Current dimensions of program PWSCF are:
     Max number of different atomic species (ntypx) = 10
     Max number of k-points (npk) =  40000
     Max angular momentum in pseudopotentials (lmaxx) =  3
     Presently no symmetry can be used with electric field

     Message from routine cell_base_init:
     DEPRECATED: use true lattice parameter, not A to a.u. conversion factor

     IMPORTANT: XC functional enforced from input :
     Exchange-correlation= BEEF-VDW
                           (   1   4  43  14   2   0   0)
     Any further DFT definition will be discarded
     Please, verify this is what you really want

  @ DRIVER MODE: Connecting to
 qe_1139763_2852621.sched-torque.pace.gatech.edu5pnj6ugr_scratch
  using UNIX socket
  @ DRIVER MODE: Message from server: STATUS
  @ DRIVER MODE: Message from server: INIT
  @ DRIVER MODE: Receiving replica           0          -1
  @ DRIVER MODE: Receiving encoded integer          25
  @ DRIVER MODE:  SCF:  T  FORCE:  T  STRESS:  F  VC:  F  ENSEMBLE:  F
  @ DRIVER MODE:  SCF:  T  FORCE:  T  STRESS:  F  VC:  F  ENSEMBLE:  F

     Using Slab Decomposition

     bravais-lattice index     =            0
     lattice parameter (alat)  =       1.8897  a.u.
     unit-cell volume          =    6658.9804 (a.u.)^3
     number of atoms/cell      =           59
     number of atomic types    =            5
     number of electrons       =       406.00
     number of Kohn-Sham states=          213
     kinetic-energy cutoff     =      29.3995  Ry
     charge density cutoff     =     293.9946  Ry
     scf convergence threshold =      7.3E-08
     mixing beta               =       0.0500
     number of iterations used =            8  plain     mixing
     Exchange-correlation= BEEF-VDW
                           (   1   4  43  14   2   0   0)

     celldm(1)=   1.889726  celldm(2)=   0.000000  celldm(3)=   0.000000
     celldm(4)=   0.000000  celldm(5)=   0.000000  celldm(6)=   0.000000

     crystal axes: (cart. coord. in units of alat)
               a(1) = (   6.579727   0.000000   0.000000 )
               a(2) = (  -0.000775   5.961596   0.000000 )
               a(3) = (   0.000000   0.000000  25.155947 )

     reciprocal axes: (cart. coord. in units 2 pi/alat)
               b(1) = (  0.151982  0.000020  0.000000 )
               b(2) = (  0.000000  0.167740  0.000000 )
               b(3) = (  0.000000  0.000000  0.039752 )

     PseudoPot. # 1 for Ti read from file:
     /storage/coda1/p-amedford6/0/shared/rich_project_chbe-medford/medford-share/data/pseudos_module/espresso/nninc/pbe/van/Ti.UPF
     MD5 check sum: 8e4df49b7f0d34bbd5052bf3f5ea0213
     Pseudo is Ultrasoft, Zval = 12.0
     Generated by new atomic code, or converted to UPF format
     Using radial grid of  851 points,  6 beta functions with:
                l(1) =   0
                l(2) =   0
                l(3) =   1
                l(4) =   1
                l(5) =   2
                l(6) =   2
     Q(r) pseudized with  8 coefficients,  rinner =    1.000   1.000   1.000
                                                       1.000   1.000

     PseudoPot. # 2 for O  read from file:
     /storage/coda1/p-amedford6/0/shared/rich_project_chbe-medford/medford-share/data/pseudos_module/espresso/nninc/pbe/van/O.UPF
     MD5 check sum: 78c19812648e8988a0fe644b0f25305e
     Pseudo is Ultrasoft, Zval =  6.0
     Generated by new atomic code, or converted to UPF format
     Using radial grid of  737 points,  4 beta functions with:
                l(1) =   0
                l(2) =   0
                l(3) =   1
                l(4) =   1
     Q(r) pseudized with  8 coefficients,  rinner =    0.800   0.800   0.800

     PseudoPot. # 3 for N  read from file:
     /storage/coda1/p-amedford6/0/shared/rich_project_chbe-medford/medford-share/data/pseudos_module/espresso/nninc/pbe/van/N.UPF
     MD5 check sum: 90d10febe142ad51ac9d5be1deb811c4
     Pseudo is Ultrasoft, Zval =  5.0
     Generated by new atomic code, or converted to UPF format
     Using radial grid of  729 points,  4 beta functions with:
                l(1) =   0
                l(2) =   0
                l(3) =   1
                l(4) =   1
     Q(r) pseudized with  8 coefficients,  rinner =    0.800   0.800   0.800

     PseudoPot. # 4 for C  read from file:
     /storage/coda1/p-amedford6/0/shared/rich_project_chbe-medford/medford-share/data/pseudos_module/espresso/nninc/pbe/van/C.UPF
     MD5 check sum: 1a69bf6b8db32088f5b2163dbdb77a27
     Pseudo is Ultrasoft, Zval =  4.0
     Generated by new atomic code, or converted to UPF format
     Using radial grid of  721 points,  4 beta functions with:
                l(1) =   0
                l(2) =   0
                l(3) =   1
                l(4) =   1
     Q(r) pseudized with  8 coefficients,  rinner =    0.800   0.800   0.800

     PseudoPot. # 5 for H  read from file:
     /storage/coda1/p-amedford6/0/shared/rich_project_chbe-medford/medford-share/data/pseudos_module/espresso/nninc/pbe/van/H.UPF
     MD5 check sum: b5ee9d7bfd3a09ee7748110bda690ff7
     Pseudo is Ultrasoft, Zval =  1.0
     Generated by new atomic code, or converted to UPF format
     Using radial grid of  615 points,  1 beta functions with:
                l(1) =   0
     Q(r) pseudized with  8 coefficients,  rinner =    0.800

     atomic species   valence    mass     pseudopotential
        Ti1           12.00    47.86700     Ti( 1.00)
        O1             6.00    15.99900     O ( 1.00)
        N1             5.00    14.00700     N ( 1.00)
        C1             4.00    12.01100     C ( 1.00)
        H1             1.00     1.00800     H ( 1.00)

     No symmetry found

   Cartesian axes

     site n.     atom                  positions (alat units)
         1           Ti1 tau(   1) = (   0.0004258   2.9801865   6.0000000  )
         2           Ti1 tau(   2) = (   3.2906075   1.4906267   6.0002472  )
         3           O1  tau(   3) = (   0.0006271   0.0005054   7.9858123  )
         4           O1  tau(   4) = (   3.2906025   0.0005020   7.3038282  )
         5           O1  tau(   5) = (   4.5942328   1.4918067   9.2879030  )
         6           O1  tau(   6) = (   1.9868534   1.4903216   9.2879459  )
         7           Ti1 tau(   7) = (   3.2907910   2.8959150   9.1758416  )
         8           Ti1 tau(   8) = (   0.0015273   1.4827037   9.2680791  )
         9           O1  tau(   9) = (   3.2954490   0.0159868  11.2922163  )
        10           O1  tau(  10) = (   0.0116148   5.9584955  10.6183126  )
        11           O1  tau(  11) = (   1.3242731   1.5050266  12.6143764  )
        12           O1  tau(  12) = (   5.3073597   1.5103589  12.6267567  )
        13           Ti1 tau(  13) = (   6.4831477   3.0011104  12.7364612  )
        14           Ti1 tau(  14) = (   3.1751638   1.4975352  12.4748964  )
        15           O1  tau(  15) = (   0.0212859   5.9607631  14.5987152  )
        16           O1  tau(  16) = (   3.3058086   0.0238703  13.8910224  )
        17           O1  tau(  17) = (   4.5539421   1.5574750  15.9960573  )
        18           O1  tau(  18) = (   2.0731809   1.5597727  15.9888445  )
        19           Ti1 tau(  19) = (   3.3176354   3.0289328  15.6523405  )
        20           Ti1 tau(  20) = (   0.0198791   1.6227889  16.0606591  )
        21           O1  tau(  21) = (   3.2904802   0.0005063   4.7018136  )
        22           O1  tau(  22) = (   0.0290054   0.0533443  17.2129705  )
        23           O1  tau(  23) = (   1.3043587   1.4918075   6.0039043  )
        24           O1  tau(  24) = (   5.2767064   1.4903225   6.0039473  )
        25           Ti1 tau(  25) = (   0.0000382   5.9609847   6.0000000  )
        26           Ti1 tau(  26) = (   3.2902200   4.4714249   6.0002472  )
        27           O1  tau(  27) = (   0.0002396   2.9813036   7.9858123  )
        28           O1  tau(  28) = (   3.2902150   2.9813002   7.3038282  )
        29           O1  tau(  29) = (   4.5938453   4.4726049   9.2879030  )
        30           O1  tau(  30) = (   1.9864658   4.4711199   9.2879459  )
        31           Ti1 tau(  31) = (   3.2891106   5.8743827   9.1763621  )
        32           Ti1 tau(  32) = (   0.0006254   4.4649316   9.2693709  )
        33           O1  tau(  33) = (   3.2918316   2.9938763  11.2915017  )
        34           O1  tau(  34) = (   0.0092240   2.9805883  10.6323155  )
        35           O1  tau(  35) = (   1.3226278   4.4784642  12.6110361  )
        36           O1  tau(  36) = (   5.3078083   4.4770455  12.6250823  )
        37           Ti1 tau(  37) = (   6.5141033   0.0190828  12.7620745  )
        38           Ti1 tau(  38) = (   3.1722404   4.4939287  12.4712879  )
        39           O1  tau(  39) = (   0.0035410   2.9850241  14.6487316  )
        40           O1  tau(  40) = (   3.3118331   3.0109266  13.8519036  )
        41           O1  tau(  41) = (   4.5522870   4.5059159  16.0259181  )
        42           O1  tau(  42) = (   2.0778134   4.5048723  16.0185459  )
        43           Ti1 tau(  43) = (   3.3116469   0.0596163  15.7453941  )
        44           Ti1 tau(  44) = (   0.0183239   4.5967015  16.1059876  )
        45           O1  tau(  45) = (   3.2900926   2.9813045   4.7018136  )
        46           O1  tau(  46) = (   1.3039711   4.4726057   6.0039043  )
        47           O1  tau(  47) = (   5.2763189   4.4711207   6.0039473  )
        48           N1  tau(  48) = (   0.0600715   3.0265251  17.3188267  )
        49           N1  tau(  49) = (   6.2826239   2.5295367  22.6224490  )
        50           C1  tau(  50) = (   0.2859397   3.0149959  18.7399364  )
        51           H1  tau(  51) = (   0.1411154   4.0060466  19.1894648  )
        52           H1  tau(  52) = (   6.1913215   2.3105648  19.2421896  )
        53           H1  tau(  53) = (   1.3125146   2.6768920  18.9691123  )
        54           H1  tau(  54) = (   6.1000088   3.2491606  23.3142794  )
        55           H1  tau(  55) = (   0.1456284   1.7586669  23.1118534  )
        56           H1  tau(  56) = (   0.3974265   2.9048463  21.9856970  )
        57           O1  tau(  57) = (   3.2908421   0.1144680  18.1630233  )
        58           H1  tau(  58) = (   4.0679411   5.5688996  18.4486002  )
        59           H1  tau(  59) = (   2.5060966   5.5711546  18.4327789  )

     number of k points=    10  Fermi-Dirac smearing, width (Ry)=  0.0073
                       cart. coord. in units 2pi/alat
        k(    1) = (   0.0000000   0.0000000   0.0000000), wk =   0.1250000
        k(    2) = (   0.0000000   0.0419351   0.0000000), wk =   0.2500000
        k(    3) = (   0.0000000  -0.0838702   0.0000000), wk =   0.1250000
        k(    4) = (   0.0379955   0.0000049   0.0000000), wk =   0.2500000
        k(    5) = (   0.0379955   0.0419400   0.0000000), wk =   0.2500000
        k(    6) = (   0.0379955  -0.0838652   0.0000000), wk =   0.2500000
        k(    7) = (   0.0379955  -0.0419301   0.0000000), wk =   0.2500000
        k(    8) = (  -0.0759910  -0.0000099   0.0000000), wk =   0.1250000
        k(    9) = (  -0.0759910   0.0419252   0.0000000), wk =   0.2500000
        k(   10) = (  -0.0759910  -0.0838800   0.0000000), wk =   0.1250000

     Initial potential from superposition of free atoms

     starting charge  389.99912, renormalised to  406.00000

     negative rho (up, down):  6.916E-03 0.000E+00

     %%%%%%%%%%%%%%%%%%%%%%%%%%%%%%%%%%%%%%%%%%%%%%%%%%%%%%%%%%%%%%%%%%%%%%%%
     %                                                                      %
     % You are using vdW-DF, which was implemented by the Thonhauser group. %
     % Please cite the following two papers that made this development      %
     % possible and the two reviews that describe the various versions:     %
     %                                                                      %
     %   T. Thonhauser et al., PRL 115, 136402 (2015).                      %
     %   T. Thonhauser et al., PRB 76, 125112 (2007).                       %
     %   K. Berland et al., Rep. Prog. Phys. 78, 066501 (2015).             %
     %   D.C. Langreth et al., J. Phys.: Condens. Matter 21, 084203 (2009). %
     %                                                                      %
     %                                                                      %
     % If you are calculating the stress with vdW-DF, please also cite:     %
     %                                                                      %
     %   R. Sabatini et al., J. Phys.: Condens. Matter 24, 424209 (2012).   %
     %                                                                      %
     %%%%%%%%%%%%%%%%%%%%%%%%%%%%%%%%%%%%%%%%%%%%%%%%%%%%%%%%%%%%%%%%%%%%%%%%

     Adding external electric field

     Computed dipole along edir(3) :
        Dipole              -16.2336 Ry au,        -41.2616 Debye
        Dipole field         -0.0306 Ry au,

        Potential amp.        2.8398 Ry
        Total length         46.3494 bohr

     Starting wfcs are  308 atomic wfcs
  @ DRIVER MODE: Message from server: STATUS
  @ DRIVER MODE: Message from server: POSDATA
  @ DRIVER MODE: Reading and sharing cell
  @ DRIVER MODE: Reading and sharing positions
  @ DRIVER MODE: Received positions

     Self-consistent Calculation

     iteration #  1     ecut=    29.40 Ry     beta= 0.05
     Davidson diagonalization with overlap
     c_bands:  2 eigenvalues not converged
     c_bands:  3 eigenvalues not converged
     c_bands:  5 eigenvalues not converged
     c_bands:  3 eigenvalues not converged
     c_bands:  3 eigenvalues not converged
     c_bands:  3 eigenvalues not converged
     c_bands:  1 eigenvalues not converged
     c_bands:  5 eigenvalues not converged
     c_bands:  3 eigenvalues not converged
     ethr =  1.00E-05,  avg # of iterations = 20.6

[...]

     total energy              =   -2253.47512681 Ry
     estimated scf accuracy    <    8262.98233423 Ry

     iteration #  2     ecut=    29.40 Ry     beta= 0.05
     Davidson diagonalization with overlap
     ethr =  1.00E-02,  avg # of iterations = 26.9

[...]

     iteration # 58     ecut=    29.40 Ry     beta= 0.05
     Davidson diagonalization with overlap
     c_bands:  1 eigenvalues not converged
     c_bands:  1 eigenvalues not converged
     ethr =  2.27E-06,  avg # of iterations = 13.0

[...]

     total energy              =   -2977.74438514 Ry
     estimated scf accuracy    <       0.00000010 Ry

     iteration # 88     ecut=    29.40 Ry     beta= 0.05
     Davidson diagonalization with overlap
     ethr =  2.38E-11,  avg # of iterations =  5.7

     negative rho (up, down):  8.781E-03 0.000E+00

     Adding external electric field

     Computed dipole along edir(3) :
        Dipole                0.7651 Ry au,          1.9447 Debye
        Dipole field          0.0014 Ry au,

        Potential amp.       -0.1338 Ry
        Total length         46.3494 bohr

     End of self-consistent calculation

          k = 0.0000 0.0000 0.0000 ( 18029 PWs)   bands (ev):

   -56.2614 -56.2278 -55.3787 -55.3448 -55.3364 -55.3015 -55.1539 -55.1186
   -55.0321 -54.9113 -54.8933 -54.8920 -54.8774 -54.8071 -54.3914 -54.3418
   -32.6881 -32.5357 -32.5076 -32.4377 -32.3467 -32.3142 -31.8465 -31.8187
   -31.6893 -31.6445 -31.5957 -31.5778 -31.5477 -31.5385 -31.5095 -31.5045
   -31.4859 -31.4796 -31.4577 -31.4429 -31.4299 -31.3808 -31.3703 -31.3316
   -31.3191 -31.3022 -31.2938 -31.2802 -31.2564 -31.2554 -31.2508 -31.2266
   -31.1322 -31.1213 -31.0818 -31.0712 -31.0439 -31.0382 -31.0299 -31.0113
   -30.9806 -30.9272 -30.9060 -30.6350 -30.6127 -30.5817 -30.5608 -30.4520
   -18.4464 -16.4172 -15.9512 -15.7081 -15.6181 -15.5351 -15.4961 -15.4521
   -15.3007 -15.2326 -15.2099 -15.2097 -15.1392 -14.9911 -14.9436 -14.8457
   -14.7523 -14.6175 -14.6004 -14.5668 -14.5497 -14.5165 -14.5096 -14.4579
   -14.2943 -14.2587 -14.2103 -14.1478 -14.0621 -14.0402 -13.8377 -13.4098
   -13.3001 -12.6433  -7.4443  -6.2368  -4.1063  -4.0858  -3.9846  -3.4509
    -3.1819  -3.1539  -3.0254  -3.0209  -2.9753  -2.8388  -2.8308  -2.7555
    -2.7301  -2.6970  -2.6167  -2.5669  -2.5350  -2.4452  -2.4325  -2.4126
    -2.4004  -2.3836  -2.2621  -2.2206  -2.1685  -2.0644  -1.9565  -1.9138
    -1.8866  -1.8425  -1.8046  -1.7572  -1.7454  -1.7306  -1.7236  -1.6130
    -1.4981  -1.4657  -1.4508  -1.4042  -1.3866  -1.3771  -1.3557  -1.2707
    -1.1611  -1.0672  -0.9998  -0.9881  -0.9200  -0.9121  -0.8531  -0.7375
    -0.6765  -0.6723  -0.6558  -0.5521  -0.5258  -0.4546  -0.3919  -0.3337
    -0.2789  -0.2160  -0.1660  -0.1431  -0.1303  -0.0316   0.0401   0.0634
     0.1145   0.1243   0.1326   0.1539   0.2498   0.2860   0.3594   0.4044
     0.4405   0.4845   0.5673   0.6180   0.6856   0.7353   0.7584   0.8198
     0.8736   0.9288   1.0240   1.0729   1.0786   1.0871   1.1102   1.1703
     1.1841   1.2601   1.3433   1.3588   1.4308   1.4994   1.6603   1.6995
     1.9471   2.0206   2.6480   3.0158   3.1770   3.4722   3.6619   3.7993
     3.9949   4.0055   4.0125   4.2382   4.2620

[...]

          k = 0.0380-0.0419 0.0000 ( 17876 PWs)   bands (ev):

[...]

          k =-0.0760-0.0000 0.0000 ( 17886 PWs)   bands (ev):

[...]

          k =-0.0760-0.0839 0.0000 ( 17948 PWs)   bands (ev):

   -56.2447 -56.2442 -55.3637 -55.3594 -55.3239 -55.3142 -55.1373 -55.1350
   -55.0298 -54.8944 -54.8942 -54.8941 -54.8897 -54.8107 -54.3842 -54.3488
   -32.5216 -32.5212 -32.5051 -32.5048 -32.3909 -32.3904 -31.6702 -31.6643
   -31.6545 -31.6470 -31.5707 -31.5557 -31.5537 -31.5494 -31.5432 -31.5416
   -31.5358 -31.5271 -31.4954 -31.4789 -31.3829 -31.3808 -31.3471 -31.3414
   -31.3224 -31.2861 -31.2479 -31.2397 -31.2396 -31.2393 -31.2148 -31.1929
   -31.1501 -31.1191 -31.1189 -31.1159 -31.0931 -31.0800 -31.0799 -31.0655
   -31.0489 -31.0135 -30.7667 -30.7041 -30.6105 -30.5863 -30.5687 -30.5226
   -18.4455 -15.7678 -15.7659 -15.7307 -15.7300 -15.4630 -15.4597 -15.3665
   -15.3612 -15.2269 -15.1099 -15.0081 -14.9953 -14.9599 -14.9328 -14.8210
   -14.8002 -14.7911 -14.7810 -14.6697 -14.6495 -14.6043 -14.5928 -14.5766
   -14.5664 -14.2724 -14.2593 -14.1563 -14.1325 -14.0395 -13.9910 -13.4037
   -13.4037 -12.6619  -7.4380  -6.2293  -4.1163  -4.0875  -2.8643  -2.8573
    -2.8202  -2.8027  -2.8019  -2.7548  -2.6376  -2.5967  -2.5958  -2.5876
    -2.5082  -2.4464  -2.4385  -2.3673  -2.3341  -2.3148  -2.2567  -2.2466
    -2.1807  -2.1543  -2.1461  -2.1296  -2.1059  -2.1047  -2.0090  -1.9463
    -1.8945  -1.8910  -1.8240  -1.8057  -1.7417  -1.7207  -1.7091  -1.6772
    -1.6357  -1.6123  -1.5813  -1.5475  -1.5066  -1.4471  -1.2799  -1.2709
    -1.2617  -1.2403  -1.1150  -1.1084  -1.0768  -1.0466  -1.0408  -0.9673
    -0.9173  -0.8822  -0.8250  -0.7412  -0.7188  -0.6172  -0.5659  -0.5197
    -0.4636  -0.3577  -0.3400  -0.3295  -0.3200  -0.2901  -0.2236  -0.1947
    -0.1787  -0.0583  -0.0388   0.0142   0.0356   0.0918   0.1181   0.1825
     0.2097   0.2812   0.2931   0.3320   0.4055   0.4872   0.5209   0.5700
     0.5747   0.8506   0.9245   1.0545   1.0636   1.1221   1.1806   1.2523
     1.3117   1.3441   1.3710   1.4945   1.4988   1.5081   1.5086   1.5799
     1.5849   1.9248   2.5253   3.5917   3.5919   3.6585   3.6592   3.9798
     3.9861   4.0930   4.1033   4.2641   4.2792

     the Fermi energy is     2.8439 ev

!    total energy              =   -2977.74439543 Ry
     estimated scf accuracy    <       0.00000006 Ry
     smearing contrib. (-TS)   =      -0.00446250 Ry
     internal energy E=F+TS    =   -2977.73993293 Ry

     The total energy is F=E-TS. E is the sum of the following terms:
     one-electron contribution =  -22875.92345005 Ry
     hartree contribution      =   11535.66687194 Ry
     xc contribution           =    -496.32438859 Ry
     ewald contribution        =    8858.83992910 Ry
     electric field correction =       0.00110467 Ry

     convergence has been achieved in  88 iterations

     Forces acting on atoms (cartesian axes, Ry/au):

     atom    1 type  1   force =    -0.00003644   -0.00046192    0.12450597
     atom    2 type  1   force =    -0.00008516   -0.00048000   -0.15979465
     atom    3 type  2   force =     0.00019141   -0.00024475   -0.06790945
     atom    4 type  2   force =    -0.00000654   -0.00011822    0.02622725
     atom    5 type  2   force =    -0.01448443    0.00181930   -0.00989455
     atom    6 type  2   force =     0.01626424    0.00224362   -0.01023960
     atom    7 type  1   force =     0.00071262   -0.00387624    0.02887608
     atom    8 type  1   force =    -0.00034760   -0.00439935    0.10952480
     atom    9 type  2   force =     0.00023777   -0.00029186   -0.00049285
     atom   10 type  2   force =    -0.00231449    0.00256410   -0.07332509
     atom   11 type  2   force =    -0.00002786   -0.00033363   -0.00000000
     atom   12 type  2   force =    -0.00015580   -0.00082371    0.00002308
     atom   13 type  1   force =     0.00106152   -0.00040724    0.00008901
     atom   14 type  1   force =    -0.00064199    0.00064730   -0.00012184
     atom   15 type  2   force =    -0.00029202   -0.00038815   -0.00072310
     atom   16 type  2   force =    -0.00001311   -0.00010989    0.00069040
     atom   17 type  2   force =     0.00018787   -0.00091350   -0.00020751
     atom   18 type  2   force =     0.00046060   -0.00052683    0.00013240
     atom   19 type  1   force =    -0.00114381   -0.00007891   -0.00098489
     atom   20 type  1   force =     0.00081996   -0.00017744   -0.00057660
     atom   21 type  2   force =     0.00004541   -0.00003735    0.09944036
     atom   22 type  2   force =     0.00003235   -0.00022662   -0.00037166
     atom   23 type  2   force =    -0.07967280   -0.00005934   -0.03246669
     atom   24 type  2   force =     0.07951553    0.00037964   -0.03251463
     atom   25 type  1   force =    -0.00000410   -0.00057261    0.12416749
     atom   26 type  1   force =    -0.00008506   -0.00062949   -0.15994296
     atom   27 type  2   force =     0.00030015   -0.00036362   -0.06696025
     atom   28 type  2   force =    -0.00001999    0.00015035    0.02514566
     atom   29 type  2   force =    -0.01510804    0.00192612   -0.00982883
     atom   30 type  2   force =     0.01678538    0.00242635   -0.01014556
     atom   31 type  1   force =     0.00074283   -0.00076039    0.02405611
     atom   32 type  1   force =    -0.00028081    0.00204348    0.11014546
     atom   33 type  2   force =     0.00007685    0.00029290    0.00060408
     atom   34 type  2   force =    -0.00193769    0.00199893   -0.07163618
     atom   35 type  2   force =    -0.00002077    0.00034171   -0.00001193
     atom   36 type  2   force =    -0.00053698    0.00060754   -0.00005537
     atom   37 type  1   force =     0.00119765    0.00043421    0.00027668
     atom   38 type  1   force =    -0.00053504   -0.00088201   -0.00024295
     atom   39 type  2   force =    -0.00027401   -0.00014999    0.00090938
     atom   40 type  2   force =     0.00018110   -0.00013124    0.00024955
     atom   41 type  2   force =     0.00103846    0.00016076    0.00015356
     atom   42 type  2   force =    -0.00050120   -0.00022867    0.00051954
     atom   43 type  1   force =    -0.00160590   -0.00000547   -0.00032465
     atom   44 type  1   force =     0.00091961   -0.00013348   -0.00043787
     atom   45 type  2   force =     0.00002058   -0.00004908    0.09940077
     atom   46 type  2   force =    -0.07968862    0.00000440   -0.03248003
     atom   47 type  2   force =     0.07953888    0.00043885   -0.03250382
     atom   48 type  3   force =    -0.00088304   -0.00066466   -0.00024021
     atom   49 type  3   force =    -0.00034812   -0.00049007    0.00130060
     atom   50 type  4   force =     0.00221027   -0.00258000    0.00035127
     atom   51 type  5   force =     0.00082486    0.00006274    0.00043356
     atom   52 type  5   force =    -0.00081192   -0.00031454    0.00061372
     atom   53 type  5   force =    -0.00220298    0.00238206   -0.00029003
     atom   54 type  5   force =     0.00006351   -0.00023127   -0.00059468
     atom   55 type  5   force =     0.00003317    0.00031221   -0.00029463
     atom   56 type  5   force =     0.00029898    0.00036642   -0.00182407
     atom   57 type  2   force =     0.00158781   -0.00046409   -0.00039790
     atom   58 type  5   force =    -0.00048716    0.00090567    0.00002801
     atom   59 type  5   force =    -0.00079591    0.00009698   -0.00002973

     Total force =     0.423511     Total SCF correction =     0.000884
  @ DRIVER MODE: Message from server: STATUS
  @ DRIVER MODE: Message from server: GETFORCE
  @ DRIVER MODE: Returning v,forces,stress,ensemble

     Writing output data file ./calc.save/
  @ DRIVER MODE: Message from server: EXIT
  @ DRIVE MODE: Exiting

     General routines

     Parallel routines

   This run was terminated on:   3:43:46  16Sep2021

   JOB DONE.