     Program PWSCF v.6.7GPU starts on 26Sep2021 at  3:59:51

     R & G space division:  proc/nbgrp/npool/nimage =       8
     Reading input from /storage/home/hcoda1/3/ntian30/research/carbon/CxH_vib/H2O_calc/ads_slab/CH3ON2H2O_a/out_0027/pw.inp
Warning: card &CELL ignored
Warning: card   CELL_DYNAMICS='IPI', ignored
Warning: card / ignored

     Current dimensions of program PWSCF are:
     Max number of different atomic species (ntypx) = 10
     Max number of k-points (npk) =  40000
     Max angular momentum in pseudopotentials (lmaxx) =  3
     Presently no symmetry can be used with electric field

     Message from routine cell_base_init:
     DEPRECATED: use true lattice parameter, not A to a.u. conversion factor

     IMPORTANT: XC functional enforced from input :
     Exchange-correlation= BEEF-VDW
                           (   1   4  43  14   2   0   0)
     Any further DFT definition will be discarded
     Please, verify this is what you really want

  @ DRIVER MODE: Connecting to
 qe_1139763_2971672.sched-torque.pace.gatech.edulzlo9ntx_scratch
  using UNIX socket
  @ DRIVER MODE: Message from server: STATUS
  @ DRIVER MODE: Message from server: INIT
  @ DRIVER MODE: Receiving replica           0          -1
  @ DRIVER MODE: Receiving encoded integer          25
  @ DRIVER MODE:  SCF:  T  FORCE:  T  STRESS:  F  VC:  F  ENSEMBLE:  F
  @ DRIVER MODE:  SCF:  T  FORCE:  T  STRESS:  F  VC:  F  ENSEMBLE:  F

     Using Slab Decomposition

     bravais-lattice index     =            0
     lattice parameter (alat)  =       1.8897  a.u.
     unit-cell volume          =    6658.9804 (a.u.)^3
     number of atoms/cell      =           57
     number of atomic types    =            5
     number of electrons       =       409.00
     number of Kohn-Sham states=          214
     kinetic-energy cutoff     =      29.3995  Ry
     charge density cutoff     =     293.9946  Ry
     scf convergence threshold =      7.3E-08
     mixing beta               =       0.0500
     number of iterations used =            8  plain     mixing
     Exchange-correlation= BEEF-VDW
                           (   1   4  43  14   2   0   0)

     celldm(1)=   1.889726  celldm(2)=   0.000000  celldm(3)=   0.000000
     celldm(4)=   0.000000  celldm(5)=   0.000000  celldm(6)=   0.000000

     crystal axes: (cart. coord. in units of alat)
               a(1) = (   6.579727   0.000000   0.000000 )
               a(2) = (  -0.000775   5.961596   0.000000 )
               a(3) = (   0.000000   0.000000  25.155947 )

     reciprocal axes: (cart. coord. in units 2 pi/alat)
               b(1) = (  0.151982  0.000020  0.000000 )
               b(2) = (  0.000000  0.167740  0.000000 )
               b(3) = (  0.000000  0.000000  0.039752 )

     PseudoPot. # 1 for Ti read from file:
     /storage/coda1/p-amedford6/0/shared/rich_project_chbe-medford/medford-share/data/pseudos_module/espresso/nninc/pbe/van/Ti.UPF
     MD5 check sum: 8e4df49b7f0d34bbd5052bf3f5ea0213
     Pseudo is Ultrasoft, Zval = 12.0
     Generated by new atomic code, or converted to UPF format
     Using radial grid of  851 points,  6 beta functions with:
                l(1) =   0
                l(2) =   0
                l(3) =   1
                l(4) =   1
                l(5) =   2
                l(6) =   2
     Q(r) pseudized with  8 coefficients,  rinner =    1.000   1.000   1.000
                                                       1.000   1.000

     PseudoPot. # 2 for O  read from file:
     /storage/coda1/p-amedford6/0/shared/rich_project_chbe-medford/medford-share/data/pseudos_module/espresso/nninc/pbe/van/O.UPF
     MD5 check sum: 78c19812648e8988a0fe644b0f25305e
     Pseudo is Ultrasoft, Zval =  6.0
     Generated by new atomic code, or converted to UPF format
     Using radial grid of  737 points,  4 beta functions with:
                l(1) =   0
                l(2) =   0
                l(3) =   1
                l(4) =   1
     Q(r) pseudized with  8 coefficients,  rinner =    0.800   0.800   0.800

     PseudoPot. # 3 for C  read from file:
     /storage/coda1/p-amedford6/0/shared/rich_project_chbe-medford/medford-share/data/pseudos_module/espresso/nninc/pbe/van/C.UPF
     MD5 check sum: 1a69bf6b8db32088f5b2163dbdb77a27
     Pseudo is Ultrasoft, Zval =  4.0
     Generated by new atomic code, or converted to UPF format
     Using radial grid of  721 points,  4 beta functions with:
                l(1) =   0
                l(2) =   0
                l(3) =   1
                l(4) =   1
     Q(r) pseudized with  8 coefficients,  rinner =    0.800   0.800   0.800

     PseudoPot. # 4 for H  read from file:
     /storage/coda1/p-amedford6/0/shared/rich_project_chbe-medford/medford-share/data/pseudos_module/espresso/nninc/pbe/van/H.UPF
     MD5 check sum: b5ee9d7bfd3a09ee7748110bda690ff7
     Pseudo is Ultrasoft, Zval =  1.0
     Generated by new atomic code, or converted to UPF format
     Using radial grid of  615 points,  1 beta functions with:
                l(1) =   0
     Q(r) pseudized with  8 coefficients,  rinner =    0.800

     PseudoPot. # 5 for N  read from file:
     /storage/coda1/p-amedford6/0/shared/rich_project_chbe-medford/medford-share/data/pseudos_module/espresso/nninc/pbe/van/N.UPF
     MD5 check sum: 90d10febe142ad51ac9d5be1deb811c4
     Pseudo is Ultrasoft, Zval =  5.0
     Generated by new atomic code, or converted to UPF format
     Using radial grid of  729 points,  4 beta functions with:
                l(1) =   0
                l(2) =   0
                l(3) =   1
                l(4) =   1
     Q(r) pseudized with  8 coefficients,  rinner =    0.800   0.800   0.800

     atomic species   valence    mass     pseudopotential
        Ti1           12.00    47.86700     Ti( 1.00)
        O1             6.00    15.99900     O ( 1.00)
        C1             4.00    12.01100     C ( 1.00)
        H1             1.00     1.00800     H ( 1.00)
        N1             5.00    14.00700     N ( 1.00)

     No symmetry found

   Cartesian axes

     site n.     atom                  positions (alat units)
         1           Ti1 tau(   1) = (   0.0004258   2.9801865   6.0000000  )
         2           Ti1 tau(   2) = (   3.2906075   1.4906267   6.0002472  )
         3           O1  tau(   3) = (   0.0006271   0.0005054   7.9858123  )
         4           O1  tau(   4) = (   3.2906025   0.0005020   7.3038282  )
         5           O1  tau(   5) = (   4.5942328   1.4918067   9.2879030  )
         6           O1  tau(   6) = (   1.9868534   1.4903216   9.2879459  )
         7           Ti1 tau(   7) = (   3.3113259   3.0354369   9.1618307  )
         8           Ti1 tau(   8) = (   0.0141821   1.6139659   9.3625064  )
         9           O1  tau(   9) = (   3.2964399   0.0287090  11.3517035  )
        10           O1  tau(  10) = (   0.0046459   0.0167322  10.6079620  )
        11           O1  tau(  11) = (   1.2916403   1.5142126  12.6509924  )
        12           O1  tau(  12) = (   5.2954765   1.5212855  12.6445515  )
        13           Ti1 tau(  13) = (   0.0303381   3.0181167  12.7741416  )
        14           Ti1 tau(  14) = (   3.3376880   1.5190318  12.5019279  )
        15           O1  tau(  15) = (   6.5702980   0.0162101  14.7136675  )
        16           O1  tau(  16) = (   3.3118210   0.0215951  13.9605728  )
        17           O1  tau(  17) = (   4.5586303   1.5408398  16.0643691  )
        18           O1  tau(  18) = (   2.0376984   1.5397913  16.0346728  )
        19           Ti1 tau(  19) = (   3.2806018   3.0126274  15.6982083  )
        20           Ti1 tau(  20) = (   0.0204579   1.3876160  16.0921805  )
        21           O1  tau(  21) = (   3.2904802   0.0005063   4.7018136  )
        22           O1  tau(  22) = (   0.0362274   0.0182013  17.2505027  )
        23           O1  tau(  23) = (   1.3043587   1.4918075   6.0039043  )
        24           O1  tau(  24) = (   5.2767064   1.4903225   6.0039473  )
        25           Ti1 tau(  25) = (   0.0000382   5.9609847   6.0000000  )
        26           Ti1 tau(  26) = (   3.2902200   4.4714249   6.0002472  )
        27           O1  tau(  27) = (   0.0002396   2.9813036   7.9858123  )
        28           O1  tau(  28) = (   3.2902150   2.9813002   7.3038282  )
        29           O1  tau(  29) = (   4.5938453   4.4726049   9.2879030  )
        30           O1  tau(  30) = (   1.9864658   4.4711199   9.2879459  )
        31           Ti1 tau(  31) = (   3.2918133   0.0584897   9.1554610  )
        32           Ti1 tau(  32) = (   0.0176696   4.5429683   9.2683582  )
        33           O1  tau(  33) = (   3.2944385   3.0046939  11.3531965  )
        34           O1  tau(  34) = (   0.0071923   2.9964285  10.5824339  )
        35           O1  tau(  35) = (   1.2923070   4.5060354  12.6395470  )
        36           O1  tau(  36) = (   5.2930342   4.4972821  12.6335129  )
        37           Ti1 tau(  37) = (   0.0360028   0.0369787  12.5252624  )
        38           Ti1 tau(  38) = (   3.3378333   4.5109478  12.5016189  )
        39           O1  tau(  39) = (   0.0182598   3.0415135  14.6926035  )
        40           O1  tau(  40) = (   3.2973286   3.0139918  13.9115332  )
        41           O1  tau(  41) = (   4.5518717   4.4752506  16.0920674  )
        42           O1  tau(  42) = (   2.0385343   4.4722040  16.0556704  )
        43           Ti1 tau(  43) = (   3.3273276   0.0437280  15.7880462  )
        44           Ti1 tau(  44) = (   0.0148993   4.5306414  15.9319406  )
        45           O1  tau(  45) = (   3.2900926   2.9813045   4.7018136  )
        46           O1  tau(  46) = (   1.3039711   4.4726057   6.0039043  )
        47           O1  tau(  47) = (   5.2763189   4.4711207   6.0039473  )
        48           C1  tau(  48) = (   6.0619278   3.0088867  18.6555636  )
        49           O1  tau(  49) = (   6.5788924   2.9994598  17.3400993  )
        50           H1  tau(  50) = (   4.9713474   2.8828304  18.6515055  )
        51           H1  tau(  51) = (   6.4909130   2.1836263  19.2313859  )
        52           H1  tau(  52) = (   6.3070107   3.9463896  19.1453893  )
        53           N1  tau(  53) = (   5.9950546   3.0301018  22.7159517  )
        54           N1  tau(  54) = (   5.2276613   3.1827328  21.9368001  )
        55           O1  tau(  55) = (   3.1818816   0.0591848  18.2205797  )
        56           H1  tau(  56) = (   3.8437189   5.3938241  18.5518935  )
        57           H1  tau(  57) = (   2.3086839   5.6188137  18.3735615  )

     number of k points=    10  Fermi-Dirac smearing, width (Ry)=  0.0073
                       cart. coord. in units 2pi/alat
        k(    1) = (   0.0000000   0.0000000   0.0000000), wk =   0.1250000
        k(    2) = (   0.0000000   0.0419351   0.0000000), wk =   0.2500000
        k(    3) = (   0.0000000  -0.0838702   0.0000000), wk =   0.1250000
        k(    4) = (   0.0379955   0.0000049   0.0000000), wk =   0.2500000
        k(    5) = (   0.0379955   0.0419400   0.0000000), wk =   0.2500000
        k(    6) = (   0.0379955  -0.0838652   0.0000000), wk =   0.2500000
        k(    7) = (   0.0379955  -0.0419301   0.0000000), wk =   0.2500000
        k(    8) = (  -0.0759910  -0.0000099   0.0000000), wk =   0.1250000
        k(    9) = (  -0.0759910   0.0419252   0.0000000), wk =   0.2500000
        k(   10) = (  -0.0759910  -0.0838800   0.0000000), wk =   0.1250000

     Initial potential from superposition of free atoms

     starting charge  392.99914, renormalised to  409.00000

     negative rho (up, down):  9.747E-03 0.000E+00

     %%%%%%%%%%%%%%%%%%%%%%%%%%%%%%%%%%%%%%%%%%%%%%%%%%%%%%%%%%%%%%%%%%%%%%%%
     %                                                                      %
     % You are using vdW-DF, which was implemented by the Thonhauser group. %
     % Please cite the following two papers that made this development      %
     % possible and the two reviews that describe the various versions:     %
     %                                                                      %
     %   T. Thonhauser et al., PRL 115, 136402 (2015).                      %
     %   T. Thonhauser et al., PRB 76, 125112 (2007).                       %
     %   K. Berland et al., Rep. Prog. Phys. 78, 066501 (2015).             %
     %   D.C. Langreth et al., J. Phys.: Condens. Matter 21, 084203 (2009). %
     %                                                                      %
     %                                                                      %
     % If you are calculating the stress with vdW-DF, please also cite:     %
     %                                                                      %
     %   R. Sabatini et al., J. Phys.: Condens. Matter 24, 424209 (2012).   %
     %                                                                      %
     %%%%%%%%%%%%%%%%%%%%%%%%%%%%%%%%%%%%%%%%%%%%%%%%%%%%%%%%%%%%%%%%%%%%%%%%

     Adding external electric field

     Computed dipole along edir(3) :
        Dipole              -18.5715 Ry au,        -47.2041 Debye
        Dipole field         -0.0350 Ry au,

        Potential amp.        3.2488 Ry
        Total length         46.3494 bohr

     Starting wfcs are  309 atomic wfcs
  @ DRIVER MODE: Message from server: STATUS
  @ DRIVER MODE: Message from server: POSDATA
  @ DRIVER MODE: Reading and sharing cell
  @ DRIVER MODE: Reading and sharing positions
  @ DRIVER MODE: Received positions

     Self-consistent Calculation

     iteration #  1     ecut=    29.40 Ry     beta= 0.05
     Davidson diagonalization with overlap
     c_bands:  3 eigenvalues not converged
     c_bands:  2 eigenvalues not converged
     c_bands:  2 eigenvalues not converged
     c_bands:  5 eigenvalues not converged
     c_bands:  5 eigenvalues not converged
     c_bands:  5 eigenvalues not converged
     c_bands:  1 eigenvalues not converged
     c_bands:  3 eigenvalues not converged
     ethr =  1.00E-05,  avg # of iterations = 28.5

[...]

     total energy              =   -2113.09161416 Ry
     estimated scf accuracy    <   10297.62267887 Ry

     iteration #  2     ecut=    29.40 Ry     beta= 0.05
     Davidson diagonalization with overlap
     ethr =  1.00E-02,  avg # of iterations = 30.9

[...]

     iteration # 86     ecut=    29.40 Ry     beta= 0.05
     Davidson diagonalization with overlap
     c_bands:  1 eigenvalues not converged
     ethr =  5.29E-10,  avg # of iterations = 12.8

[...]

     total energy              =   -3006.52124326 Ry
     estimated scf accuracy    <       0.00000029 Ry

     iteration # 94     ecut=    29.40 Ry     beta= 0.05
     Davidson diagonalization with overlap
     ethr =  5.79E-11,  avg # of iterations =  6.9

     negative rho (up, down):  1.093E-02 0.000E+00

     Adding external electric field

     Computed dipole along edir(3) :
        Dipole                1.0000 Ry au,          2.5417 Debye
        Dipole field          0.0019 Ry au,

        Potential amp.       -0.1749 Ry
        Total length         46.3494 bohr

     End of self-consistent calculation

          k = 0.0000 0.0000 0.0000 ( 18029 PWs)   bands (ev):

   -55.2843 -55.2497 -55.2484 -55.2134 -55.1906 -55.1752 -55.1675 -55.1319
   -55.0811 -55.0630 -55.0474 -55.0396 -55.0057 -54.9517 -54.2914 -54.2573
   -31.8067 -31.7536 -31.6764 -31.6446 -31.6230 -31.5761 -31.5588 -31.5552
   -31.5189 -31.5139 -31.4772 -31.4635 -31.4570 -31.4480 -31.4440 -31.4311
   -31.4248 -31.3888 -31.3836 -31.3758 -31.3715 -31.3526 -31.3489 -31.3399
   -31.3321 -31.3258 -31.3102 -31.2886 -31.2783 -31.2726 -31.2695 -31.2621
   -31.2590 -31.2434 -31.2307 -31.2206 -31.2189 -31.1841 -31.1692 -31.1488
   -31.1364 -31.1351 -30.7006 -30.6049 -30.5825 -30.5172 -30.4312 -30.3200
   -21.4280 -18.7342 -17.1961 -15.9990 -15.7286 -15.5682 -15.4373 -15.4020
   -15.2149 -15.0933 -14.9604 -14.9364 -14.8828 -14.8553 -14.8210 -14.8104
   -14.8057 -14.7932 -14.7849 -14.7384 -14.7038 -14.6866 -14.6860 -14.6625
   -14.6140 -14.5603 -14.4952 -14.4303 -14.4019 -14.3599 -14.2907 -14.2828
   -12.7919 -12.6740  -9.1438  -6.6053  -6.5275  -4.5664  -4.5554  -3.9162
    -3.7767  -3.4785  -3.3628  -3.2895  -3.2109  -3.1887  -3.1670  -3.0916
    -2.9815  -2.8445  -2.7491  -2.5099  -2.4544  -2.4118  -2.3801  -2.3510
    -2.1942  -2.1698  -2.1009  -2.0897  -2.0810  -2.0703  -2.0434  -2.0141
    -1.9883  -1.9567  -1.8976  -1.8734  -1.8031  -1.6721  -1.6636  -1.6314
    -1.5853  -1.5688  -1.5669  -1.5406  -1.4964  -1.4775  -1.4529  -1.4476
    -1.3507  -1.2587  -1.2157  -1.1221  -1.0420  -0.9689  -0.8462  -0.8074
    -0.7343  -0.7011  -0.6851  -0.6312  -0.5821  -0.5718  -0.5131  -0.4662
    -0.3586  -0.3171  -0.2741  -0.2383  -0.1858  -0.1415  -0.0711  -0.0376
    -0.0050  -0.0006   0.0206   0.2190   0.2303   0.2817   0.2943   0.3914
     0.4438   0.4785   0.4915   0.5009   0.5389   0.6146   0.6700   0.6784
     0.7102   0.7462   0.7655   0.8112   0.8531   0.9047   0.9344   0.9691
     1.0358   1.0760   1.2301   1.3248   1.3687   1.4848   1.6416   1.7329
     1.8068   1.9069   2.3196   2.3770   3.8972   3.9314   3.9581   3.9765
     4.0445   4.1434   4.2601   4.3511   4.3607   4.3910

[...]

          k = 0.0380-0.0419 0.0000 ( 17876 PWs)   bands (ev):

[...]

          k =-0.0760-0.0000 0.0000 ( 17886 PWs)   bands (ev):

[...]

          k =-0.0760-0.0839 0.0000 ( 17948 PWs)   bands (ev):

   -55.2721 -55.2604 -55.2337 -55.2291 -55.1875 -55.1730 -55.1569 -55.1427
   -55.0838 -55.0599 -55.0496 -55.0249 -55.0205 -54.9543 -54.2748 -54.2737
   -31.6186 -31.6021 -31.5764 -31.5743 -31.5643 -31.5629 -31.5455 -31.5124
   -31.5055 -31.4887 -31.4853 -31.4750 -31.4398 -31.4293 -31.4088 -31.4046
   -31.3997 -31.3979 -31.3962 -31.3903 -31.3873 -31.3839 -31.3723 -31.3639
   -31.3578 -31.3491 -31.3482 -31.3465 -31.3411 -31.3156 -31.2897 -31.2768
   -31.2742 -31.2728 -31.2700 -31.2615 -31.2525 -31.2403 -31.2305 -31.2212
   -31.1797 -31.1459 -30.5958 -30.5945 -30.5140 -30.5131 -30.4747 -30.4738
   -21.4279 -18.7332 -17.1657 -15.4670 -15.3579 -15.2289 -15.1644 -15.1416
   -15.1149 -15.0620 -15.0457 -14.9903 -14.9860 -14.9354 -14.9293 -14.8860
   -14.8792 -14.8254 -14.7972 -14.7882 -14.7591 -14.7266 -14.7105 -14.7093
   -14.6695 -14.6478 -14.6394 -14.6089 -14.6017 -14.5397 -14.5020 -14.4692
   -12.7763 -12.7744  -9.1457  -6.6060  -6.5208  -4.5668  -4.5627  -3.8260
    -3.7365  -3.5041  -3.2761  -3.0026  -2.7525  -2.5698  -2.4786  -2.4096
    -2.3565  -2.3385  -2.2290  -2.2045  -2.1745  -2.1398  -2.1176  -2.1067
    -2.0891  -2.0801  -2.0729  -2.0552  -2.0220  -2.0021  -1.9759  -1.9513
    -1.9364  -1.9126  -1.8951  -1.8876  -1.8629  -1.8351  -1.8283  -1.8255
    -1.7625  -1.7225  -1.5644  -1.5194  -1.4983  -1.4083  -1.3888  -1.3723
    -1.3468  -1.3329  -1.3162  -1.1970  -1.1464  -1.1180  -1.0097  -0.9918
    -0.9658  -0.8275  -0.8040  -0.7712  -0.7430  -0.7008  -0.6313  -0.6076
    -0.5522  -0.5394  -0.4388  -0.4010  -0.3761  -0.3631  -0.2669  -0.2450
    -0.2393  -0.2138  -0.1500  -0.1186  -0.0735  -0.0433  -0.0124   0.0120
     0.0580   0.0779   0.1718   0.1921   0.2284   0.2713   0.3652   0.5324
     0.6249   0.7350   0.7610   0.8077   0.8682   0.9105   0.9605   1.0144
     1.0617   1.0690   1.1312   1.1684   1.2533   1.2671   1.2704   1.3389
     2.0942   2.0945   2.1823   2.1914   4.1388   4.1471   4.2042   4.2238
     4.3630   4.3691   4.3826   4.3902   4.4850   4.5442

     the Fermi energy is     3.8673 ev

!    total energy              =   -3006.52125500 Ry
     estimated scf accuracy    <       0.00000007 Ry
     smearing contrib. (-TS)   =      -0.02294545 Ry
     internal energy E=F+TS    =   -3006.49830956 Ry

     The total energy is F=E-TS. E is the sum of the following terms:
     one-electron contribution =  -22563.19484356 Ry
     hartree contribution      =   11380.95088699 Ry
     xc contribution           =    -501.15189301 Ry
     ewald contribution        =    8676.89565291 Ry
     electric field correction =       0.00188711 Ry

     convergence has been achieved in  94 iterations

     Forces acting on atoms (cartesian axes, Ry/au):

     atom    1 type  1   force =    -0.00014091   -0.00167244    0.10540094
     atom    2 type  1   force =    -0.00022289    0.00113489   -0.17918334
     atom    3 type  2   force =     0.00020560   -0.00552445   -0.03236145
     atom    4 type  2   force =     0.00010422    0.00071802    0.04629420
     atom    5 type  2   force =    -0.01803054    0.00052567    0.00424441
     atom    6 type  2   force =     0.01842805   -0.00044639    0.00411262
     atom    7 type  1   force =     0.00007859    0.00019431    0.00007375
     atom    8 type  1   force =     0.00007775    0.00030568   -0.00012093
     atom    9 type  2   force =     0.00017575    0.00035286   -0.00008056
     atom   10 type  2   force =     0.00017243   -0.00000172    0.00004982
     atom   11 type  2   force =     0.00005272   -0.00034677   -0.00036639
     atom   12 type  2   force =    -0.00006171   -0.00052198   -0.00050747
     atom   13 type  1   force =     0.00047912    0.00024302    0.00007867
     atom   14 type  1   force =    -0.00026163   -0.00048362   -0.00043424
     atom   15 type  2   force =     0.00004607   -0.00054131    0.00031993
     atom   16 type  2   force =    -0.00008569    0.00030530   -0.00022587
     atom   17 type  2   force =    -0.00043697   -0.00062152    0.00007539
     atom   18 type  2   force =     0.00004880   -0.00049613    0.00019735
     atom   19 type  1   force =     0.00042136   -0.00029171   -0.00010141
     atom   20 type  1   force =    -0.00010419   -0.00072331   -0.00081313
     atom   21 type  2   force =    -0.00003413    0.00009831    0.10391154
     atom   22 type  2   force =    -0.00001917   -0.00054141    0.00053776
     atom   23 type  2   force =    -0.06943338    0.00052056   -0.02945603
     atom   24 type  2   force =     0.06918906    0.00097972   -0.02951367
     atom   25 type  1   force =    -0.00003582    0.00156535    0.11478458
     atom   26 type  1   force =    -0.00022423   -0.00047695   -0.17920037
     atom   27 type  2   force =     0.00021264    0.00414588   -0.02606277
     atom   28 type  2   force =     0.00042883    0.00093155    0.04807528
     atom   29 type  2   force =    -0.01630882    0.00162490    0.00385425
     atom   30 type  2   force =     0.01736363    0.00217446    0.00362257
     atom   31 type  1   force =    -0.00014534    0.00011202   -0.00022594
     atom   32 type  1   force =     0.00011126   -0.00008380    0.00025928
     atom   33 type  2   force =     0.00028810   -0.00051055    0.00018824
     atom   34 type  2   force =    -0.00004089   -0.00030981   -0.00025195
     atom   35 type  2   force =    -0.00045632   -0.00013342    0.00002919
     atom   36 type  2   force =     0.00053986    0.00002140    0.00001800
     atom   37 type  1   force =     0.00046875   -0.00072724   -0.00005530
     atom   38 type  1   force =    -0.00037734   -0.00002134   -0.00037524
     atom   39 type  2   force =    -0.00042215   -0.00049673   -0.00046687
     atom   40 type  2   force =     0.00035903   -0.00040656   -0.00025514
     atom   41 type  2   force =    -0.00019259   -0.00002449    0.00006761
     atom   42 type  2   force =    -0.00031506   -0.00020963    0.00005227
     atom   43 type  1   force =     0.00025800    0.00011001    0.00135115
     atom   44 type  1   force =     0.00002995   -0.00037497   -0.00074222
     atom   45 type  2   force =    -0.00003706    0.00007790    0.10397340
     atom   46 type  2   force =    -0.06904006   -0.00107246   -0.02951162
     atom   47 type  2   force =     0.06885452   -0.00062895   -0.02958980
     atom   48 type  3   force =    -0.00227072   -0.00908153   -0.00309855
     atom   49 type  2   force =     0.00012006    0.00046114   -0.00102307
     atom   50 type  4   force =    -0.00044618   -0.00013832    0.00001638
     atom   51 type  4   force =     0.00002129   -0.00101816   -0.00020091
     atom   52 type  4   force =     0.00214345    0.01008169    0.00346159
     atom   53 type  5   force =    -0.00109680   -0.00018059   -0.00114522
     atom   54 type  5   force =     0.00055802    0.00037723    0.00082392
     atom   55 type  2   force =     0.00070419   -0.00007062    0.00041000
     atom   56 type  4   force =    -0.00156905    0.00014365   -0.00067858
     atom   57 type  4   force =    -0.00013146    0.00097331   -0.00023608

     Total force =     0.374825     Total SCF correction =     0.000849
  @ DRIVER MODE: Message from server: STATUS
  @ DRIVER MODE: Message from server: GETFORCE
  @ DRIVER MODE: Returning v,forces,stress,ensemble

     Writing output data file ./calc.save/
  @ DRIVER MODE: Message from server: EXIT
  @ DRIVE MODE: Exiting

     General routines

     Parallel routines

   This run was terminated on:   4:35:12  26Sep2021

   JOB DONE.