     Program PWSCF v.6.7GPU starts on 16Sep2021 at  3: 8:52

     R & G space division:  proc/nbgrp/npool/nimage =      10
     Reading input from /storage/home/hcoda1/3/ntian30/research/carbon/CxH_vib/H2O_calc/ads_slab/CHOHH2O_a/out_0034/pw.inp
Warning: card &CELL ignored
Warning: card   CELL_DYNAMICS='IPI', ignored
Warning: card / ignored

     Current dimensions of program PWSCF are:
     Max number of different atomic species (ntypx) = 10
     Max number of k-points (npk) =  40000
     Max angular momentum in pseudopotentials (lmaxx) =  3
     Presently no symmetry can be used with electric field

     Message from routine cell_base_init:
     DEPRECATED: use true lattice parameter, not A to a.u. conversion factor

     IMPORTANT: XC functional enforced from input :
     Exchange-correlation= BEEF-VDW
                           (   1   4  43  14   2   0   0)
     Any further DFT definition will be discarded
     Please, verify this is what you really want

  @ DRIVER MODE: Connecting to
 qe_1139763_2852632.sched-torque.pace.gatech.edumywbqwi8_scratch
  using UNIX socket
  @ DRIVER MODE: Message from server: STATUS
  @ DRIVER MODE: Message from server: INIT
  @ DRIVER MODE: Receiving replica           0          -1
  @ DRIVER MODE: Receiving encoded integer          25
  @ DRIVER MODE:  SCF:  T  FORCE:  T  STRESS:  F  VC:  F  ENSEMBLE:  F
  @ DRIVER MODE:  SCF:  T  FORCE:  T  STRESS:  F  VC:  F  ENSEMBLE:  F

     Using Slab Decomposition

     bravais-lattice index     =            0
     lattice parameter (alat)  =       1.8897  a.u.
     unit-cell volume          =    6658.9804 (a.u.)^3
     number of atoms/cell      =           54
     number of atomic types    =            4
     number of electrons       =       398.00
     number of Kohn-Sham states=          209
     kinetic-energy cutoff     =      29.3995  Ry
     charge density cutoff     =     293.9946  Ry
     scf convergence threshold =      7.3E-08
     mixing beta               =       0.0500
     number of iterations used =            8  plain     mixing
     Exchange-correlation= BEEF-VDW
                           (   1   4  43  14   2   0   0)

     celldm(1)=   1.889726  celldm(2)=   0.000000  celldm(3)=   0.000000
     celldm(4)=   0.000000  celldm(5)=   0.000000  celldm(6)=   0.000000

     crystal axes: (cart. coord. in units of alat)
               a(1) = (   6.579727   0.000000   0.000000 )
               a(2) = (  -0.000775   5.961596   0.000000 )
               a(3) = (   0.000000   0.000000  25.155947 )

     reciprocal axes: (cart. coord. in units 2 pi/alat)
               b(1) = (  0.151982  0.000020  0.000000 )
               b(2) = (  0.000000  0.167740  0.000000 )
               b(3) = (  0.000000  0.000000  0.039752 )

     PseudoPot. # 1 for Ti read from file:
     /storage/coda1/p-amedford6/0/shared/rich_project_chbe-medford/medford-share/data/pseudos_module/espresso/nninc/pbe/van/Ti.UPF
     MD5 check sum: 8e4df49b7f0d34bbd5052bf3f5ea0213
     Pseudo is Ultrasoft, Zval = 12.0
     Generated by new atomic code, or converted to UPF format
     Using radial grid of  851 points,  6 beta functions with:
                l(1) =   0
                l(2) =   0
                l(3) =   1
                l(4) =   1
                l(5) =   2
                l(6) =   2
     Q(r) pseudized with  8 coefficients,  rinner =    1.000   1.000   1.000
                                                       1.000   1.000

     PseudoPot. # 2 for O  read from file:
     /storage/coda1/p-amedford6/0/shared/rich_project_chbe-medford/medford-share/data/pseudos_module/espresso/nninc/pbe/van/O.UPF
     MD5 check sum: 78c19812648e8988a0fe644b0f25305e
     Pseudo is Ultrasoft, Zval =  6.0
     Generated by new atomic code, or converted to UPF format
     Using radial grid of  737 points,  4 beta functions with:
                l(1) =   0
                l(2) =   0
                l(3) =   1
                l(4) =   1
     Q(r) pseudized with  8 coefficients,  rinner =    0.800   0.800   0.800

     PseudoPot. # 3 for C  read from file:
     /storage/coda1/p-amedford6/0/shared/rich_project_chbe-medford/medford-share/data/pseudos_module/espresso/nninc/pbe/van/C.UPF
     MD5 check sum: 1a69bf6b8db32088f5b2163dbdb77a27
     Pseudo is Ultrasoft, Zval =  4.0
     Generated by new atomic code, or converted to UPF format
     Using radial grid of  721 points,  4 beta functions with:
                l(1) =   0
                l(2) =   0
                l(3) =   1
                l(4) =   1
     Q(r) pseudized with  8 coefficients,  rinner =    0.800   0.800   0.800

     PseudoPot. # 4 for H  read from file:
     /storage/coda1/p-amedford6/0/shared/rich_project_chbe-medford/medford-share/data/pseudos_module/espresso/nninc/pbe/van/H.UPF
     MD5 check sum: b5ee9d7bfd3a09ee7748110bda690ff7
     Pseudo is Ultrasoft, Zval =  1.0
     Generated by new atomic code, or converted to UPF format
     Using radial grid of  615 points,  1 beta functions with:
                l(1) =   0
     Q(r) pseudized with  8 coefficients,  rinner =    0.800

     atomic species   valence    mass     pseudopotential
        Ti1           12.00    47.86700     Ti( 1.00)
        O1             6.00    15.99900     O ( 1.00)
        C1             4.00    12.01100     C ( 1.00)
        H1             1.00     1.00800     H ( 1.00)

     No symmetry found

   Cartesian axes

     site n.     atom                  positions (alat units)
         1           Ti1 tau(   1) = (   0.0004258   2.9801865   6.0000000  )
         2           Ti1 tau(   2) = (   3.2906075   1.4906267   6.0002472  )
         3           O1  tau(   3) = (   0.0006271   0.0005054   7.9858123  )
         4           O1  tau(   4) = (   3.2906025   0.0005020   7.3038282  )
         5           O1  tau(   5) = (   4.5942328   1.4918067   9.2879030  )
         6           O1  tau(   6) = (   1.9868534   1.4903216   9.2879459  )
         7           Ti1 tau(   7) = (   3.3203992   3.0065636   9.1614972  )
         8           Ti1 tau(   8) = (   0.0364112   1.5055733   9.2692997  )
         9           O1  tau(   9) = (   3.3037507   0.0048223  11.3846665  )
        10           O1  tau(  10) = (   0.0023770   0.0017864  10.5989407  )
        11           O1  tau(  11) = (   1.2986710   1.4943985  12.6419360  )
        12           O1  tau(  12) = (   5.3019195   1.4930987  12.6558330  )
        13           Ti1 tau(  13) = (   0.0201679   2.9954199  12.5459836  )
        14           Ti1 tau(  14) = (   3.3085843   1.4996073  12.5278567  )
        15           O1  tau(  15) = (   0.0306707   0.0063333  14.6434371  )
        16           O1  tau(  16) = (   3.2901280   5.9588824  14.0411263  )
        17           O1  tau(  17) = (   4.5937705   1.5245028  16.1210063  )
        18           O1  tau(  18) = (   2.0412355   1.5396885  16.1535958  )
        19           Ti1 tau(  19) = (   3.3250740   2.9785215  15.7238461  )
        20           Ti1 tau(  20) = (   0.0142243   1.3716099  15.9029131  )
        21           O1  tau(  21) = (   3.2904802   0.0005063   4.7018136  )
        22           O1  tau(  22) = (   0.0234726   5.9563001  17.1693433  )
        23           O1  tau(  23) = (   1.3043587   1.4918075   6.0039043  )
        24           O1  tau(  24) = (   5.2767064   1.4903225   6.0039473  )
        25           Ti1 tau(  25) = (   0.0000382   5.9609847   6.0000000  )
        26           Ti1 tau(  26) = (   3.2902200   4.4714249   6.0002472  )
        27           O1  tau(  27) = (   0.0002396   2.9813036   7.9858123  )
        28           O1  tau(  28) = (   3.2902150   2.9813002   7.3038282  )
        29           O1  tau(  29) = (   4.5938453   4.4726049   9.2879030  )
        30           O1  tau(  30) = (   1.9864658   4.4711199   9.2879459  )
        31           Ti1 tau(  31) = (   3.3166040   0.0254347   9.1556988  )
        32           Ti1 tau(  32) = (   0.0362352   4.4699824   9.2670842  )
        33           O1  tau(  33) = (   3.3035804   2.9865095  11.3763011  )
        34           O1  tau(  34) = (   0.0042610   2.9829788  10.6236548  )
        35           O1  tau(  35) = (   1.2977823   4.4749822  12.6434080  )
        36           O1  tau(  36) = (   5.3021498   4.4756442  12.6578133  )
        37           Ti1 tau(  37) = (   0.0128731   0.0155586  12.4748574  )
        38           Ti1 tau(  38) = (   3.3087006   4.4877506  12.5360639  )
        39           O1  tau(  39) = (   0.0289868   2.9802581  14.8446641  )
        40           O1  tau(  40) = (   3.2975897   2.9808645  13.9396156  )
        41           O1  tau(  41) = (   4.5936103   4.4348319  16.1149158  )
        42           O1  tau(  42) = (   2.0365336   4.4144103  16.1518429  )
        43           Ti1 tau(  43) = (   3.2980932   5.9591119  15.8729608  )
        44           Ti1 tau(  44) = (   0.0070259   4.5936845  15.8821292  )
        45           O1  tau(  45) = (   3.2900926   2.9813045   4.7018136  )
        46           O1  tau(  46) = (   1.3039711   4.4726057   6.0039043  )
        47           O1  tau(  47) = (   5.2763189   4.4711207   6.0039473  )
        48           C1  tau(  48) = (   6.0563806   2.9601134  19.0478501  )
        49           O1  tau(  49) = (   0.1703025   2.9720528  17.8813388  )
        50           H1  tau(  50) = (   5.0099104   2.8626262  18.6876999  )
        51           H1  tau(  51) = (   1.1251272   3.0566160  18.0647747  )
        52           O1  tau(  52) = (   3.2803433   5.9178330  18.2983259  )
        53           H1  tau(  53) = (   4.0549949   5.9497654  18.8787675  )
        54           H1  tau(  54) = (   2.4787048   0.0262026  18.8357284  )

     number of k points=    10  Fermi-Dirac smearing, width (Ry)=  0.0073
                       cart. coord. in units 2pi/alat
        k(    1) = (   0.0000000   0.0000000   0.0000000), wk =   0.1250000
        k(    2) = (   0.0000000   0.0419351   0.0000000), wk =   0.2500000
        k(    3) = (   0.0000000  -0.0838702   0.0000000), wk =   0.1250000
        k(    4) = (   0.0379955   0.0000049   0.0000000), wk =   0.2500000
        k(    5) = (   0.0379955   0.0419400   0.0000000), wk =   0.2500000
        k(    6) = (   0.0379955  -0.0838652   0.0000000), wk =   0.2500000
        k(    7) = (   0.0379955  -0.0419301   0.0000000), wk =   0.2500000
        k(    8) = (  -0.0759910  -0.0000099   0.0000000), wk =   0.1250000
        k(    9) = (  -0.0759910   0.0419252   0.0000000), wk =   0.2500000
        k(   10) = (  -0.0759910  -0.0838800   0.0000000), wk =   0.1250000

     Initial potential from superposition of free atoms

     starting charge  381.99917, renormalised to  398.00000

     negative rho (up, down):  1.670E-02 0.000E+00

     %%%%%%%%%%%%%%%%%%%%%%%%%%%%%%%%%%%%%%%%%%%%%%%%%%%%%%%%%%%%%%%%%%%%%%%%
     %                                                                      %
     % You are using vdW-DF, which was implemented by the Thonhauser group. %
     % Please cite the following two papers that made this development      %
     % possible and the two reviews that describe the various versions:     %
     %                                                                      %
     %   T. Thonhauser et al., PRL 115, 136402 (2015).                      %
     %   T. Thonhauser et al., PRB 76, 125112 (2007).                       %
     %   K. Berland et al., Rep. Prog. Phys. 78, 066501 (2015).             %
     %   D.C. Langreth et al., J. Phys.: Condens. Matter 21, 084203 (2009). %
     %                                                                      %
     %                                                                      %
     % If you are calculating the stress with vdW-DF, please also cite:     %
     %                                                                      %
     %   R. Sabatini et al., J. Phys.: Condens. Matter 24, 424209 (2012).   %
     %                                                                      %
     %%%%%%%%%%%%%%%%%%%%%%%%%%%%%%%%%%%%%%%%%%%%%%%%%%%%%%%%%%%%%%%%%%%%%%%%

     Adding external electric field

     Computed dipole along edir(3) :
        Dipole              -10.5131 Ry au,        -26.7216 Debye
        Dipole field         -0.0198 Ry au,

        Potential amp.        1.8391 Ry
        Total length         46.3494 bohr

     Starting wfcs are  300 atomic wfcs
  @ DRIVER MODE: Message from server: STATUS
  @ DRIVER MODE: Message from server: POSDATA
  @ DRIVER MODE: Reading and sharing cell
  @ DRIVER MODE: Reading and sharing positions
  @ DRIVER MODE: Received positions

     Self-consistent Calculation

     iteration #  1     ecut=    29.40 Ry     beta= 0.05
     Davidson diagonalization with overlap
     c_bands:  2 eigenvalues not converged
     c_bands:  3 eigenvalues not converged
     c_bands:  1 eigenvalues not converged
     c_bands:  4 eigenvalues not converged
     c_bands:  4 eigenvalues not converged
     c_bands:  4 eigenvalues not converged
     c_bands:  1 eigenvalues not converged
     c_bands:  3 eigenvalues not converged
     c_bands:  4 eigenvalues not converged
     ethr =  1.00E-05,  avg # of iterations = 19.9

[...]

     total energy              =   -2479.43001545 Ry
     estimated scf accuracy    <    5441.08418209 Ry

     iteration #  2     ecut=    29.40 Ry     beta= 0.05
     Davidson diagonalization with overlap
     ethr =  1.00E-02,  avg # of iterations = 25.4

[...]

     iteration # 65     ecut=    29.40 Ry     beta= 0.05
     Davidson diagonalization with overlap
     c_bands:  1 eigenvalues not converged
     c_bands:  1 eigenvalues not converged
     c_bands:  1 eigenvalues not converged
     ethr =  1.98E-09,  avg # of iterations = 11.8

[...]

     total energy              =   -2964.77951178 Ry
     estimated scf accuracy    <       0.00000015 Ry

     iteration # 78     ecut=    29.40 Ry     beta= 0.05
     Davidson diagonalization with overlap
     ethr =  3.27E-11,  avg # of iterations = 12.6

     negative rho (up, down):  1.518E-02 0.000E+00

     Adding external electric field

     Computed dipole along edir(3) :
        Dipole                0.7114 Ry au,          1.8081 Debye
        Dipole field          0.0013 Ry au,

        Potential amp.       -0.1244 Ry
        Total length         46.3494 bohr

     End of self-consistent calculation

          k = 0.0000 0.0000 0.0000 ( 18029 PWs)   bands (ev):

   -55.7045 -55.6917 -55.6682 -55.6662 -55.6572 -55.6061 -55.5547 -55.5531
   -55.5407 -55.5203 -55.5075 -55.4863 -55.4852 -55.4736 -54.7722 -54.7381
   -32.2649 -32.1857 -32.1822 -32.0873 -32.0502 -32.0303 -32.0192 -32.0090
   -31.9806 -31.9452 -31.9353 -31.9202 -31.8960 -31.8888 -31.8815 -31.8625
   -31.8453 -31.8444 -31.8413 -31.8338 -31.8178 -31.8067 -31.8066 -31.7970
   -31.7951 -31.7797 -31.7766 -31.7487 -31.7365 -31.7228 -31.7115 -31.7105
   -31.7056 -31.7014 -31.6951 -31.6871 -31.6548 -31.6535 -31.6486 -31.6447
   -31.6184 -31.5620 -31.1840 -31.0824 -31.0607 -31.0001 -30.9137 -30.8028
   -21.1372 -19.2596 -16.5231 -16.2811 -16.1384 -16.0351 -15.9304 -15.7979
   -15.7110 -15.5875 -15.5244 -15.3974 -15.3579 -15.3524 -15.3459 -15.3175
   -15.2963 -15.2735 -15.2494 -15.2087 -15.2042 -15.2006 -15.1716 -15.1595
   -15.1019 -15.0892 -15.0450 -14.9271 -14.8757 -14.8146 -14.4963 -13.2731
   -13.1539 -10.3414  -7.2171  -5.7016  -4.7269  -4.0160  -3.9441  -3.8141
    -3.7170  -3.6485  -3.6111  -3.5429  -3.4636  -3.2605  -3.1301  -3.1221
    -2.9895  -2.9527  -2.9082  -2.8068  -2.7410  -2.6789  -2.6686  -2.5929
    -2.5888  -2.5806  -2.5674  -2.4750  -2.4686  -2.4201  -2.3787  -2.2997
    -2.2640  -2.1468  -2.1161  -2.1071  -2.0635  -2.0477  -2.0412  -2.0285
    -1.9788  -1.9530  -1.9350  -1.9337  -1.7920  -1.7502  -1.6043  -1.4790
    -1.4463  -1.4325  -1.3041  -1.2662  -1.2496  -1.1921  -1.1715  -1.1617
    -1.1228  -1.0417  -0.9587  -0.9342  -0.8624  -0.8194  -0.7153  -0.6211
    -0.5764  -0.5279  -0.5054  -0.4960  -0.4766  -0.4118  -0.3641  -0.2775
    -0.2234  -0.1603  -0.1334  -0.1267  -0.0720  -0.0419   0.0380   0.0849
     0.1192   0.1334   0.2191   0.2335   0.2463   0.2776   0.2800   0.3929
     0.4468   0.5039   0.5104   0.6588   0.8259   0.8510   0.9305   1.1450
     1.2533   1.2558   1.4167   1.4728   1.8384   1.8926   3.3831   3.4532
     3.4877   3.5018   3.5111   3.5889   3.8187   3.8709   3.9025   3.9214
     3.9308

[...]

          k = 0.0380-0.0419 0.0000 ( 17876 PWs)   bands (ev):

[...]

          k =-0.0760-0.0000 0.0000 ( 17886 PWs)   bands (ev):

[...]

          k =-0.0760-0.0839 0.0000 ( 17948 PWs)   bands (ev):

   -55.6889 -55.6835 -55.6766 -55.6721 -55.6645 -55.5998 -55.5593 -55.5393
   -55.5353 -55.5339 -55.4919 -55.4917 -55.4895 -55.4878 -54.7551 -54.7550
   -32.1072 -32.0752 -32.0641 -32.0028 -31.9985 -31.9795 -31.9706 -31.9615
   -31.9593 -31.9348 -31.9336 -31.9088 -31.8996 -31.8713 -31.8576 -31.8558
   -31.8544 -31.8461 -31.8412 -31.8372 -31.8293 -31.8218 -31.8047 -31.8019
   -31.7989 -31.7968 -31.7966 -31.7957 -31.7923 -31.7842 -31.7819 -31.7524
   -31.7378 -31.7374 -31.7220 -31.7130 -31.7111 -31.7057 -31.6805 -31.6757
   -31.6745 -31.6513 -31.0733 -31.0733 -30.9968 -30.9964 -30.9570 -30.9568
   -21.1360 -19.2591 -16.1541 -15.9590 -15.8086 -15.7242 -15.7175 -15.6584
   -15.5782 -15.5370 -15.4912 -15.4793 -15.4692 -15.4345 -15.4254 -15.4140
   -15.3515 -15.3014 -15.2979 -15.2825 -15.2332 -15.2257 -15.2153 -15.2097
   -15.2010 -15.1580 -15.1536 -15.1390 -15.1282 -14.9845 -14.8281 -13.2554
   -13.2546 -10.3448  -7.2147  -5.7047  -4.7056  -3.9453  -3.8726  -3.2342
    -3.2316  -2.9700  -2.9478  -2.8892  -2.8777  -2.8136  -2.7824  -2.7065
    -2.7002  -2.6549  -2.6145  -2.6063  -2.5933  -2.5690  -2.5357  -2.5224
    -2.4804  -2.4706  -2.4448  -2.4403  -2.4212  -2.4053  -2.3803  -2.3744
    -2.3422  -2.3220  -2.3142  -2.3102  -2.2334  -2.1713  -2.0482  -2.0265
    -1.9857  -1.9365  -1.9209  -1.8504  -1.8147  -1.7999  -1.7422  -1.7077
    -1.6812  -1.5081  -1.4963  -1.4758  -1.3846  -1.3520  -1.3395  -1.3113
    -1.2551  -1.2260  -1.2220  -1.1443  -1.0330  -1.0103  -0.9116  -0.8659
    -0.8650  -0.7763  -0.7429  -0.7045  -0.7024  -0.6653  -0.6088  -0.5871
    -0.5300  -0.5244  -0.4768  -0.4561  -0.4326  -0.4017  -0.2289  -0.1738
    -0.1182  -0.0210   0.0078   0.2354   0.2664   0.2733   0.3390   0.3695
     0.4757   0.4971   0.5600   0.5750   0.6763   0.7077   0.7246   0.7295
     0.7758   1.4796   1.6051   1.6078   1.7067   1.7103   3.5325   3.5466
     3.6482   3.7001   3.7375   3.8411   3.8899   3.9221   3.9298   3.9448
     4.0209

     the Fermi energy is     3.4311 ev

!    total energy              =   -2964.77952430 Ry
     estimated scf accuracy    <       0.00000003 Ry
     smearing contrib. (-TS)   =      -0.03745609 Ry
     internal energy E=F+TS    =   -2964.74206822 Ry

     The total energy is F=E-TS. E is the sum of the following terms:
     one-electron contribution =  -24112.40147315 Ry
     hartree contribution      =   12146.41883038 Ry
     xc contribution           =    -490.02053238 Ry
     ewald contribution        =    9491.26015199 Ry
     electric field correction =       0.00095495 Ry

     convergence has been achieved in  78 iterations

     Forces acting on atoms (cartesian axes, Ry/au):

     atom    1 type  1   force =    -0.00035764   -0.00001780    0.09253777
     atom    2 type  1   force =    -0.00033352    0.00121688   -0.18262000
     atom    3 type  2   force =     0.00043691    0.00023434   -0.02456436
     atom    4 type  2   force =     0.00073381    0.00044945    0.05162967
     atom    5 type  2   force =    -0.01466003   -0.00007319    0.00466643
     atom    6 type  2   force =     0.01553503   -0.00056645    0.00541953
     atom    7 type  1   force =    -0.00050537   -0.00016174    0.00008848
     atom    8 type  1   force =     0.00021427    0.00004435    0.00020334
     atom    9 type  2   force =    -0.00017099   -0.00017603   -0.00030509
     atom   10 type  2   force =     0.00006234   -0.00003847    0.00032220
     atom   11 type  2   force =    -0.00031377    0.00020640    0.00003542
     atom   12 type  2   force =     0.00038209    0.00007721   -0.00021051
     atom   13 type  1   force =    -0.00020700   -0.00025750    0.00023291
     atom   14 type  1   force =     0.00013044   -0.00021665   -0.00047085
     atom   15 type  2   force =    -0.00032269    0.00033618   -0.00012115
     atom   16 type  2   force =     0.00008199    0.00002099   -0.00027889
     atom   17 type  2   force =    -0.00009173   -0.00013856    0.00022482
     atom   18 type  2   force =     0.00011248   -0.00004645   -0.00030438
     atom   19 type  1   force =    -0.00096652    0.00009152   -0.00032949
     atom   20 type  1   force =     0.00041346    0.00008077   -0.00000681
     atom   21 type  2   force =    -0.00009629    0.00005875    0.10488625
     atom   22 type  2   force =    -0.00033188    0.00001025    0.00040862
     atom   23 type  2   force =    -0.06833805    0.00002921   -0.02692934
     atom   24 type  2   force =     0.06803241    0.00046351   -0.02700621
     atom   25 type  1   force =    -0.00030648   -0.00002114    0.09720550
     atom   26 type  1   force =    -0.00030645   -0.00120252   -0.18266326
     atom   27 type  2   force =     0.00035019    0.00023451   -0.02298256
     atom   28 type  2   force =     0.00081367    0.00042526    0.05201990
     atom   29 type  2   force =    -0.01464237    0.00064689    0.00459504
     atom   30 type  2   force =     0.01566165    0.00039710    0.00532498
     atom   31 type  1   force =    -0.00046425   -0.00000110    0.00010842
     atom   32 type  1   force =     0.00021287    0.00007070    0.00018374
     atom   33 type  2   force =    -0.00008535    0.00013076    0.00016850
     atom   34 type  2   force =     0.00001284    0.00001048    0.00016589
     atom   35 type  2   force =    -0.00014939   -0.00030326    0.00012586
     atom   36 type  2   force =     0.00021865   -0.00019794   -0.00010612
     atom   37 type  1   force =    -0.00029291    0.00016833   -0.00046045
     atom   38 type  1   force =     0.00012612    0.00037130   -0.00036429
     atom   39 type  2   force =    -0.00035851   -0.00027944   -0.00018029
     atom   40 type  2   force =     0.00018165   -0.00008512   -0.00003392
     atom   41 type  2   force =    -0.00032515   -0.00012741   -0.00023330
     atom   42 type  2   force =     0.00036505   -0.00013633   -0.00057166
     atom   43 type  1   force =    -0.00089739   -0.00027329    0.00005147
     atom   44 type  1   force =     0.00032142   -0.00065633    0.00007526
     atom   45 type  2   force =    -0.00007257    0.00005261    0.10478487
     atom   46 type  2   force =    -0.06831991   -0.00060447   -0.02691910
     atom   47 type  2   force =     0.06801824   -0.00013932   -0.02699539
     atom   48 type  3   force =    -0.00004312   -0.00012127   -0.00025034
     atom   49 type  2   force =    -0.00011902    0.00000745   -0.00006663
     atom   50 type  4   force =     0.00016900    0.00022180   -0.00016013
     atom   51 type  4   force =     0.00017612   -0.00008218   -0.00014604
     atom   52 type  2   force =     0.00050310   -0.00124411    0.00131383
     atom   53 type  4   force =    -0.00059854    0.00052079   -0.00082208
     atom   54 type  4   force =     0.00041110    0.00059031   -0.00067604

     Total force =     0.368442     Total SCF correction =     0.000369
  @ DRIVER MODE: Message from server: STATUS
  @ DRIVER MODE: Message from server: GETFORCE
  @ DRIVER MODE: Returning v,forces,stress,ensemble

     Writing output data file ./calc.save/
  @ DRIVER MODE: Message from server: EXIT
  @ DRIVE MODE: Exiting

     General routines

     Parallel routines

   This run was terminated on:   3:29:13  16Sep2021

   JOB DONE.