     Program PWSCF v.6.7GPU starts on 15Sep2021 at 23:46:58

     R & G space division:  proc/nbgrp/npool/nimage =      10
     Reading input from /storage/home/hcoda1/3/ntian30/research/carbon/CxH_vib/H2O_calc/ads_slab/CH2NNHHHH2O_a/out_0023/pw.inp
Warning: card &CELL ignored
Warning: card   CELL_DYNAMICS='IPI', ignored
Warning: card / ignored

     Current dimensions of program PWSCF are:
     Max number of different atomic species (ntypx) = 10
     Max number of k-points (npk) =  40000
     Max angular momentum in pseudopotentials (lmaxx) =  3
     Presently no symmetry can be used with electric field

     Message from routine cell_base_init:
     DEPRECATED: use true lattice parameter, not A to a.u. conversion factor

     IMPORTANT: XC functional enforced from input :
     Exchange-correlation= BEEF-VDW
                           (   1   4  43  14   2   0   0)
     Any further DFT definition will be discarded
     Please, verify this is what you really want

  @ DRIVER MODE: Connecting to
 qe_1139763_2852612.sched-torque.pace.gatech.edu9pg4uv8g_scratch
  using UNIX socket
  @ DRIVER MODE: Message from server: STATUS
  @ DRIVER MODE: Message from server: INIT
  @ DRIVER MODE: Receiving replica           0          -1
  @ DRIVER MODE: Receiving encoded integer          25
  @ DRIVER MODE:  SCF:  T  FORCE:  T  STRESS:  F  VC:  F  ENSEMBLE:  F
  @ DRIVER MODE:  SCF:  T  FORCE:  T  STRESS:  F  VC:  F  ENSEMBLE:  F

     Using Slab Decomposition

     bravais-lattice index     =            0
     lattice parameter (alat)  =       1.8897  a.u.
     unit-cell volume          =    6658.9804 (a.u.)^3
     number of atoms/cell      =           58
     number of atomic types    =            5
     number of electrons       =       405.00
     number of Kohn-Sham states=          212
     kinetic-energy cutoff     =      29.3995  Ry
     charge density cutoff     =     293.9946  Ry
     scf convergence threshold =      7.3E-08
     mixing beta               =       0.0500
     number of iterations used =            8  plain     mixing
     Exchange-correlation= BEEF-VDW
                           (   1   4  43  14   2   0   0)

     celldm(1)=   1.889726  celldm(2)=   0.000000  celldm(3)=   0.000000
     celldm(4)=   0.000000  celldm(5)=   0.000000  celldm(6)=   0.000000

     crystal axes: (cart. coord. in units of alat)
               a(1) = (   6.579727   0.000000   0.000000 )
               a(2) = (  -0.000775   5.961596   0.000000 )
               a(3) = (   0.000000   0.000000  25.155947 )

     reciprocal axes: (cart. coord. in units 2 pi/alat)
               b(1) = (  0.151982  0.000020  0.000000 )
               b(2) = (  0.000000  0.167740  0.000000 )
               b(3) = (  0.000000  0.000000  0.039752 )

     PseudoPot. # 1 for Ti read from file:
     /storage/coda1/p-amedford6/0/shared/rich_project_chbe-medford/medford-share/data/pseudos_module/espresso/nninc/pbe/van/Ti.UPF
     MD5 check sum: 8e4df49b7f0d34bbd5052bf3f5ea0213
     Pseudo is Ultrasoft, Zval = 12.0
     Generated by new atomic code, or converted to UPF format
     Using radial grid of  851 points,  6 beta functions with:
                l(1) =   0
                l(2) =   0
                l(3) =   1
                l(4) =   1
                l(5) =   2
                l(6) =   2
     Q(r) pseudized with  8 coefficients,  rinner =    1.000   1.000   1.000
                                                       1.000   1.000

     PseudoPot. # 2 for O  read from file:
     /storage/coda1/p-amedford6/0/shared/rich_project_chbe-medford/medford-share/data/pseudos_module/espresso/nninc/pbe/van/O.UPF
     MD5 check sum: 78c19812648e8988a0fe644b0f25305e
     Pseudo is Ultrasoft, Zval =  6.0
     Generated by new atomic code, or converted to UPF format
     Using radial grid of  737 points,  4 beta functions with:
                l(1) =   0
                l(2) =   0
                l(3) =   1
                l(4) =   1
     Q(r) pseudized with  8 coefficients,  rinner =    0.800   0.800   0.800

     PseudoPot. # 3 for N  read from file:
     /storage/coda1/p-amedford6/0/shared/rich_project_chbe-medford/medford-share/data/pseudos_module/espresso/nninc/pbe/van/N.UPF
     MD5 check sum: 90d10febe142ad51ac9d5be1deb811c4
     Pseudo is Ultrasoft, Zval =  5.0
     Generated by new atomic code, or converted to UPF format
     Using radial grid of  729 points,  4 beta functions with:
                l(1) =   0
                l(2) =   0
                l(3) =   1
                l(4) =   1
     Q(r) pseudized with  8 coefficients,  rinner =    0.800   0.800   0.800

     PseudoPot. # 4 for C  read from file:
     /storage/coda1/p-amedford6/0/shared/rich_project_chbe-medford/medford-share/data/pseudos_module/espresso/nninc/pbe/van/C.UPF
     MD5 check sum: 1a69bf6b8db32088f5b2163dbdb77a27
     Pseudo is Ultrasoft, Zval =  4.0
     Generated by new atomic code, or converted to UPF format
     Using radial grid of  721 points,  4 beta functions with:
                l(1) =   0
                l(2) =   0
                l(3) =   1
                l(4) =   1
     Q(r) pseudized with  8 coefficients,  rinner =    0.800   0.800   0.800

     PseudoPot. # 5 for H  read from file:
     /storage/coda1/p-amedford6/0/shared/rich_project_chbe-medford/medford-share/data/pseudos_module/espresso/nninc/pbe/van/H.UPF
     MD5 check sum: b5ee9d7bfd3a09ee7748110bda690ff7
     Pseudo is Ultrasoft, Zval =  1.0
     Generated by new atomic code, or converted to UPF format
     Using radial grid of  615 points,  1 beta functions with:
                l(1) =   0
     Q(r) pseudized with  8 coefficients,  rinner =    0.800

     atomic species   valence    mass     pseudopotential
        Ti1           12.00    47.86700     Ti( 1.00)
        O1             6.00    15.99900     O ( 1.00)
        N1             5.00    14.00700     N ( 1.00)
        C1             4.00    12.01100     C ( 1.00)
        H1             1.00     1.00800     H ( 1.00)

     No symmetry found

   Cartesian axes

     site n.     atom                  positions (alat units)
         1           Ti1 tau(   1) = (   0.0004258   2.9801865   6.0000000  )
         2           Ti1 tau(   2) = (   3.2906075   1.4906267   6.0002472  )
         3           O1  tau(   3) = (   0.0006271   0.0005054   7.9858123  )
         4           O1  tau(   4) = (   3.2906025   0.0005020   7.3038282  )
         5           O1  tau(   5) = (   4.5942328   1.4918067   9.2879030  )
         6           O1  tau(   6) = (   1.9868534   1.4903216   9.2879459  )
         7           Ti1 tau(   7) = (   3.2907910   2.8959150   9.1758416  )
         8           Ti1 tau(   8) = (   0.0015273   1.4827037   9.2680791  )
         9           O1  tau(   9) = (   3.2987819   5.9401718  11.3551833  )
        10           O1  tau(  10) = (   0.0116148   5.9584955  10.6183126  )
        11           O1  tau(  11) = (   1.3094369   1.4889762  12.6418845  )
        12           O1  tau(  12) = (   5.3041503   1.4933078  12.6143371  )
        13           Ti1 tau(  13) = (   0.0302489   2.9730182  12.5448133  )
        14           Ti1 tau(  14) = (   3.3273137   1.4751619  12.4920661  )
        15           O1  tau(  15) = (   6.5331299   0.0759724  14.6728253  )
        16           O1  tau(  16) = (   3.3443954   0.0128112  13.9985917  )
        17           O1  tau(  17) = (   4.5384157   1.5150964  16.2525342  )
        18           O1  tau(  18) = (   2.0107438   1.5096167  16.1239609  )
        19           Ti1 tau(  19) = (   3.2468703   2.9375149  15.6823127  )
        20           Ti1 tau(  20) = (   6.5402329   1.3810098  16.1103674  )
        21           O1  tau(  21) = (   3.2904802   0.0005063   4.7018136  )
        22           O1  tau(  22) = (   0.0855018   5.8309792  17.2460454  )
        23           O1  tau(  23) = (   1.3043587   1.4918075   6.0039043  )
        24           O1  tau(  24) = (   5.2767064   1.4903225   6.0039473  )
        25           Ti1 tau(  25) = (   0.0000382   5.9609847   6.0000000  )
        26           Ti1 tau(  26) = (   3.2902200   4.4714249   6.0002472  )
        27           O1  tau(  27) = (   0.0002396   2.9813036   7.9858123  )
        28           O1  tau(  28) = (   3.2902150   2.9813002   7.3038282  )
        29           O1  tau(  29) = (   4.5938453   4.4726049   9.2879030  )
        30           O1  tau(  30) = (   1.9864658   4.4711199   9.2879459  )
        31           Ti1 tau(  31) = (   3.2891106   5.8743827   9.1763621  )
        32           Ti1 tau(  32) = (   0.0006254   4.4649316   9.2693709  )
        33           O1  tau(  33) = (   3.2978634   2.9839445  11.3486163  )
        34           O1  tau(  34) = (   0.0092240   2.9805883  10.6323155  )
        35           O1  tau(  35) = (   1.3057425   4.4725738  12.6940039  )
        36           O1  tau(  36) = (   5.3035974   4.4670288  12.6562451  )
        37           Ti1 tau(  37) = (   0.0240142   0.0094741  12.5095027  )
        38           Ti1 tau(  38) = (   3.3290383   4.4615466  12.5202027  )
        39           O1  tau(  39) = (   6.5484913   2.9337383  14.8377676  )
        40           O1  tau(  40) = (   3.3243726   2.9440003  13.9069550  )
        41           O1  tau(  41) = (   4.5478640   4.3999133  16.1372545  )
        42           O1  tau(  42) = (   2.0209518   4.4226222  15.9786897  )
        43           Ti1 tau(  43) = (   3.3220059   5.9437776  15.8132296  )
        44           Ti1 tau(  44) = (   0.0730556   4.5544523  15.7304118  )
        45           O1  tau(  45) = (   3.2900926   2.9813045   4.7018136  )
        46           O1  tau(  46) = (   1.3039711   4.4726057   6.0039043  )
        47           O1  tau(  47) = (   5.2763189   4.4711207   6.0039473  )
        48           N1  tau(  48) = (   0.0453545   2.8788619  17.9090770  )
        49           C1  tau(  49) = (   1.0089482   2.8008358  18.8431878  )
        50           H1  tau(  50) = (   1.0080222   3.4413729  19.7168629  )
        51           H1  tau(  51) = (   1.8954070   2.2543435  18.5700802  )
        52           N1  tau(  52) = (   5.5320326   3.6725468  18.4365114  )
        53           H1  tau(  53) = (   5.8975581   4.6271042  18.6377988  )
        54           H1  tau(  54) = (   4.8553295   3.8628436  17.6443034  )
        55           H1  tau(  55) = (   5.1025442   3.2364756  19.2632064  )
        56           O1  tau(  56) = (   2.8928424   5.6518753  18.2681889  )
        57           H1  tau(  57) = (   3.0708471   0.5134993  18.7460362  )
        58           H1  tau(  58) = (   1.9180978   5.6479514  18.1114729  )

     number of k points=    10  Fermi-Dirac smearing, width (Ry)=  0.0073
                       cart. coord. in units 2pi/alat
        k(    1) = (   0.0000000   0.0000000   0.0000000), wk =   0.1250000
        k(    2) = (   0.0000000   0.0419351   0.0000000), wk =   0.2500000
        k(    3) = (   0.0000000  -0.0838702   0.0000000), wk =   0.1250000
        k(    4) = (   0.0379955   0.0000049   0.0000000), wk =   0.2500000
        k(    5) = (   0.0379955   0.0419400   0.0000000), wk =   0.2500000
        k(    6) = (   0.0379955  -0.0838652   0.0000000), wk =   0.2500000
        k(    7) = (   0.0379955  -0.0419301   0.0000000), wk =   0.2500000
        k(    8) = (  -0.0759910  -0.0000099   0.0000000), wk =   0.1250000
        k(    9) = (  -0.0759910   0.0419252   0.0000000), wk =   0.2500000
        k(   10) = (  -0.0759910  -0.0838800   0.0000000), wk =   0.1250000

     Initial potential from superposition of free atoms

     starting charge  388.99913, renormalised to  405.00000

     negative rho (up, down):  1.580E-02 0.000E+00

     %%%%%%%%%%%%%%%%%%%%%%%%%%%%%%%%%%%%%%%%%%%%%%%%%%%%%%%%%%%%%%%%%%%%%%%%
     %                                                                      %
     % You are using vdW-DF, which was implemented by the Thonhauser group. %
     % Please cite the following two papers that made this development      %
     % possible and the two reviews that describe the various versions:     %
     %                                                                      %
     %   T. Thonhauser et al., PRL 115, 136402 (2015).                      %
     %   T. Thonhauser et al., PRB 76, 125112 (2007).                       %
     %   K. Berland et al., Rep. Prog. Phys. 78, 066501 (2015).             %
     %   D.C. Langreth et al., J. Phys.: Condens. Matter 21, 084203 (2009). %
     %                                                                      %
     %                                                                      %
     % If you are calculating the stress with vdW-DF, please also cite:     %
     %                                                                      %
     %   R. Sabatini et al., J. Phys.: Condens. Matter 24, 424209 (2012).   %
     %                                                                      %
     %%%%%%%%%%%%%%%%%%%%%%%%%%%%%%%%%%%%%%%%%%%%%%%%%%%%%%%%%%%%%%%%%%%%%%%%

     Adding external electric field

     Computed dipole along edir(3) :
        Dipole              -14.4808 Ry au,        -36.8066 Debye
        Dipole field         -0.0273 Ry au,

        Potential amp.        2.5332 Ry
        Total length         46.3494 bohr

     Starting wfcs are  307 atomic wfcs
  @ DRIVER MODE: Message from server: STATUS
  @ DRIVER MODE: Message from server: POSDATA
  @ DRIVER MODE: Reading and sharing cell
  @ DRIVER MODE: Reading and sharing positions
  @ DRIVER MODE: Received positions

     Self-consistent Calculation

     iteration #  1     ecut=    29.40 Ry     beta= 0.05
     Davidson diagonalization with overlap
     c_bands:  2 eigenvalues not converged
     c_bands:  5 eigenvalues not converged
     c_bands:  1 eigenvalues not converged
     c_bands:  3 eigenvalues not converged
     c_bands:  3 eigenvalues not converged
     c_bands:  4 eigenvalues not converged
     ethr =  1.00E-05,  avg # of iterations = 27.0

[...]

     total energy              =   -2173.28055802 Ry
     estimated scf accuracy    <    9121.19680961 Ry

     iteration #  2     ecut=    29.40 Ry     beta= 0.05
     Davidson diagonalization with overlap
     ethr =  1.00E-02,  avg # of iterations = 27.1

[...]

     iteration # 80     ecut=    29.40 Ry     beta= 0.05
     Davidson diagonalization with overlap
     c_bands:  1 eigenvalues not converged
     ethr =  3.30E-11,  avg # of iterations = 11.7

[...]

     total energy              =   -2976.32720449 Ry
     estimated scf accuracy    <       0.00000010 Ry

     iteration # 81     ecut=    29.40 Ry     beta= 0.05
     Davidson diagonalization with overlap
     ethr =  2.38E-11,  avg # of iterations =  3.0

     negative rho (up, down):  1.316E-02 0.000E+00

     Adding external electric field

     Computed dipole along edir(3) :
        Dipole                1.3385 Ry au,          3.4020 Debye
        Dipole field          0.0025 Ry au,

        Potential amp.       -0.2341 Ry
        Total length         46.3494 bohr

     End of self-consistent calculation

          k = 0.0000 0.0000 0.0000 ( 18029 PWs)   bands (ev):

   -55.1715 -55.1422 -55.1304 -55.1080 -55.0920 -55.0487 -55.0077 -54.9812
   -54.9703 -54.9550 -54.9457 -54.9375 -54.8718 -54.7247 -54.1540 -54.1200
   -31.7381 -31.6319 -31.5362 -31.5024 -31.4811 -31.4735 -31.4703 -31.4319
   -31.4091 -31.3871 -31.3813 -31.3790 -31.3669 -31.3458 -31.3194 -31.3164
   -31.3065 -31.2949 -31.2892 -31.2844 -31.2535 -31.2364 -31.2299 -31.2104
   -31.1991 -31.1814 -31.1795 -31.1787 -31.1697 -31.1672 -31.1506 -31.1413
   -31.1313 -31.1301 -31.1081 -31.1005 -31.0965 -31.0788 -31.0529 -31.0167
   -31.0014 -30.8706 -30.5624 -30.4705 -30.4483 -30.3791 -30.2924 -30.1813
   -19.0890 -18.7996 -16.0084 -15.7507 -15.6234 -15.4459 -15.3661 -15.2125
   -15.1425 -15.0599 -15.0325 -14.9682 -14.9300 -14.8991 -14.7862 -14.7790
   -14.7059 -14.7054 -14.6970 -14.6646 -14.6610 -14.6573 -14.6008 -14.5980
   -14.5586 -14.5475 -14.5351 -14.3931 -14.3181 -14.2611 -14.0904 -13.9753
   -12.6564 -12.5393  -8.9959  -7.6871  -6.9426  -6.5493  -5.7584  -3.7975
    -3.3462  -3.2123  -3.1752  -3.1151  -3.0716  -2.9852  -2.8942  -2.7728
    -2.5543  -2.4780  -2.4369  -2.3881  -2.3799  -2.3329  -2.2446  -2.1606
    -2.1280  -2.0924  -2.0429  -2.0275  -1.9865  -1.9602  -1.9409  -1.8996
    -1.8909  -1.7441  -1.6850  -1.6297  -1.5816  -1.5599  -1.5587  -1.5013
    -1.4875  -1.4659  -1.4630  -1.4526  -1.4221  -1.3857  -1.3805  -1.3272
    -1.2897  -1.1640  -1.0900  -0.9744  -0.9154  -0.8838  -0.8001  -0.7315
    -0.7153  -0.6431  -0.5789  -0.5593  -0.5020  -0.4646  -0.3740  -0.3400
    -0.2906  -0.2644  -0.1559  -0.1428  -0.1272  -0.0564   0.0329   0.0418
     0.0659   0.1114   0.1957   0.2305   0.2840   0.3104   0.4104   0.4416
     0.4836   0.5014   0.5267   0.6081   0.6792   0.7161   0.7769   0.7863
     0.8211   0.8261   0.8491   0.9434   0.9741   0.9789   1.0270   1.1938
     1.2510   1.4503   1.4523   1.7827   1.8183   1.8688   2.0551   2.4426
     2.4899   3.9277   3.9938   4.0427   4.0594   4.0778   4.1355   4.1703
     4.3982   4.4210   4.4352   4.4487

[...]

          k = 0.0380-0.0419 0.0000 ( 17876 PWs)   bands (ev):

[...]

          k =-0.0760-0.0000 0.0000 ( 17886 PWs)   bands (ev):

[...]

          k =-0.0760-0.0839 0.0000 ( 17948 PWs)   bands (ev):

   -55.1607 -55.1410 -55.1251 -55.1249 -55.0899 -55.0395 -55.0169 -54.9657
   -54.9599 -54.9570 -54.9554 -54.9535 -54.8700 -54.7264 -54.1369 -54.1369
   -31.5492 -31.5343 -31.4472 -31.4470 -31.4469 -31.4374 -31.4174 -31.4172
   -31.3830 -31.3776 -31.3680 -31.3662 -31.3361 -31.3078 -31.3004 -31.2983
   -31.2957 -31.2921 -31.2896 -31.2849 -31.2757 -31.2619 -31.2479 -31.2444
   -31.2443 -31.2423 -31.2399 -31.2137 -31.1989 -31.1909 -31.1799 -31.1754
   -31.1749 -31.1743 -31.1556 -31.1544 -31.1353 -31.1327 -31.0709 -31.0091
   -31.0053 -30.9445 -30.4610 -30.4610 -30.3751 -30.3749 -30.3358 -30.3358
   -19.0815 -18.8027 -15.5103 -15.3741 -15.3353 -15.2451 -15.1634 -15.1472
   -15.1395 -15.1053 -15.0531 -14.9933 -14.9485 -14.9139 -14.8729 -14.8715
   -14.8587 -14.7582 -14.7471 -14.7396 -14.7227 -14.6746 -14.6648 -14.6480
   -14.6228 -14.6212 -14.5960 -14.5153 -14.5143 -14.4159 -14.3103 -14.0369
   -12.6410 -12.6409  -8.9835  -7.7028  -6.8991  -6.5389  -5.7725  -3.8796
    -3.0029  -2.7681  -2.5737  -2.5452  -2.4266  -2.3745  -2.3286  -2.3079
    -2.2209  -2.1807  -2.1640  -2.1580  -2.1381  -2.0815  -2.0599  -2.0207
    -2.0009  -1.9867  -1.9783  -1.9539  -1.9491  -1.9174  -1.9014  -1.8825
    -1.8767  -1.8400  -1.8013  -1.7901  -1.7525  -1.7323  -1.7236  -1.6663
    -1.5670  -1.5346  -1.4902  -1.4247  -1.3612  -1.3575  -1.2889  -1.2683
    -1.2494  -1.2311  -1.1954  -1.1833  -1.0706  -1.0138  -0.9093  -0.8966
    -0.8908  -0.7862  -0.7517  -0.7102  -0.6798  -0.6427  -0.5870  -0.5086
    -0.5017  -0.4263  -0.3889  -0.3773  -0.3585  -0.2185  -0.1869  -0.1538
    -0.1296  -0.1251  -0.0710  -0.0281   0.0021   0.0396   0.0666   0.0995
     0.1156   0.1915   0.3285   0.3605   0.4024   0.5350   0.5626   0.6774
     0.7035   0.8235   0.8972   0.9418   0.9620   1.0397   1.1168   1.1385
     1.1442   1.2550   1.3058   1.3078   1.3252   2.2275   2.2290   2.3099
     2.3101   3.7816   4.0733   4.1986   4.2152   4.2560   4.3798   4.4451
     4.4806   4.5024   4.5052   4.5888

     the Fermi energy is     3.9766 ev

!    total energy              =   -2976.32721666 Ry
     estimated scf accuracy    <       0.00000006 Ry
     smearing contrib. (-TS)   =      -0.04070447 Ry
     internal energy E=F+TS    =   -2976.28651219 Ry

     The total energy is F=E-TS. E is the sum of the following terms:
     one-electron contribution =  -23821.16337885 Ry
     hartree contribution      =   12009.42436180 Ry
     xc contribution           =    -495.75710623 Ry
     ewald contribution        =    9331.20623037 Ry
     electric field correction =       0.00338072 Ry

     convergence has been achieved in  81 iterations

     Forces acting on atoms (cartesian axes, Ry/au):

     atom    1 type  1   force =     0.00015836   -0.00020042    0.09424631
     atom    2 type  1   force =    -0.00011199   -0.00035389   -0.17723781
     atom    3 type  2   force =     0.00008551    0.00003790   -0.02134066
     atom    4 type  2   force =     0.00001813   -0.00174111    0.05666833
     atom    5 type  2   force =    -0.01043441   -0.00127558    0.00673365
     atom    6 type  2   force =     0.01219237   -0.00072028    0.00624605
     atom    7 type  1   force =    -0.00028544    0.00287611   -0.01266288
     atom    8 type  1   force =    -0.00014639    0.00439939    0.00452984
     atom    9 type  2   force =    -0.00036426    0.00009175    0.00077031
     atom   10 type  2   force =    -0.00008255   -0.00089025   -0.00638901
     atom   11 type  2   force =    -0.00041614   -0.00032722    0.00006395
     atom   12 type  2   force =    -0.00032138   -0.00042087    0.00015104
     atom   13 type  1   force =    -0.00034286   -0.00017230   -0.00033145
     atom   14 type  1   force =     0.00003280   -0.00043753   -0.00034418
     atom   15 type  2   force =    -0.00019502   -0.00010083    0.00002535
     atom   16 type  2   force =    -0.00065887    0.00023803   -0.00032493
     atom   17 type  2   force =    -0.00013034    0.00007545    0.00018448
     atom   18 type  2   force =     0.00034834   -0.00007265    0.00031928
     atom   19 type  1   force =     0.00029177   -0.00093886   -0.00004213
     atom   20 type  1   force =     0.00015548   -0.00023493    0.00063033
     atom   21 type  2   force =     0.00004785    0.00002248    0.10365348
     atom   22 type  2   force =    -0.00031181    0.00012830    0.00054346
     atom   23 type  2   force =    -0.07081795   -0.00011350   -0.02714835
     atom   24 type  2   force =     0.07071361    0.00032268   -0.02718061
     atom   25 type  1   force =    -0.00006169   -0.00022963    0.09367112
     atom   26 type  1   force =    -0.00012997   -0.00041837   -0.17736240
     atom   27 type  2   force =     0.00014844   -0.00039418   -0.02029759
     atom   28 type  2   force =     0.00005261   -0.00138274    0.05582087
     atom   29 type  2   force =    -0.01030112   -0.00029932    0.00538683
     atom   30 type  2   force =     0.01197235    0.00009995    0.00502509
     atom   31 type  1   force =    -0.00017348    0.00358518   -0.01531976
     atom   32 type  1   force =    -0.00018954   -0.00486300    0.00437697
     atom   33 type  2   force =    -0.00006888   -0.00017082    0.00032706
     atom   34 type  2   force =     0.00120513    0.00258736   -0.00427812
     atom   35 type  2   force =    -0.00070941   -0.00016368    0.00018177
     atom   36 type  2   force =    -0.00001223   -0.00003044    0.00045802
     atom   37 type  1   force =     0.00038842    0.00041353   -0.00030904
     atom   38 type  1   force =    -0.00000228    0.00052995   -0.00157870
     atom   39 type  2   force =     0.00026941   -0.00045037   -0.00021826
     atom   40 type  2   force =     0.00004548    0.00004663    0.00059661
     atom   41 type  2   force =    -0.00020427   -0.00027874   -0.00018698
     atom   42 type  2   force =     0.00046009   -0.00036430    0.00004254
     atom   43 type  1   force =    -0.00063556    0.00064910    0.00061104
     atom   44 type  1   force =    -0.00009355    0.00004420   -0.00006544
     atom   45 type  2   force =     0.00004021   -0.00002797    0.10366667
     atom   46 type  2   force =    -0.07085451   -0.00005620   -0.02714900
     atom   47 type  2   force =     0.07074988    0.00034705   -0.02717750
     atom   48 type  3   force =    -0.00026988    0.00085252    0.00004767
     atom   49 type  4   force =     0.00307224   -0.00282338   -0.00192962
     atom   50 type  5   force =     0.00179588   -0.00041610   -0.00033970
     atom   51 type  5   force =    -0.00285049    0.00277425    0.00183281
     atom   52 type  3   force =     0.00037924   -0.00010779    0.00013108
     atom   53 type  5   force =    -0.00134979   -0.00009448    0.00036142
     atom   54 type  5   force =     0.00022262   -0.00035999    0.00057438
     atom   55 type  5   force =    -0.00064395   -0.00002270    0.00020225
     atom   56 type  2   force =    -0.00029681    0.00124098   -0.00058292
     atom   57 type  5   force =    -0.00029307   -0.00076382    0.00041817
     atom   58 type  5   force =    -0.00108628    0.00035549    0.00129882

     Total force =     0.365365     Total SCF correction =     0.000398
  @ DRIVER MODE: Message from server: STATUS
  @ DRIVER MODE: Message from server: GETFORCE
  @ DRIVER MODE: Returning v,forces,stress,ensemble

     Writing output data file ./calc.save/
  @ DRIVER MODE: Message from server: EXIT
  @ DRIVE MODE: Exiting

     General routines

     Parallel routines

   This run was terminated on:   0: 9: 7  16Sep2021

   JOB DONE.