     Program PWSCF v.6.7GPU starts on 23Sep2021 at 18:21:20

     R & G space division:  proc/nbgrp/npool/nimage =       8
     Reading input from /storage/home/hcoda1/3/ntian30/research/carbon/CxH_vib/H2O_calc/ads_slab/CH2NNHHHHO_a/out_0017/pw.inp
Warning: card &CELL ignored
Warning: card   CELL_DYNAMICS='IPI', ignored
Warning: card / ignored

     Current dimensions of program PWSCF are:
     Max number of different atomic species (ntypx) = 10
     Max number of k-points (npk) =  40000
     Max angular momentum in pseudopotentials (lmaxx) =  3
     Presently no symmetry can be used with electric field

     Message from routine cell_base_init:
     DEPRECATED: use true lattice parameter, not A to a.u. conversion factor

     IMPORTANT: XC functional enforced from input :
     Exchange-correlation= BEEF-VDW
                           (   1   4  43  14   2   0   0)
     Any further DFT definition will be discarded
     Please, verify this is what you really want

  @ DRIVER MODE: Connecting to
 qe_1139763_2947316.sched-torque.pace.gatech.eduds7452eq_scratch
  using UNIX socket
  @ DRIVER MODE: Message from server: STATUS
  @ DRIVER MODE: Message from server: INIT
  @ DRIVER MODE: Receiving replica           0          -1
  @ DRIVER MODE: Receiving encoded integer          25
  @ DRIVER MODE:  SCF:  T  FORCE:  T  STRESS:  F  VC:  F  ENSEMBLE:  F
  @ DRIVER MODE:  SCF:  T  FORCE:  T  STRESS:  F  VC:  F  ENSEMBLE:  F

     Using Slab Decomposition

     bravais-lattice index     =            0
     lattice parameter (alat)  =       1.8897  a.u.
     unit-cell volume          =    6658.9804 (a.u.)^3
     number of atoms/cell      =           57
     number of atomic types    =            5
     number of electrons       =       404.00
     number of Kohn-Sham states=          212
     kinetic-energy cutoff     =      29.3995  Ry
     charge density cutoff     =     293.9946  Ry
     scf convergence threshold =      7.3E-08
     mixing beta               =       0.0500
     number of iterations used =            8  plain     mixing
     Exchange-correlation= BEEF-VDW
                           (   1   4  43  14   2   0   0)

     celldm(1)=   1.889726  celldm(2)=   0.000000  celldm(3)=   0.000000
     celldm(4)=   0.000000  celldm(5)=   0.000000  celldm(6)=   0.000000

     crystal axes: (cart. coord. in units of alat)
               a(1) = (   6.579727   0.000000   0.000000 )
               a(2) = (  -0.000775   5.961596   0.000000 )
               a(3) = (   0.000000   0.000000  25.155947 )

     reciprocal axes: (cart. coord. in units 2 pi/alat)
               b(1) = (  0.151982  0.000020  0.000000 )
               b(2) = (  0.000000  0.167740  0.000000 )
               b(3) = (  0.000000  0.000000  0.039752 )

     PseudoPot. # 1 for Ti read from file:
     /storage/coda1/p-amedford6/0/shared/rich_project_chbe-medford/medford-share/data/pseudos_module/espresso/nninc/pbe/van/Ti.UPF
     MD5 check sum: 8e4df49b7f0d34bbd5052bf3f5ea0213
     Pseudo is Ultrasoft, Zval = 12.0
     Generated by new atomic code, or converted to UPF format
     Using radial grid of  851 points,  6 beta functions with:
                l(1) =   0
                l(2) =   0
                l(3) =   1
                l(4) =   1
                l(5) =   2
                l(6) =   2
     Q(r) pseudized with  8 coefficients,  rinner =    1.000   1.000   1.000
                                                       1.000   1.000

     PseudoPot. # 2 for O  read from file:
     /storage/coda1/p-amedford6/0/shared/rich_project_chbe-medford/medford-share/data/pseudos_module/espresso/nninc/pbe/van/O.UPF
     MD5 check sum: 78c19812648e8988a0fe644b0f25305e
     Pseudo is Ultrasoft, Zval =  6.0
     Generated by new atomic code, or converted to UPF format
     Using radial grid of  737 points,  4 beta functions with:
                l(1) =   0
                l(2) =   0
                l(3) =   1
                l(4) =   1
     Q(r) pseudized with  8 coefficients,  rinner =    0.800   0.800   0.800

     PseudoPot. # 3 for N  read from file:
     /storage/coda1/p-amedford6/0/shared/rich_project_chbe-medford/medford-share/data/pseudos_module/espresso/nninc/pbe/van/N.UPF
     MD5 check sum: 90d10febe142ad51ac9d5be1deb811c4
     Pseudo is Ultrasoft, Zval =  5.0
     Generated by new atomic code, or converted to UPF format
     Using radial grid of  729 points,  4 beta functions with:
                l(1) =   0
                l(2) =   0
                l(3) =   1
                l(4) =   1
     Q(r) pseudized with  8 coefficients,  rinner =    0.800   0.800   0.800

     PseudoPot. # 4 for C  read from file:
     /storage/coda1/p-amedford6/0/shared/rich_project_chbe-medford/medford-share/data/pseudos_module/espresso/nninc/pbe/van/C.UPF
     MD5 check sum: 1a69bf6b8db32088f5b2163dbdb77a27
     Pseudo is Ultrasoft, Zval =  4.0
     Generated by new atomic code, or converted to UPF format
     Using radial grid of  721 points,  4 beta functions with:
                l(1) =   0
                l(2) =   0
                l(3) =   1
                l(4) =   1
     Q(r) pseudized with  8 coefficients,  rinner =    0.800   0.800   0.800

     PseudoPot. # 5 for H  read from file:
     /storage/coda1/p-amedford6/0/shared/rich_project_chbe-medford/medford-share/data/pseudos_module/espresso/nninc/pbe/van/H.UPF
     MD5 check sum: b5ee9d7bfd3a09ee7748110bda690ff7
     Pseudo is Ultrasoft, Zval =  1.0
     Generated by new atomic code, or converted to UPF format
     Using radial grid of  615 points,  1 beta functions with:
                l(1) =   0
     Q(r) pseudized with  8 coefficients,  rinner =    0.800

     atomic species   valence    mass     pseudopotential
        Ti1           12.00    47.86700     Ti( 1.00)
        O1             6.00    15.99900     O ( 1.00)
        N1             5.00    14.00700     N ( 1.00)
        C1             4.00    12.01100     C ( 1.00)
        H1             1.00     1.00800     H ( 1.00)

     No symmetry found

   Cartesian axes

     site n.     atom                  positions (alat units)
         1           Ti1 tau(   1) = (   0.0004258   2.9801865   6.0000000  )
         2           Ti1 tau(   2) = (   3.2906075   1.4906267   6.0002472  )
         3           O1  tau(   3) = (   0.0006271   0.0005054   7.9858123  )
         4           O1  tau(   4) = (   3.2906025   0.0005020   7.3038282  )
         5           O1  tau(   5) = (   4.5942328   1.4918067   9.2879030  )
         6           O1  tau(   6) = (   1.9868534   1.4903216   9.2879459  )
         7           Ti1 tau(   7) = (   3.2907910   2.8959150   9.1758416  )
         8           Ti1 tau(   8) = (   0.0015273   1.4827037   9.2680791  )
         9           O1  tau(   9) = (   3.3027076   5.9092304  11.3732431  )
        10           O1  tau(  10) = (   0.0116148   5.9584955  10.6183126  )
        11           O1  tau(  11) = (   1.2953868   1.4751764  12.6403503  )
        12           O1  tau(  12) = (   5.3168701   1.4807623  12.6366210  )
        13           Ti1 tau(  13) = (   0.0172323   2.9996225  12.5311828  )
        14           Ti1 tau(  14) = (   3.3257086   1.2755711  12.7138078  )
        15           O1  tau(  15) = (   6.5733368   0.1082846  14.6600873  )
        16           O1  tau(  16) = (   3.3238075   0.0838359  14.0473399  )
        17           O1  tau(  17) = (   4.5575128   1.5393005  16.2317518  )
        18           O1  tau(  18) = (   2.0302387   1.4963625  16.2670071  )
        19           Ti1 tau(  19) = (   3.2366114   2.9448900  15.6849520  )
        20           Ti1 tau(  20) = (   6.5300729   1.3987400  16.1165465  )
        21           O1  tau(  21) = (   3.2904802   0.0005063   4.7018136  )
        22           O1  tau(  22) = (   0.0022030   5.7760056  17.1861099  )
        23           O1  tau(  23) = (   1.3043587   1.4918075   6.0039043  )
        24           O1  tau(  24) = (   5.2767064   1.4903225   6.0039473  )
        25           Ti1 tau(  25) = (   0.0000382   5.9609847   6.0000000  )
        26           Ti1 tau(  26) = (   3.2902200   4.4714249   6.0002472  )
        27           O1  tau(  27) = (   0.0002396   2.9813036   7.9858123  )
        28           O1  tau(  28) = (   3.2902150   2.9813002   7.3038282  )
        29           O1  tau(  29) = (   4.5938453   4.4726049   9.2879030  )
        30           O1  tau(  30) = (   1.9864658   4.4711199   9.2879459  )
        31           Ti1 tau(  31) = (   3.2891106   5.8743827   9.1763621  )
        32           Ti1 tau(  32) = (   0.0006254   4.4649316   9.2693709  )
        33           O1  tau(  33) = (   3.3012885   2.9833904  11.3212188  )
        34           O1  tau(  34) = (   0.0092240   2.9805883  10.6323155  )
        35           O1  tau(  35) = (   1.2895456   4.4501540  12.7025460  )
        36           O1  tau(  36) = (   5.3143371   4.4382646  12.6927937  )
        37           Ti1 tau(  37) = (   0.0343555   0.0433052  12.5107970  )
        38           Ti1 tau(  38) = (   3.3217552   4.3482123  12.4486840  )
        39           O1  tau(  39) = (   0.0141661   2.9064423  14.8877341  )
        40           O1  tau(  40) = (   3.2920978   2.9424077  13.9176102  )
        41           O1  tau(  41) = (   4.5506947   4.3398720  16.1100615  )
        42           O1  tau(  42) = (   2.0210198   4.4131678  16.0160425  )
        43           Ti1 tau(  43) = (   3.3132698   5.9358869  16.2610495  )
        44           Ti1 tau(  44) = (   0.0826266   4.5979890  15.7080129  )
        45           O1  tau(  45) = (   3.2900926   2.9813045   4.7018136  )
        46           O1  tau(  46) = (   1.3039711   4.4726057   6.0039043  )
        47           O1  tau(  47) = (   5.2763189   4.4711207   6.0039473  )
        48           N1  tau(  48) = (   6.5643472   2.7424576  18.0625816  )
        49           C1  tau(  49) = (   0.8744728   2.5686873  19.0232366  )
        50           H1  tau(  50) = (   0.8543601   3.1364980  19.9365443  )
        51           H1  tau(  51) = (   1.6733950   1.8773151  18.8242213  )
        52           N1  tau(  52) = (   5.5366205   3.6779994  18.4753393  )
        53           H1  tau(  53) = (   5.9486539   4.6347284  18.5635686  )
        54           H1  tau(  54) = (   4.8775701   3.8234783  17.6645784  )
        55           H1  tau(  55) = (   5.0440791   3.3775604  19.3232938  )
        56           O1  tau(  56) = (   3.4091604   5.6710612  18.1544331  )
        57           H1  tau(  57) = (   3.1368125   0.4262250  18.7404830  )

     number of k points=    10  Fermi-Dirac smearing, width (Ry)=  0.0073
                       cart. coord. in units 2pi/alat
        k(    1) = (   0.0000000   0.0000000   0.0000000), wk =   0.1250000
        k(    2) = (   0.0000000   0.0419351   0.0000000), wk =   0.2500000
        k(    3) = (   0.0000000  -0.0838702   0.0000000), wk =   0.1250000
        k(    4) = (   0.0379955   0.0000049   0.0000000), wk =   0.2500000
        k(    5) = (   0.0379955   0.0419400   0.0000000), wk =   0.2500000
        k(    6) = (   0.0379955  -0.0838652   0.0000000), wk =   0.2500000
        k(    7) = (   0.0379955  -0.0419301   0.0000000), wk =   0.2500000
        k(    8) = (  -0.0759910  -0.0000099   0.0000000), wk =   0.1250000
        k(    9) = (  -0.0759910   0.0419252   0.0000000), wk =   0.2500000
        k(   10) = (  -0.0759910  -0.0838800   0.0000000), wk =   0.1250000

     Initial potential from superposition of free atoms

     starting charge  387.99913, renormalised to  404.00000

     negative rho (up, down):  1.547E-02 0.000E+00

     %%%%%%%%%%%%%%%%%%%%%%%%%%%%%%%%%%%%%%%%%%%%%%%%%%%%%%%%%%%%%%%%%%%%%%%%
     %                                                                      %
     % You are using vdW-DF, which was implemented by the Thonhauser group. %
     % Please cite the following two papers that made this development      %
     % possible and the two reviews that describe the various versions:     %
     %                                                                      %
     %   T. Thonhauser et al., PRL 115, 136402 (2015).                      %
     %   T. Thonhauser et al., PRB 76, 125112 (2007).                       %
     %   K. Berland et al., Rep. Prog. Phys. 78, 066501 (2015).             %
     %   D.C. Langreth et al., J. Phys.: Condens. Matter 21, 084203 (2009). %
     %                                                                      %
     %                                                                      %
     % If you are calculating the stress with vdW-DF, please also cite:     %
     %                                                                      %
     %   R. Sabatini et al., J. Phys.: Condens. Matter 24, 424209 (2012).   %
     %                                                                      %
     %%%%%%%%%%%%%%%%%%%%%%%%%%%%%%%%%%%%%%%%%%%%%%%%%%%%%%%%%%%%%%%%%%%%%%%%

     Adding external electric field

     Computed dipole along edir(3) :
        Dipole              -13.5854 Ry au,        -34.5306 Debye
        Dipole field         -0.0256 Ry au,

        Potential amp.        2.3766 Ry
        Total length         46.3494 bohr

     Starting wfcs are  306 atomic wfcs
  @ DRIVER MODE: Message from server: STATUS
  @ DRIVER MODE: Message from server: POSDATA
  @ DRIVER MODE: Reading and sharing cell
  @ DRIVER MODE: Reading and sharing positions
  @ DRIVER MODE: Received positions

     Self-consistent Calculation

     iteration #  1     ecut=    29.40 Ry     beta= 0.05
     Davidson diagonalization with overlap
     c_bands:  4 eigenvalues not converged
     c_bands:  1 eigenvalues not converged
     c_bands:  1 eigenvalues not converged
     c_bands:  1 eigenvalues not converged
     c_bands:  2 eigenvalues not converged
     c_bands:  4 eigenvalues not converged
     c_bands:  5 eigenvalues not converged
     c_bands:  2 eigenvalues not converged
     ethr =  1.00E-05,  avg # of iterations = 29.7

[...]

     total energy              =   -2247.78551542 Ry
     estimated scf accuracy    <    8243.06588196 Ry

     iteration #  2     ecut=    29.40 Ry     beta= 0.05
     Davidson diagonalization with overlap
     ethr =  1.00E-02,  avg # of iterations = 26.1

[...]

     iteration # 53     ecut=    29.40 Ry     beta= 0.05
     Davidson diagonalization with overlap
     c_bands:  1 eigenvalues not converged
     c_bands:  1 eigenvalues not converged
     ethr =  3.40E-07,  avg # of iterations = 17.0

[...]

     total energy              =   -2975.12435428 Ry
     estimated scf accuracy    <       0.00000010 Ry

     iteration # 75     ecut=    29.40 Ry     beta= 0.05
     Davidson diagonalization with overlap
     ethr =  2.38E-11,  avg # of iterations =  8.2

     negative rho (up, down):  1.381E-02 0.000E+00

     Adding external electric field

     Computed dipole along edir(3) :
        Dipole                1.3752 Ry au,          3.4954 Debye
        Dipole field          0.0026 Ry au,

        Potential amp.       -0.2406 Ry
        Total length         46.3494 bohr

     End of self-consistent calculation

          k = 0.0000 0.0000 0.0000 ( 18029 PWs)   bands (ev):

   -55.3869 -55.2474 -55.2133 -55.1220 -55.0867 -55.0809 -55.0768 -55.0428
   -55.0365 -54.9883 -54.9605 -54.9241 -54.8717 -54.7428 -54.2276 -54.1936
   -31.7329 -31.7161 -31.6141 -31.6064 -31.5853 -31.5786 -31.5383 -31.5298
   -31.5201 -31.4933 -31.4500 -31.4459 -31.3999 -31.3722 -31.3706 -31.3606
   -31.3547 -31.3135 -31.3047 -31.3029 -31.2858 -31.2752 -31.2708 -31.2656
   -31.2636 -31.2246 -31.2208 -31.2203 -31.2164 -31.2040 -31.1948 -31.1895
   -31.1823 -31.1492 -31.1425 -31.1115 -31.1036 -31.0878 -31.0817 -31.0777
   -31.0040 -30.9103 -30.6340 -30.5467 -30.5243 -30.4513 -30.3649 -30.2533
   -19.1874 -16.3150 -15.9261 -15.7700 -15.5889 -15.4502 -15.4098 -15.1864
   -15.1306 -15.0440 -15.0233 -14.9057 -14.7891 -14.7885 -14.7677 -14.7610
   -14.7454 -14.7003 -14.6948 -14.6917 -14.6733 -14.6518 -14.6311 -14.6211
   -14.5836 -14.5421 -14.3913 -14.3695 -14.3514 -14.3083 -14.1712 -14.0036
   -12.7266 -12.6101  -9.2013  -7.6890  -6.8961  -6.1572  -4.3154  -3.6107
    -3.2746  -3.1770  -3.1543  -3.1439  -3.0110  -2.8404  -2.6453  -2.5835
    -2.5212  -2.4062  -2.3777  -2.2818  -2.2594  -2.2190  -2.1630  -2.1401
    -2.1122  -2.0580  -2.0448  -2.0368  -1.9465  -1.9267  -1.8244  -1.8034
    -1.7705  -1.7119  -1.6831  -1.6185  -1.5865  -1.5642  -1.5622  -1.5541
    -1.5311  -1.5173  -1.4953  -1.4431  -1.4116  -1.3488  -1.2836  -1.2079
    -1.1336  -0.9109  -0.8643  -0.8448  -0.7913  -0.7524  -0.6899  -0.6657
    -0.6454  -0.6328  -0.5640  -0.4537  -0.4055  -0.3649  -0.3098  -0.2854
    -0.2544  -0.1477  -0.0708  -0.0528  -0.0072   0.0321   0.0580   0.1231
     0.1582   0.1998   0.2685   0.2822   0.3594   0.3988   0.4223   0.4694
     0.5089   0.5727   0.6176   0.6669   0.6741   0.7037   0.7213   0.7527
     0.8385   0.8559   0.8974   0.9312   0.9922   1.0464   1.0712   1.2451
     1.3698   1.4048   1.4740   1.7408   1.7985   1.8144   1.9893   2.3666
     2.4123   3.8389   3.9791   3.9898   3.9978   4.0667   4.1201   4.1427
     4.3250   4.3643   4.4822   4.5209

[...]

          k = 0.0380-0.0419 0.0000 ( 17876 PWs)   bands (ev):

[...]

          k =-0.0760-0.0000 0.0000 ( 17886 PWs)   bands (ev):

[...]

          k =-0.0760-0.0839 0.0000 ( 17948 PWs)   bands (ev):

   -55.3862 -55.2305 -55.2301 -55.1074 -55.1011 -55.0814 -55.0600 -55.0591
   -55.0297 -54.9951 -54.9592 -54.9184 -54.8774 -54.7439 -54.2109 -54.2102
   -31.6556 -31.5970 -31.5883 -31.5483 -31.5480 -31.5239 -31.5235 -31.5030
   -31.4415 -31.4162 -31.3951 -31.3830 -31.3797 -31.3760 -31.3685 -31.3503
   -31.3496 -31.3457 -31.3429 -31.3323 -31.3287 -31.3102 -31.3028 -31.2818
   -31.2691 -31.2616 -31.2554 -31.2458 -31.2368 -31.2349 -31.2317 -31.2243
   -31.2165 -31.2110 -31.1845 -31.1474 -31.1213 -31.1079 -31.0951 -31.0841
   -31.0057 -30.9825 -30.5373 -30.5368 -30.4474 -30.4462 -30.4084 -30.4078
   -19.1835 -16.3018 -15.4576 -15.4101 -15.2236 -15.2202 -15.1945 -15.1318
   -15.0932 -15.0416 -15.0252 -14.9894 -14.9509 -14.9345 -14.9095 -14.8382
   -14.7946 -14.7683 -14.7569 -14.7206 -14.7048 -14.7040 -14.6724 -14.6500
   -14.6398 -14.5737 -14.5613 -14.4940 -14.4380 -14.4131 -14.2842 -14.2410
   -12.7121 -12.7117  -9.1891  -7.7003  -6.8815  -6.1659  -4.3457  -3.5989
    -2.6477  -2.6436  -2.4452  -2.4123  -2.3472  -2.2761  -2.2424  -2.2227
    -2.1750  -2.1680  -2.1284  -2.1061  -2.0695  -2.0413  -2.0339  -2.0164
    -1.9998  -1.9770  -1.9553  -1.9381  -1.9323  -1.9027  -1.8816  -1.8713
    -1.8287  -1.8214  -1.7966  -1.7784  -1.7443  -1.6801  -1.6196  -1.4998
    -1.4614  -1.4330  -1.4127  -1.3976  -1.3692  -1.3341  -1.3184  -1.3042
    -1.2749  -1.2618  -1.1531  -1.0052  -0.9936  -0.8990  -0.8647  -0.8594
    -0.7540  -0.7218  -0.6881  -0.6623  -0.6106  -0.5684  -0.4687  -0.4570
    -0.4153  -0.3474  -0.2505  -0.2405  -0.2248  -0.1962  -0.1728  -0.1664
    -0.1082  -0.0700  -0.0335   0.0180   0.0381   0.0605   0.0928   0.1869
     0.2164   0.3302   0.4534   0.4912   0.5163   0.5470   0.6810   0.7349
     0.7796   0.8535   0.9167   0.9367   1.0400   1.0583   1.0898   1.1449
     1.2157   1.2653   1.2814   1.3095   1.3223   2.1595   2.1676   2.2324
     2.2328   3.7959   4.0020   4.2533   4.3267   4.3479   4.3773   4.3996
     4.4318   4.4582   4.5015   4.5307

     the Fermi energy is     3.8747 ev

!    total energy              =   -2975.12437730 Ry
     estimated scf accuracy    <       0.00000006 Ry
     smearing contrib. (-TS)   =      -0.03102974 Ry
     internal energy E=F+TS    =   -2975.09334756 Ry

     The total energy is F=E-TS. E is the sum of the following terms:
     one-electron contribution =  -23510.73389618 Ry
     hartree contribution      =   11853.66971704 Ry
     xc contribution           =    -494.86403815 Ry
     ewald contribution        =    9176.83130084 Ry
     electric field correction =       0.00356889 Ry

     convergence has been achieved in  75 iterations

     Forces acting on atoms (cartesian axes, Ry/au):

     atom    1 type  1   force =     0.00014265   -0.00020854    0.09452010
     atom    2 type  1   force =    -0.00007822    0.00039914   -0.17563237
     atom    3 type  2   force =     0.00003373   -0.00002868   -0.02145024
     atom    4 type  2   force =     0.00000326   -0.00223501    0.05508791
     atom    5 type  2   force =    -0.00783605   -0.00314134    0.00368893
     atom    6 type  2   force =     0.00955843   -0.00256901    0.00358080
     atom    7 type  1   force =     0.00002876   -0.00298503    0.00576087
     atom    8 type  1   force =    -0.00022723    0.00257476    0.00564716
     atom    9 type  2   force =    -0.00035235   -0.00027791    0.00001216
     atom   10 type  2   force =    -0.00116136   -0.00256859   -0.00856459
     atom   11 type  2   force =    -0.00072060   -0.00069730   -0.00014477
     atom   12 type  2   force =     0.00031962   -0.00070049   -0.00006001
     atom   13 type  1   force =     0.00008742    0.00006049    0.00044100
     atom   14 type  1   force =    -0.00015600   -0.00034436    0.00017173
     atom   15 type  2   force =     0.00012752   -0.00043928    0.00004737
     atom   16 type  2   force =     0.00005819   -0.00073508   -0.00026350
     atom   17 type  2   force =     0.00010446    0.00029660   -0.00031012
     atom   18 type  2   force =    -0.00047770    0.00031913   -0.00044139
     atom   19 type  1   force =     0.00033067    0.00029851   -0.00008991
     atom   20 type  1   force =     0.00017271   -0.00038133    0.00000537
     atom   21 type  2   force =     0.00005612    0.00002444    0.10329617
     atom   22 type  2   force =    -0.00001033    0.00081976   -0.00073492
     atom   23 type  2   force =    -0.07175193   -0.00020003   -0.02724035
     atom   24 type  2   force =     0.07158796    0.00024147   -0.02730471
     atom   25 type  1   force =     0.00006425   -0.00033911    0.09390884
     atom   26 type  1   force =    -0.00016833   -0.00123028   -0.17590863
     atom   27 type  2   force =     0.00013655   -0.00024448   -0.02017903
     atom   28 type  2   force =     0.00003526   -0.00056027    0.05061036
     atom   29 type  2   force =    -0.00678579    0.00147492    0.00205260
     atom   30 type  2   force =     0.00848237    0.00183124    0.00196653
     atom   31 type  1   force =     0.00014965    0.00700693   -0.00369970
     atom   32 type  1   force =    -0.00027473   -0.00258237    0.00510925
     atom   33 type  2   force =    -0.00000528    0.00031043   -0.00012679
     atom   34 type  2   force =    -0.00012078    0.00279025   -0.00828437
     atom   35 type  2   force =     0.00025338    0.00066844   -0.00029202
     atom   36 type  2   force =    -0.00100844    0.00054443   -0.00043893
     atom   37 type  1   force =     0.00013504   -0.00043700    0.00014263
     atom   38 type  1   force =    -0.00016013   -0.00009562   -0.00008040
     atom   39 type  2   force =    -0.00008769   -0.00001493    0.00012849
     atom   40 type  2   force =    -0.00046879    0.00013721   -0.00004178
     atom   41 type  2   force =    -0.00003124    0.00029905   -0.00028615
     atom   42 type  2   force =     0.00040695    0.00027740    0.00025491
     atom   43 type  1   force =     0.00028912    0.00061943    0.00004339
     atom   44 type  1   force =    -0.00008096   -0.00037441   -0.00002475
     atom   45 type  2   force =     0.00001626   -0.00011047    0.10305980
     atom   46 type  2   force =    -0.07181500   -0.00004132   -0.02729815
     atom   47 type  2   force =     0.07165223    0.00035431   -0.02733764
     atom   48 type  3   force =     0.00020736   -0.00039204   -0.00168583
     atom   49 type  4   force =     0.00027918   -0.00490661   -0.00931447
     atom   50 type  5   force =     0.00045863    0.00511735    0.00910628
     atom   51 type  5   force =    -0.00131368    0.00026341   -0.00034764
     atom   52 type  3   force =     0.00028897    0.00000256   -0.00073730
     atom   53 type  5   force =    -0.00073365    0.00050522   -0.00050444
     atom   54 type  5   force =     0.00036389    0.00022437    0.00085790
     atom   55 type  5   force =     0.00027250    0.00022432    0.00011391
     atom   56 type  2   force =     0.00038549    0.00144349    0.00025254
     atom   57 type  5   force =    -0.00066232   -0.00028815   -0.00104212

     Total force =     0.362978     Total SCF correction =     0.000562
  @ DRIVER MODE: Message from server: STATUS
  @ DRIVER MODE: Message from server: GETFORCE
  @ DRIVER MODE: Returning v,forces,stress,ensemble

     Writing output data file ./calc.save/
  @ DRIVER MODE: Message from server: EXIT
  @ DRIVE MODE: Exiting

     General routines

     Parallel routines

   This run was terminated on:  18:48:20  23Sep2021

   JOB DONE.