     Program PWSCF v.6.7GPU starts on 24Sep2021 at  5:52:35

     R & G space division:  proc/nbgrp/npool/nimage =       8
     Reading input from /storage/home/hcoda1/3/ntian30/research/carbon/CxH_vib/H2O_calc/ads_slab/CH3NHHHO_a/out_0047/pw.inp
Warning: card &CELL ignored
Warning: card   CELL_DYNAMICS='IPI', ignored
Warning: card / ignored

     Current dimensions of program PWSCF are:
     Max number of different atomic species (ntypx) = 10
     Max number of k-points (npk) =  40000
     Max angular momentum in pseudopotentials (lmaxx) =  3
     Presently no symmetry can be used with electric field

     Message from routine cell_base_init:
     DEPRECATED: use true lattice parameter, not A to a.u. conversion factor

     IMPORTANT: XC functional enforced from input :
     Exchange-correlation= BEEF-VDW
                           (   1   4  43  14   2   0   0)
     Any further DFT definition will be discarded
     Please, verify this is what you really want

  @ DRIVER MODE: Connecting to
 qe_1139763_2947311.sched-torque.pace.gatech.edu1ll8fbnh_scratch
  using UNIX socket
  @ DRIVER MODE: Message from server: STATUS
  @ DRIVER MODE: Message from server: INIT
  @ DRIVER MODE: Receiving replica           0          -1
  @ DRIVER MODE: Receiving encoded integer          25
  @ DRIVER MODE:  SCF:  T  FORCE:  T  STRESS:  F  VC:  F  ENSEMBLE:  F
  @ DRIVER MODE:  SCF:  T  FORCE:  T  STRESS:  F  VC:  F  ENSEMBLE:  F

     Using Slab Decomposition

     bravais-lattice index     =            0
     lattice parameter (alat)  =       1.8897  a.u.
     unit-cell volume          =    6658.9804 (a.u.)^3
     number of atoms/cell      =           56
     number of atomic types    =            5
     number of electrons       =       399.00
     number of Kohn-Sham states=          209
     kinetic-energy cutoff     =      29.3995  Ry
     charge density cutoff     =     293.9946  Ry
     scf convergence threshold =      7.3E-08
     mixing beta               =       0.0500
     number of iterations used =            8  plain     mixing
     Exchange-correlation= BEEF-VDW
                           (   1   4  43  14   2   0   0)

     celldm(1)=   1.889726  celldm(2)=   0.000000  celldm(3)=   0.000000
     celldm(4)=   0.000000  celldm(5)=   0.000000  celldm(6)=   0.000000

     crystal axes: (cart. coord. in units of alat)
               a(1) = (   6.579727   0.000000   0.000000 )
               a(2) = (  -0.000775   5.961596   0.000000 )
               a(3) = (   0.000000   0.000000  25.155947 )

     reciprocal axes: (cart. coord. in units 2 pi/alat)
               b(1) = (  0.151982  0.000020  0.000000 )
               b(2) = (  0.000000  0.167740  0.000000 )
               b(3) = (  0.000000  0.000000  0.039752 )

     PseudoPot. # 1 for Ti read from file:
     /storage/coda1/p-amedford6/0/shared/rich_project_chbe-medford/medford-share/data/pseudos_module/espresso/nninc/pbe/van/Ti.UPF
     MD5 check sum: 8e4df49b7f0d34bbd5052bf3f5ea0213
     Pseudo is Ultrasoft, Zval = 12.0
     Generated by new atomic code, or converted to UPF format
     Using radial grid of  851 points,  6 beta functions with:
                l(1) =   0
                l(2) =   0
                l(3) =   1
                l(4) =   1
                l(5) =   2
                l(6) =   2
     Q(r) pseudized with  8 coefficients,  rinner =    1.000   1.000   1.000
                                                       1.000   1.000

     PseudoPot. # 2 for O  read from file:
     /storage/coda1/p-amedford6/0/shared/rich_project_chbe-medford/medford-share/data/pseudos_module/espresso/nninc/pbe/van/O.UPF
     MD5 check sum: 78c19812648e8988a0fe644b0f25305e
     Pseudo is Ultrasoft, Zval =  6.0
     Generated by new atomic code, or converted to UPF format
     Using radial grid of  737 points,  4 beta functions with:
                l(1) =   0
                l(2) =   0
                l(3) =   1
                l(4) =   1
     Q(r) pseudized with  8 coefficients,  rinner =    0.800   0.800   0.800

     PseudoPot. # 3 for N  read from file:
     /storage/coda1/p-amedford6/0/shared/rich_project_chbe-medford/medford-share/data/pseudos_module/espresso/nninc/pbe/van/N.UPF
     MD5 check sum: 90d10febe142ad51ac9d5be1deb811c4
     Pseudo is Ultrasoft, Zval =  5.0
     Generated by new atomic code, or converted to UPF format
     Using radial grid of  729 points,  4 beta functions with:
                l(1) =   0
                l(2) =   0
                l(3) =   1
                l(4) =   1
     Q(r) pseudized with  8 coefficients,  rinner =    0.800   0.800   0.800

     PseudoPot. # 4 for C  read from file:
     /storage/coda1/p-amedford6/0/shared/rich_project_chbe-medford/medford-share/data/pseudos_module/espresso/nninc/pbe/van/C.UPF
     MD5 check sum: 1a69bf6b8db32088f5b2163dbdb77a27
     Pseudo is Ultrasoft, Zval =  4.0
     Generated by new atomic code, or converted to UPF format
     Using radial grid of  721 points,  4 beta functions with:
                l(1) =   0
                l(2) =   0
                l(3) =   1
                l(4) =   1
     Q(r) pseudized with  8 coefficients,  rinner =    0.800   0.800   0.800

     PseudoPot. # 5 for H  read from file:
     /storage/coda1/p-amedford6/0/shared/rich_project_chbe-medford/medford-share/data/pseudos_module/espresso/nninc/pbe/van/H.UPF
     MD5 check sum: b5ee9d7bfd3a09ee7748110bda690ff7
     Pseudo is Ultrasoft, Zval =  1.0
     Generated by new atomic code, or converted to UPF format
     Using radial grid of  615 points,  1 beta functions with:
                l(1) =   0
     Q(r) pseudized with  8 coefficients,  rinner =    0.800

     atomic species   valence    mass     pseudopotential
        Ti1           12.00    47.86700     Ti( 1.00)
        O1             6.00    15.99900     O ( 1.00)
        N1             5.00    14.00700     N ( 1.00)
        C1             4.00    12.01100     C ( 1.00)
        H1             1.00     1.00800     H ( 1.00)

     No symmetry found

   Cartesian axes

     site n.     atom                  positions (alat units)
         1           Ti1 tau(   1) = (   0.0004258   2.9801865   6.0000000  )
         2           Ti1 tau(   2) = (   3.2906075   1.4906267   6.0002472  )
         3           O1  tau(   3) = (   0.0006271   0.0005054   7.9858123  )
         4           O1  tau(   4) = (   3.2906025   0.0005020   7.3038282  )
         5           O1  tau(   5) = (   4.5942328   1.4918067   9.2879030  )
         6           O1  tau(   6) = (   1.9868534   1.4903216   9.2879459  )
         7           Ti1 tau(   7) = (   3.2907910   2.8959150   9.1758416  )
         8           Ti1 tau(   8) = (   0.0015273   1.4827037   9.2680791  )
         9           O1  tau(   9) = (   3.2949530   5.9481847  11.3666340  )
        10           O1  tau(  10) = (   0.0116148   5.9584955  10.6183126  )
        11           O1  tau(  11) = (   1.2732546   1.4916747  12.6876809  )
        12           O1  tau(  12) = (   5.3119445   1.4892451  12.6851550  )
        13           Ti1 tau(  13) = (   6.5688325   2.9465269  12.5174317  )
        14           Ti1 tau(  14) = (   3.2996026   1.2975375  12.7241829  )
        15           O1  tau(  15) = (   0.0172205   5.8793003  14.6619373  )
        16           O1  tau(  16) = (   3.2917661   0.0702926  14.0149596  )
        17           O1  tau(  17) = (   4.5643074   1.5920826  16.1346482  )
        18           O1  tau(  18) = (   2.0131957   1.5841813  16.0575481  )
        19           Ti1 tau(  19) = (   3.2662748   3.0407108  15.6947786  )
        20           Ti1 tau(  20) = (   0.0618610   1.3206105  15.7998127  )
        21           O1  tau(  21) = (   3.2904802   0.0005063   4.7018136  )
        22           O1  tau(  22) = (   0.0233933   0.1570098  17.1842078  )
        23           O1  tau(  23) = (   1.3043587   1.4918075   6.0039043  )
        24           O1  tau(  24) = (   5.2767064   1.4903225   6.0039473  )
        25           Ti1 tau(  25) = (   0.0000382   5.9609847   6.0000000  )
        26           Ti1 tau(  26) = (   3.2902200   4.4714249   6.0002472  )
        27           O1  tau(  27) = (   0.0002396   2.9813036   7.9858123  )
        28           O1  tau(  28) = (   3.2902150   2.9813002   7.3038282  )
        29           O1  tau(  29) = (   4.5938453   4.4726049   9.2879030  )
        30           O1  tau(  30) = (   1.9864658   4.4711199   9.2879459  )
        31           Ti1 tau(  31) = (   3.2891106   5.8743827   9.1763621  )
        32           Ti1 tau(  32) = (   0.0006254   4.4649316   9.2693709  )
        33           O1  tau(  33) = (   3.2948289   2.9949798  11.3176834  )
        34           O1  tau(  34) = (   0.0092240   2.9805883  10.6323155  )
        35           O1  tau(  35) = (   1.2828652   4.4571597  12.6432593  )
        36           O1  tau(  36) = (   5.3079144   4.4605214  12.6419564  )
        37           Ti1 tau(  37) = (   0.0266940   5.9154698  12.5044250  )
        38           Ti1 tau(  38) = (   3.3008436   4.3760658  12.4353554  )
        39           O1  tau(  39) = (   6.5507285   3.0461080  14.9005035  )
        40           O1  tau(  40) = (   3.2938476   3.0131494  13.9233183  )
        41           O1  tau(  41) = (   4.5350990   4.4864192  16.1518712  )
        42           O1  tau(  42) = (   1.9883536   4.4285065  16.1690201  )
        43           Ti1 tau(  43) = (   3.3916644   0.0784854  16.2809578  )
        44           Ti1 tau(  44) = (   0.0590441   4.5159846  16.0209683  )
        45           O1  tau(  45) = (   3.2900926   2.9813045   4.7018136  )
        46           O1  tau(  46) = (   1.3039711   4.4726057   6.0039043  )
        47           O1  tau(  47) = (   5.2763189   4.4711207   6.0039473  )
        48           N1  tau(  48) = (   6.2706434   3.3837210  18.0754458  )
        49           C1  tau(  49) = (   0.7642246   3.1223808  19.0622891  )
        50           H1  tau(  50) = (   1.3158356   4.0410886  19.2409436  )
        51           H1  tau(  51) = (   0.3597117   2.7583523  20.0089400  )
        52           H1  tau(  52) = (   1.4517744   2.3810259  18.6668870  )
        53           H1  tau(  53) = (   5.6745199   4.1349376  18.4206214  )
        54           H1  tau(  54) = (   5.6587021   2.5696541  18.0151127  )
        55           O1  tau(  55) = (   3.1972372   0.0910451  18.1223504  )
        56           H1  tau(  56) = (   2.2767176   0.1080423  18.4377142  )

     number of k points=    10  Fermi-Dirac smearing, width (Ry)=  0.0073
                       cart. coord. in units 2pi/alat
        k(    1) = (   0.0000000   0.0000000   0.0000000), wk =   0.1250000
        k(    2) = (   0.0000000   0.0419351   0.0000000), wk =   0.2500000
        k(    3) = (   0.0000000  -0.0838702   0.0000000), wk =   0.1250000
        k(    4) = (   0.0379955   0.0000049   0.0000000), wk =   0.2500000
        k(    5) = (   0.0379955   0.0419400   0.0000000), wk =   0.2500000
        k(    6) = (   0.0379955  -0.0838652   0.0000000), wk =   0.2500000
        k(    7) = (   0.0379955  -0.0419301   0.0000000), wk =   0.2500000
        k(    8) = (  -0.0759910  -0.0000099   0.0000000), wk =   0.1250000
        k(    9) = (  -0.0759910   0.0419252   0.0000000), wk =   0.2500000
        k(   10) = (  -0.0759910  -0.0838800   0.0000000), wk =   0.1250000

     Initial potential from superposition of free atoms

     starting charge  382.99914, renormalised to  399.00000

     negative rho (up, down):  1.588E-02 0.000E+00

     %%%%%%%%%%%%%%%%%%%%%%%%%%%%%%%%%%%%%%%%%%%%%%%%%%%%%%%%%%%%%%%%%%%%%%%%
     %                                                                      %
     % You are using vdW-DF, which was implemented by the Thonhauser group. %
     % Please cite the following two papers that made this development      %
     % possible and the two reviews that describe the various versions:     %
     %                                                                      %
     %   T. Thonhauser et al., PRL 115, 136402 (2015).                      %
     %   T. Thonhauser et al., PRB 76, 125112 (2007).                       %
     %   K. Berland et al., Rep. Prog. Phys. 78, 066501 (2015).             %
     %   D.C. Langreth et al., J. Phys.: Condens. Matter 21, 084203 (2009). %
     %                                                                      %
     %                                                                      %
     % If you are calculating the stress with vdW-DF, please also cite:     %
     %                                                                      %
     %   R. Sabatini et al., J. Phys.: Condens. Matter 24, 424209 (2012).   %
     %                                                                      %
     %%%%%%%%%%%%%%%%%%%%%%%%%%%%%%%%%%%%%%%%%%%%%%%%%%%%%%%%%%%%%%%%%%%%%%%%

     Adding external electric field

     Computed dipole along edir(3) :
        Dipole              -10.6915 Ry au,        -27.1750 Debye
        Dipole field         -0.0202 Ry au,

        Potential amp.        1.8703 Ry
        Total length         46.3494 bohr

     Starting wfcs are  302 atomic wfcs
  @ DRIVER MODE: Message from server: STATUS
  @ DRIVER MODE: Message from server: POSDATA
  @ DRIVER MODE: Reading and sharing cell
  @ DRIVER MODE: Reading and sharing positions
  @ DRIVER MODE: Received positions

     Self-consistent Calculation

     iteration #  1     ecut=    29.40 Ry     beta= 0.05
     Davidson diagonalization with overlap
     c_bands:  3 eigenvalues not converged
     c_bands:  2 eigenvalues not converged
     c_bands:  2 eigenvalues not converged
     c_bands:  5 eigenvalues not converged
     c_bands:  2 eigenvalues not converged
     c_bands:  5 eigenvalues not converged
     c_bands:  4 eigenvalues not converged
     c_bands:  3 eigenvalues not converged
     ethr =  1.00E-05,  avg # of iterations = 21.6

[...]

     total energy              =   -2438.22722393 Ry
     estimated scf accuracy    <    5770.40839017 Ry

     iteration #  2     ecut=    29.40 Ry     beta= 0.05
     Davidson diagonalization with overlap
     ethr =  1.00E-02,  avg # of iterations = 22.9

[...]

     iteration # 77     ecut=    29.40 Ry     beta= 0.05
     Davidson diagonalization with overlap
     c_bands:  1 eigenvalues not converged
     ethr =  7.65E-11,  avg # of iterations = 17.5

[...]

     total energy              =   -2955.26285056 Ry
     estimated scf accuracy    <       0.00000010 Ry

     iteration # 84     ecut=    29.40 Ry     beta= 0.05
     Davidson diagonalization with overlap
     ethr =  2.29E-11,  avg # of iterations = 11.8

     negative rho (up, down):  1.648E-02 0.000E+00

     Adding external electric field

     Computed dipole along edir(3) :
        Dipole                0.9901 Ry au,          2.5167 Debye
        Dipole field          0.0019 Ry au,

        Potential amp.       -0.1732 Ry
        Total length         46.3494 bohr

     End of self-consistent calculation

          k = 0.0000 0.0000 0.0000 ( 18029 PWs)   bands (ev):

   -55.6676 -55.6249 -55.5908 -55.5039 -55.4904 -55.4556 -55.4539 -55.4522
   -55.4198 -55.4065 -55.3557 -55.2609 -55.2189 -55.2003 -54.6007 -54.5666
   -32.1102 -32.0065 -32.0029 -31.9766 -31.9568 -31.9413 -31.9156 -31.8897
   -31.8880 -31.8723 -31.8708 -31.7782 -31.7776 -31.7641 -31.7374 -31.7357
   -31.7328 -31.7321 -31.7313 -31.6942 -31.6825 -31.6530 -31.6498 -31.6441
   -31.6397 -31.6324 -31.6245 -31.5955 -31.5940 -31.5870 -31.5810 -31.5778
   -31.5668 -31.5517 -31.5372 -31.5119 -31.4524 -31.4433 -31.4375 -31.4147
   -31.4070 -31.4023 -31.0067 -30.9203 -30.8978 -30.8243 -30.7379 -30.6260
   -16.5299 -16.2867 -16.1419 -15.9741 -15.8306 -15.8030 -15.7632 -15.5879
   -15.4949 -15.4309 -15.2333 -15.2111 -15.1635 -15.1538 -15.1473 -15.1242
   -15.1148 -15.0694 -15.0510 -15.0474 -15.0376 -15.0201 -14.9837 -14.9416
   -14.8996 -14.8770 -14.7646 -14.7084 -14.6678 -14.4556 -14.3941 -13.0991
   -12.9827 -10.0016  -6.0266  -4.5998  -4.1089  -3.7741  -3.6339  -3.5352
    -3.5239  -3.4084  -3.3966  -3.1543  -3.0313  -2.9745  -2.8936  -2.7722
    -2.7424  -2.6764  -2.6342  -2.5782  -2.5576  -2.5231  -2.4835  -2.4387
    -2.4114  -2.3855  -2.3524  -2.2949  -2.2835  -2.1871  -2.1706  -2.1503
    -2.0429  -2.0019  -1.9612  -1.9426  -1.9374  -1.9189  -1.8800  -1.8743
    -1.8539  -1.7774  -1.7093  -1.6612  -1.6267  -1.5989  -1.3253  -1.2346
    -1.1931  -1.1787  -1.0727  -1.0498  -1.0206  -1.0101  -0.9796  -0.9604
    -0.8461  -0.8383  -0.7585  -0.7103  -0.6981  -0.6554  -0.5430  -0.5059
    -0.4615  -0.4098  -0.3596  -0.3425  -0.3375  -0.2431  -0.2165  -0.1823
    -0.0748  -0.0606   0.0071   0.0920   0.1000   0.1525   0.1709   0.2324
     0.2393   0.2969   0.3263   0.3488   0.3990   0.4341   0.4697   0.5037
     0.5203   0.6225   0.6981   0.7110   0.7932   0.8811   0.9334   1.0405
     1.1079   1.3724   1.4260   1.4494   1.6179   1.9932   2.0386   3.4567
     3.6058   3.6214   3.6965   3.7088   3.7856   3.9463   3.9730   4.1080
     4.1446

[...]

          k = 0.0380-0.0419 0.0000 ( 17876 PWs)   bands (ev):

[...]

          k =-0.0760-0.0000 0.0000 ( 17886 PWs)   bands (ev):

[...]

          k =-0.0760-0.0839 0.0000 ( 17948 PWs)   bands (ev):

   -55.6666 -55.6079 -55.6076 -55.5026 -55.4792 -55.4633 -55.4565 -55.4375
   -55.4358 -55.4001 -55.3622 -55.2562 -55.2199 -55.2050 -54.5841 -54.5831
   -31.9386 -31.9318 -31.9256 -31.9254 -31.9204 -31.9013 -31.9009 -31.8897
   -31.8404 -31.7994 -31.7814 -31.7685 -31.7662 -31.7627 -31.7410 -31.7337
   -31.7279 -31.7274 -31.7169 -31.7141 -31.7078 -31.7054 -31.6900 -31.6661
   -31.6599 -31.6567 -31.6460 -31.6356 -31.6232 -31.6194 -31.6173 -31.6122
   -31.6107 -31.5849 -31.5843 -31.5432 -31.5188 -31.4878 -31.4567 -31.4513
   -31.4399 -31.4063 -30.9109 -30.9101 -30.8202 -30.8189 -30.7815 -30.7807
   -16.5026 -15.9435 -15.8512 -15.7336 -15.6098 -15.5966 -15.4854 -15.4031
   -15.3992 -15.3690 -15.3380 -15.3112 -15.3013 -15.2842 -15.2385 -15.1929
   -15.1580 -15.1301 -15.1281 -15.0822 -15.0752 -15.0639 -15.0511 -15.0287
   -14.9950 -14.9452 -14.9307 -14.8946 -14.7542 -14.6848 -14.5777 -13.0847
   -13.0843 -10.0037  -6.0067  -4.5971  -4.0762  -3.7344  -3.0460  -2.9486
    -2.8365  -2.7251  -2.7085  -2.6934  -2.6312  -2.6013  -2.5745  -2.5336
    -2.4753  -2.4598  -2.4360  -2.4185  -2.3974  -2.3799  -2.3704  -2.3656
    -2.3294  -2.3106  -2.3024  -2.2612  -2.2537  -2.2396  -2.2190  -2.1998
    -2.1693  -2.1653  -2.1359  -2.0872  -2.0408  -1.9624  -1.8687  -1.7865
    -1.7754  -1.7566  -1.7073  -1.7004  -1.6551  -1.6490  -1.6230  -1.5404
    -1.4290  -1.3810  -1.2638  -1.2480  -1.2178  -1.1818  -1.1261  -1.1115
    -1.0656  -1.0415  -0.9849  -0.8754  -0.8457  -0.7963  -0.6776  -0.6399
    -0.5991  -0.5793  -0.5673  -0.5447  -0.5253  -0.4856  -0.4612  -0.4146
    -0.3704  -0.3356  -0.3098  -0.2861  -0.2481  -0.1356  -0.0441  -0.0066
     0.0916   0.1413   0.1802   0.2140   0.2750   0.4140   0.4397   0.5347
     0.5528   0.5815   0.6835   0.6929   0.7875   0.8137   0.8570   0.8978
     0.9230   0.9415   0.9636   1.7876   1.7961   1.8590   1.8591   3.7491
     3.9423   3.9570   3.9735   4.0180   4.0255   4.0514   4.0579   4.1245
     4.1346

     the Fermi energy is     3.4956 ev

!    total energy              =   -2955.26285800 Ry
     estimated scf accuracy    <       0.00000002 Ry
     smearing contrib. (-TS)   =      -0.01952674 Ry
     internal energy E=F+TS    =   -2955.24333126 Ry

     The total energy is F=E-TS. E is the sum of the following terms:
     one-electron contribution =  -23745.04378608 Ry
     hartree contribution      =   11964.74270426 Ry
     xc contribution           =    -489.74066646 Ry
     ewald contribution        =    9314.79656693 Ry
     electric field correction =       0.00185010 Ry

     convergence has been achieved in  84 iterations

     Forces acting on atoms (cartesian axes, Ry/au):

     atom    1 type  1   force =     0.00009286   -0.00029668    0.09413220
     atom    2 type  1   force =    -0.00003826    0.00042728   -0.17542982
     atom    3 type  2   force =     0.00003969   -0.00033397   -0.02110352
     atom    4 type  2   force =     0.00002398   -0.00197836    0.05462665
     atom    5 type  2   force =    -0.00673524   -0.00245231    0.00301799
     atom    6 type  2   force =     0.00833988   -0.00187625    0.00243848
     atom    7 type  1   force =    -0.00017903   -0.00404805    0.00897705
     atom    8 type  1   force =     0.00031802    0.00082466    0.00312996
     atom    9 type  2   force =    -0.00057873    0.00057225   -0.00019409
     atom   10 type  2   force =    -0.00138973    0.00172967   -0.00924001
     atom   11 type  2   force =     0.00002387   -0.00015568    0.00039399
     atom   12 type  2   force =    -0.00003799   -0.00011176   -0.00029101
     atom   13 type  1   force =    -0.00049263   -0.00025774   -0.00004108
     atom   14 type  1   force =     0.00000866   -0.00043914    0.00001038
     atom   15 type  2   force =    -0.00029707   -0.00005555   -0.00000334
     atom   16 type  2   force =     0.00027880   -0.00049860   -0.00069102
     atom   17 type  2   force =     0.00079931    0.00027682   -0.00082834
     atom   18 type  2   force =    -0.00079409    0.00044286   -0.00021392
     atom   19 type  1   force =     0.00059542   -0.00064229    0.00040237
     atom   20 type  1   force =     0.00049644    0.00046754    0.00001432
     atom   21 type  2   force =     0.00007628    0.00004547    0.10325606
     atom   22 type  2   force =    -0.00043046    0.00032071    0.00071527
     atom   23 type  2   force =    -0.07191460   -0.00018809   -0.02721121
     atom   24 type  2   force =     0.07184325    0.00025166   -0.02725459
     atom   25 type  1   force =     0.00002880   -0.00024150    0.09380178
     atom   26 type  1   force =    -0.00006183   -0.00132676   -0.17560811
     atom   27 type  2   force =     0.00015523   -0.00011632   -0.01986906
     atom   28 type  2   force =     0.00006878   -0.00032272    0.04990464
     atom   29 type  2   force =    -0.00612727    0.00232140    0.00252356
     atom   30 type  2   force =     0.00761890    0.00268613    0.00197353
     atom   31 type  1   force =     0.00002489    0.00839661   -0.00274670
     atom   32 type  1   force =     0.00011710   -0.00235425    0.00260285
     atom   33 type  2   force =     0.00004878   -0.00000189   -0.00005563
     atom   34 type  2   force =    -0.00211687   -0.00249139   -0.01001816
     atom   35 type  2   force =    -0.00015352   -0.00002391    0.00054987
     atom   36 type  2   force =    -0.00006467    0.00006874   -0.00006020
     atom   37 type  1   force =     0.00016491   -0.00007715   -0.00034630
     atom   38 type  1   force =     0.00005629   -0.00011119    0.00024107
     atom   39 type  2   force =    -0.00011830    0.00008743   -0.00015670
     atom   40 type  2   force =     0.00016239   -0.00024347   -0.00005266
     atom   41 type  2   force =    -0.00004268   -0.00115016    0.00061089
     atom   42 type  2   force =     0.00023794   -0.00019458   -0.00020367
     atom   43 type  1   force =    -0.00027874   -0.00068889   -0.00564172
     atom   44 type  1   force =     0.00036853    0.00044780   -0.00075942
     atom   45 type  2   force =     0.00006802   -0.00007011    0.10304619
     atom   46 type  2   force =    -0.07193281   -0.00004393   -0.02724354
     atom   47 type  2   force =     0.07189694    0.00039497   -0.02729459
     atom   48 type  3   force =    -0.00003255    0.00026780    0.00055925
     atom   49 type  4   force =     0.00045256    0.00036115    0.00041681
     atom   50 type  5   force =     0.00051206    0.00089087   -0.00016805
     atom   51 type  5   force =    -0.00005313    0.00070216    0.00021257
     atom   52 type  5   force =     0.00031537   -0.00019050   -0.00074224
     atom   53 type  5   force =    -0.00029895    0.00056714   -0.00077991
     atom   54 type  5   force =     0.00035427   -0.00004347   -0.00010258
     atom   55 type  2   force =    -0.00703513    0.00049692    0.00960786
     atom   56 type  5   force =     0.00561607   -0.00002143   -0.00281440

     Total force =     0.362502     Total SCF correction =     0.000387
  @ DRIVER MODE: Message from server: STATUS
  @ DRIVER MODE: Message from server: GETFORCE
  @ DRIVER MODE: Returning v,forces,stress,ensemble

     Writing output data file ./calc.save/
  @ DRIVER MODE: Message from server: EXIT
  @ DRIVE MODE: Exiting

     General routines

     Parallel routines

   This run was terminated on:   6:19:46  24Sep2021

   JOB DONE.