     Program PWSCF v.6.7GPU starts on 24Aug2021 at  7:10: 7

     R & G space division:  proc/nbgrp/npool/nimage =       6
     Reading input from /storage/home/hcoda1/3/ntian30/research/carbon/CH_vib/ads_slab/CHNNHHH_a/out_0035/pw.inp
Warning: card &CELL ignored
Warning: card   CELL_DYNAMICS='IPI', ignored
Warning: card / ignored

     Current dimensions of program PWSCF are:
     Max number of different atomic species (ntypx) = 10
     Max number of k-points (npk) =  40000
     Max angular momentum in pseudopotentials (lmaxx) =  3
     Presently no symmetry can be used with electric field

     Message from routine cell_base_init:
     DEPRECATED: use true lattice parameter, not A to a.u. conversion factor

     IMPORTANT: XC functional enforced from input :
     Exchange-correlation= BEEF-VDW
                           (   1   4  43  14   2   0   0)
     Any further DFT definition will be discarded
     Please, verify this is what you really want

  @ DRIVER MODE: Connecting to
 qe_1139763_2632795.sched-torque.pace.gatech.edu1tkwg4fc_scratch
  using UNIX socket
  @ DRIVER MODE: Message from server: STATUS
  @ DRIVER MODE: Message from server: INIT
  @ DRIVER MODE: Receiving replica           0          -1
  @ DRIVER MODE: Receiving encoded integer          25
  @ DRIVER MODE:  SCF:  T  FORCE:  T  STRESS:  F  VC:  F  ENSEMBLE:  F
  @ DRIVER MODE:  SCF:  T  FORCE:  T  STRESS:  F  VC:  F  ENSEMBLE:  F

     Using Slab Decomposition

     bravais-lattice index     =            0
     lattice parameter (alat)  =       1.8897  a.u.
     unit-cell volume          =    6658.9804 (a.u.)^3
     number of atoms/cell      =           54
     number of atomic types    =            5
     number of electrons       =       396.00
     number of Kohn-Sham states=          208
     kinetic-energy cutoff     =      29.3995  Ry
     charge density cutoff     =     293.9946  Ry
     scf convergence threshold =      7.3E-08
     mixing beta               =       0.0500
     number of iterations used =            8  plain     mixing
     Exchange-correlation= BEEF-VDW
                           (   1   4  43  14   2   0   0)

     celldm(1)=   1.889726  celldm(2)=   0.000000  celldm(3)=   0.000000
     celldm(4)=   0.000000  celldm(5)=   0.000000  celldm(6)=   0.000000

     crystal axes: (cart. coord. in units of alat)
               a(1) = (   6.579727   0.000000   0.000000 )
               a(2) = (  -0.000775   5.961596   0.000000 )
               a(3) = (   0.000000   0.000000  25.155947 )

     reciprocal axes: (cart. coord. in units 2 pi/alat)
               b(1) = (  0.151982  0.000020  0.000000 )
               b(2) = (  0.000000  0.167740  0.000000 )
               b(3) = (  0.000000  0.000000  0.039752 )

     PseudoPot. # 1 for Ti read from file:
     /storage/coda1/p-amedford6/0/shared/rich_project_chbe-medford/medford-share/data/pseudos_module/espresso/nninc/pbe/van/Ti.UPF
     MD5 check sum: 8e4df49b7f0d34bbd5052bf3f5ea0213
     Pseudo is Ultrasoft, Zval = 12.0
     Generated by new atomic code, or converted to UPF format
     Using radial grid of  851 points,  6 beta functions with:
                l(1) =   0
                l(2) =   0
                l(3) =   1
                l(4) =   1
                l(5) =   2
                l(6) =   2
     Q(r) pseudized with  8 coefficients,  rinner =    1.000   1.000   1.000
                                                       1.000   1.000

     PseudoPot. # 2 for O  read from file:
     /storage/coda1/p-amedford6/0/shared/rich_project_chbe-medford/medford-share/data/pseudos_module/espresso/nninc/pbe/van/O.UPF
     MD5 check sum: 78c19812648e8988a0fe644b0f25305e
     Pseudo is Ultrasoft, Zval =  6.0
     Generated by new atomic code, or converted to UPF format
     Using radial grid of  737 points,  4 beta functions with:
                l(1) =   0
                l(2) =   0
                l(3) =   1
                l(4) =   1
     Q(r) pseudized with  8 coefficients,  rinner =    0.800   0.800   0.800

     PseudoPot. # 3 for N  read from file:
     /storage/coda1/p-amedford6/0/shared/rich_project_chbe-medford/medford-share/data/pseudos_module/espresso/nninc/pbe/van/N.UPF
     MD5 check sum: 90d10febe142ad51ac9d5be1deb811c4
     Pseudo is Ultrasoft, Zval =  5.0
     Generated by new atomic code, or converted to UPF format
     Using radial grid of  729 points,  4 beta functions with:
                l(1) =   0
                l(2) =   0
                l(3) =   1
                l(4) =   1
     Q(r) pseudized with  8 coefficients,  rinner =    0.800   0.800   0.800

     PseudoPot. # 4 for C  read from file:
     /storage/coda1/p-amedford6/0/shared/rich_project_chbe-medford/medford-share/data/pseudos_module/espresso/nninc/pbe/van/C.UPF
     MD5 check sum: 1a69bf6b8db32088f5b2163dbdb77a27
     Pseudo is Ultrasoft, Zval =  4.0
     Generated by new atomic code, or converted to UPF format
     Using radial grid of  721 points,  4 beta functions with:
                l(1) =   0
                l(2) =   0
                l(3) =   1
                l(4) =   1
     Q(r) pseudized with  8 coefficients,  rinner =    0.800   0.800   0.800

     PseudoPot. # 5 for H  read from file:
     /storage/coda1/p-amedford6/0/shared/rich_project_chbe-medford/medford-share/data/pseudos_module/espresso/nninc/pbe/van/H.UPF
     MD5 check sum: b5ee9d7bfd3a09ee7748110bda690ff7
     Pseudo is Ultrasoft, Zval =  1.0
     Generated by new atomic code, or converted to UPF format
     Using radial grid of  615 points,  1 beta functions with:
                l(1) =   0
     Q(r) pseudized with  8 coefficients,  rinner =    0.800

     atomic species   valence    mass     pseudopotential
        Ti1           12.00    47.86700     Ti( 1.00)
        O1             6.00    15.99900     O ( 1.00)
        N1             5.00    14.00700     N ( 1.00)
        C1             4.00    12.01100     C ( 1.00)
        H1             1.00     1.00800     H ( 1.00)

     No symmetry found

   Cartesian axes

     site n.     atom                  positions (alat units)
         1           Ti1 tau(   1) = (   0.0004258   2.9801865   6.0000000  )
         2           Ti1 tau(   2) = (   3.2906075   1.4906267   6.0002472  )
         3           O1  tau(   3) = (   0.0006271   0.0005054   7.9858123  )
         4           O1  tau(   4) = (   3.2906025   0.0005020   7.3038282  )
         5           O1  tau(   5) = (   4.5942328   1.4918067   9.2879030  )
         6           O1  tau(   6) = (   1.9868534   1.4903216   9.2879459  )
         7           Ti1 tau(   7) = (   3.2907910   2.8959150   9.1758416  )
         8           Ti1 tau(   8) = (   0.0015273   1.4827037   9.2680791  )
         9           O1  tau(   9) = (   3.3116888   5.9365513  11.3741315  )
        10           O1  tau(  10) = (   0.0116148   5.9584955  10.6183126  )
        11           O1  tau(  11) = (   1.3152863   1.4773744  12.6583839  )
        12           O1  tau(  12) = (   5.3185463   1.4781915  12.6604289  )
        13           Ti1 tau(  13) = (   0.0312267   2.9553392  12.5172039  )
        14           Ti1 tau(  14) = (   3.3247105   1.4628205  12.5237724  )
        15           O1  tau(  15) = (   0.0176705   0.0150782  14.7085838  )
        16           O1  tau(  16) = (   3.3263678   5.9469243  13.9928752  )
        17           O1  tau(  17) = (   4.5829619   1.4750097  16.2211409  )
        18           O1  tau(  18) = (   2.0801478   1.4636096  16.1819230  )
        19           Ti1 tau(  19) = (   3.3264833   2.9461821  15.7545810  )
        20           Ti1 tau(  20) = (   0.0064452   1.3478264  16.0581623  )
        21           O1  tau(  21) = (   3.2904802   0.0005063   4.7018136  )
        22           O1  tau(  22) = (   0.0393124   5.8647722  17.2449945  )
        23           O1  tau(  23) = (   1.3043587   1.4918075   6.0039043  )
        24           O1  tau(  24) = (   5.2767064   1.4903225   6.0039473  )
        25           Ti1 tau(  25) = (   0.0000382   5.9609847   6.0000000  )
        26           Ti1 tau(  26) = (   3.2902200   4.4714249   6.0002472  )
        27           O1  tau(  27) = (   0.0002396   2.9813036   7.9858123  )
        28           O1  tau(  28) = (   3.2902150   2.9813002   7.3038282  )
        29           O1  tau(  29) = (   4.5938453   4.4726049   9.2879030  )
        30           O1  tau(  30) = (   1.9864658   4.4711199   9.2879459  )
        31           Ti1 tau(  31) = (   3.2891106   5.8743827   9.1763621  )
        32           Ti1 tau(  32) = (   0.0006254   4.4649316   9.2693709  )
        33           O1  tau(  33) = (   3.3126387   2.9639063  11.3704323  )
        34           O1  tau(  34) = (   0.0092240   2.9805883  10.6323155  )
        35           O1  tau(  35) = (   1.3140505   4.4512041  12.6779488  )
        36           O1  tau(  36) = (   5.3186431   4.4503656  12.6784002  )
        37           Ti1 tau(  37) = (   0.0306983   5.9434578  12.5012515  )
        38           Ti1 tau(  38) = (   3.3249252   4.4426326  12.5284913  )
        39           O1  tau(  39) = (   0.0332616   2.9308952  14.9693926  )
        40           O1  tau(  40) = (   3.3269026   2.9510973  13.9662216  )
        41           O1  tau(  41) = (   4.5816979   4.4256876  16.1885362  )
        42           O1  tau(  42) = (   2.0739833   4.4348339  16.1471384  )
        43           Ti1 tau(  43) = (   3.3139036   5.9323143  15.7909994  )
        44           Ti1 tau(  44) = (   0.0257917   4.5791344  15.8913375  )
        45           O1  tau(  45) = (   3.2900926   2.9813045   4.7018136  )
        46           O1  tau(  46) = (   1.3039711   4.4726057   6.0039043  )
        47           O1  tau(  47) = (   5.2763189   4.4711207   6.0039473  )
        48           N1  tau(  48) = (   0.2611162   2.7486399  18.0384573  )
        49           C1  tau(  49) = (   1.0666652   3.1333113  18.7681872  )
        50           H1  tau(  50) = (   1.9496291   3.4674532  19.3170853  )
        51           N1  tau(  51) = (   3.9312863   3.7371558  19.5917579  )
        52           H1  tau(  52) = (   4.2637485   4.0673035  20.4913501  )
        53           H1  tau(  53) = (   4.3024207   4.3757745  18.8806580  )
        54           H1  tau(  54) = (   4.4024832   2.8518033  19.4177320  )

     number of k points=    10  Fermi-Dirac smearing, width (Ry)=  0.0073
                       cart. coord. in units 2pi/alat
        k(    1) = (   0.0000000   0.0000000   0.0000000), wk =   0.1250000
        k(    2) = (   0.0000000   0.0419351   0.0000000), wk =   0.2500000
        k(    3) = (   0.0000000  -0.0838702   0.0000000), wk =   0.1250000
        k(    4) = (   0.0379955   0.0000049   0.0000000), wk =   0.2500000
        k(    5) = (   0.0379955   0.0419400   0.0000000), wk =   0.2500000
        k(    6) = (   0.0379955  -0.0838652   0.0000000), wk =   0.2500000
        k(    7) = (   0.0379955  -0.0419301   0.0000000), wk =   0.2500000
        k(    8) = (  -0.0759910  -0.0000099   0.0000000), wk =   0.1250000
        k(    9) = (  -0.0759910   0.0419252   0.0000000), wk =   0.2500000
        k(   10) = (  -0.0759910  -0.0838800   0.0000000), wk =   0.1250000

     Initial potential from superposition of free atoms

     starting charge  379.99915, renormalised to  396.00000

     negative rho (up, down):  1.480E-02 0.000E+00

     %%%%%%%%%%%%%%%%%%%%%%%%%%%%%%%%%%%%%%%%%%%%%%%%%%%%%%%%%%%%%%%%%%%%%%%%
     %                                                                      %
     % You are using vdW-DF, which was implemented by the Thonhauser group. %
     % Please cite the following two papers that made this development      %
     % possible and the two reviews that describe the various versions:     %
     %                                                                      %
     %   T. Thonhauser et al., PRL 115, 136402 (2015).                      %
     %   T. Thonhauser et al., PRB 76, 125112 (2007).                       %
     %   K. Berland et al., Rep. Prog. Phys. 78, 066501 (2015).             %
     %   D.C. Langreth et al., J. Phys.: Condens. Matter 21, 084203 (2009). %
     %                                                                      %
     %                                                                      %
     % If you are calculating the stress with vdW-DF, please also cite:     %
     %                                                                      %
     %   R. Sabatini et al., J. Phys.: Condens. Matter 24, 424209 (2012).   %
     %                                                                      %
     %%%%%%%%%%%%%%%%%%%%%%%%%%%%%%%%%%%%%%%%%%%%%%%%%%%%%%%%%%%%%%%%%%%%%%%%

     Adding external electric field

     Computed dipole along edir(3) :
        Dipole              -10.3163 Ry au,        -26.2214 Debye
        Dipole field         -0.0195 Ry au,

        Potential amp.        1.8047 Ry
        Total length         46.3494 bohr

     Starting wfcs are  300 atomic wfcs
  @ DRIVER MODE: Message from server: STATUS
  @ DRIVER MODE: Message from server: POSDATA
  @ DRIVER MODE: Reading and sharing cell
  @ DRIVER MODE: Reading and sharing positions
  @ DRIVER MODE: Received positions

     Self-consistent Calculation

     iteration #  1     ecut=    29.40 Ry     beta= 0.05
     Davidson diagonalization with overlap
     c_bands:  1 eigenvalues not converged
     c_bands:  2 eigenvalues not converged
     c_bands:  2 eigenvalues not converged
     c_bands:  1 eigenvalues not converged
     c_bands:  3 eigenvalues not converged
     c_bands:  2 eigenvalues not converged
     c_bands:  3 eigenvalues not converged
     c_bands:  2 eigenvalues not converged
     c_bands:  2 eigenvalues not converged
     c_bands:  2 eigenvalues not converged
     ethr =  1.00E-05,  avg # of iterations = 20.0

[...]

     total energy              =   -2522.63818868 Ry
     estimated scf accuracy    <    4673.71662827 Ry

     iteration #  2     ecut=    29.40 Ry     beta= 0.05
     Davidson diagonalization with overlap
     ethr =  1.00E-02,  avg # of iterations = 24.3

[...]

     iteration # 70     ecut=    29.40 Ry     beta= 0.05
     Davidson diagonalization with overlap
     ethr =  5.49E-11,  avg # of iterations =  8.0

[...]

     total energy              =   -2940.41304613 Ry
     estimated scf accuracy    <       0.00000017 Ry

     iteration # 72     ecut=    29.40 Ry     beta= 0.05
     Davidson diagonalization with overlap
     c_bands:  1 eigenvalues not converged
     ethr =  3.00E-11,  avg # of iterations = 15.0

     negative rho (up, down):  1.579E-02 0.000E+00

     Adding external electric field

     Computed dipole along edir(3) :
        Dipole                1.4851 Ry au,          3.7748 Debye
        Dipole field          0.0028 Ry au,

        Potential amp.       -0.2598 Ry
        Total length         46.3494 bohr

     End of self-consistent calculation

          k = 0.0000 0.0000 0.0000 ( 18029 PWs)   bands (ev):

   -55.2568 -55.2209 -55.2082 -55.1741 -55.1339 -55.1257 -55.1019 -55.0986
   -55.0743 -55.0552 -55.0399 -55.0372 -55.0036 -54.9868 -54.2361 -54.2020
   -31.8254 -31.7050 -31.7005 -31.6217 -31.5661 -31.5638 -31.5554 -31.5426
   -31.4971 -31.4845 -31.4655 -31.4623 -31.4528 -31.4279 -31.4120 -31.4074
   -31.3931 -31.3815 -31.3726 -31.3711 -31.3606 -31.3483 -31.3219 -31.3196
   -31.3117 -31.3049 -31.2768 -31.2752 -31.2654 -31.2641 -31.2555 -31.2366
   -31.2356 -31.2275 -31.2236 -31.2219 -31.1884 -31.1882 -31.1705 -31.1652
   -31.1482 -31.0967 -30.6453 -30.5513 -30.5293 -30.4618 -30.3750 -30.2640
   -16.7730 -16.0817 -15.8120 -15.6697 -15.5637 -15.4522 -15.3375 -15.3172
   -15.1802 -15.1173 -15.0916 -14.9730 -14.9222 -14.9040 -14.8892 -14.8754
   -14.8689 -14.7974 -14.7923 -14.7691 -14.7486 -14.7360 -14.6930 -14.6912
   -14.6507 -14.6298 -14.5839 -14.4946 -14.4116 -14.3422 -14.0200 -12.7387
   -12.6213  -7.9739  -5.2479  -5.0000  -4.0128  -3.4206  -3.2702  -3.1743
    -3.1478  -3.1321  -3.0026  -2.8551  -2.8446  -2.7487  -2.6408  -2.5896
    -2.5070  -2.4585  -2.4462  -2.4280  -2.2447  -2.2278  -2.1748  -2.1269
    -2.0969  -2.0609  -2.0405  -2.0215  -2.0043  -1.9949  -1.9307  -1.8170
    -1.7815  -1.7294  -1.6779  -1.6527  -1.5986  -1.5780  -1.5418  -1.5358
    -1.5354  -1.4873  -1.4615  -1.4379  -1.3609  -1.2749  -1.1605  -1.1091
    -0.9545  -0.8917  -0.8355  -0.8233  -0.7598  -0.7398  -0.7099  -0.6335
    -0.6258  -0.5931  -0.4744  -0.3787  -0.3398  -0.3223  -0.2730  -0.2370
    -0.2099  -0.1626  -0.0668  -0.0345  -0.0176  -0.0131   0.1368   0.1507
     0.2195   0.2671   0.2889   0.2895   0.4027   0.4191   0.4913   0.5282
     0.5644   0.6377   0.6776   0.6936   0.6962   0.7298   0.7338   0.8247
     0.8468   0.8552   0.9273   1.0769   1.3034   1.3513   1.3592   1.6929
     1.6946   1.7867   1.9703   2.3626   2.4107   3.8419   3.9134   3.9877
     3.9943   4.0198   4.0801   4.3216   4.3320   4.3445   4.3477   4.3890

[...]

          k = 0.0380-0.0419 0.0000 ( 17876 PWs)   bands (ev):

[...]

          k =-0.0760-0.0000 0.0000 ( 17886 PWs)   bands (ev):

[...]

          k =-0.0760-0.0839 0.0000 ( 17948 PWs)   bands (ev):

   -55.2388 -55.2386 -55.1912 -55.1909 -55.1210 -55.1203 -55.1122 -55.0992
   -55.0595 -55.0581 -55.0556 -55.0208 -55.0202 -54.9897 -54.2190 -54.2190
   -31.6292 -31.6286 -31.6282 -31.5277 -31.5157 -31.5154 -31.5151 -31.4825
   -31.4823 -31.4641 -31.4568 -31.4512 -31.4468 -31.3960 -31.3911 -31.3892
   -31.3880 -31.3878 -31.3824 -31.3768 -31.3528 -31.3494 -31.3388 -31.3297
   -31.3287 -31.3225 -31.3139 -31.3109 -31.3106 -31.3043 -31.2912 -31.2886
   -31.2838 -31.2711 -31.2686 -31.2520 -31.2506 -31.2467 -31.2014 -31.2011
   -31.1955 -31.1889 -30.5419 -30.5419 -30.4579 -30.4578 -30.4184 -30.4184
   -16.7642 -15.6142 -15.4977 -15.4566 -15.2688 -15.2604 -15.2296 -15.2174
   -15.1256 -15.0663 -15.0390 -15.0292 -15.0160 -14.9646 -14.9582 -14.9530
   -14.9314 -14.8603 -14.8519 -14.8499 -14.8329 -14.7667 -14.7619 -14.7575
   -14.7467 -14.7036 -14.7006 -14.6063 -14.6043 -14.5105 -14.3866 -12.7228
   -12.7227  -7.9705  -5.2430  -5.0107  -3.9995  -2.7978  -2.7715  -2.7237
    -2.7158  -2.6994  -2.4803  -2.4576  -2.4206  -2.3706  -2.3091  -2.2579
    -2.2496  -2.2329  -2.1658  -2.1271  -2.1105  -2.0970  -2.0787  -2.0630
    -2.0487  -2.0232  -1.9806  -1.9731  -1.9521  -1.9317  -1.9017  -1.8933
    -1.8621  -1.8412  -1.8260  -1.8086  -1.6939  -1.6702  -1.6117  -1.5726
    -1.5313  -1.4588  -1.4536  -1.3565  -1.3491  -1.2948  -1.2830  -1.2572
    -1.1640  -1.0651  -1.0030  -0.9963  -0.9899  -0.8638  -0.8256  -0.8013
    -0.7645  -0.7363  -0.6769  -0.5990  -0.5775  -0.5429  -0.4587  -0.4505
    -0.3937  -0.3068  -0.2785  -0.2486  -0.2189  -0.2113  -0.2017  -0.1483
    -0.1419  -0.0708  -0.0207   0.0127   0.0238   0.0578   0.2624   0.2792
     0.3321   0.4304   0.5033   0.6234   0.6810   0.7021   0.7734   0.8139
     0.8577   0.9202   1.0226   1.0530   1.0560   1.1306   1.1622   1.2043
     1.2083   2.1437   2.1440   2.2306   2.2309   3.9859   4.0798   4.1019
     4.1501   4.2415   4.2768   4.3596   4.3777   4.4274   4.4292   4.4974

     the Fermi energy is     3.9049 ev

!    total energy              =   -2940.41305929 Ry
     estimated scf accuracy    <       0.00000003 Ry
     smearing contrib. (-TS)   =      -0.03731408 Ry
     internal energy E=F+TS    =   -2940.37574521 Ry

     The total energy is F=E-TS. E is the sum of the following terms:
     one-electron contribution =  -23553.54189665 Ry
     hartree contribution      =   11869.44331811 Ry
     xc contribution           =    -485.96330040 Ry
     ewald contribution        =    9229.68197151 Ry
     electric field correction =       0.00416222 Ry

     convergence has been achieved in  72 iterations

     Forces acting on atoms (cartesian axes, Ry/au):

     atom    1 type  1   force =    -0.00002638   -0.00018346    0.09329334
     atom    2 type  1   force =    -0.00015100   -0.00021983   -0.17811731
     atom    3 type  2   force =     0.00006472   -0.00020377   -0.02047433
     atom    4 type  2   force =     0.00000373   -0.00194916    0.05847145
     atom    5 type  2   force =    -0.01029982   -0.00134746    0.00735347
     atom    6 type  2   force =     0.01229694   -0.00075098    0.00784653
     atom    7 type  1   force =     0.00036038    0.00277462   -0.01406754
     atom    8 type  1   force =    -0.00055888    0.00107025   -0.00335616
     atom    9 type  2   force =     0.00003896    0.00049755   -0.00008582
     atom   10 type  2   force =    -0.00055255   -0.00103260   -0.00005118
     atom   11 type  2   force =     0.00008757    0.00011128    0.00004501
     atom   12 type  2   force =    -0.00025419    0.00016090   -0.00006866
     atom   13 type  1   force =    -0.00001714    0.00089996   -0.00029022
     atom   14 type  1   force =     0.00009720    0.00024203   -0.00018472
     atom   15 type  2   force =    -0.00013884    0.00010227    0.00097477
     atom   16 type  2   force =     0.00004736    0.00010646   -0.00002899
     atom   17 type  2   force =     0.00027094   -0.00032056    0.00001952
     atom   18 type  2   force =    -0.00020492   -0.00048013   -0.00049024
     atom   19 type  1   force =    -0.00068553   -0.00028759    0.00004576
     atom   20 type  1   force =    -0.00021942    0.00069605    0.00012074
     atom   21 type  2   force =    -0.00001936    0.00000683    0.10389521
     atom   22 type  2   force =    -0.00029598   -0.00067896   -0.00109718
     atom   23 type  2   force =    -0.07043773   -0.00007714   -0.02689417
     atom   24 type  2   force =     0.07027847    0.00035677   -0.02694762
     atom   25 type  1   force =     0.00004350   -0.00005642    0.09291768
     atom   26 type  1   force =    -0.00016817   -0.00018950   -0.17815480
     atom   27 type  2   force =     0.00012417   -0.00033518   -0.01949102
     atom   28 type  2   force =     0.00003250   -0.00168164    0.05804527
     atom   29 type  2   force =    -0.01041424   -0.00124527    0.00692458
     atom   30 type  2   force =     0.01229914   -0.00091766    0.00743544
     atom   31 type  1   force =     0.00034646    0.00516301   -0.01509044
     atom   32 type  1   force =    -0.00046759   -0.00162424   -0.00358372
     atom   33 type  2   force =    -0.00019454   -0.00021706   -0.00019730
     atom   34 type  2   force =     0.00029209   -0.00052829    0.00104783
     atom   35 type  2   force =    -0.00040236    0.00005852    0.00023622
     atom   36 type  2   force =     0.00033455   -0.00002589    0.00029845
     atom   37 type  1   force =    -0.00011746   -0.00043373   -0.00005720
     atom   38 type  1   force =     0.00013341    0.00034245   -0.00030926
     atom   39 type  2   force =    -0.00035019   -0.00042084    0.00116025
     atom   40 type  2   force =     0.00007007    0.00007605   -0.00016975
     atom   41 type  2   force =    -0.00001935    0.00025350   -0.00022244
     atom   42 type  2   force =    -0.00011823    0.00002233   -0.00039730
     atom   43 type  1   force =    -0.00085828   -0.00007312    0.00006622
     atom   44 type  1   force =     0.00016373    0.00051512    0.00004890
     atom   45 type  2   force =    -0.00000964    0.00000856    0.10387132
     atom   46 type  2   force =    -0.07046004   -0.00005104   -0.02689690
     atom   47 type  2   force =     0.07028611    0.00039209   -0.02696999
     atom   48 type  3   force =     0.00007218   -0.00079972    0.00016383
     atom   49 type  4   force =    -0.00081813    0.00052954   -0.00068011
     atom   50 type  5   force =     0.00019843   -0.00003804    0.00083529
     atom   51 type  3   force =     0.00292918    0.00421631   -0.00909079
     atom   52 type  5   force =     0.00127300    0.00178408   -0.00002139
     atom   53 type  5   force =    -0.00327514   -0.00549192    0.00826115
     atom   54 type  5   force =    -0.00060970    0.00127470    0.00010833

     Total force =     0.366273     Total SCF correction =     0.000376
  @ DRIVER MODE: Message from server: STATUS
  @ DRIVER MODE: Message from server: GETFORCE
  @ DRIVER MODE: Returning v,forces,stress,ensemble

     Writing output data file ./calc.save/
  @ DRIVER MODE: Message from server: EXIT
  @ DRIVE MODE: Exiting

     General routines

     Parallel routines

   This run was terminated on:   7:40:30  24Aug2021

   JOB DONE.