     Program PWSCF v.6.7GPU starts on 25Aug2021 at  3:27:16

     R & G space division:  proc/nbgrp/npool/nimage =       6
     Reading input from /storage/home/hcoda1/3/ntian30/research/carbon/CH3_vib_end_on/ads_slab/CH3N_a/out_0027/pw.inp
Warning: card &CELL ignored
Warning: card   CELL_DYNAMICS='IPI', ignored
Warning: card / ignored

     Current dimensions of program PWSCF are:
     Max number of different atomic species (ntypx) = 10
     Max number of k-points (npk) =  40000
     Max angular momentum in pseudopotentials (lmaxx) =  3
     Presently no symmetry can be used with electric field

     Message from routine cell_base_init:
     DEPRECATED: use true lattice parameter, not A to a.u. conversion factor

     IMPORTANT: XC functional enforced from input :
     Exchange-correlation= BEEF-VDW
                           (   1   4  43  14   2   0   0)
     Any further DFT definition will be discarded
     Please, verify this is what you really want

  @ DRIVER MODE: Connecting to
 qe_1139763_2643872.sched-torque.pace.gatech.edujss_nk3h_scratch
  using UNIX socket
  @ DRIVER MODE: Message from server: STATUS
  @ DRIVER MODE: Message from server: INIT
  @ DRIVER MODE: Receiving replica           0          -1
  @ DRIVER MODE: Receiving encoded integer          25
  @ DRIVER MODE:  SCF:  T  FORCE:  T  STRESS:  F  VC:  F  ENSEMBLE:  F
  @ DRIVER MODE:  SCF:  T  FORCE:  T  STRESS:  F  VC:  F  ENSEMBLE:  F

     Using Slab Decomposition

     bravais-lattice index     =            0
     lattice parameter (alat)  =       1.8897  a.u.
     unit-cell volume          =    6658.9804 (a.u.)^3
     number of atoms/cell      =           52
     number of atomic types    =            5
     number of electrons       =       390.00
     number of Kohn-Sham states=          205
     kinetic-energy cutoff     =      29.3995  Ry
     charge density cutoff     =     293.9946  Ry
     scf convergence threshold =      7.3E-08
     mixing beta               =       0.0500
     number of iterations used =            8  plain     mixing
     Exchange-correlation= BEEF-VDW
                           (   1   4  43  14   2   0   0)

     celldm(1)=   1.889726  celldm(2)=   0.000000  celldm(3)=   0.000000
     celldm(4)=   0.000000  celldm(5)=   0.000000  celldm(6)=   0.000000

     crystal axes: (cart. coord. in units of alat)
               a(1) = (   6.579727   0.000000   0.000000 )
               a(2) = (  -0.000775   5.961596   0.000000 )
               a(3) = (   0.000000   0.000000  25.155947 )

     reciprocal axes: (cart. coord. in units 2 pi/alat)
               b(1) = (  0.151982  0.000020  0.000000 )
               b(2) = (  0.000000  0.167740  0.000000 )
               b(3) = (  0.000000  0.000000  0.039752 )

     PseudoPot. # 1 for Ti read from file:
     /storage/coda1/p-amedford6/0/shared/rich_project_chbe-medford/medford-share/data/pseudos_module/espresso/nninc/pbe/van/Ti.UPF
     MD5 check sum: 8e4df49b7f0d34bbd5052bf3f5ea0213
     Pseudo is Ultrasoft, Zval = 12.0
     Generated by new atomic code, or converted to UPF format
     Using radial grid of  851 points,  6 beta functions with:
                l(1) =   0
                l(2) =   0
                l(3) =   1
                l(4) =   1
                l(5) =   2
                l(6) =   2
     Q(r) pseudized with  8 coefficients,  rinner =    1.000   1.000   1.000
                                                       1.000   1.000

     PseudoPot. # 2 for O  read from file:
     /storage/coda1/p-amedford6/0/shared/rich_project_chbe-medford/medford-share/data/pseudos_module/espresso/nninc/pbe/van/O.UPF
     MD5 check sum: 78c19812648e8988a0fe644b0f25305e
     Pseudo is Ultrasoft, Zval =  6.0
     Generated by new atomic code, or converted to UPF format
     Using radial grid of  737 points,  4 beta functions with:
                l(1) =   0
                l(2) =   0
                l(3) =   1
                l(4) =   1
     Q(r) pseudized with  8 coefficients,  rinner =    0.800   0.800   0.800

     PseudoPot. # 3 for N  read from file:
     /storage/coda1/p-amedford6/0/shared/rich_project_chbe-medford/medford-share/data/pseudos_module/espresso/nninc/pbe/van/N.UPF
     MD5 check sum: 90d10febe142ad51ac9d5be1deb811c4
     Pseudo is Ultrasoft, Zval =  5.0
     Generated by new atomic code, or converted to UPF format
     Using radial grid of  729 points,  4 beta functions with:
                l(1) =   0
                l(2) =   0
                l(3) =   1
                l(4) =   1
     Q(r) pseudized with  8 coefficients,  rinner =    0.800   0.800   0.800

     PseudoPot. # 4 for C  read from file:
     /storage/coda1/p-amedford6/0/shared/rich_project_chbe-medford/medford-share/data/pseudos_module/espresso/nninc/pbe/van/C.UPF
     MD5 check sum: 1a69bf6b8db32088f5b2163dbdb77a27
     Pseudo is Ultrasoft, Zval =  4.0
     Generated by new atomic code, or converted to UPF format
     Using radial grid of  721 points,  4 beta functions with:
                l(1) =   0
                l(2) =   0
                l(3) =   1
                l(4) =   1
     Q(r) pseudized with  8 coefficients,  rinner =    0.800   0.800   0.800

     PseudoPot. # 5 for H  read from file:
     /storage/coda1/p-amedford6/0/shared/rich_project_chbe-medford/medford-share/data/pseudos_module/espresso/nninc/pbe/van/H.UPF
     MD5 check sum: b5ee9d7bfd3a09ee7748110bda690ff7
     Pseudo is Ultrasoft, Zval =  1.0
     Generated by new atomic code, or converted to UPF format
     Using radial grid of  615 points,  1 beta functions with:
                l(1) =   0
     Q(r) pseudized with  8 coefficients,  rinner =    0.800

     atomic species   valence    mass     pseudopotential
        Ti1           12.00    47.86700     Ti( 1.00)
        O1             6.00    15.99900     O ( 1.00)
        N1             5.00    14.00700     N ( 1.00)
        C1             4.00    12.01100     C ( 1.00)
        H1             1.00     1.00800     H ( 1.00)

     No symmetry found

   Cartesian axes

     site n.     atom                  positions (alat units)
         1           Ti1 tau(   1) = (   0.0004258   2.9801865   6.0000000  )
         2           Ti1 tau(   2) = (   3.2906075   1.4906267   6.0002472  )
         3           O1  tau(   3) = (   0.0006271   0.0005054   7.9858123  )
         4           O1  tau(   4) = (   3.2906025   0.0005020   7.3038282  )
         5           O1  tau(   5) = (   4.5942328   1.4918067   9.2879030  )
         6           O1  tau(   6) = (   1.9868534   1.4903216   9.2879459  )
         7           Ti1 tau(   7) = (   3.2907910   2.8959150   9.1758416  )
         8           Ti1 tau(   8) = (   0.0015273   1.4827037   9.2680791  )
         9           O1  tau(   9) = (   3.3018735   5.9614316  11.2970789  )
        10           O1  tau(  10) = (   0.0116148   5.9584955  10.6183126  )
        11           O1  tau(  11) = (   1.3353665   1.4968727  12.6140821  )
        12           O1  tau(  12) = (   5.3123320   1.5002621  12.6324210  )
        13           Ti1 tau(  13) = (   6.4913169   2.9877414  12.7576577  )
        14           Ti1 tau(  14) = (   3.1819880   1.4874128  12.4666476  )
        15           O1  tau(  15) = (   0.0325390   5.9514364  14.5942808  )
        16           O1  tau(  16) = (   3.3157460   0.0104736  13.8786857  )
        17           O1  tau(  17) = (   4.5538541   1.5308062  16.0536203  )
        18           O1  tau(  18) = (   2.1012647   1.5271178  16.0466835  )
        19           Ti1 tau(  19) = (   3.3239613   3.0121693  15.6870930  )
        20           Ti1 tau(  20) = (   0.0188375   1.6096557  16.0875739  )
        21           O1  tau(  21) = (   3.2904802   0.0005063   4.7018136  )
        22           O1  tau(  22) = (   0.0443345   0.0604659  17.2041813  )
        23           O1  tau(  23) = (   1.3043587   1.4918075   6.0039043  )
        24           O1  tau(  24) = (   5.2767064   1.4903225   6.0039473  )
        25           Ti1 tau(  25) = (   0.0000382   5.9609847   6.0000000  )
        26           Ti1 tau(  26) = (   3.2902200   4.4714249   6.0002472  )
        27           O1  tau(  27) = (   0.0002396   2.9813036   7.9858123  )
        28           O1  tau(  28) = (   3.2902150   2.9813002   7.3038282  )
        29           O1  tau(  29) = (   4.5938453   4.4726049   9.2879030  )
        30           O1  tau(  30) = (   1.9864658   4.4711199   9.2879459  )
        31           Ti1 tau(  31) = (   3.2891106   5.8743827   9.1763621  )
        32           Ti1 tau(  32) = (   0.0006254   4.4649316   9.2693709  )
        33           O1  tau(  33) = (   3.3028429   2.9834257  11.2952420  )
        34           O1  tau(  34) = (   0.0092240   2.9805883  10.6323155  )
        35           O1  tau(  35) = (   1.3370139   4.4664586  12.6123119  )
        36           O1  tau(  36) = (   5.3107101   4.4655690  12.6333123  )
        37           Ti1 tau(  37) = (   6.5188704   0.0058144  12.7695920  )
        38           Ti1 tau(  38) = (   3.1805296   4.4670443  12.4671176  )
        39           O1  tau(  39) = (   0.0099197   2.9765079  14.6559069  )
        40           O1  tau(  40) = (   3.3143426   2.9928857  13.8797190  )
        41           O1  tau(  41) = (   4.5573730   4.5089470  16.0521860  )
        42           O1  tau(  42) = (   2.1018054   4.5121927  16.0508938  )
        43           Ti1 tau(  43) = (   3.3145791   0.0316975  15.6896801  )
        44           Ti1 tau(  44) = (   0.0207397   4.5876961  16.1385408  )
        45           O1  tau(  45) = (   3.2900926   2.9813045   4.7018136  )
        46           O1  tau(  46) = (   1.3039711   4.4726057   6.0039043  )
        47           O1  tau(  47) = (   5.2763189   4.4711207   6.0039473  )
        48           N1  tau(  48) = (   0.0936308   3.0233000  17.3257847  )
        49           C1  tau(  49) = (   0.4281149   3.0137428  18.7308649  )
        50           H1  tau(  50) = (   0.7292188   4.0033843  19.0862330  )
        51           H1  tau(  51) = (   6.1445545   2.6862439  19.3232575  )
        52           H1  tau(  52) = (   1.2401080   2.2940860  18.9332505  )

     number of k points=    10  Fermi-Dirac smearing, width (Ry)=  0.0073
                       cart. coord. in units 2pi/alat
        k(    1) = (   0.0000000   0.0000000   0.0000000), wk =   0.1250000
        k(    2) = (   0.0000000   0.0419351   0.0000000), wk =   0.2500000
        k(    3) = (   0.0000000  -0.0838702   0.0000000), wk =   0.1250000
        k(    4) = (   0.0379955   0.0000049   0.0000000), wk =   0.2500000
        k(    5) = (   0.0379955   0.0419400   0.0000000), wk =   0.2500000
        k(    6) = (   0.0379955  -0.0838652   0.0000000), wk =   0.2500000
        k(    7) = (   0.0379955  -0.0419301   0.0000000), wk =   0.2500000
        k(    8) = (  -0.0759910  -0.0000099   0.0000000), wk =   0.1250000
        k(    9) = (  -0.0759910   0.0419252   0.0000000), wk =   0.2500000
        k(   10) = (  -0.0759910  -0.0838800   0.0000000), wk =   0.1250000

     Initial potential from superposition of free atoms

     starting charge  373.99917, renormalised to  390.00000

     negative rho (up, down):  1.730E-02 0.000E+00

     %%%%%%%%%%%%%%%%%%%%%%%%%%%%%%%%%%%%%%%%%%%%%%%%%%%%%%%%%%%%%%%%%%%%%%%%
     %                                                                      %
     % You are using vdW-DF, which was implemented by the Thonhauser group. %
     % Please cite the following two papers that made this development      %
     % possible and the two reviews that describe the various versions:     %
     %                                                                      %
     %   T. Thonhauser et al., PRL 115, 136402 (2015).                      %
     %   T. Thonhauser et al., PRB 76, 125112 (2007).                       %
     %   K. Berland et al., Rep. Prog. Phys. 78, 066501 (2015).             %
     %   D.C. Langreth et al., J. Phys.: Condens. Matter 21, 084203 (2009). %
     %                                                                      %
     %                                                                      %
     % If you are calculating the stress with vdW-DF, please also cite:     %
     %                                                                      %
     %   R. Sabatini et al., J. Phys.: Condens. Matter 24, 424209 (2012).   %
     %                                                                      %
     %%%%%%%%%%%%%%%%%%%%%%%%%%%%%%%%%%%%%%%%%%%%%%%%%%%%%%%%%%%%%%%%%%%%%%%%

     Adding external electric field

     Computed dipole along edir(3) :
        Dipole               -4.6272 Ry au,        -11.7612 Debye
        Dipole field         -0.0087 Ry au,

        Potential amp.        0.8095 Ry
        Total length         46.3494 bohr

     Starting wfcs are  295 atomic wfcs
  @ DRIVER MODE: Message from server: STATUS
  @ DRIVER MODE: Message from server: POSDATA
  @ DRIVER MODE: Reading and sharing cell
  @ DRIVER MODE: Reading and sharing positions
  @ DRIVER MODE: Received positions

     Self-consistent Calculation

     iteration #  1     ecut=    29.40 Ry     beta= 0.05
     Davidson diagonalization with overlap
     c_bands:  4 eigenvalues not converged
     c_bands:  2 eigenvalues not converged
     c_bands:  2 eigenvalues not converged
     c_bands:  4 eigenvalues not converged
     c_bands:  2 eigenvalues not converged
     c_bands:  4 eigenvalues not converged
     c_bands:  2 eigenvalues not converged
     c_bands:  2 eigenvalues not converged
     c_bands:  2 eigenvalues not converged
     ethr =  1.00E-05,  avg # of iterations = 19.9

[...]

     total energy              =   -2877.42467967 Ry
     estimated scf accuracy    <     481.24006300 Ry

     iteration #  2     ecut=    29.40 Ry     beta= 0.05
     Davidson diagonalization with overlap
     ethr =  1.00E-02,  avg # of iterations = 13.7

[...]

     iteration # 27     ecut=    29.40 Ry     beta= 0.05
     Davidson diagonalization with overlap
     c_bands:  2 eigenvalues not converged
     ethr =  2.52E-06,  avg # of iterations =  7.4

[...]

     total energy              =   -2919.13176816 Ry
     estimated scf accuracy    <       0.00000008 Ry

     iteration # 55     ecut=    29.40 Ry     beta= 0.05
     Davidson diagonalization with overlap
     ethr =  2.13E-11,  avg # of iterations =  5.9

     negative rho (up, down):  1.786E-02 0.000E+00

     Adding external electric field

     Computed dipole along edir(3) :
        Dipole                0.2602 Ry au,          0.6615 Debye
        Dipole field          0.0005 Ry au,

        Potential amp.       -0.0455 Ry
        Total length         46.3494 bohr

     End of self-consistent calculation

          k = 0.0000 0.0000 0.0000 ( 18029 PWs)   bands (ev):

   -56.8871 -56.8535 -56.0096 -55.9978 -55.9747 -55.9650 -55.8631 -55.8244
   -55.6469 -55.6116 -55.5517 -55.5492 -55.5177 -55.4398 -54.9689 -54.9222
   -33.3151 -33.1619 -33.1338 -33.0631 -32.9721 -32.9411 -32.4805 -32.4742
   -32.4037 -32.2938 -32.2474 -32.2233 -32.2050 -32.1836 -32.1501 -32.1457
   -32.1421 -32.1388 -32.1131 -32.1113 -32.0991 -32.0702 -32.0439 -32.0301
   -32.0170 -31.9973 -31.9905 -31.9670 -31.9440 -31.8902 -31.8782 -31.8660
   -31.7906 -31.7856 -31.7627 -31.7243 -31.7135 -31.6792 -31.6691 -31.6442
   -31.6256 -31.5683 -31.4991 -31.2197 -31.1939 -31.1734 -31.1430 -31.0279
   -17.0515 -16.6166 -16.3862 -16.2499 -16.1829 -16.1280 -16.0843 -15.9608
   -15.8873 -15.8824 -15.8418 -15.8102 -15.7393 -15.6009 -15.5023 -15.4453
   -15.4017 -15.2827 -15.2236 -15.1904 -15.1846 -15.1459 -15.1308 -14.9336
   -14.9071 -14.8187 -14.7995 -14.6722 -14.4409 -14.0503 -13.9402 -13.0808
    -7.7997  -4.6170  -4.1129  -3.8719  -3.7889  -3.6808  -3.6677  -3.5875
    -3.4681  -3.4215  -3.3749  -3.2588  -3.2557  -3.1098  -3.1090  -3.0629
    -3.0607  -3.0248  -2.9525  -2.9395  -2.9039  -2.8936  -2.8860  -2.7312
    -2.6327  -2.5663  -2.5389  -2.5261  -2.4952  -2.4238  -2.3938  -2.3842
    -2.3803  -2.2755  -2.1297  -2.1279  -2.0968  -2.0548  -2.0519  -2.0117
    -2.0015  -1.8771  -1.7857  -1.6768  -1.6669  -1.6296  -1.5677  -1.5609
    -1.4651  -1.3892  -1.3192  -1.3009  -1.1913  -1.1480  -1.1247  -1.0352
    -0.9734  -0.9359  -0.9131  -0.8965  -0.7926  -0.7768  -0.7697  -0.6765
    -0.6643  -0.6207  -0.5276  -0.5044  -0.4985  -0.4167  -0.4098  -0.3050
    -0.2763  -0.2320  -0.1990  -0.0943  -0.0735   0.0245   0.0616   0.0802
     0.2017   0.2191   0.2796   0.3517   0.4173   0.4341   0.4700   0.5002
     0.5167   0.5942   0.7067   0.7142   0.8173   0.8505   1.0225   1.0614
     1.3440   1.3530   2.0468   2.3874   2.5470   2.8454   3.0342   3.1474
     3.3622   3.3824   3.5540   3.6053   3.7052

[...]

          k = 0.0380-0.0419 0.0000 ( 17876 PWs)   bands (ev):

[...]

          k =-0.0760-0.0000 0.0000 ( 17886 PWs)   bands (ev):

[...]

          k =-0.0760-0.0839 0.0000 ( 17948 PWs)   bands (ev):

   -56.8704 -56.8701 -55.9944 -55.9887 -55.9822 -55.9816 -55.8516 -55.8357
   -55.6321 -55.6262 -55.5463 -55.5347 -55.5346 -55.4426 -54.9609 -54.9301
   -33.1477 -33.1475 -33.1320 -33.1318 -33.0162 -33.0159 -32.3104 -32.3080
   -32.2987 -32.2922 -32.2392 -32.2358 -32.1974 -32.1931 -32.1920 -32.1882
   -32.1840 -32.1811 -32.1790 -32.1773 -32.1019 -32.0894 -32.0507 -32.0385
   -31.9825 -31.9741 -31.9144 -31.9085 -31.8791 -31.8790 -31.8744 -31.8307
   -31.8291 -31.7993 -31.7624 -31.7603 -31.7601 -31.7212 -31.7211 -31.7200
   -31.6854 -31.6459 -31.3638 -31.2864 -31.1906 -31.1635 -31.1517 -31.1104
   -16.4002 -16.3982 -16.3654 -16.3651 -16.0963 -16.0928 -16.0469 -16.0435
   -15.8721 -15.8649 -15.6599 -15.6510 -15.6440 -15.6412 -15.5135 -15.5078
   -15.4447 -15.4305 -15.3428 -15.3403 -15.2772 -15.2711 -15.2328 -15.2130
   -14.9028 -14.8850 -14.7729 -14.7477 -14.5845 -14.0437 -14.0436 -13.0973
    -7.7904  -3.4988  -3.4980  -3.4345  -3.4335  -3.3094  -3.3036  -3.2299
    -3.2292  -3.1280  -3.1243  -3.0873  -2.9924  -2.9849  -2.9820  -2.9712
    -2.9451  -2.8307  -2.8280  -2.8168  -2.8007  -2.7444  -2.7422  -2.7303
    -2.6533  -2.6387  -2.6047  -2.5664  -2.4577  -2.4441  -2.4312  -2.3995
    -2.3437  -2.3290  -2.3164  -2.2748  -2.2491  -2.1640  -2.1072  -2.0558
    -1.9393  -1.9361  -1.9279  -1.9125  -1.7610  -1.7193  -1.6917  -1.6842
    -1.6764  -1.6329  -1.5340  -1.5273  -1.3930  -1.3924  -1.3128  -1.2338
    -1.2157  -1.1860  -1.0561  -1.0154  -0.9791  -0.9709  -0.9436  -0.9242
    -0.9004  -0.8632  -0.7218  -0.7087  -0.6716  -0.6366  -0.6317  -0.5752
    -0.5182  -0.4380  -0.3614  -0.3604  -0.3067  -0.2341  -0.1736  -0.0924
    -0.0784  -0.0738   0.2063   0.2861   0.3780   0.4544   0.5226   0.5764
     0.6111   0.6759   0.7145   0.8482   0.8528   0.8707   0.8710   0.9328
     0.9343   1.3339   1.9363   2.9603   2.9606   3.0275   3.0279   3.3515
     3.3573   3.4655   3.4752   3.5857   3.5879

     the Fermi energy is     2.2265 ev

!    total energy              =   -2919.13182941 Ry
     estimated scf accuracy    <       0.00000003 Ry
     smearing contrib. (-TS)   =      -0.00482376 Ry
     internal energy E=F+TS    =   -2919.12700565 Ry

     The total energy is F=E-TS. E is the sum of the following terms:
     one-electron contribution =  -24569.33900263 Ry
     hartree contribution      =   12368.89378396 Ry
     xc contribution           =    -479.89548386 Ry
     ewald contribution        =    9761.21356907 Ry
     electric field correction =       0.00012782 Ry

     convergence has been achieved in  55 iterations

     Forces acting on atoms (cartesian axes, Ry/au):

     atom    1 type  1   force =     0.00006078   -0.00050994    0.12427425
     atom    2 type  1   force =    -0.00008859   -0.00055032   -0.16063241
     atom    3 type  2   force =     0.00022118   -0.00024104   -0.06807210
     atom    4 type  2   force =    -0.00000246   -0.00032278    0.02759529
     atom    5 type  2   force =    -0.01621704    0.00174706   -0.00935921
     atom    6 type  2   force =     0.01827040    0.00228566   -0.00891311
     atom    7 type  1   force =     0.00112152   -0.00381541    0.02200253
     atom    8 type  1   force =    -0.00061565   -0.00325245    0.11120325
     atom    9 type  2   force =    -0.00010767    0.00138921   -0.00033007
     atom   10 type  2   force =    -0.00190985    0.00178551   -0.07346062
     atom   11 type  2   force =     0.00081031    0.00006030    0.00006399
     atom   12 type  2   force =    -0.00063785    0.00020081    0.00016544
     atom   13 type  1   force =     0.00005034    0.00022196   -0.00044525
     atom   14 type  1   force =    -0.00101502   -0.00024302   -0.00049164
     atom   15 type  2   force =    -0.00000722   -0.00028377    0.00012177
     atom   16 type  2   force =    -0.00006251    0.00106737    0.00077586
     atom   17 type  2   force =     0.00010671    0.00013848   -0.00046839
     atom   18 type  2   force =     0.00002463    0.00020014   -0.00007034
     atom   19 type  1   force =     0.00012728    0.00003533   -0.00072110
     atom   20 type  1   force =     0.00031024   -0.00100410   -0.00001014
     atom   21 type  2   force =     0.00003894   -0.00006731    0.09974691
     atom   22 type  2   force =     0.00017247   -0.00053794   -0.00006926
     atom   23 type  2   force =    -0.07919236   -0.00005369   -0.03243829
     atom   24 type  2   force =     0.07905823    0.00038321   -0.03246071
     atom   25 type  1   force =     0.00004557   -0.00050338    0.12372380
     atom   26 type  1   force =    -0.00009561   -0.00050668   -0.16065350
     atom   27 type  2   force =     0.00032654   -0.00048035   -0.06712686
     atom   28 type  2   force =     0.00002615   -0.00014347    0.02728529
     atom   29 type  2   force =    -0.01661590    0.00134951   -0.00956221
     atom   30 type  2   force =     0.01855681    0.00165624   -0.00913141
     atom   31 type  1   force =     0.00110067   -0.00129204    0.02156126
     atom   32 type  1   force =    -0.00052048    0.00069463    0.11185331
     atom   33 type  2   force =    -0.00034132   -0.00115267    0.00017194
     atom   34 type  2   force =    -0.00156698    0.00135623   -0.07239567
     atom   35 type  2   force =    -0.00179128   -0.00019777    0.00028120
     atom   36 type  2   force =     0.00070579   -0.00042049   -0.00003615
     atom   37 type  1   force =     0.00071715   -0.00033348    0.00066707
     atom   38 type  1   force =    -0.00016455    0.00052225    0.00019022
     atom   39 type  2   force =     0.00018165   -0.00032022   -0.00031670
     atom   40 type  2   force =     0.00010397   -0.00017336    0.00036452
     atom   41 type  2   force =     0.00003372    0.00045139   -0.00014408
     atom   42 type  2   force =     0.00025547    0.00054433   -0.00004936
     atom   43 type  1   force =     0.00037118    0.00015982   -0.00038010
     atom   44 type  1   force =    -0.00021564    0.00010274   -0.00001799
     atom   45 type  2   force =     0.00002359   -0.00007107    0.09974939
     atom   46 type  2   force =    -0.07920192   -0.00000578   -0.03243683
     atom   47 type  2   force =     0.07906857    0.00042317   -0.03245936
     atom   48 type  3   force =    -0.00009364   -0.00079687   -0.00027334
     atom   49 type  4   force =     0.00367304   -0.00565591    0.00147814
     atom   50 type  5   force =     0.00011078   -0.00059609    0.00028681
     atom   51 type  5   force =    -0.00008244    0.00038318    0.00015927
     atom   52 type  5   force =    -0.00512768    0.00637286   -0.00079530

     Total force =     0.424712     Total SCF correction =     0.000463
  @ DRIVER MODE: Message from server: STATUS
  @ DRIVER MODE: Message from server: GETFORCE
  @ DRIVER MODE: Returning v,forces,stress,ensemble

     Writing output data file ./calc.save/
  @ DRIVER MODE: Message from server: EXIT
  @ DRIVE MODE: Exiting

     General routines

     Parallel routines

   This run was terminated on:   3:49: 0  25Aug2021

   JOB DONE.