     Program PWSCF v.6.7GPU starts on 15Sep2021 at 16:40: 4

     R & G space division:  proc/nbgrp/npool/nimage =      10
     Reading input from /storage/home/hcoda1/3/ntian30/research/carbon/CxH_vib/H2O_calc/ads_slab/CH3NNH3H2O_a/out_0003/pw.inp
Warning: card &CELL ignored
Warning: card   CELL_DYNAMICS='IPI', ignored
Warning: card / ignored

     Current dimensions of program PWSCF are:
     Max number of different atomic species (ntypx) = 10
     Max number of k-points (npk) =  40000
     Max angular momentum in pseudopotentials (lmaxx) =  3
     Presently no symmetry can be used with electric field

     Message from routine cell_base_init:
     DEPRECATED: use true lattice parameter, not A to a.u. conversion factor

     IMPORTANT: XC functional enforced from input :
     Exchange-correlation= BEEF-VDW
                           (   1   4  43  14   2   0   0)
     Any further DFT definition will be discarded
     Please, verify this is what you really want

  @ DRIVER MODE: Connecting to
 qe_1139763_2852621.sched-torque.pace.gatech.edufoiw12wj_scratch
  using UNIX socket
  @ DRIVER MODE: Message from server: STATUS
  @ DRIVER MODE: Message from server: INIT
  @ DRIVER MODE: Receiving replica           0          -1
  @ DRIVER MODE: Receiving encoded integer          25
  @ DRIVER MODE:  SCF:  T  FORCE:  T  STRESS:  F  VC:  F  ENSEMBLE:  F
  @ DRIVER MODE:  SCF:  T  FORCE:  T  STRESS:  F  VC:  F  ENSEMBLE:  F

     Using Slab Decomposition

     bravais-lattice index     =            0
     lattice parameter (alat)  =       1.8897  a.u.
     unit-cell volume          =    6658.9804 (a.u.)^3
     number of atoms/cell      =           59
     number of atomic types    =            5
     number of electrons       =       406.00
     number of Kohn-Sham states=          213
     kinetic-energy cutoff     =      29.3995  Ry
     charge density cutoff     =     293.9946  Ry
     scf convergence threshold =      7.3E-08
     mixing beta               =       0.0500
     number of iterations used =            8  plain     mixing
     Exchange-correlation= BEEF-VDW
                           (   1   4  43  14   2   0   0)

     celldm(1)=   1.889726  celldm(2)=   0.000000  celldm(3)=   0.000000
     celldm(4)=   0.000000  celldm(5)=   0.000000  celldm(6)=   0.000000

     crystal axes: (cart. coord. in units of alat)
               a(1) = (   6.579727   0.000000   0.000000 )
               a(2) = (  -0.000775   5.961596   0.000000 )
               a(3) = (   0.000000   0.000000  25.155947 )

     reciprocal axes: (cart. coord. in units 2 pi/alat)
               b(1) = (  0.151982  0.000020  0.000000 )
               b(2) = (  0.000000  0.167740  0.000000 )
               b(3) = (  0.000000  0.000000  0.039752 )

     PseudoPot. # 1 for Ti read from file:
     /storage/coda1/p-amedford6/0/shared/rich_project_chbe-medford/medford-share/data/pseudos_module/espresso/nninc/pbe/van/Ti.UPF
     MD5 check sum: 8e4df49b7f0d34bbd5052bf3f5ea0213
     Pseudo is Ultrasoft, Zval = 12.0
     Generated by new atomic code, or converted to UPF format
     Using radial grid of  851 points,  6 beta functions with:
                l(1) =   0
                l(2) =   0
                l(3) =   1
                l(4) =   1
                l(5) =   2
                l(6) =   2
     Q(r) pseudized with  8 coefficients,  rinner =    1.000   1.000   1.000
                                                       1.000   1.000

     PseudoPot. # 2 for O  read from file:
     /storage/coda1/p-amedford6/0/shared/rich_project_chbe-medford/medford-share/data/pseudos_module/espresso/nninc/pbe/van/O.UPF
     MD5 check sum: 78c19812648e8988a0fe644b0f25305e
     Pseudo is Ultrasoft, Zval =  6.0
     Generated by new atomic code, or converted to UPF format
     Using radial grid of  737 points,  4 beta functions with:
                l(1) =   0
                l(2) =   0
                l(3) =   1
                l(4) =   1
     Q(r) pseudized with  8 coefficients,  rinner =    0.800   0.800   0.800

     PseudoPot. # 3 for N  read from file:
     /storage/coda1/p-amedford6/0/shared/rich_project_chbe-medford/medford-share/data/pseudos_module/espresso/nninc/pbe/van/N.UPF
     MD5 check sum: 90d10febe142ad51ac9d5be1deb811c4
     Pseudo is Ultrasoft, Zval =  5.0
     Generated by new atomic code, or converted to UPF format
     Using radial grid of  729 points,  4 beta functions with:
                l(1) =   0
                l(2) =   0
                l(3) =   1
                l(4) =   1
     Q(r) pseudized with  8 coefficients,  rinner =    0.800   0.800   0.800

     PseudoPot. # 4 for C  read from file:
     /storage/coda1/p-amedford6/0/shared/rich_project_chbe-medford/medford-share/data/pseudos_module/espresso/nninc/pbe/van/C.UPF
     MD5 check sum: 1a69bf6b8db32088f5b2163dbdb77a27
     Pseudo is Ultrasoft, Zval =  4.0
     Generated by new atomic code, or converted to UPF format
     Using radial grid of  721 points,  4 beta functions with:
                l(1) =   0
                l(2) =   0
                l(3) =   1
                l(4) =   1
     Q(r) pseudized with  8 coefficients,  rinner =    0.800   0.800   0.800

     PseudoPot. # 5 for H  read from file:
     /storage/coda1/p-amedford6/0/shared/rich_project_chbe-medford/medford-share/data/pseudos_module/espresso/nninc/pbe/van/H.UPF
     MD5 check sum: b5ee9d7bfd3a09ee7748110bda690ff7
     Pseudo is Ultrasoft, Zval =  1.0
     Generated by new atomic code, or converted to UPF format
     Using radial grid of  615 points,  1 beta functions with:
                l(1) =   0
     Q(r) pseudized with  8 coefficients,  rinner =    0.800

     atomic species   valence    mass     pseudopotential
        Ti1           12.00    47.86700     Ti( 1.00)
        O1             6.00    15.99900     O ( 1.00)
        N1             5.00    14.00700     N ( 1.00)
        C1             4.00    12.01100     C ( 1.00)
        H1             1.00     1.00800     H ( 1.00)

     No symmetry found

   Cartesian axes

     site n.     atom                  positions (alat units)
         1           Ti1 tau(   1) = (   0.0004258   2.9801865   6.0000000  )
         2           Ti1 tau(   2) = (   3.2906075   1.4906267   6.0002472  )
         3           O1  tau(   3) = (   0.0006271   0.0005054   7.9858123  )
         4           O1  tau(   4) = (   3.2906025   0.0005020   7.3038282  )
         5           O1  tau(   5) = (   4.5942328   1.4918067   9.2879030  )
         6           O1  tau(   6) = (   1.9868534   1.4903216   9.2879459  )
         7           Ti1 tau(   7) = (   3.2907910   2.8959150   9.1758416  )
         8           Ti1 tau(   8) = (   0.0015273   1.4827037   9.2680791  )
         9           O1  tau(   9) = (   3.2954490   0.0159868  11.2922163  )
        10           O1  tau(  10) = (   0.0116148   5.9584955  10.6183126  )
        11           O1  tau(  11) = (   1.3242731   1.5050266  12.6143764  )
        12           O1  tau(  12) = (   5.3073597   1.5103589  12.6267567  )
        13           Ti1 tau(  13) = (   6.4831477   3.0011104  12.7364612  )
        14           Ti1 tau(  14) = (   3.1751638   1.4975352  12.4748964  )
        15           O1  tau(  15) = (   0.0212859   5.9607631  14.5987152  )
        16           O1  tau(  16) = (   3.3058086   0.0238703  13.8910224  )
        17           O1  tau(  17) = (   4.5539421   1.5574750  15.9960573  )
        18           O1  tau(  18) = (   2.0731809   1.5597727  15.9888445  )
        19           Ti1 tau(  19) = (   3.3176354   3.0289328  15.6523405  )
        20           Ti1 tau(  20) = (   0.0198791   1.6227889  16.0606591  )
        21           O1  tau(  21) = (   3.2904802   0.0005063   4.7018136  )
        22           O1  tau(  22) = (   0.0290054   0.0533443  17.2129705  )
        23           O1  tau(  23) = (   1.3043587   1.4918075   6.0039043  )
        24           O1  tau(  24) = (   5.2767064   1.4903225   6.0039473  )
        25           Ti1 tau(  25) = (   0.0000382   5.9609847   6.0000000  )
        26           Ti1 tau(  26) = (   3.2902200   4.4714249   6.0002472  )
        27           O1  tau(  27) = (   0.0002396   2.9813036   7.9858123  )
        28           O1  tau(  28) = (   3.2902150   2.9813002   7.3038282  )
        29           O1  tau(  29) = (   4.5938453   4.4726049   9.2879030  )
        30           O1  tau(  30) = (   1.9864658   4.4711199   9.2879459  )
        31           Ti1 tau(  31) = (   3.2891106   5.8743827   9.1763621  )
        32           Ti1 tau(  32) = (   0.0006254   4.4649316   9.2693709  )
        33           O1  tau(  33) = (   3.2918316   2.9938763  11.2915017  )
        34           O1  tau(  34) = (   0.0092240   2.9805883  10.6323155  )
        35           O1  tau(  35) = (   1.3226278   4.4784642  12.6110361  )
        36           O1  tau(  36) = (   5.3078083   4.4770455  12.6250823  )
        37           Ti1 tau(  37) = (   6.5141033   0.0190828  12.7620745  )
        38           Ti1 tau(  38) = (   3.1722404   4.4939287  12.4712879  )
        39           O1  tau(  39) = (   0.0035410   2.9850241  14.6487316  )
        40           O1  tau(  40) = (   3.3118331   3.0109266  13.8519036  )
        41           O1  tau(  41) = (   4.5522870   4.5059159  16.0259181  )
        42           O1  tau(  42) = (   2.0778134   4.5048723  16.0185459  )
        43           Ti1 tau(  43) = (   3.3116469   0.0596163  15.7453941  )
        44           Ti1 tau(  44) = (   0.0183239   4.5967015  16.1059876  )
        45           O1  tau(  45) = (   3.2900926   2.9813045   4.7018136  )
        46           O1  tau(  46) = (   1.3039711   4.4726057   6.0039043  )
        47           O1  tau(  47) = (   5.2763189   4.4711207   6.0039473  )
        48           N1  tau(  48) = (   0.0600715   3.0165251  17.3188267  )
        49           N1  tau(  49) = (   6.2826239   2.5295367  22.6224490  )
        50           C1  tau(  50) = (   0.2859397   3.0149959  18.7399364  )
        51           H1  tau(  51) = (   0.1411154   4.0060466  19.1894648  )
        52           H1  tau(  52) = (   6.1913215   2.3105648  19.2421896  )
        53           H1  tau(  53) = (   1.3125146   2.6868920  18.9691123  )
        54           H1  tau(  54) = (   6.1000088   3.2491606  23.3142794  )
        55           H1  tau(  55) = (   0.1456284   1.7586669  23.1118534  )
        56           H1  tau(  56) = (   0.3974265   2.9048463  21.9856970  )
        57           O1  tau(  57) = (   3.2908421   0.1144680  18.1630233  )
        58           H1  tau(  58) = (   4.0679411   5.5688996  18.4486002  )
        59           H1  tau(  59) = (   2.5060966   5.5711546  18.4327789  )

     number of k points=    10  Fermi-Dirac smearing, width (Ry)=  0.0073
                       cart. coord. in units 2pi/alat
        k(    1) = (   0.0000000   0.0000000   0.0000000), wk =   0.1250000
        k(    2) = (   0.0000000   0.0419351   0.0000000), wk =   0.2500000
        k(    3) = (   0.0000000  -0.0838702   0.0000000), wk =   0.1250000
        k(    4) = (   0.0379955   0.0000049   0.0000000), wk =   0.2500000
        k(    5) = (   0.0379955   0.0419400   0.0000000), wk =   0.2500000
        k(    6) = (   0.0379955  -0.0838652   0.0000000), wk =   0.2500000
        k(    7) = (   0.0379955  -0.0419301   0.0000000), wk =   0.2500000
        k(    8) = (  -0.0759910  -0.0000099   0.0000000), wk =   0.1250000
        k(    9) = (  -0.0759910   0.0419252   0.0000000), wk =   0.2500000
        k(   10) = (  -0.0759910  -0.0838800   0.0000000), wk =   0.1250000

     Initial potential from superposition of free atoms

     starting charge  389.99912, renormalised to  406.00000

     negative rho (up, down):  6.916E-03 0.000E+00

     %%%%%%%%%%%%%%%%%%%%%%%%%%%%%%%%%%%%%%%%%%%%%%%%%%%%%%%%%%%%%%%%%%%%%%%%
     %                                                                      %
     % You are using vdW-DF, which was implemented by the Thonhauser group. %
     % Please cite the following two papers that made this development      %
     % possible and the two reviews that describe the various versions:     %
     %                                                                      %
     %   T. Thonhauser et al., PRL 115, 136402 (2015).                      %
     %   T. Thonhauser et al., PRB 76, 125112 (2007).                       %
     %   K. Berland et al., Rep. Prog. Phys. 78, 066501 (2015).             %
     %   D.C. Langreth et al., J. Phys.: Condens. Matter 21, 084203 (2009). %
     %                                                                      %
     %                                                                      %
     % If you are calculating the stress with vdW-DF, please also cite:     %
     %                                                                      %
     %   R. Sabatini et al., J. Phys.: Condens. Matter 24, 424209 (2012).   %
     %                                                                      %
     %%%%%%%%%%%%%%%%%%%%%%%%%%%%%%%%%%%%%%%%%%%%%%%%%%%%%%%%%%%%%%%%%%%%%%%%

     Adding external electric field

     Computed dipole along edir(3) :
        Dipole              -16.2336 Ry au,        -41.2616 Debye
        Dipole field         -0.0306 Ry au,

        Potential amp.        2.8398 Ry
        Total length         46.3494 bohr

     Starting wfcs are  308 atomic wfcs
  @ DRIVER MODE: Message from server: STATUS
  @ DRIVER MODE: Message from server: POSDATA
  @ DRIVER MODE: Reading and sharing cell
  @ DRIVER MODE: Reading and sharing positions
  @ DRIVER MODE: Received positions

     Self-consistent Calculation

     iteration #  1     ecut=    29.40 Ry     beta= 0.05
     Davidson diagonalization with overlap
     c_bands:  2 eigenvalues not converged
     c_bands:  3 eigenvalues not converged
     c_bands:  5 eigenvalues not converged
     c_bands:  3 eigenvalues not converged
     c_bands:  3 eigenvalues not converged
     c_bands:  3 eigenvalues not converged
     c_bands:  1 eigenvalues not converged
     c_bands:  5 eigenvalues not converged
     c_bands:  3 eigenvalues not converged
     ethr =  1.00E-05,  avg # of iterations = 20.6

[...]

     total energy              =   -2253.46826300 Ry
     estimated scf accuracy    <    8262.96627988 Ry

     iteration #  2     ecut=    29.40 Ry     beta= 0.05
     Davidson diagonalization with overlap
     ethr =  1.00E-02,  avg # of iterations = 24.2

[...]

     iteration # 58     ecut=    29.40 Ry     beta= 0.05
     Davidson diagonalization with overlap
     c_bands:  1 eigenvalues not converged
     ethr =  5.31E-07,  avg # of iterations =  9.5

[...]

     total energy              =   -2977.74436398 Ry
     estimated scf accuracy    <       0.00000008 Ry

     iteration # 81     ecut=    29.40 Ry     beta= 0.05
     Davidson diagonalization with overlap
     ethr =  1.93E-11,  avg # of iterations =  5.2

     negative rho (up, down):  8.782E-03 0.000E+00

     Adding external electric field

     Computed dipole along edir(3) :
        Dipole                0.7651 Ry au,          1.9448 Debye
        Dipole field          0.0014 Ry au,

        Potential amp.       -0.1338 Ry
        Total length         46.3494 bohr

     End of self-consistent calculation

          k = 0.0000 0.0000 0.0000 ( 18029 PWs)   bands (ev):

   -56.2618 -56.2282 -55.3784 -55.3444 -55.3363 -55.3014 -55.1527 -55.1174
   -55.0304 -54.9111 -54.8913 -54.8901 -54.8772 -54.8068 -54.4023 -54.3210
   -32.6886 -32.5362 -32.5081 -32.4381 -32.3472 -32.3147 -31.8462 -31.8186
   -31.6881 -31.6442 -31.5954 -31.5776 -31.5473 -31.5383 -31.5091 -31.5042
   -31.4858 -31.4792 -31.4559 -31.4428 -31.4287 -31.3795 -31.3691 -31.3304
   -31.3179 -31.3020 -31.2922 -31.2790 -31.2546 -31.2537 -31.2507 -31.2265
   -31.1304 -31.1210 -31.0799 -31.0689 -31.0420 -31.0379 -31.0292 -31.0111
   -30.9795 -30.9270 -30.9031 -30.6438 -30.6255 -30.5653 -30.5399 -30.4438
   -18.4465 -16.4174 -15.9508 -15.7071 -15.6183 -15.5347 -15.4964 -15.4521
   -15.2988 -15.2325 -15.2101 -15.2091 -15.1381 -14.9898 -14.9434 -14.8454
   -14.7510 -14.6161 -14.5989 -14.5666 -14.5475 -14.5151 -14.5067 -14.4558
   -14.2938 -14.2573 -14.2097 -14.1459 -14.0617 -14.0409 -13.8351 -13.4097
   -13.3000 -12.6449  -7.4504  -6.2369  -4.1070  -4.0865  -3.9848  -3.4505
    -3.1808  -3.1536  -3.0252  -3.0200  -2.9745  -2.8353  -2.8273  -2.7539
    -2.7301  -2.6941  -2.6166  -2.5863  -2.5342  -2.4448  -2.4327  -2.4125
    -2.3960  -2.3835  -2.2612  -2.2198  -2.1674  -2.0636  -1.9558  -1.9124
    -1.8855  -1.8420  -1.8035  -1.7569  -1.7446  -1.7293  -1.7234  -1.6110
    -1.4983  -1.4633  -1.4496  -1.4040  -1.3855  -1.3764  -1.3542  -1.2696
    -1.1609  -1.0688  -0.9995  -0.9864  -0.9199  -0.9119  -0.8571  -0.7363
    -0.6757  -0.6682  -0.6555  -0.5523  -0.5250  -0.4532  -0.3899  -0.3322
    -0.2781  -0.2154  -0.1647  -0.1432  -0.1296  -0.0304   0.0408   0.0645
     0.1155   0.1251   0.1342   0.1541   0.2517   0.2869   0.3609   0.4049
     0.4415   0.4853   0.5688   0.6191   0.6866   0.7365   0.7595   0.8208
     0.8745   0.9302   1.0257   1.0725   1.0793   1.0882   1.1104   1.1710
     1.1851   1.2621   1.3442   1.3590   1.4321   1.5007   1.6604   1.6995
     1.9456   2.0218   2.6462   3.0154   3.1767   3.4718   3.6621   3.7995
     3.9947   4.0051   4.0121   4.2623   4.2733

[...]

          k = 0.0380-0.0419 0.0000 ( 17876 PWs)   bands (ev):

[...]

          k =-0.0760-0.0000 0.0000 ( 17886 PWs)   bands (ev):

[...]

          k =-0.0760-0.0839 0.0000 ( 17948 PWs)   bands (ev):

   -56.2452 -56.2448 -55.3634 -55.3589 -55.3238 -55.3141 -55.1362 -55.1338
   -55.0281 -54.8941 -54.8940 -54.8922 -54.8875 -54.8105 -54.3984 -54.3248
   -32.5221 -32.5218 -32.5055 -32.5053 -32.3913 -32.3909 -31.6699 -31.6639
   -31.6544 -31.6469 -31.5705 -31.5555 -31.5534 -31.5490 -31.5429 -31.5412
   -31.5357 -31.5270 -31.4943 -31.4778 -31.3817 -31.3795 -31.3459 -31.3402
   -31.3206 -31.2845 -31.2461 -31.2395 -31.2394 -31.2375 -31.2129 -31.1910
   -31.1490 -31.1189 -31.1187 -31.1145 -31.0912 -31.0797 -31.0796 -31.0631
   -31.0484 -31.0134 -30.7720 -30.6886 -30.6248 -30.5991 -30.5455 -30.5021
   -18.4456 -15.7680 -15.7660 -15.7309 -15.7302 -15.4631 -15.4598 -15.3659
   -15.3606 -15.2257 -15.1090 -15.0078 -14.9950 -14.9594 -14.9321 -14.8201
   -14.7990 -14.7893 -14.7798 -14.6678 -14.6475 -14.6004 -14.5916 -14.5760
   -14.5654 -14.2696 -14.2590 -14.1536 -14.1323 -14.0402 -13.9899 -13.4036
   -13.4035 -12.6635  -7.4441  -6.2294  -4.1170  -4.0883  -2.8645  -2.8573
    -2.8214  -2.8027  -2.8019  -2.7457  -2.6369  -2.5986  -2.5962  -2.5953
    -2.5141  -2.4459  -2.4379  -2.3656  -2.3340  -2.3142  -2.2559  -2.2441
    -2.1802  -2.1542  -2.1457  -2.1292  -2.1059  -2.1047  -2.0078  -1.9450
    -1.8932  -1.8899  -1.8218  -1.8050  -1.7393  -1.7202  -1.7088  -1.6762
    -1.6348  -1.6127  -1.5798  -1.5455  -1.5055  -1.4465  -1.2795  -1.2704
    -1.2606  -1.2390  -1.1138  -1.1066  -1.0771  -1.0465  -1.0406  -0.9661
    -0.9171  -0.8818  -0.8245  -0.7407  -0.7183  -0.6153  -0.5656  -0.5190
    -0.4632  -0.3565  -0.3392  -0.3285  -0.3193  -0.2892  -0.2222  -0.1934
    -0.1779  -0.0573  -0.0371   0.0157   0.0367   0.0933   0.1188   0.1831
     0.2099   0.2813   0.2934   0.3317   0.4080   0.4882   0.5243   0.5702
     0.5750   0.8515   0.9249   1.0547   1.0632   1.1242   1.1815   1.2546
     1.3124   1.3449   1.3726   1.4950   1.4990   1.5082   1.5087   1.5811
     1.5856   1.9259   2.5236   3.5913   3.5916   3.6582   3.6588   3.9796
     3.9858   4.0928   4.1031   4.2646   4.2798

     the Fermi energy is     2.8429 ev

!    total energy              =   -2977.74437894 Ry
     estimated scf accuracy    <       0.00000006 Ry
     smearing contrib. (-TS)   =      -0.00444210 Ry
     internal energy E=F+TS    =   -2977.73993684 Ry

     The total energy is F=E-TS. E is the sum of the following terms:
     one-electron contribution =  -22875.99198344 Ry
     hartree contribution      =   11535.71727729 Ry
     xc contribution           =    -496.32751555 Ry
     ewald contribution        =    8858.86118009 Ry
     electric field correction =       0.00110478 Ry

     convergence has been achieved in  81 iterations

     Forces acting on atoms (cartesian axes, Ry/au):

     atom    1 type  1   force =    -0.00003395   -0.00046718    0.12454770
     atom    2 type  1   force =    -0.00008488   -0.00047773   -0.15978709
     atom    3 type  2   force =     0.00019142   -0.00024347   -0.06795012
     atom    4 type  2   force =    -0.00000788   -0.00011452    0.02618821
     atom    5 type  2   force =    -0.01447489    0.00181928   -0.00991461
     atom    6 type  2   force =     0.01625300    0.00224297   -0.01026099
     atom    7 type  1   force =     0.00071828   -0.00387938    0.02891536
     atom    8 type  1   force =    -0.00034949   -0.00437482    0.10956711
     atom    9 type  2   force =     0.00023811   -0.00028382   -0.00053628
     atom   10 type  2   force =    -0.00231602    0.00255695   -0.07333896
     atom   11 type  2   force =    -0.00001808   -0.00037943   -0.00000975
     atom   12 type  2   force =    -0.00017507   -0.00090377    0.00000472
     atom   13 type  1   force =     0.00109131   -0.00040018    0.00042709
     atom   14 type  1   force =    -0.00063649    0.00065565   -0.00007490
     atom   15 type  2   force =    -0.00029452   -0.00162307   -0.00022660
     atom   16 type  2   force =    -0.00001287   -0.00016839    0.00065613
     atom   17 type  2   force =    -0.00055580   -0.00107570   -0.00045344
     atom   18 type  2   force =     0.00120124   -0.00069381   -0.00012293
     atom   19 type  1   force =    -0.00113292   -0.00095441   -0.00099704
     atom   20 type  1   force =     0.00073320   -0.00090699   -0.00200486
     atom   21 type  2   force =     0.00004619   -0.00003752    0.09943198
     atom   22 type  2   force =     0.00001604   -0.00222322   -0.00036873
     atom   23 type  2   force =    -0.07967909   -0.00005463   -0.03248876
     atom   24 type  2   force =     0.07952303    0.00038380   -0.03253831
     atom   25 type  1   force =    -0.00000562   -0.00057135    0.12419742
     atom   26 type  1   force =    -0.00008944   -0.00062750   -0.15993788
     atom   27 type  2   force =     0.00029910   -0.00036515   -0.06700197
     atom   28 type  2   force =    -0.00002073    0.00015071    0.02510559
     atom   29 type  2   force =    -0.01509863    0.00192561   -0.00985237
     atom   30 type  2   force =     0.01677369    0.00242654   -0.01016790
     atom   31 type  1   force =     0.00074173   -0.00076289    0.02409889
     atom   32 type  1   force =    -0.00028067    0.00202235    0.11020011
     atom   33 type  2   force =     0.00007551    0.00028350    0.00056164
     atom   34 type  2   force =    -0.00193420    0.00199906   -0.07173576
     atom   35 type  2   force =    -0.00000206    0.00037490   -0.00003957
     atom   36 type  2   force =    -0.00055031    0.00068191   -0.00007529
     atom   37 type  1   force =     0.00116396    0.00041056    0.00015049
     atom   38 type  1   force =    -0.00053862   -0.00089362   -0.00017793
     atom   39 type  2   force =    -0.00027820    0.00038212    0.00040433
     atom   40 type  2   force =     0.00018012   -0.00008880    0.00021021
     atom   41 type  2   force =     0.00167800    0.00003052    0.00046320
     atom   42 type  2   force =    -0.00115777   -0.00037977    0.00084413
     atom   43 type  1   force =    -0.00158830    0.00084810   -0.00032133
     atom   44 type  1   force =     0.00098512   -0.00018983   -0.00017866
     atom   45 type  2   force =     0.00001871   -0.00004768    0.09940005
     atom   46 type  2   force =    -0.07969623    0.00000138   -0.03250103
     atom   47 type  2   force =     0.07954638    0.00043556   -0.03252836
     atom   48 type  3   force =    -0.00082679    0.00474240    0.00069049
     atom   49 type  3   force =    -0.00034150   -0.00048012    0.00132263
     atom   50 type  4   force =    -0.00021197   -0.00183327    0.00007734
     atom   51 type  5   force =    -0.00040213    0.00056008   -0.00065644
     atom   52 type  5   force =     0.00008945   -0.00039406    0.00135213
     atom   53 type  5   force =     0.00051839   -0.00004339    0.00049577
     atom   54 type  5   force =     0.00006405   -0.00023037   -0.00058966
     atom   55 type  5   force =     0.00003359    0.00031140   -0.00029577
     atom   56 type  5   force =     0.00029283    0.00035462   -0.00182251
     atom   57 type  2   force =     0.00159894   -0.00049526   -0.00036478
     atom   58 type  5   force =    -0.00048198    0.00091958    0.00003540
     atom   59 type  5   force =    -0.00079427    0.00014553   -0.00002754

     Total force =     0.423623     Total SCF correction =     0.000595
  @ DRIVER MODE: Message from server: STATUS
  @ DRIVER MODE: Message from server: GETFORCE
  @ DRIVER MODE: Returning v,forces,stress,ensemble

     Writing output data file ./calc.save/
  @ DRIVER MODE: Message from server: EXIT
  @ DRIVE MODE: Exiting

     General routines

     Parallel routines

   This run was terminated on:  17: 1:32  15Sep2021

   JOB DONE.