     Program PWSCF v.6.7GPU starts on  2Aug2021 at 22:46:54

     R & G space division:  proc/nbgrp/npool/nimage =      16
     Reading input from /storage/home/hcoda1/3/ntian30/research/carbon/02Aug_vib_paired/ads_slab/CH3NHHH_a/out_0034/pw.inp
Warning: card &CELL ignored
Warning: card   CELL_DYNAMICS='IPI', ignored
Warning: card / ignored

     Current dimensions of program PWSCF are:
     Max number of different atomic species (ntypx) = 10
     Max number of k-points (npk) =  40000
     Max angular momentum in pseudopotentials (lmaxx) =  3
     Presently no symmetry can be used with electric field

     Message from routine cell_base_init:
     DEPRECATED: use true lattice parameter, not A to a.u. conversion factor

     IMPORTANT: XC functional enforced from input :
     Exchange-correlation= BEEF-VDW
                           (   1   4  43  14   2   0   0)
     Any further DFT definition will be discarded
     Please, verify this is what you really want

  @ DRIVER MODE: Connecting to
 qe_1139763_2482537.sched-torque.pace.gatech.edu67x41tbt_scratch
  using UNIX socket
  @ DRIVER MODE: Message from server: STATUS
  @ DRIVER MODE: Message from server: INIT
  @ DRIVER MODE: Receiving replica           0          -1
  @ DRIVER MODE: Receiving encoded integer          25
  @ DRIVER MODE:  SCF:  T  FORCE:  T  STRESS:  F  VC:  F  ENSEMBLE:  F
  @ DRIVER MODE:  SCF:  T  FORCE:  T  STRESS:  F  VC:  F  ENSEMBLE:  F

     Using Slab Decomposition

     bravais-lattice index     =            0
     lattice parameter (alat)  =       1.8897  a.u.
     unit-cell volume          =    6658.9804 (a.u.)^3
     number of atoms/cell      =           55
     number of atomic types    =            5
     number of electrons       =       393.00
     number of Kohn-Sham states=          206
     kinetic-energy cutoff     =      29.3995  Ry
     charge density cutoff     =     293.9946  Ry
     scf convergence threshold =      7.3E-08
     mixing beta               =       0.0500
     number of iterations used =            8  plain     mixing
     Exchange-correlation= BEEF-VDW
                           (   1   4  43  14   2   0   0)

     celldm(1)=   1.889726  celldm(2)=   0.000000  celldm(3)=   0.000000
     celldm(4)=   0.000000  celldm(5)=   0.000000  celldm(6)=   0.000000

     crystal axes: (cart. coord. in units of alat)
               a(1) = (   6.579727   0.000000   0.000000 )
               a(2) = (  -0.000775   5.961596   0.000000 )
               a(3) = (   0.000000   0.000000  25.155947 )

     reciprocal axes: (cart. coord. in units 2 pi/alat)
               b(1) = (  0.151982  0.000020  0.000000 )
               b(2) = (  0.000000  0.167740  0.000000 )
               b(3) = (  0.000000  0.000000  0.039752 )

     PseudoPot. # 1 for Ti read from file:
     /storage/coda1/p-amedford6/0/shared/rich_project_chbe-medford/medford-share/data/pseudos_module/espresso/nninc/pbe/van/Ti.UPF
     MD5 check sum: 8e4df49b7f0d34bbd5052bf3f5ea0213
     Pseudo is Ultrasoft, Zval = 12.0
     Generated by new atomic code, or converted to UPF format
     Using radial grid of  851 points,  6 beta functions with:
                l(1) =   0
                l(2) =   0
                l(3) =   1
                l(4) =   1
                l(5) =   2
                l(6) =   2
     Q(r) pseudized with  8 coefficients,  rinner =    1.000   1.000   1.000
                                                       1.000   1.000

     PseudoPot. # 2 for O  read from file:
     /storage/coda1/p-amedford6/0/shared/rich_project_chbe-medford/medford-share/data/pseudos_module/espresso/nninc/pbe/van/O.UPF
     MD5 check sum: 78c19812648e8988a0fe644b0f25305e
     Pseudo is Ultrasoft, Zval =  6.0
     Generated by new atomic code, or converted to UPF format
     Using radial grid of  737 points,  4 beta functions with:
                l(1) =   0
                l(2) =   0
                l(3) =   1
                l(4) =   1
     Q(r) pseudized with  8 coefficients,  rinner =    0.800   0.800   0.800

     PseudoPot. # 3 for N  read from file:
     /storage/coda1/p-amedford6/0/shared/rich_project_chbe-medford/medford-share/data/pseudos_module/espresso/nninc/pbe/van/N.UPF
     MD5 check sum: 90d10febe142ad51ac9d5be1deb811c4
     Pseudo is Ultrasoft, Zval =  5.0
     Generated by new atomic code, or converted to UPF format
     Using radial grid of  729 points,  4 beta functions with:
                l(1) =   0
                l(2) =   0
                l(3) =   1
                l(4) =   1
     Q(r) pseudized with  8 coefficients,  rinner =    0.800   0.800   0.800

     PseudoPot. # 4 for C  read from file:
     /storage/coda1/p-amedford6/0/shared/rich_project_chbe-medford/medford-share/data/pseudos_module/espresso/nninc/pbe/van/C.UPF
     MD5 check sum: 1a69bf6b8db32088f5b2163dbdb77a27
     Pseudo is Ultrasoft, Zval =  4.0
     Generated by new atomic code, or converted to UPF format
     Using radial grid of  721 points,  4 beta functions with:
                l(1) =   0
                l(2) =   0
                l(3) =   1
                l(4) =   1
     Q(r) pseudized with  8 coefficients,  rinner =    0.800   0.800   0.800

     PseudoPot. # 5 for H  read from file:
     /storage/coda1/p-amedford6/0/shared/rich_project_chbe-medford/medford-share/data/pseudos_module/espresso/nninc/pbe/van/H.UPF
     MD5 check sum: b5ee9d7bfd3a09ee7748110bda690ff7
     Pseudo is Ultrasoft, Zval =  1.0
     Generated by new atomic code, or converted to UPF format
     Using radial grid of  615 points,  1 beta functions with:
                l(1) =   0
     Q(r) pseudized with  8 coefficients,  rinner =    0.800

     atomic species   valence    mass     pseudopotential
        Ti1           12.00    47.86700     Ti( 1.00)
        O1             6.00    15.99900     O ( 1.00)
        N1             5.00    14.00700     N ( 1.00)
        C1             4.00    12.01100     C ( 1.00)
        H1             1.00     1.00800     H ( 1.00)

     No symmetry found

   Cartesian axes

     site n.     atom                  positions (alat units)
         1           Ti1 tau(   1) = (   0.0004258   2.9801865   6.0000000  )
         2           Ti1 tau(   2) = (   3.2906075   1.4906267   6.0002472  )
         3           O1  tau(   3) = (   0.0006271   0.0005054   7.9858123  )
         4           O1  tau(   4) = (   3.2906025   0.0005020   7.3038282  )
         5           O1  tau(   5) = (   4.5942328   1.4918067   9.2879030  )
         6           O1  tau(   6) = (   1.9868534   1.4903216   9.2879459  )
         7           Ti1 tau(   7) = (   3.2907910   2.8959150   9.1758416  )
         8           Ti1 tau(   8) = (   0.0015273   1.4827037   9.2680791  )
         9           O1  tau(   9) = (   3.2636084   5.9406443  11.4082010  )
        10           O1  tau(  10) = (   0.0116148   5.9584955  10.6183126  )
        11           O1  tau(  11) = (   1.2642105   1.4849797  12.6947803  )
        12           O1  tau(  12) = (   5.2691575   1.4821021  12.6650678  )
        13           Ti1 tau(  13) = (   6.5574234   2.9640577  12.4921542  )
        14           Ti1 tau(  14) = (   3.2619390   1.4709553  12.5527290  )
        15           O1  tau(  15) = (   6.5247406   5.9594380  14.6832748  )
        16           O1  tau(  16) = (   3.2695906   5.9428997  14.0562986  )
        17           O1  tau(  17) = (   4.5175969   1.4707097  16.2986306  )
        18           O1  tau(  18) = (   1.9406912   1.4777946  16.2473769  )
        19           Ti1 tau(  19) = (   3.2491105   2.9422209  15.8109686  )
        20           Ti1 tau(  20) = (   6.5361480   1.3378720  15.9626387  )
        21           O1  tau(  21) = (   3.2904802   0.0005063   4.7018136  )
        22           O1  tau(  22) = (   6.5280740   5.8897732  17.4332532  )
        23           O1  tau(  23) = (   1.3043587   1.4918075   6.0039043  )
        24           O1  tau(  24) = (   5.2767064   1.4903225   6.0039473  )
        25           Ti1 tau(  25) = (   0.0000382   5.9609847   6.0000000  )
        26           Ti1 tau(  26) = (   3.2902200   4.4714249   6.0002472  )
        27           O1  tau(  27) = (   0.0002396   2.9813036   7.9858123  )
        28           O1  tau(  28) = (   3.2902150   2.9813002   7.3038282  )
        29           O1  tau(  29) = (   4.5938453   4.4726049   9.2879030  )
        30           O1  tau(  30) = (   1.9864658   4.4711199   9.2879459  )
        31           Ti1 tau(  31) = (   3.2891106   5.8743827   9.1763621  )
        32           Ti1 tau(  32) = (   0.0006254   4.4649316   9.2693709  )
        33           O1  tau(  33) = (   3.2649920   2.9642658  11.3997388  )
        34           O1  tau(  34) = (   0.0092240   2.9805883  10.6323155  )
        35           O1  tau(  35) = (   1.2634527   4.4478426  12.7061968  )
        36           O1  tau(  36) = (   5.2693862   4.4495813  12.6755241  )
        37           Ti1 tau(  37) = (   6.5522441   5.9483113  12.5008436  )
        38           Ti1 tau(  38) = (   3.2626494   4.4468850  12.5575576  )
        39           O1  tau(  39) = (   6.4970557   2.9363996  15.0046851  )
        40           O1  tau(  40) = (   3.2722650   2.9529576  14.0194401  )
        41           O1  tau(  41) = (   4.5170401   4.4205294  16.2730734  )
        42           O1  tau(  42) = (   1.9466746   4.4191161  16.2235312  )
        43           Ti1 tau(  43) = (   3.2419262   5.9323414  15.8513663  )
        44           Ti1 tau(  44) = (   6.5549466   4.5556212  15.8889459  )
        45           O1  tau(  45) = (   3.2900926   2.9813045   4.7018136  )
        46           O1  tau(  46) = (   1.3039711   4.4726057   6.0039043  )
        47           O1  tau(  47) = (   5.2763189   4.4711207   6.0039473  )
        48           N1  tau(  48) = (   4.8657738   4.5798987  19.4796958  )
        49           C1  tau(  49) = (   5.7271871   3.4329544  19.8049648  )
        50           H1  tau(  50) = (   6.3241292   3.1721029  18.9298488  )
        51           H1  tau(  51) = (   6.4229137   3.7195585  20.5942015  )
        52           H1  tau(  52) = (   5.1874390   2.5328885  20.1195193  )
        53           H1  tau(  53) = (   5.9066942   5.7489963  18.1772939  )
        54           H1  tau(  54) = (   4.2103208   4.3266459  18.7469397  )
        55           H1  tau(  55) = (   4.3187305   4.8545830  20.2870342  )

     number of k points=    10  Fermi-Dirac smearing, width (Ry)=  0.0073
                       cart. coord. in units 2pi/alat
        k(    1) = (   0.0000000   0.0000000   0.0000000), wk =   0.1250000
        k(    2) = (   0.0000000   0.0419351   0.0000000), wk =   0.2500000
        k(    3) = (   0.0000000  -0.0838702   0.0000000), wk =   0.1250000
        k(    4) = (   0.0379955   0.0000049   0.0000000), wk =   0.2500000
        k(    5) = (   0.0379955   0.0419400   0.0000000), wk =   0.2500000
        k(    6) = (   0.0379955  -0.0838652   0.0000000), wk =   0.2500000
        k(    7) = (   0.0379955  -0.0419301   0.0000000), wk =   0.2500000
        k(    8) = (  -0.0759910  -0.0000099   0.0000000), wk =   0.1250000
        k(    9) = (  -0.0759910   0.0419252   0.0000000), wk =   0.2500000
        k(   10) = (  -0.0759910  -0.0838800   0.0000000), wk =   0.1250000

     Initial potential from superposition of free atoms

     starting charge  376.99914, renormalised to  393.00000

     negative rho (up, down):  1.330E-02 0.000E+00

     %%%%%%%%%%%%%%%%%%%%%%%%%%%%%%%%%%%%%%%%%%%%%%%%%%%%%%%%%%%%%%%%%%%%%%%%
     %                                                                      %
     % You are using vdW-DF, which was implemented by the Thonhauser group. %
     % Please cite the following two papers that made this development      %
     % possible and the two reviews that describe the various versions:     %
     %                                                                      %
     %   T. Thonhauser et al., PRL 115, 136402 (2015).                      %
     %   T. Thonhauser et al., PRB 76, 125112 (2007).                       %
     %   K. Berland et al., Rep. Prog. Phys. 78, 066501 (2015).             %
     %   D.C. Langreth et al., J. Phys.: Condens. Matter 21, 084203 (2009). %
     %                                                                      %
     %                                                                      %
     % If you are calculating the stress with vdW-DF, please also cite:     %
     %                                                                      %
     %   R. Sabatini et al., J. Phys.: Condens. Matter 24, 424209 (2012).   %
     %                                                                      %
     %%%%%%%%%%%%%%%%%%%%%%%%%%%%%%%%%%%%%%%%%%%%%%%%%%%%%%%%%%%%%%%%%%%%%%%%

     Adding external electric field

     Computed dipole along edir(3) :
        Dipole               -9.4918 Ry au,        -24.1257 Debye
        Dipole field         -0.0179 Ry au,

        Potential amp.        1.6604 Ry
        Total length         46.3494 bohr

     Starting wfcs are  298 atomic wfcs
  @ DRIVER MODE: Message from server: STATUS
  @ DRIVER MODE: Message from server: POSDATA
  @ DRIVER MODE: Reading and sharing cell
  @ DRIVER MODE: Reading and sharing positions
  @ DRIVER MODE: Received positions

     Self-consistent Calculation

     iteration #  1     ecut=    29.40 Ry     beta= 0.05
     Davidson diagonalization with overlap
     c_bands:  2 eigenvalues not converged
     c_bands:  1 eigenvalues not converged
     c_bands:  2 eigenvalues not converged
     c_bands:  3 eigenvalues not converged
     c_bands:  3 eigenvalues not converged
     c_bands:  1 eigenvalues not converged
     ethr =  1.00E-05,  avg # of iterations = 18.9

[...]

     total energy              =   -2620.45461674 Ry
     estimated scf accuracy    <    3390.18464802 Ry

[...]

     iteration #  3     ecut=    29.40 Ry     beta= 0.05
     Davidson diagonalization with overlap
     ethr =  1.00E-02,  avg # of iterations = 14.6

[...]

     iteration # 80     ecut=    29.40 Ry     beta= 0.05
     Davidson diagonalization with overlap
     c_bands:  1 eigenvalues not converged
     ethr =  6.61E-11,  avg # of iterations = 15.0

[...]

     total energy              =   -2922.77382036 Ry
     estimated scf accuracy    <       0.00000009 Ry

     iteration # 82     ecut=    29.40 Ry     beta= 0.05
     Davidson diagonalization with overlap
     ethr =  2.31E-11,  avg # of iterations = 13.2

     negative rho (up, down):  1.445E-02 0.000E+00

     Adding external electric field

     Computed dipole along edir(3) :
        Dipole                1.4030 Ry au,          3.5661 Debye
        Dipole field          0.0026 Ry au,

        Potential amp.       -0.2454 Ry
        Total length         46.3494 bohr

     End of self-consistent calculation

          k = 0.0000 0.0000 0.0000 ( 18029 PWs)   bands (ev):

   -55.3103 -55.2744 -55.2584 -55.2242 -55.1741 -55.1500 -55.1492 -55.1397
   -55.1156 -55.0856 -55.0749 -55.0517 -55.0325 -54.9753 -54.3021 -54.2681
   -31.8772 -31.7527 -31.6906 -31.6625 -31.6379 -31.6173 -31.5926 -31.5522
   -31.5479 -31.5464 -31.5175 -31.5064 -31.5023 -31.4779 -31.4673 -31.4622
   -31.4489 -31.4388 -31.4112 -31.4030 -31.3987 -31.3823 -31.3739 -31.3568
   -31.3541 -31.3166 -31.3155 -31.3064 -31.3041 -31.2912 -31.2864 -31.2843
   -31.2779 -31.2771 -31.2617 -31.2586 -31.2267 -31.2130 -31.2021 -31.1963
   -31.1836 -31.1087 -30.7124 -30.6160 -30.5941 -30.5284 -30.4416 -30.3310
   -16.8350 -16.1493 -15.8930 -15.7721 -15.6630 -15.5828 -15.5221 -15.4432
   -15.3593 -15.2588 -15.1973 -15.0925 -15.0577 -15.0181 -15.0033 -14.9843
   -14.9574 -14.8773 -14.8663 -14.8558 -14.8301 -14.8116 -14.7835 -14.7747
   -14.7679 -14.7286 -14.6912 -14.5790 -14.4885 -14.4029 -12.8057 -12.6879
   -10.0078  -5.8472  -4.7450  -4.4233  -3.5165  -3.4759  -3.3450  -3.2400
    -3.2063  -3.1983  -3.0774  -2.8943  -2.7990  -2.7725  -2.6864  -2.6311
    -2.5352  -2.5315  -2.4913  -2.3910  -2.3531  -2.3265  -2.2433  -2.2164
    -2.1695  -2.1192  -2.1090  -2.1058  -2.0853  -2.0466  -2.0064  -1.8872
    -1.8024  -1.7805  -1.7070  -1.6907  -1.6848  -1.6564  -1.6134  -1.5940
    -1.5449  -1.5279  -1.4873  -1.4186  -1.3572  -1.2751  -1.2381  -1.2010
    -0.9956  -0.9662  -0.9157  -0.9133  -0.8847  -0.8164  -0.7866  -0.7584
    -0.6910  -0.6891  -0.6604  -0.5541  -0.5113  -0.3904  -0.3197  -0.2403
    -0.1184  -0.1053  -0.0814  -0.0318  -0.0082   0.0514   0.1114   0.1481
     0.1875   0.2002   0.2875   0.3171   0.3948   0.4095   0.4494   0.5100
     0.5272   0.5527   0.5714   0.5824   0.6163   0.6323   0.6663   0.7329
     0.7651   0.8663   0.9151   1.1989   1.2842   1.5933   1.6165   1.7198
     1.9012   2.2983   2.3475   3.7841   3.8453   3.8859   3.9284   3.9321
     4.0137   4.1446   4.2873   4.2968   4.3081   4.3149

[...]

          k = 0.0380-0.0419 0.0000 ( 17876 PWs)   bands (ev):

[...]

          k =-0.0760-0.0000 0.0000 ( 17886 PWs)   bands (ev):

[...]

          k =-0.0760-0.0839 0.0000 ( 17948 PWs)   bands (ev):

   -55.2937 -55.2908 -55.2416 -55.2408 -55.1574 -55.1564 -55.1452 -55.1348
   -55.1305 -55.0786 -55.0700 -55.0675 -55.0253 -54.9826 -54.2852 -54.2849
   -31.6849 -31.6798 -31.5898 -31.5842 -31.5679 -31.5674 -31.5586 -31.5320
   -31.5312 -31.5109 -31.5061 -31.5041 -31.4909 -31.4647 -31.4597 -31.4586
   -31.4328 -31.4322 -31.4258 -31.4049 -31.3823 -31.3802 -31.3700 -31.3662
   -31.3654 -31.3610 -31.3603 -31.3519 -31.3502 -31.3441 -31.3403 -31.3251
   -31.3224 -31.3095 -31.3064 -31.2952 -31.2671 -31.2496 -31.2477 -31.2452
   -31.2277 -31.1752 -30.6068 -30.6066 -30.5249 -30.5247 -30.4850 -30.4850
   -16.7743 -15.8221 -15.5842 -15.5415 -15.5009 -15.4063 -15.3324 -15.3015
   -15.2913 -15.2782 -15.1522 -15.1241 -15.1146 -15.0864 -15.0547 -15.0301
   -15.0263 -14.9913 -14.9343 -14.9281 -14.9203 -14.9120 -14.8483 -14.8401
   -14.8363 -14.8295 -14.7639 -14.7615 -14.6796 -14.6776 -12.7893 -12.7893
   -10.0175  -5.8475  -4.8738  -4.4036  -3.5285  -2.8255  -2.7979  -2.7457
    -2.7032  -2.6146  -2.5291  -2.5018  -2.4653  -2.4075  -2.3553  -2.3079
    -2.3059  -2.2701  -2.2505  -2.2318  -2.1881  -2.1664  -2.1439  -2.1258
    -2.1110  -2.0574  -2.0544  -2.0453  -2.0211  -1.9868  -1.9694  -1.9561
    -1.9397  -1.9214  -1.8960  -1.8767  -1.7337  -1.7129  -1.6724  -1.5526
    -1.5371  -1.5336  -1.5009  -1.4566  -1.4320  -1.4248  -1.3506  -1.3442
    -1.3138  -1.1540  -1.0818  -1.0798  -1.0566  -1.0338  -0.9375  -0.8863
    -0.8456  -0.7961  -0.7198  -0.6886  -0.6699  -0.5974  -0.5705  -0.4791
    -0.3895  -0.3627  -0.3545  -0.2770  -0.2755  -0.2422  -0.2290  -0.1601
    -0.0998  -0.0483  -0.0443  -0.0402   0.0885   0.1255   0.2056   0.3192
     0.3999   0.4081   0.4597   0.5198   0.6088   0.6497   0.6683   0.7866
     0.7885   0.9750   0.9783   1.0268   1.0418   1.1222   1.1273   2.0739
     2.0746   2.1671   2.1674   3.7593   3.9427   3.9968   4.0697   4.0951
     4.1932   4.2779   4.3117   4.3416   4.3641   4.3700

     the Fermi energy is     3.8526 ev

!    total energy              =   -2922.77383709 Ry
     estimated scf accuracy    <       0.00000004 Ry
     smearing contrib. (-TS)   =      -0.04551748 Ry
     internal energy E=F+TS    =   -2922.72831961 Ry

     The total energy is F=E-TS. E is the sum of the following terms:
     one-electron contribution =  -23201.61023403 Ry
     hartree contribution      =   11691.06913635 Ry
     xc contribution           =    -482.54897403 Ry
     ewald contribution        =    9070.35803748 Ry
     electric field correction =       0.00371462 Ry

     convergence has been achieved in  82 iterations

     Forces acting on atoms (cartesian axes, Ry/au):

     atom    1 type  1   force =     0.00016583   -0.00007165    0.09303716
     atom    2 type  1   force =     0.00000110   -0.00015361   -0.17879263
     atom    3 type  2   force =     0.00002242   -0.00029937   -0.02022309
     atom    4 type  2   force =    -0.00000088   -0.00223779    0.06097670
     atom    5 type  2   force =    -0.01150060   -0.00128072    0.01054366
     atom    6 type  2   force =     0.01241403   -0.00058477    0.00810803
     atom    7 type  1   force =    -0.00124348    0.00346590   -0.01489763
     atom    8 type  1   force =     0.00123137   -0.00358674   -0.00845687
     atom    9 type  2   force =     0.00001542   -0.00004912   -0.00025214
     atom   10 type  2   force =    -0.00281207   -0.00047910    0.00154536
     atom   11 type  2   force =     0.00011660   -0.00023673   -0.00029786
     atom   12 type  2   force =     0.00000906    0.00008391   -0.00010528
     atom   13 type  1   force =    -0.00020020   -0.00031456   -0.00062802
     atom   14 type  1   force =    -0.00003618   -0.00004163    0.00019380
     atom   15 type  2   force =    -0.00011992   -0.00025275   -0.00010865
     atom   16 type  2   force =     0.00032551    0.00035452   -0.00009926
     atom   17 type  2   force =     0.00083132    0.00024703   -0.00019410
     atom   18 type  2   force =     0.00012778   -0.00027100   -0.00007094
     atom   19 type  1   force =     0.00026575    0.00049673   -0.00035730
     atom   20 type  1   force =     0.00022903    0.00008911    0.00026987
     atom   21 type  2   force =     0.00012592   -0.00003260    0.10424754
     atom   22 type  2   force =     0.00090391    0.00124303   -0.00148705
     atom   23 type  2   force =    -0.06990088   -0.00011328   -0.02676199
     atom   24 type  2   force =     0.06987450    0.00034355   -0.02676955
     atom   25 type  1   force =     0.00018875   -0.00020391    0.09227780
     atom   26 type  1   force =    -0.00006423   -0.00036344   -0.17899634
     atom   27 type  2   force =     0.00004140   -0.00025760   -0.01894519
     atom   28 type  2   force =     0.00006806   -0.00192460    0.06022828
     atom   29 type  2   force =    -0.01169181   -0.00162436    0.01033788
     atom   30 type  2   force =     0.01247752   -0.00120568    0.00786775
     atom   31 type  1   force =    -0.00101591    0.00607988   -0.01578378
     atom   32 type  1   force =     0.00116617    0.00335014   -0.00863837
     atom   33 type  2   force =     0.00002995    0.00020005   -0.00023963
     atom   34 type  2   force =    -0.00240713   -0.00053609    0.00059740
     atom   35 type  2   force =    -0.00000234    0.00000027    0.00004748
     atom   36 type  2   force =     0.00004430   -0.00007536    0.00036104
     atom   37 type  1   force =     0.00034956   -0.00004231   -0.00005463
     atom   38 type  1   force =    -0.00034866   -0.00030593    0.00044333
     atom   39 type  2   force =     0.00037630    0.00008520    0.00060409
     atom   40 type  2   force =     0.00025160   -0.00017986    0.00004342
     atom   41 type  2   force =     0.00002007    0.00038000   -0.00050969
     atom   42 type  2   force =     0.00044162    0.00025936   -0.00019641
     atom   43 type  1   force =     0.00026041   -0.00024225   -0.00034815
     atom   44 type  1   force =     0.00001266   -0.00148371    0.00085191
     atom   45 type  2   force =     0.00011583   -0.00005360    0.10418874
     atom   46 type  2   force =    -0.06991267   -0.00005023   -0.02675494
     atom   47 type  2   force =     0.06990161    0.00035761   -0.02677539
     atom   48 type  3   force =     0.00111932    0.00025734   -0.00112341
     atom   49 type  4   force =     0.00054025    0.00135308   -0.00062454
     atom   50 type  5   force =     0.00008661    0.00008677   -0.00009116
     atom   51 type  5   force =    -0.00066299   -0.00032158    0.00023291
     atom   52 type  5   force =    -0.00016038   -0.00035062    0.00030223
     atom   53 type  5   force =    -0.00115037   -0.00059168    0.00042021
     atom   54 type  5   force =    -0.00024104    0.00029447   -0.00049436
     atom   55 type  5   force =    -0.00067980    0.00079029    0.00135176

     Total force =     0.367557     Total SCF correction =     0.000749
  @ DRIVER MODE: Message from server: STATUS
  @ DRIVER MODE: Message from server: GETFORCE
  @ DRIVER MODE: Returning v,forces,stress,ensemble

     Writing output data file ./calc.save/
  @ DRIVER MODE: Message from server: EXIT
  @ DRIVE MODE: Exiting

     General routines

     Parallel routines

   This run was terminated on:  23:10:46   2Aug2021

   JOB DONE.