     Program PWSCF v.6.7GPU starts on  2Aug2021 at 20:14:13

     R & G space division:  proc/nbgrp/npool/nimage =      16
     Reading input from /storage/home/hcoda1/3/ntian30/research/carbon/02Aug_vib_paired/ads_slab/CH3NH3_a/out_0024/pw.inp
Warning: card &CELL ignored
Warning: card   CELL_DYNAMICS='IPI', ignored
Warning: card / ignored

     Current dimensions of program PWSCF are:
     Max number of different atomic species (ntypx) = 10
     Max number of k-points (npk) =  40000
     Max angular momentum in pseudopotentials (lmaxx) =  3
     Presently no symmetry can be used with electric field

     Message from routine cell_base_init:
     DEPRECATED: use true lattice parameter, not A to a.u. conversion factor

     IMPORTANT: XC functional enforced from input :
     Exchange-correlation= BEEF-VDW
                           (   1   4  43  14   2   0   0)
     Any further DFT definition will be discarded
     Please, verify this is what you really want

  @ DRIVER MODE: Connecting to
 qe_1139763_2482539.sched-torque.pace.gatech.educjz78i44_scratch
  using UNIX socket
  @ DRIVER MODE: Message from server: STATUS
  @ DRIVER MODE: Message from server: INIT
  @ DRIVER MODE: Receiving replica           0          -1
  @ DRIVER MODE: Receiving encoded integer          25
  @ DRIVER MODE:  SCF:  T  FORCE:  T  STRESS:  F  VC:  F  ENSEMBLE:  F
  @ DRIVER MODE:  SCF:  T  FORCE:  T  STRESS:  F  VC:  F  ENSEMBLE:  F

     Using Slab Decomposition

     bravais-lattice index     =            0
     lattice parameter (alat)  =       1.8897  a.u.
     unit-cell volume          =    6658.9804 (a.u.)^3
     number of atoms/cell      =           55
     number of atomic types    =            5
     number of electrons       =       393.00
     number of Kohn-Sham states=          206
     kinetic-energy cutoff     =      29.3995  Ry
     charge density cutoff     =     293.9946  Ry
     scf convergence threshold =      7.3E-08
     mixing beta               =       0.0500
     number of iterations used =            8  plain     mixing
     Exchange-correlation= BEEF-VDW
                           (   1   4  43  14   2   0   0)

     celldm(1)=   1.889726  celldm(2)=   0.000000  celldm(3)=   0.000000
     celldm(4)=   0.000000  celldm(5)=   0.000000  celldm(6)=   0.000000

     crystal axes: (cart. coord. in units of alat)
               a(1) = (   6.579727   0.000000   0.000000 )
               a(2) = (  -0.000775   5.961596   0.000000 )
               a(3) = (   0.000000   0.000000  25.155947 )

     reciprocal axes: (cart. coord. in units 2 pi/alat)
               b(1) = (  0.151982  0.000020  0.000000 )
               b(2) = (  0.000000  0.167740  0.000000 )
               b(3) = (  0.000000  0.000000  0.039752 )

     PseudoPot. # 1 for Ti read from file:
     /storage/coda1/p-amedford6/0/shared/rich_project_chbe-medford/medford-share/data/pseudos_module/espresso/nninc/pbe/van/Ti.UPF
     MD5 check sum: 8e4df49b7f0d34bbd5052bf3f5ea0213
     Pseudo is Ultrasoft, Zval = 12.0
     Generated by new atomic code, or converted to UPF format
     Using radial grid of  851 points,  6 beta functions with:
                l(1) =   0
                l(2) =   0
                l(3) =   1
                l(4) =   1
                l(5) =   2
                l(6) =   2
     Q(r) pseudized with  8 coefficients,  rinner =    1.000   1.000   1.000
                                                       1.000   1.000

     PseudoPot. # 2 for O  read from file:
     /storage/coda1/p-amedford6/0/shared/rich_project_chbe-medford/medford-share/data/pseudos_module/espresso/nninc/pbe/van/O.UPF
     MD5 check sum: 78c19812648e8988a0fe644b0f25305e
     Pseudo is Ultrasoft, Zval =  6.0
     Generated by new atomic code, or converted to UPF format
     Using radial grid of  737 points,  4 beta functions with:
                l(1) =   0
                l(2) =   0
                l(3) =   1
                l(4) =   1
     Q(r) pseudized with  8 coefficients,  rinner =    0.800   0.800   0.800

     PseudoPot. # 3 for C  read from file:
     /storage/coda1/p-amedford6/0/shared/rich_project_chbe-medford/medford-share/data/pseudos_module/espresso/nninc/pbe/van/C.UPF
     MD5 check sum: 1a69bf6b8db32088f5b2163dbdb77a27
     Pseudo is Ultrasoft, Zval =  4.0
     Generated by new atomic code, or converted to UPF format
     Using radial grid of  721 points,  4 beta functions with:
                l(1) =   0
                l(2) =   0
                l(3) =   1
                l(4) =   1
     Q(r) pseudized with  8 coefficients,  rinner =    0.800   0.800   0.800

     PseudoPot. # 4 for H  read from file:
     /storage/coda1/p-amedford6/0/shared/rich_project_chbe-medford/medford-share/data/pseudos_module/espresso/nninc/pbe/van/H.UPF
     MD5 check sum: b5ee9d7bfd3a09ee7748110bda690ff7
     Pseudo is Ultrasoft, Zval =  1.0
     Generated by new atomic code, or converted to UPF format
     Using radial grid of  615 points,  1 beta functions with:
                l(1) =   0
     Q(r) pseudized with  8 coefficients,  rinner =    0.800

     PseudoPot. # 5 for N  read from file:
     /storage/coda1/p-amedford6/0/shared/rich_project_chbe-medford/medford-share/data/pseudos_module/espresso/nninc/pbe/van/N.UPF
     MD5 check sum: 90d10febe142ad51ac9d5be1deb811c4
     Pseudo is Ultrasoft, Zval =  5.0
     Generated by new atomic code, or converted to UPF format
     Using radial grid of  729 points,  4 beta functions with:
                l(1) =   0
                l(2) =   0
                l(3) =   1
                l(4) =   1
     Q(r) pseudized with  8 coefficients,  rinner =    0.800   0.800   0.800

     atomic species   valence    mass     pseudopotential
        Ti1           12.00    47.86700     Ti( 1.00)
        O1             6.00    15.99900     O ( 1.00)
        C1             4.00    12.01100     C ( 1.00)
        H1             1.00     1.00800     H ( 1.00)
        N1             5.00    14.00700     N ( 1.00)

     No symmetry found

   Cartesian axes

     site n.     atom                  positions (alat units)
         1           Ti1 tau(   1) = (   0.0004258   2.9801865   6.0000000  )
         2           Ti1 tau(   2) = (   3.2906075   1.4906267   6.0002472  )
         3           O1  tau(   3) = (   0.0006271   0.0005054   7.9858123  )
         4           O1  tau(   4) = (   3.2906025   0.0005020   7.3038282  )
         5           O1  tau(   5) = (   4.5942328   1.4918067   9.2879030  )
         6           O1  tau(   6) = (   1.9868534   1.4903216   9.2879459  )
         7           Ti1 tau(   7) = (   3.2907910   2.8959150   9.1758416  )
         8           Ti1 tau(   8) = (   0.0015273   1.4827037   9.2680791  )
         9           O1  tau(   9) = (   3.2981156   0.0012339  11.3300471  )
        10           O1  tau(  10) = (   0.0116148   5.9584955  10.6183126  )
        11           O1  tau(  11) = (   1.3033605   1.5036236  12.6199488  )
        12           O1  tau(  12) = (   5.2811161   1.5074500  12.6162500  )
        13           Ti1 tau(  13) = (   0.0407500   2.9455431  12.6352795  )
        14           Ti1 tau(  14) = (   3.3444429   1.4910927  12.4779025  )
        15           O1  tau(  15) = (   0.0052662   0.0451097  14.6026341  )
        16           O1  tau(  16) = (   3.2946143   0.0124870  13.9210852  )
        17           O1  tau(  17) = (   4.5465206   1.5046604  16.0624161  )
        18           O1  tau(  18) = (   2.0546879   1.5048301  16.0609706  )
        19           Ti1 tau(  19) = (   3.2991624   2.9918142  15.6995589  )
        20           Ti1 tau(  20) = (   6.5707204   1.4025535  15.8059435  )
        21           O1  tau(  21) = (   3.2904802   0.0005063   4.7018136  )
        22           O1  tau(  22) = (   0.0164654   0.0145536  17.1360041  )
        23           O1  tau(  23) = (   1.3043587   1.4918075   6.0039043  )
        24           O1  tau(  24) = (   5.2767064   1.4903225   6.0039473  )
        25           Ti1 tau(  25) = (   0.0000382   5.9609847   6.0000000  )
        26           Ti1 tau(  26) = (   3.2902200   4.4714249   6.0002472  )
        27           O1  tau(  27) = (   0.0002396   2.9813036   7.9858123  )
        28           O1  tau(  28) = (   3.2902150   2.9813002   7.3038282  )
        29           O1  tau(  29) = (   4.5938453   4.4726049   9.2879030  )
        30           O1  tau(  30) = (   1.9864658   4.4711199   9.2879459  )
        31           Ti1 tau(  31) = (   3.2891106   5.8743827   9.1763621  )
        32           Ti1 tau(  32) = (   0.0006254   4.4649316   9.2693709  )
        33           O1  tau(  33) = (   3.2977166   2.9913250  11.3287690  )
        34           O1  tau(  34) = (   0.0092240   2.9805883  10.6323155  )
        35           O1  tau(  35) = (   1.3008534   4.4801743  12.6308489  )
        36           O1  tau(  36) = (   5.2850400   4.4860598  12.6280017  )
        37           Ti1 tau(  37) = (   0.0409916   5.9178611  12.5441859  )
        38           Ti1 tau(  38) = (   3.3442415   4.4710906  12.4862270  )
        39           O1  tau(  39) = (   0.0109228   2.9791018  14.7123696  )
        40           O1  tau(  40) = (   3.2998940   2.9912248  13.9043662  )
        41           O1  tau(  41) = (   4.5474046   4.4713503  16.0779382  )
        42           O1  tau(  42) = (   2.0618872   4.4767818  16.0643778  )
        43           Ti1 tau(  43) = (   3.2722838   0.0128901  15.7174356  )
        44           Ti1 tau(  44) = (   6.5592075   4.4947239  16.1563676  )
        45           O1  tau(  45) = (   3.2900926   2.9813045   4.7018136  )
        46           O1  tau(  46) = (   1.3039711   4.4726057   6.0039043  )
        47           O1  tau(  47) = (   5.2763189   4.4711207   6.0039473  )
        48           C1  tau(  48) = (   0.0359503   3.0870652  17.8341721  )
        49           H1  tau(  49) = (   5.8142062   3.6010452  18.3763092  )
        50           H1  tau(  50) = (   6.4784518   2.0305676  18.0614951  )
        51           H1  tau(  51) = (   0.9863100   3.3782628  18.3008018  )
        52           N1  tau(  52) = (   4.7642638   1.7931862  21.6370373  )
        53           H1  tau(  53) = (   4.5527921   2.7808570  21.5386679  )
        54           H1  tau(  54) = (   4.1042548   1.2952780  21.0483319  )
        55           H1  tau(  55) = (   4.5435699   1.5432347  22.5953497  )

     number of k points=    10  Fermi-Dirac smearing, width (Ry)=  0.0073
                       cart. coord. in units 2pi/alat
        k(    1) = (   0.0000000   0.0000000   0.0000000), wk =   0.1250000
        k(    2) = (   0.0000000   0.0419351   0.0000000), wk =   0.2500000
        k(    3) = (   0.0000000  -0.0838702   0.0000000), wk =   0.1250000
        k(    4) = (   0.0379955   0.0000049   0.0000000), wk =   0.2500000
        k(    5) = (   0.0379955   0.0419400   0.0000000), wk =   0.2500000
        k(    6) = (   0.0379955  -0.0838652   0.0000000), wk =   0.2500000
        k(    7) = (   0.0379955  -0.0419301   0.0000000), wk =   0.2500000
        k(    8) = (  -0.0759910  -0.0000099   0.0000000), wk =   0.1250000
        k(    9) = (  -0.0759910   0.0419252   0.0000000), wk =   0.2500000
        k(   10) = (  -0.0759910  -0.0838800   0.0000000), wk =   0.1250000

     Initial potential from superposition of free atoms

     starting charge  376.99914, renormalised to  393.00000

     negative rho (up, down):  1.000E-02 0.000E+00

     %%%%%%%%%%%%%%%%%%%%%%%%%%%%%%%%%%%%%%%%%%%%%%%%%%%%%%%%%%%%%%%%%%%%%%%%
     %                                                                      %
     % You are using vdW-DF, which was implemented by the Thonhauser group. %
     % Please cite the following two papers that made this development      %
     % possible and the two reviews that describe the various versions:     %
     %                                                                      %
     %   T. Thonhauser et al., PRL 115, 136402 (2015).                      %
     %   T. Thonhauser et al., PRB 76, 125112 (2007).                       %
     %   K. Berland et al., Rep. Prog. Phys. 78, 066501 (2015).             %
     %   D.C. Langreth et al., J. Phys.: Condens. Matter 21, 084203 (2009). %
     %                                                                      %
     %                                                                      %
     % If you are calculating the stress with vdW-DF, please also cite:     %
     %                                                                      %
     %   R. Sabatini et al., J. Phys.: Condens. Matter 24, 424209 (2012).   %
     %                                                                      %
     %%%%%%%%%%%%%%%%%%%%%%%%%%%%%%%%%%%%%%%%%%%%%%%%%%%%%%%%%%%%%%%%%%%%%%%%

     Adding external electric field

     Computed dipole along edir(3) :
        Dipole               -9.0624 Ry au,        -23.0343 Debye
        Dipole field         -0.0171 Ry au,

        Potential amp.        1.5853 Ry
        Total length         46.3494 bohr

     Starting wfcs are  298 atomic wfcs
  @ DRIVER MODE: Message from server: STATUS
  @ DRIVER MODE: Message from server: POSDATA
  @ DRIVER MODE: Reading and sharing cell
  @ DRIVER MODE: Reading and sharing positions
  @ DRIVER MODE: Received positions

     Self-consistent Calculation

     iteration #  1     ecut=    29.40 Ry     beta= 0.05
     Davidson diagonalization with overlap
     c_bands:  1 eigenvalues not converged
     c_bands:  1 eigenvalues not converged
     c_bands:  1 eigenvalues not converged
     ethr =  1.00E-05,  avg # of iterations = 17.8

[...]

     total energy              =   -2692.43238202 Ry
     estimated scf accuracy    <    2566.29370310 Ry

[...]

     iteration #  3     ecut=    29.40 Ry     beta= 0.05
     Davidson diagonalization with overlap
     ethr =  1.00E-02,  avg # of iterations = 16.3

[...]

     iteration # 57     ecut=    29.40 Ry     beta= 0.05
     Davidson diagonalization with overlap
     c_bands:  1 eigenvalues not converged
     ethr =  3.50E-10,  avg # of iterations = 10.8

[...]

     total energy              =   -2922.78952666 Ry
     estimated scf accuracy    <       0.00000010 Ry

     iteration # 65     ecut=    29.40 Ry     beta= 0.05
     Davidson diagonalization with overlap
     ethr =  2.67E-11,  avg # of iterations =  5.1

     negative rho (up, down):  1.131E-02 0.000E+00

     Adding external electric field

     Computed dipole along edir(3) :
        Dipole                0.5496 Ry au,          1.3970 Debye
        Dipole field          0.0010 Ry au,

        Potential amp.       -0.0961 Ry
        Total length         46.3494 bohr

     End of self-consistent calculation

          k = 0.0000 0.0000 0.0000 ( 18029 PWs)   bands (ev):

   -56.0339 -56.0298 -55.9998 -55.9934 -55.9009 -55.8662 -55.8661 -55.8417
   -55.8232 -55.8078 -55.8028 -55.7690 -55.5690 -55.4016 -55.0095 -54.9754
   -32.5882 -32.5159 -32.3604 -32.3549 -32.3410 -32.3396 -32.3268 -32.2934
   -32.2763 -32.2390 -32.2332 -32.2323 -32.2093 -32.1861 -32.1730 -32.1668
   -32.1378 -32.1347 -32.1211 -32.0911 -32.0809 -32.0699 -32.0380 -32.0335
   -32.0292 -32.0277 -32.0131 -32.0118 -32.0050 -31.9801 -31.9793 -31.9769
   -31.9716 -31.9709 -31.9559 -31.9466 -31.9151 -31.8478 -31.7830 -31.6889
   -31.6299 -31.5194 -31.4165 -31.3284 -31.3060 -31.2332 -31.1467 -31.0357
   -16.7681 -16.5049 -16.2724 -16.1822 -16.1324 -16.0457 -15.8685 -15.7520
   -15.7033 -15.6025 -15.5701 -15.5501 -15.5337 -15.5032 -15.4945 -15.4700
   -15.4584 -15.4522 -15.4176 -15.3899 -15.3647 -15.3501 -15.2302 -15.1778
   -15.1616 -15.1300 -15.0826 -15.0663 -14.6118 -13.6571 -13.5119 -13.3955
    -9.0382  -4.1428  -3.9627  -3.9375  -3.8890  -3.8467  -3.7157  -3.6984
    -3.6447  -3.5841  -3.2666  -3.2093  -3.2013  -3.1604  -3.1457  -2.9878
    -2.9238  -2.8503  -2.8328  -2.8281  -2.8027  -2.7974  -2.7927  -2.7501
    -2.7071  -2.6517  -2.6282  -2.5546  -2.5166  -2.4436  -2.3705  -2.3435
    -2.3010  -2.2945  -2.2619  -2.2497  -2.2413  -2.2313  -2.1958  -2.1747
    -2.0012  -1.9403  -1.8819  -1.8161  -1.8017  -1.6383  -1.5312  -1.4832
    -1.4649  -1.4579  -1.4392  -1.4229  -1.3270  -1.2084  -1.1760  -1.1265
    -1.0784  -1.0298  -1.0001  -0.8997  -0.8831  -0.7923  -0.7789  -0.7603
    -0.6471  -0.6231  -0.4910  -0.4692  -0.4633  -0.4033  -0.3876  -0.3151
    -0.2909  -0.2343  -0.1691  -0.1570  -0.0889  -0.0627  -0.0597  -0.0027
     0.0017   0.0470   0.0615   0.1706   0.2270   0.2762   0.3303   0.4368
     0.5166   0.6309   0.6780   0.7373   0.9388   1.0124   1.1219   1.1759
     1.2054   1.4646   1.5837   1.6292   3.1048   3.1898   3.2116   3.2373
     3.3448   3.3702   3.5553   3.5722   3.6067   3.6275

[...]

          k = 0.0380-0.0419 0.0000 ( 17876 PWs)   bands (ev):

[...]

          k =-0.0760-0.0000 0.0000 ( 17886 PWs)   bands (ev):

[...]

          k =-0.0760-0.0839 0.0000 ( 17948 PWs)   bands (ev):

   -56.0173 -56.0162 -56.0144 -56.0086 -55.8860 -55.8809 -55.8578 -55.8317
   -55.8254 -55.8235 -55.7872 -55.7848 -55.5675 -55.4030 -54.9925 -54.9923
   -32.3940 -32.3877 -32.3315 -32.3308 -32.3127 -32.3118 -32.2927 -32.2880
   -32.2217 -32.2210 -32.2178 -32.2072 -32.1665 -32.1655 -32.1467 -32.1423
   -32.1381 -32.1369 -32.1357 -32.1275 -32.1264 -32.1235 -32.0874 -32.0769
   -32.0727 -32.0505 -32.0463 -32.0324 -32.0236 -32.0227 -32.0188 -32.0169
   -32.0017 -32.0003 -31.9962 -31.9900 -31.9258 -31.8307 -31.7852 -31.6917
   -31.6744 -31.5633 -31.3187 -31.3186 -31.2293 -31.2291 -31.1900 -31.1900
   -16.2099 -16.1869 -15.9808 -15.9464 -15.9431 -15.9358 -15.8052 -15.7249
   -15.7244 -15.6984 -15.6369 -15.6255 -15.6040 -15.5656 -15.5412 -15.5386
   -15.5198 -15.5152 -15.4890 -15.4789 -15.4661 -15.4589 -15.3662 -15.3468
   -15.3429 -15.2931 -15.1479 -15.0017 -14.8923 -13.6563 -13.4974 -13.4972
    -9.0526  -3.7179  -3.7093  -3.5061  -3.4748  -3.2326  -3.1942  -3.1811
    -3.1122  -2.9558  -2.9160  -2.8981  -2.8904  -2.8462  -2.8386  -2.8331
    -2.8216  -2.7930  -2.7755  -2.7376  -2.7297  -2.7166  -2.7101  -2.6992
    -2.6821  -2.6522  -2.6436  -2.6123  -2.6076  -2.5870  -2.5700  -2.5432
    -2.5384  -2.4087  -2.2517  -2.2280  -2.1672  -2.1599  -2.1089  -2.0976
    -2.0940  -2.0666  -2.0334  -2.0089  -1.8476  -1.7399  -1.7257  -1.7089
    -1.6401  -1.6122  -1.5269  -1.4369  -1.3958  -1.3779  -1.3097  -1.3063
    -1.2550  -1.2313  -1.2105  -1.1431  -1.0862  -1.0493  -0.9924  -0.9866
    -0.9781  -0.9081  -0.8656  -0.7909  -0.7822  -0.7452  -0.7103  -0.6548
    -0.6170  -0.6092  -0.5190  -0.4869  -0.3744  -0.3258  -0.0674  -0.0191
     0.0339   0.0618   0.1274   0.1851   0.1890   0.2865   0.2903   0.3270
     0.4062   0.4278   0.4983   0.5177   0.5677   0.7295   1.2722   1.3765
     1.3773   1.4488   1.4491   1.4549   3.4029   3.4147   3.4219   3.4663
     3.6114   3.6160   3.6349   3.6365   3.7750   3.7987

     the Fermi energy is     3.1014 ev

!    total energy              =   -2922.78955751 Ry
     estimated scf accuracy    <       0.00000005 Ry
     smearing contrib. (-TS)   =      -0.02168912 Ry
     internal energy E=F+TS    =   -2922.76786839 Ry

     The total energy is F=E-TS. E is the sum of the following terms:
     one-electron contribution =  -23650.81743204 Ry
     hartree contribution      =   11909.61452693 Ry
     xc contribution           =    -482.26028183 Ry
     ewald contribution        =    9300.69474851 Ry
     electric field correction =       0.00057003 Ry

     convergence has been achieved in  65 iterations

     Forces acting on atoms (cartesian axes, Ry/au):

     atom    1 type  1   force =     0.00004801   -0.00022668    0.09686049
     atom    2 type  1   force =    -0.00017967   -0.00055565   -0.17515223
     atom    3 type  2   force =     0.00002281   -0.00004590   -0.02502646
     atom    4 type  2   force =     0.00002691   -0.00139812    0.05263657
     atom    5 type  2   force =    -0.01205818   -0.00050763    0.00330677
     atom    6 type  2   force =     0.01378539    0.00008762    0.00270633
     atom    7 type  1   force =    -0.00058133    0.00056825   -0.01155344
     atom    8 type  1   force =     0.00020507    0.01201234    0.02900582
     atom    9 type  2   force =    -0.00029665    0.00057271    0.00058850
     atom   10 type  2   force =    -0.00153253    0.00252996   -0.01946574
     atom   11 type  2   force =    -0.00019656   -0.00037519   -0.00014461
     atom   12 type  2   force =    -0.00089051    0.00003201   -0.00029646
     atom   13 type  1   force =     0.00055075   -0.00096711    0.00107640
     atom   14 type  1   force =     0.00145945    0.00058251   -0.00067018
     atom   15 type  2   force =    -0.00011852   -0.00099772    0.00046341
     atom   16 type  2   force =    -0.00020564   -0.00020097   -0.00150826
     atom   17 type  2   force =    -0.00058642    0.00078472   -0.00001681
     atom   18 type  2   force =     0.00051667    0.00088701   -0.00003972
     atom   19 type  1   force =    -0.00030655   -0.00108471    0.00069689
     atom   20 type  1   force =    -0.00002267    0.00030330   -0.00013892
     atom   21 type  2   force =     0.00004634   -0.00003844    0.10324396
     atom   22 type  2   force =     0.00026194   -0.00031518    0.00090340
     atom   23 type  2   force =    -0.07158115   -0.00014452   -0.02770615
     atom   24 type  2   force =     0.07147495    0.00027113   -0.02773836
     atom   25 type  1   force =     0.00005393   -0.00028354    0.09645489
     atom   26 type  1   force =    -0.00019216   -0.00028943   -0.17538400
     atom   27 type  2   force =     0.00008689   -0.00017272   -0.02381521
     atom   28 type  2   force =     0.00004425   -0.00113892    0.05271966
     atom   29 type  2   force =    -0.01210052    0.00085404    0.00277442
     atom   30 type  2   force =     0.01374409    0.00124032    0.00219252
     atom   31 type  1   force =    -0.00046992    0.00303794   -0.01241441
     atom   32 type  1   force =     0.00018633   -0.01422951    0.02941410
     atom   33 type  2   force =    -0.00022975   -0.00062946    0.00044214
     atom   34 type  2   force =    -0.00098321    0.00175817   -0.02267180
     atom   35 type  2   force =    -0.00068716   -0.00060591   -0.00012156
     atom   36 type  2   force =     0.00004078   -0.00014864   -0.00033707
     atom   37 type  1   force =     0.00065223    0.00027348    0.00054048
     atom   38 type  1   force =     0.00150530    0.00018979   -0.00065945
     atom   39 type  2   force =     0.00003613    0.00013649   -0.00118967
     atom   40 type  2   force =    -0.00034522   -0.00010336    0.00172580
     atom   41 type  2   force =    -0.00071895   -0.00109155   -0.00013785
     atom   42 type  2   force =     0.00033101   -0.00141838    0.00017887
     atom   43 type  1   force =     0.00014780    0.00062727    0.00110952
     atom   44 type  1   force =     0.00065290   -0.00018307    0.00093751
     atom   45 type  2   force =     0.00005529   -0.00009176    0.10320000
     atom   46 type  2   force =    -0.07157034   -0.00011590   -0.02770920
     atom   47 type  2   force =     0.07147711    0.00031525   -0.02774138
     atom   48 type  3   force =     0.00447942    0.00239319    0.00227784
     atom   49 type  4   force =    -0.00134701   -0.00014399   -0.00067239
     atom   50 type  4   force =    -0.00050722   -0.00065005    0.00091683
     atom   51 type  4   force =    -0.00454867   -0.00139398   -0.00311594
     atom   52 type  5   force =    -0.00007348   -0.00018740   -0.00037620
     atom   53 type  4   force =     0.00064663   -0.00004303   -0.00037387
     atom   54 type  4   force =     0.00007326    0.00019897   -0.00011454
     atom   55 type  4   force =    -0.00028164    0.00012191   -0.00008124

     Total force =     0.368483     Total SCF correction =     0.000730
  @ DRIVER MODE: Message from server: STATUS
  @ DRIVER MODE: Message from server: GETFORCE
  @ DRIVER MODE: Returning v,forces,stress,ensemble

     Writing output data file ./calc.save/
  @ DRIVER MODE: Message from server: EXIT
  @ DRIVE MODE: Exiting

     General routines

     Parallel routines

   This run was terminated on:  20:28:21   2Aug2021

   JOB DONE.