     Program PWSCF v.6.7GPU starts on 15Jul2021 at 19: 4:44

     R & G space division:  proc/nbgrp/npool/nimage =      16
     Reading input from /storage/home/hcoda1/3/ntian30/research/carbon/15Jul_vib/ads_slab/CH3N2_b/out_0005/pw.inp
Warning: card &CELL ignored
Warning: card   CELL_DYNAMICS='IPI', ignored
Warning: card / ignored

     Current dimensions of program PWSCF are:
     Max number of different atomic species (ntypx) = 10
     Max number of k-points (npk) =  40000
     Max angular momentum in pseudopotentials (lmaxx) =  3
     Presently no symmetry can be used with electric field

     Message from routine cell_base_init:
     DEPRECATED: use true lattice parameter, not A to a.u. conversion factor

     IMPORTANT: XC functional enforced from input :
     Exchange-correlation= BEEF-VDW
                           (   1   4  43  14   2   0   0)
     Any further DFT definition will be discarded
     Please, verify this is what you really want

  @ DRIVER MODE: Connecting to
 qe_1139763_2351645.sched-torque.pace.gatech.edu0o7yq7js_scratch
  using UNIX socket
  @ DRIVER MODE: Message from server: STATUS
  @ DRIVER MODE: Message from server: INIT
  @ DRIVER MODE: Receiving replica           0          -1
  @ DRIVER MODE: Receiving encoded integer          25
  @ DRIVER MODE:  SCF:  T  FORCE:  T  STRESS:  F  VC:  F  ENSEMBLE:  F
  @ DRIVER MODE:  SCF:  T  FORCE:  T  STRESS:  F  VC:  F  ENSEMBLE:  F

     Using Slab Decomposition

     bravais-lattice index     =            0
     lattice parameter (alat)  =       1.8897  a.u.
     unit-cell volume          =    6658.9804 (a.u.)^3
     number of atoms/cell      =           53
     number of atomic types    =            5
     number of electrons       =       395.00
     number of Kohn-Sham states=          207
     kinetic-energy cutoff     =      29.3995  Ry
     charge density cutoff     =     293.9946  Ry
     scf convergence threshold =      7.3E-08
     mixing beta               =       0.0500
     number of iterations used =            8  plain     mixing
     Exchange-correlation= BEEF-VDW
                           (   1   4  43  14   2   0   0)

     celldm(1)=   1.889726  celldm(2)=   0.000000  celldm(3)=   0.000000
     celldm(4)=   0.000000  celldm(5)=   0.000000  celldm(6)=   0.000000

     crystal axes: (cart. coord. in units of alat)
               a(1) = (   6.579727   0.000000   0.000000 )
               a(2) = (  -0.000775   5.961596   0.000000 )
               a(3) = (   0.000000   0.000000  25.155947 )

     reciprocal axes: (cart. coord. in units 2 pi/alat)
               b(1) = (  0.151982  0.000020  0.000000 )
               b(2) = (  0.000000  0.167740  0.000000 )
               b(3) = (  0.000000  0.000000  0.039752 )

     PseudoPot. # 1 for Ti read from file:
     /storage/coda1/p-amedford6/0/shared/rich_project_chbe-medford/medford-share/data/pseudos_module/espresso/nninc/pbe/van/Ti.UPF
     MD5 check sum: 8e4df49b7f0d34bbd5052bf3f5ea0213
     Pseudo is Ultrasoft, Zval = 12.0
     Generated by new atomic code, or converted to UPF format
     Using radial grid of  851 points,  6 beta functions with:
                l(1) =   0
                l(2) =   0
                l(3) =   1
                l(4) =   1
                l(5) =   2
                l(6) =   2
     Q(r) pseudized with  8 coefficients,  rinner =    1.000   1.000   1.000
                                                       1.000   1.000

     PseudoPot. # 2 for O  read from file:
     /storage/coda1/p-amedford6/0/shared/rich_project_chbe-medford/medford-share/data/pseudos_module/espresso/nninc/pbe/van/O.UPF
     MD5 check sum: 78c19812648e8988a0fe644b0f25305e
     Pseudo is Ultrasoft, Zval =  6.0
     Generated by new atomic code, or converted to UPF format
     Using radial grid of  737 points,  4 beta functions with:
                l(1) =   0
                l(2) =   0
                l(3) =   1
                l(4) =   1
     Q(r) pseudized with  8 coefficients,  rinner =    0.800   0.800   0.800

     PseudoPot. # 3 for N  read from file:
     /storage/coda1/p-amedford6/0/shared/rich_project_chbe-medford/medford-share/data/pseudos_module/espresso/nninc/pbe/van/N.UPF
     MD5 check sum: 90d10febe142ad51ac9d5be1deb811c4
     Pseudo is Ultrasoft, Zval =  5.0
     Generated by new atomic code, or converted to UPF format
     Using radial grid of  729 points,  4 beta functions with:
                l(1) =   0
                l(2) =   0
                l(3) =   1
                l(4) =   1
     Q(r) pseudized with  8 coefficients,  rinner =    0.800   0.800   0.800

     PseudoPot. # 4 for C  read from file:
     /storage/coda1/p-amedford6/0/shared/rich_project_chbe-medford/medford-share/data/pseudos_module/espresso/nninc/pbe/van/C.UPF
     MD5 check sum: 1a69bf6b8db32088f5b2163dbdb77a27
     Pseudo is Ultrasoft, Zval =  4.0
     Generated by new atomic code, or converted to UPF format
     Using radial grid of  721 points,  4 beta functions with:
                l(1) =   0
                l(2) =   0
                l(3) =   1
                l(4) =   1
     Q(r) pseudized with  8 coefficients,  rinner =    0.800   0.800   0.800

     PseudoPot. # 5 for H  read from file:
     /storage/coda1/p-amedford6/0/shared/rich_project_chbe-medford/medford-share/data/pseudos_module/espresso/nninc/pbe/van/H.UPF
     MD5 check sum: b5ee9d7bfd3a09ee7748110bda690ff7
     Pseudo is Ultrasoft, Zval =  1.0
     Generated by new atomic code, or converted to UPF format
     Using radial grid of  615 points,  1 beta functions with:
                l(1) =   0
     Q(r) pseudized with  8 coefficients,  rinner =    0.800

     atomic species   valence    mass     pseudopotential
        Ti1           12.00    47.86700     Ti( 1.00)
        O1             6.00    15.99900     O ( 1.00)
        N1             5.00    14.00700     N ( 1.00)
        C1             4.00    12.01100     C ( 1.00)
        H1             1.00     1.00800     H ( 1.00)

     Starting magnetic structure
     atomic species   magnetization
        Ti1          0.000
        O1           0.000
        N1           0.000
        C1           0.025
        H1           0.000

     No symmetry found

   Cartesian axes

     site n.     atom                  positions (alat units)
         1           Ti1 tau(   1) = (   0.0004258   2.9801865   6.0000000  )
         2           Ti1 tau(   2) = (   3.2906075   1.4906267   6.0002472  )
         3           O1  tau(   3) = (   0.0006271   0.0005054   7.9858123  )
         4           O1  tau(   4) = (   3.2906025   0.0005020   7.3038282  )
         5           O1  tau(   5) = (   4.5942328   1.4918067   9.2879030  )
         6           O1  tau(   6) = (   1.9868534   1.4903216   9.2879459  )
         7           Ti1 tau(   7) = (   3.2907910   2.8959150   9.1758416  )
         8           Ti1 tau(   8) = (   0.0015273   1.4827037   9.2680791  )
         9           O1  tau(   9) = (   3.3037365   0.0094216  11.3222111  )
        10           O1  tau(  10) = (   0.0116148   5.9584955  10.6183126  )
        11           O1  tau(  11) = (   1.3152514   1.5075076  12.6320051  )
        12           O1  tau(  12) = (   5.3186361   1.4995162  12.6508707  )
        13           Ti1 tau(  13) = (   6.5540705   2.9956815  12.5884341  )
        14           Ti1 tau(  14) = (   3.2234832   1.4927074  12.4921739  )
        15           O1  tau(  15) = (   0.0610261   5.9052480  14.6017706  )
        16           O1  tau(  16) = (   3.2936532   0.0132264  13.8830087  )
        17           O1  tau(  17) = (   4.5722397   1.5061520  16.0138922  )
        18           O1  tau(  18) = (   2.0767725   1.5295127  16.0808449  )
        19           Ti1 tau(  19) = (   3.3650854   3.0251465  15.6907462  )
        20           Ti1 tau(  20) = (   0.0387768   1.3037779  15.7216176  )
        21           O1  tau(  21) = (   3.2904802   0.0005063   4.7018136  )
        22           O1  tau(  22) = (   0.0189486   0.1070799  17.1824039  )
        23           O1  tau(  23) = (   1.3043587   1.4918075   6.0039043  )
        24           O1  tau(  24) = (   5.2767064   1.4903225   6.0039473  )
        25           Ti1 tau(  25) = (   0.0000382   5.9609847   6.0000000  )
        26           Ti1 tau(  26) = (   3.2902200   4.4714249   6.0002472  )
        27           O1  tau(  27) = (   0.0002396   2.9813036   7.9858123  )
        28           O1  tau(  28) = (   3.2902150   2.9813002   7.3038282  )
        29           O1  tau(  29) = (   4.5938453   4.4726049   9.2879030  )
        30           O1  tau(  30) = (   1.9864658   4.4711199   9.2879459  )
        31           Ti1 tau(  31) = (   3.2891106   5.8743827   9.1763621  )
        32           Ti1 tau(  32) = (   0.0006254   4.4649316   9.2693709  )
        33           O1  tau(  33) = (   3.3043114   2.9829305  11.3227053  )
        34           O1  tau(  34) = (   0.0092240   2.9805883  10.6323155  )
        35           O1  tau(  35) = (   1.3131995   4.4620516  12.6081187  )
        36           O1  tau(  36) = (   5.3117129   4.4692194  12.6284301  )
        37           Ti1 tau(  37) = (   6.5303063   5.9583428  12.5400172  )
        38           Ti1 tau(  38) = (   3.2255477   4.4746212  12.4748647  )
        39           O1  tau(  39) = (   0.0377805   3.0059521  14.8845374  )
        40           O1  tau(  40) = (   3.3120027   2.9986483  13.8863452  )
        41           O1  tau(  41) = (   4.5434534   4.5277214  16.0148975  )
        42           O1  tau(  42) = (   2.1165747   4.4940517  16.0783766  )
        43           Ti1 tau(  43) = (   3.3042555   0.0241951  15.7004812  )
        44           Ti1 tau(  44) = (   0.0495666   4.4505358  16.3362958  )
        45           O1  tau(  45) = (   3.2900926   2.9813045   4.7018136  )
        46           O1  tau(  46) = (   1.3039711   4.4726057   6.0039043  )
        47           O1  tau(  47) = (   5.2763189   4.4711207   6.0039473  )
        48           N1  tau(  48) = (   0.5348212   3.4288502  18.0589430  )
        49           C1  tau(  49) = (   1.3556880   3.0079929  19.2215664  )
        50           H1  tau(  50) = (   1.4862090   3.8900195  19.8496782  )
        51           H1  tau(  51) = (   0.8469181   2.2141957  19.7647163  )
        52           H1  tau(  52) = (   2.3296892   2.6851793  18.8624704  )
        53           N1  tau(  53) = (   5.9145885   3.2636146  17.9655992  )

     number of k points=    10  Fermi-Dirac smearing, width (Ry)=  0.0073
                       cart. coord. in units 2pi/alat
        k(    1) = (   0.0000000   0.0000000   0.0000000), wk =   0.0625000
        k(    2) = (   0.0000000   0.0419351   0.0000000), wk =   0.1250000
        k(    3) = (   0.0000000  -0.0838702   0.0000000), wk =   0.0625000
        k(    4) = (   0.0379955   0.0000049   0.0000000), wk =   0.1250000
        k(    5) = (   0.0379955   0.0419400   0.0000000), wk =   0.1250000
        k(    6) = (   0.0379955  -0.0838652   0.0000000), wk =   0.1250000
        k(    7) = (   0.0379955  -0.0419301   0.0000000), wk =   0.1250000
        k(    8) = (  -0.0759910  -0.0000099   0.0000000), wk =   0.0625000
        k(    9) = (  -0.0759910   0.0419252   0.0000000), wk =   0.1250000
        k(   10) = (  -0.0759910  -0.0838800   0.0000000), wk =   0.0625000

     Initial potential from superposition of free atoms

     starting charge  378.99916, renormalised to  395.00000

     negative rho (up, down):  8.044E-03 8.051E-03

     %%%%%%%%%%%%%%%%%%%%%%%%%%%%%%%%%%%%%%%%%%%%%%%%%%%%%%%%%%%%%%%%%%%%%%%%
     %                                                                      %
     % You are using vdW-DF, which was implemented by the Thonhauser group. %
     % Please cite the following two papers that made this development      %
     % possible and the two reviews that describe the various versions:     %
     %                                                                      %
     %   T. Thonhauser et al., PRL 115, 136402 (2015).                      %
     %   T. Thonhauser et al., PRB 76, 125112 (2007).                       %
     %   K. Berland et al., Rep. Prog. Phys. 78, 066501 (2015).             %
     %   D.C. Langreth et al., J. Phys.: Condens. Matter 21, 084203 (2009). %
     %                                                                      %
     %                                                                      %
     % If you are calculating the stress with vdW-DF, please also cite:     %
     %                                                                      %
     %   R. Sabatini et al., J. Phys.: Condens. Matter 24, 424209 (2012).   %
     %                                                                      %
     %%%%%%%%%%%%%%%%%%%%%%%%%%%%%%%%%%%%%%%%%%%%%%%%%%%%%%%%%%%%%%%%%%%%%%%%

     Adding external electric field

     Computed dipole along edir(3) :
        Dipole               -8.5746 Ry au,        -21.7945 Debye
        Dipole field         -0.0162 Ry au,

        Potential amp.        1.5000 Ry
        Total length         46.3494 bohr

[...]

     Starting wfcs are  299 atomic wfcs
  @ DRIVER MODE: Message from server: STATUS
  @ DRIVER MODE: Message from server: POSDATA
  @ DRIVER MODE: Reading and sharing cell
  @ DRIVER MODE: Reading and sharing positions
  @ DRIVER MODE: Received positions

     Self-consistent Calculation

     iteration #  1     ecut=    29.40 Ry     beta= 0.05
     Davidson diagonalization with overlap
     c_bands:  1 eigenvalues not converged
     c_bands:  1 eigenvalues not converged
     c_bands:  1 eigenvalues not converged
     c_bands:  3 eigenvalues not converged
     c_bands:  1 eigenvalues not converged
     c_bands:  3 eigenvalues not converged
     c_bands:  1 eigenvalues not converged
     c_bands:  2 eigenvalues not converged
     c_bands:  1 eigenvalues not converged
     c_bands:  1 eigenvalues not converged
     c_bands:  1 eigenvalues not converged
     c_bands:  3 eigenvalues not converged
     c_bands:  1 eigenvalues not converged
     c_bands:  3 eigenvalues not converged
     c_bands:  1 eigenvalues not converged
     c_bands:  2 eigenvalues not converged
     ethr =  1.00E-05,  avg # of iterations = 19.2

[...]

     total energy              =   -2599.49180929 Ry
     estimated scf accuracy    <    3762.10056182 Ry

     total magnetization       =     0.01 Bohr mag/cell
     absolute magnetization    =     0.02 Bohr mag/cell

     iteration #  2     ecut=    29.40 Ry     beta= 0.05
     Davidson diagonalization with overlap
     ethr =  1.00E-02,  avg # of iterations = 22.7

[...]

     iteration # 55     ecut=    29.40 Ry     beta= 0.05
     Davidson diagonalization with overlap
     c_bands:  1 eigenvalues not converged
     ethr =  1.13E-10,  avg # of iterations = 12.2

[...]

     total energy              =   -2939.12577334 Ry
     estimated scf accuracy    <       0.00000018 Ry

[...]

     iteration # 58     ecut=    29.40 Ry     beta= 0.05
     Davidson diagonalization with overlap
     ethr =  4.56E-11,  avg # of iterations = 10.1

     negative rho (up, down):  8.128E-03 8.128E-03

[...]

     Adding external electric field

     Computed dipole along edir(3) :
        Dipole                0.9107 Ry au,          2.3147 Debye
        Dipole field          0.0017 Ry au,

        Potential amp.       -0.1593 Ry
        Total length         46.3494 bohr

     Magnetic moment per site  (integrated on atomic sphere of radius R)
     atom   1 (R=0.727)  charge=  7.9485  magn= -0.0004
     atom   2 (R=0.727)  charge=  7.9316  magn= -0.0001
     atom   3 (R=0.727)  charge=  4.9369  magn=  0.0000
     atom   4 (R=0.727)  charge=  4.9738  magn= -0.0000
     atom   5 (R=0.727)  charge=  4.9423  magn=  0.0000
     atom   6 (R=0.727)  charge=  4.9431  magn=  0.0000
     atom   7 (R=0.727)  charge=  7.9299  magn= -0.0001
     atom   8 (R=0.727)  charge=  7.9249  magn= -0.0000
     atom   9 (R=0.727)  charge=  4.9562  magn=  0.0000
     atom  10 (R=0.727)  charge=  4.9398  magn=  0.0000
     atom  11 (R=0.727)  charge=  4.9438  magn=  0.0001
     atom  12 (R=0.727)  charge=  4.9403  magn=  0.0001
     atom  13 (R=0.727)  charge=  7.9199  magn= -0.0001
     atom  14 (R=0.727)  charge=  7.9286  magn= -0.0001
     atom  15 (R=0.727)  charge=  4.9368  magn=  0.0000
     atom  16 (R=0.727)  charge=  4.9585  magn=  0.0000
     atom  17 (R=0.727)  charge=  4.9268  magn=  0.0000
     atom  18 (R=0.727)  charge=  4.9195  magn=  0.0000
     atom  19 (R=0.727)  charge=  7.9516  magn= -0.0000
     atom  20 (R=0.727)  charge=  7.9765  magn= -0.0000
     atom  21 (R=0.727)  charge=  4.8265  magn= -0.0000
     atom  22 (R=0.727)  charge=  4.9096  magn=  0.0001
     atom  23 (R=0.727)  charge=  4.9340  magn=  0.0001
     atom  24 (R=0.727)  charge=  4.9340  magn=  0.0001
     atom  25 (R=0.727)  charge=  7.9485  magn= -0.0006
     atom  26 (R=0.727)  charge=  7.9316  magn=  0.0001
     atom  27 (R=0.727)  charge=  4.9364  magn=  0.0000
     atom  28 (R=0.727)  charge=  4.9740  magn= -0.0000
     atom  29 (R=0.727)  charge=  4.9433  magn=  0.0000
     atom  30 (R=0.727)  charge=  4.9439  magn=  0.0000
     atom  31 (R=0.727)  charge=  7.9304  magn= -0.0000
     atom  32 (R=0.727)  charge=  7.9251  magn= -0.0001
     atom  33 (R=0.727)  charge=  4.9553  magn=  0.0000
     atom  34 (R=0.727)  charge=  4.9242  magn=  0.0000
     atom  35 (R=0.727)  charge=  4.9447  magn=  0.0001
     atom  36 (R=0.727)  charge=  4.9438  magn=  0.0001
     atom  37 (R=0.727)  charge=  7.9230  magn= -0.0001
     atom  38 (R=0.727)  charge=  7.9296  magn= -0.0001
     atom  39 (R=0.727)  charge=  4.9078  magn=  0.0000
     atom  40 (R=0.727)  charge=  4.9611  magn=  0.0000
     atom  41 (R=0.727)  charge=  4.9355  magn=  0.0000
     atom  42 (R=0.727)  charge=  4.9347  magn=  0.0000
     atom  43 (R=0.727)  charge=  7.9537  magn= -0.0000
     atom  44 (R=0.727)  charge=  7.9729  magn= -0.0002
     atom  45 (R=0.727)  charge=  4.8265  magn=  0.0000
     atom  46 (R=0.727)  charge=  4.9340  magn=  0.0000
     atom  47 (R=0.727)  charge=  4.9341  magn=  0.0000
     atom  48 (R=0.501)  charge=  1.9945  magn= -0.0001
     atom  49 (R=0.448)  charge=  0.8468  magn=  0.0001
     atom  50 (R=0.448)  charge=  0.4993  magn= -0.0000
     atom  51 (R=0.448)  charge=  0.5028  magn= -0.0000
     atom  52 (R=0.448)  charge=  0.5042  magn= -0.0000
     atom  53 (R=0.501)  charge=  1.9536  magn=  0.0002

     End of self-consistent calculation

 ------ SPIN UP ------------

          k = 0.0000 0.0000 0.0000 ( 18029 PWs)   bands (ev):

   -55.7762 -55.7702 -55.7422 -55.7342 -55.6838 -55.6354 -55.5971 -55.5631
   -55.5560 -55.5223 -55.5202 -55.4469 -54.9568 -54.8073 -54.7566 -54.7226
   -32.3190 -32.2604 -32.1749 -32.0963 -32.0679 -32.0565 -32.0478 -32.0210
   -32.0060 -31.9706 -31.9404 -31.9283 -31.9220 -31.9051 -31.8831 -31.8822
   -31.8791 -31.8787 -31.8654 -31.8353 -31.8332 -31.8218 -31.8006 -31.7924
   -31.7892 -31.7826 -31.7816 -31.7558 -31.7414 -31.7366 -31.7262 -31.7110
   -31.7073 -31.6697 -31.6365 -31.5643 -31.4929 -31.3383 -31.1678 -31.1633
   -31.1074 -31.0753 -31.0675 -31.0529 -30.9804 -30.9131 -30.8938 -30.7825
   -19.4487 -16.5178 -16.2530 -15.9677 -15.9159 -15.8415 -15.7483 -15.6253
   -15.5297 -15.4110 -15.3721 -15.3160 -15.3087 -15.2643 -15.2373 -15.2333
   -15.2067 -15.1989 -15.1347 -15.1272 -15.0766 -15.0648 -15.0171 -14.9819
   -14.9705 -14.9154 -14.8466 -14.8053 -14.6860 -14.1607 -13.2580 -13.1416
   -12.2497  -7.2576  -4.9275  -4.7647  -3.9001  -3.7576  -3.7015  -3.6857
    -3.6410  -3.4406  -3.3534  -3.2844  -3.0447  -2.9533  -2.9287  -2.9181
    -2.8689  -2.7115  -2.6716  -2.6045  -2.5894  -2.5628  -2.5410  -2.5327
    -2.4978  -2.4872  -2.4665  -2.4305  -2.3272  -2.2134  -2.1843  -2.1058
    -2.0910  -2.0757  -2.0453  -2.0350  -2.0256  -2.0158  -1.9979  -1.9595
    -1.8970  -1.8522  -1.7880  -1.7028  -1.5615  -1.5406  -1.4612  -1.3856
    -1.3054  -1.2634  -1.2412  -1.2131  -1.1733  -1.0935  -1.0676  -0.9215
    -0.8240  -0.7915  -0.7739  -0.7317  -0.6957  -0.5936  -0.5719  -0.5428
    -0.5338  -0.5061  -0.4337  -0.3756  -0.2440  -0.2133  -0.2091  -0.1714
    -0.1009  -0.0471   0.0066   0.0556   0.0633   0.0992   0.1594   0.1844
     0.1893   0.2322   0.2744   0.3486   0.3753   0.4495   0.4535   0.5179
     0.5614   0.6430   0.7506   0.8729   1.0155   1.1531   1.1979   1.2668
     1.3622   1.4586   1.8369   1.8825   2.1285   3.3367   3.4453   3.4679
     3.4798   3.5867   3.7954   3.8179   3.8668   3.8874   3.8954

[...]

          k =-0.0760-0.0000 0.0000 ( 17886 PWs)   bands (ev):

[...]

 ------ SPIN DOWN ----------

[...]

          k = 0.0380-0.0419 0.0000 ( 17876 PWs)   bands (ev):

[...]

          k =-0.0760-0.0839 0.0000 ( 17948 PWs)   bands (ev):

   -55.7600 -55.7598 -55.7532 -55.7517 -55.6769 -55.6430 -55.5801 -55.5797
   -55.5396 -55.5392 -55.5159 -55.4514 -54.9555 -54.8092 -54.7397 -54.7392
   -32.1228 -32.1192 -32.0758 -32.0756 -32.0547 -32.0545 -32.0202 -32.0055
   -31.9992 -31.9905 -31.9217 -31.9165 -31.9056 -31.8992 -31.8827 -31.8805
   -31.8800 -31.8788 -31.8784 -31.8730 -31.8547 -31.8519 -31.8507 -31.8142
   -31.7848 -31.7832 -31.7815 -31.7689 -31.7686 -31.7592 -31.7583 -31.7566
   -31.7553 -31.7368 -31.7124 -31.6612 -31.4402 -31.3208 -31.1698 -31.1594
   -31.0877 -31.0658 -31.0654 -30.9763 -30.9758 -30.9372 -30.9368 -30.9168
   -19.4465 -15.9182 -15.9120 -15.7507 -15.7163 -15.6504 -15.6416 -15.5738
   -15.5067 -15.4621 -15.4570 -15.3419 -15.3397 -15.3253 -15.3035 -15.2493
   -15.2331 -15.2316 -15.2284 -15.2206 -15.2088 -15.1810 -15.1506 -15.1001
   -15.0950 -15.0739 -15.0640 -14.9421 -14.5325 -14.4705 -13.2435 -13.2432
   -12.2517  -7.2446  -4.9287  -4.7618  -3.6241  -3.2075  -3.1910  -3.0031
    -2.9198  -2.9087  -2.8934  -2.7425  -2.7303  -2.7119  -2.6552  -2.6508
    -2.6378  -2.6009  -2.5849  -2.5609  -2.5209  -2.5150  -2.4689  -2.4658
    -2.4500  -2.4427  -2.4092  -2.4043  -2.3900  -2.3759  -2.3378  -2.2819
    -2.2431  -2.2159  -2.1881  -2.0916  -2.0304  -1.9947  -1.9277  -1.9191
    -1.8681  -1.8434  -1.8289  -1.7600  -1.6915  -1.6626  -1.5784  -1.4869
    -1.4684  -1.4531  -1.3342  -1.3204  -1.2456  -1.2220  -1.1380  -1.1210
    -1.0814  -0.9709  -0.9473  -0.9162  -0.8812  -0.8373  -0.7738  -0.7371
    -0.7351  -0.6866  -0.6419  -0.5860  -0.5248  -0.5129  -0.4975  -0.4887
    -0.4249  -0.3927  -0.3701  -0.2869  -0.2721  -0.1904  -0.0464  -0.0133
     0.1441   0.1933   0.3020   0.3293   0.4204   0.4421   0.5359   0.5391
     0.5724   0.7014   0.7199   0.7375   0.7536   0.7737   0.7976   0.9365
     1.6311   1.6312   1.7026   1.7028   2.0666   3.6700   3.7070   3.7571
     3.7791   3.8826   3.8879   3.8907   3.8983   4.0196   4.0241

     the Fermi energy is     3.3506 ev

!    total energy              =   -2939.12583004 Ry
     estimated scf accuracy    <       0.00000007 Ry
     smearing contrib. (-TS)   =      -0.02052671 Ry
     internal energy E=F+TS    =   -2939.10530333 Ry

     The total energy is F=E-TS. E is the sum of the following terms:
     one-electron contribution =  -24215.89342337 Ry
     hartree contribution      =   12196.69174376 Ry
     xc contribution           =    -485.19860695 Ry
     ewald contribution        =    9565.29341819 Ry
     electric field correction =       0.00156503 Ry

     total magnetization       =    -0.00 Bohr mag/cell
     absolute magnetization    =     0.01 Bohr mag/cell

     convergence has been achieved in  58 iterations

     Forces acting on atoms (cartesian axes, Ry/au):

     atom    1 type  1   force =     0.00010343   -0.00021878    0.09583919
     atom    2 type  1   force =     0.00007128   -0.00063474   -0.17548132
     atom    3 type  2   force =     0.00018042   -0.00019519   -0.02305866
     atom    4 type  2   force =     0.00004100   -0.00128534    0.05260034
     atom    5 type  2   force =    -0.00977254   -0.00031590    0.00252630
     atom    6 type  2   force =     0.01165309    0.00022592    0.00290831
     atom    7 type  1   force =     0.00088033    0.00001163   -0.00989007
     atom    8 type  1   force =     0.00000447    0.00530377    0.01816409
     atom    9 type  2   force =    -0.00001682   -0.00028870   -0.00011629
     atom   10 type  2   force =    -0.00253590    0.00216224   -0.01351628
     atom   11 type  2   force =    -0.00096803    0.00011089    0.00016530
     atom   12 type  2   force =     0.00039435   -0.00025771    0.00048685
     atom   13 type  1   force =     0.00011264   -0.00007730    0.00056367
     atom   14 type  1   force =    -0.00005244   -0.00014087   -0.00015279
     atom   15 type  2   force =    -0.00053328    0.00032419    0.00040487
     atom   16 type  2   force =    -0.00043377    0.00007936    0.00019547
     atom   17 type  2   force =    -0.00013068   -0.00008053   -0.00027888
     atom   18 type  2   force =     0.00033035    0.00018665    0.00002158
     atom   19 type  1   force =    -0.00060079   -0.00054121    0.00076607
     atom   20 type  1   force =    -0.00019748    0.00046908   -0.00080099
     atom   21 type  2   force =     0.00007070   -0.00006119    0.10321454
     atom   22 type  2   force =     0.00015820   -0.00013381   -0.00029037
     atom   23 type  2   force =    -0.07154679   -0.00019193   -0.02755590
     atom   24 type  2   force =     0.07152645    0.00031083   -0.02761907
     atom   25 type  1   force =     0.00012525   -0.00028680    0.09522185
     atom   26 type  1   force =     0.00008255   -0.00048946   -0.17562956
     atom   27 type  2   force =     0.00016108   -0.00012170   -0.02181060
     atom   28 type  2   force =     0.00007953   -0.00106163    0.05247949
     atom   29 type  2   force =    -0.01015246    0.00023490    0.00290773
     atom   30 type  2   force =     0.01196870    0.00052122    0.00328474
     atom   31 type  1   force =     0.00088458    0.00415475   -0.01176615
     atom   32 type  1   force =     0.00013529   -0.00633513    0.01829986
     atom   33 type  2   force =     0.00016318    0.00041525   -0.00011351
     atom   34 type  2   force =    -0.00308381   -0.00010503   -0.00870481
     atom   35 type  2   force =    -0.00020736    0.00006809    0.00000669
     atom   36 type  2   force =    -0.00003174    0.00028141   -0.00006774
     atom   37 type  1   force =     0.00044920   -0.00094597    0.00020635
     atom   38 type  1   force =    -0.00033444    0.00009965    0.00035630
     atom   39 type  2   force =     0.00008983   -0.00028132    0.00045263
     atom   40 type  2   force =    -0.00008340    0.00026059    0.00017817
     atom   41 type  2   force =    -0.00006863   -0.00007034   -0.00027827
     atom   42 type  2   force =    -0.00030329    0.00028421   -0.00050237
     atom   43 type  1   force =     0.00024827    0.00048918    0.00015380
     atom   44 type  1   force =    -0.00132155    0.00015783   -0.00371752
     atom   45 type  2   force =     0.00007802   -0.00005789    0.10317031
     atom   46 type  2   force =    -0.07155873   -0.00009344   -0.02754739
     atom   47 type  2   force =     0.07154168    0.00025668   -0.02761519
     atom   48 type  3   force =     0.00387494   -0.00436211    0.01182899
     atom   49 type  4   force =     0.00058523    0.00157339   -0.00519552
     atom   50 type  5   force =    -0.00027886    0.00042990   -0.00082916
     atom   51 type  5   force =    -0.00139177    0.00010031   -0.00112790
     atom   52 type  5   force =     0.00032436   -0.00099673   -0.00024900
     atom   53 type  3   force =    -0.00071382    0.00111882   -0.00248820

     Total force =     0.365047     Total SCF correction =     0.000625
  @ DRIVER MODE: Message from server: STATUS
  @ DRIVER MODE: Message from server: GETFORCE
  @ DRIVER MODE: Returning v,forces,stress,ensemble

     Writing output data file ./calc.save/
  @ DRIVER MODE: Message from server: EXIT
  @ DRIVE MODE: Exiting

     General routines

     Parallel routines

   This run was terminated on:  19:32:43  15Jul2021

   JOB DONE.