     Program PWSCF v.6.7GPU starts on 19Oct2021 at  4:46:11

     R & G space division:  proc/nbgrp/npool/nimage =       8
     Reading input from /storage/home/hcoda1/3/ntian30/research/carbon/CxH_vib/Thiel_calc/ads_slab/NH2HNH_perslab/out_0036/pw.inp
Warning: card &CELL ignored
Warning: card   CELL_DYNAMICS='IPI', ignored
Warning: card / ignored

     Current dimensions of program PWSCF are:
     Max number of different atomic species (ntypx) = 10
     Max number of k-points (npk) =  40000
     Max angular momentum in pseudopotentials (lmaxx) =  3
     Presently no symmetry can be used with electric field

     Message from routine cell_base_init:
     DEPRECATED: use true lattice parameter, not A to a.u. conversion factor

     IMPORTANT: XC functional enforced from input :
     Exchange-correlation= BEEF-VDW
                           (   1   4  43  14   2   0   0)
     Any further DFT definition will be discarded
     Please, verify this is what you really want

  @ DRIVER MODE: Connecting to
 qe_1139763_3255135.sched-torque.pace.gatech.eduv5gz45bb_scratch
  using UNIX socket
  @ DRIVER MODE: Message from server: STATUS
  @ DRIVER MODE: Message from server: INIT
  @ DRIVER MODE: Receiving replica           0          -1
  @ DRIVER MODE: Receiving encoded integer          25
  @ DRIVER MODE:  SCF:  T  FORCE:  T  STRESS:  F  VC:  F  ENSEMBLE:  F
  @ DRIVER MODE:  SCF:  T  FORCE:  T  STRESS:  F  VC:  F  ENSEMBLE:  F

     Using Slab Decomposition

     bravais-lattice index     =            0
     lattice parameter (alat)  =       1.8897  a.u.
     unit-cell volume          =    9988.4706 (a.u.)^3
     number of atoms/cell      =           59
     number of atomic types    =            4
     number of electrons       =       440.00
     number of Kohn-Sham states=          230
     kinetic-energy cutoff     =      29.3995  Ry
     charge density cutoff     =     293.9946  Ry
     scf convergence threshold =      7.3E-08
     mixing beta               =       0.0500
     number of iterations used =            8  plain     mixing
     Exchange-correlation= BEEF-VDW
                           (   1   4  43  14   2   0   0)

     celldm(1)=   1.889726  celldm(2)=   0.000000  celldm(3)=   0.000000
     celldm(4)=   0.000000  celldm(5)=   0.000000  celldm(6)=   0.000000

     crystal axes: (cart. coord. in units of alat)
               a(1) = (   6.579727   0.000000   0.000000 )
               a(2) = (  -0.001163   8.942395   0.000000 )
               a(3) = (   0.000000   0.000000  25.155947 )

     reciprocal axes: (cart. coord. in units 2 pi/alat)
               b(1) = (  0.151982  0.000020  0.000000 )
               b(2) = (  0.000000  0.111827  0.000000 )
               b(3) = (  0.000000  0.000000  0.039752 )

     PseudoPot. # 1 for O  read from file:
     /storage/coda1/p-amedford6/0/shared/rich_project_chbe-medford/medford-share/data/pseudos_module/espresso/nninc/pbe/van/O.UPF
     MD5 check sum: 78c19812648e8988a0fe644b0f25305e
     Pseudo is Ultrasoft, Zval =  6.0
     Generated by new atomic code, or converted to UPF format
     Using radial grid of  737 points,  4 beta functions with:
                l(1) =   0
                l(2) =   0
                l(3) =   1
                l(4) =   1
     Q(r) pseudized with  8 coefficients,  rinner =    0.800   0.800   0.800

     PseudoPot. # 2 for Ti read from file:
     /storage/coda1/p-amedford6/0/shared/rich_project_chbe-medford/medford-share/data/pseudos_module/espresso/nninc/pbe/van/Ti.UPF
     MD5 check sum: 8e4df49b7f0d34bbd5052bf3f5ea0213
     Pseudo is Ultrasoft, Zval = 12.0
     Generated by new atomic code, or converted to UPF format
     Using radial grid of  851 points,  6 beta functions with:
                l(1) =   0
                l(2) =   0
                l(3) =   1
                l(4) =   1
                l(5) =   2
                l(6) =   2
     Q(r) pseudized with  8 coefficients,  rinner =    1.000   1.000   1.000
                                                       1.000   1.000

     PseudoPot. # 3 for H  read from file:
     /storage/coda1/p-amedford6/0/shared/rich_project_chbe-medford/medford-share/data/pseudos_module/espresso/nninc/pbe/van/H.UPF
     MD5 check sum: b5ee9d7bfd3a09ee7748110bda690ff7
     Pseudo is Ultrasoft, Zval =  1.0
     Generated by new atomic code, or converted to UPF format
     Using radial grid of  615 points,  1 beta functions with:
                l(1) =   0
     Q(r) pseudized with  8 coefficients,  rinner =    0.800

     PseudoPot. # 4 for N  read from file:
     /storage/coda1/p-amedford6/0/shared/rich_project_chbe-medford/medford-share/data/pseudos_module/espresso/nninc/pbe/van/N.UPF
     MD5 check sum: 90d10febe142ad51ac9d5be1deb811c4
     Pseudo is Ultrasoft, Zval =  5.0
     Generated by new atomic code, or converted to UPF format
     Using radial grid of  729 points,  4 beta functions with:
                l(1) =   0
                l(2) =   0
                l(3) =   1
                l(4) =   1
     Q(r) pseudized with  8 coefficients,  rinner =    0.800   0.800   0.800

     atomic species   valence    mass     pseudopotential
        O1             6.00    15.99900     O ( 1.00)
        Ti1           12.00    47.86700     Ti( 1.00)
        H1             1.00     1.00800     H ( 1.00)
        N1             5.00    14.00700     N ( 1.00)

     No symmetry found

   Cartesian axes

     site n.     atom                  positions (alat units)
         1           O1  tau(   1) = (   0.0007354   0.0005023  10.5931620  )
         2           O1  tau(   2) = (   3.2891522   8.9193323  13.7813865  )
         3           O1  tau(   3) = (  -0.0003195   8.9357148  17.1597790  )
         4           O1  tau(   4) = (   0.0006271   0.0005054   7.9858123  )
         5           O1  tau(   5) = (   3.2896276   8.9330874  11.1456747  )
         6           O1  tau(   6) = (   0.0000757   8.8957392  14.5326415  )
         7           O1  tau(   7) = (   1.9868534   1.4903216   9.2879459  )
         8           O1  tau(   8) = (   5.2085136   1.5567490  12.5272226  )
         9           O1  tau(   9) = (   2.0368910   1.4086519  15.9478609  )
        10           Ti1 tau(  10) = (   0.0007404   1.4906270   9.2895810  )
        11           Ti1 tau(  11) = (   3.2920048   1.2896434  12.4335303  )
        12           Ti1 tau(  12) = (   0.0003947   1.7483972  15.9485354  )
        13           O1  tau(  13) = (   4.5942328   1.4918067   9.2879030  )
        14           O1  tau(  14) = (   1.3734151   1.5562871  12.5269411  )
        15           O1  tau(  15) = (   4.5446063   1.4075665  15.9467422  )
        16           Ti1 tau(  16) = (   3.2902859   2.9801868   9.2893338  )
        17           Ti1 tau(  17) = (   0.0022843   2.7629733  12.5422407  )
        18           Ti1 tau(  18) = (   3.2887740   3.1097933  15.6402895  )
        19           O1  tau(  19) = (   0.0003479   2.9813005  10.5931620  )
        20           O1  tau(  20) = (   3.2903674   2.9527630  13.7969158  )
        21           O1  tau(  21) = (   0.0002396   2.9813036   7.9858123  )
        22           O1  tau(  22) = (   3.2906228   2.9775883  11.1663003  )
        23           O1  tau(  23) = (   0.0006598   2.9368866  14.5305733  )
        24           O1  tau(  24) = (   1.9864658   4.4711199   9.2879459  )
        25           O1  tau(  25) = (   5.2231876   4.5386380  12.5467233  )
        26           O1  tau(  26) = (   2.0248981   4.3679406  15.9930346  )
        27           Ti1 tau(  27) = (   0.0003529   4.4714252   9.2895810  )
        28           Ti1 tau(  28) = (   3.2918124   4.3135021  12.5344809  )
        29           Ti1 tau(  29) = (   6.5788423   4.6929592  16.0739603  )
        30           O1  tau(  30) = (   4.5938453   4.4726049   9.2879030  )
        31           O1  tau(  31) = (   1.3570704   4.5373869  12.5465102  )
        32           O1  tau(  32) = (   4.5538814   4.3671241  15.9936543  )
        33           Ti1 tau(  33) = (   3.2898983   5.9609850   9.2893338  )
        34           Ti1 tau(  34) = (   0.0013264   5.7428985  12.5110789  )
        35           Ti1 tau(  35) = (   3.2898306   6.0937744  16.2866611  )
        36           O1  tau(  36) = (  -0.0000397   5.9620987  10.5931620  )
        37           O1  tau(  37) = (   3.2897329   5.8964334  13.7986068  )
        38           O1  tau(  38) = (  -0.0007474   6.0119579  17.1634496  )
        39           O1  tau(  39) = (  -0.0001480   5.9621018   7.9858123  )
        40           O1  tau(  40) = (   3.2898370   5.9388437  11.1687384  )
        41           O1  tau(  41) = (  -0.0001539   5.9931028  14.5676369  )
        42           O1  tau(  42) = (   1.9860782   7.4519181   9.2879459  )
        43           O1  tau(  43) = (   5.2258842   7.5046952  12.5406166  )
        44           O1  tau(  44) = (   2.0242945   7.4351242  16.0034066  )
        45           Ti1 tau(  45) = (  -0.0000347   7.4522234   9.2895810  )
        46           Ti1 tau(  46) = (   3.2896699   7.1866417  12.6007890  )
        47           Ti1 tau(  47) = (   0.0000787   7.5542351  15.7482610  )
        48           O1  tau(  48) = (   4.5934577   7.4534031   9.2879030  )
        49           O1  tau(  49) = (   1.3527639   7.5038087  12.5404143  )
        50           O1  tau(  50) = (   4.5545665   7.4356877  16.0029592  )
        51           Ti1 tau(  51) = (   3.2895107   8.9417832   9.2893338  )
        52           Ti1 tau(  52) = (  -0.0005703   8.7121504  12.4856418  )
        53           Ti1 tau(  53) = (   3.2909615   0.1005107  15.6284087  )
        54           H1  tau(  54) = (   6.5785809   3.1351568  18.2688824  )
        55           H1  tau(  55) = (   6.5783155   8.7923607  18.1116139  )
        56           N1  tau(  56) = (  -0.0001347   2.9716693  17.2674093  )
        57           N1  tau(  57) = (   3.2897564   5.9921341  18.1800631  )
        58           H1  tau(  58) = (   3.2887465   5.1266479  18.7045293  )
        59           H1  tau(  59) = (   3.2892443   6.7858760  18.8171070  )

     number of k points=    10  Fermi-Dirac smearing, width (Ry)=  0.0073
                       cart. coord. in units 2pi/alat
        k(    1) = (   0.0000000   0.0000000   0.0000000), wk =   0.1250000
        k(    2) = (   0.0000000   0.0279567   0.0000000), wk =   0.2500000
        k(    3) = (   0.0000000  -0.0559134   0.0000000), wk =   0.1250000
        k(    4) = (   0.0379955   0.0000049   0.0000000), wk =   0.2500000
        k(    5) = (   0.0379955   0.0279617   0.0000000), wk =   0.2500000
        k(    6) = (   0.0379955  -0.0559085   0.0000000), wk =   0.2500000
        k(    7) = (   0.0379955  -0.0279518   0.0000000), wk =   0.2500000
        k(    8) = (  -0.0759910  -0.0000099   0.0000000), wk =   0.1250000
        k(    9) = (  -0.0759910   0.0279468   0.0000000), wk =   0.2500000
        k(   10) = (  -0.0759910  -0.0559233   0.0000000), wk =   0.1250000

     Initial potential from superposition of free atoms

     starting charge  421.99910, renormalised to  440.00000

     negative rho (up, down):  3.701E-02 0.000E+00

     %%%%%%%%%%%%%%%%%%%%%%%%%%%%%%%%%%%%%%%%%%%%%%%%%%%%%%%%%%%%%%%%%%%%%%%%
     %                                                                      %
     % You are using vdW-DF, which was implemented by the Thonhauser group. %
     % Please cite the following two papers that made this development      %
     % possible and the two reviews that describe the various versions:     %
     %                                                                      %
     %   T. Thonhauser et al., PRL 115, 136402 (2015).                      %
     %   T. Thonhauser et al., PRB 76, 125112 (2007).                       %
     %   K. Berland et al., Rep. Prog. Phys. 78, 066501 (2015).             %
     %   D.C. Langreth et al., J. Phys.: Condens. Matter 21, 084203 (2009). %
     %                                                                      %
     %                                                                      %
     % If you are calculating the stress with vdW-DF, please also cite:     %
     %                                                                      %
     %   R. Sabatini et al., J. Phys.: Condens. Matter 24, 424209 (2012).   %
     %                                                                      %
     %%%%%%%%%%%%%%%%%%%%%%%%%%%%%%%%%%%%%%%%%%%%%%%%%%%%%%%%%%%%%%%%%%%%%%%%

     Adding external electric field

     Computed dipole along edir(3) :
        Dipole               -3.9432 Ry au,        -10.0226 Debye
        Dipole field         -0.0050 Ry au,

        Potential amp.        0.4599 Ry
        Total length         46.3494 bohr

     Starting wfcs are  332 atomic wfcs
  @ DRIVER MODE: Message from server: STATUS
  @ DRIVER MODE: Message from server: POSDATA
  @ DRIVER MODE: Reading and sharing cell
  @ DRIVER MODE: Reading and sharing positions
  @ DRIVER MODE: Received positions

     Self-consistent Calculation

     iteration #  1     ecut=    29.40 Ry     beta= 0.05
     Davidson diagonalization with overlap
     c_bands:  1 eigenvalues not converged
     c_bands:  2 eigenvalues not converged
     c_bands:  4 eigenvalues not converged
     c_bands:  3 eigenvalues not converged
     c_bands:  1 eigenvalues not converged
     c_bands:  3 eigenvalues not converged
     c_bands:  5 eigenvalues not converged
     c_bands:  3 eigenvalues not converged
     c_bands:  2 eigenvalues not converged
     ethr =  1.00E-05,  avg # of iterations = 19.2

[...]

     total energy              =   -3294.67671620 Ry
     estimated scf accuracy    <      19.62800870 Ry

     iteration #  2     ecut=    29.40 Ry     beta= 0.05
     Davidson diagonalization with overlap
     ethr =  4.46E-03,  avg # of iterations =  1.0

[...]

     iteration # 38     ecut=    29.40 Ry     beta= 0.05
     Davidson diagonalization with overlap
     c_bands:  1 eigenvalues not converged
     ethr =  4.83E-07,  avg # of iterations = 10.3

[...]

     total energy              =   -3293.29226358 Ry
     estimated scf accuracy    <       0.00000013 Ry

     iteration # 56     ecut=    29.40 Ry     beta= 0.05
     Davidson diagonalization with overlap
     ethr =  3.01E-11,  avg # of iterations =  5.4

     negative rho (up, down):  3.601E-02 0.000E+00

     Adding external electric field

     Computed dipole along edir(3) :
        Dipole                1.2946 Ry au,          3.2906 Debye
        Dipole field          0.0016 Ry au,

        Potential amp.       -0.1510 Ry
        Total length         46.3494 bohr

     End of self-consistent calculation

          k = 0.0000 0.0000 0.0000 ( 26871 PWs)   bands (ev):

   -58.2957 -58.2718 -58.2680 -58.2084 -58.1602 -57.7927 -57.7721 -57.7559
   -57.6207 -57.5907 -57.5701 -57.5129 -57.4871 -56.8978 -56.8761 -56.8502
   -56.8410 -56.8352 -34.6868 -34.6598 -34.6296 -34.6179 -34.6123 -34.6072
   -34.5444 -34.4809 -34.4708 -34.4083 -34.4041 -34.4013 -34.3874 -34.3572
   -34.3324 -34.1947 -34.1487 -34.1439 -34.1234 -34.0950 -34.0818 -34.0769
   -34.0567 -34.0196 -34.0076 -33.9618 -33.9177 -33.8731 -33.8582 -33.8492
   -33.8343 -33.8258 -33.7789 -33.7559 -33.7478 -33.7418 -33.6951 -33.6908
   -33.6766 -33.3593 -33.2207 -33.2108 -33.2008 -33.1864 -33.1796 -33.1732
   -33.1614 -33.1161 -33.0838 -33.0782 -33.0253 -33.0240 -33.0069 -32.8838
   -18.9114 -18.8255 -18.3702 -18.2947 -18.1732 -18.1180 -18.1117 -18.0463
   -17.9435 -17.7224 -17.6820 -17.6732 -17.6451 -17.5373 -17.5293 -17.5259
   -17.4918 -17.4849 -17.4725 -17.3847 -17.3259 -17.3130 -17.3074 -17.3072
   -17.1982 -17.1738 -17.1219 -17.0558 -17.0437 -16.9479 -16.7634 -16.4302
   -15.3521 -15.3114 -15.3017 -15.1347 -13.5996  -6.9774  -6.5853  -6.1777
    -5.9840  -5.7740  -5.6356  -5.5208  -5.4679  -5.3754  -5.3094  -5.2845
    -5.2671  -5.2272  -5.1933  -5.1665  -5.0636  -5.0537  -4.9726  -4.9181
    -4.8725  -4.8264  -4.7841  -4.7377  -4.7355  -4.6961  -4.6270  -4.6165
    -4.5817  -4.5343  -4.5053  -4.4972  -4.4418  -4.4134  -4.3929  -4.2727
    -4.2581  -4.1905  -4.1797  -4.1721  -4.0667  -4.0598  -4.0163  -3.9919
    -3.9796  -3.9600  -3.9109  -3.8300  -3.8019  -3.6426  -3.6208  -3.6104
    -3.5198  -3.3795  -3.3661  -3.3220  -3.2022  -3.1351  -3.1111  -3.0757
    -3.0557  -3.0382  -3.0152  -3.0036  -2.9701  -2.8757  -2.8747  -2.8135
    -2.8110  -2.7963  -2.7747  -2.7690  -2.7296  -2.6571  -2.5977  -2.5851
    -2.5641  -2.5464  -2.4599  -2.4455  -2.3546  -2.3394  -2.2833  -2.2409
    -2.2350  -2.1693  -2.0945  -2.0868  -2.0229  -1.9984  -1.8245  -1.7995
    -1.7219  -1.7164  -1.6498  -1.6230  -1.6003  -1.5478  -1.4233  -1.3922
    -1.2966  -1.1851  -1.0206  -0.7809  -0.5892  -0.5689  -0.5597  -0.5276
    -0.4342  -0.3810  -0.3650  -0.2699   0.9825   1.1284   1.2815   1.3031
     1.4968   1.6064   1.6192   1.6741   1.7535   1.8512

[...]

          k = 0.0380-0.0280 0.0000 ( 26873 PWs)   bands (ev):

[...]

          k =-0.0760-0.0000 0.0000 ( 26902 PWs)   bands (ev):

[...]

          k =-0.0760-0.0559 0.0000 ( 26868 PWs)   bands (ev):

   -58.2891 -58.2850 -58.2614 -58.2083 -58.1603 -57.7926 -57.7716 -57.7563
   -57.6191 -57.5941 -57.5682 -57.5128 -57.4872 -56.8979 -56.8732 -56.8561
   -56.8409 -56.8322 -34.7122 -34.7083 -34.6620 -34.6375 -34.6045 -34.4963
   -34.4815 -34.4474 -34.4443 -34.4318 -34.4253 -34.4054 -34.3832 -34.3798
   -34.3593 -34.2301 -34.1714 -34.1660 -34.1380 -34.1205 -34.0776 -34.0013
   -33.9976 -33.9973 -33.9632 -33.9263 -33.9194 -33.9052 -33.8972 -33.8745
   -33.8641 -33.8486 -33.7738 -33.7654 -33.7379 -33.7127 -33.7112 -33.6931
   -33.6889 -33.3349 -33.2624 -33.2217 -33.2171 -33.2064 -33.1833 -33.1753
   -33.1230 -33.0792 -33.0707 -33.0518 -33.0293 -32.9948 -32.9883 -32.9713
   -18.8899 -18.6204 -18.4730 -18.2369 -18.1367 -17.9730 -17.8902 -17.8774
   -17.8596 -17.8585 -17.7594 -17.7484 -17.6974 -17.6726 -17.6296 -17.6200
   -17.6078 -17.5707 -17.5646 -17.4512 -17.3607 -17.3515 -17.2562 -17.2411
   -17.2140 -17.1524 -17.1341 -17.0446 -17.0253 -16.9526 -16.7713 -16.4150
   -15.3632 -15.3514 -15.2410 -15.1354 -13.5966  -6.9496  -6.5864  -5.9483
    -5.7536  -5.7192  -5.6685  -5.3482  -5.3106  -5.2266  -5.2006  -5.1617
    -5.1364  -5.1223  -5.0922  -5.0809  -5.0057  -4.9687  -4.9597  -4.9559
    -4.9129  -4.8940  -4.8456  -4.8244  -4.7746  -4.7537  -4.7457  -4.7114
    -4.6675  -4.6492  -4.5744  -4.5690  -4.4959  -4.4563  -4.3173  -4.2335
    -4.2082  -4.1787  -4.0822  -4.0726  -4.0356  -3.9440  -3.9239  -3.9033
    -3.7755  -3.7429  -3.6314  -3.6155  -3.5664  -3.5432  -3.5155  -3.4880
    -3.4237  -3.3815  -3.3654  -3.3608  -3.3263  -3.2580  -3.2277  -3.2111
    -3.1796  -3.1614  -3.1511  -3.1404  -3.0742  -3.0576  -3.0277  -2.9881
    -2.9268  -2.9027  -2.8475  -2.8465  -2.7857  -2.7458  -2.6915  -2.6854
    -2.6132  -2.5912  -2.5851  -2.5771  -2.4763  -2.4504  -2.4426  -2.3013
    -2.1627  -2.1114  -2.0685  -1.9651  -1.9072  -1.9036  -1.8796  -1.8115
    -1.7867  -1.7033  -1.6489  -1.6253  -1.6180  -1.5925  -1.3736  -1.3436
    -1.3319  -1.2888  -1.2247  -1.1304  -0.8111  -0.5900  -0.5784  -0.4982
    -0.4752  -0.4222  -0.4008  -0.3864   1.0316   1.2066   1.2781   1.3713
     1.3721   1.4046   1.4543   1.6202   1.6537   1.7084

     the Fermi energy is     0.3894 ev

!    total energy              =   -3293.29232032 Ry
     estimated scf accuracy    <       0.00000007 Ry
     smearing contrib. (-TS)   =      -0.00047766 Ry
     internal energy E=F+TS    =   -3293.29184266 Ry

     The total energy is F=E-TS. E is the sum of the following terms:
     one-electron contribution =  -34638.43390680 Ry
     hartree contribution      =   17383.51561771 Ry
     xc contribution           =    -542.08083946 Ry
     ewald contribution        =   14503.70517724 Ry
     electric field correction =       0.00210865 Ry

     convergence has been achieved in  56 iterations

     Forces acting on atoms (cartesian axes, Ry/au):

     atom    1 type  1   force =     0.00000946    0.00245087    0.04675054
     atom    2 type  1   force =     0.00000797   -0.00341588   -0.00288016
     atom    3 type  1   force =    -0.00000941    0.00326088   -0.00098356
     atom    4 type  1   force =     0.00005036   -0.00098336    0.10171550
     atom    5 type  1   force =    -0.00000933   -0.00070697    0.00563582
     atom    6 type  1   force =    -0.00001291    0.00367404    0.00081368
     atom    7 type  1   force =     0.07819596    0.00086080   -0.03540837
     atom    8 type  1   force =     0.00833899   -0.02588133    0.00017915
     atom    9 type  1   force =     0.00848237    0.02070128    0.00126692
     atom   10 type  2   force =    -0.00006244    0.00867573   -0.15836010
     atom   11 type  2   force =    -0.00003699    0.02308907   -0.00230613
     atom   12 type  2   force =     0.00005263   -0.02563883   -0.00429731
     atom   13 type  1   force =    -0.07828912    0.00040506   -0.03539652
     atom   14 type  1   force =    -0.00838481   -0.02579455    0.00018729
     atom   15 type  1   force =    -0.00843450    0.02081062    0.00129941
     atom   16 type  2   force =     0.00013031    0.00086056    0.07317659
     atom   17 type  2   force =     0.00006044    0.03071435    0.00239391
     atom   18 type  2   force =    -0.00006182   -0.02690561    0.00065438
     atom   19 type  1   force =     0.00003968    0.00299591    0.05012660
     atom   20 type  1   force =    -0.00002089   -0.00126802   -0.00144115
     atom   21 type  1   force =     0.00005135   -0.00064828    0.10019666
     atom   22 type  1   force =    -0.00001542   -0.00179679    0.00547380
     atom   23 type  1   force =    -0.00002106    0.00237480    0.00382140
     atom   24 type  1   force =     0.07914655    0.00064575   -0.03606005
     atom   25 type  1   force =     0.00924384   -0.02948826    0.00062641
     atom   26 type  1   force =     0.00850545    0.02159375    0.00322194
     atom   27 type  2   force =    -0.00006953   -0.00814103   -0.15491066
     atom   28 type  2   force =    -0.00001003    0.02627266   -0.00223858
     atom   29 type  2   force =     0.00004235   -0.02436938   -0.00337608
     atom   30 type  1   force =    -0.07923638    0.00023597   -0.03605661
     atom   31 type  1   force =    -0.00925063   -0.02941945    0.00063217
     atom   32 type  1   force =    -0.00846040    0.02167045    0.00325074
     atom   33 type  2   force =     0.00013450   -0.00255979    0.07886441
     atom   34 type  2   force =     0.00005025    0.03585564    0.00273079
     atom   35 type  2   force =    -0.00006737   -0.02885544    0.00314761
     atom   36 type  1   force =     0.00004149    0.00306656    0.05241187
     atom   37 type  1   force =    -0.00000395   -0.00187231   -0.00279789
     atom   38 type  1   force =    -0.00002131    0.00201027    0.00083492
     atom   39 type  1   force =     0.00004684    0.00287110    0.10111794
     atom   40 type  1   force =    -0.00000965   -0.00170549    0.00621184
     atom   41 type  1   force =    -0.00002737    0.00299965    0.00388942
     atom   42 type  1   force =     0.07825532    0.00076264   -0.03488395
     atom   43 type  1   force =     0.00661590   -0.02304450   -0.00020198
     atom   44 type  1   force =     0.01116959    0.02207372   -0.00721828
     atom   45 type  2   force =    -0.00006137   -0.00551175   -0.16463991
     atom   46 type  2   force =    -0.00007622    0.01958900    0.00100187
     atom   47 type  2   force =     0.00002522   -0.01856486    0.00738317
     atom   48 type  1   force =    -0.07835156    0.00031348   -0.03486647
     atom   49 type  1   force =    -0.00665648   -0.02301151   -0.00019814
     atom   50 type  1   force =    -0.01113984    0.02205735   -0.00717348
     atom   51 type  2   force =     0.00012869   -0.00437243    0.06096456
     atom   52 type  2   force =     0.00012464    0.02965781    0.00358097
     atom   53 type  2   force =    -0.00007457   -0.02502965    0.00098319
     atom   54 type  3   force =    -0.00000666    0.00076888   -0.00013362
     atom   55 type  3   force =    -0.00001736   -0.00010204    0.00012772
     atom   56 type  4   force =    -0.00002377    0.00701502    0.00058445
     atom   57 type  4   force =    -0.00001262    0.00721050    0.00794090
     atom   58 type  3   force =    -0.00000540   -0.00089400   -0.00042119
     atom   59 type  3   force =    -0.00000899   -0.00756269   -0.00694834

     Total force =     0.437531     Total SCF correction =     0.000537
  @ DRIVER MODE: Message from server: STATUS
  @ DRIVER MODE: Message from server: GETFORCE
  @ DRIVER MODE: Returning v,forces,stress,ensemble

     Writing output data file ./calc.save/
  @ DRIVER MODE: Message from server: EXIT
  @ DRIVE MODE: Exiting

     General routines

     Parallel routines

   This run was terminated on:   5:13: 6  19Oct2021

   JOB DONE.