     Program PWSCF v.6.7GPU starts on  2Aug2021 at 21:53:15

     R & G space division:  proc/nbgrp/npool/nimage =      16
     Reading input from /storage/home/hcoda1/3/ntian30/research/carbon/02Aug_vib_paired/ads_slab/CH3NNHH_a/out_0033/pw.inp
Warning: card &CELL ignored
Warning: card   CELL_DYNAMICS='IPI', ignored
Warning: card / ignored

     Current dimensions of program PWSCF are:
     Max number of different atomic species (ntypx) = 10
     Max number of k-points (npk) =  40000
     Max angular momentum in pseudopotentials (lmaxx) =  3
     Presently no symmetry can be used with electric field

     Message from routine cell_base_init:
     DEPRECATED: use true lattice parameter, not A to a.u. conversion factor

     IMPORTANT: XC functional enforced from input :
     Exchange-correlation= BEEF-VDW
                           (   1   4  43  14   2   0   0)
     Any further DFT definition will be discarded
     Please, verify this is what you really want

  @ DRIVER MODE: Connecting to
 qe_1139763_2482543.sched-torque.pace.gatech.eduhd5eynkq_scratch
  using UNIX socket
  @ DRIVER MODE: Message from server: STATUS
  @ DRIVER MODE: Message from server: INIT
  @ DRIVER MODE: Receiving replica           0          -1
  @ DRIVER MODE: Receiving encoded integer          25
  @ DRIVER MODE:  SCF:  T  FORCE:  T  STRESS:  F  VC:  F  ENSEMBLE:  F
  @ DRIVER MODE:  SCF:  T  FORCE:  T  STRESS:  F  VC:  F  ENSEMBLE:  F

     Using Slab Decomposition

     bravais-lattice index     =            0
     lattice parameter (alat)  =       1.8897  a.u.
     unit-cell volume          =    6658.9804 (a.u.)^3
     number of atoms/cell      =           55
     number of atomic types    =            5
     number of electrons       =       397.00
     number of Kohn-Sham states=          208
     kinetic-energy cutoff     =      29.3995  Ry
     charge density cutoff     =     293.9946  Ry
     scf convergence threshold =      7.3E-08
     mixing beta               =       0.0500
     number of iterations used =            8  plain     mixing
     Exchange-correlation= BEEF-VDW
                           (   1   4  43  14   2   0   0)

     celldm(1)=   1.889726  celldm(2)=   0.000000  celldm(3)=   0.000000
     celldm(4)=   0.000000  celldm(5)=   0.000000  celldm(6)=   0.000000

     crystal axes: (cart. coord. in units of alat)
               a(1) = (   6.579727   0.000000   0.000000 )
               a(2) = (  -0.000775   5.961596   0.000000 )
               a(3) = (   0.000000   0.000000  25.155947 )

     reciprocal axes: (cart. coord. in units 2 pi/alat)
               b(1) = (  0.151982  0.000020  0.000000 )
               b(2) = (  0.000000  0.167740  0.000000 )
               b(3) = (  0.000000  0.000000  0.039752 )

     PseudoPot. # 1 for Ti read from file:
     /storage/coda1/p-amedford6/0/shared/rich_project_chbe-medford/medford-share/data/pseudos_module/espresso/nninc/pbe/van/Ti.UPF
     MD5 check sum: 8e4df49b7f0d34bbd5052bf3f5ea0213
     Pseudo is Ultrasoft, Zval = 12.0
     Generated by new atomic code, or converted to UPF format
     Using radial grid of  851 points,  6 beta functions with:
                l(1) =   0
                l(2) =   0
                l(3) =   1
                l(4) =   1
                l(5) =   2
                l(6) =   2
     Q(r) pseudized with  8 coefficients,  rinner =    1.000   1.000   1.000
                                                       1.000   1.000

     PseudoPot. # 2 for O  read from file:
     /storage/coda1/p-amedford6/0/shared/rich_project_chbe-medford/medford-share/data/pseudos_module/espresso/nninc/pbe/van/O.UPF
     MD5 check sum: 78c19812648e8988a0fe644b0f25305e
     Pseudo is Ultrasoft, Zval =  6.0
     Generated by new atomic code, or converted to UPF format
     Using radial grid of  737 points,  4 beta functions with:
                l(1) =   0
                l(2) =   0
                l(3) =   1
                l(4) =   1
     Q(r) pseudized with  8 coefficients,  rinner =    0.800   0.800   0.800

     PseudoPot. # 3 for N  read from file:
     /storage/coda1/p-amedford6/0/shared/rich_project_chbe-medford/medford-share/data/pseudos_module/espresso/nninc/pbe/van/N.UPF
     MD5 check sum: 90d10febe142ad51ac9d5be1deb811c4
     Pseudo is Ultrasoft, Zval =  5.0
     Generated by new atomic code, or converted to UPF format
     Using radial grid of  729 points,  4 beta functions with:
                l(1) =   0
                l(2) =   0
                l(3) =   1
                l(4) =   1
     Q(r) pseudized with  8 coefficients,  rinner =    0.800   0.800   0.800

     PseudoPot. # 4 for C  read from file:
     /storage/coda1/p-amedford6/0/shared/rich_project_chbe-medford/medford-share/data/pseudos_module/espresso/nninc/pbe/van/C.UPF
     MD5 check sum: 1a69bf6b8db32088f5b2163dbdb77a27
     Pseudo is Ultrasoft, Zval =  4.0
     Generated by new atomic code, or converted to UPF format
     Using radial grid of  721 points,  4 beta functions with:
                l(1) =   0
                l(2) =   0
                l(3) =   1
                l(4) =   1
     Q(r) pseudized with  8 coefficients,  rinner =    0.800   0.800   0.800

     PseudoPot. # 5 for H  read from file:
     /storage/coda1/p-amedford6/0/shared/rich_project_chbe-medford/medford-share/data/pseudos_module/espresso/nninc/pbe/van/H.UPF
     MD5 check sum: b5ee9d7bfd3a09ee7748110bda690ff7
     Pseudo is Ultrasoft, Zval =  1.0
     Generated by new atomic code, or converted to UPF format
     Using radial grid of  615 points,  1 beta functions with:
                l(1) =   0
     Q(r) pseudized with  8 coefficients,  rinner =    0.800

     atomic species   valence    mass     pseudopotential
        Ti1           12.00    47.86700     Ti( 1.00)
        O1             6.00    15.99900     O ( 1.00)
        N1             5.00    14.00700     N ( 1.00)
        C1             4.00    12.01100     C ( 1.00)
        H1             1.00     1.00800     H ( 1.00)

     No symmetry found

   Cartesian axes

     site n.     atom                  positions (alat units)
         1           Ti1 tau(   1) = (   0.0004258   2.9801865   6.0000000  )
         2           Ti1 tau(   2) = (   3.2906075   1.4906267   6.0002472  )
         3           O1  tau(   3) = (   0.0006271   0.0005054   7.9858123  )
         4           O1  tau(   4) = (   3.2906025   0.0005020   7.3038282  )
         5           O1  tau(   5) = (   4.5942328   1.4918067   9.2879030  )
         6           O1  tau(   6) = (   1.9868534   1.4903216   9.2879459  )
         7           Ti1 tau(   7) = (   3.2907910   2.8959150   9.1758416  )
         8           Ti1 tau(   8) = (   0.0015273   1.4827037   9.2680791  )
         9           O1  tau(   9) = (   3.3049802   0.0007868  11.3057318  )
        10           O1  tau(  10) = (   0.0116148   5.9584955  10.6183126  )
        11           O1  tau(  11) = (   1.3244024   1.4905818  12.6109357  )
        12           O1  tau(  12) = (   5.3168099   1.4893704  12.6271843  )
        13           Ti1 tau(  13) = (   6.5373159   3.0114403  12.6515439  )
        14           Ti1 tau(  14) = (   3.2156784   1.4952808  12.4541107  )
        15           O1  tau(  15) = (   0.0550716   5.9579553  14.6769760  )
        16           O1  tau(  16) = (   3.3119233   0.0240268  13.8744051  )
        17           O1  tau(  17) = (   4.5754650   1.5399768  16.1198157  )
        18           O1  tau(  18) = (   2.0928293   1.5118261  15.9950610  )
        19           Ti1 tau(  19) = (   3.3312717   3.0210965  15.6459898  )
        20           Ti1 tau(  20) = (   0.0837956   1.4057146  15.8023643  )
        21           O1  tau(  21) = (   3.2904802   0.0005063   4.7018136  )
        22           O1  tau(  22) = (   0.0662678   0.0194342  17.2484716  )
        23           O1  tau(  23) = (   1.3043587   1.4918075   6.0039043  )
        24           O1  tau(  24) = (   5.2767064   1.4903225   6.0039473  )
        25           Ti1 tau(  25) = (   0.0000382   5.9609847   6.0000000  )
        26           Ti1 tau(  26) = (   3.2902200   4.4714249   6.0002472  )
        27           O1  tau(  27) = (   0.0002396   2.9813036   7.9858123  )
        28           O1  tau(  28) = (   3.2902150   2.9813002   7.3038282  )
        29           O1  tau(  29) = (   4.5938453   4.4726049   9.2879030  )
        30           O1  tau(  30) = (   1.9864658   4.4711199   9.2879459  )
        31           Ti1 tau(  31) = (   3.2891106   5.8743827   9.1763621  )
        32           Ti1 tau(  32) = (   0.0006254   4.4649316   9.2693709  )
        33           O1  tau(  33) = (   3.3066024   2.9928613  11.3071500  )
        34           O1  tau(  34) = (   0.0092240   2.9805883  10.6323155  )
        35           O1  tau(  35) = (   1.3207996   4.4694119  12.6241097  )
        36           O1  tau(  36) = (   5.3140488   4.4801720  12.6365454  )
        37           Ti1 tau(  37) = (   6.5381296   0.0208815  12.5444857  )
        38           Ti1 tau(  38) = (   3.2183512   4.4801350  12.4586296  )
        39           O1  tau(  39) = (   0.0202472   2.9427232  14.7250097  )
        40           O1  tau(  40) = (   3.3152672   2.9848540  13.8607131  )
        41           O1  tau(  41) = (   4.5737023   4.5140360  15.9163038  )
        42           O1  tau(  42) = (   2.1295162   4.4918226  16.0779194  )
        43           Ti1 tau(  43) = (   3.3279662   0.0229233  15.6733299  )
        44           Ti1 tau(  44) = (   6.5520288   4.5036137  16.2892914  )
        45           O1  tau(  45) = (   3.2900926   2.9813045   4.7018136  )
        46           O1  tau(  46) = (   1.3039711   4.4726057   6.0039043  )
        47           O1  tau(  47) = (   5.2763189   4.4711207   6.0039473  )
        48           N1  tau(  48) = (   0.3708600   2.9881754  17.6030774  )
        49           C1  tau(  49) = (   1.3543844   2.7351176  18.6431602  )
        50           H1  tau(  50) = (   1.5086739   3.6319226  19.2591966  )
        51           H1  tau(  51) = (   1.0320479   1.9069190  19.2840631  )
        52           H1  tau(  52) = (   2.3019873   2.4496563  18.1994378  )
        53           N1  tau(  53) = (   5.7269228   3.4466738  18.1314761  )
        54           H1  tau(  54) = (   5.8315057   4.0292447  18.9662490  )
        55           H1  tau(  55) = (   5.0361168   2.7172796  18.2515220  )

     number of k points=    10  Fermi-Dirac smearing, width (Ry)=  0.0073
                       cart. coord. in units 2pi/alat
        k(    1) = (   0.0000000   0.0000000   0.0000000), wk =   0.1250000
        k(    2) = (   0.0000000   0.0419351   0.0000000), wk =   0.2500000
        k(    3) = (   0.0000000  -0.0838702   0.0000000), wk =   0.1250000
        k(    4) = (   0.0379955   0.0000049   0.0000000), wk =   0.2500000
        k(    5) = (   0.0379955   0.0419400   0.0000000), wk =   0.2500000
        k(    6) = (   0.0379955  -0.0838652   0.0000000), wk =   0.2500000
        k(    7) = (   0.0379955  -0.0419301   0.0000000), wk =   0.2500000
        k(    8) = (  -0.0759910  -0.0000099   0.0000000), wk =   0.1250000
        k(    9) = (  -0.0759910   0.0419252   0.0000000), wk =   0.2500000
        k(   10) = (  -0.0759910  -0.0838800   0.0000000), wk =   0.1250000

     Initial potential from superposition of free atoms

     starting charge  380.99914, renormalised to  397.00000

     negative rho (up, down):  1.665E-02 0.000E+00

     %%%%%%%%%%%%%%%%%%%%%%%%%%%%%%%%%%%%%%%%%%%%%%%%%%%%%%%%%%%%%%%%%%%%%%%%
     %                                                                      %
     % You are using vdW-DF, which was implemented by the Thonhauser group. %
     % Please cite the following two papers that made this development      %
     % possible and the two reviews that describe the various versions:     %
     %                                                                      %
     %   T. Thonhauser et al., PRL 115, 136402 (2015).                      %
     %   T. Thonhauser et al., PRB 76, 125112 (2007).                       %
     %   K. Berland et al., Rep. Prog. Phys. 78, 066501 (2015).             %
     %   D.C. Langreth et al., J. Phys.: Condens. Matter 21, 084203 (2009). %
     %                                                                      %
     %                                                                      %
     % If you are calculating the stress with vdW-DF, please also cite:     %
     %                                                                      %
     %   R. Sabatini et al., J. Phys.: Condens. Matter 24, 424209 (2012).   %
     %                                                                      %
     %%%%%%%%%%%%%%%%%%%%%%%%%%%%%%%%%%%%%%%%%%%%%%%%%%%%%%%%%%%%%%%%%%%%%%%%

     Adding external electric field

     Computed dipole along edir(3) :
        Dipole               -9.2540 Ry au,        -23.5213 Debye
        Dipole field         -0.0175 Ry au,

        Potential amp.        1.6188 Ry
        Total length         46.3494 bohr

     Starting wfcs are  301 atomic wfcs
  @ DRIVER MODE: Message from server: STATUS
  @ DRIVER MODE: Message from server: POSDATA
  @ DRIVER MODE: Reading and sharing cell
  @ DRIVER MODE: Reading and sharing positions
  @ DRIVER MODE: Received positions

     Self-consistent Calculation

     iteration #  1     ecut=    29.40 Ry     beta= 0.05
     Davidson diagonalization with overlap
     c_bands:  1 eigenvalues not converged
     c_bands:  2 eigenvalues not converged
     c_bands:  1 eigenvalues not converged
     c_bands:  2 eigenvalues not converged
     c_bands:  2 eigenvalues not converged
     c_bands:  1 eigenvalues not converged
     c_bands:  2 eigenvalues not converged
     c_bands:  2 eigenvalues not converged
     c_bands:  4 eigenvalues not converged
     ethr =  1.00E-05,  avg # of iterations = 19.7

[...]

     total energy              =   -2525.58147777 Ry
     estimated scf accuracy    <    4612.75001871 Ry

     iteration #  2     ecut=    29.40 Ry     beta= 0.05
     Davidson diagonalization with overlap
     ethr =  1.00E-02,  avg # of iterations = 22.6

[...]

     iteration # 73     ecut=    29.40 Ry     beta= 0.05
     Davidson diagonalization with overlap
     c_bands:  1 eigenvalues not converged
     ethr =  8.27E-11,  avg # of iterations =  6.6

[...]

     total energy              =   -2941.63734023 Ry
     estimated scf accuracy    <       0.00000011 Ry

     iteration # 74     ecut=    29.40 Ry     beta= 0.05
     Davidson diagonalization with overlap
     ethr =  2.84E-11,  avg # of iterations = 10.2

     negative rho (up, down):  1.675E-02 0.000E+00

     Adding external electric field

     Computed dipole along edir(3) :
        Dipole                1.1478 Ry au,          2.9173 Debye
        Dipole field          0.0022 Ry au,

        Potential amp.       -0.2008 Ry
        Total length         46.3494 bohr

     End of self-consistent calculation

          k = 0.0000 0.0000 0.0000 ( 18029 PWs)   bands (ev):

   -55.5737 -55.5710 -55.5370 -55.5368 -55.4603 -55.4238 -55.4224 -55.3887
   -55.3713 -55.3372 -55.3260 -55.2922 -55.0333 -54.8891 -54.5372 -54.5032
   -32.1364 -32.0524 -31.9575 -31.8931 -31.8881 -31.8734 -31.8636 -31.8186
   -31.8116 -31.8051 -31.7848 -31.7595 -31.7557 -31.7263 -31.7233 -31.7155
   -31.6744 -31.6608 -31.6581 -31.6490 -31.6482 -31.6284 -31.6121 -31.5964
   -31.5696 -31.5685 -31.5669 -31.5589 -31.5564 -31.5299 -31.5063 -31.5054
   -31.5000 -31.4930 -31.4805 -31.4747 -31.4397 -31.3097 -31.2582 -31.1599
   -31.1418 -31.0496 -30.9437 -30.8571 -30.8346 -30.7607 -30.6743 -30.5629
   -17.6162 -16.3625 -16.0494 -15.8382 -15.7271 -15.7225 -15.6386 -15.4176
   -15.2975 -15.2821 -15.1658 -15.1609 -15.1025 -15.0615 -15.0550 -15.0492
   -15.0146 -15.0024 -14.9844 -14.9542 -14.9155 -14.8977 -14.8780 -14.7717
   -14.7101 -14.7001 -14.6838 -14.6171 -14.5733 -14.2097 -13.0395 -12.9233
   -12.5422  -9.2132  -6.3650  -5.1023  -4.2051  -3.7408  -3.5498  -3.4744
    -3.4392  -3.3745  -3.3601  -3.1831  -3.1757  -2.7978  -2.7769  -2.7577
    -2.7362  -2.7335  -2.4656  -2.4123  -2.3961  -2.3937  -2.3763  -2.3584
    -2.3370  -2.3263  -2.2982  -2.2911  -2.1560  -2.1118  -2.0330  -2.0025
    -1.9924  -1.8793  -1.8556  -1.8343  -1.8234  -1.8088  -1.7806  -1.7728
    -1.7525  -1.6432  -1.5348  -1.4620  -1.4160  -1.3629  -1.3472  -1.1631
    -1.1124  -1.0543  -1.0287  -1.0028  -0.9883  -0.9548  -0.8798  -0.8528
    -0.7145  -0.6756  -0.6235  -0.5974  -0.5666  -0.5083  -0.4752  -0.4479
    -0.3507  -0.3387  -0.3272  -0.3142  -0.2544  -0.0660  -0.0184  -0.0006
     0.0148   0.1152   0.1546   0.1815   0.2139   0.2702   0.2959   0.3627
     0.3929   0.4122   0.4223   0.4461   0.4687   0.6006   0.6303   0.6571
     0.7169   0.7708   0.8472   0.9608   1.0459   1.0984   1.1997   1.4180
     1.4851   1.5691   1.6788   1.7051   2.0545   2.0995   3.5642   3.6546
     3.6928   3.7068   3.8138   3.8655   4.0131   4.0230   4.0657   4.0949

[...]

          k = 0.0380-0.0419 0.0000 ( 17876 PWs)   bands (ev):

[...]

          k =-0.0760-0.0000 0.0000 ( 17886 PWs)   bands (ev):

[...]

          k =-0.0760-0.0839 0.0000 ( 17948 PWs)   bands (ev):

   -55.5585 -55.5545 -55.5534 -55.5518 -55.4494 -55.4332 -55.4088 -55.4035
   -55.3557 -55.3524 -55.3108 -55.3076 -55.0318 -54.8904 -54.5202 -54.5201
   -31.9414 -31.9326 -31.8681 -31.8674 -31.8494 -31.8485 -31.8436 -31.8284
   -31.8016 -31.7880 -31.7684 -31.7496 -31.7215 -31.7129 -31.7078 -31.6828
   -31.6806 -31.6742 -31.6729 -31.6683 -31.6654 -31.6522 -31.6490 -31.6454
   -31.6262 -31.6139 -31.6038 -31.6020 -31.5530 -31.5509 -31.5437 -31.5419
   -31.5350 -31.5315 -31.5261 -31.5245 -31.4150 -31.3220 -31.2600 -31.2210
   -31.1474 -31.0616 -30.8473 -30.8473 -30.7566 -30.7564 -30.7175 -30.7175
   -17.6045 -15.8201 -15.7845 -15.5269 -15.5194 -15.5176 -15.4761 -15.3534
   -15.3047 -15.2781 -15.2666 -15.2479 -15.2412 -15.1366 -15.1240 -15.1067
   -15.0969 -15.0708 -15.0272 -15.0214 -15.0138 -15.0040 -14.9921 -14.9276
   -14.8727 -14.8689 -14.7606 -14.6658 -14.5234 -14.4402 -13.0252 -13.0250
   -12.5620  -9.1729  -6.3259  -5.1321  -4.1371  -3.4306  -3.1213  -3.0773
    -2.7887  -2.7695  -2.7558  -2.6395  -2.5192  -2.5105  -2.4858  -2.4624
    -2.4297  -2.4155  -2.4068  -2.3985  -2.3804  -2.3616  -2.3505  -2.3118
    -2.2426  -2.2352  -2.2269  -2.2177  -2.2013  -2.1774  -2.1675  -2.1394
    -2.1150  -2.0818  -2.0225  -1.9917  -1.8411  -1.7947  -1.7426  -1.6963
    -1.6880  -1.6587  -1.6254  -1.6178  -1.5105  -1.4969  -1.4589  -1.3290
    -1.2677  -1.2598  -1.2278  -1.1424  -1.1027  -0.9737  -0.9609  -0.9251
    -0.8708  -0.8591  -0.8235  -0.7848  -0.7327  -0.6808  -0.6355  -0.6130
    -0.5972  -0.5247  -0.5241  -0.4771  -0.4204  -0.3519  -0.3271  -0.3194
    -0.2881  -0.2441  -0.1981  -0.1332  -0.0581  -0.0346  -0.0225   0.0756
     0.1515   0.3690   0.4129   0.5163   0.5344   0.5616   0.6225   0.6720
     0.7408   0.7550   0.7841   0.8583   0.8804   0.9713   0.9818   0.9982
     1.1769   1.6383   1.8505   1.8514   1.9192   1.9197   3.8584   3.8720
     3.8981   3.9222   4.0835   4.0874   4.0994   4.1021   4.2227   4.2557

     the Fermi energy is     3.5630 ev

!    total energy              =   -2941.63735684 Ry
     estimated scf accuracy    <       0.00000007 Ry
     smearing contrib. (-TS)   =      -0.02170630 Ry
     internal energy E=F+TS    =   -2941.61565054 Ry

     The total energy is F=E-TS. E is the sum of the following terms:
     one-electron contribution =  -24405.30499848 Ry
     hartree contribution      =   12294.58842435 Ry
     xc contribution           =    -486.94801202 Ry
     ewald contribution        =    9656.04644954 Ry
     electric field correction =       0.00248607 Ry

     convergence has been achieved in  74 iterations

     Forces acting on atoms (cartesian axes, Ry/au):

     atom    1 type  1   force =     0.00002592   -0.00018876    0.09683446
     atom    2 type  1   force =     0.00010828   -0.00067884   -0.17456217
     atom    3 type  2   force =     0.00019931   -0.00005577   -0.02507568
     atom    4 type  2   force =     0.00001481   -0.00122322    0.05107894
     atom    5 type  2   force =    -0.01106079   -0.00078605    0.00214229
     atom    6 type  2   force =     0.01301470   -0.00028749    0.00281794
     atom    7 type  1   force =     0.00113577    0.00019544   -0.01336496
     atom    8 type  1   force =    -0.00018624    0.01541370    0.02795995
     atom    9 type  2   force =    -0.00011547    0.00044742    0.00002244
     atom   10 type  2   force =    -0.00221724    0.00097378   -0.01126418
     atom   11 type  2   force =     0.00028418   -0.00011664    0.00017420
     atom   12 type  2   force =    -0.00026015   -0.00012667    0.00039993
     atom   13 type  1   force =    -0.00008717   -0.00027636    0.00008915
     atom   14 type  1   force =     0.00012215    0.00010979   -0.00005230
     atom   15 type  2   force =     0.00015067   -0.00064091   -0.00032350
     atom   16 type  2   force =    -0.00044029    0.00016149    0.00028022
     atom   17 type  2   force =    -0.00021169   -0.00009348   -0.00017081
     atom   18 type  2   force =    -0.00032146   -0.00005332    0.00011361
     atom   19 type  1   force =    -0.00004149    0.00031175   -0.00028330
     atom   20 type  1   force =    -0.00020189    0.00011841    0.00013812
     atom   21 type  2   force =     0.00005039   -0.00009785    0.10294382
     atom   22 type  2   force =    -0.00098003   -0.00077149    0.00055000
     atom   23 type  2   force =    -0.07180453   -0.00022292   -0.02778339
     atom   24 type  2   force =     0.07177457    0.00023166   -0.02784100
     atom   25 type  1   force =     0.00004872   -0.00022878    0.09636976
     atom   26 type  1   force =    -0.00000821   -0.00032001   -0.17482823
     atom   27 type  2   force =     0.00020237   -0.00025526   -0.02391802
     atom   28 type  2   force =     0.00007658   -0.00096433    0.05130717
     atom   29 type  2   force =    -0.01105787    0.00095736    0.00150672
     atom   30 type  2   force =     0.01286453    0.00120101    0.00213745
     atom   31 type  1   force =     0.00115128    0.00257276   -0.01567111
     atom   32 type  1   force =    -0.00001911   -0.01667752    0.02887920
     atom   33 type  2   force =    -0.00017877   -0.00045472    0.00044679
     atom   34 type  2   force =    -0.00258378    0.00114713   -0.01890860
     atom   35 type  2   force =    -0.00011693   -0.00011246    0.00003926
     atom   36 type  2   force =    -0.00003372   -0.00018928    0.00022800
     atom   37 type  1   force =    -0.00024665   -0.00016092    0.00047567
     atom   38 type  1   force =     0.00010863   -0.00054269    0.00034031
     atom   39 type  2   force =     0.00004056    0.00045517    0.00019705
     atom   40 type  2   force =    -0.00032036   -0.00012834   -0.00069151
     atom   41 type  2   force =     0.00024940    0.00006931    0.00024626
     atom   42 type  2   force =    -0.00020838    0.00016351    0.00022776
     atom   43 type  1   force =     0.00004086   -0.00038962   -0.00077563
     atom   44 type  1   force =    -0.00062934    0.00088015   -0.00019278
     atom   45 type  2   force =     0.00006197   -0.00011562    0.10293648
     atom   46 type  2   force =    -0.07182273   -0.00016745   -0.02779717
     atom   47 type  2   force =     0.07178049    0.00021580   -0.02784441
     atom   48 type  3   force =     0.00097889   -0.00364749   -0.00109069
     atom   49 type  4   force =     0.00058987    0.00057749    0.00033256
     atom   50 type  5   force =    -0.00004088   -0.00003323    0.00037512
     atom   51 type  5   force =    -0.00086200   -0.00057278   -0.00015720
     atom   52 type  5   force =     0.00144906   -0.00026049    0.00005048
     atom   53 type  3   force =     0.00711058    0.01849523    0.00752910
     atom   54 type  5   force =    -0.00118104   -0.00540391   -0.00580503
     atom   55 type  5   force =    -0.00639635   -0.00845372   -0.00076855

     Total force =     0.367931     Total SCF correction =     0.000674
  @ DRIVER MODE: Message from server: STATUS
  @ DRIVER MODE: Message from server: GETFORCE
  @ DRIVER MODE: Returning v,forces,stress,ensemble

     Writing output data file ./calc.save/
  @ DRIVER MODE: Message from server: EXIT
  @ DRIVE MODE: Exiting

     General routines

     Parallel routines

   This run was terminated on:  22: 8:44   2Aug2021

   JOB DONE.