     Program PWSCF v.6.7GPU starts on 10Sep2021 at 19: 0:23

     R & G space division:  proc/nbgrp/npool/nimage =      10
     Reading input from /storage/home/hcoda1/3/ntian30/research/carbon/CxH_vib/CH2_calc/ads_slab/CH2OH_f/out_0004/pw.inp
Warning: card &CELL ignored
Warning: card   CELL_DYNAMICS='IPI', ignored
Warning: card / ignored

     Current dimensions of program PWSCF are:
     Max number of different atomic species (ntypx) = 10
     Max number of k-points (npk) =  40000
     Max angular momentum in pseudopotentials (lmaxx) =  3
     Presently no symmetry can be used with electric field

     Message from routine cell_base_init:
     DEPRECATED: use true lattice parameter, not A to a.u. conversion factor

     IMPORTANT: XC functional enforced from input :
     Exchange-correlation= BEEF-VDW
                           (   1   4  43  14   2   0   0)
     Any further DFT definition will be discarded
     Please, verify this is what you really want

  @ DRIVER MODE: Connecting to
 qe_1139763_2792042.sched-torque.pace.gatech.eduz5pmxx1r_scratch
  using UNIX socket
  @ DRIVER MODE: Message from server: STATUS
  @ DRIVER MODE: Message from server: INIT
  @ DRIVER MODE: Receiving replica           0          -1
  @ DRIVER MODE: Receiving encoded integer          25
  @ DRIVER MODE:  SCF:  T  FORCE:  T  STRESS:  F  VC:  F  ENSEMBLE:  F
  @ DRIVER MODE:  SCF:  T  FORCE:  T  STRESS:  F  VC:  F  ENSEMBLE:  F

     Using Slab Decomposition

     bravais-lattice index     =            0
     lattice parameter (alat)  =       1.8897  a.u.
     unit-cell volume          =    6658.9804 (a.u.)^3
     number of atoms/cell      =           52
     number of atomic types    =            4
     number of electrons       =       391.00
     number of Kohn-Sham states=          205
     kinetic-energy cutoff     =      29.3995  Ry
     charge density cutoff     =     293.9946  Ry
     scf convergence threshold =      7.3E-08
     mixing beta               =       0.0500
     number of iterations used =            8  plain     mixing
     Exchange-correlation= BEEF-VDW
                           (   1   4  43  14   2   0   0)

     celldm(1)=   1.889726  celldm(2)=   0.000000  celldm(3)=   0.000000
     celldm(4)=   0.000000  celldm(5)=   0.000000  celldm(6)=   0.000000

     crystal axes: (cart. coord. in units of alat)
               a(1) = (   6.579727   0.000000   0.000000 )
               a(2) = (  -0.000775   5.961596   0.000000 )
               a(3) = (   0.000000   0.000000  25.155947 )

     reciprocal axes: (cart. coord. in units 2 pi/alat)
               b(1) = (  0.151982  0.000020  0.000000 )
               b(2) = (  0.000000  0.167740  0.000000 )
               b(3) = (  0.000000  0.000000  0.039752 )

     PseudoPot. # 1 for O  read from file:
     /storage/coda1/p-amedford6/0/shared/rich_project_chbe-medford/medford-share/data/pseudos_module/espresso/nninc/pbe/van/O.UPF
     MD5 check sum: 78c19812648e8988a0fe644b0f25305e
     Pseudo is Ultrasoft, Zval =  6.0
     Generated by new atomic code, or converted to UPF format
     Using radial grid of  737 points,  4 beta functions with:
                l(1) =   0
                l(2) =   0
                l(3) =   1
                l(4) =   1
     Q(r) pseudized with  8 coefficients,  rinner =    0.800   0.800   0.800

     PseudoPot. # 2 for Ti read from file:
     /storage/coda1/p-amedford6/0/shared/rich_project_chbe-medford/medford-share/data/pseudos_module/espresso/nninc/pbe/van/Ti.UPF
     MD5 check sum: 8e4df49b7f0d34bbd5052bf3f5ea0213
     Pseudo is Ultrasoft, Zval = 12.0
     Generated by new atomic code, or converted to UPF format
     Using radial grid of  851 points,  6 beta functions with:
                l(1) =   0
                l(2) =   0
                l(3) =   1
                l(4) =   1
                l(5) =   2
                l(6) =   2
     Q(r) pseudized with  8 coefficients,  rinner =    1.000   1.000   1.000
                                                       1.000   1.000

     PseudoPot. # 3 for H  read from file:
     /storage/coda1/p-amedford6/0/shared/rich_project_chbe-medford/medford-share/data/pseudos_module/espresso/nninc/pbe/van/H.UPF
     MD5 check sum: b5ee9d7bfd3a09ee7748110bda690ff7
     Pseudo is Ultrasoft, Zval =  1.0
     Generated by new atomic code, or converted to UPF format
     Using radial grid of  615 points,  1 beta functions with:
                l(1) =   0
     Q(r) pseudized with  8 coefficients,  rinner =    0.800

     PseudoPot. # 4 for C  read from file:
     /storage/coda1/p-amedford6/0/shared/rich_project_chbe-medford/medford-share/data/pseudos_module/espresso/nninc/pbe/van/C.UPF
     MD5 check sum: 1a69bf6b8db32088f5b2163dbdb77a27
     Pseudo is Ultrasoft, Zval =  4.0
     Generated by new atomic code, or converted to UPF format
     Using radial grid of  721 points,  4 beta functions with:
                l(1) =   0
                l(2) =   0
                l(3) =   1
                l(4) =   1
     Q(r) pseudized with  8 coefficients,  rinner =    0.800   0.800   0.800

     atomic species   valence    mass     pseudopotential
        O1             6.00    15.99900     O ( 1.00)
        Ti1           12.00    47.86700     Ti( 1.00)
        H1             1.00     1.00800     H ( 1.00)
        C1             4.00    12.01100     C ( 1.00)

     No symmetry found

   Cartesian axes

     site n.     atom                  positions (alat units)
         1           O1  tau(   1) = (   3.2904802   0.0005063   4.7018136  )
         2           O1  tau(   2) = (   3.2900926   2.9813045   4.7018136  )
         3           Ti1 tau(   3) = (   0.0004258   2.9801865   6.0000000  )
         4           Ti1 tau(   4) = (   0.0000382   5.9609847   6.0000000  )
         5           Ti1 tau(   5) = (   3.2906075   1.4906267   6.0002472  )
         6           Ti1 tau(   6) = (   3.2902200   4.4714249   6.0002472  )
         7           O1  tau(   7) = (   1.3043587   1.4918075   6.0039043  )
         8           O1  tau(   8) = (   1.3039711   4.4726057   6.0039043  )
         9           O1  tau(   9) = (   5.2767064   1.4903225   6.0039473  )
        10           O1  tau(  10) = (   5.2763189   4.4711207   6.0039473  )
        11           O1  tau(  11) = (   3.2906025   0.0005020   7.3038282  )
        12           O1  tau(  12) = (   3.2902150   2.9813002   7.3038282  )
        13           O1  tau(  13) = (   0.0006271   0.0005054   7.9858123  )
        14           O1  tau(  14) = (   0.0002396   2.9813036   7.9858123  )
        15           Ti1 tau(  15) = (   3.3208325   5.9232416   9.1783542  )
        16           Ti1 tau(  16) = (   3.3324863   2.9377666   9.1648094  )
        17           Ti1 tau(  17) = (   0.0524917   1.4788520   9.2606301  )
        18           Ti1 tau(  18) = (   0.0483789   4.4105323   9.3105966  )
        19           O1  tau(  19) = (   4.5942328   1.4918067   9.2879030  )
        20           O1  tau(  20) = (   4.5938453   4.4726049   9.2879030  )
        21           O1  tau(  21) = (   1.9868534   1.4903216   9.2879459  )
        22           O1  tau(  22) = (   1.9864658   4.4711199   9.2879459  )
        23           O1  tau(  23) = (   6.5712937   0.0017758  10.5841540  )
        24           O1  tau(  24) = (   0.0002036   2.9871675  10.5944109  )
        25           O1  tau(  25) = (   3.2216619   2.9970402  11.3379169  )
        26           O1  tau(  26) = (   3.2239595   0.0054171  11.3328765  )
        27           Ti1 tau(  27) = (   6.5319223   0.0329622  12.4533321  )
        28           Ti1 tau(  28) = (   3.1914638   1.6317768  12.6145244  )
        29           Ti1 tau(  29) = (   3.1843358   4.5420783  12.4476223  )
        30           Ti1 tau(  30) = (   6.4449355   3.0101977  12.6586491  )
        31           O1  tau(  31) = (   5.2440064   1.5124744  12.5792363  )
        32           O1  tau(  32) = (   5.2402295   4.4617308  12.5795526  )
        33           O1  tau(  33) = (   1.2196697   1.4730338  12.6667888  )
        34           O1  tau(  34) = (   1.2190574   4.4979232  12.6669875  )
        35           O1  tau(  35) = (   3.2067865   2.9341989  13.9395670  )
        36           O1  tau(  36) = (   3.3440650   5.9513154  13.9008253  )
        37           O1  tau(  37) = (   6.3267833   5.9539684  14.6370341  )
        38           O1  tau(  38) = (   6.3913104   2.9714873  14.7475579  )
        39           Ti1 tau(  39) = (   3.1260420   2.9476348  15.9752747  )
        40           Ti1 tau(  40) = (   3.1986908   5.9292636  15.6746755  )
        41           Ti1 tau(  41) = (   6.4744102   1.3498976  15.9078779  )
        42           Ti1 tau(  42) = (   6.4721656   4.5656371  15.8700466  )
        43           O1  tau(  43) = (   1.8677001   4.5604514  15.8157410  )
        44           O1  tau(  44) = (   1.8686447   1.3618557  15.8396546  )
        45           O1  tau(  45) = (   4.4008848   1.5192286  16.2292034  )
        46           O1  tau(  46) = (   4.3978686   4.4066597  16.2143399  )
        47           O1  tau(  47) = (   6.4830960   5.9408203  17.1431429  )
        48           O1  tau(  48) = (   0.4828407   2.9869521  17.4917737  )
        49           H1  tau(  49) = (   6.5026766   3.0145448  18.2851392  )
        50           C1  tau(  50) = (   1.9555054   2.9805414  17.9097346  )
        51           H1  tau(  51) = (   2.0761010   2.0893267  18.5304525  )
        52           H1  tau(  52) = (   2.0801140   3.8867162  18.5073456  )

     number of k points=    10  Fermi-Dirac smearing, width (Ry)=  0.0073
                       cart. coord. in units 2pi/alat
        k(    1) = (   0.0000000   0.0000000   0.0000000), wk =   0.1250000
        k(    2) = (   0.0000000   0.0419351   0.0000000), wk =   0.2500000
        k(    3) = (   0.0000000  -0.0838702   0.0000000), wk =   0.1250000
        k(    4) = (   0.0379955   0.0000049   0.0000000), wk =   0.2500000
        k(    5) = (   0.0379955   0.0419400   0.0000000), wk =   0.2500000
        k(    6) = (   0.0379955  -0.0838652   0.0000000), wk =   0.2500000
        k(    7) = (   0.0379955  -0.0419301   0.0000000), wk =   0.2500000
        k(    8) = (  -0.0759910  -0.0000099   0.0000000), wk =   0.1250000
        k(    9) = (  -0.0759910   0.0419252   0.0000000), wk =   0.2500000
        k(   10) = (  -0.0759910  -0.0838800   0.0000000), wk =   0.1250000

     Initial potential from superposition of free atoms

     starting charge  374.99918, renormalised to  391.00000

     negative rho (up, down):  1.929E-02 0.000E+00

     %%%%%%%%%%%%%%%%%%%%%%%%%%%%%%%%%%%%%%%%%%%%%%%%%%%%%%%%%%%%%%%%%%%%%%%%
     %                                                                      %
     % You are using vdW-DF, which was implemented by the Thonhauser group. %
     % Please cite the following two papers that made this development      %
     % possible and the two reviews that describe the various versions:     %
     %                                                                      %
     %   T. Thonhauser et al., PRL 115, 136402 (2015).                      %
     %   T. Thonhauser et al., PRB 76, 125112 (2007).                       %
     %   K. Berland et al., Rep. Prog. Phys. 78, 066501 (2015).             %
     %   D.C. Langreth et al., J. Phys.: Condens. Matter 21, 084203 (2009). %
     %                                                                      %
     %                                                                      %
     % If you are calculating the stress with vdW-DF, please also cite:     %
     %                                                                      %
     %   R. Sabatini et al., J. Phys.: Condens. Matter 24, 424209 (2012).   %
     %                                                                      %
     %%%%%%%%%%%%%%%%%%%%%%%%%%%%%%%%%%%%%%%%%%%%%%%%%%%%%%%%%%%%%%%%%%%%%%%%

     Adding external electric field

     Computed dipole along edir(3) :
        Dipole               -5.2494 Ry au,        -13.3426 Debye
        Dipole field         -0.0099 Ry au,

        Potential amp.        0.9183 Ry
        Total length         46.3494 bohr

     Starting wfcs are  295 atomic wfcs
  @ DRIVER MODE: Message from server: STATUS
  @ DRIVER MODE: Message from server: POSDATA
  @ DRIVER MODE: Reading and sharing cell
  @ DRIVER MODE: Reading and sharing positions
  @ DRIVER MODE: Received positions

     Self-consistent Calculation

     iteration #  1     ecut=    29.40 Ry     beta= 0.05
     Davidson diagonalization with overlap
     c_bands:  1 eigenvalues not converged
     c_bands:  4 eigenvalues not converged
     c_bands:  1 eigenvalues not converged
     c_bands:  2 eigenvalues not converged
     c_bands:  4 eigenvalues not converged
     c_bands:  1 eigenvalues not converged
     c_bands:  1 eigenvalues not converged
     c_bands:  3 eigenvalues not converged
     ethr =  1.00E-05,  avg # of iterations = 19.6

[...]

     total energy              =   -2799.58975005 Ry
     estimated scf accuracy    <    1447.68178548 Ry

     iteration #  2     ecut=    29.40 Ry     beta= 0.05
     Davidson diagonalization with overlap
     ethr =  1.00E-02,  avg # of iterations = 17.0

[...]

     iteration # 57     ecut=    29.40 Ry     beta= 0.05
     Davidson diagonalization with overlap
     c_bands:  1 eigenvalues not converged
     ethr =  9.31E-09,  avg # of iterations = 10.6

[...]

     total energy              =   -2931.32925523 Ry
     estimated scf accuracy    <       0.00000011 Ry

     iteration # 68     ecut=    29.40 Ry     beta= 0.05
     Davidson diagonalization with overlap
     ethr =  2.84E-11,  avg # of iterations = 10.8

     negative rho (up, down):  1.890E-02 0.000E+00

     Adding external electric field

     Computed dipole along edir(3) :
        Dipole                0.9542 Ry au,          2.4253 Debye
        Dipole field          0.0018 Ry au,

        Potential amp.       -0.1669 Ry
        Total length         46.3494 bohr

     End of self-consistent calculation

          k = 0.0000 0.0000 0.0000 ( 18029 PWs)   bands (ev):

   -55.8493 -55.8117 -55.7573 -55.7449 -55.6916 -55.6839 -55.6691 -55.6646
   -55.6342 -55.6154 -55.6136 -55.5878 -55.5814 -55.5641 -54.8246 -54.7905
   -32.3590 -32.3236 -32.2328 -32.2038 -32.1583 -32.1333 -32.1212 -32.0969
   -32.0879 -32.0606 -32.0342 -32.0123 -32.0041 -31.9910 -31.9640 -31.9565
   -31.9456 -31.9343 -31.9161 -31.9132 -31.9087 -31.9028 -31.8751 -31.8570
   -31.8517 -31.8486 -31.8471 -31.8375 -31.8307 -31.8212 -31.8131 -31.8105
   -31.8002 -31.7878 -31.7842 -31.7833 -31.7705 -31.7649 -31.7473 -31.7360
   -31.7171 -31.6435 -31.2318 -31.1423 -31.1199 -31.0487 -30.9625 -30.8510
   -19.5442 -16.5531 -16.3373 -16.1505 -16.0515 -16.0010 -15.8323 -15.7501
   -15.5399 -15.4875 -15.4757 -15.4496 -15.3934 -15.3771 -15.3709 -15.3520
   -15.3403 -15.3153 -15.2559 -15.2471 -15.2386 -15.2040 -15.1465 -15.1164
   -14.9893 -14.9803 -14.9648 -14.9458 -14.8624 -14.7322 -13.3249 -13.2080
    -9.6117  -6.4436  -4.1997  -3.9997  -3.8643  -3.7674  -3.7518  -3.7312
    -3.5694  -3.4950  -3.2705  -3.1384  -3.0873  -3.0199  -2.9799  -2.9179
    -2.8253  -2.7629  -2.7210  -2.6807  -2.6475  -2.6457  -2.6303  -2.5763
    -2.5464  -2.5015  -2.4004  -2.3974  -2.3456  -2.2886  -2.2486  -2.2071
    -2.1658  -2.1502  -2.1295  -2.0932  -2.0598  -2.0500  -2.0173  -1.9872
    -1.9302  -1.8498  -1.8197  -1.5577  -1.4661  -1.3804  -1.3670  -1.2995
    -1.2756  -1.2467  -1.2321  -1.1918  -1.1800  -1.0930  -1.0846  -1.0121
    -0.9709  -0.8897  -0.8293  -0.7526  -0.6897  -0.6299  -0.6092  -0.5793
    -0.5639  -0.5536  -0.3927  -0.3814  -0.3542  -0.2435  -0.2274  -0.1628
    -0.1391  -0.0768  -0.0538   0.0112   0.0693   0.0911   0.1127   0.1489
     0.1592   0.1716   0.2139   0.2957   0.3856   0.3993   0.4167   0.4798
     0.6455   0.7193   0.8226   0.8870   1.1247   1.2001   1.2378   1.2833
     1.3865   1.7740   1.8270   3.2985   3.3679   3.4159   3.4260   3.4650
     3.5469   3.7372   3.7452   3.8035   3.8898

[...]

          k = 0.0380-0.0419 0.0000 ( 17876 PWs)   bands (ev):

[...]

          k =-0.0760-0.0000 0.0000 ( 17886 PWs)   bands (ev):

[...]

          k =-0.0760-0.0839 0.0000 ( 17948 PWs)   bands (ev):

   -55.8384 -55.8225 -55.7530 -55.7383 -55.6980 -55.6878 -55.6657 -55.6591
   -55.6260 -55.6207 -55.5993 -55.5973 -55.5954 -55.5666 -54.8076 -54.8074
   -32.2819 -32.1471 -32.1356 -32.1316 -32.1081 -32.0836 -32.0794 -32.0517
   -32.0199 -32.0023 -31.9930 -31.9893 -31.9763 -31.9664 -31.9647 -31.9597
   -31.9587 -31.9509 -31.9484 -31.9325 -31.9307 -31.9230 -31.8997 -31.8963
   -31.8919 -31.8853 -31.8838 -31.8739 -31.8657 -31.8592 -31.8457 -31.8430
   -31.8338 -31.8248 -31.8226 -31.8131 -31.8100 -31.8080 -31.8061 -31.7939
   -31.7902 -31.6450 -31.1328 -31.1323 -31.0453 -31.0443 -31.0058 -31.0051
   -19.5383 -16.1423 -15.9580 -15.8041 -15.7904 -15.7846 -15.6326 -15.6294
   -15.6044 -15.5679 -15.5349 -15.5170 -15.4790 -15.4748 -15.4316 -15.3801
   -15.3737 -15.3617 -15.3351 -15.2842 -15.2719 -15.2569 -15.1798 -15.1692
   -15.1608 -15.1346 -15.1317 -15.1000 -15.0993 -15.0251 -13.3117 -13.3077
    -9.6121  -6.4270  -4.2057  -3.8651  -3.2824  -3.2092  -3.0167  -3.0018
    -2.9273  -2.8923  -2.8665  -2.8263  -2.7761  -2.7691  -2.7545  -2.6800
    -2.6563  -2.6515  -2.6069  -2.5941  -2.5836  -2.5672  -2.5535  -2.5161
    -2.4932  -2.4690  -2.4458  -2.4306  -2.4088  -2.4001  -2.3954  -2.3499
    -2.3290  -2.2090  -2.1179  -2.0553  -2.0088  -1.9679  -1.9419  -1.9231
    -1.9055  -1.8910  -1.8780  -1.8375  -1.7690  -1.6029  -1.5246  -1.5198
    -1.4568  -1.4380  -1.3835  -1.3671  -1.2900  -1.2612  -1.2113  -1.1983
    -1.1817  -1.0800  -1.0559  -0.9628  -0.9305  -0.8246  -0.8012  -0.7880
    -0.7689  -0.7269  -0.7049  -0.6417  -0.6186  -0.5809  -0.5535  -0.5027
    -0.4574  -0.4405  -0.3431  -0.3019  -0.2481  -0.2008  -0.1340  -0.0248
     0.1539   0.1760   0.2111   0.3157   0.3548   0.4261   0.4826   0.5012
     0.5651   0.6016   0.6456   0.6945   0.7578   0.7944   1.2459   1.5617
     1.5702   1.6347   1.6464   3.6009   3.6500   3.7695   3.7825   3.8124
     3.8229   3.8362   3.8512   3.9009   3.9556

     the Fermi energy is     3.2918 ev

!    total energy              =   -2931.32927869 Ry
     estimated scf accuracy    <       0.00000007 Ry
     smearing contrib. (-TS)   =      -0.02172870 Ry
     internal energy E=F+TS    =   -2931.30754999 Ry

     The total energy is F=E-TS. E is the sum of the following terms:
     one-electron contribution =  -24944.47720118 Ry
     hartree contribution      =   12558.64512583 Ry
     xc contribution           =    -482.04133867 Ry
     ewald contribution        =    9936.56414581 Ry
     electric field correction =       0.00171822 Ry

     convergence has been achieved in  68 iterations

     Forces acting on atoms (cartesian axes, Ry/au):

     atom    1 type  1   force =    -0.00001176    0.00009837    0.10307279
     atom    2 type  1   force =     0.00000418    0.00011135    0.10341462
     atom    3 type  2   force =    -0.00029299    0.00098974    0.09594037
     atom    4 type  2   force =    -0.00015364   -0.00099920    0.10945869
     atom    5 type  2   force =    -0.00014771   -0.00318769   -0.17642265
     atom    6 type  2   force =    -0.00014300    0.00267030   -0.17602248
     atom    7 type  1   force =    -0.07085174    0.00115194   -0.02853590
     atom    8 type  1   force =    -0.07119679   -0.00154289   -0.02856212
     atom    9 type  1   force =     0.07069926    0.00156549   -0.02856445
     atom   10 type  1   force =     0.07092007   -0.00116587   -0.02860935
     atom   11 type  1   force =     0.00048638   -0.00020909    0.05106943
     atom   12 type  1   force =     0.00072183   -0.00042298    0.05033958
     atom   13 type  1   force =     0.00061396    0.00264691   -0.02978008
     atom   14 type  1   force =     0.00055684   -0.00112358   -0.02626819
     atom   15 type  2   force =     0.00019295   -0.00146513   -0.00050673
     atom   16 type  2   force =    -0.00010457    0.00157010   -0.00010118
     atom   17 type  2   force =    -0.00007496   -0.00004193    0.00029818
     atom   18 type  2   force =     0.00008814    0.00060501    0.00040934
     atom   19 type  1   force =    -0.01649040    0.00013216    0.00404592
     atom   20 type  1   force =    -0.01694349   -0.00138411    0.00404706
     atom   21 type  1   force =     0.01272761    0.00185361    0.00029130
     atom   22 type  1   force =     0.01237828    0.00142086    0.00045712
     atom   23 type  1   force =     0.00020241   -0.00009778   -0.00060233
     atom   24 type  1   force =     0.00017490   -0.00041333   -0.00046713
     atom   25 type  1   force =     0.00035299   -0.00003595   -0.00003046
     atom   26 type  1   force =     0.00006794   -0.00043838   -0.00069489
     atom   27 type  2   force =    -0.00001458   -0.00058975   -0.00027073
     atom   28 type  2   force =     0.00016272    0.00006404   -0.00031139
     atom   29 type  2   force =    -0.00012275   -0.00111164    0.00031321
     atom   30 type  2   force =     0.00036555    0.00034258    0.00018523
     atom   31 type  1   force =     0.00013804    0.00005722   -0.00006970
     atom   32 type  1   force =    -0.00010377   -0.00034856    0.00039769
     atom   33 type  1   force =     0.00023741   -0.00017219   -0.00013039
     atom   34 type  1   force =     0.00050396   -0.00037993    0.00025472
     atom   35 type  1   force =    -0.00011127    0.00014041    0.00179578
     atom   36 type  1   force =     0.00034767    0.00015271    0.00034941
     atom   37 type  1   force =     0.00015087    0.00034449   -0.00004446
     atom   38 type  1   force =     0.00043762   -0.00035855    0.00015441
     atom   39 type  2   force =     0.00041151    0.00143156   -0.00084150
     atom   40 type  2   force =     0.00043599   -0.00039328    0.00005964
     atom   41 type  2   force =     0.00005035   -0.00086390    0.00013948
     atom   42 type  2   force =     0.00020331    0.00037387    0.00023145
     atom   43 type  1   force =     0.00115532    0.00020025   -0.00014820
     atom   44 type  1   force =     0.00042661   -0.00002583    0.00019188
     atom   45 type  1   force =     0.00016477    0.00000203    0.00008489
     atom   46 type  1   force =     0.00038935   -0.00026576    0.00017220
     atom   47 type  1   force =     0.00051148    0.00120382   -0.00043735
     atom   48 type  1   force =     0.00045682   -0.00331125   -0.00050187
     atom   49 type  3   force =    -0.00012439   -0.00004457    0.00053939
     atom   50 type  4   force =    -0.00051222    0.00147630    0.00025704
     atom   51 type  3   force =    -0.00055419   -0.00016604   -0.00016474
     atom   52 type  3   force =     0.00121713   -0.00004594    0.00011747

     Total force =     0.368380     Total SCF correction =     0.000829
  @ DRIVER MODE: Message from server: STATUS
  @ DRIVER MODE: Message from server: GETFORCE
  @ DRIVER MODE: Returning v,forces,stress,ensemble

     Writing output data file ./calc.save/
  @ DRIVER MODE: Message from server: EXIT
  @ DRIVE MODE: Exiting

     General routines

     Parallel routines

   This run was terminated on:  19:19:17  10Sep2021

   JOB DONE.