     Program PWSCF v.6.7GPU starts on 11Oct2021 at 22:34:27

     R & G space division:  proc/nbgrp/npool/nimage =       8
     Reading input from /storage/home/hcoda1/3/ntian30/research/carbon/CxH_vib/CH2_calc/ads_slab/CH2NHH_b/out_0016/pw.inp
Warning: card &CELL ignored
Warning: card   CELL_DYNAMICS='IPI', ignored
Warning: card / ignored

     Current dimensions of program PWSCF are:
     Max number of different atomic species (ntypx) = 10
     Max number of k-points (npk) =  40000
     Max angular momentum in pseudopotentials (lmaxx) =  3
     Presently no symmetry can be used with electric field

     Message from routine cell_base_init:
     DEPRECATED: use true lattice parameter, not A to a.u. conversion factor

     IMPORTANT: XC functional enforced from input :
     Exchange-correlation= BEEF-VDW
                           (   1   4  43  14   2   0   0)
     Any further DFT definition will be discarded
     Please, verify this is what you really want

  @ DRIVER MODE: Connecting to
 qe_1139763_3171005.sched-torque.pace.gatech.eduqzicycjg_scratch
  using UNIX socket
  @ DRIVER MODE: Message from server: STATUS
  @ DRIVER MODE: Message from server: INIT
  @ DRIVER MODE: Receiving replica           0          -1
  @ DRIVER MODE: Receiving encoded integer          25
  @ DRIVER MODE:  SCF:  T  FORCE:  T  STRESS:  F  VC:  F  ENSEMBLE:  F
  @ DRIVER MODE:  SCF:  T  FORCE:  T  STRESS:  F  VC:  F  ENSEMBLE:  F

     Using Slab Decomposition

     bravais-lattice index     =            0
     lattice parameter (alat)  =       1.8897  a.u.
     unit-cell volume          =    6658.9804 (a.u.)^3
     number of atoms/cell      =           53
     number of atomic types    =            5
     number of electrons       =       391.00
     number of Kohn-Sham states=          205
     kinetic-energy cutoff     =      29.3995  Ry
     charge density cutoff     =     293.9946  Ry
     scf convergence threshold =      7.3E-08
     mixing beta               =       0.0500
     number of iterations used =            8  plain     mixing
     Exchange-correlation= BEEF-VDW
                           (   1   4  43  14   2   0   0)

     celldm(1)=   1.889726  celldm(2)=   0.000000  celldm(3)=   0.000000
     celldm(4)=   0.000000  celldm(5)=   0.000000  celldm(6)=   0.000000

     crystal axes: (cart. coord. in units of alat)
               a(1) = (   6.579727   0.000000   0.000000 )
               a(2) = (  -0.000775   5.961596   0.000000 )
               a(3) = (   0.000000   0.000000  25.155947 )

     reciprocal axes: (cart. coord. in units 2 pi/alat)
               b(1) = (  0.151982  0.000020  0.000000 )
               b(2) = (  0.000000  0.167740  0.000000 )
               b(3) = (  0.000000  0.000000  0.039752 )

     PseudoPot. # 1 for Ti read from file:
     /storage/coda1/p-amedford6/0/shared/rich_project_chbe-medford/medford-share/data/pseudos_module/espresso/nninc/pbe/van/Ti.UPF
     MD5 check sum: 8e4df49b7f0d34bbd5052bf3f5ea0213
     Pseudo is Ultrasoft, Zval = 12.0
     Generated by new atomic code, or converted to UPF format
     Using radial grid of  851 points,  6 beta functions with:
                l(1) =   0
                l(2) =   0
                l(3) =   1
                l(4) =   1
                l(5) =   2
                l(6) =   2
     Q(r) pseudized with  8 coefficients,  rinner =    1.000   1.000   1.000
                                                       1.000   1.000

     PseudoPot. # 2 for O  read from file:
     /storage/coda1/p-amedford6/0/shared/rich_project_chbe-medford/medford-share/data/pseudos_module/espresso/nninc/pbe/van/O.UPF
     MD5 check sum: 78c19812648e8988a0fe644b0f25305e
     Pseudo is Ultrasoft, Zval =  6.0
     Generated by new atomic code, or converted to UPF format
     Using radial grid of  737 points,  4 beta functions with:
                l(1) =   0
                l(2) =   0
                l(3) =   1
                l(4) =   1
     Q(r) pseudized with  8 coefficients,  rinner =    0.800   0.800   0.800

     PseudoPot. # 3 for H  read from file:
     /storage/coda1/p-amedford6/0/shared/rich_project_chbe-medford/medford-share/data/pseudos_module/espresso/nninc/pbe/van/H.UPF
     MD5 check sum: b5ee9d7bfd3a09ee7748110bda690ff7
     Pseudo is Ultrasoft, Zval =  1.0
     Generated by new atomic code, or converted to UPF format
     Using radial grid of  615 points,  1 beta functions with:
                l(1) =   0
     Q(r) pseudized with  8 coefficients,  rinner =    0.800

     PseudoPot. # 4 for N  read from file:
     /storage/coda1/p-amedford6/0/shared/rich_project_chbe-medford/medford-share/data/pseudos_module/espresso/nninc/pbe/van/N.UPF
     MD5 check sum: 90d10febe142ad51ac9d5be1deb811c4
     Pseudo is Ultrasoft, Zval =  5.0
     Generated by new atomic code, or converted to UPF format
     Using radial grid of  729 points,  4 beta functions with:
                l(1) =   0
                l(2) =   0
                l(3) =   1
                l(4) =   1
     Q(r) pseudized with  8 coefficients,  rinner =    0.800   0.800   0.800

     PseudoPot. # 5 for C  read from file:
     /storage/coda1/p-amedford6/0/shared/rich_project_chbe-medford/medford-share/data/pseudos_module/espresso/nninc/pbe/van/C.UPF
     MD5 check sum: 1a69bf6b8db32088f5b2163dbdb77a27
     Pseudo is Ultrasoft, Zval =  4.0
     Generated by new atomic code, or converted to UPF format
     Using radial grid of  721 points,  4 beta functions with:
                l(1) =   0
                l(2) =   0
                l(3) =   1
                l(4) =   1
     Q(r) pseudized with  8 coefficients,  rinner =    0.800   0.800   0.800

     atomic species   valence    mass     pseudopotential
        Ti1           12.00    47.86700     Ti( 1.00)
        O1             6.00    15.99900     O ( 1.00)
        H1             1.00     1.00800     H ( 1.00)
        N1             5.00    14.00700     N ( 1.00)
        C1             4.00    12.01100     C ( 1.00)

     No symmetry found

   Cartesian axes

     site n.     atom                  positions (alat units)
         1           Ti1 tau(   1) = (   0.0004258   2.9801865   6.0000000  )
         2           Ti1 tau(   2) = (   3.2906075   1.4906267   6.0002472  )
         3           O1  tau(   3) = (   0.0006271   0.0005054   7.9858123  )
         4           O1  tau(   4) = (   3.2906025   0.0005020   7.3038282  )
         5           O1  tau(   5) = (   4.5942328   1.4918067   9.2879030  )
         6           O1  tau(   6) = (   1.9868534   1.4903216   9.2879459  )
         7           Ti1 tau(   7) = (   3.2907910   2.8959150   9.1758416  )
         8           Ti1 tau(   8) = (   0.0015273   1.4827037   9.2680791  )
         9           O1  tau(   9) = (   3.3750462   0.0034689  11.3324641  )
        10           O1  tau(  10) = (   0.0116148   5.9584955  10.6183126  )
        11           O1  tau(  11) = (   1.3977860   1.4758343  12.6375763  )
        12           O1  tau(  12) = (   5.4232152   1.4913549  12.6657899  )
        13           Ti1 tau(  13) = (   0.0691229   2.9530050  12.5389017  )
        14           Ti1 tau(  14) = (   3.3643908   1.4039863  12.4577757  )
        15           O1  tau(  15) = (   0.1477665   0.0132832  14.6652528  )
        16           O1  tau(  16) = (   3.5189244   0.0045933  13.9158019  )
        17           O1  tau(  17) = (   4.7861523   1.5333885  16.1913275  )
        18           O1  tau(  18) = (   2.2541876   1.4026900  15.9427082  )
        19           Ti1 tau(  19) = (   3.5811307   2.9972434  16.0687679  )
        20           Ti1 tau(  20) = (   0.2998503   1.4255696  15.8726171  )
        21           O1  tau(  21) = (   3.2904802   0.0005063   4.7018136  )
        22           O1  tau(  22) = (   0.2643450   0.0038197  17.1846268  )
        23           O1  tau(  23) = (   1.3043587   1.4918075   6.0039043  )
        24           O1  tau(  24) = (   5.2767064   1.4903225   6.0039473  )
        25           Ti1 tau(  25) = (   0.0000382   5.9609847   6.0000000  )
        26           Ti1 tau(  26) = (   3.2902200   4.4714249   6.0002472  )
        27           O1  tau(  27) = (   0.0002396   2.9813036   7.9858123  )
        28           O1  tau(  28) = (   3.2902150   2.9813002   7.3038282  )
        29           O1  tau(  29) = (   4.5938453   4.4726049   9.2879030  )
        30           O1  tau(  30) = (   1.9864658   4.4711199   9.2879459  )
        31           Ti1 tau(  31) = (   3.2891106   5.8743827   9.1763621  )
        32           Ti1 tau(  32) = (   0.0006254   4.4649316   9.2693709  )
        33           O1  tau(  33) = (   3.3836021   2.9593565  11.3526375  )
        34           O1  tau(  34) = (   0.0092240   2.9805883  10.6323155  )
        35           O1  tau(  35) = (   1.3957467   4.4736095  12.6396340  )
        36           O1  tau(  36) = (   5.4261019   4.4541359  12.6685409  )
        37           Ti1 tau(  37) = (   0.0939275   5.9312067  12.4916740  )
        38           Ti1 tau(  38) = (   3.3665170   4.3046527  12.6650499  )
        39           O1  tau(  39) = (   0.1734719   2.9828917  14.8532074  )
        40           O1  tau(  40) = (   3.4150578   3.0309863  13.9715028  )
        41           O1  tau(  41) = (   4.7877001   4.4493464  16.1994792  )
        42           O1  tau(  42) = (   2.2536850   4.5881152  15.9586447  )
        43           Ti1 tau(  43) = (   3.5332629   0.0183730  15.6991940  )
        44           Ti1 tau(  44) = (   0.2986595   4.6220906  15.9451660  )
        45           O1  tau(  45) = (   3.2900926   2.9813045   4.7018136  )
        46           O1  tau(  46) = (   1.3039711   4.4726057   6.0039043  )
        47           O1  tau(  47) = (   5.2763189   4.4711207   6.0039473  )
        48           H1  tau(  48) = (   0.6716682   3.7174429  18.3617054  )
        49           H1  tau(  49) = (   0.7299512   2.1188458  18.2939656  )
        50           N1  tau(  50) = (   1.0883034   2.9630349  17.8291855  )
        51           C1  tau(  51) = (   2.6610371   2.9951180  18.0825860  )
        52           H1  tau(  52) = (   2.6895649   3.8224559  18.7561578  )
        53           H1  tau(  53) = (   2.7295784   2.2142559  18.8115579  )

     number of k points=    10  Fermi-Dirac smearing, width (Ry)=  0.0073
                       cart. coord. in units 2pi/alat
        k(    1) = (   0.0000000   0.0000000   0.0000000), wk =   0.1250000
        k(    2) = (   0.0000000   0.0419351   0.0000000), wk =   0.2500000
        k(    3) = (   0.0000000  -0.0838702   0.0000000), wk =   0.1250000
        k(    4) = (   0.0379955   0.0000049   0.0000000), wk =   0.2500000
        k(    5) = (   0.0379955   0.0419400   0.0000000), wk =   0.2500000
        k(    6) = (   0.0379955  -0.0838652   0.0000000), wk =   0.2500000
        k(    7) = (   0.0379955  -0.0419301   0.0000000), wk =   0.2500000
        k(    8) = (  -0.0759910  -0.0000099   0.0000000), wk =   0.1250000
        k(    9) = (  -0.0759910   0.0419252   0.0000000), wk =   0.2500000
        k(   10) = (  -0.0759910  -0.0838800   0.0000000), wk =   0.1250000

     Initial potential from superposition of free atoms

     starting charge  374.99916, renormalised to  391.00000

     negative rho (up, down):  1.820E-02 0.000E+00

     %%%%%%%%%%%%%%%%%%%%%%%%%%%%%%%%%%%%%%%%%%%%%%%%%%%%%%%%%%%%%%%%%%%%%%%%
     %                                                                      %
     % You are using vdW-DF, which was implemented by the Thonhauser group. %
     % Please cite the following two papers that made this development      %
     % possible and the two reviews that describe the various versions:     %
     %                                                                      %
     %   T. Thonhauser et al., PRL 115, 136402 (2015).                      %
     %   T. Thonhauser et al., PRB 76, 125112 (2007).                       %
     %   K. Berland et al., Rep. Prog. Phys. 78, 066501 (2015).             %
     %   D.C. Langreth et al., J. Phys.: Condens. Matter 21, 084203 (2009). %
     %                                                                      %
     %                                                                      %
     % If you are calculating the stress with vdW-DF, please also cite:     %
     %                                                                      %
     %   R. Sabatini et al., J. Phys.: Condens. Matter 24, 424209 (2012).   %
     %                                                                      %
     %%%%%%%%%%%%%%%%%%%%%%%%%%%%%%%%%%%%%%%%%%%%%%%%%%%%%%%%%%%%%%%%%%%%%%%%

     Adding external electric field

     Computed dipole along edir(3) :
        Dipole               -5.7422 Ry au,        -14.5952 Debye
        Dipole field         -0.0108 Ry au,

        Potential amp.        1.0045 Ry
        Total length         46.3494 bohr

     Starting wfcs are  296 atomic wfcs
  @ DRIVER MODE: Message from server: STATUS
  @ DRIVER MODE: Message from server: POSDATA
  @ DRIVER MODE: Reading and sharing cell
  @ DRIVER MODE: Reading and sharing positions
  @ DRIVER MODE: Received positions

     Self-consistent Calculation

     iteration #  1     ecut=    29.40 Ry     beta= 0.05
     Davidson diagonalization with overlap
     c_bands:  3 eigenvalues not converged
     c_bands:  1 eigenvalues not converged
     c_bands:  5 eigenvalues not converged
     c_bands:  2 eigenvalues not converged
     c_bands:  2 eigenvalues not converged
     c_bands:  2 eigenvalues not converged
     c_bands:  2 eigenvalues not converged
     ethr =  1.00E-05,  avg # of iterations = 20.8

[...]

     total energy              =   -2767.09898294 Ry
     estimated scf accuracy    <    1681.89527406 Ry

[...]

     iteration #  3     ecut=    29.40 Ry     beta= 0.05
     Davidson diagonalization with overlap
     ethr =  1.00E-02,  avg # of iterations = 15.4

[...]

     iteration # 44     ecut=    29.40 Ry     beta= 0.05
     Davidson diagonalization with overlap
     c_bands:  1 eigenvalues not converged
     c_bands:  1 eigenvalues not converged
     ethr =  1.39E-06,  avg # of iterations = 11.1

[...]

     total energy              =   -2920.27056731 Ry
     estimated scf accuracy    <       0.00000011 Ry

     iteration # 77     ecut=    29.40 Ry     beta= 0.05
     Davidson diagonalization with overlap
     ethr =  2.79E-11,  avg # of iterations =  8.2

     negative rho (up, down):  1.845E-02 0.000E+00

     Adding external electric field

     Computed dipole along edir(3) :
        Dipole                0.8699 Ry au,          2.2111 Debye
        Dipole field          0.0016 Ry au,

        Potential amp.       -0.1522 Ry
        Total length         46.3494 bohr

     End of self-consistent calculation

          k = 0.0000 0.0000 0.0000 ( 18029 PWs)   bands (ev):

   -55.8841 -55.8500 -55.7538 -55.7155 -55.7107 -55.7084 -55.6980 -55.6767
   -55.6699 -55.6319 -55.6294 -55.6275 -55.5934 -55.5624 -54.8650 -54.8310
   -32.3699 -32.2811 -32.2438 -32.2132 -32.1770 -32.1749 -32.1568 -32.1557
   -32.1297 -32.0775 -32.0368 -32.0187 -32.0090 -31.9961 -31.9945 -31.9918
   -31.9800 -31.9481 -31.9416 -31.9302 -31.9220 -31.9104 -31.8995 -31.8906
   -31.8801 -31.8758 -31.8545 -31.8534 -31.8471 -31.8450 -31.8387 -31.8288
   -31.8226 -31.8223 -31.8207 -31.8051 -31.7921 -31.7807 -31.7796 -31.7676
   -31.7123 -31.6260 -31.2715 -31.1841 -31.1617 -31.0889 -31.0025 -30.8907
   -16.5735 -16.4027 -16.1957 -16.0688 -16.0511 -15.8577 -15.7648 -15.6874
   -15.4929 -15.4537 -15.4255 -15.4100 -15.3983 -15.3969 -15.3796 -15.3604
   -15.3405 -15.3306 -15.3093 -15.2567 -15.2506 -15.2406 -15.2168 -15.2140
   -15.0303 -15.0213 -14.9810 -14.9446 -14.8661 -14.5660 -13.3641 -13.2476
    -8.9208  -5.6265  -3.9585  -3.8901  -3.8167  -3.7916  -3.7767  -3.6572
    -3.4840  -3.2963  -3.2081  -3.1738  -3.0582  -3.0125  -2.9165  -2.8385
    -2.8245  -2.7627  -2.7215  -2.6990  -2.6726  -2.6602  -2.6080  -2.5851
    -2.5776  -2.4435  -2.3869  -2.3655  -2.3036  -2.2780  -2.2502  -2.2068
    -2.2012  -2.1870  -2.1705  -2.1335  -2.1042  -2.0888  -2.0061  -1.9366
    -1.8961  -1.8552  -1.6247  -1.5213  -1.5007  -1.4711  -1.4144  -1.3801
    -1.3351  -1.2962  -1.2804  -1.2615  -1.1933  -1.1036  -1.0223  -1.0147
    -0.9131  -0.8882  -0.8015  -0.7262  -0.7075  -0.6465  -0.6231  -0.6192
    -0.6144  -0.5223  -0.4708  -0.3885  -0.3386  -0.3010  -0.2351  -0.1692
    -0.1131  -0.1018  -0.0624  -0.0201   0.0224   0.0330   0.0581   0.0878
     0.1259   0.1641   0.2034   0.2849   0.3272   0.3619   0.4079   0.4205
     0.5228   0.7332   0.7730   0.9122   1.0924   1.1610   1.1868   1.2077
     1.3525   1.7294   1.7751   3.1979   3.3426   3.3602   3.4321   3.4622
     3.5149   3.6857   3.7720   3.8133   3.8696

[...]

          k = 0.0380-0.0419 0.0000 ( 17876 PWs)   bands (ev):

[...]

          k =-0.0760-0.0000 0.0000 ( 17886 PWs)   bands (ev):

[...]

          k =-0.0760-0.0839 0.0000 ( 17948 PWs)   bands (ev):

   -55.8672 -55.8667 -55.7426 -55.7264 -55.7058 -55.6937 -55.6936 -55.6933
   -55.6617 -55.6359 -55.6343 -55.6223 -55.6030 -55.5641 -54.8481 -54.8477
   -32.2054 -32.1853 -32.1850 -32.1605 -32.1601 -32.1000 -32.0670 -32.0490
   -32.0336 -32.0270 -32.0238 -32.0171 -32.0017 -31.9874 -31.9866 -31.9849
   -31.9770 -31.9693 -31.9617 -31.9476 -31.9459 -31.9366 -31.9332 -31.9253
   -31.9119 -31.9034 -31.8993 -31.8947 -31.8829 -31.8784 -31.8700 -31.8691
   -31.8687 -31.8606 -31.8576 -31.8470 -31.8433 -31.8320 -31.8130 -31.8130
   -31.7977 -31.6263 -31.1746 -31.1743 -31.0846 -31.0839 -31.0459 -31.0455
   -16.1459 -15.9772 -15.8683 -15.8535 -15.7902 -15.6806 -15.6676 -15.6404
   -15.6212 -15.5843 -15.5651 -15.5520 -15.5033 -15.4643 -15.4274 -15.4030
   -15.3992 -15.3523 -15.3480 -15.3384 -15.3163 -15.2817 -15.2732 -15.2091
   -15.2005 -15.1027 -15.0880 -15.0680 -15.0174 -14.8983 -13.3495 -13.3493
    -8.9269  -5.5968  -3.8107  -3.3044  -3.2066  -3.0703  -3.0023  -2.9620
    -2.9138  -2.8808  -2.8592  -2.8408  -2.7908  -2.7769  -2.7455  -2.7017
    -2.6841  -2.6670  -2.6463  -2.6200  -2.5990  -2.5873  -2.5687  -2.5509
    -2.5182  -2.5029  -2.4763  -2.4621  -2.4516  -2.4400  -2.4333  -2.4171
    -2.2351  -2.1433  -2.0521  -2.0395  -2.0333  -2.0088  -1.9800  -1.9655
    -1.9480  -1.9269  -1.9002  -1.8707  -1.8408  -1.5879  -1.5587  -1.5238
    -1.4656  -1.4285  -1.3813  -1.3659  -1.3341  -1.3043  -1.2239  -1.1883
    -1.1607  -1.0822  -1.0104  -0.9466  -0.9008  -0.8632  -0.8328  -0.8209
    -0.7811  -0.7429  -0.7339  -0.7093  -0.6935  -0.5866  -0.5845  -0.5819
    -0.4360  -0.4007  -0.3786  -0.2867  -0.2668  -0.0878  -0.0258   0.0018
     0.1361   0.1465   0.1827   0.2927   0.3202   0.3655   0.4219   0.4431
     0.5295   0.5819   0.6236   0.6633   0.6869   0.7035   1.1667   1.5233
     1.5291   1.5953   1.5955   3.5986   3.6397   3.7060   3.7318   3.7520
     3.7872   3.8100   3.8211   3.8664   3.8762

     the Fermi energy is     3.2366 ev

!    total energy              =   -2920.27057440 Ry
     estimated scf accuracy    <       0.00000003 Ry
     smearing contrib. (-TS)   =      -0.01952652 Ry
     internal energy E=F+TS    =   -2920.25104788 Ry

     The total energy is F=E-TS. E is the sum of the following terms:
     one-electron contribution =  -24543.68489035 Ry
     hartree contribution      =   12357.63894333 Ry
     xc contribution           =    -480.81204307 Ry
     ewald contribution        =    9746.60551413 Ry
     electric field correction =       0.00142807 Ry

     convergence has been achieved in  77 iterations

     Forces acting on atoms (cartesian axes, Ry/au):

     atom    1 type  1   force =     0.00007495   -0.00038620    0.09440352
     atom    2 type  1   force =    -0.00007695   -0.00123011   -0.17582970
     atom    3 type  2   force =     0.00046606   -0.00020735   -0.02136359
     atom    4 type  2   force =     0.00017494   -0.00092674    0.05144829
     atom    5 type  2   force =    -0.00541169    0.00100091   -0.00034917
     atom    6 type  2   force =     0.00990148    0.00143464    0.00528063
     atom    7 type  1   force =     0.00312396    0.00405185   -0.00381227
     atom    8 type  1   force =    -0.00263824    0.00537027    0.00463975
     atom    9 type  2   force =     0.00031753    0.00017615    0.00040480
     atom   10 type  2   force =     0.00290112    0.00077721   -0.01335378
     atom   11 type  2   force =     0.00010633    0.00028256   -0.00001268
     atom   12 type  2   force =    -0.00016922   -0.00004791   -0.00007897
     atom   13 type  1   force =    -0.00029167   -0.00030414    0.00138351
     atom   14 type  1   force =    -0.00061126    0.00042056   -0.00124667
     atom   15 type  2   force =     0.00027563    0.00042624   -0.00007644
     atom   16 type  2   force =     0.00005440   -0.00014614    0.00022683
     atom   17 type  2   force =     0.00033143   -0.00084475    0.00073455
     atom   18 type  2   force =    -0.00016390    0.00034407    0.00004784
     atom   19 type  1   force =    -0.00022291    0.00045450   -0.00094808
     atom   20 type  1   force =    -0.00024649    0.00139126   -0.00067045
     atom   21 type  2   force =     0.00005090   -0.00009599    0.10311429
     atom   22 type  2   force =    -0.00062557    0.00113434    0.00085447
     atom   23 type  2   force =    -0.07168002   -0.00014805   -0.02718821
     atom   24 type  2   force =     0.07174047    0.00035045   -0.02733215
     atom   25 type  1   force =    -0.00008611   -0.00022269    0.09389534
     atom   26 type  1   force =     0.00003582    0.00039351   -0.17580278
     atom   27 type  2   force =     0.00046643   -0.00026193   -0.02045738
     atom   28 type  2   force =     0.00023684   -0.00170557    0.05407356
     atom   29 type  2   force =    -0.00646565   -0.00170153    0.00028998
     atom   30 type  2   force =     0.01070423   -0.00155803    0.00560290
     atom   31 type  1   force =     0.00345652    0.00042993    0.00537855
     atom   32 type  1   force =    -0.00266950   -0.00668605    0.00504934
     atom   33 type  2   force =     0.00024856    0.00031761    0.00054530
     atom   34 type  2   force =     0.00503715   -0.00079165   -0.00877594
     atom   35 type  2   force =     0.00012095   -0.00000727    0.00001444
     atom   36 type  2   force =    -0.00012927   -0.00001796   -0.00000611
     atom   37 type  1   force =     0.00075588   -0.00042203    0.00091334
     atom   38 type  1   force =    -0.00027278   -0.00119036    0.00001211
     atom   39 type  2   force =    -0.00075723   -0.00018180    0.00041193
     atom   40 type  2   force =     0.00036882    0.00040933   -0.00007076
     atom   41 type  2   force =     0.00023035    0.00156872    0.00067087
     atom   42 type  2   force =     0.00086692    0.00061763   -0.00019152
     atom   43 type  1   force =     0.00074686   -0.00012536    0.00005361
     atom   44 type  1   force =     0.00017975   -0.00230104   -0.00028343
     atom   45 type  2   force =     0.00005227   -0.00001897    0.10328247
     atom   46 type  2   force =    -0.07166608   -0.00014950   -0.02721413
     atom   47 type  2   force =     0.07170537    0.00030701   -0.02731894
     atom   48 type  3   force =    -0.00338495    0.00904327    0.00615335
     atom   49 type  3   force =     0.00336640    0.00940480   -0.00616174
     atom   50 type  4   force =     0.00035630   -0.02155408   -0.00033200
     atom   51 type  5   force =    -0.08535953   -0.00111851   -0.00035901
     atom   52 type  3   force =     0.03217480    0.05170757    0.00037298
     atom   53 type  3   force =     0.03229960   -0.04746266   -0.00002265

     Total force =     0.383081     Total SCF correction =     0.000604
  @ DRIVER MODE: Message from server: STATUS
  @ DRIVER MODE: Message from server: GETFORCE
  @ DRIVER MODE: Returning v,forces,stress,ensemble

     Writing output data file ./calc.save/
  @ DRIVER MODE: Message from server: EXIT
  @ DRIVE MODE: Exiting

     General routines

     Parallel routines

   This run was terminated on:  22:58:34  11Oct2021

   JOB DONE.