     Program PWSCF v.6.7GPU starts on 16Sep2021 at  1:39:19

     R & G space division:  proc/nbgrp/npool/nimage =      10
     Reading input from /storage/home/hcoda1/3/ntian30/research/carbon/CxH_vib/H2O_calc/ads_slab/CH2OHH2O_a/out_0032/pw.inp
Warning: card &CELL ignored
Warning: card   CELL_DYNAMICS='IPI', ignored
Warning: card / ignored

     Current dimensions of program PWSCF are:
     Max number of different atomic species (ntypx) = 10
     Max number of k-points (npk) =  40000
     Max angular momentum in pseudopotentials (lmaxx) =  3
     Presently no symmetry can be used with electric field

     Message from routine cell_base_init:
     DEPRECATED: use true lattice parameter, not A to a.u. conversion factor

     IMPORTANT: XC functional enforced from input :
     Exchange-correlation= BEEF-VDW
                           (   1   4  43  14   2   0   0)
     Any further DFT definition will be discarded
     Please, verify this is what you really want

  @ DRIVER MODE: Connecting to
 qe_1139763_2852615.sched-torque.pace.gatech.edu7uzn_4_2_scratch
  using UNIX socket
  @ DRIVER MODE: Message from server: STATUS
  @ DRIVER MODE: Message from server: INIT
  @ DRIVER MODE: Receiving replica           0          -1
  @ DRIVER MODE: Receiving encoded integer          25
  @ DRIVER MODE:  SCF:  T  FORCE:  T  STRESS:  F  VC:  F  ENSEMBLE:  F
  @ DRIVER MODE:  SCF:  T  FORCE:  T  STRESS:  F  VC:  F  ENSEMBLE:  F

     Using Slab Decomposition

     bravais-lattice index     =            0
     lattice parameter (alat)  =       1.8897  a.u.
     unit-cell volume          =    6658.9804 (a.u.)^3
     number of atoms/cell      =           55
     number of atomic types    =            4
     number of electrons       =       399.00
     number of Kohn-Sham states=          209
     kinetic-energy cutoff     =      29.3995  Ry
     charge density cutoff     =     293.9946  Ry
     scf convergence threshold =      7.3E-08
     mixing beta               =       0.0500
     number of iterations used =            8  plain     mixing
     Exchange-correlation= BEEF-VDW
                           (   1   4  43  14   2   0   0)

     celldm(1)=   1.889726  celldm(2)=   0.000000  celldm(3)=   0.000000
     celldm(4)=   0.000000  celldm(5)=   0.000000  celldm(6)=   0.000000

     crystal axes: (cart. coord. in units of alat)
               a(1) = (   6.579727   0.000000   0.000000 )
               a(2) = (  -0.000775   5.961596   0.000000 )
               a(3) = (   0.000000   0.000000  25.155947 )

     reciprocal axes: (cart. coord. in units 2 pi/alat)
               b(1) = (  0.151982  0.000020  0.000000 )
               b(2) = (  0.000000  0.167740  0.000000 )
               b(3) = (  0.000000  0.000000  0.039752 )

     PseudoPot. # 1 for Ti read from file:
     /storage/coda1/p-amedford6/0/shared/rich_project_chbe-medford/medford-share/data/pseudos_module/espresso/nninc/pbe/van/Ti.UPF
     MD5 check sum: 8e4df49b7f0d34bbd5052bf3f5ea0213
     Pseudo is Ultrasoft, Zval = 12.0
     Generated by new atomic code, or converted to UPF format
     Using radial grid of  851 points,  6 beta functions with:
                l(1) =   0
                l(2) =   0
                l(3) =   1
                l(4) =   1
                l(5) =   2
                l(6) =   2
     Q(r) pseudized with  8 coefficients,  rinner =    1.000   1.000   1.000
                                                       1.000   1.000

     PseudoPot. # 2 for O  read from file:
     /storage/coda1/p-amedford6/0/shared/rich_project_chbe-medford/medford-share/data/pseudos_module/espresso/nninc/pbe/van/O.UPF
     MD5 check sum: 78c19812648e8988a0fe644b0f25305e
     Pseudo is Ultrasoft, Zval =  6.0
     Generated by new atomic code, or converted to UPF format
     Using radial grid of  737 points,  4 beta functions with:
                l(1) =   0
                l(2) =   0
                l(3) =   1
                l(4) =   1
     Q(r) pseudized with  8 coefficients,  rinner =    0.800   0.800   0.800

     PseudoPot. # 3 for C  read from file:
     /storage/coda1/p-amedford6/0/shared/rich_project_chbe-medford/medford-share/data/pseudos_module/espresso/nninc/pbe/van/C.UPF
     MD5 check sum: 1a69bf6b8db32088f5b2163dbdb77a27
     Pseudo is Ultrasoft, Zval =  4.0
     Generated by new atomic code, or converted to UPF format
     Using radial grid of  721 points,  4 beta functions with:
                l(1) =   0
                l(2) =   0
                l(3) =   1
                l(4) =   1
     Q(r) pseudized with  8 coefficients,  rinner =    0.800   0.800   0.800

     PseudoPot. # 4 for H  read from file:
     /storage/coda1/p-amedford6/0/shared/rich_project_chbe-medford/medford-share/data/pseudos_module/espresso/nninc/pbe/van/H.UPF
     MD5 check sum: b5ee9d7bfd3a09ee7748110bda690ff7
     Pseudo is Ultrasoft, Zval =  1.0
     Generated by new atomic code, or converted to UPF format
     Using radial grid of  615 points,  1 beta functions with:
                l(1) =   0
     Q(r) pseudized with  8 coefficients,  rinner =    0.800

     atomic species   valence    mass     pseudopotential
        Ti1           12.00    47.86700     Ti( 1.00)
        O1             6.00    15.99900     O ( 1.00)
        C1             4.00    12.01100     C ( 1.00)
        H1             1.00     1.00800     H ( 1.00)

     No symmetry found

   Cartesian axes

     site n.     atom                  positions (alat units)
         1           Ti1 tau(   1) = (   0.0004258   2.9801865   6.0000000  )
         2           Ti1 tau(   2) = (   3.2906075   1.4906267   6.0002472  )
         3           O1  tau(   3) = (   0.0006271   0.0005054   7.9858123  )
         4           O1  tau(   4) = (   3.2906025   0.0005020   7.3038282  )
         5           O1  tau(   5) = (   4.5942328   1.4918067   9.2879030  )
         6           O1  tau(   6) = (   1.9868534   1.4903216   9.2879459  )
         7           Ti1 tau(   7) = (   3.2434587   3.0186650   9.1693953  )
         8           Ti1 tau(   8) = (   6.5248695   1.5265067   9.2859949  )
         9           O1  tau(   9) = (   3.3238096   0.0077392  11.3399147  )
        10           O1  tau(  10) = (   0.0083103   0.0007143  10.5763085  )
        11           O1  tau(  11) = (   1.3076427   1.5153157  12.5877682  )
        12           O1  tau(  12) = (   5.3324098   1.4751673  12.6362968  )
        13           Ti1 tau(  13) = (   0.0822926   2.9518924  12.6100891  )
        14           Ti1 tau(  14) = (   3.3652580   1.6116561  12.6031695  )
        15           O1  tau(  15) = (   0.1623142   0.0003102  14.6136642  )
        16           O1  tau(  16) = (   3.2083997   0.0016335  13.9229753  )
        17           O1  tau(  17) = (   4.6427586   1.3635169  15.8692112  )
        18           O1  tau(  18) = (   2.0707938   1.5934636  16.1317492  )
        19           Ti1 tau(  19) = (   3.4055461   2.9583945  15.9219660  )
        20           Ti1 tau(  20) = (   0.0529163   1.3399360  15.9091509  )
        21           O1  tau(  21) = (   3.2904802   0.0005063   4.7018136  )
        22           O1  tau(  22) = (   0.1143047   5.9459637  17.1421970  )
        23           O1  tau(  23) = (   1.3043587   1.4918075   6.0039043  )
        24           O1  tau(  24) = (   5.2767064   1.4903225   6.0039473  )
        25           Ti1 tau(  25) = (   0.0000382   5.9609847   6.0000000  )
        26           Ti1 tau(  26) = (   3.2902200   4.4714249   6.0002472  )
        27           O1  tau(  27) = (   0.0002396   2.9813036   7.9858123  )
        28           O1  tau(  28) = (   3.2902150   2.9813002   7.3038282  )
        29           O1  tau(  29) = (   4.5938453   4.4726049   9.2879030  )
        30           O1  tau(  30) = (   1.9864658   4.4711199   9.2879459  )
        31           Ti1 tau(  31) = (   3.2519499   0.0415563   9.1803751  )
        32           Ti1 tau(  32) = (   6.5223785   4.4699269   9.2708698  )
        33           O1  tau(  33) = (   3.3249262   3.0006027  11.3427062  )
        34           O1  tau(  34) = (   6.5728067   2.9803724  10.5910131  )
        35           O1  tau(  35) = (   1.3048910   4.4590737  12.5876729  )
        36           O1  tau(  36) = (   5.3248012   4.5079456  12.6396186  )
        37           Ti1 tau(  37) = (   0.0305998   5.9348532  12.4502240  )
        38           Ti1 tau(  38) = (   3.3518916   4.5407868  12.4757475  )
        39           O1  tau(  39) = (   0.0741357   2.9755951  14.7167286  )
        40           O1  tau(  40) = (   3.3703583   2.9475192  13.9294239  )
        41           O1  tau(  41) = (   4.6408928   4.5782690  15.8216857  )
        42           O1  tau(  42) = (   2.0743197   4.3710070  16.0958311  )
        43           Ti1 tau(  43) = (   3.3271525   5.9323444  15.7323421  )
        44           Ti1 tau(  44) = (   0.0603002   4.5335970  15.7939964  )
        45           O1  tau(  45) = (   3.2900926   2.9813045   4.7018136  )
        46           O1  tau(  46) = (   1.3039711   4.4726057   6.0039043  )
        47           O1  tau(  47) = (   5.2763189   4.4711207   6.0039473  )
        48           C1  tau(  48) = (   4.5917920   3.0228413  17.9030398  )
        49           O1  tau(  49) = (   6.0625861   3.0006587  17.4562122  )
        50           H1  tau(  50) = (   0.0503952   3.1075262  18.2373115  )
        51           H1  tau(  51) = (   4.5265887   2.1706275  18.5876854  )
        52           H1  tau(  52) = (   4.4781653   3.9549082  18.4551422  )
        53           O1  tau(  53) = (   2.8759371   5.8926936  18.2031264  )
        54           H1  tau(  54) = (   3.0528466   0.8172038  18.5446680  )
        55           H1  tau(  55) = (   1.8959954   5.8777970  18.0521013  )

     number of k points=    10  Fermi-Dirac smearing, width (Ry)=  0.0073
                       cart. coord. in units 2pi/alat
        k(    1) = (   0.0000000   0.0000000   0.0000000), wk =   0.1250000
        k(    2) = (   0.0000000   0.0419351   0.0000000), wk =   0.2500000
        k(    3) = (   0.0000000  -0.0838702   0.0000000), wk =   0.1250000
        k(    4) = (   0.0379955   0.0000049   0.0000000), wk =   0.2500000
        k(    5) = (   0.0379955   0.0419400   0.0000000), wk =   0.2500000
        k(    6) = (   0.0379955  -0.0838652   0.0000000), wk =   0.2500000
        k(    7) = (   0.0379955  -0.0419301   0.0000000), wk =   0.2500000
        k(    8) = (  -0.0759910  -0.0000099   0.0000000), wk =   0.1250000
        k(    9) = (  -0.0759910   0.0419252   0.0000000), wk =   0.2500000
        k(   10) = (  -0.0759910  -0.0838800   0.0000000), wk =   0.1250000

     Initial potential from superposition of free atoms

     starting charge  382.99916, renormalised to  399.00000

     negative rho (up, down):  1.857E-02 0.000E+00

     %%%%%%%%%%%%%%%%%%%%%%%%%%%%%%%%%%%%%%%%%%%%%%%%%%%%%%%%%%%%%%%%%%%%%%%%
     %                                                                      %
     % You are using vdW-DF, which was implemented by the Thonhauser group. %
     % Please cite the following two papers that made this development      %
     % possible and the two reviews that describe the various versions:     %
     %                                                                      %
     %   T. Thonhauser et al., PRL 115, 136402 (2015).                      %
     %   T. Thonhauser et al., PRB 76, 125112 (2007).                       %
     %   K. Berland et al., Rep. Prog. Phys. 78, 066501 (2015).             %
     %   D.C. Langreth et al., J. Phys.: Condens. Matter 21, 084203 (2009). %
     %                                                                      %
     %                                                                      %
     % If you are calculating the stress with vdW-DF, please also cite:     %
     %                                                                      %
     %   R. Sabatini et al., J. Phys.: Condens. Matter 24, 424209 (2012).   %
     %                                                                      %
     %%%%%%%%%%%%%%%%%%%%%%%%%%%%%%%%%%%%%%%%%%%%%%%%%%%%%%%%%%%%%%%%%%%%%%%%

     Adding external electric field

     Computed dipole along edir(3) :
        Dipole               -9.7304 Ry au,        -24.7321 Debye
        Dipole field         -0.0184 Ry au,

        Potential amp.        1.7022 Ry
        Total length         46.3494 bohr

     Starting wfcs are  301 atomic wfcs
  @ DRIVER MODE: Message from server: STATUS
  @ DRIVER MODE: Message from server: POSDATA
  @ DRIVER MODE: Reading and sharing cell
  @ DRIVER MODE: Reading and sharing positions
  @ DRIVER MODE: Received positions

     Self-consistent Calculation

     iteration #  1     ecut=    29.40 Ry     beta= 0.05
     Davidson diagonalization with overlap
     c_bands:  1 eigenvalues not converged
     c_bands:  2 eigenvalues not converged
     c_bands:  3 eigenvalues not converged
     c_bands:  5 eigenvalues not converged
     c_bands:  3 eigenvalues not converged
     c_bands:  2 eigenvalues not converged
     c_bands:  3 eigenvalues not converged
     c_bands:  2 eigenvalues not converged
     ethr =  1.00E-05,  avg # of iterations = 19.8

[...]

     total energy              =   -2478.53641325 Ry
     estimated scf accuracy    <    5415.87080648 Ry

     iteration #  2     ecut=    29.40 Ry     beta= 0.05
     Davidson diagonalization with overlap
     ethr =  1.00E-02,  avg # of iterations = 24.0

[...]

     iteration # 45     ecut=    29.40 Ry     beta= 0.05
     Davidson diagonalization with overlap
     c_bands:  1 eigenvalues not converged
     ethr =  9.92E-09,  avg # of iterations = 12.9

[...]

     total energy              =   -2966.15804565 Ry
     estimated scf accuracy    <       0.00000010 Ry

     iteration # 57     ecut=    29.40 Ry     beta= 0.05
     Davidson diagonalization with overlap
     ethr =  2.49E-11,  avg # of iterations =  6.9

     negative rho (up, down):  1.797E-02 0.000E+00

     Adding external electric field

     Computed dipole along edir(3) :
        Dipole                1.0032 Ry au,          2.5499 Debye
        Dipole field          0.0019 Ry au,

        Potential amp.       -0.1755 Ry
        Total length         46.3494 bohr

     End of self-consistent calculation

          k = 0.0000 0.0000 0.0000 ( 18029 PWs)   bands (ev):

   -55.6895 -55.6530 -55.5825 -55.5737 -55.5177 -55.5147 -55.5091 -55.5063
   -55.4784 -55.4612 -55.4540 -55.4430 -55.4276 -55.3378 -54.6592 -54.6251
   -32.1803 -32.1655 -32.0554 -32.0256 -32.0034 -31.9767 -31.9555 -31.9443
   -31.9307 -31.8717 -31.8438 -31.8367 -31.8334 -31.8246 -31.7975 -31.7875
   -31.7842 -31.7647 -31.7595 -31.7486 -31.7374 -31.7326 -31.6984 -31.6931
   -31.6905 -31.6837 -31.6783 -31.6704 -31.6653 -31.6605 -31.6529 -31.6361
   -31.6322 -31.6307 -31.6244 -31.6212 -31.6128 -31.6124 -31.5870 -31.5643
   -31.5524 -31.4243 -31.0661 -30.9777 -30.9552 -30.8830 -30.7966 -30.6853
   -19.3882 -18.7119 -16.3749 -16.1782 -15.9733 -15.8599 -15.8401 -15.6590
   -15.5350 -15.3889 -15.3371 -15.3070 -15.2866 -15.2173 -15.2105 -15.1955
   -15.1604 -15.1554 -15.1189 -15.0993 -15.0933 -15.0654 -15.0140 -14.9925
   -14.9426 -14.8827 -14.8140 -14.7938 -14.7848 -14.7097 -14.6191 -13.1597
   -13.0431  -9.4302  -6.4468  -6.2708  -4.0731  -3.8411  -3.6865  -3.6444
    -3.6120  -3.5758  -3.4155  -3.3044  -3.1272  -3.0279  -2.9534  -2.9048
    -2.8661  -2.7902  -2.7472  -2.6225  -2.5994  -2.5493  -2.5163  -2.4811
    -2.4726  -2.4521  -2.4075  -2.3898  -2.3744  -2.2177  -2.2067  -2.1743
    -2.1087  -2.0774  -2.0502  -2.0131  -1.9914  -1.9643  -1.9460  -1.8995
    -1.8812  -1.8093  -1.8008  -1.7584  -1.6907  -1.6577  -1.3931  -1.3146
    -1.2956  -1.2568  -1.1933  -1.0966  -1.0929  -1.0863  -1.0858  -1.0287
    -1.0085  -0.8632  -0.8488  -0.8340  -0.7542  -0.6753  -0.5961  -0.5593
    -0.4941  -0.4441  -0.4119  -0.3836  -0.3577  -0.3009  -0.2336  -0.2109
    -0.1400  -0.0663  -0.0334   0.0192   0.0453   0.0898   0.1203   0.1967
     0.2354   0.2694   0.2974   0.3153   0.3250   0.3688   0.3888   0.4781
     0.5554   0.5832   0.5901   0.6642   0.7905   0.8730   0.9851   1.0766
     1.2991   1.3652   1.4166   1.5500   1.5569   1.9370   1.9875   3.4518
     3.5209   3.5803   3.5809   3.6157   3.6962   3.8992   3.9464   4.0037
     4.0374

[...]

          k = 0.0380-0.0419 0.0000 ( 17876 PWs)   bands (ev):

[...]

          k =-0.0760-0.0000 0.0000 ( 17886 PWs)   bands (ev):

[...]

          k =-0.0760-0.0839 0.0000 ( 17948 PWs)   bands (ev):

   -55.6777 -55.6646 -55.5772 -55.5690 -55.5223 -55.5132 -55.5115 -55.5027
   -55.4633 -55.4601 -55.4574 -55.4463 -55.4428 -55.3393 -54.6421 -54.6421
   -32.0992 -31.9869 -31.9761 -31.9742 -31.9521 -31.9015 -31.8748 -31.8542
   -31.8466 -31.8421 -31.8382 -31.8159 -31.8148 -31.8002 -31.7986 -31.7892
   -31.7882 -31.7800 -31.7787 -31.7753 -31.7725 -31.7631 -31.7413 -31.7356
   -31.7299 -31.7184 -31.7111 -31.7050 -31.7021 -31.6877 -31.6735 -31.6659
   -31.6653 -31.6627 -31.6608 -31.6544 -31.6530 -31.6510 -31.6490 -31.6465
   -31.6285 -31.4265 -30.9680 -30.9679 -30.8794 -30.8786 -30.8399 -30.8395
   -19.3817 -18.7107 -15.9933 -15.6535 -15.6411 -15.6360 -15.6051 -15.4837
   -15.4596 -15.4373 -15.3916 -15.3617 -15.3558 -15.3326 -15.2888 -15.2319
   -15.2128 -15.2050 -15.1953 -15.1429 -15.1286 -15.1178 -15.0720 -15.0315
   -15.0290 -15.0052 -14.9790 -14.9736 -14.9731 -14.9454 -14.8802 -13.1464
   -13.1433  -9.4366  -6.4491  -6.2477  -4.0313  -3.7272  -3.1624  -3.0483
    -2.8717  -2.8528  -2.7991  -2.7765  -2.7233  -2.6544  -2.6261  -2.6145
    -2.6128  -2.5788  -2.5161  -2.4821  -2.4782  -2.4386  -2.4207  -2.4129
    -2.3925  -2.3677  -2.3425  -2.3238  -2.3177  -2.2821  -2.2694  -2.2544
    -2.2487  -2.2372  -2.2186  -2.1775  -2.0707  -1.9478  -1.9143  -1.8793
    -1.8391  -1.7804  -1.7741  -1.7604  -1.7258  -1.7250  -1.7088  -1.6309
    -1.4658  -1.4017  -1.3431  -1.3209  -1.2486  -1.2353  -1.2198  -1.1751
    -1.1354  -1.0872  -1.0425  -1.0211  -0.9651  -0.9210  -0.7918  -0.7380
    -0.6537  -0.6486  -0.6261  -0.6108  -0.5569  -0.5323  -0.5073  -0.4630
    -0.4281  -0.3842  -0.3516  -0.3427  -0.3210  -0.2599  -0.1598  -0.1111
    -0.0488  -0.0427   0.0393   0.1693   0.3547   0.3852   0.4433   0.4944
     0.5833   0.6061   0.6550   0.6748   0.7321   0.7595   0.8008   0.8610
     0.9217   0.9498   1.5157   1.7286   1.7350   1.7982   1.8076   3.7432
     3.8308   3.9234   3.9373   3.9715   3.9838   3.9894   4.0190   4.0755
     4.1178

     the Fermi energy is     3.4493 ev

!    total energy              =   -2966.15811177 Ry
     estimated scf accuracy    <       0.00000006 Ry
     smearing contrib. (-TS)   =      -0.02139663 Ry
     internal energy E=F+TS    =   -2966.13671514 Ry

     The total energy is F=E-TS. E is the sum of the following terms:
     one-electron contribution =  -24755.55649764 Ry
     hartree contribution      =   12470.29431187 Ry
     xc contribution           =    -490.95266098 Ry
     ewald contribution        =    9810.07623233 Ry
     electric field correction =       0.00189928 Ry

     convergence has been achieved in  57 iterations

     Forces acting on atoms (cartesian axes, Ry/au):

     atom    1 type  1   force =     0.00074795   -0.00017533    0.09533916
     atom    2 type  1   force =     0.00024293   -0.00220815   -0.17568988
     atom    3 type  2   force =    -0.00066131   -0.00040967   -0.03008081
     atom    4 type  2   force =    -0.00084913    0.00063606    0.05234996
     atom    5 type  2   force =    -0.01386493   -0.00100121    0.00146130
     atom    6 type  2   force =     0.01582781    0.00240862    0.00318386
     atom    7 type  1   force =     0.00033860    0.00038509   -0.00028378
     atom    8 type  1   force =    -0.00036877    0.00140202    0.00065400
     atom    9 type  2   force =     0.00011391   -0.00002895    0.00023604
     atom   10 type  2   force =     0.00017567    0.00017275   -0.00058500
     atom   11 type  2   force =    -0.00024761    0.00025526    0.00018130
     atom   12 type  2   force =    -0.00036792    0.00009328    0.00007092
     atom   13 type  1   force =     0.00022161   -0.00018147   -0.00062047
     atom   14 type  1   force =    -0.00101020   -0.00000160    0.00030567
     atom   15 type  2   force =     0.00006805   -0.00109883   -0.00010043
     atom   16 type  2   force =    -0.00001568   -0.00005979   -0.00029559
     atom   17 type  2   force =    -0.00026893   -0.00026646   -0.00025620
     atom   18 type  2   force =     0.00030046   -0.00040854    0.00018877
     atom   19 type  1   force =     0.00016126    0.00028191    0.00022591
     atom   20 type  1   force =     0.00014490    0.00108360    0.00017826
     atom   21 type  2   force =     0.00014972    0.00019949    0.10303617
     atom   22 type  2   force =     0.00064810   -0.00116618    0.00062189
     atom   23 type  2   force =    -0.07130527    0.00094110   -0.02830113
     atom   24 type  2   force =     0.07136058    0.00133697   -0.02833831
     atom   25 type  1   force =     0.00022640    0.00038185    0.10642057
     atom   26 type  1   force =     0.00000444    0.00253015   -0.17558653
     atom   27 type  2   force =    -0.00037654    0.00013315   -0.02786201
     atom   28 type  2   force =    -0.00096300    0.00076168    0.05165783
     atom   29 type  2   force =    -0.01301466   -0.00123191    0.00106704
     atom   30 type  2   force =     0.01547035    0.00037075    0.00294727
     atom   31 type  1   force =     0.00052032    0.00002657   -0.00001724
     atom   32 type  1   force =    -0.00042445   -0.00140685    0.00017711
     atom   33 type  2   force =    -0.00016787   -0.00031543    0.00020232
     atom   34 type  2   force =     0.00001298    0.00010532   -0.00015292
     atom   35 type  2   force =    -0.00062916   -0.00019840    0.00065635
     atom   36 type  2   force =     0.00004076   -0.00037309    0.00023333
     atom   37 type  1   force =     0.00059662    0.00029143    0.00052601
     atom   38 type  1   force =    -0.00092040    0.00016912    0.00047963
     atom   39 type  2   force =    -0.00014162    0.00065446    0.00028815
     atom   40 type  2   force =    -0.00003056   -0.00052533   -0.00070440
     atom   41 type  2   force =     0.00124558   -0.00008951   -0.00015674
     atom   42 type  2   force =    -0.00089645   -0.00006140    0.00027964
     atom   43 type  1   force =     0.00043079   -0.00092017    0.00023749
     atom   44 type  1   force =    -0.00043232    0.00014942   -0.00024464
     atom   45 type  2   force =     0.00012311    0.00015558    0.10330552
     atom   46 type  2   force =    -0.07122885   -0.00126025   -0.02829818
     atom   47 type  2   force =     0.07130213   -0.00086356   -0.02833587
     atom   48 type  3   force =    -0.00078872   -0.00011646    0.00005695
     atom   49 type  2   force =     0.00059830   -0.00006630   -0.00015471
     atom   50 type  4   force =    -0.00002173   -0.00040293   -0.00016507
     atom   51 type  4   force =    -0.00067817   -0.00009220    0.00005454
     atom   52 type  4   force =    -0.00032504   -0.00003665   -0.00040700
     atom   53 type  2   force =    -0.01720184   -0.00331602   -0.00300365
     atom   54 type  4   force =     0.00192651    0.00425273    0.00156646
     atom   55 type  4   force =     0.01420127   -0.00089571    0.00145117

     Total force =     0.368108     Total SCF correction =     0.000556
  @ DRIVER MODE: Message from server: STATUS
  @ DRIVER MODE: Message from server: GETFORCE
  @ DRIVER MODE: Returning v,forces,stress,ensemble

     Writing output data file ./calc.save/
  @ DRIVER MODE: Message from server: EXIT
  @ DRIVE MODE: Exiting

     General routines

     Parallel routines

   This run was terminated on:   1:55:37  16Sep2021

   JOB DONE.