     Program PWSCF v.6.7GPU starts on  9Sep2021 at  1:14: 6

     R & G space division:  proc/nbgrp/npool/nimage =      10
     Reading input from /storage/home/hcoda1/3/ntian30/research/carbon/CxH_vib/CH_calc/ads_slab/CHO_a/out_0012/pw.inp
Warning: card &CELL ignored
Warning: card   CELL_DYNAMICS='IPI', ignored
Warning: card / ignored

     Current dimensions of program PWSCF are:
     Max number of different atomic species (ntypx) = 10
     Max number of k-points (npk) =  40000
     Max angular momentum in pseudopotentials (lmaxx) =  3
     Presently no symmetry can be used with electric field

     Message from routine cell_base_init:
     DEPRECATED: use true lattice parameter, not A to a.u. conversion factor

     IMPORTANT: XC functional enforced from input :
     Exchange-correlation= BEEF-VDW
                           (   1   4  43  14   2   0   0)
     Any further DFT definition will be discarded
     Please, verify this is what you really want

  @ DRIVER MODE: Connecting to
 qe_1139763_2767379.sched-torque.pace.gatech.edu7mkekzaj_scratch
  using UNIX socket
  @ DRIVER MODE: Message from server: STATUS
  @ DRIVER MODE: Message from server: INIT
  @ DRIVER MODE: Receiving replica           0          -1
  @ DRIVER MODE: Receiving encoded integer          25
  @ DRIVER MODE:  SCF:  T  FORCE:  T  STRESS:  F  VC:  F  ENSEMBLE:  F
  @ DRIVER MODE:  SCF:  T  FORCE:  T  STRESS:  F  VC:  F  ENSEMBLE:  F

     Using Slab Decomposition

     bravais-lattice index     =            0
     lattice parameter (alat)  =       1.8897  a.u.
     unit-cell volume          =    6658.9804 (a.u.)^3
     number of atoms/cell      =           50
     number of atomic types    =            4
     number of electrons       =       389.00
     number of Kohn-Sham states=          204
     kinetic-energy cutoff     =      29.3995  Ry
     charge density cutoff     =     293.9946  Ry
     scf convergence threshold =      7.3E-08
     mixing beta               =       0.0500
     number of iterations used =            8  plain     mixing
     Exchange-correlation= BEEF-VDW
                           (   1   4  43  14   2   0   0)

     celldm(1)=   1.889726  celldm(2)=   0.000000  celldm(3)=   0.000000
     celldm(4)=   0.000000  celldm(5)=   0.000000  celldm(6)=   0.000000

     crystal axes: (cart. coord. in units of alat)
               a(1) = (   6.579727   0.000000   0.000000 )
               a(2) = (  -0.000775   5.961596   0.000000 )
               a(3) = (   0.000000   0.000000  25.155947 )

     reciprocal axes: (cart. coord. in units 2 pi/alat)
               b(1) = (  0.151982  0.000020  0.000000 )
               b(2) = (  0.000000  0.167740  0.000000 )
               b(3) = (  0.000000  0.000000  0.039752 )

     PseudoPot. # 1 for O  read from file:
     /storage/coda1/p-amedford6/0/shared/rich_project_chbe-medford/medford-share/data/pseudos_module/espresso/nninc/pbe/van/O.UPF
     MD5 check sum: 78c19812648e8988a0fe644b0f25305e
     Pseudo is Ultrasoft, Zval =  6.0
     Generated by new atomic code, or converted to UPF format
     Using radial grid of  737 points,  4 beta functions with:
                l(1) =   0
                l(2) =   0
                l(3) =   1
                l(4) =   1
     Q(r) pseudized with  8 coefficients,  rinner =    0.800   0.800   0.800

     PseudoPot. # 2 for Ti read from file:
     /storage/coda1/p-amedford6/0/shared/rich_project_chbe-medford/medford-share/data/pseudos_module/espresso/nninc/pbe/van/Ti.UPF
     MD5 check sum: 8e4df49b7f0d34bbd5052bf3f5ea0213
     Pseudo is Ultrasoft, Zval = 12.0
     Generated by new atomic code, or converted to UPF format
     Using radial grid of  851 points,  6 beta functions with:
                l(1) =   0
                l(2) =   0
                l(3) =   1
                l(4) =   1
                l(5) =   2
                l(6) =   2
     Q(r) pseudized with  8 coefficients,  rinner =    1.000   1.000   1.000
                                                       1.000   1.000

     PseudoPot. # 3 for C  read from file:
     /storage/coda1/p-amedford6/0/shared/rich_project_chbe-medford/medford-share/data/pseudos_module/espresso/nninc/pbe/van/C.UPF
     MD5 check sum: 1a69bf6b8db32088f5b2163dbdb77a27
     Pseudo is Ultrasoft, Zval =  4.0
     Generated by new atomic code, or converted to UPF format
     Using radial grid of  721 points,  4 beta functions with:
                l(1) =   0
                l(2) =   0
                l(3) =   1
                l(4) =   1
     Q(r) pseudized with  8 coefficients,  rinner =    0.800   0.800   0.800

     PseudoPot. # 4 for H  read from file:
     /storage/coda1/p-amedford6/0/shared/rich_project_chbe-medford/medford-share/data/pseudos_module/espresso/nninc/pbe/van/H.UPF
     MD5 check sum: b5ee9d7bfd3a09ee7748110bda690ff7
     Pseudo is Ultrasoft, Zval =  1.0
     Generated by new atomic code, or converted to UPF format
     Using radial grid of  615 points,  1 beta functions with:
                l(1) =   0
     Q(r) pseudized with  8 coefficients,  rinner =    0.800

     atomic species   valence    mass     pseudopotential
        O1             6.00    15.99900     O ( 1.00)
        Ti1           12.00    47.86700     Ti( 1.00)
        C1             4.00    12.01100     C ( 1.00)
        H1             1.00     1.00800     H ( 1.00)

     No symmetry found

   Cartesian axes

     site n.     atom                  positions (alat units)
         1           O1  tau(   1) = (   3.2904802   0.0005063   4.7018136  )
         2           O1  tau(   2) = (   3.2900926   2.9813045   4.7018136  )
         3           Ti1 tau(   3) = (   0.0004258   2.9801865   6.0000000  )
         4           Ti1 tau(   4) = (   0.0000382   5.9609847   6.0000000  )
         5           Ti1 tau(   5) = (   3.2906075   1.4906267   6.0002472  )
         6           Ti1 tau(   6) = (   3.2902200   4.4714249   6.0002472  )
         7           O1  tau(   7) = (   1.3043587   1.4918075   6.0039043  )
         8           O1  tau(   8) = (   1.3039711   4.4726057   6.0039043  )
         9           O1  tau(   9) = (   5.2767064   1.4903225   6.0039473  )
        10           O1  tau(  10) = (   5.2763189   4.4711207   6.0039473  )
        11           O1  tau(  11) = (   3.2906025   0.0005020   7.3038282  )
        12           O1  tau(  12) = (   3.2902150   2.9813002   7.3038282  )
        13           O1  tau(  13) = (   0.0006271   0.0005054   7.9858123  )
        14           O1  tau(  14) = (   0.0002396   2.9813036   7.9858123  )
        15           Ti1 tau(  15) = (   3.2969808   0.0564913   9.1534998  )
        16           Ti1 tau(  16) = (   3.3141337   3.0327768   9.1571505  )
        17           Ti1 tau(  17) = (   0.0233175   4.5369896   9.2585411  )
        18           Ti1 tau(  18) = (   0.0198836   1.6172415   9.3624336  )
        19           O1  tau(  19) = (   4.5942328   1.4918067   9.2879030  )
        20           O1  tau(  20) = (   4.5938453   4.4726049   9.2879030  )
        21           O1  tau(  21) = (   1.9868534   1.4903216   9.2879459  )
        22           O1  tau(  22) = (   1.9864658   4.4711199   9.2879459  )
        23           O1  tau(  23) = (   0.0063158   0.0123177  10.6034754  )
        24           O1  tau(  24) = (   0.0044132   2.9941235  10.5786081  )
        25           O1  tau(  25) = (   3.2970120   2.9984392  11.3520126  )
        26           O1  tau(  26) = (   3.2962737   0.0176366  11.3543537  )
        27           Ti1 tau(  27) = (   0.0302790   0.0280999  12.4961607  )
        28           Ti1 tau(  28) = (   3.3312859   4.4933669  12.4927350  )
        29           Ti1 tau(  29) = (   3.3314798   1.5140231  12.4973429  )
        30           Ti1 tau(  30) = (   0.0296678   3.0111287  12.7911082  )
        31           O1  tau(  31) = (   1.2935131   4.4896988  12.6418387  )
        32           O1  tau(  32) = (   1.2923886   1.5080263  12.6414434  )
        33           O1  tau(  33) = (   5.2919490   4.4892252  12.6414299  )
        34           O1  tau(  34) = (   5.2935099   1.5067266  12.6404615  )
        35           O1  tau(  35) = (   3.2972132   2.9952276  13.9333167  )
        36           O1  tau(  36) = (   3.2969292   0.0217920  13.9560627  )
        37           O1  tau(  37) = (   0.0109375   0.0110981  14.6876342  )
        38           O1  tau(  38) = (   0.0109565   3.0062585  14.7134293  )
        39           Ti1 tau(  39) = (   3.3068652   2.9980133  15.7272348  )
        40           Ti1 tau(  40) = (   3.3088638   0.0192678  15.7517854  )
        41           Ti1 tau(  41) = (   0.0288418   4.5446802  15.9499200  )
        42           Ti1 tau(  42) = (   0.0223207   1.3431340  16.0223868  )
        43           O1  tau(  43) = (   4.5495857   4.4747881  16.0802101  )
        44           O1  tau(  44) = (   4.5538725   1.5135375  16.1032510  )
        45           O1  tau(  45) = (   2.0418931   1.5171625  16.1093315  )
        46           O1  tau(  46) = (   2.0408760   4.4691196  16.0910022  )
        47           O1  tau(  47) = (   0.0096378   0.0051088  17.2033978  )
        48           O1  tau(  48) = (   6.5496506   3.0476207  17.4767105  )
        49           C1  tau(  49) = (   6.4067813   3.0303407  18.7470298  )
        50           H1  tau(  50) = (   6.4030715   1.9712591  19.1029599  )

     number of k points=    10  Fermi-Dirac smearing, width (Ry)=  0.0073
                       cart. coord. in units 2pi/alat
        k(    1) = (   0.0000000   0.0000000   0.0000000), wk =   0.1250000
        k(    2) = (   0.0000000   0.0419351   0.0000000), wk =   0.2500000
        k(    3) = (   0.0000000  -0.0838702   0.0000000), wk =   0.1250000
        k(    4) = (   0.0379955   0.0000049   0.0000000), wk =   0.2500000
        k(    5) = (   0.0379955   0.0419400   0.0000000), wk =   0.2500000
        k(    6) = (   0.0379955  -0.0838652   0.0000000), wk =   0.2500000
        k(    7) = (   0.0379955  -0.0419301   0.0000000), wk =   0.2500000
        k(    8) = (  -0.0759910  -0.0000099   0.0000000), wk =   0.1250000
        k(    9) = (  -0.0759910   0.0419252   0.0000000), wk =   0.2500000
        k(   10) = (  -0.0759910  -0.0838800   0.0000000), wk =   0.1250000

     Initial potential from superposition of free atoms

     starting charge  372.99920, renormalised to  389.00000

     negative rho (up, down):  1.924E-02 0.000E+00

     %%%%%%%%%%%%%%%%%%%%%%%%%%%%%%%%%%%%%%%%%%%%%%%%%%%%%%%%%%%%%%%%%%%%%%%%
     %                                                                      %
     % You are using vdW-DF, which was implemented by the Thonhauser group. %
     % Please cite the following two papers that made this development      %
     % possible and the two reviews that describe the various versions:     %
     %                                                                      %
     %   T. Thonhauser et al., PRL 115, 136402 (2015).                      %
     %   T. Thonhauser et al., PRB 76, 125112 (2007).                       %
     %   K. Berland et al., Rep. Prog. Phys. 78, 066501 (2015).             %
     %   D.C. Langreth et al., J. Phys.: Condens. Matter 21, 084203 (2009). %
     %                                                                      %
     %                                                                      %
     % If you are calculating the stress with vdW-DF, please also cite:     %
     %                                                                      %
     %   R. Sabatini et al., J. Phys.: Condens. Matter 24, 424209 (2012).   %
     %                                                                      %
     %%%%%%%%%%%%%%%%%%%%%%%%%%%%%%%%%%%%%%%%%%%%%%%%%%%%%%%%%%%%%%%%%%%%%%%%

     Adding external electric field

     Computed dipole along edir(3) :
        Dipole               -4.4845 Ry au,        -11.3985 Debye
        Dipole field         -0.0085 Ry au,

        Potential amp.        0.7845 Ry
        Total length         46.3494 bohr

     Starting wfcs are  293 atomic wfcs
  @ DRIVER MODE: Message from server: STATUS
  @ DRIVER MODE: Message from server: POSDATA
  @ DRIVER MODE: Reading and sharing cell
  @ DRIVER MODE: Reading and sharing positions
  @ DRIVER MODE: Received positions

     Self-consistent Calculation

     iteration #  1     ecut=    29.40 Ry     beta= 0.05
     Davidson diagonalization with overlap
     c_bands:  5 eigenvalues not converged
     c_bands:  5 eigenvalues not converged
     c_bands:  5 eigenvalues not converged
     c_bands:  3 eigenvalues not converged
     c_bands:  2 eigenvalues not converged
     c_bands:  1 eigenvalues not converged
     c_bands:  3 eigenvalues not converged
     c_bands:  4 eigenvalues not converged
     c_bands:  3 eigenvalues not converged
     c_bands:  1 eigenvalues not converged
     ethr =  1.00E-05,  avg # of iterations = 20.0

[...]

     total energy              =   -2877.17755040 Ry
     estimated scf accuracy    <     593.00293452 Ry

     iteration #  2     ecut=    29.40 Ry     beta= 0.05
     Davidson diagonalization with overlap
     ethr =  1.00E-02,  avg # of iterations = 14.3

[...]

     iteration # 57     ecut=    29.40 Ry     beta= 0.05
     Davidson diagonalization with overlap
     c_bands:  1 eigenvalues not converged
     ethr =  6.61E-11,  avg # of iterations = 13.4

[...]

     total energy              =   -2928.82023130 Ry
     estimated scf accuracy    <       0.00000007 Ry

     iteration # 59     ecut=    29.40 Ry     beta= 0.05
     Davidson diagonalization with overlap
     ethr =  1.91E-11,  avg # of iterations =  2.9

     negative rho (up, down):  1.791E-02 0.000E+00

     Adding external electric field

     Computed dipole along edir(3) :
        Dipole                0.1736 Ry au,          0.4413 Debye
        Dipole field          0.0003 Ry au,

        Potential amp.       -0.0304 Ry
        Total length         46.3494 bohr

     End of self-consistent calculation

          k = 0.0000 0.0000 0.0000 ( 18029 PWs)   bands (ev):

   -56.3126 -56.2998 -56.2760 -56.2636 -56.2102 -56.1991 -56.1663 -56.1453
   -56.1311 -56.0976 -56.0835 -56.0499 -55.9973 -55.9810 -55.3394 -55.3053
   -32.8662 -32.7848 -32.6854 -32.6738 -32.6525 -32.6210 -32.6086 -32.5903
   -32.5623 -32.5463 -32.5440 -32.5174 -32.5142 -32.4810 -32.4713 -32.4600
   -32.4456 -32.4344 -32.4329 -32.4066 -32.3850 -32.3779 -32.3759 -32.3660
   -32.3496 -32.3423 -32.3382 -32.3357 -32.3188 -32.3142 -32.3089 -32.3050
   -32.2663 -32.2569 -32.2300 -32.2274 -32.2133 -32.2047 -32.1885 -32.1707
   -32.1685 -32.1670 -31.7496 -31.6516 -31.6294 -31.5662 -31.4801 -31.3690
   -19.7368 -17.0706 -16.7856 -16.6304 -16.5037 -16.4565 -16.3239 -16.1826
   -16.0904 -16.0138 -15.9650 -15.9261 -15.8934 -15.8858 -15.8638 -15.8455
   -15.8418 -15.8345 -15.7643 -15.7602 -15.7273 -15.7108 -15.7077 -15.6109
   -15.5436 -15.4862 -15.4424 -15.3674 -15.3318 -15.2550 -13.8403 -13.7219
    -8.2435  -4.9922  -4.4195  -4.2504  -4.2143  -4.2115  -4.1396  -3.9210
    -3.8670  -3.6131  -3.6050  -3.4936  -3.4731  -3.4610  -3.4054  -3.3584
    -3.2743  -3.1531  -3.1490  -3.1400  -3.1304  -3.1170  -3.0769  -3.0558
    -3.0543  -3.0134  -2.9081  -2.8249  -2.8114  -2.7345  -2.7080  -2.6870
    -2.6282  -2.6226  -2.5886  -2.5656  -2.5586  -2.5369  -2.4913  -2.4660
    -2.3869  -2.2886  -2.1670  -2.1113  -2.0306  -1.9834  -1.8583  -1.8058
    -1.7498  -1.7256  -1.6776  -1.6481  -1.6063  -1.5765  -1.5401  -1.4694
    -1.3516  -1.3466  -1.2509  -1.1737  -1.1386  -1.1051  -1.0628  -1.0486
    -1.0404  -0.9292  -0.8039  -0.7956  -0.7858  -0.6938  -0.6539  -0.6365
    -0.5530  -0.5475  -0.5095  -0.4869  -0.4594  -0.3843  -0.3752  -0.3286
    -0.3117  -0.2847  -0.1699  -0.1199  -0.1072  -0.0675  -0.0256   0.1662
     0.1750   0.3155   0.3956   0.5862   0.6850   0.7406   0.8539   1.2729
     1.3312   2.6075   2.8619   2.8892   2.9199   2.9601   3.0009   3.1120
     3.2220   3.3012   3.3174   3.3497

[...]

          k = 0.0380-0.0419 0.0000 ( 17876 PWs)   bands (ev):

[...]

          k =-0.0760-0.0000 0.0000 ( 17886 PWs)   bands (ev):

[...]

          k =-0.0760-0.0839 0.0000 ( 17948 PWs)   bands (ev):

   -56.3011 -56.2874 -56.2825 -56.2806 -56.2052 -56.1850 -56.1804 -56.1500
   -56.1290 -56.0945 -56.0690 -56.0647 -55.9995 -55.9835 -55.3230 -55.3217
   -32.6702 -32.6667 -32.6085 -32.6025 -32.5950 -32.5933 -32.5894 -32.5728
   -32.5653 -32.5182 -32.5169 -32.5077 -32.5026 -32.4751 -32.4471 -32.4439
   -32.4307 -32.4287 -32.4255 -32.4168 -32.4164 -32.4035 -32.3926 -32.3906
   -32.3886 -32.3848 -32.3793 -32.3565 -32.3485 -32.3330 -32.3222 -32.3215
   -32.3213 -32.2975 -32.2778 -32.2737 -32.2712 -32.2635 -32.2221 -32.2169
   -32.2118 -32.1777 -31.6428 -31.6412 -31.5631 -31.5620 -31.5238 -31.5227
   -19.7285 -16.4983 -16.4680 -16.3608 -16.2415 -16.2285 -16.1985 -16.1544
   -16.0981 -16.0478 -16.0425 -15.9903 -15.9707 -15.9666 -15.9267 -15.8922
   -15.8464 -15.8383 -15.8324 -15.8262 -15.7774 -15.7727 -15.7326 -15.7035
   -15.6974 -15.6604 -15.6585 -15.5799 -15.5056 -15.4575 -13.8245 -13.8218
    -8.2431  -4.9394  -3.7891  -3.7488  -3.6126  -3.5812  -3.4595  -3.4498
    -3.4045  -3.3365  -3.2832  -3.2305  -3.2001  -3.1765  -3.1625  -3.1460
    -3.1359  -3.1243  -3.1127  -3.0609  -3.0531  -3.0133  -2.9967  -2.9661
    -2.9512  -2.9451  -2.9140  -2.8917  -2.8805  -2.8734  -2.8695  -2.8575
    -2.7393  -2.6528  -2.6358  -2.5703  -2.5146  -2.4648  -2.4460  -2.4277
    -2.3929  -2.3774  -2.3615  -2.2171  -2.1912  -2.0584  -2.0461  -2.0277
    -2.0051  -1.9182  -1.8788  -1.7722  -1.7595  -1.7541  -1.6605  -1.6310
    -1.5680  -1.5552  -1.4786  -1.4350  -1.4131  -1.3374  -1.2884  -1.2764
    -1.2224  -1.2050  -1.1193  -1.0787  -1.0733  -1.0447  -1.0000  -0.9707
    -0.8905  -0.8724  -0.8533  -0.7585  -0.6932  -0.6645  -0.4865  -0.3228
    -0.3170  -0.2774  -0.1879  -0.1323  -0.0880  -0.0382  -0.0354   0.0418
     0.0957   0.1877   0.2052   0.2112   0.2862   1.0435   1.0448   1.1359
     1.1470   2.5217   3.0413   3.0828   3.1098   3.1759   3.3057   3.3284
     3.3423   3.3515   3.3675   3.4740

     the Fermi energy is     2.8381 ev

!    total energy              =   -2928.82027506 Ry
     estimated scf accuracy    <       0.00000006 Ry
     smearing contrib. (-TS)   =      -0.02889748 Ry
     internal energy E=F+TS    =   -2928.79137758 Ry

     The total energy is F=E-TS. E is the sum of the following terms:
     one-electron contribution =  -24715.74585411 Ry
     hartree contribution      =   12437.73036554 Ry
     xc contribution           =    -480.33037035 Ry
     ewald contribution        =    9829.55442446 Ry
     electric field correction =       0.00005688 Ry

     convergence has been achieved in  59 iterations

     Forces acting on atoms (cartesian axes, Ry/au):

     atom    1 type  1   force =    -0.00008972    0.00005599    0.10419525
     atom    2 type  1   force =    -0.00008860    0.00006724    0.10431654
     atom    3 type  2   force =    -0.00023639   -0.00191264    0.10279183
     atom    4 type  2   force =    -0.00013095    0.00162065    0.11444354
     atom    5 type  2   force =    -0.00027947    0.00045282   -0.18034821
     atom    6 type  2   force =    -0.00018785   -0.00001771   -0.18071976
     atom    7 type  1   force =    -0.06891823    0.00069108   -0.02916546
     atom    8 type  1   force =    -0.06847725   -0.00126060   -0.02921640
     atom    9 type  1   force =     0.06855623    0.00119202   -0.02922964
     atom   10 type  1   force =     0.06819313   -0.00088192   -0.02929998
     atom   11 type  1   force =     0.00017988    0.00061715    0.04601305
     atom   12 type  1   force =     0.00045169    0.00080962    0.04735475
     atom   13 type  1   force =     0.00022561   -0.00581498   -0.03325472
     atom   14 type  1   force =     0.00032539    0.00433829   -0.02636771
     atom   15 type  2   force =     0.00024936   -0.00054750   -0.00007373
     atom   16 type  2   force =     0.00041455    0.00039128    0.00030898
     atom   17 type  2   force =    -0.00027761   -0.00072245   -0.00078504
     atom   18 type  2   force =    -0.00040964   -0.00092503   -0.00124054
     atom   19 type  1   force =    -0.01835786    0.00018706    0.00432546
     atom   20 type  1   force =    -0.01687220    0.00156594    0.00359068
     atom   21 type  1   force =     0.01895261   -0.00060103    0.00445209
     atom   22 type  1   force =     0.01761159    0.00156050    0.00358064
     atom   23 type  1   force =     0.00001741    0.00013165   -0.00077593
     atom   24 type  1   force =     0.00004690    0.00025879    0.00093591
     atom   25 type  1   force =     0.00000174   -0.00008677   -0.00003931
     atom   26 type  1   force =    -0.00006780   -0.00024853   -0.00057490
     atom   27 type  2   force =    -0.00006688    0.00037445    0.00149662
     atom   28 type  2   force =    -0.00006484   -0.00028450    0.00079548
     atom   29 type  2   force =     0.00005215    0.00017707    0.00052272
     atom   30 type  2   force =    -0.00000247   -0.00033144    0.00145916
     atom   31 type  1   force =    -0.00004729   -0.00042251    0.00000586
     atom   32 type  1   force =     0.00000091    0.00015643    0.00010413
     atom   33 type  1   force =     0.00017623   -0.00038973   -0.00010799
     atom   34 type  1   force =     0.00006833    0.00010468    0.00000936
     atom   35 type  1   force =    -0.00018394   -0.00013368   -0.00036989
     atom   36 type  1   force =    -0.00018900   -0.00063969    0.00066062
     atom   37 type  1   force =     0.00018534   -0.00081741    0.00071192
     atom   38 type  1   force =    -0.00018091    0.00034955   -0.00137229
     atom   39 type  2   force =    -0.00004347   -0.00026198    0.00070686
     atom   40 type  2   force =     0.00023810   -0.00037386   -0.00017237
     atom   41 type  2   force =    -0.00025069   -0.00058893    0.00235849
     atom   42 type  2   force =    -0.00007715    0.00145016    0.00128105
     atom   43 type  1   force =     0.00053366   -0.00000484   -0.00007583
     atom   44 type  1   force =    -0.00075958   -0.00012100   -0.00076793
     atom   45 type  1   force =     0.00016040   -0.00003877   -0.00053236
     atom   46 type  1   force =    -0.00105427    0.00016424   -0.00001574
     atom   47 type  1   force =    -0.00009263   -0.00017379   -0.00029020
     atom   48 type  1   force =    -0.00212397    0.00035140    0.01527743
     atom   49 type  3   force =     0.00295343    0.00272083   -0.01851269
     atom   50 type  4   force =    -0.00006398   -0.00218759    0.00161018

     Total force =     0.375519     Total SCF correction =     0.000611
  @ DRIVER MODE: Message from server: STATUS
  @ DRIVER MODE: Message from server: GETFORCE
  @ DRIVER MODE: Returning v,forces,stress,ensemble

     Writing output data file ./calc.save/
  @ DRIVER MODE: Message from server: EXIT
  @ DRIVE MODE: Exiting

     General routines

     Parallel routines

   This run was terminated on:   1:29: 4   9Sep2021

   JOB DONE.