     Program PWSCF v.6.7GPU starts on 23Sep2021 at 16: 3:36

     R & G space division:  proc/nbgrp/npool/nimage =       8
     Reading input from /storage/home/hcoda1/3/ntian30/research/carbon/CxH_vib/H2O_calc/ads_slab/CH2NHNH2HO_a/out_0012/pw.inp
Warning: card &CELL ignored
Warning: card   CELL_DYNAMICS='IPI', ignored
Warning: card / ignored

     Current dimensions of program PWSCF are:
     Max number of different atomic species (ntypx) = 10
     Max number of k-points (npk) =  40000
     Max angular momentum in pseudopotentials (lmaxx) =  3
     Presently no symmetry can be used with electric field

     Message from routine cell_base_init:
     DEPRECATED: use true lattice parameter, not A to a.u. conversion factor

     IMPORTANT: XC functional enforced from input :
     Exchange-correlation= BEEF-VDW
                           (   1   4  43  14   2   0   0)
     Any further DFT definition will be discarded
     Please, verify this is what you really want

  @ DRIVER MODE: Connecting to
 qe_1139763_2947313.sched-torque.pace.gatech.edurdg2m6e0_scratch
  using UNIX socket
  @ DRIVER MODE: Message from server: STATUS
  @ DRIVER MODE: Message from server: INIT
  @ DRIVER MODE: Receiving replica           0          -1
  @ DRIVER MODE: Receiving encoded integer          25
  @ DRIVER MODE:  SCF:  T  FORCE:  T  STRESS:  F  VC:  F  ENSEMBLE:  F
  @ DRIVER MODE:  SCF:  T  FORCE:  T  STRESS:  F  VC:  F  ENSEMBLE:  F

     Using Slab Decomposition

     bravais-lattice index     =            0
     lattice parameter (alat)  =       1.8897  a.u.
     unit-cell volume          =    6658.9804 (a.u.)^3
     number of atoms/cell      =           57
     number of atomic types    =            5
     number of electrons       =       404.00
     number of Kohn-Sham states=          212
     kinetic-energy cutoff     =      29.3995  Ry
     charge density cutoff     =     293.9946  Ry
     scf convergence threshold =      7.3E-08
     mixing beta               =       0.0500
     number of iterations used =            8  plain     mixing
     Exchange-correlation= BEEF-VDW
                           (   1   4  43  14   2   0   0)

     celldm(1)=   1.889726  celldm(2)=   0.000000  celldm(3)=   0.000000
     celldm(4)=   0.000000  celldm(5)=   0.000000  celldm(6)=   0.000000

     crystal axes: (cart. coord. in units of alat)
               a(1) = (   6.579727   0.000000   0.000000 )
               a(2) = (  -0.000775   5.961596   0.000000 )
               a(3) = (   0.000000   0.000000  25.155947 )

     reciprocal axes: (cart. coord. in units 2 pi/alat)
               b(1) = (  0.151982  0.000020  0.000000 )
               b(2) = (  0.000000  0.167740  0.000000 )
               b(3) = (  0.000000  0.000000  0.039752 )

     PseudoPot. # 1 for Ti read from file:
     /storage/coda1/p-amedford6/0/shared/rich_project_chbe-medford/medford-share/data/pseudos_module/espresso/nninc/pbe/van/Ti.UPF
     MD5 check sum: 8e4df49b7f0d34bbd5052bf3f5ea0213
     Pseudo is Ultrasoft, Zval = 12.0
     Generated by new atomic code, or converted to UPF format
     Using radial grid of  851 points,  6 beta functions with:
                l(1) =   0
                l(2) =   0
                l(3) =   1
                l(4) =   1
                l(5) =   2
                l(6) =   2
     Q(r) pseudized with  8 coefficients,  rinner =    1.000   1.000   1.000
                                                       1.000   1.000

     PseudoPot. # 2 for O  read from file:
     /storage/coda1/p-amedford6/0/shared/rich_project_chbe-medford/medford-share/data/pseudos_module/espresso/nninc/pbe/van/O.UPF
     MD5 check sum: 78c19812648e8988a0fe644b0f25305e
     Pseudo is Ultrasoft, Zval =  6.0
     Generated by new atomic code, or converted to UPF format
     Using radial grid of  737 points,  4 beta functions with:
                l(1) =   0
                l(2) =   0
                l(3) =   1
                l(4) =   1
     Q(r) pseudized with  8 coefficients,  rinner =    0.800   0.800   0.800

     PseudoPot. # 3 for N  read from file:
     /storage/coda1/p-amedford6/0/shared/rich_project_chbe-medford/medford-share/data/pseudos_module/espresso/nninc/pbe/van/N.UPF
     MD5 check sum: 90d10febe142ad51ac9d5be1deb811c4
     Pseudo is Ultrasoft, Zval =  5.0
     Generated by new atomic code, or converted to UPF format
     Using radial grid of  729 points,  4 beta functions with:
                l(1) =   0
                l(2) =   0
                l(3) =   1
                l(4) =   1
     Q(r) pseudized with  8 coefficients,  rinner =    0.800   0.800   0.800

     PseudoPot. # 4 for C  read from file:
     /storage/coda1/p-amedford6/0/shared/rich_project_chbe-medford/medford-share/data/pseudos_module/espresso/nninc/pbe/van/C.UPF
     MD5 check sum: 1a69bf6b8db32088f5b2163dbdb77a27
     Pseudo is Ultrasoft, Zval =  4.0
     Generated by new atomic code, or converted to UPF format
     Using radial grid of  721 points,  4 beta functions with:
                l(1) =   0
                l(2) =   0
                l(3) =   1
                l(4) =   1
     Q(r) pseudized with  8 coefficients,  rinner =    0.800   0.800   0.800

     PseudoPot. # 5 for H  read from file:
     /storage/coda1/p-amedford6/0/shared/rich_project_chbe-medford/medford-share/data/pseudos_module/espresso/nninc/pbe/van/H.UPF
     MD5 check sum: b5ee9d7bfd3a09ee7748110bda690ff7
     Pseudo is Ultrasoft, Zval =  1.0
     Generated by new atomic code, or converted to UPF format
     Using radial grid of  615 points,  1 beta functions with:
                l(1) =   0
     Q(r) pseudized with  8 coefficients,  rinner =    0.800

     atomic species   valence    mass     pseudopotential
        Ti1           12.00    47.86700     Ti( 1.00)
        O1             6.00    15.99900     O ( 1.00)
        N1             5.00    14.00700     N ( 1.00)
        C1             4.00    12.01100     C ( 1.00)
        H1             1.00     1.00800     H ( 1.00)

     No symmetry found

   Cartesian axes

     site n.     atom                  positions (alat units)
         1           Ti1 tau(   1) = (   0.0004258   2.9801865   6.0000000  )
         2           Ti1 tau(   2) = (   3.2906075   1.4906267   6.0002472  )
         3           O1  tau(   3) = (   0.0006271   0.0005054   7.9858123  )
         4           O1  tau(   4) = (   3.2906025   0.0005020   7.3038282  )
         5           O1  tau(   5) = (   4.5942328   1.4918067   9.2879030  )
         6           O1  tau(   6) = (   1.9868534   1.4903216   9.2879459  )
         7           Ti1 tau(   7) = (   3.2907910   2.8959150   9.1758416  )
         8           Ti1 tau(   8) = (   0.0015273   1.4827037   9.2680791  )
         9           O1  tau(   9) = (   3.2769995   5.9424463  11.3879711  )
        10           O1  tau(  10) = (   0.0116148   5.9584955  10.6183126  )
        11           O1  tau(  11) = (   1.2559300   1.4809235  12.6914295  )
        12           O1  tau(  12) = (   5.2914439   1.4888754  12.6824943  )
        13           Ti1 tau(  13) = (   6.5693074   2.9549812  12.5071532  )
        14           Ti1 tau(  14) = (   3.2720578   1.2926143  12.7373905  )
        15           O1  tau(  15) = (   6.5263330   5.9075480  14.6758232  )
        16           O1  tau(  16) = (   3.2750150   0.0724425  14.0538047  )
        17           O1  tau(  17) = (   4.5404297   1.6145126  16.1214498  )
        18           O1  tau(  18) = (   1.9612862   1.5681812  16.1371236  )
        19           Ti1 tau(  19) = (   3.2615978   3.0295928  15.7214328  )
        20           Ti1 tau(  20) = (   6.4910920   1.3289874  15.8500745  )
        21           O1  tau(  21) = (   3.2904802   0.0005063   4.7018136  )
        22           O1  tau(  22) = (   6.5149858   0.1606772  17.2625446  )
        23           O1  tau(  23) = (   1.3043587   1.4918075   6.0039043  )
        24           O1  tau(  24) = (   5.2767064   1.4903225   6.0039473  )
        25           Ti1 tau(  25) = (   0.0000382   5.9609847   6.0000000  )
        26           Ti1 tau(  26) = (   3.2902200   4.4714249   6.0002472  )
        27           O1  tau(  27) = (   0.0002396   2.9813036   7.9858123  )
        28           O1  tau(  28) = (   3.2902150   2.9813002   7.3038282  )
        29           O1  tau(  29) = (   4.5938453   4.4726049   9.2879030  )
        30           O1  tau(  30) = (   1.9864658   4.4711199   9.2879459  )
        31           Ti1 tau(  31) = (   3.2891106   5.8743827   9.1763621  )
        32           Ti1 tau(  32) = (   0.0006254   4.4649316   9.2693709  )
        33           O1  tau(  33) = (   3.2749377   2.9871965  11.3337082  )
        34           O1  tau(  34) = (   0.0092240   2.9805883  10.6323155  )
        35           O1  tau(  35) = (   1.2597673   4.4587344  12.6634223  )
        36           O1  tau(  36) = (   5.2866262   4.4511231  12.6493885  )
        37           Ti1 tau(  37) = (   6.5604603   5.9292220  12.4937940  )
        38           Ti1 tau(  38) = (   3.2724722   4.3622713  12.4512132  )
        39           O1  tau(  39) = (   6.5737517   3.0258615  14.9025115  )
        40           O1  tau(  40) = (   3.2593133   3.0063273  13.9441864  )
        41           O1  tau(  41) = (   4.5441350   4.4310557  16.1689449  )
        42           O1  tau(  42) = (   1.9655774   4.4762250  16.2070539  )
        43           Ti1 tau(  43) = (   3.1776431   0.0563557  16.2565842  )
        44           Ti1 tau(  44) = (   6.5216753   4.5226504  15.9439936  )
        45           O1  tau(  45) = (   3.2900926   2.9813045   4.7018136  )
        46           O1  tau(  46) = (   1.3039711   4.4726057   6.0039043  )
        47           O1  tau(  47) = (   5.2763189   4.4711207   6.0039473  )
        48           N1  tau(  48) = (   0.8157702   2.5297039  18.7633901  )
        49           N1  tau(  49) = (   6.4302604   3.3580032  18.1434362  )
        50           C1  tau(  50) = (   1.9549655   3.0231469  19.2293773  )
        51           H1  tau(  51) = (   2.0901252   4.0892486  19.3254668  )
        52           H1  tau(  52) = (   2.7239663   2.3052050  19.4587972  )
        53           H1  tau(  53) = (   0.7490178   1.5515861  18.4517582  )
        54           H1  tau(  54) = (   6.4535031   4.2829477  18.5696568  )
        55           H1  tau(  55) = (   5.5068980   2.9516776  18.2836589  )
        56           O1  tau(  56) = (   3.3967406   0.0908776  18.1493316  )
        57           H1  tau(  57) = (   4.3453859   0.1513423  18.3540861  )

     number of k points=    10  Fermi-Dirac smearing, width (Ry)=  0.0073
                       cart. coord. in units 2pi/alat
        k(    1) = (   0.0000000   0.0000000   0.0000000), wk =   0.1250000
        k(    2) = (   0.0000000   0.0419351   0.0000000), wk =   0.2500000
        k(    3) = (   0.0000000  -0.0838702   0.0000000), wk =   0.1250000
        k(    4) = (   0.0379955   0.0000049   0.0000000), wk =   0.2500000
        k(    5) = (   0.0379955   0.0419400   0.0000000), wk =   0.2500000
        k(    6) = (   0.0379955  -0.0838652   0.0000000), wk =   0.2500000
        k(    7) = (   0.0379955  -0.0419301   0.0000000), wk =   0.2500000
        k(    8) = (  -0.0759910  -0.0000099   0.0000000), wk =   0.1250000
        k(    9) = (  -0.0759910   0.0419252   0.0000000), wk =   0.2500000
        k(   10) = (  -0.0759910  -0.0838800   0.0000000), wk =   0.1250000

     Initial potential from superposition of free atoms

     starting charge  387.99913, renormalised to  404.00000

     negative rho (up, down):  1.608E-02 0.000E+00

     %%%%%%%%%%%%%%%%%%%%%%%%%%%%%%%%%%%%%%%%%%%%%%%%%%%%%%%%%%%%%%%%%%%%%%%%
     %                                                                      %
     % You are using vdW-DF, which was implemented by the Thonhauser group. %
     % Please cite the following two papers that made this development      %
     % possible and the two reviews that describe the various versions:     %
     %                                                                      %
     %   T. Thonhauser et al., PRL 115, 136402 (2015).                      %
     %   T. Thonhauser et al., PRB 76, 125112 (2007).                       %
     %   K. Berland et al., Rep. Prog. Phys. 78, 066501 (2015).             %
     %   D.C. Langreth et al., J. Phys.: Condens. Matter 21, 084203 (2009). %
     %                                                                      %
     %                                                                      %
     % If you are calculating the stress with vdW-DF, please also cite:     %
     %                                                                      %
     %   R. Sabatini et al., J. Phys.: Condens. Matter 24, 424209 (2012).   %
     %                                                                      %
     %%%%%%%%%%%%%%%%%%%%%%%%%%%%%%%%%%%%%%%%%%%%%%%%%%%%%%%%%%%%%%%%%%%%%%%%

     Adding external electric field

     Computed dipole along edir(3) :
        Dipole              -13.8468 Ry au,        -35.1950 Debye
        Dipole field         -0.0261 Ry au,

        Potential amp.        2.4223 Ry
        Total length         46.3494 bohr

     Starting wfcs are  306 atomic wfcs
  @ DRIVER MODE: Message from server: STATUS
  @ DRIVER MODE: Message from server: POSDATA
  @ DRIVER MODE: Reading and sharing cell
  @ DRIVER MODE: Reading and sharing positions
  @ DRIVER MODE: Received positions

     Self-consistent Calculation

     iteration #  1     ecut=    29.40 Ry     beta= 0.05
     Davidson diagonalization with overlap
     c_bands:  1 eigenvalues not converged
     c_bands:  2 eigenvalues not converged
     c_bands:  1 eigenvalues not converged
     c_bands:  1 eigenvalues not converged
     c_bands:  1 eigenvalues not converged
     c_bands:  2 eigenvalues not converged
     c_bands:  5 eigenvalues not converged
     c_bands:  3 eigenvalues not converged
     ethr =  1.00E-05,  avg # of iterations = 32.8

[...]

     total energy              =   -2231.84839859 Ry
     estimated scf accuracy    <    8426.66651866 Ry

     iteration #  2     ecut=    29.40 Ry     beta= 0.05
     Davidson diagonalization with overlap
     ethr =  1.00E-02,  avg # of iterations = 27.8

[...]

     iteration # 62     ecut=    29.40 Ry     beta= 0.05
     Davidson diagonalization with overlap
     c_bands:  1 eigenvalues not converged
     ethr =  9.63E-11,  avg # of iterations = 14.3

[...]

     total energy              =   -2975.15003572 Ry
     estimated scf accuracy    <       0.00000009 Ry

     iteration # 65     ecut=    29.40 Ry     beta= 0.05
     Davidson diagonalization with overlap
     ethr =  2.17E-11,  avg # of iterations = 10.8

     negative rho (up, down):  1.524E-02 0.000E+00

     Adding external electric field

     Computed dipole along edir(3) :
        Dipole                1.1818 Ry au,          3.0039 Debye
        Dipole field          0.0022 Ry au,

        Potential amp.       -0.2067 Ry
        Total length         46.3494 bohr

     End of self-consistent calculation

          k = 0.0000 0.0000 0.0000 ( 18029 PWs)   bands (ev):

   -55.4150 -55.3324 -55.2983 -55.2279 -55.1899 -55.1801 -55.1645 -55.1627
   -55.1478 -55.1282 -55.0999 -55.0293 -55.0222 -54.9949 -54.3266 -54.2926
   -31.8203 -31.7719 -31.7417 -31.7138 -31.6670 -31.6664 -31.6314 -31.6221
   -31.6191 -31.6072 -31.5776 -31.5406 -31.5028 -31.4853 -31.4697 -31.4619
   -31.4462 -31.4420 -31.4412 -31.4076 -31.3899 -31.3787 -31.3744 -31.3692
   -31.3653 -31.3586 -31.3552 -31.3339 -31.3277 -31.3244 -31.3243 -31.3010
   -31.2925 -31.2888 -31.2766 -31.2525 -31.2357 -31.2313 -31.2090 -31.1988
   -31.1967 -31.1922 -30.7336 -30.6446 -30.6223 -30.5509 -30.4644 -30.3527
   -19.4191 -16.2704 -16.0486 -15.8830 -15.6678 -15.6222 -15.5305 -15.3686
   -15.2564 -15.1859 -15.0791 -15.0031 -14.9291 -14.8926 -14.8833 -14.8698
   -14.8650 -14.8135 -14.8050 -14.7908 -14.7809 -14.7704 -14.7683 -14.7292
   -14.6951 -14.6469 -14.6153 -14.4914 -14.4533 -14.4165 -14.2964 -14.2746
   -12.8254 -12.7086 -10.2133  -7.8604  -6.6011  -5.4063  -4.1946  -3.8161
    -3.6682  -3.3912  -3.2825  -3.2502  -3.1906  -3.1560  -2.9015  -2.8032
    -2.7836  -2.6470  -2.5282  -2.4817  -2.4216  -2.3507  -2.3191  -2.2963
    -2.2707  -2.2155  -2.1508  -2.1361  -2.1242  -2.0466  -2.0422  -1.9694
    -1.9191  -1.9055  -1.8011  -1.7292  -1.6971  -1.6837  -1.6726  -1.6552
    -1.6308  -1.6236  -1.6000  -1.5384  -1.4725  -1.4635  -1.3981  -1.3717
    -1.1002  -1.0365  -0.9697  -0.9407  -0.8649  -0.8222  -0.8082  -0.7837
    -0.7413  -0.7387  -0.7080  -0.6569  -0.5530  -0.5040  -0.4733  -0.4535
    -0.4007  -0.2881  -0.2681  -0.1570  -0.1285  -0.1203  -0.0812  -0.0340
     0.0080   0.0475   0.1086   0.1790   0.2289   0.2801   0.3115   0.3383
     0.3787   0.4133   0.4748   0.5523   0.5764   0.6211   0.6505   0.6709
     0.6803   0.7372   0.7541   0.8419   0.9225   0.9335   1.0312   1.0630
     1.1118   1.2996   1.3354   1.6356   1.6816   1.7000   1.8885   2.2696
     2.3160   3.7347   3.8584   3.8890   3.8993   3.9393   3.9718   4.0268
     4.2211   4.2332   4.3444   4.4243

[...]

          k = 0.0380-0.0419 0.0000 ( 17876 PWs)   bands (ev):

[...]

          k =-0.0760-0.0000 0.0000 ( 17886 PWs)   bands (ev):

[...]

          k =-0.0760-0.0839 0.0000 ( 17948 PWs)   bands (ev):

   -55.4141 -55.3156 -55.3150 -55.2166 -55.2010 -55.1777 -55.1654 -55.1452
   -55.1448 -55.1415 -55.1068 -55.0243 -55.0180 -55.0061 -54.3100 -54.3091
   -31.6841 -31.6729 -31.6545 -31.6357 -31.6353 -31.6198 -31.6077 -31.6072
   -31.5673 -31.5355 -31.5199 -31.4948 -31.4854 -31.4770 -31.4661 -31.4525
   -31.4513 -31.4461 -31.4425 -31.4353 -31.4348 -31.4266 -31.4098 -31.4033
   -31.3978 -31.3812 -31.3659 -31.3657 -31.3593 -31.3570 -31.3525 -31.3422
   -31.3275 -31.3234 -31.3222 -31.3190 -31.2857 -31.2837 -31.2451 -31.2391
   -31.2130 -31.2045 -30.6353 -30.6346 -30.5469 -30.5457 -30.5080 -30.5073
   -19.4146 -16.2413 -15.7545 -15.4849 -15.3589 -15.3470 -15.2259 -15.2107
   -15.1482 -15.1395 -15.1104 -15.0965 -15.0862 -15.0420 -15.0136 -14.9291
   -14.9140 -14.8729 -14.8693 -14.8236 -14.8212 -14.8199 -14.7976 -14.7762
   -14.7720 -14.7456 -14.7298 -14.6819 -14.6685 -14.5319 -14.4437 -14.3974
   -12.8106 -12.8100 -10.1845  -7.8274  -6.5928  -5.4893  -4.1536  -3.8369
    -3.6268  -2.8409  -2.6974  -2.5955  -2.4866  -2.4540  -2.4053  -2.3563
    -2.3423  -2.3107  -2.2400  -2.2103  -2.1958  -2.1593  -2.1585  -2.1351
    -2.1257  -2.1053  -2.0778  -2.0580  -2.0473  -2.0416  -2.0143  -1.9992
    -1.9840  -1.9596  -1.9310  -1.9104  -1.8965  -1.8895  -1.8396  -1.7343
    -1.6448  -1.5658  -1.5288  -1.5030  -1.4898  -1.4444  -1.4308  -1.4197
    -1.3836  -1.3602  -1.2273  -1.2057  -1.0657  -1.0107  -0.9771  -0.9325
    -0.8771  -0.8699  -0.8520  -0.8126  -0.7730  -0.6404  -0.6079  -0.5722
    -0.4935  -0.4431  -0.3555  -0.3415  -0.3168  -0.2995  -0.2642  -0.2443
    -0.2307  -0.2011  -0.1720  -0.0935  -0.0591  -0.0468  -0.0287   0.0700
     0.1694   0.2085   0.2719   0.3412   0.3844   0.4090   0.4379   0.6221
     0.6526   0.7966   0.8051   0.8098   0.9549   0.9554   1.0026   1.0504
     1.0819   1.1247   1.1533   1.1686   1.2037   2.0588   2.0671   2.1362
     2.1364   3.7714   3.9346   4.1589   4.1817   4.2406   4.2514   4.2828
     4.3084   4.3378   4.3788   4.3982

     the Fermi energy is     3.7844 ev

!    total energy              =   -2975.15008393 Ry
     estimated scf accuracy    <       0.00000005 Ry
     smearing contrib. (-TS)   =      -0.03332770 Ry
     internal energy E=F+TS    =   -2975.11675624 Ry

     The total energy is F=E-TS. E is the sum of the following terms:
     one-electron contribution =  -23377.43306864 Ry
     hartree contribution      =   11785.97683137 Ry
     xc contribution           =    -494.91011162 Ry
     ewald contribution        =    9111.24695685 Ry
     electric field correction =       0.00263580 Ry

     convergence has been achieved in  65 iterations

     Forces acting on atoms (cartesian axes, Ry/au):

     atom    1 type  1   force =     0.00029812   -0.00019397    0.09351551
     atom    2 type  1   force =    -0.00004856    0.00053450   -0.17630811
     atom    3 type  2   force =     0.00004344   -0.00029809   -0.02068634
     atom    4 type  2   force =     0.00001720   -0.00222468    0.05686745
     atom    5 type  2   force =    -0.00786004   -0.00263098    0.00512917
     atom    6 type  2   force =     0.00892716   -0.00211180    0.00324609
     atom    7 type  1   force =    -0.00077959   -0.00332317    0.00572125
     atom    8 type  1   force =     0.00087023    0.00107799   -0.00174945
     atom    9 type  2   force =    -0.00018549    0.00014985    0.00007937
     atom   10 type  2   force =    -0.00342000    0.00105333   -0.00643869
     atom   11 type  2   force =     0.00018557   -0.00013345    0.00032003
     atom   12 type  2   force =    -0.00011322   -0.00023139    0.00004774
     atom   13 type  1   force =     0.00001204   -0.00004013   -0.00028689
     atom   14 type  1   force =     0.00053153   -0.00034947   -0.00029113
     atom   15 type  2   force =    -0.00002078   -0.00118759   -0.00036333
     atom   16 type  2   force =     0.00021058    0.00062624    0.00088320
     atom   17 type  2   force =    -0.00113666    0.00042185   -0.00028283
     atom   18 type  2   force =     0.00120935    0.00004880   -0.00064586
     atom   19 type  1   force =     0.00002130    0.00058397   -0.00014979
     atom   20 type  1   force =     0.00054435    0.00014283   -0.00080752
     atom   21 type  2   force =     0.00011793    0.00004640    0.10361558
     atom   22 type  2   force =     0.00012430   -0.00005098    0.00097054
     atom   23 type  2   force =    -0.07136624   -0.00017763   -0.02701929
     atom   24 type  2   force =     0.07136143    0.00026924   -0.02705316
     atom   25 type  1   force =     0.00007674   -0.00017252    0.09326046
     atom   26 type  1   force =     0.00007744   -0.00126117   -0.17651887
     atom   27 type  2   force =     0.00007610   -0.00014893   -0.01945060
     atom   28 type  2   force =     0.00001925   -0.00060214    0.05222973
     atom   29 type  2   force =    -0.00742679    0.00176748    0.00489039
     atom   30 type  2   force =     0.00835782    0.00235278    0.00299036
     atom   31 type  1   force =    -0.00097681    0.00886879   -0.00440312
     atom   32 type  1   force =     0.00094462   -0.00221889   -0.00242427
     atom   33 type  2   force =    -0.00022344   -0.00134029   -0.00061279
     atom   34 type  2   force =    -0.00214508   -0.00210654   -0.00763302
     atom   35 type  2   force =    -0.00002535    0.00016053    0.00027719
     atom   36 type  2   force =     0.00018910    0.00015348    0.00021493
     atom   37 type  1   force =     0.00003978   -0.00029404    0.00006745
     atom   38 type  1   force =     0.00035057    0.00045756    0.00015164
     atom   39 type  2   force =    -0.00000494    0.00068009    0.00005827
     atom   40 type  2   force =     0.00021732   -0.00017098    0.00044711
     atom   41 type  2   force =    -0.00028011   -0.00020258    0.00034262
     atom   42 type  2   force =     0.00065225   -0.00033014    0.00016715
     atom   43 type  1   force =     0.00040787   -0.00067231   -0.00027841
     atom   44 type  1   force =     0.00000698    0.00132335    0.00022002
     atom   45 type  2   force =     0.00010190   -0.00008949    0.10338182
     atom   46 type  2   force =    -0.07140356   -0.00002866   -0.02706023
     atom   47 type  2   force =     0.07137707    0.00038662   -0.02709098
     atom   48 type  3   force =     0.00133087    0.00000338    0.00209807
     atom   49 type  3   force =    -0.00059384   -0.00306978   -0.00729800
     atom   50 type  4   force =     0.00064970   -0.00016475    0.00044543
     atom   51 type  5   force =     0.00047535   -0.00095967   -0.00048690
     atom   52 type  5   force =    -0.00012030    0.00015922   -0.00022264
     atom   53 type  5   force =    -0.00051302    0.00044887   -0.00016985
     atom   54 type  5   force =     0.00034404    0.00514973    0.00327274
     atom   55 type  5   force =    -0.00141082   -0.00030142    0.00165813
     atom   56 type  2   force =     0.00076833    0.00090289   -0.00005804
     atom   57 type  5   force =    -0.00088296   -0.00068217   -0.00077932

     Total force =     0.363269     Total SCF correction =     0.000538
  @ DRIVER MODE: Message from server: STATUS
  @ DRIVER MODE: Message from server: GETFORCE
  @ DRIVER MODE: Returning v,forces,stress,ensemble

     Writing output data file ./calc.save/
  @ DRIVER MODE: Message from server: EXIT
  @ DRIVE MODE: Exiting

     General routines

     Parallel routines

   This run was terminated on:  16:27:18  23Sep2021

   JOB DONE.