     Program PWSCF v.6.7GPU starts on 25Aug2021 at  5:44:24

     R & G space division:  proc/nbgrp/npool/nimage =       6
     Reading input from /storage/home/hcoda1/3/ntian30/research/carbon/CH3_vib_end_on/ads_slab/CH3N2H2_f/out_0025/pw.inp
Warning: card &CELL ignored
Warning: card   CELL_DYNAMICS='IPI', ignored
Warning: card / ignored

     Current dimensions of program PWSCF are:
     Max number of different atomic species (ntypx) = 10
     Max number of k-points (npk) =  40000
     Max angular momentum in pseudopotentials (lmaxx) =  3
     Presently no symmetry can be used with electric field

     Message from routine cell_base_init:
     DEPRECATED: use true lattice parameter, not A to a.u. conversion factor

     IMPORTANT: XC functional enforced from input :
     Exchange-correlation= BEEF-VDW
                           (   1   4  43  14   2   0   0)
     Any further DFT definition will be discarded
     Please, verify this is what you really want

  @ DRIVER MODE: Connecting to
 qe_1139763_2643870.sched-torque.pace.gatech.edums6sue5x_scratch
  using UNIX socket
  @ DRIVER MODE: Message from server: STATUS
  @ DRIVER MODE: Message from server: INIT
  @ DRIVER MODE: Receiving replica           0          -1
  @ DRIVER MODE: Receiving encoded integer          25
  @ DRIVER MODE:  SCF:  T  FORCE:  T  STRESS:  F  VC:  F  ENSEMBLE:  F
  @ DRIVER MODE:  SCF:  T  FORCE:  T  STRESS:  F  VC:  F  ENSEMBLE:  F

     Using Slab Decomposition

     bravais-lattice index     =            0
     lattice parameter (alat)  =       1.8897  a.u.
     unit-cell volume          =    6658.9804 (a.u.)^3
     number of atoms/cell      =           55
     number of atomic types    =            5
     number of electrons       =       397.00
     number of Kohn-Sham states=          208
     kinetic-energy cutoff     =      29.3995  Ry
     charge density cutoff     =     293.9946  Ry
     scf convergence threshold =      7.3E-08
     mixing beta               =       0.0500
     number of iterations used =            8  plain     mixing
     Exchange-correlation= BEEF-VDW
                           (   1   4  43  14   2   0   0)

     celldm(1)=   1.889726  celldm(2)=   0.000000  celldm(3)=   0.000000
     celldm(4)=   0.000000  celldm(5)=   0.000000  celldm(6)=   0.000000

     crystal axes: (cart. coord. in units of alat)
               a(1) = (   6.579727   0.000000   0.000000 )
               a(2) = (  -0.000775   5.961596   0.000000 )
               a(3) = (   0.000000   0.000000  25.155947 )

     reciprocal axes: (cart. coord. in units 2 pi/alat)
               b(1) = (  0.151982  0.000020  0.000000 )
               b(2) = (  0.000000  0.167740  0.000000 )
               b(3) = (  0.000000  0.000000  0.039752 )

     PseudoPot. # 1 for Ti read from file:
     /storage/coda1/p-amedford6/0/shared/rich_project_chbe-medford/medford-share/data/pseudos_module/espresso/nninc/pbe/van/Ti.UPF
     MD5 check sum: 8e4df49b7f0d34bbd5052bf3f5ea0213
     Pseudo is Ultrasoft, Zval = 12.0
     Generated by new atomic code, or converted to UPF format
     Using radial grid of  851 points,  6 beta functions with:
                l(1) =   0
                l(2) =   0
                l(3) =   1
                l(4) =   1
                l(5) =   2
                l(6) =   2
     Q(r) pseudized with  8 coefficients,  rinner =    1.000   1.000   1.000
                                                       1.000   1.000

     PseudoPot. # 2 for O  read from file:
     /storage/coda1/p-amedford6/0/shared/rich_project_chbe-medford/medford-share/data/pseudos_module/espresso/nninc/pbe/van/O.UPF
     MD5 check sum: 78c19812648e8988a0fe644b0f25305e
     Pseudo is Ultrasoft, Zval =  6.0
     Generated by new atomic code, or converted to UPF format
     Using radial grid of  737 points,  4 beta functions with:
                l(1) =   0
                l(2) =   0
                l(3) =   1
                l(4) =   1
     Q(r) pseudized with  8 coefficients,  rinner =    0.800   0.800   0.800

     PseudoPot. # 3 for N  read from file:
     /storage/coda1/p-amedford6/0/shared/rich_project_chbe-medford/medford-share/data/pseudos_module/espresso/nninc/pbe/van/N.UPF
     MD5 check sum: 90d10febe142ad51ac9d5be1deb811c4
     Pseudo is Ultrasoft, Zval =  5.0
     Generated by new atomic code, or converted to UPF format
     Using radial grid of  729 points,  4 beta functions with:
                l(1) =   0
                l(2) =   0
                l(3) =   1
                l(4) =   1
     Q(r) pseudized with  8 coefficients,  rinner =    0.800   0.800   0.800

     PseudoPot. # 4 for C  read from file:
     /storage/coda1/p-amedford6/0/shared/rich_project_chbe-medford/medford-share/data/pseudos_module/espresso/nninc/pbe/van/C.UPF
     MD5 check sum: 1a69bf6b8db32088f5b2163dbdb77a27
     Pseudo is Ultrasoft, Zval =  4.0
     Generated by new atomic code, or converted to UPF format
     Using radial grid of  721 points,  4 beta functions with:
                l(1) =   0
                l(2) =   0
                l(3) =   1
                l(4) =   1
     Q(r) pseudized with  8 coefficients,  rinner =    0.800   0.800   0.800

     PseudoPot. # 5 for H  read from file:
     /storage/coda1/p-amedford6/0/shared/rich_project_chbe-medford/medford-share/data/pseudos_module/espresso/nninc/pbe/van/H.UPF
     MD5 check sum: b5ee9d7bfd3a09ee7748110bda690ff7
     Pseudo is Ultrasoft, Zval =  1.0
     Generated by new atomic code, or converted to UPF format
     Using radial grid of  615 points,  1 beta functions with:
                l(1) =   0
     Q(r) pseudized with  8 coefficients,  rinner =    0.800

     atomic species   valence    mass     pseudopotential
        Ti1           12.00    47.86700     Ti( 1.00)
        O1             6.00    15.99900     O ( 1.00)
        N1             5.00    14.00700     N ( 1.00)
        C1             4.00    12.01100     C ( 1.00)
        H1             1.00     1.00800     H ( 1.00)

     No symmetry found

   Cartesian axes

     site n.     atom                  positions (alat units)
         1           Ti1 tau(   1) = (   0.0004258   2.9801865   6.0000000  )
         2           Ti1 tau(   2) = (   3.2906075   1.4906267   6.0002472  )
         3           O1  tau(   3) = (   0.0006271   0.0005054   7.9858123  )
         4           O1  tau(   4) = (   3.2906025   0.0005020   7.3038282  )
         5           O1  tau(   5) = (   4.5942328   1.4918067   9.2879030  )
         6           O1  tau(   6) = (   1.9868534   1.4903216   9.2879459  )
         7           Ti1 tau(   7) = (   3.2907910   2.8959150   9.1758416  )
         8           Ti1 tau(   8) = (   0.0015273   1.4827037   9.2680791  )
         9           O1  tau(   9) = (   3.2830128   5.9597860  11.3344455  )
        10           O1  tau(  10) = (   0.0116148   5.9584955  10.6183126  )
        11           O1  tau(  11) = (   1.2885291   1.4855062  12.6376555  )
        12           O1  tau(  12) = (   5.2724004   1.4911608  12.5936499  )
        13           Ti1 tau(  13) = (   0.0410009   3.0319447  12.6084003  )
        14           Ti1 tau(  14) = (   3.3739341   1.4916561  12.4823474  )
        15           O1  tau(  15) = (   6.4862162   0.0153916  14.6455093  )
        16           O1  tau(  16) = (   3.3439542   5.9611638  13.9051029  )
        17           O1  tau(  17) = (   4.4933269   1.5483200  16.1231154  )
        18           O1  tau(  18) = (   1.9964937   1.4536654  15.9127221  )
        19           Ti1 tau(  19) = (   3.1412959   3.0017366  15.7441667  )
        20           Ti1 tau(  20) = (   6.4823597   1.5369342  15.8006069  )
        21           O1  tau(  21) = (   3.2904802   0.0005063   4.7018136  )
        22           O1  tau(  22) = (   6.5709111   0.0522475  17.2082838  )
        23           O1  tau(  23) = (   1.3043587   1.4918075   6.0039043  )
        24           O1  tau(  24) = (   5.2767064   1.4903225   6.0039473  )
        25           Ti1 tau(  25) = (   0.0000382   5.9609847   6.0000000  )
        26           Ti1 tau(  26) = (   3.2902200   4.4714249   6.0002472  )
        27           O1  tau(  27) = (   0.0002396   2.9813036   7.9858123  )
        28           O1  tau(  28) = (   3.2902150   2.9813002   7.3038282  )
        29           O1  tau(  29) = (   4.5938453   4.4726049   9.2879030  )
        30           O1  tau(  30) = (   1.9864658   4.4711199   9.2879459  )
        31           Ti1 tau(  31) = (   3.2891106   5.8743827   9.1763621  )
        32           Ti1 tau(  32) = (   0.0006254   4.4649316   9.2693709  )
        33           O1  tau(  33) = (   3.2833609   2.9822938  11.3349093  )
        34           O1  tau(  34) = (   0.0092240   2.9805883  10.6323155  )
        35           O1  tau(  35) = (   1.2838611   4.4860338  12.6468719  )
        36           O1  tau(  36) = (   5.2760156   4.4607002  12.6015494  )
        37           Ti1 tau(  37) = (   0.0673138   0.0440259  12.5461749  )
        38           Ti1 tau(  38) = (   3.3712377   4.4654930  12.4933830  )
        39           O1  tau(  39) = (   6.5217465   2.9589972  14.6412948  )
        40           O1  tau(  40) = (   3.2809526   2.9956502  13.9333893  )
        41           O1  tau(  41) = (   4.4911989   4.4583117  16.1637052  )
        42           O1  tau(  42) = (   1.9937212   4.5427850  15.9740970  )
        43           Ti1 tau(  43) = (   3.2955853   0.0167752  15.6963065  )
        44           Ti1 tau(  44) = (   6.5082246   4.6715011  16.1069148  )
        45           O1  tau(  45) = (   3.2900926   2.9813045   4.7018136  )
        46           O1  tau(  46) = (   1.3039711   4.4726057   6.0039043  )
        47           O1  tau(  47) = (   5.2763189   4.4711207   6.0039473  )
        48           N1  tau(  48) = (   1.3945086   2.8365607  18.1849301  )
        49           N1  tau(  49) = (   0.1777896   2.9650562  17.4211889  )
        50           C1  tau(  50) = (   1.4118813   3.7128676  19.3556819  )
        51           H1  tau(  51) = (   0.5171711   3.5996102  19.9880000  )
        52           H1  tau(  52) = (   2.2835099   3.4681107  19.9517681  )
        53           H1  tau(  53) = (   1.4703795   4.7520035  19.0319817  )
        54           H1  tau(  54) = (   1.4579882   1.8621926  18.4823179  )
        55           H1  tau(  55) = (   5.9558665   2.8747675  18.0551794  )

     number of k points=    10  Fermi-Dirac smearing, width (Ry)=  0.0073
                       cart. coord. in units 2pi/alat
        k(    1) = (   0.0000000   0.0000000   0.0000000), wk =   0.1250000
        k(    2) = (   0.0000000   0.0419351   0.0000000), wk =   0.2500000
        k(    3) = (   0.0000000  -0.0838702   0.0000000), wk =   0.1250000
        k(    4) = (   0.0379955   0.0000049   0.0000000), wk =   0.2500000
        k(    5) = (   0.0379955   0.0419400   0.0000000), wk =   0.2500000
        k(    6) = (   0.0379955  -0.0838652   0.0000000), wk =   0.2500000
        k(    7) = (   0.0379955  -0.0419301   0.0000000), wk =   0.2500000
        k(    8) = (  -0.0759910  -0.0000099   0.0000000), wk =   0.1250000
        k(    9) = (  -0.0759910   0.0419252   0.0000000), wk =   0.2500000
        k(   10) = (  -0.0759910  -0.0838800   0.0000000), wk =   0.1250000

     Initial potential from superposition of free atoms

     starting charge  380.99914, renormalised to  397.00000

     negative rho (up, down):  1.541E-02 0.000E+00

     %%%%%%%%%%%%%%%%%%%%%%%%%%%%%%%%%%%%%%%%%%%%%%%%%%%%%%%%%%%%%%%%%%%%%%%%
     %                                                                      %
     % You are using vdW-DF, which was implemented by the Thonhauser group. %
     % Please cite the following two papers that made this development      %
     % possible and the two reviews that describe the various versions:     %
     %                                                                      %
     %   T. Thonhauser et al., PRL 115, 136402 (2015).                      %
     %   T. Thonhauser et al., PRB 76, 125112 (2007).                       %
     %   K. Berland et al., Rep. Prog. Phys. 78, 066501 (2015).             %
     %   D.C. Langreth et al., J. Phys.: Condens. Matter 21, 084203 (2009). %
     %                                                                      %
     %                                                                      %
     % If you are calculating the stress with vdW-DF, please also cite:     %
     %                                                                      %
     %   R. Sabatini et al., J. Phys.: Condens. Matter 24, 424209 (2012).   %
     %                                                                      %
     %%%%%%%%%%%%%%%%%%%%%%%%%%%%%%%%%%%%%%%%%%%%%%%%%%%%%%%%%%%%%%%%%%%%%%%%

     Adding external electric field

     Computed dipole along edir(3) :
        Dipole               -9.6180 Ry au,        -24.4465 Debye
        Dipole field         -0.0182 Ry au,

        Potential amp.        1.6825 Ry
        Total length         46.3494 bohr

     Starting wfcs are  301 atomic wfcs
  @ DRIVER MODE: Message from server: STATUS
  @ DRIVER MODE: Message from server: POSDATA
  @ DRIVER MODE: Reading and sharing cell
  @ DRIVER MODE: Reading and sharing positions
  @ DRIVER MODE: Received positions

     Self-consistent Calculation

     iteration #  1     ecut=    29.40 Ry     beta= 0.05
     Davidson diagonalization with overlap
     c_bands:  1 eigenvalues not converged
     c_bands:  1 eigenvalues not converged
     c_bands:  1 eigenvalues not converged
     c_bands:  1 eigenvalues not converged
     c_bands:  1 eigenvalues not converged
     c_bands:  1 eigenvalues not converged
     c_bands:  2 eigenvalues not converged
     ethr =  1.00E-05,  avg # of iterations = 18.8

[...]

     total energy              =   -2533.55023433 Ry
     estimated scf accuracy    <    4539.49233830 Ry

     iteration #  2     ecut=    29.40 Ry     beta= 0.05
     Davidson diagonalization with overlap
     ethr =  1.00E-02,  avg # of iterations = 25.1

[...]

     iteration # 59     ecut=    29.40 Ry     beta= 0.05
     Davidson diagonalization with overlap
     c_bands:  1 eigenvalues not converged
     ethr =  2.84E-09,  avg # of iterations = 14.8

[...]

     total energy              =   -2941.66149945 Ry
     estimated scf accuracy    <       0.00000018 Ry

     iteration # 68     ecut=    29.40 Ry     beta= 0.05
     Davidson diagonalization with overlap
     ethr =  4.63E-11,  avg # of iterations = 11.3

     negative rho (up, down):  1.608E-02 0.000E+00

     Adding external electric field

     Computed dipole along edir(3) :
        Dipole                0.9443 Ry au,          2.4001 Debye
        Dipole field          0.0018 Ry au,

        Potential amp.       -0.1652 Ry
        Total length         46.3494 bohr

     End of self-consistent calculation

          k = 0.0000 0.0000 0.0000 ( 18029 PWs)   bands (ev):

   -55.6860 -55.6693 -55.6519 -55.6327 -55.5919 -55.5377 -55.5305 -55.5006
   -55.4945 -55.4666 -55.4648 -55.4307 -55.2579 -55.0337 -54.6664 -54.6324
   -32.2202 -32.1691 -32.0422 -32.0320 -31.9989 -31.9843 -31.9788 -31.9552
   -31.9301 -31.8983 -31.8960 -31.8898 -31.8468 -31.8383 -31.8246 -31.8230
   -31.8063 -31.7909 -31.7824 -31.7470 -31.7432 -31.7362 -31.7208 -31.7170
   -31.6945 -31.6898 -31.6870 -31.6794 -31.6654 -31.6629 -31.6555 -31.6461
   -31.6408 -31.6310 -31.6178 -31.6081 -31.5770 -31.5081 -31.4643 -31.3000
   -31.2906 -31.2363 -31.0737 -30.9851 -30.9626 -30.8904 -30.8039 -30.6928
   -16.7724 -16.4169 -16.1621 -15.9326 -15.8416 -15.8112 -15.6589 -15.5272
   -15.4178 -15.3362 -15.2511 -15.2322 -15.2248 -15.2140 -15.1881 -15.1822
   -15.1352 -15.1304 -15.1110 -15.0981 -15.0481 -15.0315 -15.0281 -14.9332
   -14.8693 -14.8340 -14.8193 -14.7846 -14.7474 -14.3332 -13.1693 -13.0528
   -11.8134  -8.9912  -5.4350  -4.3752  -3.8399  -3.7882  -3.6442  -3.5937
    -3.5335  -3.4952  -3.3169  -3.2145  -2.9417  -2.8847  -2.8552  -2.8461
    -2.7891  -2.7580  -2.6010  -2.5748  -2.5053  -2.4957  -2.4798  -2.4510
    -2.4445  -2.4364  -2.4043  -2.3761  -2.3470  -2.2427  -2.1049  -2.0947
    -2.0710  -2.0377  -2.0001  -1.9514  -1.9352  -1.9150  -1.8965  -1.8840
    -1.8713  -1.7364  -1.7013  -1.5850  -1.4955  -1.4486  -1.3689  -1.2984
    -1.2679  -1.1575  -1.1179  -1.1050  -1.0911  -1.0804  -0.9808  -0.8750
    -0.8577  -0.8200  -0.7649  -0.7090  -0.6384  -0.5936  -0.5425  -0.4903
    -0.4660  -0.4508  -0.4480  -0.4128  -0.3213  -0.1800  -0.1281  -0.0937
    -0.0715   0.0052   0.0403   0.0963   0.1209   0.1443   0.1801   0.2331
     0.2767   0.2832   0.2966   0.3111   0.3158   0.4902   0.5397   0.5814
     0.6147   0.6608   0.8219   0.8442   0.9656   1.0400   1.2026   1.2809
     1.3553   1.4336   1.5471   1.6220   1.9267   1.9724   3.4447   3.5320
     3.5768   3.5906   3.6858   3.7278   3.8975   3.9278   3.9424   4.0023

[...]

          k = 0.0380-0.0419 0.0000 ( 17876 PWs)   bands (ev):

[...]

          k =-0.0760-0.0000 0.0000 ( 17886 PWs)   bands (ev):

[...]

          k =-0.0760-0.0839 0.0000 ( 17948 PWs)   bands (ev):

   -55.6693 -55.6684 -55.6546 -55.6472 -55.5859 -55.5436 -55.5179 -55.5071
   -55.4840 -55.4826 -55.4507 -55.4450 -55.2567 -55.0348 -54.6494 -54.6493
   -32.0293 -32.0197 -31.9847 -31.9840 -31.9646 -31.9637 -31.9439 -31.9374
   -31.8845 -31.8839 -31.8736 -31.8685 -31.8515 -31.8336 -31.8089 -31.8042
   -31.7998 -31.7962 -31.7896 -31.7895 -31.7883 -31.7879 -31.7843 -31.7445
   -31.7360 -31.7244 -31.7162 -31.7051 -31.6846 -31.6837 -31.6816 -31.6750
   -31.6651 -31.6610 -31.6575 -31.6550 -31.6138 -31.5106 -31.4610 -31.3622
   -31.2927 -31.2623 -30.9754 -30.9753 -30.8865 -30.8864 -30.8472 -30.8472
   -16.7462 -15.8641 -15.8030 -15.6451 -15.6098 -15.5904 -15.5554 -15.4946
   -15.4114 -15.3843 -15.3796 -15.3325 -15.3068 -15.2740 -15.2359 -15.2215
   -15.2143 -15.1955 -15.1832 -15.1494 -15.1399 -15.1283 -15.1211 -15.0456
   -15.0080 -15.0036 -14.9981 -14.8944 -14.7678 -14.5010 -13.1547 -13.1546
   -11.8198  -9.0054  -5.4492  -4.3628  -3.7641  -3.1569  -3.0699  -2.8951
    -2.8396  -2.8107  -2.7948  -2.6296  -2.6176  -2.6032  -2.5564  -2.5357
    -2.5282  -2.5171  -2.5080  -2.4870  -2.4743  -2.4403  -2.4298  -2.3947
    -2.3808  -2.3626  -2.3456  -2.3289  -2.3087  -2.2957  -2.2803  -2.2373
    -2.2185  -2.2073  -2.1863  -2.1425  -1.9319  -1.8820  -1.8371  -1.8331
    -1.8216  -1.8024  -1.7472  -1.7421  -1.7083  -1.6573  -1.5783  -1.4335
    -1.3882  -1.3718  -1.2786  -1.2570  -1.2042  -1.1323  -1.0865  -1.0695
    -1.0347  -0.9705  -0.9342  -0.8968  -0.8304  -0.8059  -0.8000  -0.7062
    -0.6854  -0.6492  -0.6425  -0.5640  -0.5133  -0.4505  -0.4351  -0.4187
    -0.3871  -0.3536  -0.3355  -0.2676  -0.1756  -0.1745  -0.1516  -0.0424
     0.0483   0.2766   0.3394   0.3763   0.4212   0.5149   0.5833   0.6080
     0.6238   0.6455   0.6649   0.7131   0.8400   0.8501   0.8844   0.9973
     1.1013   1.6383   1.7188   1.7197   1.7923   1.7924   3.7462   3.7644
     3.7849   3.8314   3.9506   3.9576   3.9798   3.9820   4.1053   4.1174

     the Fermi energy is     3.4462 ev

!    total energy              =   -2941.66152593 Ry
     estimated scf accuracy    <       0.00000007 Ry
     smearing contrib. (-TS)   =      -0.02151859 Ry
     internal energy E=F+TS    =   -2941.64000733 Ry

     The total energy is F=E-TS. E is the sum of the following terms:
     one-electron contribution =  -24276.12302745 Ry
     hartree contribution      =   12228.52429710 Ry
     xc contribution           =    -486.87889559 Ry
     ewald contribution        =    9592.83593596 Ry
     electric field correction =       0.00168265 Ry

     convergence has been achieved in  68 iterations

     Forces acting on atoms (cartesian axes, Ry/au):

     atom    1 type  1   force =     0.00017827   -0.00011423    0.09635984
     atom    2 type  1   force =    -0.00021599   -0.00063277   -0.17550589
     atom    3 type  2   force =    -0.00004165   -0.00003353   -0.02419212
     atom    4 type  2   force =     0.00004934   -0.00143891    0.05291782
     atom    5 type  2   force =    -0.01182493   -0.00049332    0.00395190
     atom    6 type  2   force =     0.01313510    0.00023255    0.00228898
     atom    7 type  1   force =    -0.00140145    0.00080252   -0.01149145
     atom    8 type  1   force =     0.00053661    0.00921554    0.02521876
     atom    9 type  2   force =    -0.00010762    0.00017748    0.00037542
     atom   10 type  2   force =    -0.00086728    0.00148495   -0.01581571
     atom   11 type  2   force =    -0.00018722   -0.00049506    0.00039870
     atom   12 type  2   force =    -0.00013903   -0.00026320    0.00003262
     atom   13 type  1   force =     0.00055030   -0.00091504    0.00008720
     atom   14 type  1   force =    -0.00008204   -0.00040603    0.00024692
     atom   15 type  2   force =     0.00017945    0.00003032   -0.00030180
     atom   16 type  2   force =     0.00006673    0.00025074    0.00006632
     atom   17 type  2   force =    -0.00052173    0.00034830    0.00049185
     atom   18 type  2   force =     0.00012380    0.00011547    0.00029153
     atom   19 type  1   force =     0.00008660   -0.00055746    0.00022233
     atom   20 type  1   force =     0.00015794    0.00037128    0.00058280
     atom   21 type  2   force =     0.00007475   -0.00007982    0.10319200
     atom   22 type  2   force =    -0.00042104   -0.00027714    0.00024140
     atom   23 type  2   force =    -0.07148349   -0.00018121   -0.02770340
     atom   24 type  2   force =     0.07140605    0.00025094   -0.02770363
     atom   25 type  1   force =     0.00002981   -0.00027538    0.09581818
     atom   26 type  1   force =    -0.00014675   -0.00023635   -0.17567894
     atom   27 type  2   force =     0.00008972   -0.00012597   -0.02329627
     atom   28 type  2   force =     0.00007970   -0.00129568    0.05333915
     atom   29 type  2   force =    -0.01195445   -0.00005774    0.00374855
     atom   30 type  2   force =     0.01320333    0.00042789    0.00212387
     atom   31 type  1   force =    -0.00141578    0.00344926   -0.01081811
     atom   32 type  1   force =     0.00064394   -0.01009516    0.02562995
     atom   33 type  2   force =    -0.00039033    0.00005081    0.00003627
     atom   34 type  2   force =     0.00074705    0.00089910   -0.02308296
     atom   35 type  2   force =    -0.00010432    0.00029170   -0.00001998
     atom   36 type  2   force =    -0.00022969    0.00059803   -0.00028634
     atom   37 type  1   force =    -0.00082259   -0.00101947   -0.00013023
     atom   38 type  1   force =    -0.00002649   -0.00009855   -0.00002371
     atom   39 type  2   force =    -0.00035105    0.00004023    0.00057070
     atom   40 type  2   force =     0.00048812    0.00024915    0.00027666
     atom   41 type  2   force =     0.00004025    0.00050755    0.00027418
     atom   42 type  2   force =     0.00009119    0.00027483   -0.00017073
     atom   43 type  1   force =     0.00020380    0.00009125   -0.00020956
     atom   44 type  1   force =    -0.00025578   -0.00061886    0.00000241
     atom   45 type  2   force =     0.00007016   -0.00008689    0.10322238
     atom   46 type  2   force =    -0.07148585   -0.00017060   -0.02770134
     atom   47 type  2   force =     0.07140931    0.00030823   -0.02771748
     atom   48 type  3   force =    -0.00064804   -0.00018465   -0.00012561
     atom   49 type  3   force =     0.00051352   -0.00023759    0.00031295
     atom   50 type  4   force =    -0.00750672    0.00188874   -0.00329599
     atom   51 type  5   force =     0.00038258    0.00063563   -0.00113320
     atom   52 type  5   force =     0.00845355   -0.00133528    0.00404226
     atom   53 type  5   force =    -0.00013993   -0.00169231    0.00064020
     atom   54 type  5   force =     0.00001686    0.00066503   -0.00045531
     atom   55 type  5   force =    -0.00023658   -0.00023935   -0.00014431

     Total force =     0.367533     Total SCF correction =     0.000721
  @ DRIVER MODE: Message from server: STATUS
  @ DRIVER MODE: Message from server: GETFORCE
  @ DRIVER MODE: Returning v,forces,stress,ensemble

     Writing output data file ./calc.save/
  @ DRIVER MODE: Message from server: EXIT
  @ DRIVE MODE: Exiting

     General routines

     Parallel routines

   This run was terminated on:   6:15:15  25Aug2021

   JOB DONE.