     Program PWSCF v.6.7GPU starts on 23Sep2021 at  2:58:23

     R & G space division:  proc/nbgrp/npool/nimage =      10
     Reading input from /storage/home/hcoda1/3/ntian30/research/carbon/CxH_vib/H2O_calc/ads_slab/CH3NNH3HO_a/out_0031/pw.inp
Warning: card &CELL ignored
Warning: card   CELL_DYNAMICS='IPI', ignored
Warning: card / ignored

     Current dimensions of program PWSCF are:
     Max number of different atomic species (ntypx) = 10
     Max number of k-points (npk) =  40000
     Max angular momentum in pseudopotentials (lmaxx) =  3
     Presently no symmetry can be used with electric field

     Message from routine cell_base_init:
     DEPRECATED: use true lattice parameter, not A to a.u. conversion factor

     IMPORTANT: XC functional enforced from input :
     Exchange-correlation= BEEF-VDW
                           (   1   4  43  14   2   0   0)
     Any further DFT definition will be discarded
     Please, verify this is what you really want

  @ DRIVER MODE: Connecting to
 qe_1139763_2937318.sched-torque.pace.gatech.edu2pxx4uh6_scratch
  using UNIX socket
  @ DRIVER MODE: Message from server: STATUS
  @ DRIVER MODE: Message from server: INIT
  @ DRIVER MODE: Receiving replica           0          -1
  @ DRIVER MODE: Receiving encoded integer          25
  @ DRIVER MODE:  SCF:  T  FORCE:  T  STRESS:  F  VC:  F  ENSEMBLE:  F
  @ DRIVER MODE:  SCF:  T  FORCE:  T  STRESS:  F  VC:  F  ENSEMBLE:  F

     Using Slab Decomposition

     bravais-lattice index     =            0
     lattice parameter (alat)  =       1.8897  a.u.
     unit-cell volume          =    6658.9804 (a.u.)^3
     number of atoms/cell      =           58
     number of atomic types    =            5
     number of electrons       =       405.00
     number of Kohn-Sham states=          212
     kinetic-energy cutoff     =      29.3995  Ry
     charge density cutoff     =     293.9946  Ry
     scf convergence threshold =      7.3E-08
     mixing beta               =       0.0500
     number of iterations used =            8  plain     mixing
     Exchange-correlation= BEEF-VDW
                           (   1   4  43  14   2   0   0)

     celldm(1)=   1.889726  celldm(2)=   0.000000  celldm(3)=   0.000000
     celldm(4)=   0.000000  celldm(5)=   0.000000  celldm(6)=   0.000000

     crystal axes: (cart. coord. in units of alat)
               a(1) = (   6.579727   0.000000   0.000000 )
               a(2) = (  -0.000775   5.961596   0.000000 )
               a(3) = (   0.000000   0.000000  25.155947 )

     reciprocal axes: (cart. coord. in units 2 pi/alat)
               b(1) = (  0.151982  0.000020  0.000000 )
               b(2) = (  0.000000  0.167740  0.000000 )
               b(3) = (  0.000000  0.000000  0.039752 )

     PseudoPot. # 1 for Ti read from file:
     /storage/coda1/p-amedford6/0/shared/rich_project_chbe-medford/medford-share/data/pseudos_module/espresso/nninc/pbe/van/Ti.UPF
     MD5 check sum: 8e4df49b7f0d34bbd5052bf3f5ea0213
     Pseudo is Ultrasoft, Zval = 12.0
     Generated by new atomic code, or converted to UPF format
     Using radial grid of  851 points,  6 beta functions with:
                l(1) =   0
                l(2) =   0
                l(3) =   1
                l(4) =   1
                l(5) =   2
                l(6) =   2
     Q(r) pseudized with  8 coefficients,  rinner =    1.000   1.000   1.000
                                                       1.000   1.000

     PseudoPot. # 2 for O  read from file:
     /storage/coda1/p-amedford6/0/shared/rich_project_chbe-medford/medford-share/data/pseudos_module/espresso/nninc/pbe/van/O.UPF
     MD5 check sum: 78c19812648e8988a0fe644b0f25305e
     Pseudo is Ultrasoft, Zval =  6.0
     Generated by new atomic code, or converted to UPF format
     Using radial grid of  737 points,  4 beta functions with:
                l(1) =   0
                l(2) =   0
                l(3) =   1
                l(4) =   1
     Q(r) pseudized with  8 coefficients,  rinner =    0.800   0.800   0.800

     PseudoPot. # 3 for N  read from file:
     /storage/coda1/p-amedford6/0/shared/rich_project_chbe-medford/medford-share/data/pseudos_module/espresso/nninc/pbe/van/N.UPF
     MD5 check sum: 90d10febe142ad51ac9d5be1deb811c4
     Pseudo is Ultrasoft, Zval =  5.0
     Generated by new atomic code, or converted to UPF format
     Using radial grid of  729 points,  4 beta functions with:
                l(1) =   0
                l(2) =   0
                l(3) =   1
                l(4) =   1
     Q(r) pseudized with  8 coefficients,  rinner =    0.800   0.800   0.800

     PseudoPot. # 4 for C  read from file:
     /storage/coda1/p-amedford6/0/shared/rich_project_chbe-medford/medford-share/data/pseudos_module/espresso/nninc/pbe/van/C.UPF
     MD5 check sum: 1a69bf6b8db32088f5b2163dbdb77a27
     Pseudo is Ultrasoft, Zval =  4.0
     Generated by new atomic code, or converted to UPF format
     Using radial grid of  721 points,  4 beta functions with:
                l(1) =   0
                l(2) =   0
                l(3) =   1
                l(4) =   1
     Q(r) pseudized with  8 coefficients,  rinner =    0.800   0.800   0.800

     PseudoPot. # 5 for H  read from file:
     /storage/coda1/p-amedford6/0/shared/rich_project_chbe-medford/medford-share/data/pseudos_module/espresso/nninc/pbe/van/H.UPF
     MD5 check sum: b5ee9d7bfd3a09ee7748110bda690ff7
     Pseudo is Ultrasoft, Zval =  1.0
     Generated by new atomic code, or converted to UPF format
     Using radial grid of  615 points,  1 beta functions with:
                l(1) =   0
     Q(r) pseudized with  8 coefficients,  rinner =    0.800

     atomic species   valence    mass     pseudopotential
        Ti1           12.00    47.86700     Ti( 1.00)
        O1             6.00    15.99900     O ( 1.00)
        N1             5.00    14.00700     N ( 1.00)
        C1             4.00    12.01100     C ( 1.00)
        H1             1.00     1.00800     H ( 1.00)

     No symmetry found

   Cartesian axes

     site n.     atom                  positions (alat units)
         1           Ti1 tau(   1) = (   0.0004258   2.9801865   6.0000000  )
         2           Ti1 tau(   2) = (   3.2906075   1.4906267   6.0002472  )
         3           O1  tau(   3) = (   0.0006271   0.0005054   7.9858123  )
         4           O1  tau(   4) = (   3.2906025   0.0005020   7.3038282  )
         5           O1  tau(   5) = (   4.5942328   1.4918067   9.2879030  )
         6           O1  tau(   6) = (   1.9868534   1.4903216   9.2879459  )
         7           Ti1 tau(   7) = (   3.2907910   2.8959150   9.1758416  )
         8           Ti1 tau(   8) = (   0.0015273   1.4827037   9.2680791  )
         9           O1  tau(   9) = (   3.2949357   5.9297256  11.2770696  )
        10           O1  tau(  10) = (   0.0116148   5.9584955  10.6183126  )
        11           O1  tau(  11) = (   1.2901270   1.4659759  12.6218969  )
        12           O1  tau(  12) = (   5.3029181   1.4690452  12.6271982  )
        13           Ti1 tau(  13) = (   6.5637346   3.0486055  12.7052252  )
        14           Ti1 tau(  14) = (   3.3207578   1.2909511  12.6638180  )
        15           O1  tau(  15) = (   0.0081040   5.9567798  14.6379979  )
        16           O1  tau(  16) = (   3.2944190   0.0149942  13.8863584  )
        17           O1  tau(  17) = (   4.5334936   1.5584448  16.0391558  )
        18           O1  tau(  18) = (   2.0244848   1.5379376  16.0854781  )
        19           Ti1 tau(  19) = (   3.2579824   3.0118882  15.6538344  )
        20           Ti1 tau(  20) = (   6.4918182   1.5199401  15.8876453  )
        21           O1  tau(  21) = (   3.2904802   0.0005063   4.7018136  )
        22           O1  tau(  22) = (   6.5166677   0.0216046  17.1949088  )
        23           O1  tau(  23) = (   1.3043587   1.4918075   6.0039043  )
        24           O1  tau(  24) = (   5.2767064   1.4903225   6.0039473  )
        25           Ti1 tau(  25) = (   0.0000382   5.9609847   6.0000000  )
        26           Ti1 tau(  26) = (   3.2902200   4.4714249   6.0002472  )
        27           O1  tau(  27) = (   0.0002396   2.9813036   7.9858123  )
        28           O1  tau(  28) = (   3.2902150   2.9813002   7.3038282  )
        29           O1  tau(  29) = (   4.5938453   4.4726049   9.2879030  )
        30           O1  tau(  30) = (   1.9864658   4.4711199   9.2879459  )
        31           Ti1 tau(  31) = (   3.2891106   5.8743827   9.1763621  )
        32           Ti1 tau(  32) = (   0.0006254   4.4649316   9.2693709  )
        33           O1  tau(  33) = (   3.2959121   3.0085915  11.2438341  )
        34           O1  tau(  34) = (   0.0092240   2.9805883  10.6323155  )
        35           O1  tau(  35) = (   1.2849535   4.4488585  12.6204231  )
        36           O1  tau(  36) = (   5.2878833   4.4365118  12.6243745  )
        37           Ti1 tau(  37) = (   0.0500071   0.0677371  12.6535751  )
        38           Ti1 tau(  38) = (   3.3027700   4.3871210  12.4110406  )
        39           O1  tau(  39) = (   6.5685058   2.9535060  14.6525041  )
        40           O1  tau(  40) = (   3.2696111   2.9719761  13.8704823  )
        41           O1  tau(  41) = (   4.5209813   4.4409030  16.0696701  )
        42           O1  tau(  42) = (   2.0131998   4.4599944  16.0916020  )
        43           Ti1 tau(  43) = (   3.2138439   0.0230873  16.3295100  )
        44           Ti1 tau(  44) = (   6.5234412   4.6200706  16.0754176  )
        45           O1  tau(  45) = (   3.2900926   2.9813045   4.7018136  )
        46           O1  tau(  46) = (   1.3039711   4.4726057   6.0039043  )
        47           O1  tau(  47) = (   5.2763189   4.4711207   6.0039473  )
        48           N1  tau(  48) = (   0.0251376   2.9556585  17.3246074  )
        49           N1  tau(  49) = (   6.3772498   2.5461882  22.2688425  )
        50           C1  tau(  50) = (   0.2111848   2.8484408  18.7116211  )
        51           H1  tau(  51) = (   0.3920758   3.8074029  19.2116250  )
        52           H1  tau(  52) = (   5.9044209   2.3708277  19.1722604  )
        53           H1  tau(  53) = (   1.0133575   2.1342068  18.9364007  )
        54           H1  tau(  54) = (   6.0930523   3.2289774  22.9628454  )
        55           H1  tau(  55) = (   0.2277240   1.7755739  22.7685771  )
        56           H1  tau(  56) = (   0.5282093   2.9785696  21.7129995  )
        57           O1  tau(  57) = (   3.3838229   0.0530270  18.1522483  )
        58           H1  tau(  58) = (   4.2718821   5.8932998  18.5223319  )

     number of k points=    10  Fermi-Dirac smearing, width (Ry)=  0.0073
                       cart. coord. in units 2pi/alat
        k(    1) = (   0.0000000   0.0000000   0.0000000), wk =   0.1250000
        k(    2) = (   0.0000000   0.0419351   0.0000000), wk =   0.2500000
        k(    3) = (   0.0000000  -0.0838702   0.0000000), wk =   0.1250000
        k(    4) = (   0.0379955   0.0000049   0.0000000), wk =   0.2500000
        k(    5) = (   0.0379955   0.0419400   0.0000000), wk =   0.2500000
        k(    6) = (   0.0379955  -0.0838652   0.0000000), wk =   0.2500000
        k(    7) = (   0.0379955  -0.0419301   0.0000000), wk =   0.2500000
        k(    8) = (  -0.0759910  -0.0000099   0.0000000), wk =   0.1250000
        k(    9) = (  -0.0759910   0.0419252   0.0000000), wk =   0.2500000
        k(   10) = (  -0.0759910  -0.0838800   0.0000000), wk =   0.1250000

     Initial potential from superposition of free atoms

     starting charge  388.99913, renormalised to  405.00000

     negative rho (up, down):  7.828E-03 0.000E+00

     %%%%%%%%%%%%%%%%%%%%%%%%%%%%%%%%%%%%%%%%%%%%%%%%%%%%%%%%%%%%%%%%%%%%%%%%
     %                                                                      %
     % You are using vdW-DF, which was implemented by the Thonhauser group. %
     % Please cite the following two papers that made this development      %
     % possible and the two reviews that describe the various versions:     %
     %                                                                      %
     %   T. Thonhauser et al., PRL 115, 136402 (2015).                      %
     %   T. Thonhauser et al., PRB 76, 125112 (2007).                       %
     %   K. Berland et al., Rep. Prog. Phys. 78, 066501 (2015).             %
     %   D.C. Langreth et al., J. Phys.: Condens. Matter 21, 084203 (2009). %
     %                                                                      %
     %                                                                      %
     % If you are calculating the stress with vdW-DF, please also cite:     %
     %                                                                      %
     %   R. Sabatini et al., J. Phys.: Condens. Matter 24, 424209 (2012).   %
     %                                                                      %
     %%%%%%%%%%%%%%%%%%%%%%%%%%%%%%%%%%%%%%%%%%%%%%%%%%%%%%%%%%%%%%%%%%%%%%%%

     Adding external electric field

     Computed dipole along edir(3) :
        Dipole              -15.1933 Ry au,        -38.6176 Debye
        Dipole field         -0.0287 Ry au,

        Potential amp.        2.6578 Ry
        Total length         46.3494 bohr

     Starting wfcs are  307 atomic wfcs
  @ DRIVER MODE: Message from server: STATUS
  @ DRIVER MODE: Message from server: POSDATA
  @ DRIVER MODE: Reading and sharing cell
  @ DRIVER MODE: Reading and sharing positions
  @ DRIVER MODE: Received positions

     Self-consistent Calculation

     iteration #  1     ecut=    29.40 Ry     beta= 0.05
     Davidson diagonalization with overlap
     c_bands:  4 eigenvalues not converged
     c_bands:  1 eigenvalues not converged
     c_bands:  1 eigenvalues not converged
     c_bands:  2 eigenvalues not converged
     c_bands:  1 eigenvalues not converged
     c_bands:  2 eigenvalues not converged
     ethr =  1.00E-05,  avg # of iterations = 31.5

[...]

     total energy              =   -2295.06105485 Ry
     estimated scf accuracy    <    7743.68417020 Ry

     iteration #  2     ecut=    29.40 Ry     beta= 0.05
     Davidson diagonalization with overlap
     ethr =  1.00E-02,  avg # of iterations = 23.2

[...]

     iteration # 55     ecut=    29.40 Ry     beta= 0.05
     Davidson diagonalization with overlap
     c_bands:  1 eigenvalues not converged
     ethr =  1.64E-06,  avg # of iterations =  9.2

[...]

     total energy              =   -2976.42348104 Ry
     estimated scf accuracy    <       0.00000022 Ry

     iteration # 77     ecut=    29.40 Ry     beta= 0.05
     Davidson diagonalization with overlap
     ethr =  5.32E-11,  avg # of iterations =  2.7

     negative rho (up, down):  9.593E-03 0.000E+00

     Adding external electric field

     Computed dipole along edir(3) :
        Dipole                0.6351 Ry au,          1.6143 Debye
        Dipole field          0.0012 Ry au,

        Potential amp.       -0.1111 Ry
        Total length         46.3494 bohr

     End of self-consistent calculation

          k = 0.0000 0.0000 0.0000 ( 18029 PWs)   bands (ev):

   -56.5644 -56.5309 -55.6401 -55.6050 -55.4243 -55.3577 -55.2297 -55.1155
   -55.0816 -55.0340 -55.0023 -54.9680 -54.9100 -54.8164 -54.7446 -54.6130
   -32.9832 -32.8349 -32.8068 -32.7438 -32.6536 -32.6102 -32.1219 -31.8991
   -31.8604 -31.8388 -31.7843 -31.7765 -31.7512 -31.6576 -31.6373 -31.5927
   -31.5608 -31.5453 -31.5211 -31.5090 -31.5038 -31.4932 -31.4625 -31.4617
   -31.4380 -31.4197 -31.3544 -31.3195 -31.2975 -31.2920 -31.2392 -31.2316
   -31.2150 -31.1933 -31.1806 -31.1655 -31.1583 -31.1278 -31.1225 -31.0909
   -31.0467 -31.0020 -31.0013 -30.9798 -30.9468 -30.8872 -30.8505 -30.8000
   -16.6678 -16.1098 -16.0869 -15.8809 -15.7584 -15.7533 -15.7100 -15.6415
   -15.4720 -15.4037 -15.3750 -15.3138 -15.1698 -15.0539 -14.9567 -14.7773
   -14.7034 -14.6983 -14.6791 -14.6720 -14.6549 -14.6339 -14.5750 -14.5164
   -14.4740 -14.4091 -14.3658 -14.2196 -14.0198 -13.9941 -13.9548 -13.6131
   -13.5062 -13.5060  -7.7554  -4.2432  -4.0347  -4.0156  -3.6976  -3.5766
    -3.4039  -3.2513  -3.2194  -3.1436  -3.0833  -3.0744  -2.9264  -2.9247
    -2.9127  -2.9071  -2.8278  -2.7714  -2.7042  -2.6174  -2.6018  -2.5073
    -2.4606  -2.3012  -2.2755  -2.1744  -2.1023  -2.0968  -2.0304  -2.0080
    -1.9606  -1.9155  -1.9066  -1.8715  -1.8276  -1.7809  -1.7622  -1.6514
    -1.6439  -1.5785  -1.5726  -1.5495  -1.4361  -1.4161  -1.3462  -1.2013
    -1.1796  -1.1764  -1.1290  -1.1119  -1.0300  -0.9347  -0.8669  -0.8402
    -0.7839  -0.6957  -0.6490  -0.6273  -0.5549  -0.5354  -0.4613  -0.4180
    -0.4043  -0.3840  -0.3424  -0.2275  -0.1406  -0.1079  -0.0541  -0.0287
     0.0040   0.0306   0.0497   0.0985   0.1684   0.2534   0.2754   0.4139
     0.4658   0.5026   0.5786   0.6129   0.6191   0.7083   0.7400   0.7696
     0.8161   0.8907   0.9054   0.9062   0.9652   1.0493   1.1037   1.1538
     1.1679   1.2043   1.2122   1.2630   1.3517   1.3725   1.4419   1.4969
     1.8181   1.8828   2.4858   2.7300   2.9014   3.1783   3.3703   3.6737
     3.7159   3.7338   3.7339   4.1875

[...]

          k = 0.0380-0.0419 0.0000 ( 17876 PWs)   bands (ev):

[...]

          k =-0.0760-0.0000 0.0000 ( 17886 PWs)   bands (ev):

[...]

          k =-0.0760-0.0839 0.0000 ( 17948 PWs)   bands (ev):

   -56.5483 -56.5469 -55.6277 -55.6172 -55.4196 -55.3623 -55.2289 -55.0991
   -55.0980 -55.0291 -55.0029 -54.9726 -54.9084 -54.8149 -54.7462 -54.6143
   -32.8214 -32.8198 -32.8011 -32.7997 -32.6979 -32.6968 -31.9464 -31.9372
   -31.8222 -31.8169 -31.8110 -31.8093 -31.7190 -31.6762 -31.6509 -31.6378
   -31.5881 -31.5864 -31.5006 -31.4734 -31.4637 -31.4515 -31.4507 -31.3685
   -31.3489 -31.3193 -31.3178 -31.3007 -31.2935 -31.2835 -31.2795 -31.2789
   -31.2507 -31.2317 -31.2140 -31.1993 -31.1954 -31.1575 -31.1572 -31.1013
   -31.0898 -31.0497 -31.0056 -30.9946 -30.9586 -30.9515 -30.8525 -30.8354
   -16.0748 -16.0262 -16.0243 -15.9808 -15.9792 -15.7175 -15.7131 -15.4628
   -15.4335 -15.2543 -15.1502 -15.1262 -15.0827 -15.0411 -14.9702 -14.9159
   -14.8862 -14.8544 -14.8282 -14.7662 -14.7364 -14.6317 -14.5989 -14.5514
   -14.5152 -14.4533 -14.4123 -14.3631 -14.1768 -14.1322 -13.9542 -13.6107
   -13.6101 -13.5310  -7.7546  -4.0454  -4.0158  -3.6893  -3.1762  -3.1022
    -3.0978  -3.0655  -3.0582  -2.9750  -2.8516  -2.8485  -2.7554  -2.6465
    -2.6200  -2.5971  -2.5365  -2.5273  -2.4270  -2.3772  -2.3723  -2.3582
    -2.3218  -2.2922  -2.2857  -2.2259  -2.0877  -2.0718  -2.0222  -1.9682
    -1.8939  -1.8854  -1.8758  -1.8391  -1.7974  -1.7720  -1.7611  -1.7339
    -1.7291  -1.7246  -1.6157  -1.5104  -1.4630  -1.3693  -1.3652  -1.3562
    -1.3184  -1.2912  -1.2577  -1.2512  -1.2225  -1.1423  -1.1162  -1.0465
    -0.9330  -0.9155  -0.8731  -0.8249  -0.7211  -0.7029  -0.6132  -0.5768
    -0.5654  -0.5069  -0.4770  -0.4610  -0.4030  -0.3637  -0.2319  -0.1920
    -0.1807  -0.1635  -0.1411  -0.1050  -0.0442   0.0175   0.0496   0.0517
     0.1562   0.2558   0.3426   0.4129   0.4222   0.4448   0.5315   0.6371
     0.6783   0.7029   0.7513   0.8747   0.9925   1.0223   1.1261   1.1521
     1.1619   1.2640   1.2822   1.2873   1.3073   1.3165   1.3510   1.4179
     1.4787   1.7630   2.3188   3.3225   3.3256   3.3838   3.3894   3.7002
     3.7025   3.8136   3.8187   4.1457

     the Fermi energy is     2.3958 ev

!    total energy              =   -2976.42350276 Ry
     estimated scf accuracy    <       0.00000006 Ry
     smearing contrib. (-TS)   =      -0.01083500 Ry
     internal energy E=F+TS    =   -2976.41266775 Ry

     The total energy is F=E-TS. E is the sum of the following terms:
     one-electron contribution =  -22707.59767964 Ry
     hartree contribution      =   11450.15491342 Ry
     xc contribution           =    -495.34811220 Ry
     ewald contribution        =    8776.37744946 Ry
     electric field correction =       0.00076120 Ry

     convergence has been achieved in  77 iterations

     Forces acting on atoms (cartesian axes, Ry/au):

     atom    1 type  1   force =     0.00002416   -0.00051906    0.12630101
     atom    2 type  1   force =    -0.00009458    0.00041190   -0.15469979
     atom    3 type  2   force =     0.00002840    0.00002651   -0.06828375
     atom    4 type  2   force =     0.00005938   -0.00010784    0.01705760
     atom    5 type  2   force =    -0.00487704   -0.00242439   -0.01324187
     atom    6 type  2   force =     0.00656043   -0.00180256   -0.01375934
     atom    7 type  1   force =    -0.00029288   -0.00661939    0.05922215
     atom    8 type  1   force =     0.00038791    0.00686829    0.10030597
     atom    9 type  2   force =    -0.00002277    0.00067003    0.00130590
     atom   10 type  2   force =    -0.00261331   -0.00001340   -0.06337451
     atom   11 type  2   force =     0.00043680   -0.00069181   -0.00028216
     atom   12 type  2   force =    -0.00084973   -0.00112885   -0.00109617
     atom   13 type  1   force =    -0.00029343    0.00070672   -0.00140048
     atom   14 type  1   force =    -0.00032968   -0.00039677   -0.00025586
     atom   15 type  2   force =    -0.00065640   -0.00039129   -0.00058172
     atom   16 type  2   force =     0.00019418    0.00092720   -0.00030190
     atom   17 type  2   force =     0.00079222    0.00008576   -0.00055604
     atom   18 type  2   force =    -0.00022736   -0.00016053   -0.00004547
     atom   19 type  1   force =    -0.00019821   -0.00012384   -0.00092241
     atom   20 type  1   force =     0.00069534    0.00088117   -0.00050362
     atom   21 type  2   force =     0.00006307    0.00015653    0.09780137
     atom   22 type  2   force =     0.00042089   -0.00029499    0.00152401
     atom   23 type  2   force =    -0.08275267    0.00005515   -0.03313339
     atom   24 type  2   force =     0.08269566    0.00050253   -0.03320767
     atom   25 type  1   force =     0.00006737   -0.00035774    0.12645291
     atom   26 type  1   force =    -0.00011145   -0.00149334   -0.15488306
     atom   27 type  2   force =     0.00011516   -0.00046794   -0.06665926
     atom   28 type  2   force =     0.00004920    0.00167125    0.01199760
     atom   29 type  2   force =    -0.00342740    0.00422275   -0.01621467
     atom   30 type  2   force =     0.00505707    0.00456544   -0.01661752
     atom   31 type  1   force =    -0.00015927    0.00217770    0.04254540
     atom   32 type  1   force =     0.00044268   -0.00893952    0.10087639
     atom   33 type  2   force =    -0.00048355   -0.00014419   -0.00039486
     atom   34 type  2   force =    -0.00212510   -0.00026156   -0.07624502
     atom   35 type  2   force =    -0.00010543    0.00070162    0.00086241
     atom   36 type  2   force =    -0.00048952    0.00051872    0.00038956
     atom   37 type  1   force =     0.00043414    0.00061762   -0.00019218
     atom   38 type  1   force =    -0.00041919   -0.00067316   -0.00068955
     atom   39 type  2   force =     0.00045150   -0.00032575   -0.00039005
     atom   40 type  2   force =     0.00036924   -0.00062974   -0.00000156
     atom   41 type  2   force =     0.00026972    0.00049309   -0.00004737
     atom   42 type  2   force =    -0.00022238   -0.00018720    0.00011829
     atom   43 type  1   force =     0.00052109    0.00135616   -0.00096180
     atom   44 type  1   force =    -0.00027386   -0.00110569    0.00081193
     atom   45 type  2   force =     0.00009492   -0.00001568    0.09764164
     atom   46 type  2   force =    -0.08280002    0.00003760   -0.03318368
     atom   47 type  2   force =     0.08270985    0.00045619   -0.03319106
     atom   48 type  3   force =    -0.00008693    0.00047074    0.00014102
     atom   49 type  3   force =     0.00012274   -0.00005083   -0.00100365
     atom   50 type  4   force =    -0.00524456    0.00462909   -0.00064597
     atom   51 type  5   force =     0.00014629   -0.00046933   -0.00047576
     atom   52 type  5   force =    -0.00079645    0.00151460   -0.00066788
     atom   53 type  5   force =     0.00665115   -0.00441607    0.00187176
     atom   54 type  5   force =    -0.00009070   -0.00004612    0.00004751
     atom   55 type  5   force =     0.00034881    0.00014669    0.00013356
     atom   56 type  5   force =     0.00013024   -0.00003807    0.00020851
     atom   57 type  2   force =    -0.00183424   -0.00056845    0.00037525
     atom   58 type  5   force =     0.00153849   -0.00000594    0.00011931

     Total force =     0.420808     Total SCF correction =     0.000910
  @ DRIVER MODE: Message from server: STATUS
  @ DRIVER MODE: Message from server: GETFORCE
  @ DRIVER MODE: Returning v,forces,stress,ensemble

     Writing output data file ./calc.save/
  @ DRIVER MODE: Message from server: EXIT
  @ DRIVE MODE: Exiting

     General routines

     Parallel routines

   This run was terminated on:   3:19:53  23Sep2021

   JOB DONE.