     Program PWSCF v.6.7GPU starts on 15Sep2021 at 20:27:59

     R & G space division:  proc/nbgrp/npool/nimage =      10
     Reading input from /storage/home/hcoda1/3/ntian30/research/carbon/CxH_vib/H2O_calc/ads_slab/CH2NH2O_a/out_0015/pw.inp
Warning: card &CELL ignored
Warning: card   CELL_DYNAMICS='IPI', ignored
Warning: card / ignored

     Current dimensions of program PWSCF are:
     Max number of different atomic species (ntypx) = 10
     Max number of k-points (npk) =  40000
     Max angular momentum in pseudopotentials (lmaxx) =  3
     Presently no symmetry can be used with electric field

     Message from routine cell_base_init:
     DEPRECATED: use true lattice parameter, not A to a.u. conversion factor

     IMPORTANT: XC functional enforced from input :
     Exchange-correlation= BEEF-VDW
                           (   1   4  43  14   2   0   0)
     Any further DFT definition will be discarded
     Please, verify this is what you really want

  @ DRIVER MODE: Connecting to
 qe_1139763_2852607.sched-torque.pace.gatech.eduxxzi7lra_scratch
  using UNIX socket
  @ DRIVER MODE: Message from server: STATUS
  @ DRIVER MODE: Message from server: INIT
  @ DRIVER MODE: Receiving replica           0          -1
  @ DRIVER MODE: Receiving encoded integer          25
  @ DRIVER MODE:  SCF:  T  FORCE:  T  STRESS:  F  VC:  F  ENSEMBLE:  F
  @ DRIVER MODE:  SCF:  T  FORCE:  T  STRESS:  F  VC:  F  ENSEMBLE:  F

     Using Slab Decomposition

     bravais-lattice index     =            0
     lattice parameter (alat)  =       1.8897  a.u.
     unit-cell volume          =    6658.9804 (a.u.)^3
     number of atoms/cell      =           54
     number of atomic types    =            5
     number of electrons       =       397.00
     number of Kohn-Sham states=          208
     kinetic-energy cutoff     =      29.3995  Ry
     charge density cutoff     =     293.9946  Ry
     scf convergence threshold =      7.3E-08
     mixing beta               =       0.0500
     number of iterations used =            8  plain     mixing
     Exchange-correlation= BEEF-VDW
                           (   1   4  43  14   2   0   0)

     celldm(1)=   1.889726  celldm(2)=   0.000000  celldm(3)=   0.000000
     celldm(4)=   0.000000  celldm(5)=   0.000000  celldm(6)=   0.000000

     crystal axes: (cart. coord. in units of alat)
               a(1) = (   6.579727   0.000000   0.000000 )
               a(2) = (  -0.000775   5.961596   0.000000 )
               a(3) = (   0.000000   0.000000  25.155947 )

     reciprocal axes: (cart. coord. in units 2 pi/alat)
               b(1) = (  0.151982  0.000020  0.000000 )
               b(2) = (  0.000000  0.167740  0.000000 )
               b(3) = (  0.000000  0.000000  0.039752 )

     PseudoPot. # 1 for Ti read from file:
     /storage/coda1/p-amedford6/0/shared/rich_project_chbe-medford/medford-share/data/pseudos_module/espresso/nninc/pbe/van/Ti.UPF
     MD5 check sum: 8e4df49b7f0d34bbd5052bf3f5ea0213
     Pseudo is Ultrasoft, Zval = 12.0
     Generated by new atomic code, or converted to UPF format
     Using radial grid of  851 points,  6 beta functions with:
                l(1) =   0
                l(2) =   0
                l(3) =   1
                l(4) =   1
                l(5) =   2
                l(6) =   2
     Q(r) pseudized with  8 coefficients,  rinner =    1.000   1.000   1.000
                                                       1.000   1.000

     PseudoPot. # 2 for O  read from file:
     /storage/coda1/p-amedford6/0/shared/rich_project_chbe-medford/medford-share/data/pseudos_module/espresso/nninc/pbe/van/O.UPF
     MD5 check sum: 78c19812648e8988a0fe644b0f25305e
     Pseudo is Ultrasoft, Zval =  6.0
     Generated by new atomic code, or converted to UPF format
     Using radial grid of  737 points,  4 beta functions with:
                l(1) =   0
                l(2) =   0
                l(3) =   1
                l(4) =   1
     Q(r) pseudized with  8 coefficients,  rinner =    0.800   0.800   0.800

     PseudoPot. # 3 for N  read from file:
     /storage/coda1/p-amedford6/0/shared/rich_project_chbe-medford/medford-share/data/pseudos_module/espresso/nninc/pbe/van/N.UPF
     MD5 check sum: 90d10febe142ad51ac9d5be1deb811c4
     Pseudo is Ultrasoft, Zval =  5.0
     Generated by new atomic code, or converted to UPF format
     Using radial grid of  729 points,  4 beta functions with:
                l(1) =   0
                l(2) =   0
                l(3) =   1
                l(4) =   1
     Q(r) pseudized with  8 coefficients,  rinner =    0.800   0.800   0.800

     PseudoPot. # 4 for C  read from file:
     /storage/coda1/p-amedford6/0/shared/rich_project_chbe-medford/medford-share/data/pseudos_module/espresso/nninc/pbe/van/C.UPF
     MD5 check sum: 1a69bf6b8db32088f5b2163dbdb77a27
     Pseudo is Ultrasoft, Zval =  4.0
     Generated by new atomic code, or converted to UPF format
     Using radial grid of  721 points,  4 beta functions with:
                l(1) =   0
                l(2) =   0
                l(3) =   1
                l(4) =   1
     Q(r) pseudized with  8 coefficients,  rinner =    0.800   0.800   0.800

     PseudoPot. # 5 for H  read from file:
     /storage/coda1/p-amedford6/0/shared/rich_project_chbe-medford/medford-share/data/pseudos_module/espresso/nninc/pbe/van/H.UPF
     MD5 check sum: b5ee9d7bfd3a09ee7748110bda690ff7
     Pseudo is Ultrasoft, Zval =  1.0
     Generated by new atomic code, or converted to UPF format
     Using radial grid of  615 points,  1 beta functions with:
                l(1) =   0
     Q(r) pseudized with  8 coefficients,  rinner =    0.800

     atomic species   valence    mass     pseudopotential
        Ti1           12.00    47.86700     Ti( 1.00)
        O1             6.00    15.99900     O ( 1.00)
        N1             5.00    14.00700     N ( 1.00)
        C1             4.00    12.01100     C ( 1.00)
        H1             1.00     1.00800     H ( 1.00)

     No symmetry found

   Cartesian axes

     site n.     atom                  positions (alat units)
         1           Ti1 tau(   1) = (   0.0004258   2.9801865   6.0000000  )
         2           Ti1 tau(   2) = (   3.2906075   1.4906267   6.0002472  )
         3           O1  tau(   3) = (   0.0006271   0.0005054   7.9858123  )
         4           O1  tau(   4) = (   3.2906025   0.0005020   7.3038282  )
         5           O1  tau(   5) = (   4.5942328   1.4918067   9.2879030  )
         6           O1  tau(   6) = (   1.9868534   1.4903216   9.2879459  )
         7           Ti1 tau(   7) = (   3.2907910   2.8959150   9.1758416  )
         8           Ti1 tau(   8) = (   0.0015273   1.4827037   9.2680791  )
         9           O1  tau(   9) = (   3.3024300   0.0156651  11.3362489  )
        10           O1  tau(  10) = (   0.0116148   5.9584955  10.6183126  )
        11           O1  tau(  11) = (   1.3202942   1.5021919  12.6211084  )
        12           O1  tau(  12) = (   5.3089492   1.4933221  12.6244093  )
        13           Ti1 tau(  13) = (   6.5318549   2.9554166  12.6004298  )
        14           Ti1 tau(  14) = (   3.2163550   1.4959796  12.4995714  )
        15           O1  tau(  15) = (   0.0198598   0.0281632  14.6562685  )
        16           O1  tau(  16) = (   3.3115091   0.0214956  13.9462002  )
        17           O1  tau(  17) = (   4.5768415   1.5604546  16.0171077  )
        18           O1  tau(  18) = (   2.0579415   1.5629007  16.0064375  )
        19           Ti1 tau(  19) = (   3.3180608   3.0267156  15.6839788  )
        20           Ti1 tau(  20) = (   0.0373526   1.5614015  15.8096867  )
        21           O1  tau(  21) = (   3.2904802   0.0005063   4.7018136  )
        22           O1  tau(  22) = (   0.0417102   0.0258274  17.2400240  )
        23           O1  tau(  23) = (   1.3043587   1.4918075   6.0039043  )
        24           O1  tau(  24) = (   5.2767064   1.4903225   6.0039473  )
        25           Ti1 tau(  25) = (   0.0000382   5.9609847   6.0000000  )
        26           Ti1 tau(  26) = (   3.2902200   4.4714249   6.0002472  )
        27           O1  tau(  27) = (   0.0002396   2.9813036   7.9858123  )
        28           O1  tau(  28) = (   3.2902150   2.9813002   7.3038282  )
        29           O1  tau(  29) = (   4.5938453   4.4726049   9.2879030  )
        30           O1  tau(  30) = (   1.9864658   4.4711199   9.2879459  )
        31           Ti1 tau(  31) = (   3.2891106   5.8743827   9.1763621  )
        32           Ti1 tau(  32) = (   0.0006254   4.4649316   9.2693709  )
        33           O1  tau(  33) = (   3.2972593   2.9937737  11.3378417  )
        34           O1  tau(  34) = (   0.0092240   2.9805883  10.6323155  )
        35           O1  tau(  35) = (   1.3143161   4.4928581  12.6237603  )
        36           O1  tau(  36) = (   5.3098643   4.4818631  12.6293382  )
        37           Ti1 tau(  37) = (   6.5333161   5.9285706  12.5502982  )
        38           Ti1 tau(  38) = (   3.2144982   4.4885123  12.4917375  )
        39           O1  tau(  39) = (   0.0198576   2.9709144  14.6477637  )
        40           O1  tau(  40) = (   3.3145585   3.0140958  13.8917140  )
        41           O1  tau(  41) = (   4.5688195   4.4932876  16.0791699  )
        42           O1  tau(  42) = (   2.0650477   4.4875755  16.0663885  )
        43           Ti1 tau(  43) = (   3.3331689   0.0560974  15.7812046  )
        44           Ti1 tau(  44) = (   0.0348837   4.6827776  16.0884590  )
        45           O1  tau(  45) = (   3.2900926   2.9813045   4.7018136  )
        46           O1  tau(  46) = (   1.3039711   4.4726057   6.0039043  )
        47           O1  tau(  47) = (   5.2763189   4.4711207   6.0039473  )
        48           N1  tau(  48) = (   0.0359943   2.9709886  17.3934402  )
        49           C1  tau(  49) = (   0.0487696   2.8543938  18.6443550  )
        50           H1  tau(  50) = (   0.0551173   3.7195775  19.3121947  )
        51           H1  tau(  51) = (   0.0550652   1.8705629  19.1311967  )
        52           O1  tau(  52) = (   3.2796845   0.1561466  18.1797653  )
        53           H1  tau(  53) = (   4.0301203   5.5808867  18.4795516  )
        54           H1  tau(  54) = (   2.4663764   5.6445902  18.4210942  )

     number of k points=    10  Fermi-Dirac smearing, width (Ry)=  0.0073
                       cart. coord. in units 2pi/alat
        k(    1) = (   0.0000000   0.0000000   0.0000000), wk =   0.1250000
        k(    2) = (   0.0000000   0.0419351   0.0000000), wk =   0.2500000
        k(    3) = (   0.0000000  -0.0838702   0.0000000), wk =   0.1250000
        k(    4) = (   0.0379955   0.0000049   0.0000000), wk =   0.2500000
        k(    5) = (   0.0379955   0.0419400   0.0000000), wk =   0.2500000
        k(    6) = (   0.0379955  -0.0838652   0.0000000), wk =   0.2500000
        k(    7) = (   0.0379955  -0.0419301   0.0000000), wk =   0.2500000
        k(    8) = (  -0.0759910  -0.0000099   0.0000000), wk =   0.1250000
        k(    9) = (  -0.0759910   0.0419252   0.0000000), wk =   0.2500000
        k(   10) = (  -0.0759910  -0.0838800   0.0000000), wk =   0.1250000

     Initial potential from superposition of free atoms

     starting charge  380.99916, renormalised to  397.00000

     negative rho (up, down):  1.694E-02 0.000E+00

     %%%%%%%%%%%%%%%%%%%%%%%%%%%%%%%%%%%%%%%%%%%%%%%%%%%%%%%%%%%%%%%%%%%%%%%%
     %                                                                      %
     % You are using vdW-DF, which was implemented by the Thonhauser group. %
     % Please cite the following two papers that made this development      %
     % possible and the two reviews that describe the various versions:     %
     %                                                                      %
     %   T. Thonhauser et al., PRL 115, 136402 (2015).                      %
     %   T. Thonhauser et al., PRB 76, 125112 (2007).                       %
     %   K. Berland et al., Rep. Prog. Phys. 78, 066501 (2015).             %
     %   D.C. Langreth et al., J. Phys.: Condens. Matter 21, 084203 (2009). %
     %                                                                      %
     %                                                                      %
     % If you are calculating the stress with vdW-DF, please also cite:     %
     %                                                                      %
     %   R. Sabatini et al., J. Phys.: Condens. Matter 24, 424209 (2012).   %
     %                                                                      %
     %%%%%%%%%%%%%%%%%%%%%%%%%%%%%%%%%%%%%%%%%%%%%%%%%%%%%%%%%%%%%%%%%%%%%%%%

     Adding external electric field

     Computed dipole along edir(3) :
        Dipole               -9.2265 Ry au,        -23.4513 Debye
        Dipole field         -0.0174 Ry au,

        Potential amp.        1.6140 Ry
        Total length         46.3494 bohr

     Starting wfcs are  300 atomic wfcs
  @ DRIVER MODE: Message from server: STATUS
  @ DRIVER MODE: Message from server: POSDATA
  @ DRIVER MODE: Reading and sharing cell
  @ DRIVER MODE: Reading and sharing positions
  @ DRIVER MODE: Received positions

     Self-consistent Calculation

     iteration #  1     ecut=    29.40 Ry     beta= 0.05
     Davidson diagonalization with overlap
     c_bands:  1 eigenvalues not converged
     c_bands:  1 eigenvalues not converged
     c_bands:  1 eigenvalues not converged
     c_bands:  1 eigenvalues not converged
     c_bands:  1 eigenvalues not converged
     c_bands:  1 eigenvalues not converged
     c_bands:  1 eigenvalues not converged
     ethr =  1.00E-05,  avg # of iterations = 19.0

[...]

     total energy              =   -2550.54185039 Ry
     estimated scf accuracy    <    4467.33896370 Ry

     iteration #  2     ecut=    29.40 Ry     beta= 0.05
     Davidson diagonalization with overlap
     ethr =  1.00E-02,  avg # of iterations = 24.8

[...]

     iteration # 69     ecut=    29.40 Ry     beta= 0.05
     Davidson diagonalization with overlap
     c_bands:  1 eigenvalues not converged
     ethr =  8.19E-10,  avg # of iterations = 10.9

[...]

     total energy              =   -2952.76137712 Ry
     estimated scf accuracy    <       0.00000012 Ry

     iteration # 76     ecut=    29.40 Ry     beta= 0.05
     Davidson diagonalization with overlap
     ethr =  3.04E-11,  avg # of iterations = 11.6

     negative rho (up, down):  1.682E-02 0.000E+00

     Adding external electric field

     Computed dipole along edir(3) :
        Dipole                1.0257 Ry au,          2.6071 Debye
        Dipole field          0.0019 Ry au,

        Potential amp.       -0.1794 Ry
        Total length         46.3494 bohr

     End of self-consistent calculation

          k = 0.0000 0.0000 0.0000 ( 18029 PWs)   bands (ev):

   -55.6861 -55.6547 -55.6520 -55.6263 -55.6188 -55.5339 -55.5000 -55.4988
   -55.4675 -55.4659 -55.4624 -55.4286 -55.2118 -54.9948 -54.6655 -54.6315
   -32.1989 -32.1693 -32.0405 -32.0370 -31.9984 -31.9786 -31.9592 -31.9526
   -31.9298 -31.8894 -31.8804 -31.8499 -31.8384 -31.8371 -31.8327 -31.8123
   -31.7912 -31.7841 -31.7811 -31.7483 -31.7433 -31.7358 -31.7016 -31.6908
   -31.6906 -31.6892 -31.6794 -31.6618 -31.6612 -31.6531 -31.6482 -31.6394
   -31.6307 -31.6299 -31.6158 -31.6082 -31.5747 -31.4606 -31.4078 -31.2678
   -31.2471 -31.2090 -31.0727 -30.9842 -30.9618 -30.8894 -30.8029 -30.6919
   -19.1481 -16.4025 -16.1600 -15.9422 -15.8429 -15.8057 -15.6079 -15.5055
   -15.4185 -15.3087 -15.2443 -15.2237 -15.2169 -15.1970 -15.1864 -15.1453
   -15.1321 -15.1278 -15.1085 -15.0910 -15.0380 -15.0280 -15.0203 -14.9310
   -14.8576 -14.8231 -14.8120 -14.8046 -14.7879 -14.7445 -14.2977 -13.1676
   -13.0511  -7.5306  -6.9582  -4.2795  -3.8241  -3.7476  -3.6418  -3.5934
    -3.5521  -3.4104  -3.3483  -3.2607  -3.1446  -2.9330  -2.8734  -2.8337
    -2.8058  -2.7450  -2.5946  -2.5503  -2.4986  -2.4887  -2.4772  -2.4639
    -2.4365  -2.4218  -2.3261  -2.2850  -2.2383  -2.2285  -2.0890  -2.0761
    -2.0489  -1.9996  -1.9654  -1.9512  -1.9459  -1.9339  -1.9200  -1.8970
    -1.8717  -1.7688  -1.6790  -1.6100  -1.4975  -1.4533  -1.4035  -1.3095
    -1.3007  -1.2311  -1.1525  -1.1402  -1.1160  -1.0863  -1.0784  -0.9634
    -0.8576  -0.8439  -0.7438  -0.6908  -0.6078  -0.5789  -0.5243  -0.4790
    -0.4493  -0.4456  -0.4296  -0.3788  -0.2354  -0.2095  -0.1716  -0.0920
    -0.0328  -0.0212   0.0230   0.0641   0.1178   0.1433   0.1978   0.2055
     0.2395   0.2836   0.2869   0.3058   0.3231   0.3487   0.5229   0.5639
     0.5755   0.6514   0.6609   0.8288   0.8417   0.9685   1.0790   1.2837
     1.3570   1.4431   1.5491   1.6497   1.9280   1.9737   3.4423   3.5340
     3.5766   3.6076   3.6867   3.6898   3.9003   3.9171   3.9387   4.0223

[...]

          k = 0.0380-0.0419 0.0000 ( 17876 PWs)   bands (ev):

[...]

          k =-0.0760-0.0000 0.0000 ( 17886 PWs)   bands (ev):

[...]

          k =-0.0760-0.0839 0.0000 ( 17948 PWs)   bands (ev):

   -55.6693 -55.6686 -55.6377 -55.6356 -55.6243 -55.5194 -55.5133 -55.4830
   -55.4823 -55.4693 -55.4468 -55.4443 -55.2106 -54.9959 -54.6485 -54.6483
   -32.0112 -31.9967 -31.9848 -31.9843 -31.9644 -31.9636 -31.9209 -31.9153
   -31.9028 -31.8804 -31.8720 -31.8504 -31.8332 -31.8187 -31.8047 -31.8013
   -31.7982 -31.7947 -31.7890 -31.7883 -31.7857 -31.7829 -31.7709 -31.7371
   -31.7295 -31.7176 -31.7075 -31.6836 -31.6824 -31.6772 -31.6723 -31.6690
   -31.6624 -31.6595 -31.6569 -31.6546 -31.5818 -31.4640 -31.4024 -31.3418
   -31.2489 -31.2306 -30.9746 -30.9744 -30.8856 -30.8854 -30.8462 -30.8461
   -19.1473 -15.8540 -15.7557 -15.6411 -15.6106 -15.5593 -15.4947 -15.4825
   -15.4157 -15.3711 -15.3679 -15.2978 -15.2909 -15.2576 -15.2477 -15.2134
   -15.2129 -15.2060 -15.1555 -15.1427 -15.1272 -15.1248 -15.1183 -15.0414
   -15.0059 -15.0010 -14.9927 -14.9096 -14.8286 -14.7681 -14.4568 -13.1530
   -13.1529  -7.5276  -6.9511  -4.2534  -3.5319  -3.4438  -3.1388  -2.9686
    -2.8829  -2.8168  -2.7915  -2.7666  -2.6161  -2.5947  -2.5415  -2.5377
    -2.5137  -2.5113  -2.5073  -2.4888  -2.4812  -2.4557  -2.4298  -2.3888
    -2.3635  -2.3569  -2.3447  -2.3319  -2.3079  -2.2950  -2.2859  -2.2382
    -2.2360  -2.2170  -2.1242  -2.0535  -1.9098  -1.8914  -1.8481  -1.8268
    -1.8139  -1.7800  -1.7540  -1.7364  -1.6837  -1.6042  -1.5124  -1.4197
    -1.3788  -1.3664  -1.2995  -1.2810  -1.1892  -1.1642  -1.0887  -1.0692
    -0.9920  -0.9729  -0.8828  -0.8398  -0.8194  -0.7848  -0.7511  -0.7397
    -0.7094  -0.6536  -0.6415  -0.5894  -0.5625  -0.4995  -0.4374  -0.4164
    -0.4047  -0.3680  -0.3483  -0.3223  -0.1829  -0.1515  -0.1356  -0.0977
     0.0401   0.0708   0.2808   0.3675   0.3883   0.4665   0.5176   0.5985
     0.6223   0.6307   0.6472   0.6834   0.7748   0.8461   0.8574   0.8900
     0.9904   1.4941   1.7205   1.7214   1.7936   1.7936   3.7322   3.7755
     3.8110   3.8332   3.9287   3.9604   3.9823   3.9840   4.0351   4.1154

     the Fermi energy is     3.4459 ev

!    total energy              =   -2952.76139472 Ry
     estimated scf accuracy    <       0.00000007 Ry
     smearing contrib. (-TS)   =      -0.02154726 Ry
     internal energy E=F+TS    =   -2952.73984746 Ry

     The total energy is F=E-TS. E is the sum of the following terms:
     one-electron contribution =  -24472.85775667 Ry
     hartree contribution      =   12327.56611439 Ry
     xc contribution           =    -488.06961400 Ry
     ewald contribution        =    9680.61942343 Ry
     electric field correction =       0.00198539 Ry

     convergence has been achieved in  76 iterations

     Forces acting on atoms (cartesian axes, Ry/au):

     atom    1 type  1   force =    -0.00000821   -0.00028544    0.09609432
     atom    2 type  1   force =     0.00007832   -0.00044925   -0.17560510
     atom    3 type  2   force =     0.00011092   -0.00004563   -0.02422729
     atom    4 type  2   force =     0.00000866   -0.00136565    0.05323754
     atom    5 type  2   force =    -0.01129715    0.00005215    0.00282920
     atom    6 type  2   force =     0.01304771    0.00039786    0.00283752
     atom    7 type  1   force =     0.00079668    0.00048825   -0.00792212
     atom    8 type  1   force =     0.00007985    0.00682452    0.02439150
     atom    9 type  2   force =    -0.00025193   -0.00080122    0.00030903
     atom   10 type  2   force =    -0.00265782    0.00236503   -0.01481448
     atom   11 type  2   force =    -0.00019806   -0.00012444   -0.00054352
     atom   12 type  2   force =     0.00052444   -0.00002735   -0.00061118
     atom   13 type  1   force =    -0.00055609   -0.00160080    0.00050407
     atom   14 type  1   force =     0.00045054   -0.00021906   -0.00026991
     atom   15 type  2   force =     0.00000114   -0.00077251   -0.00070813
     atom   16 type  2   force =    -0.00005642   -0.00043342   -0.00029681
     atom   17 type  2   force =    -0.00107194   -0.00070515    0.00004652
     atom   18 type  2   force =     0.00149737   -0.00045534    0.00009771
     atom   19 type  1   force =    -0.00038527    0.00057756    0.00008615
     atom   20 type  1   force =     0.00040970   -0.00076111   -0.00053826
     atom   21 type  2   force =     0.00005209   -0.00001723    0.10321107
     atom   22 type  2   force =    -0.00008736   -0.00029466    0.00095455
     atom   23 type  2   force =    -0.07152867   -0.00012434   -0.02770133
     atom   24 type  2   force =     0.07144895    0.00035460   -0.02777596
     atom   25 type  1   force =     0.00017728   -0.00026736    0.09582011
     atom   26 type  1   force =     0.00006292   -0.00033762   -0.17581221
     atom   27 type  2   force =     0.00014566   -0.00005053   -0.02331081
     atom   28 type  2   force =     0.00001003   -0.00107161    0.05284814
     atom   29 type  2   force =    -0.01164572    0.00074878    0.00296926
     atom   30 type  2   force =     0.01327606    0.00125965    0.00299771
     atom   31 type  1   force =     0.00071116    0.00395185   -0.01082466
     atom   32 type  1   force =     0.00010264   -0.00902145    0.02486388
     atom   33 type  2   force =    -0.00007124    0.00060933   -0.00014040
     atom   34 type  2   force =    -0.00202734    0.00168145   -0.02186129
     atom   35 type  2   force =     0.00005899   -0.00025430   -0.00025712
     atom   36 type  2   force =    -0.00009131   -0.00006521   -0.00059165
     atom   37 type  1   force =    -0.00029153    0.00156374    0.00010175
     atom   38 type  1   force =     0.00053235    0.00041162    0.00023003
     atom   39 type  2   force =    -0.00009015   -0.00008125   -0.00116588
     atom   40 type  2   force =     0.00012869    0.00012327    0.00035080
     atom   41 type  2   force =     0.00011622   -0.00022554    0.00006353
     atom   42 type  2   force =     0.00045194   -0.00030882    0.00011937
     atom   43 type  1   force =    -0.00104804   -0.00056005    0.00043021
     atom   44 type  1   force =     0.00039019    0.00013081    0.00013034
     atom   45 type  2   force =     0.00004302   -0.00005341    0.10319735
     atom   46 type  2   force =    -0.07154369   -0.00006225   -0.02772103
     atom   47 type  2   force =     0.07145755    0.00037277   -0.02778066
     atom   48 type  3   force =    -0.00034248    0.00013416   -0.00024061
     atom   49 type  4   force =    -0.00018876   -0.00815575   -0.00301760
     atom   50 type  5   force =    -0.00010096    0.00851456    0.00474425
     atom   51 type  5   force =    -0.00016852   -0.00089922    0.00029321
     atom   52 type  2   force =     0.00152066    0.00042046   -0.00033010
     atom   53 type  5   force =    -0.00045653   -0.00042427   -0.00005241
     atom   54 type  5   force =    -0.00152659   -0.00066118    0.00036141

     Total force =     0.367220     Total SCF correction =     0.000753
  @ DRIVER MODE: Message from server: STATUS
  @ DRIVER MODE: Message from server: GETFORCE
  @ DRIVER MODE: Returning v,forces,stress,ensemble

     Writing output data file ./calc.save/
  @ DRIVER MODE: Message from server: EXIT
  @ DRIVE MODE: Exiting

     General routines

     Parallel routines

   This run was terminated on:  20:49:10  15Sep2021

   JOB DONE.