     Program PWSCF v.6.7GPU starts on 12Oct2021 at 23: 1:56

     R & G space division:  proc/nbgrp/npool/nimage =       8
     Reading input from /storage/home/hcoda1/3/ntian30/research/carbon/ACS_vib/ads_slab/HNNH/out_0020/pw.inp
Warning: card &CELL ignored
Warning: card   CELL_DYNAMICS='IPI', ignored
Warning: card / ignored

     Current dimensions of program PWSCF are:
     Max number of different atomic species (ntypx) = 10
     Max number of k-points (npk) =  40000
     Max angular momentum in pseudopotentials (lmaxx) =  3
     Presently no symmetry can be used with electric field

     Message from routine cell_base_init:
     DEPRECATED: use true lattice parameter, not A to a.u. conversion factor

     IMPORTANT: XC functional enforced from input :
     Exchange-correlation= BEEF-VDW
                           (   1   4  43  14   2   0   0)
     Any further DFT definition will be discarded
     Please, verify this is what you really want

  @ DRIVER MODE: Connecting to
 qe_1139763_3181311.sched-torque.pace.gatech.edupl_jkutk_scratch
  using UNIX socket
  @ DRIVER MODE: Message from server: STATUS
  @ DRIVER MODE: Message from server: INIT
  @ DRIVER MODE: Receiving replica           0          -1
  @ DRIVER MODE: Receiving encoded integer          25
  @ DRIVER MODE:  SCF:  T  FORCE:  T  STRESS:  F  VC:  F  ENSEMBLE:  F
  @ DRIVER MODE:  SCF:  T  FORCE:  T  STRESS:  F  VC:  F  ENSEMBLE:  F

     Using Slab Decomposition

     bravais-lattice index     =            0
     lattice parameter (alat)  =       1.8897  a.u.
     unit-cell volume          =    6658.9804 (a.u.)^3
     number of atoms/cell      =           51
     number of atomic types    =            4
     number of electrons       =       390.00
     number of Kohn-Sham states=          205
     kinetic-energy cutoff     =      29.3995  Ry
     charge density cutoff     =     293.9946  Ry
     scf convergence threshold =      7.3E-08
     mixing beta               =       0.0500
     number of iterations used =            8  plain     mixing
     Exchange-correlation= BEEF-VDW
                           (   1   4  43  14   2   0   0)

     celldm(1)=   1.889726  celldm(2)=   0.000000  celldm(3)=   0.000000
     celldm(4)=   0.000000  celldm(5)=   0.000000  celldm(6)=   0.000000

     crystal axes: (cart. coord. in units of alat)
               a(1) = (   6.579727   0.000000   0.000000 )
               a(2) = (  -0.000775   5.961596   0.000000 )
               a(3) = (   0.000000   0.000000  25.155947 )

     reciprocal axes: (cart. coord. in units 2 pi/alat)
               b(1) = (  0.151982  0.000020  0.000000 )
               b(2) = (  0.000000  0.167740  0.000000 )
               b(3) = (  0.000000  0.000000  0.039752 )

     PseudoPot. # 1 for Ti read from file:
     /storage/coda1/p-amedford6/0/shared/rich_project_chbe-medford/medford-share/data/pseudos_module/espresso/nninc/pbe/van/Ti.UPF
     MD5 check sum: 8e4df49b7f0d34bbd5052bf3f5ea0213
     Pseudo is Ultrasoft, Zval = 12.0
     Generated by new atomic code, or converted to UPF format
     Using radial grid of  851 points,  6 beta functions with:
                l(1) =   0
                l(2) =   0
                l(3) =   1
                l(4) =   1
                l(5) =   2
                l(6) =   2
     Q(r) pseudized with  8 coefficients,  rinner =    1.000   1.000   1.000
                                                       1.000   1.000

     PseudoPot. # 2 for O  read from file:
     /storage/coda1/p-amedford6/0/shared/rich_project_chbe-medford/medford-share/data/pseudos_module/espresso/nninc/pbe/van/O.UPF
     MD5 check sum: 78c19812648e8988a0fe644b0f25305e
     Pseudo is Ultrasoft, Zval =  6.0
     Generated by new atomic code, or converted to UPF format
     Using radial grid of  737 points,  4 beta functions with:
                l(1) =   0
                l(2) =   0
                l(3) =   1
                l(4) =   1
     Q(r) pseudized with  8 coefficients,  rinner =    0.800   0.800   0.800

     PseudoPot. # 3 for H  read from file:
     /storage/coda1/p-amedford6/0/shared/rich_project_chbe-medford/medford-share/data/pseudos_module/espresso/nninc/pbe/van/H.UPF
     MD5 check sum: b5ee9d7bfd3a09ee7748110bda690ff7
     Pseudo is Ultrasoft, Zval =  1.0
     Generated by new atomic code, or converted to UPF format
     Using radial grid of  615 points,  1 beta functions with:
                l(1) =   0
     Q(r) pseudized with  8 coefficients,  rinner =    0.800

     PseudoPot. # 4 for N  read from file:
     /storage/coda1/p-amedford6/0/shared/rich_project_chbe-medford/medford-share/data/pseudos_module/espresso/nninc/pbe/van/N.UPF
     MD5 check sum: 90d10febe142ad51ac9d5be1deb811c4
     Pseudo is Ultrasoft, Zval =  5.0
     Generated by new atomic code, or converted to UPF format
     Using radial grid of  729 points,  4 beta functions with:
                l(1) =   0
                l(2) =   0
                l(3) =   1
                l(4) =   1
     Q(r) pseudized with  8 coefficients,  rinner =    0.800   0.800   0.800

     atomic species   valence    mass     pseudopotential
        Ti1           12.00    47.86700     Ti( 1.00)
        O1             6.00    15.99900     O ( 1.00)
        H1             1.00     1.00800     H ( 1.00)
        N1             5.00    14.00700     N ( 1.00)

     No symmetry found

   Cartesian axes

     site n.     atom                  positions (alat units)
         1           Ti1 tau(   1) = (   0.0004258   2.9801865   6.0000000  )
         2           Ti1 tau(   2) = (   3.2906075   1.4906267   6.0002472  )
         3           O1  tau(   3) = (   0.0006271   0.0005054   7.9858123  )
         4           O1  tau(   4) = (   3.2906025   0.0005020   7.3038282  )
         5           O1  tau(   5) = (   4.5942328   1.4918067   9.2879030  )
         6           O1  tau(   6) = (   1.9868534   1.4903216   9.2879459  )
         7           Ti1 tau(   7) = (   3.2908881   2.9042228   9.1664735  )
         8           Ti1 tau(   8) = (   0.0028208   1.4453605   9.2576896  )
         9           O1  tau(   9) = (   3.2707936   0.0024169  11.3547307  )
        10           O1  tau(  10) = (   6.5771562   5.9613851  10.5998947  )
        11           O1  tau(  11) = (   1.2750810   1.4887983  12.6623546  )
        12           O1  tau(  12) = (   5.2735957   1.4941237  12.6366476  )
        13           Ti1 tau(  13) = (   6.5484273   3.0048924  12.8091026  )
        14           Ti1 tau(  14) = (   3.2635572   1.4892482  12.5038529  )
        15           O1  tau(  15) = (   6.5112577   5.9342846  14.6610847  )
        16           O1  tau(  16) = (   3.2966729   5.9487847  13.9562402  )
        17           O1  tau(  17) = (   4.4981853   1.5100712  16.1215815  )
        18           O1  tau(  18) = (   1.9927245   1.4809274  16.0269182  )
        19           Ti1 tau(  19) = (   3.2349744   2.9714856  15.7300180  )
        20           Ti1 tau(  20) = (   6.5689460   1.3052557  15.9023701  )
        21           O1  tau(  21) = (   3.2904802   0.0005063   4.7018136  )
        22           O1  tau(  22) = (   6.5497555   0.0700294  17.2054191  )
        23           O1  tau(  23) = (   1.3043587   1.4918075   6.0039043  )
        24           O1  tau(  24) = (   5.2767064   1.4903225   6.0039473  )
        25           Ti1 tau(  25) = (   0.0000382   5.9609847   6.0000000  )
        26           Ti1 tau(  26) = (   3.2902200   4.4714249   6.0002472  )
        27           O1  tau(  27) = (   0.0002396   2.9813036   7.9858123  )
        28           O1  tau(  28) = (   3.2902150   2.9813002   7.3038282  )
        29           O1  tau(  29) = (   4.5938453   4.4726049   9.2879030  )
        30           O1  tau(  30) = (   1.9864658   4.4711199   9.2879459  )
        31           Ti1 tau(  31) = (   3.2899333   5.8856170   9.1744801  )
        32           Ti1 tau(  32) = (   0.0020137   4.3658053   9.3606106  )
        33           O1  tau(  33) = (   3.2690173   2.9735267  11.3530824  )
        34           O1  tau(  34) = (   0.0002412   2.9750176  10.5666245  )
        35           O1  tau(  35) = (   1.2748646   4.4726994  12.6423647  )
        36           O1  tau(  36) = (   5.2720213   4.4664742  12.6163582  )
        37           Ti1 tau(  37) = (   6.5582605   0.0201509  12.4985948  )
        38           Ti1 tau(  38) = (   3.2618569   4.4653106  12.4956167  )
        39           O1  tau(  39) = (   6.5348066   3.0079926  14.7180217  )
        40           O1  tau(  40) = (   3.2797409   2.9875293  13.9337705  )
        41           O1  tau(  41) = (   4.5027845   4.4373921  16.1556124  )
        42           O1  tau(  42) = (   1.9850320   4.4617864  16.0830993  )
        43           Ti1 tau(  43) = (   3.2823567   5.9555293  15.7495178  )
        44           Ti1 tau(  44) = (   6.5552429   4.5047081  16.0597439  )
        45           O1  tau(  45) = (   3.2900926   2.9813045   4.7018136  )
        46           O1  tau(  46) = (   1.3039711   4.4726057   6.0039043  )
        47           O1  tau(  47) = (   5.2763189   4.4711207   6.0039473  )
        48           H1  tau(  48) = (   0.5659039   2.5807529  19.4396776  )
        49           N1  tau(  49) = (   0.9330341   2.9538053  18.5544450  )
        50           N1  tau(  50) = (   6.5241730   3.1816813  17.7405862  )
        51           H1  tau(  51) = (   5.6006726   3.0068531  18.1306748  )

     number of k points=    10  Fermi-Dirac smearing, width (Ry)=  0.0073
                       cart. coord. in units 2pi/alat
        k(    1) = (   0.0000000   0.0000000   0.0000000), wk =   0.1250000
        k(    2) = (   0.0000000   0.0419351   0.0000000), wk =   0.2500000
        k(    3) = (   0.0000000  -0.0838702   0.0000000), wk =   0.1250000
        k(    4) = (   0.0379955   0.0000049   0.0000000), wk =   0.2500000
        k(    5) = (   0.0379955   0.0419400   0.0000000), wk =   0.2500000
        k(    6) = (   0.0379955  -0.0838652   0.0000000), wk =   0.2500000
        k(    7) = (   0.0379955  -0.0419301   0.0000000), wk =   0.2500000
        k(    8) = (  -0.0759910  -0.0000099   0.0000000), wk =   0.1250000
        k(    9) = (  -0.0759910   0.0419252   0.0000000), wk =   0.2500000
        k(   10) = (  -0.0759910  -0.0838800   0.0000000), wk =   0.1250000

     Initial potential from superposition of free atoms

     starting charge  373.99921, renormalised to  390.00000

     negative rho (up, down):  1.941E-02 0.000E+00

     %%%%%%%%%%%%%%%%%%%%%%%%%%%%%%%%%%%%%%%%%%%%%%%%%%%%%%%%%%%%%%%%%%%%%%%%
     %                                                                      %
     % You are using vdW-DF, which was implemented by the Thonhauser group. %
     % Please cite the following two papers that made this development      %
     % possible and the two reviews that describe the various versions:     %
     %                                                                      %
     %   T. Thonhauser et al., PRL 115, 136402 (2015).                      %
     %   T. Thonhauser et al., PRB 76, 125112 (2007).                       %
     %   K. Berland et al., Rep. Prog. Phys. 78, 066501 (2015).             %
     %   D.C. Langreth et al., J. Phys.: Condens. Matter 21, 084203 (2009). %
     %                                                                      %
     %                                                                      %
     % If you are calculating the stress with vdW-DF, please also cite:     %
     %                                                                      %
     %   R. Sabatini et al., J. Phys.: Condens. Matter 24, 424209 (2012).   %
     %                                                                      %
     %%%%%%%%%%%%%%%%%%%%%%%%%%%%%%%%%%%%%%%%%%%%%%%%%%%%%%%%%%%%%%%%%%%%%%%%

     Adding external electric field

     Computed dipole along edir(3) :
        Dipole               -5.1488 Ry au,        -13.0871 Debye
        Dipole field         -0.0097 Ry au,

        Potential amp.        0.9007 Ry
        Total length         46.3494 bohr

     Starting wfcs are  294 atomic wfcs
  @ DRIVER MODE: Message from server: STATUS
  @ DRIVER MODE: Message from server: POSDATA
  @ DRIVER MODE: Reading and sharing cell
  @ DRIVER MODE: Reading and sharing positions
  @ DRIVER MODE: Received positions

     Self-consistent Calculation

     iteration #  1     ecut=    29.40 Ry     beta= 0.05
     Davidson diagonalization with overlap
     c_bands:  5 eigenvalues not converged
     c_bands:  1 eigenvalues not converged
     c_bands:  3 eigenvalues not converged
     c_bands:  4 eigenvalues not converged
     c_bands:  1 eigenvalues not converged
     c_bands:  3 eigenvalues not converged
     c_bands:  2 eigenvalues not converged
     c_bands:  3 eigenvalues not converged
     ethr =  1.00E-05,  avg # of iterations = 20.5

[...]

     total energy              =   -2838.10071055 Ry
     estimated scf accuracy    <     989.13165978 Ry

     iteration #  2     ecut=    29.40 Ry     beta= 0.05
     Davidson diagonalization with overlap
     ethr =  1.00E-02,  avg # of iterations = 16.6

[...]

     iteration # 81     ecut=    29.40 Ry     beta= 0.05
     Davidson diagonalization with overlap
     c_bands:  3 eigenvalues not converged
     c_bands:  2 eigenvalues not converged
     c_bands:  1 eigenvalues not converged
     ethr =  3.21E-09,  avg # of iterations = 16.0

[...]

     total energy              =   -2926.39969972 Ry
     estimated scf accuracy    <       0.00000013 Ry

     iteration # 94     ecut=    29.40 Ry     beta= 0.05
     Davidson diagonalization with overlap
     ethr =  2.04E-11,  avg # of iterations = 10.5

     negative rho (up, down):  1.912E-02 0.000E+00

     Adding external electric field

     Computed dipole along edir(3) :
        Dipole                0.7837 Ry au,          1.9921 Debye
        Dipole field          0.0015 Ry au,

        Potential amp.       -0.1371 Ry
        Total length         46.3494 bohr

     End of self-consistent calculation

          k = 0.0000 0.0000 0.0000 ( 18029 PWs)   bands (ev):

   -55.9576 -55.9443 -55.9197 -55.9078 -55.8666 -55.8258 -55.8031 -55.7905
   -55.7324 -55.7079 -55.6743 -55.6178 -55.5689 -55.4992 -54.9247 -54.8907
   -32.5117 -32.4235 -32.3072 -32.2977 -32.2745 -32.2519 -32.2275 -32.1995
   -32.1928 -32.1849 -32.1652 -32.1525 -32.1267 -32.1245 -32.1167 -32.0986
   -32.0916 -32.0754 -32.0557 -32.0458 -32.0217 -32.0087 -32.0000 -31.9996
   -31.9840 -31.9700 -31.9519 -31.9440 -31.9310 -31.9222 -31.9172 -31.8923
   -31.8843 -31.8565 -31.8393 -31.8213 -31.8184 -31.8058 -31.7992 -31.7319
   -31.6849 -31.6134 -31.3329 -31.2416 -31.2190 -31.1492 -31.0629 -30.9521
   -18.0934 -16.7140 -16.4123 -16.2777 -16.1315 -16.0857 -15.9846 -15.8004
   -15.6970 -15.6460 -15.5816 -15.5581 -15.5555 -15.5043 -15.4948 -15.4890
   -15.4649 -15.4259 -15.3905 -15.3496 -15.3463 -15.3391 -15.3059 -15.2440
   -15.2132 -15.1164 -15.0622 -14.9659 -14.9618 -14.8287 -13.4276 -13.3108
   -10.3448  -6.6489  -4.0645  -3.9469  -3.8799  -3.8349  -3.7790  -3.5751
    -3.5215  -3.3251  -3.2511  -3.1476  -3.1035  -3.0845  -3.0784  -3.0114
    -2.8711  -2.7747  -2.7659  -2.7522  -2.7298  -2.7184  -2.7093  -2.6937
    -2.6876  -2.6434  -2.5689  -2.5024  -2.4380  -2.3775  -2.3266  -2.2471
    -2.2335  -2.2183  -2.2068  -2.2015  -2.1657  -2.1582  -2.1477  -2.0194
    -1.9964  -1.9073  -1.7847  -1.7638  -1.6486  -1.5682  -1.5497  -1.4201
    -1.3839  -1.3507  -1.3175  -1.2717  -1.2381  -1.2278  -1.1527  -1.1114
    -1.0155  -0.9795  -0.8803  -0.8351  -0.8299  -0.7692  -0.6918  -0.6805
    -0.6665  -0.5279  -0.4408  -0.4314  -0.4276  -0.3441  -0.2886  -0.2361
    -0.1890  -0.1806  -0.1615  -0.1226  -0.0949   0.0037   0.0133   0.0469
     0.0608   0.0989   0.1888   0.2579   0.2709   0.3303   0.3458   0.5553
     0.5674   0.5793   0.7164   0.7636   1.0114   1.0965   1.1225   1.2840
     1.6769   1.7318   3.1492   3.2373   3.2532   3.2900   3.3542   3.3997
     3.5526   3.6047   3.6492   3.6761   3.7008

[...]

          k = 0.0380-0.0419 0.0000 ( 17876 PWs)   bands (ev):

[...]

          k =-0.0760-0.0000 0.0000 ( 17886 PWs)   bands (ev):

[...]

          k =-0.0760-0.0839 0.0000 ( 17948 PWs)   bands (ev):

   -55.9470 -55.9302 -55.9288 -55.9231 -55.8615 -55.8154 -55.8080 -55.8008
   -55.7294 -55.6913 -55.6909 -55.6204 -55.5647 -55.5033 -54.9082 -54.9071
   -32.3166 -32.3123 -32.2490 -32.2488 -32.2397 -32.2311 -32.2144 -32.2138
   -32.1568 -32.1538 -32.1483 -32.1415 -32.1248 -32.0990 -32.0800 -32.0726
   -32.0685 -32.0665 -32.0637 -32.0613 -32.0489 -32.0297 -32.0232 -32.0155
   -32.0136 -32.0105 -32.0082 -32.0045 -31.9555 -31.9328 -31.9286 -31.9284
   -31.9135 -31.9008 -31.8966 -31.8899 -31.8461 -31.8198 -31.8156 -31.7362
   -31.7216 -31.6585 -31.2324 -31.2311 -31.1462 -31.1453 -31.1066 -31.1054
   -18.0882 -16.1520 -16.1239 -15.9740 -15.8830 -15.8718 -15.8267 -15.7679
   -15.7392 -15.6830 -15.6505 -15.6319 -15.6151 -15.5982 -15.5734 -15.5252
   -15.4754 -15.4695 -15.4597 -15.4445 -15.3941 -15.3845 -15.3595 -15.3509
   -15.3283 -15.2635 -15.2418 -15.1959 -15.1162 -14.9940 -13.4143 -13.4106
   -10.3494  -6.6495  -3.4378  -3.4050  -3.3181  -3.2080  -3.0980  -3.0935
    -3.0144  -2.9515  -2.9119  -2.8632  -2.8197  -2.7955  -2.7637  -2.7597
    -2.7520  -2.7400  -2.7314  -2.6995  -2.6869  -2.6822  -2.6464  -2.6311
    -2.6096  -2.6030  -2.5619  -2.5502  -2.5355  -2.4927  -2.4897  -2.4843
    -2.4795  -2.2878  -2.2482  -2.2016  -2.1508  -2.0716  -2.0555  -2.0422
    -2.0014  -1.9867  -1.9759  -1.9081  -1.8132  -1.6949  -1.6593  -1.6364
    -1.6234  -1.5818  -1.4060  -1.3741  -1.3589  -1.3362  -1.3042  -1.2517
    -1.2203  -1.2008  -1.1056  -1.0853  -1.0419  -0.9678  -0.9123  -0.8922
    -0.8614  -0.8240  -0.7802  -0.7406  -0.6985  -0.6831  -0.6182  -0.5696
    -0.5248  -0.5053  -0.4869  -0.4028  -0.3247  -0.2995  -0.0969   0.0360
     0.0697   0.0823   0.2190   0.2353   0.2716   0.3429   0.3760   0.4190
     0.4773   0.5829   0.5854   0.5974   0.6068   0.6663   1.4578   1.4624
     1.5370   1.5490   3.2131   3.3975   3.4410   3.4806   3.5417   3.6849
     3.7089   3.7104   3.7334   3.7881   3.8544

     the Fermi energy is     3.1941 ev

!    total energy              =   -2926.39970324 Ry
     estimated scf accuracy    <       0.00000002 Ry
     smearing contrib. (-TS)   =      -0.03280752 Ry
     internal energy E=F+TS    =   -2926.36689572 Ry

     The total energy is F=E-TS. E is the sum of the following terms:
     one-electron contribution =  -24581.18686683 Ry
     hartree contribution      =   12374.73192815 Ry
     xc contribution           =    -480.79652199 Ry
     ewald contribution        =    9760.88340579 Ry
     electric field correction =       0.00115917 Ry

     convergence has been achieved in  94 iterations

     Forces acting on atoms (cartesian axes, Ry/au):

     atom    1 type  1   force =     0.00019198    0.00161049    0.10333036
     atom    2 type  1   force =     0.00006579   -0.00227813   -0.17661060
     atom    3 type  2   force =     0.00018125    0.00648536   -0.03461215
     atom    4 type  2   force =    -0.00004684   -0.00102843    0.05241911
     atom    5 type  2   force =    -0.01731515   -0.00087041    0.00516355
     atom    6 type  2   force =     0.01632862   -0.00066459    0.00402514
     atom    7 type  1   force =     0.00051876    0.00280131   -0.00769556
     atom    8 type  1   force =    -0.00011474   -0.00003493    0.00049734
     atom    9 type  2   force =     0.00013781   -0.00018515   -0.00051686
     atom   10 type  2   force =     0.00006963   -0.00015376   -0.00040225
     atom   11 type  2   force =     0.00024999    0.00017168    0.00031264
     atom   12 type  2   force =     0.00017672    0.00030688    0.00019594
     atom   13 type  1   force =    -0.00041495    0.00069051   -0.00080436
     atom   14 type  1   force =    -0.00039128   -0.00004915   -0.00100323
     atom   15 type  2   force =     0.00000631    0.00080697    0.00010326
     atom   16 type  2   force =     0.00004522   -0.00015757    0.00086450
     atom   17 type  2   force =     0.00030899    0.00039459    0.00036229
     atom   18 type  2   force =    -0.00043132    0.00030358    0.00008836
     atom   19 type  1   force =     0.00012091   -0.00049867    0.00049941
     atom   20 type  1   force =    -0.00010517   -0.00140979    0.00009478
     atom   21 type  2   force =     0.00012962   -0.00007708    0.10333479
     atom   22 type  2   force =    -0.00030761    0.00025319    0.00143185
     atom   23 type  2   force =    -0.07031747    0.00112887   -0.02966315
     atom   24 type  2   force =     0.07030825    0.00155987   -0.02967165
     atom   25 type  1   force =     0.00010454   -0.00166562    0.11619608
     atom   26 type  1   force =    -0.00002345    0.00128849   -0.17608673
     atom   27 type  2   force =     0.00011104   -0.00260086   -0.02894590
     atom   28 type  2   force =    -0.00004025   -0.00141615    0.05147341
     atom   29 type  2   force =    -0.01883047    0.00097995    0.00642835
     atom   30 type  2   force =     0.01783441    0.00162449    0.00534506
     atom   31 type  1   force =     0.00052187   -0.00133994   -0.01366090
     atom   32 type  1   force =    -0.00010104   -0.00101290    0.00068027
     atom   33 type  2   force =     0.00007334   -0.00014713   -0.00047645
     atom   34 type  2   force =     0.00008733   -0.00064957    0.00083927
     atom   35 type  2   force =     0.00037415   -0.00019634    0.00040816
     atom   36 type  2   force =     0.00007944   -0.00015088    0.00030332
     atom   37 type  1   force =    -0.00015162    0.00022646   -0.00002039
     atom   38 type  1   force =    -0.00051685   -0.00054950   -0.00077932
     atom   39 type  2   force =    -0.00032976   -0.00049588    0.00092450
     atom   40 type  2   force =     0.00010772   -0.00014647    0.00148991
     atom   41 type  2   force =     0.00043155   -0.00048618    0.00031078
     atom   42 type  2   force =    -0.00075115   -0.00020857   -0.00011205
     atom   43 type  1   force =     0.00019498    0.00022546    0.00007681
     atom   44 type  1   force =    -0.00006935    0.00139741    0.00048683
     atom   45 type  2   force =     0.00012414   -0.00004397    0.10351787
     atom   46 type  2   force =    -0.07075153   -0.00147019   -0.02962840
     atom   47 type  2   force =     0.07073105   -0.00103773   -0.02966097
     atom   48 type  3   force =    -0.00003119   -0.00070687    0.00064371
     atom   49 type  4   force =     0.00322778    0.00059065   -0.00051500
     atom   50 type  4   force =     0.01135307    0.00213071   -0.00553018
     atom   51 type  3   force =    -0.01315509   -0.00324454    0.00454847

     Total force =     0.375105     Total SCF correction =     0.000545
  @ DRIVER MODE: Message from server: STATUS
  @ DRIVER MODE: Message from server: GETFORCE
  @ DRIVER MODE: Returning v,forces,stress,ensemble

     Writing output data file ./calc.save/
  @ DRIVER MODE: Message from server: EXIT
  @ DRIVE MODE: Exiting

     General routines

     Parallel routines

   This run was terminated on:   0:13:12  13Oct2021

   JOB DONE.