     Program PWSCF v.6.7GPU starts on 23Sep2021 at  0:29:26

     R & G space division:  proc/nbgrp/npool/nimage =      10
     Reading input from /storage/home/hcoda1/3/ntian30/research/carbon/CxH_vib/H2O_calc/ads_slab/CHON2HO_d/out_0025/pw.inp
Warning: card &CELL ignored
Warning: card   CELL_DYNAMICS='IPI', ignored
Warning: card / ignored

     Current dimensions of program PWSCF are:
     Max number of different atomic species (ntypx) = 10
     Max number of k-points (npk) =  40000
     Max angular momentum in pseudopotentials (lmaxx) =  3
     Presently no symmetry can be used with electric field

     Message from routine cell_base_init:
     DEPRECATED: use true lattice parameter, not A to a.u. conversion factor

     IMPORTANT: XC functional enforced from input :
     Exchange-correlation= BEEF-VDW
                           (   1   4  43  14   2   0   0)
     Any further DFT definition will be discarded
     Please, verify this is what you really want

  @ DRIVER MODE: Connecting to
 qe_1139763_2937317.sched-torque.pace.gatech.edusvki_9at_scratch
  using UNIX socket
  @ DRIVER MODE: Message from server: STATUS
  @ DRIVER MODE: Message from server: INIT
  @ DRIVER MODE: Receiving replica           0          -1
  @ DRIVER MODE: Receiving encoded integer          25
  @ DRIVER MODE:  SCF:  T  FORCE:  T  STRESS:  F  VC:  F  ENSEMBLE:  F
  @ DRIVER MODE:  SCF:  T  FORCE:  T  STRESS:  F  VC:  F  ENSEMBLE:  F

     Using Slab Decomposition

     bravais-lattice index     =            0
     lattice parameter (alat)  =       1.8897  a.u.
     unit-cell volume          =    6658.9804 (a.u.)^3
     number of atoms/cell      =           54
     number of atomic types    =            5
     number of electrons       =       406.00
     number of Kohn-Sham states=          213
     kinetic-energy cutoff     =      29.3995  Ry
     charge density cutoff     =     293.9946  Ry
     scf convergence threshold =      7.3E-08
     mixing beta               =       0.0500
     number of iterations used =            8  plain     mixing
     Exchange-correlation= BEEF-VDW
                           (   1   4  43  14   2   0   0)

     celldm(1)=   1.889726  celldm(2)=   0.000000  celldm(3)=   0.000000
     celldm(4)=   0.000000  celldm(5)=   0.000000  celldm(6)=   0.000000

     crystal axes: (cart. coord. in units of alat)
               a(1) = (   6.579727   0.000000   0.000000 )
               a(2) = (  -0.000775   5.961596   0.000000 )
               a(3) = (   0.000000   0.000000  25.155947 )

     reciprocal axes: (cart. coord. in units 2 pi/alat)
               b(1) = (  0.151982  0.000020  0.000000 )
               b(2) = (  0.000000  0.167740  0.000000 )
               b(3) = (  0.000000  0.000000  0.039752 )

     PseudoPot. # 1 for O  read from file:
     /storage/coda1/p-amedford6/0/shared/rich_project_chbe-medford/medford-share/data/pseudos_module/espresso/nninc/pbe/van/O.UPF
     MD5 check sum: 78c19812648e8988a0fe644b0f25305e
     Pseudo is Ultrasoft, Zval =  6.0
     Generated by new atomic code, or converted to UPF format
     Using radial grid of  737 points,  4 beta functions with:
                l(1) =   0
                l(2) =   0
                l(3) =   1
                l(4) =   1
     Q(r) pseudized with  8 coefficients,  rinner =    0.800   0.800   0.800

     PseudoPot. # 2 for Ti read from file:
     /storage/coda1/p-amedford6/0/shared/rich_project_chbe-medford/medford-share/data/pseudos_module/espresso/nninc/pbe/van/Ti.UPF
     MD5 check sum: 8e4df49b7f0d34bbd5052bf3f5ea0213
     Pseudo is Ultrasoft, Zval = 12.0
     Generated by new atomic code, or converted to UPF format
     Using radial grid of  851 points,  6 beta functions with:
                l(1) =   0
                l(2) =   0
                l(3) =   1
                l(4) =   1
                l(5) =   2
                l(6) =   2
     Q(r) pseudized with  8 coefficients,  rinner =    1.000   1.000   1.000
                                                       1.000   1.000

     PseudoPot. # 3 for C  read from file:
     /storage/coda1/p-amedford6/0/shared/rich_project_chbe-medford/medford-share/data/pseudos_module/espresso/nninc/pbe/van/C.UPF
     MD5 check sum: 1a69bf6b8db32088f5b2163dbdb77a27
     Pseudo is Ultrasoft, Zval =  4.0
     Generated by new atomic code, or converted to UPF format
     Using radial grid of  721 points,  4 beta functions with:
                l(1) =   0
                l(2) =   0
                l(3) =   1
                l(4) =   1
     Q(r) pseudized with  8 coefficients,  rinner =    0.800   0.800   0.800

     PseudoPot. # 4 for H  read from file:
     /storage/coda1/p-amedford6/0/shared/rich_project_chbe-medford/medford-share/data/pseudos_module/espresso/nninc/pbe/van/H.UPF
     MD5 check sum: b5ee9d7bfd3a09ee7748110bda690ff7
     Pseudo is Ultrasoft, Zval =  1.0
     Generated by new atomic code, or converted to UPF format
     Using radial grid of  615 points,  1 beta functions with:
                l(1) =   0
     Q(r) pseudized with  8 coefficients,  rinner =    0.800

     PseudoPot. # 5 for N  read from file:
     /storage/coda1/p-amedford6/0/shared/rich_project_chbe-medford/medford-share/data/pseudos_module/espresso/nninc/pbe/van/N.UPF
     MD5 check sum: 90d10febe142ad51ac9d5be1deb811c4
     Pseudo is Ultrasoft, Zval =  5.0
     Generated by new atomic code, or converted to UPF format
     Using radial grid of  729 points,  4 beta functions with:
                l(1) =   0
                l(2) =   0
                l(3) =   1
                l(4) =   1
     Q(r) pseudized with  8 coefficients,  rinner =    0.800   0.800   0.800

     atomic species   valence    mass     pseudopotential
        O1             6.00    15.99900     O ( 1.00)
        Ti1           12.00    47.86700     Ti( 1.00)
        C1             4.00    12.01100     C ( 1.00)
        H1             1.00     1.00800     H ( 1.00)
        N1             5.00    14.00700     N ( 1.00)

     No symmetry found

   Cartesian axes

     site n.     atom                  positions (alat units)
         1           O1  tau(   1) = (   3.2904802   0.0005063   4.7018136  )
         2           O1  tau(   2) = (   3.2900926   2.9813045   4.7018136  )
         3           Ti1 tau(   3) = (   0.0004258   2.9801865   6.0000000  )
         4           Ti1 tau(   4) = (   0.0000382   5.9609847   6.0000000  )
         5           Ti1 tau(   5) = (   3.2906075   1.4906267   6.0002472  )
         6           Ti1 tau(   6) = (   3.2902200   4.4714249   6.0002472  )
         7           O1  tau(   7) = (   1.3043587   1.4918075   6.0039043  )
         8           O1  tau(   8) = (   1.3039711   4.4726057   6.0039043  )
         9           O1  tau(   9) = (   5.2767064   1.4903225   6.0039473  )
        10           O1  tau(  10) = (   5.2763189   4.4711207   6.0039473  )
        11           O1  tau(  11) = (   3.2906025   0.0005020   7.3038282  )
        12           O1  tau(  12) = (   3.2902150   2.9813002   7.3038282  )
        13           O1  tau(  13) = (   0.0006271   0.0005054   7.9858123  )
        14           O1  tau(  14) = (   0.0002396   2.9813036   7.9858123  )
        15           Ti1 tau(  15) = (   3.2350752   0.0608747   9.1773017  )
        16           Ti1 tau(  16) = (   3.2297482   3.0449837   9.2258248  )
        17           Ti1 tau(  17) = (   6.5035314   4.4790947   9.3419400  )
        18           O1  tau(  18) = (   4.5942328   1.4918067   9.2879030  )
        19           O1  tau(  19) = (   4.5938453   4.4726049   9.2879030  )
        20           O1  tau(  20) = (   1.9868534   1.4903216   9.2879459  )
        21           O1  tau(  21) = (   1.9864658   4.4711199   9.2879459  )
        22           Ti1 tau(  22) = (   6.5047199   1.5482117   9.3251357  )
        23           O1  tau(  23) = (   6.5709586   2.9893791  10.5365161  )
        24           O1  tau(  24) = (   6.5791863   0.0068326  10.5847705  )
        25           O1  tau(  25) = (   3.2737170   2.9471243  11.2864913  )
        26           O1  tau(  26) = (   3.2757665   0.0160177  11.3056520  )
        27           Ti1 tau(  27) = (   3.3024496   1.5456137  12.4328335  )
        28           Ti1 tau(  28) = (   0.0381823   0.0558990  12.5328616  )
        29           Ti1 tau(  29) = (   3.2867454   4.6490159  12.6676011  )
        30           O1  tau(  30) = (   1.2579511   1.4933188  12.6274103  )
        31           O1  tau(  31) = (   5.2930440   1.4968169  12.6131059  )
        32           O1  tau(  32) = (   1.2503383   4.4760527  12.6363980  )
        33           O1  tau(  33) = (   5.2887019   4.4660859  12.6249461  )
        34           Ti1 tau(  34) = (   6.5320965   3.0346479  12.8073368  )
        35           O1  tau(  35) = (   3.2762579   2.9735537  13.8874883  )
        36           O1  tau(  36) = (   3.2793791   5.9387796  13.8789893  )
        37           O1  tau(  37) = (   6.5412754   2.9812497  14.6926498  )
        38           O1  tau(  38) = (   6.5531526   0.0082392  14.6823945  )
        39           Ti1 tau(  39) = (   3.2668636   2.9663550  15.6683660  )
        40           Ti1 tau(  40) = (   3.2982107   5.9440960  16.3508785  )
        41           Ti1 tau(  41) = (   0.0141158   4.5598071  15.9269461  )
        42           O1  tau(  42) = (   4.5124726   4.4172202  16.0573870  )
        43           O1  tau(  43) = (   1.9821766   4.4208814  16.0404589  )
        44           O1  tau(  44) = (   4.4954461   1.5000296  16.1066544  )
        45           O1  tau(  45) = (   1.9782815   1.5221889  16.0619205  )
        46           Ti1 tau(  46) = (   0.0269324   1.3869748  16.0447141  )
        47           O1  tau(  47) = (   6.5379229   5.9414530  17.1901000  )
        48           O1  tau(  48) = (   6.5175113   2.9840192  17.3772383  )
        49           C1  tau(  49) = (   5.9742390   3.1768082  18.5865123  )
        50           H1  tau(  50) = (   5.8341806   4.1706531  18.9840957  )
        51           N1  tau(  51) = (   5.5886240   2.1683037  19.3003467  )
        52           N1  tau(  52) = (   5.2298892   1.2394158  19.8970451  )
        53           O1  tau(  53) = (   3.2183551   5.8834210  18.1446619  )
        54           H1  tau(  54) = (   3.7026433   0.4006729  18.8445816  )

     number of k points=    10  Fermi-Dirac smearing, width (Ry)=  0.0073
                       cart. coord. in units 2pi/alat
        k(    1) = (   0.0000000   0.0000000   0.0000000), wk =   0.1250000
        k(    2) = (   0.0000000   0.0419351   0.0000000), wk =   0.2500000
        k(    3) = (   0.0000000  -0.0838702   0.0000000), wk =   0.1250000
        k(    4) = (   0.0379955   0.0000049   0.0000000), wk =   0.2500000
        k(    5) = (   0.0379955   0.0419400   0.0000000), wk =   0.2500000
        k(    6) = (   0.0379955  -0.0838652   0.0000000), wk =   0.2500000
        k(    7) = (   0.0379955  -0.0419301   0.0000000), wk =   0.2500000
        k(    8) = (  -0.0759910  -0.0000099   0.0000000), wk =   0.1250000
        k(    9) = (  -0.0759910   0.0419252   0.0000000), wk =   0.2500000
        k(   10) = (  -0.0759910  -0.0838800   0.0000000), wk =   0.1250000

     Initial potential from superposition of free atoms

     starting charge  389.99917, renormalised to  406.00000

     negative rho (up, down):  1.659E-02 0.000E+00

     %%%%%%%%%%%%%%%%%%%%%%%%%%%%%%%%%%%%%%%%%%%%%%%%%%%%%%%%%%%%%%%%%%%%%%%%
     %                                                                      %
     % You are using vdW-DF, which was implemented by the Thonhauser group. %
     % Please cite the following two papers that made this development      %
     % possible and the two reviews that describe the various versions:     %
     %                                                                      %
     %   T. Thonhauser et al., PRL 115, 136402 (2015).                      %
     %   T. Thonhauser et al., PRB 76, 125112 (2007).                       %
     %   K. Berland et al., Rep. Prog. Phys. 78, 066501 (2015).             %
     %   D.C. Langreth et al., J. Phys.: Condens. Matter 21, 084203 (2009). %
     %                                                                      %
     %                                                                      %
     % If you are calculating the stress with vdW-DF, please also cite:     %
     %                                                                      %
     %   R. Sabatini et al., J. Phys.: Condens. Matter 24, 424209 (2012).   %
     %                                                                      %
     %%%%%%%%%%%%%%%%%%%%%%%%%%%%%%%%%%%%%%%%%%%%%%%%%%%%%%%%%%%%%%%%%%%%%%%%

     Adding external electric field

     Computed dipole along edir(3) :
        Dipole              -13.7787 Ry au,        -35.0219 Debye
        Dipole field         -0.0260 Ry au,

        Potential amp.        2.4104 Ry
        Total length         46.3494 bohr

     Starting wfcs are  306 atomic wfcs
  @ DRIVER MODE: Message from server: STATUS
  @ DRIVER MODE: Message from server: POSDATA
  @ DRIVER MODE: Reading and sharing cell
  @ DRIVER MODE: Reading and sharing positions
  @ DRIVER MODE: Received positions

     Self-consistent Calculation

     iteration #  1     ecut=    29.40 Ry     beta= 0.05
     Davidson diagonalization with overlap
     c_bands:  1 eigenvalues not converged
     c_bands:  1 eigenvalues not converged
     c_bands:  5 eigenvalues not converged
     c_bands:  5 eigenvalues not converged
     ethr =  1.00E-05,  avg # of iterations = 30.9

[...]

     total energy              =   -2308.80526607 Ry
     estimated scf accuracy    <    7886.33054462 Ry

     iteration #  2     ecut=    29.40 Ry     beta= 0.05
     Davidson diagonalization with overlap
     ethr =  1.00E-02,  avg # of iterations = 25.7

[...]

     iteration # 41     ecut=    29.40 Ry     beta= 0.05
     Davidson diagonalization with overlap
     c_bands:  1 eigenvalues not converged
     ethr =  3.70E-08,  avg # of iterations =  9.5

[...]

     total energy              =   -3002.64634898 Ry
     estimated scf accuracy    <       0.00000013 Ry

     iteration # 72     ecut=    29.40 Ry     beta= 0.05
     Davidson diagonalization with overlap
     ethr =  3.14E-11,  avg # of iterations =  6.2

     negative rho (up, down):  1.646E-02 0.000E+00

     Adding external electric field

     Computed dipole along edir(3) :
        Dipole                0.4111 Ry au,          1.0449 Debye
        Dipole field          0.0008 Ry au,

        Potential amp.       -0.0719 Ry
        Total length         46.3494 bohr

     End of self-consistent calculation

          k = 0.0000 0.0000 0.0000 ( 18029 PWs)   bands (ev):

   -56.2546 -56.1978 -55.7668 -55.7099 -55.7086 -55.6919 -55.6610 -55.6529
   -55.6241 -55.6145 -55.5738 -55.5552 -55.4915 -55.3204 -54.9052 -54.8713
   -32.6695 -32.5307 -32.4652 -32.4247 -32.3263 -32.2941 -32.2481 -32.2194
   -32.2033 -32.1013 -32.0663 -32.0079 -32.0039 -31.9963 -31.9828 -31.9637
   -31.9544 -31.9515 -31.9309 -31.9214 -31.8705 -31.8666 -31.8627 -31.8587
   -31.8564 -31.8393 -31.8367 -31.8183 -31.8162 -31.8120 -31.8048 -31.7742
   -31.7724 -31.7717 -31.7448 -31.7331 -31.7265 -31.7214 -31.6932 -31.5802
   -31.5389 -31.5305 -31.3018 -31.2431 -31.2190 -31.1183 -31.0331 -30.9219
   -20.4982 -18.6800 -16.5027 -16.4668 -16.3106 -16.1049 -15.9449 -15.8728
   -15.6814 -15.5939 -15.5341 -15.5046 -15.4725 -15.3908 -15.3563 -15.3041
   -15.2593 -15.2444 -15.2196 -15.2037 -15.1911 -15.1898 -15.1869 -15.1566
   -15.1153 -15.0177 -14.9500 -14.9124 -14.8935 -14.8835 -14.8432 -14.5344
   -13.5326 -13.4071 -13.2975  -6.9437  -5.8891  -4.9144  -4.3531  -3.9628
    -3.7876  -3.6950  -3.6290  -3.5674  -3.5309  -3.3411  -3.2874  -3.1513
    -3.0291  -2.9470  -2.8748  -2.8565  -2.8331  -2.7946  -2.7359  -2.7020
    -2.6709  -2.6405  -2.5831  -2.5435  -2.5151  -2.4835  -2.4702  -2.4335
    -2.4148  -2.4101  -2.2690  -2.2226  -2.1798  -2.1738  -2.1495  -2.1276
    -2.1049  -2.0714  -2.0588  -2.0080  -1.9307  -1.8455  -1.8294  -1.7458
    -1.7124  -1.5386  -1.4768  -1.4017  -1.3708  -1.2054  -1.1783  -1.1708
    -1.1489  -1.1283  -1.0047  -0.9727  -0.9364  -0.9254  -0.8898  -0.8684
    -0.8431  -0.7373  -0.6725  -0.6330  -0.6180  -0.5524  -0.4553  -0.3843
    -0.3560  -0.3231  -0.2901  -0.1865  -0.1555  -0.1141  -0.1063  -0.0447
    -0.0108   0.0119   0.0686   0.0958   0.1494   0.1645   0.1837   0.2235
     0.2331   0.2790   0.3477   0.4113   0.5082   0.5285   0.5540   0.5905
     0.6710   0.7455   0.8258   1.0076   1.1128   1.1529   1.3173   1.3630
     1.6635   1.7111   2.5254   3.0362   3.1882   3.4513   3.5033   3.5391
     3.5810   3.6357   3.7662   3.8765   3.9335

[...]

          k = 0.0380-0.0419 0.0000 ( 17876 PWs)   bands (ev):

[...]

          k =-0.0760-0.0000 0.0000 ( 17886 PWs)   bands (ev):

[...]

          k =-0.0760-0.0839 0.0000 ( 17948 PWs)   bands (ev):

   -56.2490 -56.2032 -55.7643 -55.7085 -55.7009 -55.6876 -55.6684 -55.6553
   -55.6285 -55.6055 -55.5828 -55.5562 -55.4898 -55.3219 -54.8884 -54.8880
   -32.5271 -32.5051 -32.4677 -32.4661 -32.3930 -32.3549 -32.1518 -32.0687
   -32.0597 -32.0224 -32.0121 -31.9807 -31.9794 -31.9762 -31.9534 -31.9480
   -31.9388 -31.9332 -31.9315 -31.9232 -31.9093 -31.9068 -31.8817 -31.8784
   -31.8753 -31.8692 -31.8686 -31.8625 -31.8448 -31.8394 -31.8243 -31.8218
   -31.8185 -31.8084 -31.8004 -31.7762 -31.7595 -31.7260 -31.6969 -31.6544
   -31.5790 -31.5331 -31.2321 -31.2319 -31.1174 -31.1152 -31.0751 -31.0740
   -20.4966 -18.6684 -16.4798 -15.8335 -15.8233 -15.7919 -15.7518 -15.7046
   -15.6907 -15.6228 -15.6137 -15.5857 -15.5056 -15.4422 -15.3877 -15.3642
   -15.3610 -15.3382 -15.3100 -15.2703 -15.2484 -15.2396 -15.2294 -15.1742
   -15.1525 -15.1495 -15.1238 -15.1029 -15.0779 -15.0356 -14.8986 -14.6926
   -13.5399 -13.4020 -13.4001  -6.9155  -5.9044  -4.9128  -4.3421  -3.6058
    -3.2710  -3.0912  -3.0620  -2.9815  -2.9252  -2.8271  -2.8067  -2.7879
    -2.7743  -2.7605  -2.7353  -2.7054  -2.6563  -2.6280  -2.5935  -2.5827
    -2.5749  -2.5550  -2.5471  -2.5159  -2.4996  -2.4819  -2.4635  -2.4456
    -2.4308  -2.4172  -2.3459  -2.3135  -2.2783  -2.1139  -2.1015  -2.0987
    -2.0724  -2.0545  -2.0448  -1.9844  -1.9225  -1.9131  -1.8617  -1.8467
    -1.7646  -1.7015  -1.5396  -1.5014  -1.4745  -1.3978  -1.3392  -1.3058
    -1.2833  -1.2501  -1.2170  -1.2075  -1.1647  -1.1131  -1.0349  -1.0121
    -0.9626  -0.9543  -0.9452  -0.8613  -0.7901  -0.7741  -0.7291  -0.7104
    -0.6863  -0.6478  -0.5938  -0.5599  -0.5465  -0.5334  -0.4368  -0.3861
    -0.3321  -0.2303  -0.1931  -0.1339  -0.0226   0.0610   0.0733   0.1709
     0.2126   0.3113   0.3500   0.4031   0.4414   0.4681   0.4981   0.6150
     0.6339   0.6800   0.7579   0.7748   0.8032   0.8531   1.5017   1.5091
     1.5196   1.5211   2.4448   3.5583   3.5861   3.6046   3.6435   3.8415
     3.8722   3.8894   3.9192   3.9365   3.9893

     the Fermi energy is     2.8378 ev

!    total energy              =   -3002.64636744 Ry
     estimated scf accuracy    <       0.00000003 Ry
     smearing contrib. (-TS)   =      -0.00424721 Ry
     internal energy E=F+TS    =   -3002.64212023 Ry

     The total energy is F=E-TS. E is the sum of the following terms:
     one-electron contribution =  -23370.14470448 Ry
     hartree contribution      =   11778.90936812 Ry
     xc contribution           =    -498.78530005 Ry
     ewald contribution        =    9087.37819726 Ry
     electric field correction =       0.00031893 Ry

     convergence has been achieved in  72 iterations

     Forces acting on atoms (cartesian axes, Ry/au):

     atom    1 type  1   force =     0.00016709    0.00010202    0.09958260
     atom    2 type  1   force =     0.00014766    0.00020749    0.09908343
     atom    3 type  2   force =     0.00018157    0.00034384    0.12392810
     atom    4 type  2   force =     0.00044171    0.00004462    0.13849243
     atom    5 type  2   force =    -0.00010222    0.00965328   -0.15998462
     atom    6 type  2   force =     0.00009157   -0.00873461   -0.15977230
     atom    7 type  1   force =    -0.07911556    0.00146017   -0.03322974
     atom    8 type  1   force =    -0.07914684   -0.00181726   -0.03326932
     atom    9 type  1   force =     0.07907415    0.00178917   -0.03330918
     atom   10 type  1   force =     0.07910232   -0.00147091   -0.03328687
     atom   11 type  1   force =    -0.00114359    0.00062823    0.04291985
     atom   12 type  1   force =    -0.00114956    0.00003491    0.04557645
     atom   13 type  1   force =    -0.00039576   -0.00173957   -0.05064796
     atom   14 type  1   force =    -0.00086041    0.00123302   -0.04785673
     atom   15 type  2   force =    -0.00033470   -0.00004723    0.00010366
     atom   16 type  2   force =    -0.00033868    0.00005136   -0.00016841
     atom   17 type  2   force =     0.00023221   -0.00038665   -0.00015234
     atom   18 type  1   force =    -0.01155113   -0.00689892   -0.00023850
     atom   19 type  1   force =    -0.01368000    0.00097979    0.00211857
     atom   20 type  1   force =     0.01285699   -0.00248803   -0.00225860
     atom   21 type  1   force =     0.01411382    0.00576117    0.00037047
     atom   22 type  2   force =     0.00030539    0.00005177    0.00025339
     atom   23 type  1   force =    -0.00010240   -0.00009135   -0.00008681
     atom   24 type  1   force =    -0.00025745   -0.00000270    0.00035281
     atom   25 type  1   force =     0.00023365    0.00031396   -0.00018815
     atom   26 type  1   force =     0.00035064    0.00012297   -0.00035378
     atom   27 type  2   force =    -0.00030937   -0.00043688    0.00039894
     atom   28 type  2   force =     0.00052251   -0.00029439   -0.00001807
     atom   29 type  2   force =    -0.00016059    0.00024279    0.00024009
     atom   30 type  1   force =    -0.00033855   -0.00035791   -0.00026585
     atom   31 type  1   force =     0.00050081   -0.00004560    0.00011058
     atom   32 type  1   force =    -0.00031432    0.00039901   -0.00001114
     atom   33 type  1   force =     0.00024918    0.00034000    0.00009259
     atom   34 type  2   force =     0.00041108    0.00018139   -0.00027437
     atom   35 type  1   force =     0.00005741   -0.00011714   -0.00049551
     atom   36 type  1   force =     0.00007956   -0.00005422    0.00021749
     atom   37 type  1   force =    -0.00001267   -0.00021408    0.00056570
     atom   38 type  1   force =     0.00004727    0.00045393   -0.00006288
     atom   39 type  2   force =     0.00004243    0.00037068    0.00044467
     atom   40 type  2   force =    -0.00016616   -0.00020532    0.00000010
     atom   41 type  2   force =    -0.00022316    0.00050128   -0.00014070
     atom   42 type  1   force =     0.00031225    0.00010631   -0.00011020
     atom   43 type  1   force =    -0.00049560    0.00006467   -0.00015647
     atom   44 type  1   force =     0.00048502    0.00006037    0.00044285
     atom   45 type  1   force =    -0.00076722    0.00006883    0.00037765
     atom   46 type  2   force =    -0.00007651    0.00014306   -0.00015328
     atom   47 type  1   force =     0.00002538    0.00022599    0.00003095
     atom   48 type  1   force =     0.00044772    0.00024984   -0.00019746
     atom   49 type  3   force =     0.00028845   -0.00060240   -0.00045367
     atom   50 type  4   force =     0.00007990    0.00039921    0.00069288
     atom   51 type  5   force =    -0.00489580   -0.00907945    0.00587055
     atom   52 type  5   force =     0.00476692    0.00856743   -0.00557250
     atom   53 type  1   force =     0.00027942    0.00011039    0.00002881
     atom   54 type  4   force =     0.00004418   -0.00017836    0.00041980

     Total force =     0.380632     Total SCF correction =     0.000361
  @ DRIVER MODE: Message from server: STATUS
  @ DRIVER MODE: Message from server: GETFORCE
  @ DRIVER MODE: Returning v,forces,stress,ensemble

     Writing output data file ./calc.save/
  @ DRIVER MODE: Message from server: EXIT
  @ DRIVE MODE: Exiting

     General routines

     Parallel routines

   This run was terminated on:   0:48:59  23Sep2021

   JOB DONE.