     Program PWSCF v.6.7GPU starts on 27Sep2021 at 10:31:43

     R & G space division:  proc/nbgrp/npool/nimage =       8
     Reading input from /storage/home/hcoda1/3/ntian30/research/carbon/CxH_vib/CH_calc/ads_slab/CHONNHH_a/out_0042/pw.inp
Warning: card &CELL ignored
Warning: card   CELL_DYNAMICS='IPI', ignored
Warning: card / ignored

     Current dimensions of program PWSCF are:
     Max number of different atomic species (ntypx) = 10
     Max number of k-points (npk) =  40000
     Max angular momentum in pseudopotentials (lmaxx) =  3
     Presently no symmetry can be used with electric field

     Message from routine cell_base_init:
     DEPRECATED: use true lattice parameter, not A to a.u. conversion factor

     IMPORTANT: XC functional enforced from input :
     Exchange-correlation= BEEF-VDW
                           (   1   4  43  14   2   0   0)
     Any further DFT definition will be discarded
     Please, verify this is what you really want

  @ DRIVER MODE: Connecting to
 qe_1139763_2985878.sched-torque.pace.gatech.edupouehpqq_scratch
  using UNIX socket
  @ DRIVER MODE: Message from server: STATUS
  @ DRIVER MODE: Message from server: INIT
  @ DRIVER MODE: Receiving replica           0          -1
  @ DRIVER MODE: Receiving encoded integer          25
  @ DRIVER MODE:  SCF:  T  FORCE:  T  STRESS:  F  VC:  F  ENSEMBLE:  F
  @ DRIVER MODE:  SCF:  T  FORCE:  T  STRESS:  F  VC:  F  ENSEMBLE:  F

     Using Slab Decomposition

     bravais-lattice index     =            0
     lattice parameter (alat)  =       1.8897  a.u.
     unit-cell volume          =    6658.9804 (a.u.)^3
     number of atoms/cell      =           54
     number of atomic types    =            5
     number of electrons       =       401.00
     number of Kohn-Sham states=          210
     kinetic-energy cutoff     =      29.3995  Ry
     charge density cutoff     =     293.9946  Ry
     scf convergence threshold =      7.3E-08
     mixing beta               =       0.0500
     number of iterations used =            8  plain     mixing
     Exchange-correlation= BEEF-VDW
                           (   1   4  43  14   2   0   0)

     celldm(1)=   1.889726  celldm(2)=   0.000000  celldm(3)=   0.000000
     celldm(4)=   0.000000  celldm(5)=   0.000000  celldm(6)=   0.000000

     crystal axes: (cart. coord. in units of alat)
               a(1) = (   6.579727   0.000000   0.000000 )
               a(2) = (  -0.000775   5.961596   0.000000 )
               a(3) = (   0.000000   0.000000  25.155947 )

     reciprocal axes: (cart. coord. in units 2 pi/alat)
               b(1) = (  0.151982  0.000020  0.000000 )
               b(2) = (  0.000000  0.167740  0.000000 )
               b(3) = (  0.000000  0.000000  0.039752 )

     PseudoPot. # 1 for O  read from file:
     /storage/coda1/p-amedford6/0/shared/rich_project_chbe-medford/medford-share/data/pseudos_module/espresso/nninc/pbe/van/O.UPF
     MD5 check sum: 78c19812648e8988a0fe644b0f25305e
     Pseudo is Ultrasoft, Zval =  6.0
     Generated by new atomic code, or converted to UPF format
     Using radial grid of  737 points,  4 beta functions with:
                l(1) =   0
                l(2) =   0
                l(3) =   1
                l(4) =   1
     Q(r) pseudized with  8 coefficients,  rinner =    0.800   0.800   0.800

     PseudoPot. # 2 for Ti read from file:
     /storage/coda1/p-amedford6/0/shared/rich_project_chbe-medford/medford-share/data/pseudos_module/espresso/nninc/pbe/van/Ti.UPF
     MD5 check sum: 8e4df49b7f0d34bbd5052bf3f5ea0213
     Pseudo is Ultrasoft, Zval = 12.0
     Generated by new atomic code, or converted to UPF format
     Using radial grid of  851 points,  6 beta functions with:
                l(1) =   0
                l(2) =   0
                l(3) =   1
                l(4) =   1
                l(5) =   2
                l(6) =   2
     Q(r) pseudized with  8 coefficients,  rinner =    1.000   1.000   1.000
                                                       1.000   1.000

     PseudoPot. # 3 for N  read from file:
     /storage/coda1/p-amedford6/0/shared/rich_project_chbe-medford/medford-share/data/pseudos_module/espresso/nninc/pbe/van/N.UPF
     MD5 check sum: 90d10febe142ad51ac9d5be1deb811c4
     Pseudo is Ultrasoft, Zval =  5.0
     Generated by new atomic code, or converted to UPF format
     Using radial grid of  729 points,  4 beta functions with:
                l(1) =   0
                l(2) =   0
                l(3) =   1
                l(4) =   1
     Q(r) pseudized with  8 coefficients,  rinner =    0.800   0.800   0.800

     PseudoPot. # 4 for H  read from file:
     /storage/coda1/p-amedford6/0/shared/rich_project_chbe-medford/medford-share/data/pseudos_module/espresso/nninc/pbe/van/H.UPF
     MD5 check sum: b5ee9d7bfd3a09ee7748110bda690ff7
     Pseudo is Ultrasoft, Zval =  1.0
     Generated by new atomic code, or converted to UPF format
     Using radial grid of  615 points,  1 beta functions with:
                l(1) =   0
     Q(r) pseudized with  8 coefficients,  rinner =    0.800

     PseudoPot. # 5 for C  read from file:
     /storage/coda1/p-amedford6/0/shared/rich_project_chbe-medford/medford-share/data/pseudos_module/espresso/nninc/pbe/van/C.UPF
     MD5 check sum: 1a69bf6b8db32088f5b2163dbdb77a27
     Pseudo is Ultrasoft, Zval =  4.0
     Generated by new atomic code, or converted to UPF format
     Using radial grid of  721 points,  4 beta functions with:
                l(1) =   0
                l(2) =   0
                l(3) =   1
                l(4) =   1
     Q(r) pseudized with  8 coefficients,  rinner =    0.800   0.800   0.800

     atomic species   valence    mass     pseudopotential
        O1             6.00    15.99900     O ( 1.00)
        Ti1           12.00    47.86700     Ti( 1.00)
        N1             5.00    14.00700     N ( 1.00)
        H1             1.00     1.00800     H ( 1.00)
        C1             4.00    12.01100     C ( 1.00)

     No symmetry found

   Cartesian axes

     site n.     atom                  positions (alat units)
         1           O1  tau(   1) = (   3.2904802   0.0005063   4.7018136  )
         2           O1  tau(   2) = (   3.2900926   2.9813045   4.7018136  )
         3           Ti1 tau(   3) = (   0.0004258   2.9801865   6.0000000  )
         4           Ti1 tau(   4) = (   0.0000382   5.9609847   6.0000000  )
         5           Ti1 tau(   5) = (   3.2906075   1.4906267   6.0002472  )
         6           Ti1 tau(   6) = (   3.2902200   4.4714249   6.0002472  )
         7           O1  tau(   7) = (   1.3043587   1.4918075   6.0039043  )
         8           O1  tau(   8) = (   1.3039711   4.4726057   6.0039043  )
         9           O1  tau(   9) = (   5.2767064   1.4903225   6.0039473  )
        10           O1  tau(  10) = (   5.2763189   4.4711207   6.0039473  )
        11           O1  tau(  11) = (   3.2906025   0.0005020   7.3038282  )
        12           O1  tau(  12) = (   3.2902150   2.9813002   7.3038282  )
        13           O1  tau(  13) = (   0.0006271   0.0005054   7.9858123  )
        14           O1  tau(  14) = (   0.0002396   2.9813036   7.9858123  )
        15           Ti1 tau(  15) = (   3.2907910   2.8959150   9.1758416  )
        16           Ti1 tau(  16) = (   3.2891106   5.8743827   9.1763621  )
        17           Ti1 tau(  17) = (   0.0015273   1.4827037   9.2680791  )
        18           Ti1 tau(  18) = (   0.0006254   4.4649316   9.2693709  )
        19           O1  tau(  19) = (   4.5942328   1.4918067   9.2879030  )
        20           O1  tau(  20) = (   4.5938453   4.4726049   9.2879030  )
        21           O1  tau(  21) = (   1.9868534   1.4903216   9.2879459  )
        22           O1  tau(  22) = (   1.9864658   4.4711199   9.2879459  )
        23           O1  tau(  23) = (   0.0116148   5.9584955  10.6183126  )
        24           O1  tau(  24) = (   0.0092240   2.9805883  10.6323155  )
        25           O1  tau(  25) = (   3.2871924   0.0092975  11.3134720  )
        26           O1  tau(  26) = (   3.2854473   2.9899114  11.3140924  )
        27           Ti1 tau(  27) = (   3.1645864   1.5001695  12.4631195  )
        28           Ti1 tau(  28) = (   3.1630299   4.4806833  12.4603605  )
        29           Ti1 tau(  29) = (   6.4825016   0.0268845  12.6761456  )
        30           O1  tau(  30) = (   5.2927839   4.4803479  12.6175172  )
        31           O1  tau(  31) = (   5.2917030   1.4958386  12.6158568  )
        32           O1  tau(  32) = (   1.3125566   4.4752595  12.6102184  )
        33           O1  tau(  33) = (   1.3147444   1.4884423  12.6074978  )
        34           Ti1 tau(  34) = (   6.4947133   3.0086745  12.6771613  )
        35           O1  tau(  35) = (   3.2927928   3.0034821  13.8909844  )
        36           O1  tau(  36) = (   3.2984538   0.0179784  13.8891953  )
        37           O1  tau(  37) = (   6.5782462   5.9542408  14.6113871  )
        38           O1  tau(  38) = (   0.0063130   2.9565225  14.5996091  )
        39           Ti1 tau(  39) = (   3.2946075   3.0248150  15.6873259  )
        40           Ti1 tau(  40) = (   3.3096140   0.0407809  15.6830396  )
        41           Ti1 tau(  41) = (   0.0052144   1.6347595  16.0230390  )
        42           O1  tau(  42) = (   2.0681981   1.5365669  16.0503333  )
        43           O1  tau(  43) = (   4.5323643   4.5197138  16.0585785  )
        44           O1  tau(  44) = (   2.0637162   4.5219542  16.0519313  )
        45           O1  tau(  45) = (   4.5361195   1.5375365  16.0414673  )
        46           Ti1 tau(  46) = (   0.0121038   4.6470822  16.0779317  )
        47           O1  tau(  47) = (   0.0166110   0.0790660  17.1873875  )
        48           N1  tau(  48) = (   3.1258632   2.7928715  18.8711073  )
        49           H1  tau(  49) = (   5.2135379   2.8994874  18.6379610  )
        50           N1  tau(  50) = (   1.8800116   2.5028027  19.3023652  )
        51           H1  tau(  51) = (   1.1979237   2.7808332  18.5810318  )
        52           C1  tau(  52) = (   4.2825308   2.7641870  19.1985473  )
        53           H1  tau(  53) = (   1.7950530   1.5048916  19.5010168  )
        54           O1  tau(  54) = (   0.0080391   3.0388675  17.2116835  )

     number of k points=    10  Fermi-Dirac smearing, width (Ry)=  0.0073
                       cart. coord. in units 2pi/alat
        k(    1) = (   0.0000000   0.0000000   0.0000000), wk =   0.1250000
        k(    2) = (   0.0000000   0.0419351   0.0000000), wk =   0.2500000
        k(    3) = (   0.0000000  -0.0838702   0.0000000), wk =   0.1250000
        k(    4) = (   0.0379955   0.0000049   0.0000000), wk =   0.2500000
        k(    5) = (   0.0379955   0.0419400   0.0000000), wk =   0.2500000
        k(    6) = (   0.0379955  -0.0838652   0.0000000), wk =   0.2500000
        k(    7) = (   0.0379955  -0.0419301   0.0000000), wk =   0.2500000
        k(    8) = (  -0.0759910  -0.0000099   0.0000000), wk =   0.1250000
        k(    9) = (  -0.0759910   0.0419252   0.0000000), wk =   0.2500000
        k(   10) = (  -0.0759910  -0.0838800   0.0000000), wk =   0.1250000

     Initial potential from superposition of free atoms

     starting charge  384.99916, renormalised to  401.00000

     negative rho (up, down):  1.609E-02 0.000E+00

     %%%%%%%%%%%%%%%%%%%%%%%%%%%%%%%%%%%%%%%%%%%%%%%%%%%%%%%%%%%%%%%%%%%%%%%%
     %                                                                      %
     % You are using vdW-DF, which was implemented by the Thonhauser group. %
     % Please cite the following two papers that made this development      %
     % possible and the two reviews that describe the various versions:     %
     %                                                                      %
     %   T. Thonhauser et al., PRL 115, 136402 (2015).                      %
     %   T. Thonhauser et al., PRB 76, 125112 (2007).                       %
     %   K. Berland et al., Rep. Prog. Phys. 78, 066501 (2015).             %
     %   D.C. Langreth et al., J. Phys.: Condens. Matter 21, 084203 (2009). %
     %                                                                      %
     %                                                                      %
     % If you are calculating the stress with vdW-DF, please also cite:     %
     %                                                                      %
     %   R. Sabatini et al., J. Phys.: Condens. Matter 24, 424209 (2012).   %
     %                                                                      %
     %%%%%%%%%%%%%%%%%%%%%%%%%%%%%%%%%%%%%%%%%%%%%%%%%%%%%%%%%%%%%%%%%%%%%%%%

     Adding external electric field

     Computed dipole along edir(3) :
        Dipole              -11.7482 Ry au,        -29.8608 Debye
        Dipole field         -0.0222 Ry au,

        Potential amp.        2.0552 Ry
        Total length         46.3494 bohr

     Starting wfcs are  303 atomic wfcs
  @ DRIVER MODE: Message from server: STATUS
  @ DRIVER MODE: Message from server: POSDATA
  @ DRIVER MODE: Reading and sharing cell
  @ DRIVER MODE: Reading and sharing positions
  @ DRIVER MODE: Received positions

     Self-consistent Calculation

     iteration #  1     ecut=    29.40 Ry     beta= 0.05
     Davidson diagonalization with overlap
     c_bands:  5 eigenvalues not converged
     c_bands:  1 eigenvalues not converged
     c_bands:  2 eigenvalues not converged
     c_bands:  4 eigenvalues not converged
     c_bands:  3 eigenvalues not converged
     c_bands:  5 eigenvalues not converged
     ethr =  1.00E-05,  avg # of iterations = 22.8

[...]

     total energy              =   -2426.71544150 Ry
     estimated scf accuracy    <    6129.35999331 Ry

     iteration #  2     ecut=    29.40 Ry     beta= 0.05
     Davidson diagonalization with overlap
     ethr =  1.00E-02,  avg # of iterations = 24.4

[...]

     iteration # 50     ecut=    29.40 Ry     beta= 0.05
     Davidson diagonalization with overlap
     c_bands:  1 eigenvalues not converged
     c_bands:  1 eigenvalues not converged
     c_bands:  1 eigenvalues not converged
     ethr =  8.19E-07,  avg # of iterations = 14.0

[...]

     total energy              =   -2971.44230352 Ry
     estimated scf accuracy    <       0.00000009 Ry

     iteration # 75     ecut=    29.40 Ry     beta= 0.05
     Davidson diagonalization with overlap
     ethr =  2.30E-11,  avg # of iterations =  9.7

     negative rho (up, down):  1.475E-02 0.000E+00

     Adding external electric field

     Computed dipole along edir(3) :
        Dipole                0.6330 Ry au,          1.6089 Debye
        Dipole field          0.0012 Ry au,

        Potential amp.       -0.1107 Ry
        Total length         46.3494 bohr

     End of self-consistent calculation

          k = 0.0000 0.0000 0.0000 ( 18029 PWs)   bands (ev):

   -55.9314 -55.8975 -55.7401 -55.7042 -55.6270 -55.6211 -55.5901 -55.5874
   -55.5690 -55.5353 -55.5168 -55.4812 -55.2822 -55.1757 -54.8386 -54.8046
   -32.3978 -32.2900 -32.2255 -32.2010 -32.0889 -32.0870 -32.0838 -32.0592
   -32.0567 -32.0278 -32.0205 -31.9930 -31.9690 -31.9572 -31.9517 -31.9279
   -31.9067 -31.8858 -31.8757 -31.8635 -31.8367 -31.7987 -31.7950 -31.7722
   -31.7664 -31.7588 -31.7500 -31.7466 -31.7446 -31.7229 -31.7206 -31.6959
   -31.6954 -31.6796 -31.6731 -31.6364 -31.6358 -31.5183 -31.5143 -31.4162
   -31.4001 -31.3232 -31.2429 -31.1615 -31.1386 -31.0598 -30.9738 -30.8628
   -19.1779 -16.4821 -16.2892 -16.0365 -15.9388 -15.8246 -15.7479 -15.6099
   -15.5095 -15.4262 -15.4255 -15.3333 -15.3066 -15.3060 -15.2574 -15.2128
   -15.2044 -15.1989 -15.1760 -15.1681 -15.1405 -15.0945 -15.0203 -14.9036
   -14.8954 -14.8455 -14.8185 -14.7459 -14.6892 -14.6323 -14.5064 -14.4009
   -13.3408 -13.2257  -8.5767  -6.6524  -5.7322  -4.0301  -3.8636  -3.7891
    -3.6816  -3.6115  -3.5894  -3.3119  -3.3096  -2.9839  -2.9302  -2.9203
    -2.8971  -2.8587  -2.6799  -2.6447  -2.6264  -2.5848  -2.5722  -2.5675
    -2.5630  -2.5262  -2.4730  -2.4713  -2.3748  -2.3627  -2.3187  -2.2105
    -2.2093  -2.1918  -2.1239  -2.1008  -2.0462  -2.0021  -1.9851  -1.9803
    -1.9448  -1.9194  -1.7905  -1.7355  -1.6611  -1.5867  -1.5228  -1.4563
    -1.4358  -1.2986  -1.1852  -1.1782  -1.1455  -1.1033  -1.0890  -1.0643
    -0.9389  -0.8780  -0.8603  -0.8079  -0.7524  -0.6931  -0.6877  -0.6310
    -0.6017  -0.5857  -0.5634  -0.5403  -0.4750  -0.3047  -0.2247  -0.1336
    -0.1239  -0.0779  -0.0645  -0.0494   0.0078   0.0297   0.0432   0.1049
     0.1211   0.1743   0.1982   0.2119   0.2214   0.3035   0.3913   0.4159
     0.5327   0.5361   0.5944   0.6127   0.7848   0.8433   0.8605   0.9042
     1.0189   1.0850   1.1290   1.1827   1.3858   1.4887   1.7495   1.7929
     3.2666   3.2690   3.3547   3.4814   3.5948   3.6440   3.6929   3.7059
     3.8757   3.9328

[...]

          k = 0.0380-0.0419 0.0000 ( 17876 PWs)   bands (ev):

[...]

          k =-0.0760-0.0000 0.0000 ( 17886 PWs)   bands (ev):

[...]

          k =-0.0760-0.0839 0.0000 ( 17948 PWs)   bands (ev):

   -55.9144 -55.9144 -55.7232 -55.7209 -55.6148 -55.6051 -55.6030 -55.6021
   -55.5528 -55.5517 -55.5031 -55.4949 -55.2791 -55.1786 -54.8215 -54.8215
   -32.2137 -32.2136 -32.2105 -32.2103 -32.0949 -32.0931 -32.0379 -32.0378
   -32.0122 -32.0089 -31.9434 -31.9413 -31.9359 -31.9342 -31.9114 -31.9076
   -31.8963 -31.8898 -31.8881 -31.8858 -31.8295 -31.8215 -31.8162 -31.8053
   -31.7945 -31.7922 -31.7886 -31.7883 -31.7850 -31.7835 -31.7659 -31.7651
   -31.7399 -31.7315 -31.6603 -31.6536 -31.5844 -31.5300 -31.5163 -31.4637
   -31.4191 -31.4087 -31.1514 -31.1514 -31.0561 -31.0560 -31.0169 -31.0168
   -19.1757 -15.9161 -15.9109 -15.7346 -15.7279 -15.6754 -15.6735 -15.5377
   -15.5369 -15.4363 -15.4333 -15.3756 -15.3732 -15.3628 -15.3512 -15.2876
   -15.2715 -15.2689 -15.2638 -15.2208 -15.2201 -15.2150 -15.2111 -15.1203
   -15.1136 -14.9306 -14.8392 -14.7988 -14.6950 -14.6461 -14.5920 -14.5417
   -13.3280 -13.3277  -8.5274  -6.6231  -5.8770  -4.0211  -3.2161  -3.2077
    -2.9230  -2.9212  -2.8763  -2.8707  -2.6670  -2.6661  -2.6449  -2.6367
    -2.6031  -2.5916  -2.5693  -2.5643  -2.5099  -2.4871  -2.4732  -2.4699
    -2.4664  -2.4576  -2.4478  -2.4386  -2.4104  -2.4009  -2.3960  -2.3908
    -2.3511  -2.2891  -2.2741  -2.1788  -2.1658  -1.9421  -1.9416  -1.9193
    -1.9152  -1.8989  -1.8846  -1.8622  -1.8523  -1.7041  -1.6564  -1.4894
    -1.4864  -1.4124  -1.4049  -1.3536  -1.3067  -1.2547  -1.2290  -1.1320
    -1.1190  -1.0504  -1.0417  -0.9852  -0.9417  -0.9346  -0.9235  -0.8283
    -0.8255  -0.8080  -0.7680  -0.7027  -0.6907  -0.6185  -0.6126  -0.5625
    -0.5615  -0.4915  -0.4843  -0.3174  -0.3143  -0.2202  -0.1957  -0.1004
    -0.0847   0.1210   0.2058   0.2377   0.2614   0.2673   0.4575   0.4656
     0.4838   0.4904   0.5178   0.5488   0.6753   0.6958   0.7598   0.7729
     0.8106   0.8168   1.0442   1.0604   1.5550   1.5553   1.6110   1.6114
     3.3916   3.6650   3.6808   3.7688   3.7695   3.7889   3.7895   3.8172
     3.8218   4.0408

     the Fermi energy is     3.2304 ev

!    total energy              =   -2971.44231568 Ry
     estimated scf accuracy    <       0.00000002 Ry
     smearing contrib. (-TS)   =      -0.01964927 Ry
     internal energy E=F+TS    =   -2971.42266641 Ry

     The total energy is F=E-TS. E is the sum of the following terms:
     one-electron contribution =  -23896.70153200 Ry
     hartree contribution      =   12040.46171031 Ry
     xc contribution           =    -492.29965462 Ry
     ewald contribution        =    9377.11605374 Ry
     electric field correction =       0.00075615 Ry

     convergence has been achieved in  75 iterations

     Forces acting on atoms (cartesian axes, Ry/au):

     atom    1 type  1   force =     0.00003405   -0.00007492    0.10234360
     atom    2 type  1   force =     0.00004206   -0.00006855    0.10233812
     atom    3 type  2   force =     0.00001534   -0.00024324    0.10282163
     atom    4 type  2   force =     0.00007712   -0.00018822    0.10224162
     atom    5 type  2   force =    -0.00009497   -0.00058212   -0.17195958
     atom    6 type  2   force =    -0.00009317   -0.00033156   -0.17213592
     atom    7 type  1   force =    -0.07284614   -0.00013928   -0.02895856
     atom    8 type  1   force =    -0.07286118   -0.00007630   -0.02896249
     atom    9 type  1   force =     0.07271717    0.00029840   -0.02904409
     atom   10 type  1   force =     0.07274298    0.00034122   -0.02905443
     atom   11 type  1   force =    -0.00004071   -0.00106016    0.04707876
     atom   12 type  1   force =    -0.00001476   -0.00087890    0.04704180
     atom   13 type  1   force =     0.00020185    0.00004966   -0.03505066
     atom   14 type  1   force =     0.00023413   -0.00007646   -0.03424996
     atom   15 type  2   force =     0.00066398   -0.00144256   -0.00652317
     atom   16 type  2   force =     0.00063357    0.00163501   -0.00664455
     atom   17 type  2   force =     0.00002119   -0.00077321    0.06334943
     atom   18 type  2   force =    -0.00004314   -0.00152734    0.06373169
     atom   19 type  1   force =    -0.01510951    0.00119948   -0.00072310
     atom   20 type  1   force =    -0.01544277    0.00064904   -0.00076061
     atom   21 type  1   force =     0.01663892    0.00174201   -0.00150136
     atom   22 type  1   force =     0.01686090    0.00105061   -0.00151523
     atom   23 type  1   force =    -0.00340648    0.00175446   -0.03939769
     atom   24 type  1   force =    -0.00235319    0.00100432   -0.04583386
     atom   25 type  1   force =     0.00003679   -0.00006933    0.00024557
     atom   26 type  1   force =     0.00030263   -0.00004048    0.00016009
     atom   27 type  2   force =    -0.00001012   -0.00009175   -0.00011195
     atom   28 type  2   force =     0.00023416   -0.00002148    0.00026744
     atom   29 type  2   force =     0.00067987   -0.00028430    0.00001529
     atom   30 type  1   force =    -0.00033048   -0.00013114    0.00037898
     atom   31 type  1   force =    -0.00017886    0.00011493   -0.00011370
     atom   32 type  1   force =     0.00032553   -0.00014824    0.00024507
     atom   33 type  1   force =     0.00026391    0.00009473    0.00017141
     atom   34 type  2   force =    -0.00006421   -0.00015956   -0.00016109
     atom   35 type  1   force =     0.00007684   -0.00025898   -0.00015579
     atom   36 type  1   force =    -0.00003386    0.00012203   -0.00020752
     atom   37 type  1   force =     0.00013222   -0.00010214    0.00057457
     atom   38 type  1   force =    -0.00015890   -0.00045217    0.00155691
     atom   39 type  2   force =    -0.00004404   -0.00028797   -0.00005974
     atom   40 type  2   force =    -0.00030428   -0.00009534    0.00047355
     atom   41 type  2   force =    -0.00025536    0.00252554    0.00300695
     atom   42 type  1   force =    -0.00023933    0.00010369   -0.00017724
     atom   43 type  1   force =     0.00004855   -0.00010457   -0.00057454
     atom   44 type  1   force =     0.00019407   -0.00047743    0.00016341
     atom   45 type  1   force =     0.00018490   -0.00005743   -0.00037738
     atom   46 type  2   force =    -0.00013860   -0.00182065    0.00190917
     atom   47 type  1   force =     0.00013519   -0.00014447   -0.00044238
     atom   48 type  3   force =     0.00005486   -0.00031912    0.00219867
     atom   49 type  4   force =     0.00134701    0.00061867   -0.00062254
     atom   50 type  3   force =     0.00208895   -0.00118775   -0.00070189
     atom   51 type  4   force =    -0.00164971    0.00024917   -0.00018361
     atom   52 type  5   force =    -0.00117958   -0.00011801   -0.00072915
     atom   53 type  4   force =     0.00060028    0.00102956    0.00063933
     atom   54 type  1   force =    -0.00069572   -0.00074738   -0.00601928

     Total force =     0.381494     Total SCF correction =     0.000325
  @ DRIVER MODE: Message from server: STATUS
  @ DRIVER MODE: Message from server: GETFORCE
  @ DRIVER MODE: Returning v,forces,stress,ensemble

     Writing output data file ./calc.save/
  @ DRIVER MODE: Message from server: EXIT
  @ DRIVE MODE: Exiting

     General routines

     Parallel routines

   This run was terminated on:  10:56:24  27Sep2021

   JOB DONE.