     Program PWSCF v.6.8 starts on 30Aug2021 at 14:39:22

     R & G space division:  proc/nbgrp/npool/nimage =      24

     Reading input from /storage/home/hcoda1/3/ntian30/research/carbon/methanol/ads_slab/CH3OHN2_M/methanol.log/pw.inp
Warning: card &CELL ignored
Warning: card   CELL_DYNAMICS='IPI', ignored
Warning: card / ignored

     Current dimensions of program PWSCF are:
     Max number of different atomic species (ntypx) = 10
     Max number of k-points (npk) =  40000
     Max angular momentum in pseudopotentials (lmaxx) =  4
     Presently no symmetry can be used with electric field

     Message from routine cell_base_init:
     DEPRECATED: use true lattice parameter, not A to a.u. conversion factor

     IMPORTANT: XC functional enforced from input :
     Exchange-correlation= BEEF-VDW
                           (   1   4  43  14   2   0   0)
     Any further DFT definition will be discarded
     Please, verify this is what you really want

  @ DRIVER MODE: Connecting to
 qe_1139763_2685197.sched-torque.pace.gatech.edu9pme9_18_scratch
  using UNIX socket
  @ DRIVER MODE: Message from server: STATUS
  @ DRIVER MODE: Message from server: INIT
  @ DRIVER MODE: Receiving replica           0          -1
  @ DRIVER MODE: Receiving encoded integer          25
  @ DRIVER MODE:  SCF:  T  FORCE:  T  STRESS:  F  VC:  F  ENSEMBLE:  F
  @ DRIVER MODE:  SCF:  T  FORCE:  T  STRESS:  F  VC:  F  ENSEMBLE:  F

     Using Slab Decomposition

     bravais-lattice index     =            0
     lattice parameter (alat)  =       1.8897  a.u.
     unit-cell volume          =    6658.9804 (a.u.)^3
     number of atoms/cell      =           55
     number of atomic types    =            5
     number of electrons       =       402.00
     number of Kohn-Sham states=          211
     kinetic-energy cutoff     =      29.3995  Ry
     charge density cutoff     =     293.9946  Ry
     scf convergence threshold =      7.3E-08
     mixing beta               =       0.0500
     number of iterations used =            8  plain     mixing
     Exchange-correlation= BEEF-VDW
                           (   1   4  43  14   2   0   0)

     celldm(1)=   1.889726  celldm(2)=   0.000000  celldm(3)=   0.000000
     celldm(4)=   0.000000  celldm(5)=   0.000000  celldm(6)=   0.000000

     crystal axes: (cart. coord. in units of alat)
               a(1) = (   6.579727   0.000000   0.000000 )
               a(2) = (  -0.000775   5.961596   0.000000 )
               a(3) = (   0.000000   0.000000  25.155947 )

     reciprocal axes: (cart. coord. in units 2 pi/alat)
               b(1) = (  0.151982  0.000020  0.000000 )
               b(2) = (  0.000000  0.167740  0.000000 )
               b(3) = (  0.000000  0.000000  0.039752 )

     PseudoPot. # 1 for Ti read from file:
     /storage/coda1/p-amedford6/0/shared/rich_project_chbe-medford/medford-share/data/pseudos_module/espresso/nninc/pbe/van/Ti.UPF
     MD5 check sum: 8e4df49b7f0d34bbd5052bf3f5ea0213
     Pseudo is Ultrasoft, Zval = 12.0
     Generated by new atomic code, or converted to UPF format
     Using radial grid of  851 points,  6 beta functions with:
                l(1) =   0
                l(2) =   0
                l(3) =   1
                l(4) =   1
                l(5) =   2
                l(6) =   2
     Q(r) pseudized with  8 coefficients,  rinner =    1.000   1.000   1.000
                                                       1.000   1.000

     PseudoPot. # 2 for O  read from file:
     /storage/coda1/p-amedford6/0/shared/rich_project_chbe-medford/medford-share/data/pseudos_module/espresso/nninc/pbe/van/O.UPF
     MD5 check sum: 78c19812648e8988a0fe644b0f25305e
     Pseudo is Ultrasoft, Zval =  6.0
     Generated by new atomic code, or converted to UPF format
     Using radial grid of  737 points,  4 beta functions with:
                l(1) =   0
                l(2) =   0
                l(3) =   1
                l(4) =   1
     Q(r) pseudized with  8 coefficients,  rinner =    0.800   0.800   0.800

     PseudoPot. # 3 for C  read from file:
     /storage/coda1/p-amedford6/0/shared/rich_project_chbe-medford/medford-share/data/pseudos_module/espresso/nninc/pbe/van/C.UPF
     MD5 check sum: 1a69bf6b8db32088f5b2163dbdb77a27
     Pseudo is Ultrasoft, Zval =  4.0
     Generated by new atomic code, or converted to UPF format
     Using radial grid of  721 points,  4 beta functions with:
                l(1) =   0
                l(2) =   0
                l(3) =   1
                l(4) =   1
     Q(r) pseudized with  8 coefficients,  rinner =    0.800   0.800   0.800

     PseudoPot. # 4 for H  read from file:
     /storage/coda1/p-amedford6/0/shared/rich_project_chbe-medford/medford-share/data/pseudos_module/espresso/nninc/pbe/van/H.UPF
     MD5 check sum: b5ee9d7bfd3a09ee7748110bda690ff7
     Pseudo is Ultrasoft, Zval =  1.0
     Generated by new atomic code, or converted to UPF format
     Using radial grid of  615 points,  1 beta functions with:
                l(1) =   0
     Q(r) pseudized with  8 coefficients,  rinner =    0.800

     PseudoPot. # 5 for N  read from file:
     /storage/coda1/p-amedford6/0/shared/rich_project_chbe-medford/medford-share/data/pseudos_module/espresso/nninc/pbe/van/N.UPF
     MD5 check sum: 90d10febe142ad51ac9d5be1deb811c4
     Pseudo is Ultrasoft, Zval =  5.0
     Generated by new atomic code, or converted to UPF format
     Using radial grid of  729 points,  4 beta functions with:
                l(1) =   0
                l(2) =   0
                l(3) =   1
                l(4) =   1
     Q(r) pseudized with  8 coefficients,  rinner =    0.800   0.800   0.800

     atomic species   valence    mass     pseudopotential
        Ti1           12.00    47.86700     Ti( 1.00)
        O1             6.00    15.99900     O ( 1.00)
        C1             4.00    12.01100     C ( 1.00)
        H1             1.00     1.00800     H ( 1.00)
        N1             5.00    14.00700     N ( 1.00)

     No symmetry found

   Cartesian axes

     site n.     atom                  positions (alat units)
         1           Ti1 tau(   1) = (   0.0004258   2.9801865   6.0000000  )
         2           Ti1 tau(   2) = (   3.2906075   1.4906267   6.0002472  )
         3           O1  tau(   3) = (   0.0006271   0.0005054   7.9858123  )
         4           O1  tau(   4) = (   3.2906025   0.0005020   7.3038282  )
         5           O1  tau(   5) = (   4.5942328   1.4918067   9.2879030  )
         6           O1  tau(   6) = (   1.9868534   1.4903216   9.2879459  )
         7           Ti1 tau(   7) = (   3.3125460   2.9785574   9.1552530  )
         8           Ti1 tau(   8) = (   0.0311596   1.4964134   9.2690592  )
         9           O1  tau(   9) = (   3.2305614   5.9578668  11.3788911  )
        10           O1  tau(  10) = (   6.5695207   5.9598644  10.6154311  )
        11           O1  tau(  11) = (   1.2270336   1.4847904  12.6847009  )
        12           O1  tau(  12) = (   5.2241502   1.4857433  12.6419053  )
        13           Ti1 tau(  13) = (   6.5230289   2.9624647  12.5450162  )
        14           Ti1 tau(  14) = (   3.2395519   1.4893098  12.5167001  )
        15           O1  tau(  15) = (   6.4514961   0.0044027  14.6975867  )
        16           O1  tau(  16) = (   3.2275387   5.9518086  14.0130126  )
        17           O1  tau(  17) = (   4.4114216   1.5094095  16.2207107  )
        18           O1  tau(  18) = (   1.8941150   1.4979477  16.1737019  )
        19           Ti1 tau(  19) = (   3.1541547   2.9676464  15.7424757  )
        20           Ti1 tau(  20) = (   6.4731952   1.4023154  15.9257176  )
        21           O1  tau(  21) = (   3.2904802   0.0005063   4.7018136  )
        22           O1  tau(  22) = (   6.4523166   5.9537441  17.2285404  )
        23           O1  tau(  23) = (   1.3043587   1.4918075   6.0039043  )
        24           O1  tau(  24) = (   5.2767064   1.4903225   6.0039473  )
        25           Ti1 tau(  25) = (   0.0000382   5.9609847   6.0000000  )
        26           Ti1 tau(  26) = (   3.2902200   4.4714249   6.0002472  )
        27           O1  tau(  27) = (   0.0002396   2.9813036   7.9858123  )
        28           O1  tau(  28) = (   3.2902150   2.9813002   7.3038282  )
        29           O1  tau(  29) = (   4.5938453   4.4726049   9.2879030  )
        30           O1  tau(  30) = (   1.9864658   4.4711199   9.2879459  )
        31           Ti1 tau(  31) = (   3.3079062   5.9597871   9.1524692  )
        32           Ti1 tau(  32) = (   0.0306098   4.4652648   9.2710962  )
        33           O1  tau(  33) = (   3.2311014   2.9759501  11.3713600  )
        34           O1  tau(  34) = (   6.5671215   2.9789454  10.6350239  )
        35           O1  tau(  35) = (   1.2234440   4.4645023  12.6870612  )
        36           O1  tau(  36) = (   5.2264351   4.4635290  12.6443428  )
        37           Ti1 tau(  37) = (   6.5267985   5.9409833  12.4913319  )
        38           Ti1 tau(  38) = (   3.2389837   4.4665399  12.5217391  )
        39           O1  tau(  39) = (   6.4453944   2.9701978  14.8830765  )
        40           O1  tau(  40) = (   3.2216481   2.9718320  13.9593617  )
        41           O1  tau(  41) = (   4.4092282   4.4280906  16.2316293  )
        42           O1  tau(  42) = (   1.8935544   4.4422750  16.1712388  )
        43           Ti1 tau(  43) = (   3.1879468   5.9491464  15.8056501  )
        44           Ti1 tau(  44) = (   6.4822765   4.6137504  15.9834927  )
        45           O1  tau(  45) = (   3.2900926   2.9813045   4.7018136  )
        46           O1  tau(  46) = (   1.3039711   4.4726057   6.0039043  )
        47           O1  tau(  47) = (   5.2763189   4.4711207   6.0039473  )
        48           C1  tau(  48) = (   0.4077056   2.9538944  18.9627770  )
        49           O1  tau(  49) = (   6.2926382   2.9853010  17.6920389  )
        50           H1  tau(  50) = (   1.4674917   2.9516143  18.7317846  )
        51           H1  tau(  51) = (   5.3306189   3.0251282  17.8339341  )
        52           H1  tau(  52) = (   0.1523079   3.8464468  19.5334156  )
        53           H1  tau(  53) = (   0.1397053   2.0411758  19.4947430  )
        54           N1  tau(  54) = (   1.8941150   1.4979477  18.6737019  )
        55           N1  tau(  55) = (   1.8941150   1.4979477  17.5437219  )

     number of k points=    10  Fermi-Dirac smearing, width (Ry)=  0.0073
                       cart. coord. in units 2pi/alat
        k(    1) = (   0.0000000   0.0000000   0.0000000), wk =   0.1250000
        k(    2) = (   0.0000000   0.0419351   0.0000000), wk =   0.2500000
        k(    3) = (   0.0000000  -0.0838702   0.0000000), wk =   0.1250000
        k(    4) = (   0.0379955   0.0000049   0.0000000), wk =   0.2500000
        k(    5) = (   0.0379955   0.0419400   0.0000000), wk =   0.2500000
        k(    6) = (   0.0379955  -0.0838652   0.0000000), wk =   0.2500000
        k(    7) = (   0.0379955  -0.0419301   0.0000000), wk =   0.2500000
        k(    8) = (  -0.0759910  -0.0000099   0.0000000), wk =   0.1250000
        k(    9) = (  -0.0759910   0.0419252   0.0000000), wk =   0.2500000
[...]
        43           Ti1 tau(  43) = (   3.1715231   5.9488025  15.7364510  )
        44           Ti1 tau(  44) = (   6.4788910   4.5556840  15.9014949  )
        45           O1  tau(  45) = (   3.2900926   2.9813045   4.7018136  )
        46           O1  tau(  46) = (   1.3039711   4.4726057   6.0039043  )
        47           O1  tau(  47) = (   5.2763189   4.4711207   6.0039473  )
        48           C1  tau(  48) = (   0.0958931   3.3876314  19.0794345  )
        49           O1  tau(  49) = (   6.2147569   3.1006577  17.7338762  )
        50           H1  tau(  50) = (   1.1246871   3.7311256  19.0018517  )
        51           H1  tau(  51) = (   5.2412840   3.0593768  17.7450881  )
        52           H1  tau(  52) = (   6.0685005   4.1779559  19.5097277  )
        53           H1  tau(  53) = (   0.0409467   2.4772693  19.6786885  )
        54           N1  tau(  54) = (   2.9776349   0.1814837  19.4820689  )
        55           N1  tau(  55) = (   2.9339788   1.2405831  19.1741026  )

     number of k points=    10  Fermi-Dirac smearing, width (Ry)=  0.0073
                       cart. coord. in units 2pi/alat
        k(    1) = (   0.0000000   0.0000000   0.0000000), wk =   0.1250000
        k(    2) = (   0.0000000   0.0419351   0.0000000), wk =   0.2500000
        k(    3) = (   0.0000000  -0.0838702   0.0000000), wk =   0.1250000
        k(    4) = (   0.0379955   0.0000049   0.0000000), wk =   0.2500000
        k(    5) = (   0.0379955   0.0419400   0.0000000), wk =   0.2500000
        k(    6) = (   0.0379955  -0.0838652   0.0000000), wk =   0.2500000
        k(    7) = (   0.0379955  -0.0419301   0.0000000), wk =   0.2500000
        k(    8) = (  -0.0759910  -0.0000099   0.0000000), wk =   0.1250000
        k(    9) = (  -0.0759910   0.0419252   0.0000000), wk =   0.2500000
        k(   10) = (  -0.0759910  -0.0838800   0.0000000), wk =   0.1250000

     Initial potential from superposition of free atoms

     starting charge  385.99915, renormalised to  402.00000

[...]

     %%%%%%%%%%%%%%%%%%%%%%%%%%%%%%%%%%%%%%%%%%%%%%%%%%%%%%%%%%%%%%%%%%%%%%%%
     %                                                                      %
     % You are using vdW-DF, which was implemented by the Thonhauser group. %
     % Please cite the following two papers that made this development      %
     % possible and the two reviews that describe the various versions:     %
     %                                                                      %
     %   T. Thonhauser et al., PRL 115, 136402 (2015).                      %
     %   T. Thonhauser et al., PRB 76, 125112 (2007).                       %
     %   K. Berland et al., Rep. Prog. Phys. 78, 066501 (2015).             %
     %   D.C. Langreth et al., J. Phys.: Condens. Matter 21, 084203 (2009). %
     %                                                                      %
     %                                                                      %
     % If you are calculating the stress with vdW-DF, please also cite:     %
     %                                                                      %
     %   R. Sabatini et al., J. Phys.: Condens. Matter 24, 424209 (2012).   %
     %                                                                      %
     %%%%%%%%%%%%%%%%%%%%%%%%%%%%%%%%%%%%%%%%%%%%%%%%%%%%%%%%%%%%%%%%%%%%%%%%

[...]

     Starting wfcs are  304 atomic wfcs
  @ DRIVER MODE: Message from server: STATUS
  @ DRIVER MODE: Message from server: POSDATA
  @ DRIVER MODE: Reading and sharing cell
  @ DRIVER MODE: Reading and sharing positions
  @ DRIVER MODE: Received positions

[...]

     Self-consistent Calculation

[...]

     iteration # 19     ecut=    29.40 Ry     beta= 0.05
     Davidson diagonalization with overlap
     ethr =  2.55E-11,  avg # of iterations =  1.4

[...]

     total energy              =   -2972.83999580 Ry
     estimated scf accuracy    <       0.00000008 Ry

     iteration # 20     ecut=    29.40 Ry     beta= 0.05
     Davidson diagonalization with overlap
     c_bands:  1 eigenvalues not converged
     ethr =  1.87E-11,  avg # of iterations = 13.1

[...]

     End of self-consistent calculation

[...]

          k = 0.0380-0.0419 0.0000 ( 17876 PWs)   bands (ev):

[...]

          k =-0.0760-0.0839 0.0000 ( 17948 PWs)   bands (ev):

   -55.2107 -55.2081 -55.1738 -55.1713 -55.1067 -55.1058 -55.1029 -55.0822
   -55.0649 -55.0440 -55.0408 -55.0146 -54.9904 -54.9888 -54.2697 -54.2694
   -31.6454 -31.6024 -31.5987 -31.5218 -31.5021 -31.4997 -31.4864 -31.4656
   -31.4608 -31.4416 -31.4305 -31.4301 -31.4193 -31.3831 -31.3717 -31.3686
   -31.3603 -31.3578 -31.3548 -31.3509 -31.3500 -31.3478 -31.3326 -31.3059
   -31.3041 -31.2996 -31.2992 -31.2987 -31.2951 -31.2932 -31.2916 -31.2731
   -31.2695 -31.2621 -31.2427 -31.2411 -31.2398 -31.2174 -31.2150 -31.2006
   -31.1736 -31.1717 -30.5868 -30.5865 -30.5118 -30.5115 -30.4723 -30.4720
   -21.8068 -20.0166 -15.5742 -15.4844 -15.4197 -15.2279 -15.2249 -15.2195
   -15.2028 -15.0710 -15.0485 -15.0434 -14.9947 -14.9836 -14.9739 -14.9672
   -14.9489 -14.8239 -14.8216 -14.8104 -14.8086 -14.7426 -14.7386 -14.7223
   -14.7083 -14.6748 -14.6706 -14.6542 -14.6477 -14.4780 -14.3689 -12.7686
   -12.7683 -10.9911  -7.0634  -6.7527  -5.0220  -4.9629  -4.9318  -4.7339
    -3.7370  -2.8616  -2.7579  -2.6826  -2.6653  -2.4395  -2.4327  -2.3897
    -2.3250  -2.2812  -2.2313  -2.2130  -2.2072  -2.1362  -2.1349  -2.1250
    -2.1147  -2.0810  -2.0678  -2.0310  -2.0124  -1.9676  -1.9323  -1.9212
    -1.9128  -1.8910  -1.8897  -1.8817  -1.8498  -1.8470  -1.8288  -1.7194
    -1.6841  -1.5944  -1.5877  -1.5565  -1.4512  -1.4424  -1.3686  -1.3551
    -1.3095  -1.2940  -1.2564  -1.2012  -1.1520  -1.0407  -1.0234  -1.0176
    -0.9426  -0.8716  -0.8414  -0.8228  -0.7686  -0.7149  -0.6653  -0.6353
    -0.5633  -0.5118  -0.4393  -0.4264  -0.3828  -0.2561  -0.2491  -0.2217
    -0.2150  -0.2114  -0.1345  -0.1195  -0.0620  -0.0178   0.0335   0.0535
     0.0677   0.2746   0.2920   0.3622   0.4546   0.5138   0.6392   0.6538
     0.7163   0.7685   0.8202   0.8477   0.9234   1.0432   1.0524   1.0754
     1.1628   1.2029   1.2071   1.2275   2.0904   2.0917   2.1966   2.1985
     4.0201   4.0893   4.1266   4.1872   4.2417   4.3795   4.3886   4.4248
     4.4278   4.4635   4.4968

     the Fermi energy is     3.9282 ev

!    total energy              =   -2972.83999743 Ry
     estimated scf accuracy    <       0.00000007 Ry
     smearing contrib. (-TS)   =      -0.03681740 Ry
     internal energy E=F+TS    =   -2972.80318004 Ry

     The total energy is F=E-TS. E is the sum of the following terms:
     one-electron contribution =  -23233.00339437 Ry
     hartree contribution      =   11712.72322925 Ry
     xc contribution           =    -493.17942436 Ry
     ewald contribution        =    9040.65303920 Ry
     electric field correction =       0.00337025 Ry

     convergence has been achieved in  20 iterations

     Forces acting on atoms (cartesian axes, Ry/au):

     atom    1 type  1   force =    -0.00015481    0.00008632    0.09318636
     atom    2 type  1   force =    -0.00008921    0.00039736   -0.18385522
     atom    3 type  2   force =     0.00044941    0.00043551   -0.02188187
     atom    4 type  2   force =     0.00025851    0.00028598    0.05054028
     atom    5 type  2   force =    -0.01514520    0.00013753    0.00550826
     atom    6 type  2   force =     0.01323133    0.00048636    0.00511711
     atom    7 type  1   force =     0.00094787    0.00123089   -0.00005489
     atom    8 type  1   force =    -0.00036637    0.00050085    0.00017237
     atom    9 type  2   force =     0.00000672   -0.00007130    0.00034016
     atom   10 type  2   force =     0.00044287   -0.00001473   -0.00000848
     atom   11 type  2   force =    -0.00016739   -0.00050908    0.00010673
     atom   12 type  2   force =     0.00046108   -0.00019306    0.00003515
     atom   13 type  1   force =    -0.00073746    0.00024967    0.00030616
     atom   14 type  1   force =     0.00091865   -0.00000658   -0.00043152
     atom   15 type  2   force =     0.00003208   -0.00098042    0.00046647
     atom   16 type  2   force =    -0.00011899    0.00026296   -0.00047186
     atom   17 type  2   force =    -0.00006464    0.00009000   -0.00025884
     atom   18 type  2   force =    -0.00045379   -0.00009265   -0.00064034
     atom   19 type  1   force =    -0.00027707   -0.00089248   -0.00065482
     atom   20 type  1   force =    -0.00034906    0.00048571    0.00022432
     atom   21 type  2   force =     0.00005359   -0.00001845    0.10509752
     atom   22 type  2   force =    -0.00016721   -0.00018818   -0.00075494
     atom   23 type  2   force =    -0.06771448   -0.00021663   -0.02673981
     atom   24 type  2   force =     0.06760000    0.00025010   -0.02679833
     atom   25 type  1   force =    -0.00012536   -0.00011929    0.09545515
     atom   26 type  1   force =    -0.00001283   -0.00077475   -0.18375454
     atom   27 type  2   force =     0.00046345    0.00008701   -0.02076988
     atom   28 type  2   force =     0.00045066    0.00011385    0.05055599
     atom   29 type  2   force =    -0.01529166    0.00057288    0.00538320
     atom   30 type  2   force =     0.01334494    0.00077314    0.00501035
     atom   31 type  1   force =     0.00099983   -0.00102470    0.00039093
     atom   32 type  1   force =    -0.00033402   -0.00008124   -0.00021283
     atom   33 type  2   force =    -0.00044297    0.00019474    0.00001791
     atom   34 type  2   force =     0.00070474   -0.00033472   -0.00050813
     atom   35 type  2   force =     0.00036659    0.00046687   -0.00009260
     atom   36 type  2   force =     0.00008155    0.00007947   -0.00034149
     atom   37 type  1   force =    -0.00066374   -0.00005369    0.00001375
     atom   38 type  1   force =     0.00074612    0.00028927   -0.00102028
     atom   39 type  2   force =     0.00015247   -0.00043054    0.00059244
     atom   40 type  2   force =    -0.00041630    0.00059155    0.00049157
     atom   41 type  2   force =     0.00049666    0.00002955   -0.00033310
     atom   42 type  2   force =    -0.00049023    0.00022697    0.00008737
     atom   43 type  1   force =     0.00014050    0.00075211    0.00080817
     atom   44 type  1   force =    -0.00002437   -0.00055439   -0.00048641
     atom   45 type  2   force =     0.00005530   -0.00002688    0.10510318
     atom   46 type  2   force =    -0.06774531   -0.00050020   -0.02669925
     atom   47 type  2   force =     0.06761893   -0.00008022   -0.02679084
     atom   48 type  3   force =    -0.00093628    0.00051643   -0.00053026
     atom   49 type  2   force =     0.00045996   -0.00057403   -0.00035232
     atom   50 type  4   force =     0.00137603   -0.00029441   -0.00005260
     atom   51 type  4   force =    -0.00038461   -0.00029499   -0.00040601
     atom   52 type  4   force =    -0.00048475    0.00024277    0.00015579
     atom   53 type  4   force =     0.00023187   -0.00096169    0.00056628
     atom   54 type  5   force =     0.00031933    0.00072624   -0.00167942
     atom   55 type  5   force =     0.00074708   -0.00127277    0.00084789

     Total force =     0.368266     Total SCF correction =     0.000877
  @ DRIVER MODE: Message from server: STATUS
  @ DRIVER MODE: Message from server: GETFORCE
  @ DRIVER MODE: Returning v,forces,stress,ensemble

     Writing config to output data dir ./calc.save/
  @ DRIVER MODE: Message from server: STATUS
  @ DRIVER MODE: Message from server: INIT
  @ DRIVER MODE: Receiving replica           0           0
  @ DRIVER MODE: Receiving encoded integer           2
  @ DRIVER MODE:  SCF:  T  FORCE:  T  STRESS:  F  VC:  F  ENSEMBLE:  F
  @ DRIVER MODE:  SCF:  F  FORCE:  F  STRESS:  F  VC:  F  ENSEMBLE:  T
  @ DRIVER MODE: Message from server: STATUS
  @ DRIVER MODE: Message from server: POSDATA
  @ DRIVER MODE: Reading and sharing positions
  @ DRIVER MODE: Received positions
     NEW-OLD atomic charge density approx. for the potential

[...]

     Adding external electric field

     Computed dipole along edir(3) :
        Dipole                1.3364 Ry au,          3.3967 Debye
        Dipole field          0.0025 Ry au,

        Potential amp.       -0.2338 Ry
        Total length         46.3494 bohr

  @ DRIVER MODE: BEEF-vdw

[...]

     negative rho (up, down):  1.523E-02 0.000E+00

     negative rho (up, down):  1.523E-02 0.000E+00
 BEEFens 2000 ensemble energies
             -0.354057059054257E+02
             -0.204512420869634E+01
             -0.729959506797369E+01
              0.245623584092517E+02
             -0.121700347041559E+02
             -0.940662759719260E+01
             -0.246072728356683E+02
             -0.514092834269255E+02
             -0.219263000668919E+02
             -0.230691798496202E+02
             -0.213880193190993E+02
              0.432006883016174E+01
              0.202889039957448E+01
             -0.109785622818139E+01
              0.177736730211149E+01
              0.270511854731006E+02
             -0.104541923596669E+02
             -0.735698882458711E+01
              0.119629887127801E+02
             -0.632294854037737E+02
              0.316769273994795E+02
             -0.135534724808803E+02
             -0.247609114325215E+01
             -0.572338669198660E+01
             -0.946218015485442E+00
             -0.221007533217654E+01
              0.490584293508320E+02
             -0.153012509017631E+02
             -0.413279438999388E+01
             -0.310026684208556E+02
              0.400684265564876E+02
             -0.442631635951970E+01
             -0.218179296092085E+02
              0.114543820673956E+02
             -0.209604101108226E+01
              0.132896146207061E+02
             -0.550555489498265E+00
              0.276924989014968E+01
              0.193153324406334E+02
             -0.558235410416290E+02
              0.311170908733466E+02
              0.828519517472911E+01
             -0.640273034501200E+01
             -0.178416285870595E+02
              0.704461384604318E+01
             -0.111632607550276E+02
              0.254381682971498E+02
              0.202986792198192E+02
             -0.130721401607066E+02
             -0.167120147077564E+02
             -0.176246853315270E+02
             -0.212413039380894E+02
              0.107856312127604E+02
             -0.276863897256597E+02
              0.849445029539726E+01
              0.353305407386907E+02
              0.407324066133858E+02
              0.189793374446965E+02
              0.852224991924734E+01
              0.177235687993302E+02
[...]
             -0.416535409729742E+02
              0.284994027446720E+01
             -0.144149008876679E+01
             -0.581111606648830E+01
              0.548391928407455E-01
             -0.370900654726696E+02
             -0.715803690647633E+01
              0.505910703515795E+01
              0.755729409862928E+01
              0.277898012892172E+02
             -0.242757083149009E+02
              0.317096643133013E+02
             -0.226997456258275E+02
              0.146023971145912E+02
              0.229896803995734E+02

 BEEF-vdW xc energy contributions
           1 :   -417.732107807503
           2 :    363.654533572215
           3 :   -276.645460714405
           4 :    186.139887812444
           5 :   -115.218640497423
           6 :    72.8208883847360
           7 :   -55.0080268780505
           8 :    51.5957176391996
           9 :   -53.0816273630882
          10 :    54.2309437971275
          11 :   -53.8171267097929
          12 :    52.3484832916634
          13 :   -50.1705818917812
          14 :    46.9895252329416
          15 :   -42.4510057558098
          16 :    36.7878087778790
          17 :   -30.9437582257501
          18 :    26.1413742973874
          19 :   -23.2697812289780
          20 :    22.4943924365317
          21 :   -23.3115903747524
          22 :    24.9195354973637
          23 :   -26.5871720697723
          24 :    27.7826046879836
          25 :   -28.1362140389812
          26 :    27.4286115750269
          27 :   -25.6536519967461
          28 :    23.0663050863473
          29 :   -20.1562523170780
          30 :    17.5317439276596
          31 :   -49.1634898215989
          32 :   -33.3311413745319
  @ DRIVER MODE: Message from server: STATUS
  @ DRIVER MODE: Message from server: GETFORCE
  @ DRIVER MODE: Returning v,forces,stress,ensemble
  @ DRIVE MODE: Returning Ensemble Energies

     Writing config to output data dir ./calc.save/
  @ DRIVER MODE: Message from server: EXIT
  @ DRIVE MODE: Exiting

     General routines

     Parallel routines

   This run was terminated on:  22:45:15  30Aug2021

   JOB DONE.