     Program PWSCF v.6.7GPU starts on  8Sep2021 at 23:27:14

     R & G space division:  proc/nbgrp/npool/nimage =      10
     Reading input from /storage/home/hcoda1/3/ntian30/research/carbon/CxH_vib/C_calc/ads_slab/CN_a/out_0005/pw.inp
Warning: card &CELL ignored
Warning: card   CELL_DYNAMICS='IPI', ignored
Warning: card / ignored

     Current dimensions of program PWSCF are:
     Max number of different atomic species (ntypx) = 10
     Max number of k-points (npk) =  40000
     Max angular momentum in pseudopotentials (lmaxx) =  3
     Presently no symmetry can be used with electric field

     Message from routine cell_base_init:
     DEPRECATED: use true lattice parameter, not A to a.u. conversion factor

     IMPORTANT: XC functional enforced from input :
     Exchange-correlation= BEEF-VDW
                           (   1   4  43  14   2   0   0)
     Any further DFT definition will be discarded
     Please, verify this is what you really want

  @ DRIVER MODE: Connecting to
 qe_1139763_2767374.sched-torque.pace.gatech.edu05ud48db_scratch
  using UNIX socket
  @ DRIVER MODE: Message from server: STATUS
  @ DRIVER MODE: Message from server: INIT
  @ DRIVER MODE: Receiving replica           0          -1
  @ DRIVER MODE: Receiving encoded integer          25
  @ DRIVER MODE:  SCF:  T  FORCE:  T  STRESS:  F  VC:  F  ENSEMBLE:  F
  @ DRIVER MODE:  SCF:  T  FORCE:  T  STRESS:  F  VC:  F  ENSEMBLE:  F

     Using Slab Decomposition

     bravais-lattice index     =            0
     lattice parameter (alat)  =       1.8897  a.u.
     unit-cell volume          =    6658.9804 (a.u.)^3
     number of atoms/cell      =           49
     number of atomic types    =            4
     number of electrons       =       387.00
     number of Kohn-Sham states=          203
     kinetic-energy cutoff     =      29.3995  Ry
     charge density cutoff     =     293.9946  Ry
     scf convergence threshold =      7.3E-08
     mixing beta               =       0.0500
     number of iterations used =            8  plain     mixing
     Exchange-correlation= BEEF-VDW
                           (   1   4  43  14   2   0   0)

     celldm(1)=   1.889726  celldm(2)=   0.000000  celldm(3)=   0.000000
     celldm(4)=   0.000000  celldm(5)=   0.000000  celldm(6)=   0.000000

     crystal axes: (cart. coord. in units of alat)
               a(1) = (   6.579727   0.000000   0.000000 )
               a(2) = (  -0.000775   5.961596   0.000000 )
               a(3) = (   0.000000   0.000000  25.155947 )

     reciprocal axes: (cart. coord. in units 2 pi/alat)
               b(1) = (  0.151982  0.000020  0.000000 )
               b(2) = (  0.000000  0.167740  0.000000 )
               b(3) = (  0.000000  0.000000  0.039752 )

     PseudoPot. # 1 for Ti read from file:
     /storage/coda1/p-amedford6/0/shared/rich_project_chbe-medford/medford-share/data/pseudos_module/espresso/nninc/pbe/van/Ti.UPF
     MD5 check sum: 8e4df49b7f0d34bbd5052bf3f5ea0213
     Pseudo is Ultrasoft, Zval = 12.0
     Generated by new atomic code, or converted to UPF format
     Using radial grid of  851 points,  6 beta functions with:
                l(1) =   0
                l(2) =   0
                l(3) =   1
                l(4) =   1
                l(5) =   2
                l(6) =   2
     Q(r) pseudized with  8 coefficients,  rinner =    1.000   1.000   1.000
                                                       1.000   1.000

     PseudoPot. # 2 for O  read from file:
     /storage/coda1/p-amedford6/0/shared/rich_project_chbe-medford/medford-share/data/pseudos_module/espresso/nninc/pbe/van/O.UPF
     MD5 check sum: 78c19812648e8988a0fe644b0f25305e
     Pseudo is Ultrasoft, Zval =  6.0
     Generated by new atomic code, or converted to UPF format
     Using radial grid of  737 points,  4 beta functions with:
                l(1) =   0
                l(2) =   0
                l(3) =   1
                l(4) =   1
     Q(r) pseudized with  8 coefficients,  rinner =    0.800   0.800   0.800

     PseudoPot. # 3 for N  read from file:
     /storage/coda1/p-amedford6/0/shared/rich_project_chbe-medford/medford-share/data/pseudos_module/espresso/nninc/pbe/van/N.UPF
     MD5 check sum: 90d10febe142ad51ac9d5be1deb811c4
     Pseudo is Ultrasoft, Zval =  5.0
     Generated by new atomic code, or converted to UPF format
     Using radial grid of  729 points,  4 beta functions with:
                l(1) =   0
                l(2) =   0
                l(3) =   1
                l(4) =   1
     Q(r) pseudized with  8 coefficients,  rinner =    0.800   0.800   0.800

     PseudoPot. # 4 for C  read from file:
     /storage/coda1/p-amedford6/0/shared/rich_project_chbe-medford/medford-share/data/pseudos_module/espresso/nninc/pbe/van/C.UPF
     MD5 check sum: 1a69bf6b8db32088f5b2163dbdb77a27
     Pseudo is Ultrasoft, Zval =  4.0
     Generated by new atomic code, or converted to UPF format
     Using radial grid of  721 points,  4 beta functions with:
                l(1) =   0
                l(2) =   0
                l(3) =   1
                l(4) =   1
     Q(r) pseudized with  8 coefficients,  rinner =    0.800   0.800   0.800

     atomic species   valence    mass     pseudopotential
        Ti1           12.00    47.86700     Ti( 1.00)
        O1             6.00    15.99900     O ( 1.00)
        N1             5.00    14.00700     N ( 1.00)
        C1             4.00    12.01100     C ( 1.00)

     No symmetry found

   Cartesian axes

     site n.     atom                  positions (alat units)
         1           Ti1 tau(   1) = (   0.0004258   2.9801865   6.0000000  )
         2           Ti1 tau(   2) = (   3.2906075   1.4906267   6.0002472  )
         3           O1  tau(   3) = (   0.0006271   0.0005054   7.9858123  )
         4           O1  tau(   4) = (   3.2906025   0.0005020   7.3038282  )
         5           O1  tau(   5) = (   4.5942328   1.4918067   9.2879030  )
         6           O1  tau(   6) = (   1.9868534   1.4903216   9.2879459  )
         7           Ti1 tau(   7) = (   3.2907910   2.8959150   9.1758416  )
         8           Ti1 tau(   8) = (   0.0015273   1.4827037   9.2680791  )
         9           O1  tau(   9) = (   3.2906544   5.9526486  11.3360365  )
        10           O1  tau(  10) = (   0.0116148   5.9584955  10.6183126  )
        11           O1  tau(  11) = (   1.2859751   1.4766153  12.6250921  )
        12           O1  tau(  12) = (   5.2747213   1.4793106  12.6166009  )
        13           Ti1 tau(  13) = (   0.0603843   2.9584451  12.6427671  )
        14           Ti1 tau(  14) = (   3.3778536   1.4756059  12.4863933  )
        15           O1  tau(  15) = (   6.5752277   0.0194043  14.6532461  )
        16           O1  tau(  16) = (   3.2875826   0.0023437  13.9196692  )
        17           O1  tau(  17) = (   4.5326611   1.5140167  16.0393429  )
        18           O1  tau(  18) = (   2.0377802   1.5105360  16.0392308  )
        19           Ti1 tau(  19) = (   3.2776205   2.9998382  15.7112304  )
        20           Ti1 tau(  20) = (   6.5636215   1.4772787  15.8536107  )
        21           O1  tau(  21) = (   3.2904802   0.0005063   4.7018136  )
        22           O1  tau(  22) = (   6.5677839   0.0282815  17.1640259  )
        23           O1  tau(  23) = (   1.3043587   1.4918075   6.0039043  )
        24           O1  tau(  24) = (   5.2767064   1.4903225   6.0039473  )
        25           Ti1 tau(  25) = (   0.0000382   5.9609847   6.0000000  )
        26           Ti1 tau(  26) = (   3.2902200   4.4714249   6.0002472  )
        27           O1  tau(  27) = (   0.0002396   2.9813036   7.9858123  )
        28           O1  tau(  28) = (   3.2902150   2.9813002   7.3038282  )
        29           O1  tau(  29) = (   4.5938453   4.4726049   9.2879030  )
        30           O1  tau(  30) = (   1.9864658   4.4711199   9.2879459  )
        31           Ti1 tau(  31) = (   3.2891106   5.8743827   9.1763621  )
        32           Ti1 tau(  32) = (   0.0006254   4.4649316   9.2693709  )
        33           O1  tau(  33) = (   3.2934253   2.9766276  11.3360394  )
        34           O1  tau(  34) = (   0.0092240   2.9805883  10.6323155  )
        35           O1  tau(  35) = (   1.2837843   4.4682058  12.6378402  )
        36           O1  tau(  36) = (   5.2794199   4.4724371  12.6287280  )
        37           Ti1 tau(  37) = (   0.0629162   5.9364049  12.5278104  )
        38           Ti1 tau(  38) = (   3.3790601   4.4565194  12.4925032  )
        39           O1  tau(  39) = (   6.5767340   2.9373485  14.6650829  )
        40           O1  tau(  40) = (   3.2863475   2.9847055  13.9098935  )
        41           O1  tau(  41) = (   4.5306188   4.4848726  16.0532295  )
        42           O1  tau(  42) = (   2.0355158   4.4881816  16.0516428  )
        43           Ti1 tau(  43) = (   3.2786155   0.0182257  15.7221571  )
        44           Ti1 tau(  44) = (   6.5667443   4.6373684  16.0773964  )
        45           O1  tau(  45) = (   3.2900926   2.9813045   4.7018136  )
        46           O1  tau(  46) = (   1.3039711   4.4726057   6.0039043  )
        47           O1  tau(  47) = (   5.2763189   4.4711207   6.0039473  )
        48           N1  tau(  48) = (   0.0024438   2.9903893  17.4649376  )
        49           C1  tau(  49) = (   0.0264708   2.9368645  18.6621426  )

     number of k points=    10  Fermi-Dirac smearing, width (Ry)=  0.0073
                       cart. coord. in units 2pi/alat
        k(    1) = (   0.0000000   0.0000000   0.0000000), wk =   0.1250000
        k(    2) = (   0.0000000   0.0419351   0.0000000), wk =   0.2500000
        k(    3) = (   0.0000000  -0.0838702   0.0000000), wk =   0.1250000
        k(    4) = (   0.0379955   0.0000049   0.0000000), wk =   0.2500000
        k(    5) = (   0.0379955   0.0419400   0.0000000), wk =   0.2500000
        k(    6) = (   0.0379955  -0.0838652   0.0000000), wk =   0.2500000
        k(    7) = (   0.0379955  -0.0419301   0.0000000), wk =   0.2500000
        k(    8) = (  -0.0759910  -0.0000099   0.0000000), wk =   0.1250000
        k(    9) = (  -0.0759910   0.0419252   0.0000000), wk =   0.2500000
        k(   10) = (  -0.0759910  -0.0838800   0.0000000), wk =   0.1250000

     Initial potential from superposition of free atoms

     starting charge  370.99920, renormalised to  387.00000

     negative rho (up, down):  2.000E-02 0.000E+00

     %%%%%%%%%%%%%%%%%%%%%%%%%%%%%%%%%%%%%%%%%%%%%%%%%%%%%%%%%%%%%%%%%%%%%%%%
     %                                                                      %
     % You are using vdW-DF, which was implemented by the Thonhauser group. %
     % Please cite the following two papers that made this development      %
     % possible and the two reviews that describe the various versions:     %
     %                                                                      %
     %   T. Thonhauser et al., PRL 115, 136402 (2015).                      %
     %   T. Thonhauser et al., PRB 76, 125112 (2007).                       %
     %   K. Berland et al., Rep. Prog. Phys. 78, 066501 (2015).             %
     %   D.C. Langreth et al., J. Phys.: Condens. Matter 21, 084203 (2009). %
     %                                                                      %
     %                                                                      %
     % If you are calculating the stress with vdW-DF, please also cite:     %
     %                                                                      %
     %   R. Sabatini et al., J. Phys.: Condens. Matter 24, 424209 (2012).   %
     %                                                                      %
     %%%%%%%%%%%%%%%%%%%%%%%%%%%%%%%%%%%%%%%%%%%%%%%%%%%%%%%%%%%%%%%%%%%%%%%%

     Adding external electric field

     Computed dipole along edir(3) :
        Dipole               -3.3314 Ry au,         -8.4675 Debye
        Dipole field         -0.0063 Ry au,

        Potential amp.        0.5828 Ry
        Total length         46.3494 bohr

     Starting wfcs are  292 atomic wfcs
  @ DRIVER MODE: Message from server: STATUS
  @ DRIVER MODE: Message from server: POSDATA
  @ DRIVER MODE: Reading and sharing cell
  @ DRIVER MODE: Reading and sharing positions
  @ DRIVER MODE: Received positions

     Self-consistent Calculation

     iteration #  1     ecut=    29.40 Ry     beta= 0.05
     Davidson diagonalization with overlap
     c_bands:  3 eigenvalues not converged
     c_bands:  1 eigenvalues not converged
     c_bands:  5 eigenvalues not converged
     c_bands:  1 eigenvalues not converged
     c_bands:  4 eigenvalues not converged
     ethr =  1.00E-05,  avg # of iterations = 19.0

[...]

     total energy              =   -2906.65885498 Ry
     estimated scf accuracy    <     125.57928592 Ry

[...]

     iteration #  3     ecut=    29.40 Ry     beta= 0.05
     Davidson diagonalization with overlap
     ethr =  1.00E-02,  avg # of iterations =  6.9

[...]

     iteration # 57     ecut=    29.40 Ry     beta= 0.05
     Davidson diagonalization with overlap
     c_bands:  1 eigenvalues not converged
     c_bands:  4 eigenvalues not converged
     ethr =  2.39E-10,  avg # of iterations = 17.8

[...]

     total energy              =   -2915.40595121 Ry
     estimated scf accuracy    <       0.00000014 Ry

     iteration # 63     ecut=    29.40 Ry     beta= 0.05
     Davidson diagonalization with overlap
     ethr =  2.95E-11,  avg # of iterations =  8.7

     negative rho (up, down):  1.873E-02 0.000E+00

     Adding external electric field

     Computed dipole along edir(3) :
        Dipole               -0.2685 Ry au,         -0.6825 Debye
        Dipole field         -0.0005 Ry au,

        Potential amp.        0.0470 Ry
        Total length         46.3494 bohr

     End of self-consistent calculation

          k = 0.0000 0.0000 0.0000 ( 18029 PWs)   bands (ev):

   -56.6575 -56.6458 -56.6235 -56.6095 -56.5245 -56.5117 -56.4898 -56.4765
   -56.4676 -56.4356 -56.4335 -56.4017 -56.3969 -56.1825 -55.6375 -55.6035
   -33.1971 -33.1403 -33.0115 -32.9856 -32.9673 -32.9535 -32.9502 -32.9259
   -32.9007 -32.8719 -32.8669 -32.8517 -32.8462 -32.8244 -32.8098 -32.7985
   -32.7830 -32.7682 -32.7622 -32.7511 -32.7283 -32.7156 -32.7147 -32.6669
   -32.6666 -32.6606 -32.6600 -32.6569 -32.6540 -32.6367 -32.6255 -32.6160
   -32.6097 -32.6025 -32.5980 -32.5953 -32.5885 -32.5709 -32.5473 -32.4286
   -32.4070 -32.3890 -32.0447 -31.9561 -31.9337 -31.8614 -31.7749 -31.6639
   -17.3968 -17.1355 -16.9045 -16.8149 -16.7887 -16.6444 -16.5073 -16.3889
   -16.3137 -16.2635 -16.2176 -16.2071 -16.1949 -16.1606 -16.1240 -16.1048
   -16.0980 -16.0769 -16.0475 -16.0359 -16.0188 -15.9980 -15.9568 -15.8318
   -15.7931 -15.7442 -15.7173 -15.6873 -15.3630 -15.2885 -14.1399 -14.0235
    -5.3369  -4.7641  -4.6169  -4.5645  -4.5072  -4.4353  -4.2768  -4.1869
    -3.9150  -3.8452  -3.8238  -3.8065  -3.7627  -3.5818  -3.5582  -3.4745
    -3.4606  -3.4578  -3.4370  -3.4194  -3.4138  -3.3604  -3.2722  -3.2158
    -3.2085  -3.1024  -3.0579  -3.0473  -2.9827  -2.9710  -2.9506  -2.9144
    -2.8967  -2.8957  -2.8736  -2.8414  -2.7345  -2.7169  -2.6293  -2.5431
    -2.4604  -2.4003  -2.2678  -2.1396  -2.1268  -2.0895  -2.0714  -2.0507
    -1.9921  -1.9555  -1.9064  -1.8266  -1.8211  -1.7765  -1.7147  -1.6433
    -1.6110  -1.5384  -1.4730  -1.4210  -1.4189  -1.4050  -1.3361  -1.1454
    -1.1029  -1.0805  -1.0393  -0.9797  -0.9317  -0.9256  -0.8664  -0.8398
    -0.7977  -0.7440  -0.7092  -0.6902  -0.6815  -0.6606  -0.6528  -0.6128
    -0.5620  -0.4592  -0.4300  -0.3845  -0.3492  -0.2409  -0.1089  -0.0310
    -0.0022   0.1136   0.3104   0.3847   0.4518   0.4774   0.5765   0.9561
     1.0019   2.4740   2.5626   2.6065   2.6227   2.7076   2.7247   2.9291
     2.9563   2.9664   3.0259

[...]

          k = 0.0380-0.0419 0.0000 ( 17876 PWs)   bands (ev):

[...]

          k =-0.0760-0.0000 0.0000 ( 17886 PWs)   bands (ev):

[...]

          k =-0.0760-0.0839 0.0000 ( 17948 PWs)   bands (ev):

   -56.6412 -56.6397 -56.6305 -56.6246 -56.5089 -56.5052 -56.4982 -56.4899
   -56.4519 -56.4488 -56.4211 -56.4165 -56.3956 -56.1836 -55.6205 -55.6203
   -33.0032 -32.9976 -32.9561 -32.9551 -32.9362 -32.9349 -32.9066 -32.9021
   -32.8593 -32.8533 -32.8372 -32.8334 -32.7928 -32.7923 -32.7911 -32.7851
   -32.7790 -32.7728 -32.7640 -32.7610 -32.7592 -32.7585 -32.7546 -32.7166
   -32.7097 -32.7026 -32.7010 -32.6992 -32.6708 -32.6530 -32.6517 -32.6502
   -32.6474 -32.6354 -32.6328 -32.6318 -32.6237 -32.6117 -32.6051 -32.4711
   -32.4348 -32.4096 -31.9465 -31.9463 -31.8576 -31.8573 -31.8183 -31.8182
   -16.8135 -16.7999 -16.6376 -16.5725 -16.5504 -16.5432 -16.5023 -16.3626
   -16.3492 -16.3481 -16.2744 -16.2408 -16.2302 -16.1992 -16.1842 -16.1809
   -16.1693 -16.1596 -16.1186 -16.1130 -16.1018 -16.0907 -16.0578 -16.0259
   -15.9782 -15.9736 -15.7950 -15.6768 -15.5723 -15.3450 -14.1253 -14.1251
    -5.2378  -4.1024  -4.0848  -3.9103  -3.8020  -3.7918  -3.7419  -3.6108
    -3.5588  -3.5512  -3.5187  -3.5009  -3.4877  -3.4801  -3.4707  -3.4417
    -3.4129  -3.3773  -3.3626  -3.3464  -3.3321  -3.3131  -3.2993  -3.2875
    -3.2709  -3.2495  -3.2156  -3.2020  -3.1869  -3.1573  -3.0274  -2.9147
    -2.8517  -2.8025  -2.7903  -2.7792  -2.7359  -2.7238  -2.7124  -2.6733
    -2.5347  -2.4993  -2.3646  -2.3630  -2.3180  -2.2631  -2.2565  -2.1190
    -2.0911  -2.0800  -2.0595  -1.9955  -1.9637  -1.8904  -1.8614  -1.8089
    -1.7843  -1.7386  -1.6661  -1.6556  -1.6277  -1.6172  -1.6093  -1.5332
    -1.4897  -1.4226  -1.4168  -1.3961  -1.3355  -1.3043  -1.2509  -1.1725
    -1.1358  -1.0037  -0.9417  -0.7543  -0.7395  -0.6433  -0.5844  -0.5673
    -0.5219  -0.4848  -0.3646  -0.3475  -0.3408  -0.2707  -0.2576  -0.2415
    -0.1329  -0.1226  -0.1025   0.0815   0.4359   0.7481   0.7490   0.8214
     0.8219   2.7831   2.7893   2.8259   2.8453   2.9779   2.9873   3.0090
     3.0105   3.1182   3.1379

     the Fermi energy is     2.4754 ev

!    total energy              =   -2915.40597821 Ry
     estimated scf accuracy    <       0.00000004 Ry
     smearing contrib. (-TS)   =      -0.02160363 Ry
     internal energy E=F+TS    =   -2915.38437457 Ry

     The total energy is F=E-TS. E is the sum of the following terms:
     one-electron contribution =  -24975.03731809 Ry
     hartree contribution      =   12562.86323650 Ry
     xc contribution           =    -477.43523495 Ry
     ewald contribution        =    9974.22480590 Ry
     electric field correction =       0.00013606 Ry

     convergence has been achieved in  63 iterations

     Forces acting on atoms (cartesian axes, Ry/au):

     atom    1 type  1   force =     0.00015699   -0.00020686    0.09633353
     atom    2 type  1   force =    -0.00010567   -0.00061456   -0.17548292
     atom    3 type  2   force =     0.00003060   -0.00003337   -0.02457990
     atom    4 type  2   force =     0.00008526   -0.00145692    0.05306060
     atom    5 type  2   force =    -0.01198193   -0.00120190    0.00380651
     atom    6 type  2   force =     0.01363723   -0.00046787    0.00268853
     atom    7 type  1   force =    -0.00105908    0.00059368   -0.01038032
     atom    8 type  1   force =     0.00048752    0.01692949    0.02649191
     atom    9 type  2   force =    -0.00004797   -0.00011343   -0.00057297
     atom   10 type  2   force =    -0.00124113    0.00037925   -0.01554198
     atom   11 type  2   force =     0.00010570    0.00021600   -0.00018505
     atom   12 type  2   force =     0.00005918    0.00034122   -0.00034860
     atom   13 type  1   force =    -0.00014848   -0.00004776    0.00021100
     atom   14 type  1   force =     0.00004123    0.00030045   -0.00034794
     atom   15 type  2   force =    -0.00011746   -0.00033092    0.00050436
     atom   16 type  2   force =    -0.00005604    0.00039082    0.00018834
     atom   17 type  2   force =    -0.00012696   -0.00004658    0.00021147
     atom   18 type  2   force =    -0.00000558    0.00012632    0.00034617
     atom   19 type  1   force =     0.00023221   -0.00017317   -0.00020001
     atom   20 type  1   force =    -0.00019031    0.00005598   -0.00128924
     atom   21 type  2   force =     0.00009937   -0.00000753    0.10330532
     atom   22 type  2   force =     0.00056385    0.00046256    0.00086030
     atom   23 type  2   force =    -0.07141417   -0.00009091   -0.02761726
     atom   24 type  2   force =     0.07141603    0.00033509   -0.02762876
     atom   25 type  1   force =     0.00005638   -0.00021881    0.09627248
     atom   26 type  1   force =    -0.00018113   -0.00016168   -0.17558799
     atom   27 type  2   force =     0.00009700   -0.00023178   -0.02350248
     atom   28 type  2   force =     0.00011494   -0.00123558    0.05335493
     atom   29 type  2   force =    -0.01214176    0.00068080    0.00352393
     atom   30 type  2   force =     0.01371319    0.00103377    0.00241239
     atom   31 type  1   force =    -0.00092200    0.00338873   -0.01151323
     atom   32 type  1   force =     0.00066367   -0.01869192    0.02686608
     atom   33 type  2   force =    -0.00014795    0.00029531   -0.00000717
     atom   34 type  2   force =    -0.00097797    0.00038900   -0.02325572
     atom   35 type  2   force =     0.00021696    0.00000591   -0.00007876
     atom   36 type  2   force =    -0.00021231    0.00003121   -0.00022193
     atom   37 type  1   force =    -0.00022244   -0.00019215   -0.00014692
     atom   38 type  1   force =    -0.00001949    0.00029230   -0.00045403
     atom   39 type  2   force =     0.00017195   -0.00056799   -0.00057871
     atom   40 type  2   force =    -0.00005161    0.00015954    0.00060282
     atom   41 type  2   force =     0.00021834   -0.00034118    0.00004066
     atom   42 type  2   force =    -0.00025314   -0.00051766   -0.00009172
     atom   43 type  1   force =     0.00013294   -0.00002785   -0.00075697
     atom   44 type  1   force =    -0.00034162   -0.00031155   -0.00098380
     atom   45 type  2   force =     0.00009754   -0.00003159    0.10328897
     atom   46 type  2   force =    -0.07142644   -0.00004616   -0.02763245
     atom   47 type  2   force =     0.07143697    0.00039265   -0.02765252
     atom   48 type  3   force =     0.00045164   -0.00152266    0.03715829
     atom   49 type  4   force =    -0.00089405    0.00209025   -0.03488926

     Total force =     0.371779     Total SCF correction =     0.000679
  @ DRIVER MODE: Message from server: STATUS
  @ DRIVER MODE: Message from server: GETFORCE
  @ DRIVER MODE: Returning v,forces,stress,ensemble

     Writing output data file ./calc.save/
  @ DRIVER MODE: Message from server: EXIT
  @ DRIVE MODE: Exiting

     General routines

     Parallel routines

   This run was terminated on:  23:45: 3   8Sep2021

   JOB DONE.