     Program PWSCF v.6.7GPU starts on 24Aug2021 at  5:12:57

     R & G space division:  proc/nbgrp/npool/nimage =       6
     Reading input from /storage/home/hcoda1/3/ntian30/research/carbon/CH2_vib/ads_slab/CH2NNHHH_a/out_0031/pw.inp
Warning: card &CELL ignored
Warning: card   CELL_DYNAMICS='IPI', ignored
Warning: card / ignored

     Current dimensions of program PWSCF are:
     Max number of different atomic species (ntypx) = 10
     Max number of k-points (npk) =  40000
     Max angular momentum in pseudopotentials (lmaxx) =  3
     Presently no symmetry can be used with electric field

     Message from routine cell_base_init:
     DEPRECATED: use true lattice parameter, not A to a.u. conversion factor

     IMPORTANT: XC functional enforced from input :
     Exchange-correlation= BEEF-VDW
                           (   1   4  43  14   2   0   0)
     Any further DFT definition will be discarded
     Please, verify this is what you really want

  @ DRIVER MODE: Connecting to
 qe_1139763_2632806.sched-torque.pace.gatech.eduxoyo644y_scratch
  using UNIX socket
  @ DRIVER MODE: Message from server: STATUS
  @ DRIVER MODE: Message from server: INIT
  @ DRIVER MODE: Receiving replica           0          -1
  @ DRIVER MODE: Receiving encoded integer          25
  @ DRIVER MODE:  SCF:  T  FORCE:  T  STRESS:  F  VC:  F  ENSEMBLE:  F
  @ DRIVER MODE:  SCF:  T  FORCE:  T  STRESS:  F  VC:  F  ENSEMBLE:  F

     Using Slab Decomposition

     bravais-lattice index     =            0
     lattice parameter (alat)  =       1.8897  a.u.
     unit-cell volume          =    6658.9804 (a.u.)^3
     number of atoms/cell      =           55
     number of atomic types    =            5
     number of electrons       =       397.00
     number of Kohn-Sham states=          208
     kinetic-energy cutoff     =      29.3995  Ry
     charge density cutoff     =     293.9946  Ry
     scf convergence threshold =      7.3E-08
     mixing beta               =       0.0500
     number of iterations used =            8  plain     mixing
     Exchange-correlation= BEEF-VDW
                           (   1   4  43  14   2   0   0)

     celldm(1)=   1.889726  celldm(2)=   0.000000  celldm(3)=   0.000000
     celldm(4)=   0.000000  celldm(5)=   0.000000  celldm(6)=   0.000000

     crystal axes: (cart. coord. in units of alat)
               a(1) = (   6.579727   0.000000   0.000000 )
               a(2) = (  -0.000775   5.961596   0.000000 )
               a(3) = (   0.000000   0.000000  25.155947 )

     reciprocal axes: (cart. coord. in units 2 pi/alat)
               b(1) = (  0.151982  0.000020  0.000000 )
               b(2) = (  0.000000  0.167740  0.000000 )
               b(3) = (  0.000000  0.000000  0.039752 )

     PseudoPot. # 1 for Ti read from file:
     /storage/coda1/p-amedford6/0/shared/rich_project_chbe-medford/medford-share/data/pseudos_module/espresso/nninc/pbe/van/Ti.UPF
     MD5 check sum: 8e4df49b7f0d34bbd5052bf3f5ea0213
     Pseudo is Ultrasoft, Zval = 12.0
     Generated by new atomic code, or converted to UPF format
     Using radial grid of  851 points,  6 beta functions with:
                l(1) =   0
                l(2) =   0
                l(3) =   1
                l(4) =   1
                l(5) =   2
                l(6) =   2
     Q(r) pseudized with  8 coefficients,  rinner =    1.000   1.000   1.000
                                                       1.000   1.000

     PseudoPot. # 2 for O  read from file:
     /storage/coda1/p-amedford6/0/shared/rich_project_chbe-medford/medford-share/data/pseudos_module/espresso/nninc/pbe/van/O.UPF
     MD5 check sum: 78c19812648e8988a0fe644b0f25305e
     Pseudo is Ultrasoft, Zval =  6.0
     Generated by new atomic code, or converted to UPF format
     Using radial grid of  737 points,  4 beta functions with:
                l(1) =   0
                l(2) =   0
                l(3) =   1
                l(4) =   1
     Q(r) pseudized with  8 coefficients,  rinner =    0.800   0.800   0.800

     PseudoPot. # 3 for N  read from file:
     /storage/coda1/p-amedford6/0/shared/rich_project_chbe-medford/medford-share/data/pseudos_module/espresso/nninc/pbe/van/N.UPF
     MD5 check sum: 90d10febe142ad51ac9d5be1deb811c4
     Pseudo is Ultrasoft, Zval =  5.0
     Generated by new atomic code, or converted to UPF format
     Using radial grid of  729 points,  4 beta functions with:
                l(1) =   0
                l(2) =   0
                l(3) =   1
                l(4) =   1
     Q(r) pseudized with  8 coefficients,  rinner =    0.800   0.800   0.800

     PseudoPot. # 4 for C  read from file:
     /storage/coda1/p-amedford6/0/shared/rich_project_chbe-medford/medford-share/data/pseudos_module/espresso/nninc/pbe/van/C.UPF
     MD5 check sum: 1a69bf6b8db32088f5b2163dbdb77a27
     Pseudo is Ultrasoft, Zval =  4.0
     Generated by new atomic code, or converted to UPF format
     Using radial grid of  721 points,  4 beta functions with:
                l(1) =   0
                l(2) =   0
                l(3) =   1
                l(4) =   1
     Q(r) pseudized with  8 coefficients,  rinner =    0.800   0.800   0.800

     PseudoPot. # 5 for H  read from file:
     /storage/coda1/p-amedford6/0/shared/rich_project_chbe-medford/medford-share/data/pseudos_module/espresso/nninc/pbe/van/H.UPF
     MD5 check sum: b5ee9d7bfd3a09ee7748110bda690ff7
     Pseudo is Ultrasoft, Zval =  1.0
     Generated by new atomic code, or converted to UPF format
     Using radial grid of  615 points,  1 beta functions with:
                l(1) =   0
     Q(r) pseudized with  8 coefficients,  rinner =    0.800

     atomic species   valence    mass     pseudopotential
        Ti1           12.00    47.86700     Ti( 1.00)
        O1             6.00    15.99900     O ( 1.00)
        N1             5.00    14.00700     N ( 1.00)
        C1             4.00    12.01100     C ( 1.00)
        H1             1.00     1.00800     H ( 1.00)

     No symmetry found

   Cartesian axes

     site n.     atom                  positions (alat units)
         1           Ti1 tau(   1) = (   0.0004258   2.9801865   6.0000000  )
         2           Ti1 tau(   2) = (   3.2906075   1.4906267   6.0002472  )
         3           O1  tau(   3) = (   0.0006271   0.0005054   7.9858123  )
         4           O1  tau(   4) = (   3.2906025   0.0005020   7.3038282  )
         5           O1  tau(   5) = (   4.5942328   1.4918067   9.2879030  )
         6           O1  tau(   6) = (   1.9868534   1.4903216   9.2879459  )
         7           Ti1 tau(   7) = (   3.2907910   2.8959150   9.1758416  )
         8           Ti1 tau(   8) = (   0.0015273   1.4827037   9.2680791  )
         9           O1  tau(   9) = (   3.2797308   5.9473376  11.3602069  )
        10           O1  tau(  10) = (   0.0116148   5.9584955  10.6183126  )
        11           O1  tau(  11) = (   1.2902197   1.4970218  12.6485984  )
        12           O1  tau(  12) = (   5.2825647   1.4998509  12.6204812  )
        13           Ti1 tau(  13) = (   6.5707130   2.9731531  12.5352273  )
        14           Ti1 tau(  14) = (   3.2824754   1.4851695  12.4964603  )
        15           O1  tau(  15) = (   6.5335774   0.0914421  14.6722524  )
        16           O1  tau(  16) = (   3.3157438   0.0180770  13.9903400  )
        17           O1  tau(  17) = (   4.5084513   1.5196572  16.2619966  )
        18           O1  tau(  18) = (   2.0062152   1.4815140  16.1839734  )
        19           Ti1 tau(  19) = (   3.2259906   2.9465836  15.7211513  )
        20           Ti1 tau(  20) = (   6.5090593   1.4075841  16.1508600  )
        21           O1  tau(  21) = (   3.2904802   0.0005063   4.7018136  )
        22           O1  tau(  22) = (   6.5630310   5.8123487  17.2302531  )
        23           O1  tau(  23) = (   1.3043587   1.4918075   6.0039043  )
        24           O1  tau(  24) = (   5.2767064   1.4903225   6.0039473  )
        25           Ti1 tau(  25) = (   0.0000382   5.9609847   6.0000000  )
        26           Ti1 tau(  26) = (   3.2902200   4.4714249   6.0002472  )
        27           O1  tau(  27) = (   0.0002396   2.9813036   7.9858123  )
        28           O1  tau(  28) = (   3.2902150   2.9813002   7.3038282  )
        29           O1  tau(  29) = (   4.5938453   4.4726049   9.2879030  )
        30           O1  tau(  30) = (   1.9864658   4.4711199   9.2879459  )
        31           Ti1 tau(  31) = (   3.2891106   5.8743827   9.1763621  )
        32           Ti1 tau(  32) = (   0.0006254   4.4649316   9.2693709  )
        33           O1  tau(  33) = (   3.2783824   2.9878764  11.3535400  )
        34           O1  tau(  34) = (   0.0092240   2.9805883  10.6323155  )
        35           O1  tau(  35) = (   1.2857266   4.4729298  12.7006550  )
        36           O1  tau(  36) = (   5.2845514   4.4687958  12.6640455  )
        37           Ti1 tau(  37) = (   6.5734551   0.0101047  12.5124135  )
        38           Ti1 tau(  38) = (   3.2852174   4.4611384  12.5175569  )
        39           O1  tau(  39) = (   6.5279837   2.9480221  14.9030702  )
        40           O1  tau(  40) = (   3.2956390   2.9588503  13.9390168  )
        41           O1  tau(  41) = (   4.4992944   4.4159585  16.2207858  )
        42           O1  tau(  42) = (   2.0104883   4.4624356  16.0673450  )
        43           Ti1 tau(  43) = (   3.2790961   0.0058003  15.7788240  )
        44           Ti1 tau(  44) = (   0.0606790   4.6093333  15.7554573  )
        45           O1  tau(  45) = (   3.2900926   2.9813045   4.7018136  )
        46           O1  tau(  46) = (   1.3039711   4.4726057   6.0039043  )
        47           O1  tau(  47) = (   5.2763189   4.4711207   6.0039473  )
        48           N1  tau(  48) = (   0.0403274   2.7191540  18.0026804  )
        49           C1  tau(  49) = (   0.9398849   2.4944932  18.9664025  )
        50           H1  tau(  50) = (   0.9073005   3.0183022  19.9142263  )
        51           H1  tau(  51) = (   1.7098349   1.7704235  18.7615287  )
        52           N1  tau(  52) = (   5.5765855   3.6054979  18.4816711  )
        53           H1  tau(  53) = (   5.9781759   4.5320851  18.7147717  )
        54           H1  tau(  54) = (   4.9344470   3.8465857  17.6610935  )
        55           H1  tau(  55) = (   5.0674124   3.1947177  19.2767304  )

     number of k points=    10  Fermi-Dirac smearing, width (Ry)=  0.0073
                       cart. coord. in units 2pi/alat
        k(    1) = (   0.0000000   0.0000000   0.0000000), wk =   0.1250000
        k(    2) = (   0.0000000   0.0419351   0.0000000), wk =   0.2500000
        k(    3) = (   0.0000000  -0.0838702   0.0000000), wk =   0.1250000
        k(    4) = (   0.0379955   0.0000049   0.0000000), wk =   0.2500000
        k(    5) = (   0.0379955   0.0419400   0.0000000), wk =   0.2500000
        k(    6) = (   0.0379955  -0.0838652   0.0000000), wk =   0.2500000
        k(    7) = (   0.0379955  -0.0419301   0.0000000), wk =   0.2500000
        k(    8) = (  -0.0759910  -0.0000099   0.0000000), wk =   0.1250000
        k(    9) = (  -0.0759910   0.0419252   0.0000000), wk =   0.2500000
        k(   10) = (  -0.0759910  -0.0838800   0.0000000), wk =   0.1250000

     Initial potential from superposition of free atoms

     starting charge  380.99914, renormalised to  397.00000

     negative rho (up, down):  1.589E-02 0.000E+00

     %%%%%%%%%%%%%%%%%%%%%%%%%%%%%%%%%%%%%%%%%%%%%%%%%%%%%%%%%%%%%%%%%%%%%%%%
     %                                                                      %
     % You are using vdW-DF, which was implemented by the Thonhauser group. %
     % Please cite the following two papers that made this development      %
     % possible and the two reviews that describe the various versions:     %
     %                                                                      %
     %   T. Thonhauser et al., PRL 115, 136402 (2015).                      %
     %   T. Thonhauser et al., PRB 76, 125112 (2007).                       %
     %   K. Berland et al., Rep. Prog. Phys. 78, 066501 (2015).             %
     %   D.C. Langreth et al., J. Phys.: Condens. Matter 21, 084203 (2009). %
     %                                                                      %
     %                                                                      %
     % If you are calculating the stress with vdW-DF, please also cite:     %
     %                                                                      %
     %   R. Sabatini et al., J. Phys.: Condens. Matter 24, 424209 (2012).   %
     %                                                                      %
     %%%%%%%%%%%%%%%%%%%%%%%%%%%%%%%%%%%%%%%%%%%%%%%%%%%%%%%%%%%%%%%%%%%%%%%%

     Adding external electric field

     Computed dipole along edir(3) :
        Dipole              -10.3122 Ry au,        -26.2111 Debye
        Dipole field         -0.0195 Ry au,

        Potential amp.        1.8040 Ry
        Total length         46.3494 bohr

     Starting wfcs are  301 atomic wfcs
  @ DRIVER MODE: Message from server: STATUS
  @ DRIVER MODE: Message from server: POSDATA
  @ DRIVER MODE: Reading and sharing cell
  @ DRIVER MODE: Reading and sharing positions
  @ DRIVER MODE: Received positions

     Self-consistent Calculation

     iteration #  1     ecut=    29.40 Ry     beta= 0.05
     Davidson diagonalization with overlap
     c_bands:  3 eigenvalues not converged
     c_bands:  2 eigenvalues not converged
     c_bands:  3 eigenvalues not converged
     c_bands:  2 eigenvalues not converged
     c_bands:  3 eigenvalues not converged
     c_bands:  2 eigenvalues not converged
     c_bands:  3 eigenvalues not converged
     c_bands:  2 eigenvalues not converged
     c_bands:  2 eigenvalues not converged
     c_bands:  3 eigenvalues not converged
     ethr =  1.00E-05,  avg # of iterations = 20.0

[...]

     total energy              =   -2480.06025748 Ry
     estimated scf accuracy    <    5159.12376743 Ry

     iteration #  2     ecut=    29.40 Ry     beta= 0.05
     Davidson diagonalization with overlap
     ethr =  1.00E-02,  avg # of iterations = 22.2

[...]

     iteration # 78     ecut=    29.40 Ry     beta= 0.05
     Davidson diagonalization with overlap
     c_bands:  1 eigenvalues not converged
     c_bands:  2 eigenvalues not converged
     ethr =  4.71E-11,  avg # of iterations = 13.9

[...]

     total energy              =   -2941.49085413 Ry
     estimated scf accuracy    <       0.00000009 Ry

     iteration # 80     ecut=    29.40 Ry     beta= 0.05
     Davidson diagonalization with overlap
     ethr =  2.30E-11,  avg # of iterations =  2.0

     negative rho (up, down):  1.343E-02 0.000E+00

     Adding external electric field

     Computed dipole along edir(3) :
        Dipole                1.3622 Ry au,          3.4624 Debye
        Dipole field          0.0026 Ry au,

        Potential amp.       -0.2383 Ry
        Total length         46.3494 bohr

     End of self-consistent calculation

          k = 0.0000 0.0000 0.0000 ( 18029 PWs)   bands (ev):

   -55.2840 -55.2451 -55.2450 -55.2110 -55.1595 -55.1576 -55.1210 -55.0943
   -55.0769 -55.0757 -55.0596 -55.0425 -54.9569 -54.7911 -54.2631 -54.2290
   -31.8562 -31.7358 -31.6460 -31.6108 -31.5841 -31.5815 -31.5789 -31.5347
   -31.5319 -31.4919 -31.4901 -31.4894 -31.4576 -31.4545 -31.4404 -31.4189
   -31.4036 -31.3987 -31.3944 -31.3931 -31.3573 -31.3519 -31.3384 -31.3249
   -31.3019 -31.2969 -31.2905 -31.2864 -31.2740 -31.2708 -31.2610 -31.2510
   -31.2443 -31.2392 -31.2093 -31.2047 -31.1978 -31.1855 -31.1484 -31.1058
   -31.0619 -30.9326 -30.6719 -30.5791 -30.5570 -30.4884 -30.4017 -30.2907
   -19.2332 -16.1256 -15.8635 -15.7355 -15.5440 -15.4778 -15.3823 -15.2446
   -15.1932 -15.1328 -15.0825 -15.0423 -15.0292 -14.9636 -14.9065 -14.8180
   -14.8164 -14.8000 -14.7893 -14.7772 -14.7741 -14.7119 -14.7090 -14.6819
   -14.6673 -14.6571 -14.5165 -14.4325 -14.3710 -14.2888 -14.0252 -12.7658
   -12.6485  -9.1550  -7.8125  -7.0596  -6.0101  -3.8228  -3.4633  -3.2905
    -3.2439  -3.2035  -3.1786  -3.0101  -2.9285  -2.6611  -2.5935  -2.5534
    -2.5059  -2.4947  -2.4692  -2.2971  -2.2667  -2.2269  -2.1902  -2.1664
    -2.1266  -2.0988  -2.0828  -2.0536  -2.0405  -2.0384  -1.8563  -1.7855
    -1.7641  -1.7029  -1.6852  -1.6687  -1.6112  -1.5821  -1.5691  -1.5667
    -1.5440  -1.5268  -1.5044  -1.4612  -1.3750  -1.2827  -1.2384  -1.2171
    -1.1039  -1.0395  -0.9153  -0.8730  -0.8588  -0.8314  -0.7598  -0.6934
    -0.6656  -0.6298  -0.4897  -0.4852  -0.4007  -0.3912  -0.3179  -0.3011
    -0.2611  -0.2150  -0.1039  -0.0705  -0.0489   0.0028   0.0661   0.0881
     0.1700   0.2242   0.2809   0.2949   0.3744   0.4144   0.4519   0.4737
     0.5608   0.6024   0.6620   0.6683   0.7054   0.7087   0.7340   0.8206
     0.8337   0.8533   0.8942   1.0636   1.2644   1.3160   1.3366   1.6694
     1.6887   1.7595   1.9447   2.3343   2.3819   3.8172   3.8827   3.9531
     3.9676   3.9780   4.0494   4.0942   4.2846   4.3136   4.3166   4.3378

[...]

          k = 0.0380-0.0419 0.0000 ( 17876 PWs)   bands (ev):

[...]

          k =-0.0760-0.0000 0.0000 ( 17886 PWs)   bands (ev):

[...]

          k =-0.0760-0.0839 0.0000 ( 17948 PWs)   bands (ev):

   -55.2719 -55.2569 -55.2280 -55.2279 -55.1558 -55.1457 -55.1329 -55.0805
   -55.0780 -55.0751 -55.0599 -55.0589 -54.9553 -54.7926 -54.2460 -54.2460
   -31.6657 -31.6527 -31.5787 -31.5510 -31.5508 -31.5472 -31.5201 -31.5200
   -31.4926 -31.4842 -31.4796 -31.4758 -31.4213 -31.4125 -31.4125 -31.4090
   -31.4070 -31.4027 -31.3961 -31.3811 -31.3688 -31.3582 -31.3539 -31.3473
   -31.3472 -31.3452 -31.3438 -31.3281 -31.3114 -31.3084 -31.2920 -31.2893
   -31.2844 -31.2828 -31.2825 -31.2518 -31.2402 -31.2385 -31.1657 -31.0927
   -31.0627 -31.0102 -30.5696 -30.5696 -30.4845 -30.4844 -30.4451 -30.4451
   -19.2295 -15.5908 -15.5143 -15.4586 -15.3688 -15.2904 -15.2705 -15.2606
   -15.2275 -15.1605 -15.1372 -15.0721 -15.0370 -14.9914 -14.9886 -14.9734
   -14.8888 -14.8696 -14.8545 -14.8502 -14.7892 -14.7878 -14.7608 -14.7384
   -14.7317 -14.7280 -14.6282 -14.6273 -14.4635 -14.4357 -14.2050 -12.7501
   -12.7501  -9.1423  -7.8223  -7.0436  -6.0204  -3.8461  -2.8520  -2.7654
    -2.6759  -2.5195  -2.4821  -2.4722  -2.4176  -2.3263  -2.3002  -2.2871
    -2.2667  -2.2595  -2.1868  -2.1815  -2.1374  -2.1159  -2.1049  -2.0991
    -2.0653  -2.0521  -2.0384  -2.0016  -1.9932  -1.9772  -1.9427  -1.9231
    -1.8987  -1.8708  -1.8567  -1.8274  -1.7040  -1.6751  -1.6310  -1.5702
    -1.5437  -1.4768  -1.4716  -1.3706  -1.3573  -1.3464  -1.3053  -1.2913
    -1.2722  -1.1085  -1.0638  -1.0285  -1.0169  -1.0110  -0.8550  -0.8385
    -0.7705  -0.7548  -0.7400  -0.6635  -0.6221  -0.6067  -0.5259  -0.4863
    -0.4563  -0.4355  -0.2932  -0.2807  -0.2553  -0.2406  -0.2341  -0.1414
    -0.1210  -0.0850  -0.0509  -0.0128   0.0036   0.0627   0.2161   0.2425
     0.2797   0.4242   0.4389   0.5244   0.5717   0.6988   0.7637   0.7657
     0.8469   0.9170   1.0190   1.0314   1.0513   1.1366   1.1828   1.1878
     1.1890   2.1175   2.1183   2.2019   2.2021   3.6945   3.9566   4.0790
     4.0853   4.1277   4.2503   4.3340   4.3575   4.3961   4.3979   4.4749

     the Fermi energy is     3.8721 ev

!    total energy              =   -2941.49086561 Ry
     estimated scf accuracy    <       0.00000005 Ry
     smearing contrib. (-TS)   =      -0.04234179 Ry
     internal energy E=F+TS    =   -2941.44852382 Ry

     The total energy is F=E-TS. E is the sum of the following terms:
     one-electron contribution =  -23922.01103854 Ry
     hartree contribution      =   12054.18366770 Ry
     xc contribution           =    -486.86223467 Ry
     ewald contribution        =    9413.23757982 Ry
     electric field correction =       0.00350188 Ry

     convergence has been achieved in  80 iterations

     Forces acting on atoms (cartesian axes, Ry/au):

     atom    1 type  1   force =     0.00016720   -0.00016649    0.09404596
     atom    2 type  1   force =    -0.00005429   -0.00042732   -0.17754823
     atom    3 type  2   force =     0.00006633   -0.00004175   -0.02098965
     atom    4 type  2   force =     0.00001768   -0.00180276    0.05732074
     atom    5 type  2   force =    -0.01085477   -0.00090805    0.00782478
     atom    6 type  2   force =     0.01206628   -0.00033853    0.00621976
     atom    7 type  1   force =    -0.00065326    0.00290101   -0.01529447
     atom    8 type  1   force =     0.00059608    0.00236098    0.00236465
     atom    9 type  2   force =    -0.00010403    0.00013296    0.00092685
     atom   10 type  2   force =    -0.00165416   -0.00048961   -0.00379637
     atom   11 type  2   force =    -0.00004442   -0.00024216    0.00020244
     atom   12 type  2   force =    -0.00019403   -0.00040278    0.00026985
     atom   13 type  1   force =     0.00042172    0.00108864    0.00060095
     atom   14 type  1   force =     0.00019974   -0.00061926    0.00035857
     atom   15 type  2   force =    -0.00018257    0.00036107    0.00048285
     atom   16 type  2   force =    -0.00016360   -0.00024879   -0.00120124
     atom   17 type  2   force =     0.00007284   -0.00026268    0.00015574
     atom   18 type  2   force =    -0.00078235   -0.00032340    0.00009143
     atom   19 type  1   force =    -0.00056028    0.00106317   -0.00043851
     atom   20 type  1   force =    -0.00036785    0.00117436   -0.00116085
     atom   21 type  2   force =     0.00010899   -0.00004059    0.10378886
     atom   22 type  2   force =    -0.00003420    0.00035626    0.00034568
     atom   23 type  2   force =    -0.07064046   -0.00018244   -0.02706816
     atom   24 type  2   force =     0.07058853    0.00029252   -0.02710453
     atom   25 type  1   force =     0.00014718   -0.00024937    0.09337129
     atom   26 type  1   force =    -0.00000884   -0.00037539   -0.17776802
     atom   27 type  2   force =     0.00010944   -0.00040240   -0.02001656
     atom   28 type  2   force =     0.00003366   -0.00146553    0.05680356
     atom   29 type  2   force =    -0.01075868   -0.00066261    0.00673973
     atom   30 type  2   force =     0.01187681   -0.00017019    0.00509624
     atom   31 type  1   force =    -0.00063188    0.00410072   -0.01560250
     atom   32 type  1   force =     0.00067377   -0.00281317    0.00214160
     atom   33 type  2   force =     0.00015535   -0.00021937   -0.00058413
     atom   34 type  2   force =    -0.00109107    0.00271658   -0.00200844
     atom   35 type  2   force =     0.00009556    0.00020406    0.00009088
     atom   36 type  2   force =    -0.00033562    0.00034360   -0.00007732
     atom   37 type  1   force =     0.00046393   -0.00008309    0.00030657
     atom   38 type  1   force =     0.00009344    0.00089531    0.00015003
     atom   39 type  2   force =    -0.00005158   -0.00097165    0.00038181
     atom   40 type  2   force =    -0.00023443   -0.00043311    0.00061102
     atom   41 type  2   force =    -0.00025223   -0.00005145   -0.00011943
     atom   42 type  2   force =     0.00015332    0.00000411    0.00022908
     atom   43 type  1   force =    -0.00002020   -0.00144004    0.00090001
     atom   44 type  1   force =    -0.00003806   -0.00079396   -0.00126279
     atom   45 type  2   force =     0.00009779   -0.00008033    0.10377215
     atom   46 type  2   force =    -0.07065436   -0.00009347   -0.02707409
     atom   47 type  2   force =     0.07060618    0.00029109   -0.02711194
     atom   48 type  3   force =    -0.00058111    0.00075575    0.00035516
     atom   49 type  4   force =     0.00038639   -0.00058967    0.00146212
     atom   50 type  5   force =     0.00084606    0.00006986   -0.00106323
     atom   51 type  5   force =    -0.00022621    0.00055581   -0.00016069
     atom   52 type  3   force =    -0.00393923   -0.00348293   -0.00062862
     atom   53 type  5   force =     0.00458687    0.00230727    0.00047991
     atom   54 type  5   force =     0.00008990   -0.00095258    0.00071556
     atom   55 type  5   force =     0.00039275   -0.00014820   -0.00052606

     Total force =     0.365796     Total SCF correction =     0.000689
  @ DRIVER MODE: Message from server: STATUS
  @ DRIVER MODE: Message from server: GETFORCE
  @ DRIVER MODE: Returning v,forces,stress,ensemble

     Writing output data file ./calc.save/
  @ DRIVER MODE: Message from server: EXIT
  @ DRIVE MODE: Exiting

     General routines

     Parallel routines

   This run was terminated on:   5:45: 4  24Aug2021

   JOB DONE.