     Program PWSCF v.6.7GPU starts on 15Sep2021 at 20:15: 8

     R & G space division:  proc/nbgrp/npool/nimage =      10
     Reading input from /storage/home/hcoda1/3/ntian30/research/carbon/CxH_vib/H2O_calc/ads_slab/CH2NHH2O_a/out_0014/pw.inp
Warning: card &CELL ignored
Warning: card   CELL_DYNAMICS='IPI', ignored
Warning: card / ignored

     Current dimensions of program PWSCF are:
     Max number of different atomic species (ntypx) = 10
     Max number of k-points (npk) =  40000
     Max angular momentum in pseudopotentials (lmaxx) =  3
     Presently no symmetry can be used with electric field

     Message from routine cell_base_init:
     DEPRECATED: use true lattice parameter, not A to a.u. conversion factor

     IMPORTANT: XC functional enforced from input :
     Exchange-correlation= BEEF-VDW
                           (   1   4  43  14   2   0   0)
     Any further DFT definition will be discarded
     Please, verify this is what you really want

  @ DRIVER MODE: Connecting to
 qe_1139763_2852608.sched-torque.pace.gatech.edu248wekj2_scratch
  using UNIX socket
  @ DRIVER MODE: Message from server: STATUS
  @ DRIVER MODE: Message from server: INIT
  @ DRIVER MODE: Receiving replica           0          -1
  @ DRIVER MODE: Receiving encoded integer          25
  @ DRIVER MODE:  SCF:  T  FORCE:  T  STRESS:  F  VC:  F  ENSEMBLE:  F
  @ DRIVER MODE:  SCF:  T  FORCE:  T  STRESS:  F  VC:  F  ENSEMBLE:  F

     Using Slab Decomposition

     bravais-lattice index     =            0
     lattice parameter (alat)  =       1.8897  a.u.
     unit-cell volume          =    6658.9804 (a.u.)^3
     number of atoms/cell      =           55
     number of atomic types    =            5
     number of electrons       =       398.00
     number of Kohn-Sham states=          209
     kinetic-energy cutoff     =      29.3995  Ry
     charge density cutoff     =     293.9946  Ry
     scf convergence threshold =      7.3E-08
     mixing beta               =       0.0500
     number of iterations used =            8  plain     mixing
     Exchange-correlation= BEEF-VDW
                           (   1   4  43  14   2   0   0)

     celldm(1)=   1.889726  celldm(2)=   0.000000  celldm(3)=   0.000000
     celldm(4)=   0.000000  celldm(5)=   0.000000  celldm(6)=   0.000000

     crystal axes: (cart. coord. in units of alat)
               a(1) = (   6.579727   0.000000   0.000000 )
               a(2) = (  -0.000775   5.961596   0.000000 )
               a(3) = (   0.000000   0.000000  25.155947 )

     reciprocal axes: (cart. coord. in units 2 pi/alat)
               b(1) = (  0.151982  0.000020  0.000000 )
               b(2) = (  0.000000  0.167740  0.000000 )
               b(3) = (  0.000000  0.000000  0.039752 )

     PseudoPot. # 1 for Ti read from file:
     /storage/coda1/p-amedford6/0/shared/rich_project_chbe-medford/medford-share/data/pseudos_module/espresso/nninc/pbe/van/Ti.UPF
     MD5 check sum: 8e4df49b7f0d34bbd5052bf3f5ea0213
     Pseudo is Ultrasoft, Zval = 12.0
     Generated by new atomic code, or converted to UPF format
     Using radial grid of  851 points,  6 beta functions with:
                l(1) =   0
                l(2) =   0
                l(3) =   1
                l(4) =   1
                l(5) =   2
                l(6) =   2
     Q(r) pseudized with  8 coefficients,  rinner =    1.000   1.000   1.000
                                                       1.000   1.000

     PseudoPot. # 2 for O  read from file:
     /storage/coda1/p-amedford6/0/shared/rich_project_chbe-medford/medford-share/data/pseudos_module/espresso/nninc/pbe/van/O.UPF
     MD5 check sum: 78c19812648e8988a0fe644b0f25305e
     Pseudo is Ultrasoft, Zval =  6.0
     Generated by new atomic code, or converted to UPF format
     Using radial grid of  737 points,  4 beta functions with:
                l(1) =   0
                l(2) =   0
                l(3) =   1
                l(4) =   1
     Q(r) pseudized with  8 coefficients,  rinner =    0.800   0.800   0.800

     PseudoPot. # 3 for N  read from file:
     /storage/coda1/p-amedford6/0/shared/rich_project_chbe-medford/medford-share/data/pseudos_module/espresso/nninc/pbe/van/N.UPF
     MD5 check sum: 90d10febe142ad51ac9d5be1deb811c4
     Pseudo is Ultrasoft, Zval =  5.0
     Generated by new atomic code, or converted to UPF format
     Using radial grid of  729 points,  4 beta functions with:
                l(1) =   0
                l(2) =   0
                l(3) =   1
                l(4) =   1
     Q(r) pseudized with  8 coefficients,  rinner =    0.800   0.800   0.800

     PseudoPot. # 4 for C  read from file:
     /storage/coda1/p-amedford6/0/shared/rich_project_chbe-medford/medford-share/data/pseudos_module/espresso/nninc/pbe/van/C.UPF
     MD5 check sum: 1a69bf6b8db32088f5b2163dbdb77a27
     Pseudo is Ultrasoft, Zval =  4.0
     Generated by new atomic code, or converted to UPF format
     Using radial grid of  721 points,  4 beta functions with:
                l(1) =   0
                l(2) =   0
                l(3) =   1
                l(4) =   1
     Q(r) pseudized with  8 coefficients,  rinner =    0.800   0.800   0.800

     PseudoPot. # 5 for H  read from file:
     /storage/coda1/p-amedford6/0/shared/rich_project_chbe-medford/medford-share/data/pseudos_module/espresso/nninc/pbe/van/H.UPF
     MD5 check sum: b5ee9d7bfd3a09ee7748110bda690ff7
     Pseudo is Ultrasoft, Zval =  1.0
     Generated by new atomic code, or converted to UPF format
     Using radial grid of  615 points,  1 beta functions with:
                l(1) =   0
     Q(r) pseudized with  8 coefficients,  rinner =    0.800

     atomic species   valence    mass     pseudopotential
        Ti1           12.00    47.86700     Ti( 1.00)
        O1             6.00    15.99900     O ( 1.00)
        N1             5.00    14.00700     N ( 1.00)
        C1             4.00    12.01100     C ( 1.00)
        H1             1.00     1.00800     H ( 1.00)

     No symmetry found

   Cartesian axes

     site n.     atom                  positions (alat units)
         1           Ti1 tau(   1) = (   0.0004258   2.9801865   6.0000000  )
         2           Ti1 tau(   2) = (   3.2906075   1.4906267   6.0002472  )
         3           O1  tau(   3) = (   0.0006271   0.0005054   7.9858123  )
         4           O1  tau(   4) = (   3.2906025   0.0005020   7.3038282  )
         5           O1  tau(   5) = (   4.5942328   1.4918067   9.2879030  )
         6           O1  tau(   6) = (   1.9868534   1.4903216   9.2879459  )
         7           Ti1 tau(   7) = (   3.2907910   2.8959150   9.1758416  )
         8           Ti1 tau(   8) = (   0.0015273   1.4827037   9.2680791  )
         9           O1  tau(   9) = (   3.2898722   0.0008919  11.3582996  )
        10           O1  tau(  10) = (   0.0116148   5.9584955  10.6183126  )
        11           O1  tau(  11) = (   1.2941175   1.4997011  12.6415926  )
        12           O1  tau(  12) = (   5.2900041   1.4988670  12.6311679  )
        13           Ti1 tau(  13) = (   0.0286627   2.9677426  12.5549903  )
        14           Ti1 tau(  14) = (   3.3305619   1.4761135  12.5169476  )
        15           O1  tau(  15) = (   0.0011522   0.0488603  14.6479508  )
        16           O1  tau(  16) = (   3.3026717   0.0283160  13.9913086  )
        17           O1  tau(  17) = (   4.5493611   1.5432082  16.1208237  )
        18           O1  tau(  18) = (   2.0202358   1.5417912  16.1150647  )
        19           Ti1 tau(  19) = (   3.2887705   3.0075965  15.7001020  )
        20           Ti1 tau(  20) = (   0.0091052   1.4341126  16.0176487  )
        21           O1  tau(  21) = (   3.2904802   0.0005063   4.7018136  )
        22           O1  tau(  22) = (   6.5755782   5.8726442  17.1894482  )
        23           O1  tau(  23) = (   1.3043587   1.4918075   6.0039043  )
        24           O1  tau(  24) = (   5.2767064   1.4903225   6.0039473  )
        25           Ti1 tau(  25) = (   0.0000382   5.9609847   6.0000000  )
        26           Ti1 tau(  26) = (   3.2902200   4.4714249   6.0002472  )
        27           O1  tau(  27) = (   0.0002396   2.9813036   7.9858123  )
        28           O1  tau(  28) = (   3.2902150   2.9813002   7.3038282  )
        29           O1  tau(  29) = (   4.5938453   4.4726049   9.2879030  )
        30           O1  tau(  30) = (   1.9864658   4.4711199   9.2879459  )
        31           Ti1 tau(  31) = (   3.2891106   5.8743827   9.1763621  )
        32           Ti1 tau(  32) = (   0.0006254   4.4649316   9.2693709  )
        33           O1  tau(  33) = (   3.2934734   2.9861727  11.3537610  )
        34           O1  tau(  34) = (   0.0092240   2.9805883  10.6323155  )
        35           O1  tau(  35) = (   1.2909626   4.4766429  12.6619247  )
        36           O1  tau(  36) = (   5.2900193   4.4803912  12.6490267  )
        37           Ti1 tau(  37) = (   0.0281377   5.9553508  12.5047683  )
        38           Ti1 tau(  38) = (   3.3302429   4.4653876  12.5079491  )
        39           O1  tau(  39) = (   6.5693844   2.9599090  14.8264494  )
        40           O1  tau(  40) = (   3.2969629   2.9925989  13.9157470  )
        41           O1  tau(  41) = (   4.5484520   4.4472025  16.1223275  )
        42           O1  tau(  42) = (   2.0280084   4.4594140  16.0867804  )
        43           Ti1 tau(  43) = (   3.2969344   0.0408593  15.8189202  )
        44           Ti1 tau(  44) = (   0.0203989   4.6198729  15.8219907  )
        45           O1  tau(  45) = (   3.2900926   2.9813045   4.7018136  )
        46           O1  tau(  46) = (   1.3039711   4.4726057   6.0039043  )
        47           O1  tau(  47) = (   5.2763189   4.4711207   6.0039473  )
        48           N1  tau(  48) = (   6.4956655   2.7544209  17.8339637  )
        49           C1  tau(  49) = (   0.7364952   2.7663736  18.8366375  )
        50           H1  tau(  50) = (   0.4584493   3.1383336  19.8159577  )
        51           H1  tau(  51) = (   1.7396475   2.3816028  18.7013769  )
        52           H1  tau(  52) = (   5.5670006   3.0916272  18.0761613  )
        53           O1  tau(  53) = (   3.3072362   0.1002980  18.2711691  )
        54           H1  tau(  54) = (   4.1501014   5.6086691  18.4387546  )
        55           H1  tau(  55) = (   2.5909652   5.4478326  18.5068232  )

     number of k points=    10  Fermi-Dirac smearing, width (Ry)=  0.0073
                       cart. coord. in units 2pi/alat
        k(    1) = (   0.0000000   0.0000000   0.0000000), wk =   0.1250000
        k(    2) = (   0.0000000   0.0419351   0.0000000), wk =   0.2500000
        k(    3) = (   0.0000000  -0.0838702   0.0000000), wk =   0.1250000
        k(    4) = (   0.0379955   0.0000049   0.0000000), wk =   0.2500000
        k(    5) = (   0.0379955   0.0419400   0.0000000), wk =   0.2500000
        k(    6) = (   0.0379955  -0.0838652   0.0000000), wk =   0.2500000
        k(    7) = (   0.0379955  -0.0419301   0.0000000), wk =   0.2500000
        k(    8) = (  -0.0759910  -0.0000099   0.0000000), wk =   0.1250000
        k(    9) = (  -0.0759910   0.0419252   0.0000000), wk =   0.2500000
        k(   10) = (  -0.0759910  -0.0838800   0.0000000), wk =   0.1250000

     Initial potential from superposition of free atoms

     starting charge  381.99915, renormalised to  398.00000

     negative rho (up, down):  1.643E-02 0.000E+00

     %%%%%%%%%%%%%%%%%%%%%%%%%%%%%%%%%%%%%%%%%%%%%%%%%%%%%%%%%%%%%%%%%%%%%%%%
     %                                                                      %
     % You are using vdW-DF, which was implemented by the Thonhauser group. %
     % Please cite the following two papers that made this development      %
     % possible and the two reviews that describe the various versions:     %
     %                                                                      %
     %   T. Thonhauser et al., PRL 115, 136402 (2015).                      %
     %   T. Thonhauser et al., PRB 76, 125112 (2007).                       %
     %   K. Berland et al., Rep. Prog. Phys. 78, 066501 (2015).             %
     %   D.C. Langreth et al., J. Phys.: Condens. Matter 21, 084203 (2009). %
     %                                                                      %
     %                                                                      %
     % If you are calculating the stress with vdW-DF, please also cite:     %
     %                                                                      %
     %   R. Sabatini et al., J. Phys.: Condens. Matter 24, 424209 (2012).   %
     %                                                                      %
     %%%%%%%%%%%%%%%%%%%%%%%%%%%%%%%%%%%%%%%%%%%%%%%%%%%%%%%%%%%%%%%%%%%%%%%%

     Adding external electric field

     Computed dipole along edir(3) :
        Dipole              -10.4007 Ry au,        -26.4360 Debye
        Dipole field         -0.0196 Ry au,

        Potential amp.        1.8194 Ry
        Total length         46.3494 bohr

     Starting wfcs are  301 atomic wfcs
  @ DRIVER MODE: Message from server: STATUS
  @ DRIVER MODE: Message from server: POSDATA
  @ DRIVER MODE: Reading and sharing cell
  @ DRIVER MODE: Reading and sharing positions
  @ DRIVER MODE: Received positions

     Self-consistent Calculation

     iteration #  1     ecut=    29.40 Ry     beta= 0.05
     Davidson diagonalization with overlap
     c_bands:  3 eigenvalues not converged
     c_bands:  3 eigenvalues not converged
     c_bands:  1 eigenvalues not converged
     c_bands:  4 eigenvalues not converged
     c_bands:  4 eigenvalues not converged
     c_bands:  4 eigenvalues not converged
     c_bands:  2 eigenvalues not converged
     c_bands:  3 eigenvalues not converged
     c_bands:  2 eigenvalues not converged
     ethr =  1.00E-05,  avg # of iterations = 19.9

[...]

     total energy              =   -2485.31719410 Ry
     estimated scf accuracy    <    5245.67704707 Ry

     iteration #  2     ecut=    29.40 Ry     beta= 0.05
     Davidson diagonalization with overlap
     ethr =  1.00E-02,  avg # of iterations = 24.7

[...]

     iteration # 81     ecut=    29.40 Ry     beta= 0.05
     Davidson diagonalization with overlap
     c_bands:  1 eigenvalues not converged
     ethr =  6.58E-11,  avg # of iterations = 14.2

[...]

     total energy              =   -2953.94960522 Ry
     estimated scf accuracy    <       0.00000013 Ry

     iteration # 82     ecut=    29.40 Ry     beta= 0.05
     Davidson diagonalization with overlap
     ethr =  3.38E-11,  avg # of iterations =  9.7

     negative rho (up, down):  1.568E-02 0.000E+00

     Adding external electric field

     Computed dipole along edir(3) :
        Dipole                1.2820 Ry au,          3.2586 Debye
        Dipole field          0.0024 Ry au,

        Potential amp.       -0.2243 Ry
        Total length         46.3494 bohr

     End of self-consistent calculation

          k = 0.0000 0.0000 0.0000 ( 18029 PWs)   bands (ev):

   -55.3922 -55.3726 -55.3562 -55.3394 -55.3385 -55.2724 -55.2279 -55.2074
   -55.1976 -55.1889 -55.1718 -55.1651 -55.1226 -54.9942 -54.3826 -54.3485
   -31.9525 -31.8618 -31.7603 -31.7458 -31.7004 -31.6976 -31.6959 -31.6626
   -31.6561 -31.6227 -31.6172 -31.6061 -31.5863 -31.5693 -31.5686 -31.5343
   -31.5317 -31.5254 -31.5107 -31.5079 -31.4834 -31.4559 -31.4528 -31.4355
   -31.4297 -31.4065 -31.4054 -31.4024 -31.4006 -31.3939 -31.3745 -31.3678
   -31.3619 -31.3572 -31.3479 -31.3311 -31.3287 -31.3222 -31.3049 -31.2942
   -31.2208 -31.1080 -30.7910 -30.6992 -30.6770 -30.6075 -30.5208 -30.4098
   -19.1642 -16.2510 -16.1575 -15.9144 -15.7334 -15.6450 -15.5830 -15.3938
   -15.3524 -15.2615 -15.1786 -15.0872 -15.0323 -14.9889 -14.9790 -14.9582
   -14.9323 -14.9223 -14.8844 -14.8698 -14.8683 -14.8213 -14.8191 -14.7804
   -14.7715 -14.7275 -14.7054 -14.5968 -14.5408 -14.4865 -14.0591 -12.8847
   -12.7676  -9.1043  -6.9806  -5.9927  -4.4549  -3.5504  -3.4010  -3.3891
    -3.3024  -3.2958  -3.2276  -3.1177  -2.9283  -2.7743  -2.6881  -2.6447
    -2.5933  -2.5691  -2.5105  -2.4560  -2.3614  -2.2900  -2.2596  -2.2271
    -2.2096  -2.1905  -2.1668  -2.1424  -2.1030  -2.0786  -2.0417  -1.9399
    -1.8538  -1.8002  -1.7856  -1.7150  -1.6921  -1.6864  -1.6779  -1.6683
    -1.6638  -1.6557  -1.6024  -1.5786  -1.5377  -1.4101  -1.3406  -1.2358
    -1.1223  -1.0714  -1.0312  -1.0127  -0.9253  -0.9196  -0.8644  -0.7882
    -0.7551  -0.7146  -0.7018  -0.5744  -0.4923  -0.4807  -0.4303  -0.3566
    -0.2986  -0.2580  -0.2015  -0.1771  -0.1547  -0.1378   0.0026   0.0349
     0.0785   0.1065   0.1353   0.2101   0.2468   0.3089   0.3567   0.3642
     0.4117   0.4984   0.5121   0.5618   0.5660   0.6106   0.6296   0.7252
     0.7603   0.7689   0.8346   0.8688   1.0114   1.2275   1.2350   1.2823
     1.5552   1.6169   1.6403   1.8272   2.2144   2.2616   3.7013   3.7923
     3.8312   3.8498   3.8628   3.9371   4.0760   4.1918   4.1962   4.2260
     4.2395

[...]

          k = 0.0380-0.0419 0.0000 ( 17876 PWs)   bands (ev):

[...]

          k =-0.0760-0.0000 0.0000 ( 17886 PWs)   bands (ev):

[...]

          k =-0.0760-0.0839 0.0000 ( 17948 PWs)   bands (ev):

   -55.3760 -55.3722 -55.3556 -55.3554 -55.3374 -55.2644 -55.2359 -55.1914
   -55.1907 -55.1863 -55.1823 -55.1816 -55.1203 -54.9965 -54.3655 -54.3654
   -31.7623 -31.7513 -31.6770 -31.6769 -31.6597 -31.6490 -31.6481 -31.6479
   -31.6204 -31.6088 -31.5905 -31.5863 -31.5790 -31.5601 -31.5405 -31.5260
   -31.5246 -31.5216 -31.5172 -31.5124 -31.5067 -31.4942 -31.4751 -31.4749
   -31.4684 -31.4669 -31.4651 -31.4349 -31.4238 -31.4162 -31.4058 -31.4018
   -31.4012 -31.4008 -31.3894 -31.3839 -31.3617 -31.3600 -31.3395 -31.2903
   -31.2243 -31.1937 -30.6897 -30.6896 -30.6036 -30.6034 -30.5642 -30.5642
   -19.1634 -16.1927 -15.6514 -15.5921 -15.5218 -15.3669 -15.3608 -15.3358
   -15.2739 -15.1754 -15.1619 -15.1298 -15.1222 -15.0877 -15.0759 -15.0558
   -15.0344 -14.9619 -14.9539 -14.9492 -14.9265 -14.8951 -14.8803 -14.8715
   -14.8495 -14.8449 -14.7893 -14.7424 -14.7394 -14.5484 -14.3542 -12.8693
   -12.8692  -9.1096  -6.9788  -5.9912  -4.4368  -3.3305  -2.9268  -2.7962
    -2.7446  -2.5947  -2.5675  -2.5203  -2.4629  -2.4026  -2.3754  -2.3565
    -2.3084  -2.3024  -2.2551  -2.2415  -2.2208  -2.2194  -2.2105  -2.1641
    -2.1472  -2.1393  -2.1204  -2.1056  -2.0946  -2.0754  -2.0476  -2.0380
    -2.0038  -1.9735  -1.9598  -1.9375  -1.8815  -1.7673  -1.7372  -1.6946
    -1.5832  -1.5753  -1.5690  -1.5285  -1.4814  -1.4750  -1.4478  -1.4182
    -1.3492  -1.3218  -1.1304  -1.1180  -1.1047  -1.0389  -1.0123  -0.9148
    -0.8962  -0.8288  -0.8116  -0.7966  -0.7104  -0.6792  -0.5740  -0.5657
    -0.5492  -0.5144  -0.4071  -0.3601  -0.3520  -0.3473  -0.3258  -0.2425
    -0.2277  -0.2099  -0.1757  -0.1477  -0.1143  -0.1009  -0.0172   0.1527
     0.1626   0.2501   0.3500   0.4445   0.5653   0.6359   0.6447   0.6994
     0.7427   0.8242   0.8676   0.9056   0.9249   1.0360   1.0684   1.0843
     1.0908   1.1461   1.9995   2.0008   2.0815   2.0817   3.7822   3.9316
     4.0007   4.0181   4.0579   4.1837   4.2229   4.2747   4.2764   4.2815
     4.3695

     the Fermi energy is     3.7471 ev

!    total energy              =   -2953.94961375 Ry
     estimated scf accuracy    <       0.00000005 Ry
     smearing contrib. (-TS)   =      -0.03631750 Ry
     internal energy E=F+TS    =   -2953.91329625 Ry

     The total energy is F=E-TS. E is the sum of the following terms:
     one-electron contribution =  -24165.74442973 Ry
     hartree contribution      =   12176.26169964 Ry
     xc contribution           =    -488.89572285 Ry
     ewald contribution        =    9524.46205491 Ry
     electric field correction =       0.00310177 Ry

     convergence has been achieved in  82 iterations

     Forces acting on atoms (cartesian axes, Ry/au):

     atom    1 type  1   force =     0.00006215   -0.00021204    0.09431625
     atom    2 type  1   force =    -0.00029454   -0.00034162   -0.17716841
     atom    3 type  2   force =     0.00001630   -0.00013485   -0.02179334
     atom    4 type  2   force =    -0.00002192   -0.00175104    0.05661467
     atom    5 type  2   force =    -0.01064886   -0.00110818    0.00625830
     atom    6 type  2   force =     0.01214666   -0.00036133    0.00530420
     atom    7 type  1   force =    -0.00069286    0.00164157   -0.01076267
     atom    8 type  1   force =     0.00018545    0.00660336    0.00669481
     atom    9 type  2   force =     0.00025037   -0.00039822   -0.00056733
     atom   10 type  2   force =    -0.00109444    0.00064788   -0.01010058
     atom   11 type  2   force =    -0.00026215   -0.00015941   -0.00020928
     atom   12 type  2   force =     0.00038531   -0.00023216    0.00002404
     atom   13 type  1   force =     0.00019416   -0.00050955    0.00119797
     atom   14 type  1   force =    -0.00008189    0.00039372    0.00042789
     atom   15 type  2   force =     0.00008464    0.00019295    0.00121643
     atom   16 type  2   force =    -0.00017824   -0.00066265    0.00025274
     atom   17 type  2   force =    -0.00006589   -0.00009979   -0.00022277
     atom   18 type  2   force =    -0.00102469   -0.00002707    0.00045441
     atom   19 type  1   force =     0.00108840   -0.00037112   -0.00046944
     atom   20 type  1   force =    -0.00136403    0.00064495   -0.00053075
     atom   21 type  2   force =     0.00000539   -0.00004462    0.10371852
     atom   22 type  2   force =    -0.00002519    0.00050325    0.00062867
     atom   23 type  2   force =    -0.07089275   -0.00015574   -0.02715680
     atom   24 type  2   force =     0.07073724    0.00028393   -0.02722452
     atom   25 type  1   force =     0.00000903   -0.00014170    0.09407715
     atom   26 type  1   force =    -0.00022725   -0.00035027   -0.17732614
     atom   27 type  2   force =     0.00005504   -0.00032004   -0.02070318
     atom   28 type  2   force =     0.00005058   -0.00136340    0.05587214
     atom   29 type  2   force =    -0.01087534    0.00029324    0.00603911
     atom   30 type  2   force =     0.01227760    0.00055227    0.00507523
     atom   31 type  1   force =    -0.00057027    0.00494842   -0.01403248
     atom   32 type  1   force =     0.00030544   -0.00743163    0.00637042
     atom   33 type  2   force =     0.00025198    0.00013104   -0.00023214
     atom   34 type  2   force =    -0.00066660    0.00182348   -0.00594034
     atom   35 type  2   force =    -0.00002024   -0.00024661    0.00004354
     atom   36 type  2   force =     0.00025721   -0.00032076    0.00020158
     atom   37 type  1   force =     0.00022324    0.00090630    0.00049683
     atom   38 type  1   force =    -0.00009177    0.00005974    0.00068157
     atom   39 type  2   force =     0.00033907    0.00028120    0.00007971
     atom   40 type  2   force =    -0.00011853   -0.00037219    0.00057834
     atom   41 type  2   force =    -0.00058446   -0.00026493   -0.00040111
     atom   42 type  2   force =    -0.00026451    0.00011821    0.00035675
     atom   43 type  1   force =     0.00076033   -0.00142726   -0.00058378
     atom   44 type  1   force =    -0.00106605    0.00039266   -0.00153157
     atom   45 type  2   force =     0.00000478   -0.00009705    0.10365193
     atom   46 type  2   force =    -0.07091655   -0.00008450   -0.02715778
     atom   47 type  2   force =     0.07075899    0.00034276   -0.02720993
     atom   48 type  3   force =     0.00095297   -0.00021437    0.00123994
     atom   49 type  4   force =     0.00323804   -0.00174829   -0.00268744
     atom   50 type  5   force =    -0.00287770    0.00117538    0.00226751
     atom   51 type  5   force =     0.00042768   -0.00061500   -0.00092217
     atom   52 type  5   force =    -0.00135481    0.00115636    0.00049120
     atom   53 type  2   force =     0.00089198   -0.00124389    0.00073952
     atom   54 type  5   force =    -0.00036657    0.00046827   -0.00002758
     atom   55 type  5   force =     0.00068809   -0.00074964   -0.00040986

     Total force =     0.365700     Total SCF correction =     0.000632
  @ DRIVER MODE: Message from server: STATUS
  @ DRIVER MODE: Message from server: GETFORCE
  @ DRIVER MODE: Returning v,forces,stress,ensemble

     Writing output data file ./calc.save/
  @ DRIVER MODE: Message from server: EXIT
  @ DRIVE MODE: Exiting

     General routines

     Parallel routines

   This run was terminated on:  20:37:34  15Sep2021

   JOB DONE.