     Program PWSCF v.6.7GPU starts on  8Sep2021 at 23:16:45

     R & G space division:  proc/nbgrp/npool/nimage =      10
     Reading input from /storage/home/hcoda1/3/ntian30/research/carbon/CxH_vib/CH3_calc/ads_slab/CH3NH2NH_c/out_0004/pw.inp
Warning: card &CELL ignored
Warning: card   CELL_DYNAMICS='IPI', ignored
Warning: card / ignored

     Current dimensions of program PWSCF are:
     Max number of different atomic species (ntypx) = 10
     Max number of k-points (npk) =  40000
     Max angular momentum in pseudopotentials (lmaxx) =  3
     Presently no symmetry can be used with electric field

     Message from routine cell_base_init:
     DEPRECATED: use true lattice parameter, not A to a.u. conversion factor

     IMPORTANT: XC functional enforced from input :
     Exchange-correlation= BEEF-VDW
                           (   1   4  43  14   2   0   0)
     Any further DFT definition will be discarded
     Please, verify this is what you really want

  @ DRIVER MODE: Connecting to
 qe_1139763_2767400.sched-torque.pace.gatech.edubp6x8djj_scratch
  using UNIX socket
  @ DRIVER MODE: Message from server: STATUS
  @ DRIVER MODE: Message from server: INIT
  @ DRIVER MODE: Receiving replica           0          -1
  @ DRIVER MODE: Receiving encoded integer          25
  @ DRIVER MODE:  SCF:  T  FORCE:  T  STRESS:  F  VC:  F  ENSEMBLE:  F
  @ DRIVER MODE:  SCF:  T  FORCE:  T  STRESS:  F  VC:  F  ENSEMBLE:  F

     Using Slab Decomposition

     bravais-lattice index     =            0
     lattice parameter (alat)  =       1.8897  a.u.
     unit-cell volume          =    6658.9804 (a.u.)^3
     number of atoms/cell      =           56
     number of atomic types    =            5
     number of electrons       =       398.00
     number of Kohn-Sham states=          209
     kinetic-energy cutoff     =      29.3995  Ry
     charge density cutoff     =     293.9946  Ry
     scf convergence threshold =      7.3E-08
     mixing beta               =       0.0500
     number of iterations used =            8  plain     mixing
     Exchange-correlation= BEEF-VDW
                           (   1   4  43  14   2   0   0)

     celldm(1)=   1.889726  celldm(2)=   0.000000  celldm(3)=   0.000000
     celldm(4)=   0.000000  celldm(5)=   0.000000  celldm(6)=   0.000000

     crystal axes: (cart. coord. in units of alat)
               a(1) = (   6.579727   0.000000   0.000000 )
               a(2) = (  -0.000775   5.961596   0.000000 )
               a(3) = (   0.000000   0.000000  25.155947 )

     reciprocal axes: (cart. coord. in units 2 pi/alat)
               b(1) = (  0.151982  0.000020  0.000000 )
               b(2) = (  0.000000  0.167740  0.000000 )
               b(3) = (  0.000000  0.000000  0.039752 )

     PseudoPot. # 1 for Ti read from file:
     /storage/coda1/p-amedford6/0/shared/rich_project_chbe-medford/medford-share/data/pseudos_module/espresso/nninc/pbe/van/Ti.UPF
     MD5 check sum: 8e4df49b7f0d34bbd5052bf3f5ea0213
     Pseudo is Ultrasoft, Zval = 12.0
     Generated by new atomic code, or converted to UPF format
     Using radial grid of  851 points,  6 beta functions with:
                l(1) =   0
                l(2) =   0
                l(3) =   1
                l(4) =   1
                l(5) =   2
                l(6) =   2
     Q(r) pseudized with  8 coefficients,  rinner =    1.000   1.000   1.000
                                                       1.000   1.000

     PseudoPot. # 2 for O  read from file:
     /storage/coda1/p-amedford6/0/shared/rich_project_chbe-medford/medford-share/data/pseudos_module/espresso/nninc/pbe/van/O.UPF
     MD5 check sum: 78c19812648e8988a0fe644b0f25305e
     Pseudo is Ultrasoft, Zval =  6.0
     Generated by new atomic code, or converted to UPF format
     Using radial grid of  737 points,  4 beta functions with:
                l(1) =   0
                l(2) =   0
                l(3) =   1
                l(4) =   1
     Q(r) pseudized with  8 coefficients,  rinner =    0.800   0.800   0.800

     PseudoPot. # 3 for N  read from file:
     /storage/coda1/p-amedford6/0/shared/rich_project_chbe-medford/medford-share/data/pseudos_module/espresso/nninc/pbe/van/N.UPF
     MD5 check sum: 90d10febe142ad51ac9d5be1deb811c4
     Pseudo is Ultrasoft, Zval =  5.0
     Generated by new atomic code, or converted to UPF format
     Using radial grid of  729 points,  4 beta functions with:
                l(1) =   0
                l(2) =   0
                l(3) =   1
                l(4) =   1
     Q(r) pseudized with  8 coefficients,  rinner =    0.800   0.800   0.800

     PseudoPot. # 4 for C  read from file:
     /storage/coda1/p-amedford6/0/shared/rich_project_chbe-medford/medford-share/data/pseudos_module/espresso/nninc/pbe/van/C.UPF
     MD5 check sum: 1a69bf6b8db32088f5b2163dbdb77a27
     Pseudo is Ultrasoft, Zval =  4.0
     Generated by new atomic code, or converted to UPF format
     Using radial grid of  721 points,  4 beta functions with:
                l(1) =   0
                l(2) =   0
                l(3) =   1
                l(4) =   1
     Q(r) pseudized with  8 coefficients,  rinner =    0.800   0.800   0.800

     PseudoPot. # 5 for H  read from file:
     /storage/coda1/p-amedford6/0/shared/rich_project_chbe-medford/medford-share/data/pseudos_module/espresso/nninc/pbe/van/H.UPF
     MD5 check sum: b5ee9d7bfd3a09ee7748110bda690ff7
     Pseudo is Ultrasoft, Zval =  1.0
     Generated by new atomic code, or converted to UPF format
     Using radial grid of  615 points,  1 beta functions with:
                l(1) =   0
     Q(r) pseudized with  8 coefficients,  rinner =    0.800

     atomic species   valence    mass     pseudopotential
        Ti1           12.00    47.86700     Ti( 1.00)
        O1             6.00    15.99900     O ( 1.00)
        N1             5.00    14.00700     N ( 1.00)
        C1             4.00    12.01100     C ( 1.00)
        H1             1.00     1.00800     H ( 1.00)

     No symmetry found

   Cartesian axes

     site n.     atom                  positions (alat units)
         1           Ti1 tau(   1) = (   0.0004258   2.9801865   6.0000000  )
         2           Ti1 tau(   2) = (   3.2906075   1.4906267   6.0002472  )
         3           O1  tau(   3) = (   0.0006271   0.0005054   7.9858123  )
         4           O1  tau(   4) = (   3.2906025   0.0005020   7.3038282  )
         5           O1  tau(   5) = (   4.5942328   1.4918067   9.2879030  )
         6           O1  tau(   6) = (   1.9868534   1.4903216   9.2879459  )
         7           Ti1 tau(   7) = (   3.2907910   2.8959150   9.1758416  )
         8           Ti1 tau(   8) = (   0.0015273   1.4827037   9.2680791  )
         9           O1  tau(   9) = (   3.3032705   0.0110091  11.3485381  )
        10           O1  tau(  10) = (   0.0116148   5.9584955  10.6183126  )
        11           O1  tau(  11) = (   1.3020657   1.4959176  12.6398190  )
        12           O1  tau(  12) = (   5.2896457   1.4919019  12.6612249  )
        13           Ti1 tau(  13) = (   0.0353884   3.0012823  12.5523301  )
        14           Ti1 tau(  14) = (   3.3275346   1.5008247  12.4978572  )
        15           O1  tau(  15) = (   0.0424128   0.0047235  14.7277795  )
        16           O1  tau(  16) = (   3.2762846   0.0047332  13.9819514  )
        17           O1  tau(  17) = (   4.5591522   1.5298593  16.0930730  )
        18           O1  tau(  18) = (   2.0612242   1.5646392  16.2256692  )
        19           Ti1 tau(  19) = (   3.3170857   3.0293758  15.7013767  )
        20           Ti1 tau(  20) = (   6.5267591   1.5471840  15.7818195  )
        21           O1  tau(  21) = (   3.2904802   0.0005063   4.7018136  )
        22           O1  tau(  22) = (   0.0258072   0.0396315  17.3287798  )
        23           O1  tau(  23) = (   1.3043587   1.4918075   6.0039043  )
        24           O1  tau(  24) = (   5.2767064   1.4903225   6.0039473  )
        25           Ti1 tau(  25) = (   0.0000382   5.9609847   6.0000000  )
        26           Ti1 tau(  26) = (   3.2902200   4.4714249   6.0002472  )
        27           O1  tau(  27) = (   0.0002396   2.9813036   7.9858123  )
        28           O1  tau(  28) = (   3.2902150   2.9813002   7.3038282  )
        29           O1  tau(  29) = (   4.5938453   4.4726049   9.2879030  )
        30           O1  tau(  30) = (   1.9864658   4.4711199   9.2879459  )
        31           Ti1 tau(  31) = (   3.2891106   5.8743827   9.1763621  )
        32           Ti1 tau(  32) = (   0.0006254   4.4649316   9.2693709  )
        33           O1  tau(  33) = (   3.3047253   2.9863606  11.3412877  )
        34           O1  tau(  34) = (   0.0092240   2.9805883  10.6323155  )
        35           O1  tau(  35) = (   1.3023160   4.4818153  12.6295520  )
        36           O1  tau(  36) = (   5.2910779   4.4839738  12.6480862  )
        37           Ti1 tau(  37) = (   0.0306270   0.0097343  12.5156175  )
        38           Ti1 tau(  38) = (   3.3295341   4.4791655  12.4867326  )
        39           O1  tau(  39) = (   0.0319336   2.9935560  14.7343221  )
        40           O1  tau(  40) = (   3.2835893   3.0037955  13.9224844  )
        41           O1  tau(  41) = (   4.5669158   4.4809188  16.1713821  )
        42           O1  tau(  42) = (   2.0542530   4.4668402  16.2247519  )
        43           Ti1 tau(  43) = (   3.3000170   0.0150779  15.7669526  )
        44           Ti1 tau(  44) = (   0.0416703   4.6955124  16.1636639  )
        45           O1  tau(  45) = (   3.2900926   2.9813045   4.7018136  )
        46           O1  tau(  46) = (   1.3039711   4.4726057   6.0039043  )
        47           O1  tau(  47) = (   5.2763189   4.4711207   6.0039473  )
        48           N1  tau(  48) = (   0.9019483   2.4326080  18.4567899  )
        49           N1  tau(  49) = (   6.4923839   2.9153054  17.5348467  )
        50           C1  tau(  50) = (   1.2734633   3.3482217  19.5544901  )
        51           H1  tau(  51) = (   0.3921683   3.5464126  20.1615046  )
        52           H1  tau(  52) = (   2.0553077   2.8833093  20.1573268  )
        53           H1  tau(  53) = (   1.6239766   4.2728770  19.1044814  )
        54           H1  tau(  54) = (   0.5870980   1.4942747  18.7832689  )
        55           H1  tau(  55) = (   5.5983569   2.8486818  18.0159164  )
        56           H1  tau(  56) = (   1.7025450   2.1792920  17.8234971  )

     number of k points=    10  Fermi-Dirac smearing, width (Ry)=  0.0073
                       cart. coord. in units 2pi/alat
        k(    1) = (   0.0000000   0.0000000   0.0000000), wk =   0.1250000
        k(    2) = (   0.0000000   0.0419351   0.0000000), wk =   0.2500000
        k(    3) = (   0.0000000  -0.0838702   0.0000000), wk =   0.1250000
        k(    4) = (   0.0379955   0.0000049   0.0000000), wk =   0.2500000
        k(    5) = (   0.0379955   0.0419400   0.0000000), wk =   0.2500000
        k(    6) = (   0.0379955  -0.0838652   0.0000000), wk =   0.2500000
        k(    7) = (   0.0379955  -0.0419301   0.0000000), wk =   0.2500000
        k(    8) = (  -0.0759910  -0.0000099   0.0000000), wk =   0.1250000
        k(    9) = (  -0.0759910   0.0419252   0.0000000), wk =   0.2500000
        k(   10) = (  -0.0759910  -0.0838800   0.0000000), wk =   0.1250000

     Initial potential from superposition of free atoms

     starting charge  381.99914, renormalised to  398.00000

     negative rho (up, down):  1.485E-02 0.000E+00

     %%%%%%%%%%%%%%%%%%%%%%%%%%%%%%%%%%%%%%%%%%%%%%%%%%%%%%%%%%%%%%%%%%%%%%%%
     %                                                                      %
     % You are using vdW-DF, which was implemented by the Thonhauser group. %
     % Please cite the following two papers that made this development      %
     % possible and the two reviews that describe the various versions:     %
     %                                                                      %
     %   T. Thonhauser et al., PRL 115, 136402 (2015).                      %
     %   T. Thonhauser et al., PRB 76, 125112 (2007).                       %
     %   K. Berland et al., Rep. Prog. Phys. 78, 066501 (2015).             %
     %   D.C. Langreth et al., J. Phys.: Condens. Matter 21, 084203 (2009). %
     %                                                                      %
     %                                                                      %
     % If you are calculating the stress with vdW-DF, please also cite:     %
     %                                                                      %
     %   R. Sabatini et al., J. Phys.: Condens. Matter 24, 424209 (2012).   %
     %                                                                      %
     %%%%%%%%%%%%%%%%%%%%%%%%%%%%%%%%%%%%%%%%%%%%%%%%%%%%%%%%%%%%%%%%%%%%%%%%

     Adding external electric field

     Computed dipole along edir(3) :
        Dipole              -10.9106 Ry au,        -27.7320 Debye
        Dipole field         -0.0206 Ry au,

        Potential amp.        1.9086 Ry
        Total length         46.3494 bohr

     Starting wfcs are  302 atomic wfcs
  @ DRIVER MODE: Message from server: STATUS
  @ DRIVER MODE: Message from server: POSDATA
  @ DRIVER MODE: Reading and sharing cell
  @ DRIVER MODE: Reading and sharing positions
  @ DRIVER MODE: Received positions

     Self-consistent Calculation

     iteration #  1     ecut=    29.40 Ry     beta= 0.05
     Davidson diagonalization with overlap
     c_bands:  5 eigenvalues not converged
     c_bands:  3 eigenvalues not converged
     c_bands:  1 eigenvalues not converged
     c_bands:  2 eigenvalues not converged
     c_bands:  3 eigenvalues not converged
     c_bands:  4 eigenvalues not converged
     c_bands:  4 eigenvalues not converged
     ethr =  1.00E-05,  avg # of iterations = 24.4

[...]

     total energy              =   -2445.36138401 Ry
     estimated scf accuracy    <    5568.63564073 Ry

     iteration #  2     ecut=    29.40 Ry     beta= 0.05
     Davidson diagonalization with overlap
     ethr =  1.00E-02,  avg # of iterations = 22.9

[...]

     iteration # 73     ecut=    29.40 Ry     beta= 0.05
     Davidson diagonalization with overlap
     ethr =  5.05E-11,  avg # of iterations =  6.5

[...]

     total energy              =   -2942.84133818 Ry
     estimated scf accuracy    <       0.00000017 Ry

     iteration # 74     ecut=    29.40 Ry     beta= 0.05
     Davidson diagonalization with overlap
     c_bands:  1 eigenvalues not converged
     ethr =  4.39E-11,  avg # of iterations = 12.0

     negative rho (up, down):  1.049E-02 0.000E+00

     Adding external electric field

     Computed dipole along edir(3) :
        Dipole                1.5804 Ry au,          4.0171 Debye
        Dipole field          0.0030 Ry au,

        Potential amp.       -0.2765 Ry
        Total length         46.3494 bohr

     End of self-consistent calculation

          k = 0.0000 0.0000 0.0000 ( 18029 PWs)   bands (ev):

   -55.0906 -55.0549 -55.0515 -55.0208 -54.9677 -54.9651 -54.9276 -54.8909
   -54.8826 -54.8684 -54.8551 -54.8503 -54.8042 -54.7592 -54.0656 -54.0315
   -31.6645 -31.5443 -31.4546 -31.4249 -31.3858 -31.3812 -31.3794 -31.3501
   -31.3473 -31.3452 -31.3023 -31.3001 -31.2996 -31.2651 -31.2469 -31.2274
   -31.2074 -31.2038 -31.1944 -31.1927 -31.1659 -31.1487 -31.1472 -31.1211
   -31.1117 -31.0978 -31.0957 -31.0928 -31.0893 -31.0764 -31.0713 -31.0643
   -31.0515 -31.0407 -31.0228 -31.0143 -31.0065 -31.0016 -30.9964 -30.9906
   -30.9864 -30.9520 -30.4740 -30.3822 -30.3600 -30.2906 -30.2039 -30.0928
   -19.1792 -15.9337 -15.6593 -15.5366 -15.3258 -15.2761 -15.2033 -15.0080
   -14.9435 -14.8876 -14.8776 -14.8655 -14.8486 -14.7774 -14.6983 -14.6176
   -14.6151 -14.6090 -14.5975 -14.5798 -14.5724 -14.5099 -14.5027 -14.4707
   -14.4586 -14.4188 -14.3116 -14.2297 -14.1728 -14.0231 -13.3558 -12.5682
   -12.4511 -11.0841  -7.8370  -6.5793  -5.8868  -4.1048  -3.9338  -3.2785
    -3.0926  -3.0677  -3.0088  -2.9836  -2.8084  -2.7595  -2.5485  -2.4478
    -2.3605  -2.3215  -2.3089  -2.2925  -2.1416  -2.0746  -2.0403  -1.9926
    -1.9692  -1.9466  -1.9050  -1.8975  -1.8668  -1.8488  -1.8404  -1.6627
    -1.5869  -1.5373  -1.5081  -1.4705  -1.4210  -1.3936  -1.3742  -1.3697
    -1.3644  -1.3454  -1.3139  -1.2528  -1.2250  -1.1688  -1.1002  -1.0734
    -0.9838  -0.9025  -0.7142  -0.6688  -0.6508  -0.6147  -0.5545  -0.5060
    -0.4714  -0.4367  -0.4226  -0.3568  -0.2871  -0.2551  -0.1923  -0.1275
    -0.1173  -0.0539  -0.0468   0.1147   0.1264   0.1478   0.2383   0.3247
     0.3730   0.3810   0.4392   0.5135   0.5355   0.5451   0.5819   0.6023
     0.6788   0.7880   0.8128   0.8541   0.8660   0.8997   0.9220   0.9771
     1.0012   1.0639   1.0701   1.1741   1.2218   1.2562   1.5062   1.5392
     1.8697   1.9032   1.9570   2.1437   2.5309   2.5781   4.0177   4.0803
     4.0947   4.1434   4.1667   4.1859   4.2578   4.4783   4.5037   4.5099
     4.5173

[...]

          k = 0.0380-0.0419 0.0000 ( 17876 PWs)   bands (ev):

[...]

          k =-0.0760-0.0000 0.0000 ( 17886 PWs)   bands (ev):

[...]

          k =-0.0760-0.0839 0.0000 ( 17948 PWs)   bands (ev):

   -55.0784 -55.0634 -55.0380 -55.0376 -54.9647 -54.9541 -54.9387 -54.8738
   -54.8713 -54.8702 -54.8684 -54.8662 -54.7983 -54.7651 -54.0486 -54.0484
   -31.4722 -31.4626 -31.3998 -31.3597 -31.3593 -31.3583 -31.3309 -31.3303
   -31.2995 -31.2955 -31.2906 -31.2846 -31.2597 -31.2248 -31.2176 -31.2116
   -31.2094 -31.2056 -31.2049 -31.1961 -31.1640 -31.1629 -31.1592 -31.1572
   -31.1568 -31.1542 -31.1497 -31.1333 -31.1078 -31.1041 -31.0989 -31.0888
   -31.0870 -31.0849 -31.0839 -31.0680 -31.0497 -31.0483 -31.0379 -31.0323
   -31.0073 -30.9908 -30.3728 -30.3726 -30.2867 -30.2864 -30.2473 -30.2472
   -19.1753 -15.4169 -15.3266 -15.1783 -15.1590 -15.1095 -15.0615 -15.0450
   -15.0278 -14.9716 -14.9322 -14.8859 -14.8372 -14.7941 -14.7919 -14.7534
   -14.6814 -14.6599 -14.6578 -14.6433 -14.5923 -14.5816 -14.5540 -14.5352
   -14.5302 -14.4871 -14.4274 -14.4239 -14.3851 -14.2069 -13.3661 -12.5528
   -12.5526 -11.0868  -7.8477  -6.5632  -5.8755  -4.0766  -3.9251  -2.6857
    -2.5864  -2.5175  -2.4199  -2.3329  -2.2927  -2.2577  -2.1235  -2.1042
    -2.0851  -2.0593  -2.0463  -2.0122  -2.0049  -1.9562  -1.9273  -1.9169
    -1.9106  -1.8976  -1.8754  -1.8275  -1.8051  -1.7954  -1.7861  -1.7473
    -1.7334  -1.7014  -1.6955  -1.6565  -1.6351  -1.5502  -1.4609  -1.4212
    -1.3710  -1.3059  -1.2715  -1.2647  -1.1715  -1.1631  -1.1400  -1.1067
    -1.0611  -0.9410  -0.8839  -0.8202  -0.8167  -0.8029  -0.6959  -0.6595
    -0.6290  -0.5937  -0.5577  -0.5263  -0.4869  -0.4408  -0.3647  -0.3335
    -0.2938  -0.2575  -0.1854  -0.0976  -0.0782  -0.0467  -0.0425   0.0417
     0.0683   0.1063   0.1161   0.1353   0.1917   0.2050   0.2921   0.3821
     0.4469   0.5345   0.6480   0.6524   0.7294   0.8222   0.9091   0.9474
     0.9991   1.0648   1.0661   1.1004   1.2221   1.2294   1.3508   1.3898
     1.3985   1.4208   2.3160   2.3170   2.3982   2.3982   4.1467   4.2441
     4.2833   4.3244   4.3763   4.5219   4.5451   4.5908   4.5911   4.6617
     4.6747

     the Fermi energy is     4.0642 ev

!    total energy              =   -2942.84136003 Ry
     estimated scf accuracy    <       0.00000006 Ry
     smearing contrib. (-TS)   =      -0.03725350 Ry
     internal energy E=F+TS    =   -2942.80410653 Ry

     The total energy is F=E-TS. E is the sum of the following terms:
     one-electron contribution =  -23856.61522673 Ry
     hartree contribution      =   12023.64395301 Ry
     xc contribution           =    -487.75473836 Ry
     ewald contribution        =    9377.91719188 Ry
     electric field correction =       0.00471366 Ry

     convergence has been achieved in  74 iterations

     Forces acting on atoms (cartesian axes, Ry/au):

     atom    1 type  1   force =     0.00001951   -0.00023123    0.09430700
     atom    2 type  1   force =    -0.00015688   -0.00054941   -0.17707120
     atom    3 type  2   force =     0.00001653   -0.00024559   -0.02146306
     atom    4 type  2   force =    -0.00001377   -0.00167397    0.05643574
     atom    5 type  2   force =    -0.01049216   -0.00075234    0.00562636
     atom    6 type  2   force =     0.01225927   -0.00009626    0.00551917
     atom    7 type  1   force =    -0.00024452    0.00107714   -0.01571165
     atom    8 type  1   force =    -0.00007447    0.00524764    0.00656974
     atom    9 type  2   force =    -0.00030471    0.00055997    0.00020750
     atom   10 type  2   force =    -0.00199894    0.00266098   -0.00434486
     atom   11 type  2   force =     0.00039540   -0.00022330    0.00028199
     atom   12 type  2   force =    -0.00007438   -0.00029055   -0.00019256
     atom   13 type  1   force =    -0.00073878    0.00043265   -0.00006395
     atom   14 type  1   force =     0.00038545   -0.00016312    0.00000904
     atom   15 type  2   force =    -0.00019268   -0.00044726   -0.00046001
     atom   16 type  2   force =     0.00004649    0.00039295   -0.00029559
     atom   17 type  2   force =     0.00090603    0.00022669    0.00047059
     atom   18 type  2   force =    -0.00041384    0.00010799    0.00033481
     atom   19 type  1   force =     0.00036686    0.00087642    0.00036437
     atom   20 type  1   force =    -0.00037767    0.00006171    0.00067984
     atom   21 type  2   force =    -0.00002045   -0.00011416    0.10363695
     atom   22 type  2   force =     0.00030018    0.00064899    0.00069850
     atom   23 type  2   force =    -0.07091621   -0.00021340   -0.02719405
     atom   24 type  2   force =     0.07071388    0.00024034   -0.02724154
     atom   25 type  1   force =     0.00001499   -0.00026464    0.09399408
     atom   26 type  1   force =    -0.00025520   -0.00055429   -0.17735038
     atom   27 type  2   force =     0.00006030   -0.00007870   -0.02059877
     atom   28 type  2   force =     0.00002495   -0.00136400    0.05572857
     atom   29 type  2   force =    -0.01079485   -0.00000322    0.00592088
     atom   30 type  2   force =     0.01248482    0.00028301    0.00577026
     atom   31 type  1   force =    -0.00018139    0.00518881   -0.01629503
     atom   32 type  1   force =    -0.00008851   -0.00625752    0.00670279
     atom   33 type  2   force =    -0.00009617   -0.00047398    0.00023547
     atom   34 type  2   force =    -0.00163662    0.00066846   -0.00774149
     atom   35 type  2   force =    -0.00033406    0.00006097    0.00042369
     atom   36 type  2   force =     0.00058328    0.00005950   -0.00006445
     atom   37 type  1   force =    -0.00082576   -0.00078028   -0.00010439
     atom   38 type  1   force =     0.00048206    0.00001316    0.00042272
     atom   39 type  2   force =    -0.00028249   -0.00017060    0.00057424
     atom   40 type  2   force =    -0.00005993   -0.00020675   -0.00020944
     atom   41 type  2   force =     0.00002869   -0.00042826    0.00022550
     atom   42 type  2   force =    -0.00025787   -0.00030506    0.00055279
     atom   43 type  1   force =     0.00007366   -0.00079924   -0.00015273
     atom   44 type  1   force =     0.00009910    0.00029292    0.00034477
     atom   45 type  2   force =    -0.00002338   -0.00011841    0.10362829
     atom   46 type  2   force =    -0.07091905   -0.00014177   -0.02716292
     atom   47 type  2   force =     0.07072216    0.00028243   -0.02723703
     atom   48 type  3   force =    -0.00134586   -0.02165625    0.00025788
     atom   49 type  3   force =    -0.00099049    0.00234598   -0.00040701
     atom   50 type  4   force =     0.00110333    0.00521733    0.00148607
     atom   51 type  5   force =     0.00031972   -0.00022516    0.00101680
     atom   52 type  5   force =    -0.00055422    0.00001230   -0.00041211
     atom   53 type  5   force =     0.00076694    0.00050950    0.00145211
     atom   54 type  5   force =     0.00343194    0.00996442   -0.00305555
     atom   55 type  5   force =    -0.00020831   -0.00036452    0.00005450
     atom   56 type  5   force =    -0.00073193    0.00176095    0.00089678

     Total force =     0.366497     Total SCF correction =     0.000627
  @ DRIVER MODE: Message from server: STATUS
  @ DRIVER MODE: Message from server: GETFORCE
  @ DRIVER MODE: Returning v,forces,stress,ensemble

     Writing output data file ./calc.save/
  @ DRIVER MODE: Message from server: EXIT
  @ DRIVE MODE: Exiting

     General routines

     Parallel routines

   This run was terminated on:  23:37:55   8Sep2021

   JOB DONE.