     Program PWSCF v.6.7GPU starts on 15Sep2021 at 23:41:41

     R & G space division:  proc/nbgrp/npool/nimage =      10
     Reading input from /storage/home/hcoda1/3/ntian30/research/carbon/CxH_vib/H2O_calc/ads_slab/CH2OH2O_a/out_0024/pw.inp
Warning: card &CELL ignored
Warning: card   CELL_DYNAMICS='IPI', ignored
Warning: card / ignored

     Current dimensions of program PWSCF are:
     Max number of different atomic species (ntypx) = 10
     Max number of k-points (npk) =  40000
     Max angular momentum in pseudopotentials (lmaxx) =  3
     Presently no symmetry can be used with electric field

     Message from routine cell_base_init:
     DEPRECATED: use true lattice parameter, not A to a.u. conversion factor

     IMPORTANT: XC functional enforced from input :
     Exchange-correlation= BEEF-VDW
                           (   1   4  43  14   2   0   0)
     Any further DFT definition will be discarded
     Please, verify this is what you really want

  @ DRIVER MODE: Connecting to
 qe_1139763_2852613.sched-torque.pace.gatech.edurhkacovi_scratch
  using UNIX socket
  @ DRIVER MODE: Message from server: STATUS
  @ DRIVER MODE: Message from server: INIT
  @ DRIVER MODE: Receiving replica           0          -1
  @ DRIVER MODE: Receiving encoded integer          25
  @ DRIVER MODE:  SCF:  T  FORCE:  T  STRESS:  F  VC:  F  ENSEMBLE:  F
  @ DRIVER MODE:  SCF:  T  FORCE:  T  STRESS:  F  VC:  F  ENSEMBLE:  F

     Using Slab Decomposition

     bravais-lattice index     =            0
     lattice parameter (alat)  =       1.8897  a.u.
     unit-cell volume          =    6658.9804 (a.u.)^3
     number of atoms/cell      =           54
     number of atomic types    =            4
     number of electrons       =       398.00
     number of Kohn-Sham states=          209
     kinetic-energy cutoff     =      29.3995  Ry
     charge density cutoff     =     293.9946  Ry
     scf convergence threshold =      7.3E-08
     mixing beta               =       0.0500
     number of iterations used =            8  plain     mixing
     Exchange-correlation= BEEF-VDW
                           (   1   4  43  14   2   0   0)

     celldm(1)=   1.889726  celldm(2)=   0.000000  celldm(3)=   0.000000
     celldm(4)=   0.000000  celldm(5)=   0.000000  celldm(6)=   0.000000

     crystal axes: (cart. coord. in units of alat)
               a(1) = (   6.579727   0.000000   0.000000 )
               a(2) = (  -0.000775   5.961596   0.000000 )
               a(3) = (   0.000000   0.000000  25.155947 )

     reciprocal axes: (cart. coord. in units 2 pi/alat)
               b(1) = (  0.151982  0.000020  0.000000 )
               b(2) = (  0.000000  0.167740  0.000000 )
               b(3) = (  0.000000  0.000000  0.039752 )

     PseudoPot. # 1 for O  read from file:
     /storage/coda1/p-amedford6/0/shared/rich_project_chbe-medford/medford-share/data/pseudos_module/espresso/nninc/pbe/van/O.UPF
     MD5 check sum: 78c19812648e8988a0fe644b0f25305e
     Pseudo is Ultrasoft, Zval =  6.0
     Generated by new atomic code, or converted to UPF format
     Using radial grid of  737 points,  4 beta functions with:
                l(1) =   0
                l(2) =   0
                l(3) =   1
                l(4) =   1
     Q(r) pseudized with  8 coefficients,  rinner =    0.800   0.800   0.800

     PseudoPot. # 2 for Ti read from file:
     /storage/coda1/p-amedford6/0/shared/rich_project_chbe-medford/medford-share/data/pseudos_module/espresso/nninc/pbe/van/Ti.UPF
     MD5 check sum: 8e4df49b7f0d34bbd5052bf3f5ea0213
     Pseudo is Ultrasoft, Zval = 12.0
     Generated by new atomic code, or converted to UPF format
     Using radial grid of  851 points,  6 beta functions with:
                l(1) =   0
                l(2) =   0
                l(3) =   1
                l(4) =   1
                l(5) =   2
                l(6) =   2
     Q(r) pseudized with  8 coefficients,  rinner =    1.000   1.000   1.000
                                                       1.000   1.000

     PseudoPot. # 3 for C  read from file:
     /storage/coda1/p-amedford6/0/shared/rich_project_chbe-medford/medford-share/data/pseudos_module/espresso/nninc/pbe/van/C.UPF
     MD5 check sum: 1a69bf6b8db32088f5b2163dbdb77a27
     Pseudo is Ultrasoft, Zval =  4.0
     Generated by new atomic code, or converted to UPF format
     Using radial grid of  721 points,  4 beta functions with:
                l(1) =   0
                l(2) =   0
                l(3) =   1
                l(4) =   1
     Q(r) pseudized with  8 coefficients,  rinner =    0.800   0.800   0.800

     PseudoPot. # 4 for H  read from file:
     /storage/coda1/p-amedford6/0/shared/rich_project_chbe-medford/medford-share/data/pseudos_module/espresso/nninc/pbe/van/H.UPF
     MD5 check sum: b5ee9d7bfd3a09ee7748110bda690ff7
     Pseudo is Ultrasoft, Zval =  1.0
     Generated by new atomic code, or converted to UPF format
     Using radial grid of  615 points,  1 beta functions with:
                l(1) =   0
     Q(r) pseudized with  8 coefficients,  rinner =    0.800

     atomic species   valence    mass     pseudopotential
        O1             6.00    15.99900     O ( 1.00)
        Ti1           12.00    47.86700     Ti( 1.00)
        C1             4.00    12.01100     C ( 1.00)
        H1             1.00     1.00800     H ( 1.00)

     No symmetry found

   Cartesian axes

     site n.     atom                  positions (alat units)
         1           O1  tau(   1) = (   3.2904802   0.0005063   4.7018136  )
         2           O1  tau(   2) = (   3.2900926   2.9813045   4.7018136  )
         3           Ti1 tau(   3) = (   0.0004258   2.9801865   6.0000000  )
         4           Ti1 tau(   4) = (   0.0000382   5.9609847   6.0000000  )
         5           Ti1 tau(   5) = (   3.2906075   1.4906267   6.0002472  )
         6           Ti1 tau(   6) = (   3.2902200   4.4714249   6.0002472  )
         7           O1  tau(   7) = (   1.3043587   1.4918075   6.0039043  )
         8           O1  tau(   8) = (   1.3039711   4.4726057   6.0039043  )
         9           O1  tau(   9) = (   5.2767064   1.4903225   6.0039473  )
        10           O1  tau(  10) = (   5.2763189   4.4711207   6.0039473  )
        11           O1  tau(  11) = (   3.2906025   0.0005020   7.3038282  )
        12           O1  tau(  12) = (   3.2902150   2.9813002   7.3038282  )
        13           O1  tau(  13) = (   0.0006271   0.0005054   7.9858123  )
        14           O1  tau(  14) = (   0.0002396   2.9813036   7.9858123  )
        15           Ti1 tau(  15) = (   3.3036605   0.0548493   9.1550340  )
        16           Ti1 tau(  16) = (   3.3179312   3.0323762   9.1622521  )
        17           Ti1 tau(  17) = (   0.0293130   4.5303424   9.2586280  )
        18           Ti1 tau(  18) = (   0.0255512   1.6071936   9.3606264  )
        19           O1  tau(  19) = (   4.5942328   1.4918067   9.2879030  )
        20           O1  tau(  20) = (   4.5938453   4.4726049   9.2879030  )
        21           O1  tau(  21) = (   1.9868534   1.4903216   9.2879459  )
        22           O1  tau(  22) = (   1.9864658   4.4711199   9.2879459  )
        23           O1  tau(  23) = (   0.0067149   0.0090568  10.6008527  )
        24           O1  tau(  24) = (   0.0066098   2.9904127  10.5810825  )
        25           O1  tau(  25) = (   3.3023248   2.9935247  11.3558429  )
        26           O1  tau(  26) = (   3.3019398   0.0103095  11.3581380  )
        27           Ti1 tau(  27) = (   0.0322082   0.0188897  12.5014682  )
        28           Ti1 tau(  28) = (   3.3323403   4.4947089  12.5096490  )
        29           Ti1 tau(  29) = (   3.3327227   1.5059056  12.5040540  )
        30           Ti1 tau(  30) = (   0.0321551   3.0004163  12.7750784  )
        31           O1  tau(  31) = (   1.2963378   4.4834263  12.6382484  )
        32           O1  tau(  32) = (   1.2968596   1.4996660  12.6342602  )
        33           O1  tau(  33) = (   5.3004736   4.4821179  12.6410582  )
        34           O1  tau(  34) = (   5.3007909   1.4998706  12.6367838  )
        35           O1  tau(  35) = (   3.3017874   2.9879694  13.9086975  )
        36           O1  tau(  36) = (   3.3040514   0.0100701  13.9766235  )
        37           O1  tau(  37) = (   0.0177811   0.0165449  14.6846256  )
        38           O1  tau(  38) = (   0.0218693   2.9952767  14.7100221  )
        39           Ti1 tau(  39) = (   3.3083447   2.9915206  15.7010863  )
        40           Ti1 tau(  40) = (   3.3165693   0.0114089  15.8055842  )
        41           Ti1 tau(  41) = (   0.0300915   4.5703342  15.9344200  )
        42           Ti1 tau(  42) = (   0.0294271   1.3911826  15.9958598  )
        43           O1  tau(  43) = (   4.5666857   4.4545776  16.0545193  )
        44           O1  tau(  44) = (   4.5654216   1.5273373  16.0688375  )
        45           O1  tau(  45) = (   2.0398213   1.5345912  16.0698912  )
        46           O1  tau(  46) = (   2.0372649   4.4468515  16.0554978  )
        47           O1  tau(  47) = (   0.0160947   0.0056016  17.2166677  )
        48           O1  tau(  48) = (   6.5639191   3.0028441  17.4181802  )
        49           C1  tau(  49) = (   6.3909186   3.0704891  18.6902598  )
        50           H1  tau(  50) = (   6.3116585   4.0479728  19.1570877  )
        51           H1  tau(  51) = (   6.3127454   2.1532251  19.2764540  )
        52           O1  tau(  52) = (   3.2659488   5.9319982  18.2141537  )
        53           H1  tau(  53) = (   4.0486762   5.9278262  18.7801078  )
        54           H1  tau(  54) = (   2.4667005   5.9275743  18.7583984  )

     number of k points=    10  Fermi-Dirac smearing, width (Ry)=  0.0073
                       cart. coord. in units 2pi/alat
        k(    1) = (   0.0000000   0.0000000   0.0000000), wk =   0.1250000
        k(    2) = (   0.0000000   0.0419351   0.0000000), wk =   0.2500000
        k(    3) = (   0.0000000  -0.0838702   0.0000000), wk =   0.1250000
        k(    4) = (   0.0379955   0.0000049   0.0000000), wk =   0.2500000
        k(    5) = (   0.0379955   0.0419400   0.0000000), wk =   0.2500000
        k(    6) = (   0.0379955  -0.0838652   0.0000000), wk =   0.2500000
        k(    7) = (   0.0379955  -0.0419301   0.0000000), wk =   0.2500000
        k(    8) = (  -0.0759910  -0.0000099   0.0000000), wk =   0.1250000
        k(    9) = (  -0.0759910   0.0419252   0.0000000), wk =   0.2500000
        k(   10) = (  -0.0759910  -0.0838800   0.0000000), wk =   0.1250000

     Initial potential from superposition of free atoms

     starting charge  381.99917, renormalised to  398.00000

     negative rho (up, down):  1.685E-02 0.000E+00

     %%%%%%%%%%%%%%%%%%%%%%%%%%%%%%%%%%%%%%%%%%%%%%%%%%%%%%%%%%%%%%%%%%%%%%%%
     %                                                                      %
     % You are using vdW-DF, which was implemented by the Thonhauser group. %
     % Please cite the following two papers that made this development      %
     % possible and the two reviews that describe the various versions:     %
     %                                                                      %
     %   T. Thonhauser et al., PRL 115, 136402 (2015).                      %
     %   T. Thonhauser et al., PRB 76, 125112 (2007).                       %
     %   K. Berland et al., Rep. Prog. Phys. 78, 066501 (2015).             %
     %   D.C. Langreth et al., J. Phys.: Condens. Matter 21, 084203 (2009). %
     %                                                                      %
     %                                                                      %
     % If you are calculating the stress with vdW-DF, please also cite:     %
     %                                                                      %
     %   R. Sabatini et al., J. Phys.: Condens. Matter 24, 424209 (2012).   %
     %                                                                      %
     %%%%%%%%%%%%%%%%%%%%%%%%%%%%%%%%%%%%%%%%%%%%%%%%%%%%%%%%%%%%%%%%%%%%%%%%

     Adding external electric field

     Computed dipole along edir(3) :
        Dipole               -9.6380 Ry au,        -24.4975 Debye
        Dipole field         -0.0182 Ry au,

        Potential amp.        1.6860 Ry
        Total length         46.3494 bohr

     Starting wfcs are  300 atomic wfcs
  @ DRIVER MODE: Message from server: STATUS
  @ DRIVER MODE: Message from server: POSDATA
  @ DRIVER MODE: Reading and sharing cell
  @ DRIVER MODE: Reading and sharing positions
  @ DRIVER MODE: Received positions

     Self-consistent Calculation

     iteration #  1     ecut=    29.40 Ry     beta= 0.05
     Davidson diagonalization with overlap
     c_bands:  1 eigenvalues not converged
     c_bands:  3 eigenvalues not converged
     c_bands:  2 eigenvalues not converged
     c_bands:  2 eigenvalues not converged
     c_bands:  2 eigenvalues not converged
     c_bands:  1 eigenvalues not converged
     c_bands:  2 eigenvalues not converged
     c_bands:  1 eigenvalues not converged
     c_bands:  2 eigenvalues not converged
     ethr =  1.00E-05,  avg # of iterations = 19.6

[...]

     total energy              =   -2526.84918345 Ry
     estimated scf accuracy    <    4873.65311306 Ry

     iteration #  2     ecut=    29.40 Ry     beta= 0.05
     Davidson diagonalization with overlap
     ethr =  1.00E-02,  avg # of iterations = 26.3

[...]

     iteration # 54     ecut=    29.40 Ry     beta= 0.05
     Davidson diagonalization with overlap
     c_bands:  1 eigenvalues not converged
     ethr =  4.32E-11,  avg # of iterations = 12.7

[...]

     total energy              =   -2964.99523774 Ry
     estimated scf accuracy    <       0.00000012 Ry

     iteration # 55     ecut=    29.40 Ry     beta= 0.05
     Davidson diagonalization with overlap
     ethr =  3.02E-11,  avg # of iterations = 10.1

     negative rho (up, down):  1.528E-02 0.000E+00

     Adding external electric field

     Computed dipole along edir(3) :
        Dipole                1.2228 Ry au,          3.1080 Debye
        Dipole field          0.0023 Ry au,

        Potential amp.       -0.2139 Ry
        Total length         46.3494 bohr

     End of self-consistent calculation

          k = 0.0000 0.0000 0.0000 ( 18029 PWs)   bands (ev):

   -55.5390 -55.5022 -55.5016 -55.4654 -55.4621 -55.4179 -55.3815 -55.3145
   -55.3017 -55.2791 -55.2683 -55.2588 -55.2177 -55.2092 -54.5502 -54.5162
   -32.0571 -32.0093 -31.8956 -31.8529 -31.8507 -31.8331 -31.8128 -31.8042
   -31.7807 -31.7689 -31.7352 -31.7252 -31.6979 -31.6852 -31.6829 -31.6488
   -31.6456 -31.6392 -31.6343 -31.6312 -31.6026 -31.5972 -31.5895 -31.5853
   -31.5582 -31.5538 -31.5502 -31.5298 -31.5227 -31.5209 -31.4755 -31.4743
   -31.4484 -31.4464 -31.4328 -31.4276 -31.4218 -31.4075 -31.3960 -31.3945
   -31.3914 -31.3752 -30.9598 -30.8636 -30.8412 -30.7763 -30.6902 -30.5791
   -19.3654 -19.1343 -16.2542 -15.9915 -15.8197 -15.7087 -15.6618 -15.4596
   -15.3667 -15.2861 -15.2222 -15.1448 -15.1281 -15.0903 -15.0645 -15.0588
   -15.0534 -15.0048 -14.9958 -14.9564 -14.9446 -14.9432 -14.9245 -14.9057
   -14.8239 -14.7213 -14.6780 -14.6600 -14.6008 -14.5446 -14.5308 -13.0510
   -12.9329  -9.0063  -7.1482  -5.1969  -5.1875  -3.7740  -3.5752  -3.4579
    -3.4233  -3.3875  -3.3188  -3.1384  -3.1298  -3.0362  -2.7988  -2.7085
    -2.6753  -2.6176  -2.6074  -2.5079  -2.4666  -2.3606  -2.3518  -2.3474
    -2.3313  -2.3053  -2.2725  -2.2302  -2.2059  -2.1939  -2.0661  -2.0551
    -1.9268  -1.9209  -1.8975  -1.8429  -1.8379  -1.7958  -1.7824  -1.7789
    -1.7665  -1.7182  -1.7065  -1.5934  -1.5191  -1.4558  -1.3692  -1.2313
    -1.1694  -1.0964  -1.0431  -1.0087  -0.9460  -0.9431  -0.8886  -0.8481
    -0.7897  -0.7765  -0.7710  -0.6744  -0.5753  -0.5537  -0.5234  -0.4452
    -0.3662  -0.2804  -0.2612  -0.2590  -0.2577  -0.2367  -0.0992  -0.0156
     0.0418   0.0468   0.1429   0.1760   0.2113   0.2253   0.2576   0.2783
     0.3343   0.4090   0.4206   0.4340   0.4595   0.5055   0.5111   0.6236
     0.7000   0.7015   0.7376   0.7704   0.9460   0.9807   1.1075   1.2149
     1.3810   1.4741   1.5461   1.6470   2.0603   2.1179   3.6341   3.6759
     3.6909   3.7332   3.7829   3.8094   3.8772   4.0765   4.0927   4.1026
     4.1419

[...]

          k = 0.0380-0.0419 0.0000 ( 17876 PWs)   bands (ev):

[...]

          k =-0.0760-0.0000 0.0000 ( 17886 PWs)   bands (ev):

[...]

          k =-0.0760-0.0839 0.0000 ( 17948 PWs)   bands (ev):

   -55.5276 -55.5135 -55.4848 -55.4820 -55.4606 -55.4077 -55.3917 -55.3110
   -55.2864 -55.2839 -55.2736 -55.2603 -55.2230 -55.2120 -54.5337 -54.5326
   -31.8678 -31.8530 -31.8333 -31.8206 -31.8179 -31.7984 -31.7734 -31.7560
   -31.7428 -31.7380 -31.7373 -31.7298 -31.6963 -31.6622 -31.6561 -31.6524
   -31.6433 -31.6404 -31.6371 -31.6346 -31.6288 -31.6100 -31.6090 -31.6080
   -31.6032 -31.5885 -31.5675 -31.5525 -31.5395 -31.5377 -31.5309 -31.5138
   -31.4962 -31.4918 -31.4850 -31.4833 -31.4654 -31.4469 -31.4420 -31.4362
   -31.4058 -31.3995 -30.8546 -30.8532 -30.7731 -30.7722 -30.7338 -30.7328
   -19.3566 -19.1340 -15.7055 -15.5964 -15.5623 -15.4152 -15.4110 -15.3600
   -15.3516 -15.3159 -15.2359 -15.2325 -15.1826 -15.1633 -15.1288 -15.1051
   -15.0934 -15.0480 -15.0456 -15.0269 -15.0029 -14.9845 -14.9680 -14.9404
   -14.9164 -14.9091 -14.8712 -14.8629 -14.7984 -14.7433 -14.7227 -13.0354
   -13.0332  -9.0072  -7.1456  -5.1738  -5.1642  -3.7300  -3.1577  -2.9894
    -2.8022  -2.7865  -2.6543  -2.6195  -2.6014  -2.5110  -2.4777  -2.4441
    -2.3810  -2.3702  -2.3637  -2.3420  -2.3371  -2.3232  -2.3022  -2.2650
    -2.2551  -2.2234  -2.1937  -2.1799  -2.1593  -2.1495  -2.1210  -2.1016
    -2.0888  -2.0853  -2.0232  -1.9953  -1.9102  -1.8440  -1.7629  -1.7103
    -1.6791  -1.6768  -1.6407  -1.6021  -1.5945  -1.5792  -1.4329  -1.3838
    -1.2612  -1.2478  -1.2286  -1.1523  -1.1366  -1.1020  -1.0966  -1.0305
    -0.9439  -0.9394  -0.9154  -0.8886  -0.8011  -0.7331  -0.6921  -0.6561
    -0.6122  -0.5822  -0.5084  -0.4950  -0.4841  -0.4217  -0.3812  -0.2962
    -0.2825  -0.2634  -0.2123  -0.1832  -0.1483  -0.0796  -0.0616  -0.0386
     0.0424   0.1083   0.1146   0.3244   0.4868   0.5159   0.5324   0.6171
     0.6640   0.7728   0.7961   0.8054   0.8476   0.8930   0.9804   1.0064
     1.0082   1.0857   1.8344   1.8351   1.9227   1.9333   3.5659   3.8797
     3.9441   3.9674   3.9924   4.1078   4.1103   4.1296   4.1383   4.2818
     4.2942

     the Fermi energy is     3.6123 ev

!    total energy              =   -2964.99532276 Ry
     estimated scf accuracy    <       0.00000006 Ry
     smearing contrib. (-TS)   =      -0.03111168 Ry
     internal energy E=F+TS    =   -2964.96421108 Ry

     The total energy is F=E-TS. E is the sum of the following terms:
     one-electron contribution =  -24341.96233935 Ry
     hartree contribution      =   12264.03604556 Ry
     xc contribution           =    -490.09840958 Ry
     ewald contribution        =    9603.05767073 Ry
     electric field correction =       0.00282157 Ry

     convergence has been achieved in  55 iterations

     Forces acting on atoms (cartesian axes, Ry/au):

     atom    1 type  1   force =    -0.00009499    0.00006492    0.10407120
     atom    2 type  1   force =    -0.00009121    0.00006360    0.10406563
     atom    3 type  2   force =    -0.00028921   -0.00187874    0.10332693
     atom    4 type  2   force =    -0.00016513    0.00152089    0.11466306
     atom    5 type  2   force =    -0.00038424    0.00123462   -0.17932721
     atom    6 type  2   force =    -0.00016234   -0.00076087   -0.17971095
     atom    7 type  1   force =    -0.06941220    0.00065509   -0.02930229
     atom    8 type  1   force =    -0.06895785   -0.00122438   -0.02934921
     atom    9 type  1   force =     0.06905728    0.00114864   -0.02936810
     atom   10 type  1   force =     0.06868734   -0.00080948   -0.02942428
     atom   11 type  1   force =     0.00042020    0.00057077    0.04680573
     atom   12 type  1   force =     0.00063400    0.00080609    0.04850766
     atom   13 type  1   force =     0.00026784   -0.00568078   -0.03325527
     atom   14 type  1   force =     0.00033439    0.00339621   -0.02638683
     atom   15 type  2   force =    -0.00009942   -0.00003732    0.00039680
     atom   16 type  2   force =     0.00001823    0.00001373    0.00050853
     atom   17 type  2   force =    -0.00001630    0.00013465    0.00041592
     atom   18 type  2   force =    -0.00006621   -0.00031633    0.00008625
     atom   19 type  1   force =    -0.01806491   -0.00015626    0.00403816
     atom   20 type  1   force =    -0.01684105    0.00147929    0.00329051
     atom   21 type  1   force =     0.01933754   -0.00136663    0.00448499
     atom   22 type  1   force =     0.01790588    0.00116278    0.00356255
     atom   23 type  1   force =     0.00001642    0.00003546   -0.00013551
     atom   24 type  1   force =    -0.00005491   -0.00001057   -0.00008298
     atom   25 type  1   force =    -0.00004821    0.00000507   -0.00057553
     atom   26 type  1   force =    -0.00023125    0.00014731   -0.00065376
     atom   27 type  2   force =     0.00002499    0.00012447   -0.00045887
     atom   28 type  2   force =     0.00024002    0.00002657   -0.00011593
     atom   29 type  2   force =     0.00022376    0.00001052   -0.00021744
     atom   30 type  2   force =    -0.00009586    0.00018645    0.00019563
     atom   31 type  1   force =    -0.00064607   -0.00024482    0.00054044
     atom   32 type  1   force =    -0.00055799    0.00032835    0.00056735
     atom   33 type  1   force =     0.00040152   -0.00014363    0.00035818
     atom   34 type  1   force =     0.00032468    0.00019408    0.00038742
     atom   35 type  1   force =    -0.00014402    0.00001191    0.00021789
     atom   36 type  1   force =    -0.00008647    0.00000796   -0.00021333
     atom   37 type  1   force =    -0.00036547   -0.00002105   -0.00017260
     atom   38 type  1   force =    -0.00051385    0.00026782   -0.00000806
     atom   39 type  2   force =    -0.00016135   -0.00009459    0.00135617
     atom   40 type  2   force =     0.00007891    0.00021556   -0.00131583
     atom   41 type  2   force =    -0.00033518   -0.00075258   -0.00066121
     atom   42 type  2   force =    -0.00029166    0.00081154   -0.00047041
     atom   43 type  1   force =    -0.00001230    0.00021302    0.00027610
     atom   44 type  1   force =    -0.00008271   -0.00008188    0.00007037
     atom   45 type  1   force =    -0.00041046   -0.00024408   -0.00003184
     atom   46 type  1   force =    -0.00047741    0.00041052    0.00011982
     atom   47 type  1   force =    -0.00003529   -0.00021379    0.00005961
     atom   48 type  1   force =    -0.00042527   -0.00095873    0.00211673
     atom   49 type  3   force =    -0.00024444   -0.00445082    0.00431956
     atom   50 type  4   force =     0.00049377   -0.00078982    0.00012512
     atom   51 type  4   force =     0.00100938    0.00434841   -0.00571160
     atom   52 type  1   force =     0.00048643    0.00065196   -0.00055799
     atom   53 type  4   force =     0.00035841    0.00000062    0.00022301
     atom   54 type  4   force =    -0.00045579   -0.00001171   -0.00165027

     Total force =     0.374611     Total SCF correction =     0.000584
  @ DRIVER MODE: Message from server: STATUS
  @ DRIVER MODE: Message from server: GETFORCE
  @ DRIVER MODE: Returning v,forces,stress,ensemble

     Writing output data file ./calc.save/
  @ DRIVER MODE: Message from server: EXIT
  @ DRIVE MODE: Exiting

     General routines

     Parallel routines

   This run was terminated on:  23:56:51  15Sep2021

   JOB DONE.