     Program PWSCF v.6.7GPU starts on 18Oct2021 at 18:31:16

     R & G space division:  proc/nbgrp/npool/nimage =       8
     Reading input from /storage/home/hcoda1/3/ntian30/research/carbon/CxH_vib/Thiel_calc/ads_slab/NNH2_perslab/out_0013/pw.inp
Warning: card &CELL ignored
Warning: card   CELL_DYNAMICS='IPI', ignored
Warning: card / ignored

     Current dimensions of program PWSCF are:
     Max number of different atomic species (ntypx) = 10
     Max number of k-points (npk) =  40000
     Max angular momentum in pseudopotentials (lmaxx) =  3
     Presently no symmetry can be used with electric field

     Message from routine cell_base_init:
     DEPRECATED: use true lattice parameter, not A to a.u. conversion factor

     IMPORTANT: XC functional enforced from input :
     Exchange-correlation= BEEF-VDW
                           (   1   4  43  14   2   0   0)
     Any further DFT definition will be discarded
     Please, verify this is what you really want

  @ DRIVER MODE: Connecting to
 qe_1139763_3255132.sched-torque.pace.gatech.edudvga8q19_scratch
  using UNIX socket
  @ DRIVER MODE: Message from server: STATUS
  @ DRIVER MODE: Message from server: INIT
  @ DRIVER MODE: Receiving replica           0          -1
  @ DRIVER MODE: Receiving encoded integer          25
  @ DRIVER MODE:  SCF:  T  FORCE:  T  STRESS:  F  VC:  F  ENSEMBLE:  F
  @ DRIVER MODE:  SCF:  T  FORCE:  T  STRESS:  F  VC:  F  ENSEMBLE:  F

     Using Slab Decomposition

     bravais-lattice index     =            0
     lattice parameter (alat)  =       1.8897  a.u.
     unit-cell volume          =    9988.4706 (a.u.)^3
     number of atoms/cell      =           57
     number of atomic types    =            4
     number of electrons       =       438.00
     number of Kohn-Sham states=          229
     kinetic-energy cutoff     =      29.3995  Ry
     charge density cutoff     =     293.9946  Ry
     scf convergence threshold =      7.3E-08
     mixing beta               =       0.0500
     number of iterations used =            8  plain     mixing
     Exchange-correlation= BEEF-VDW
                           (   1   4  43  14   2   0   0)

     celldm(1)=   1.889726  celldm(2)=   0.000000  celldm(3)=   0.000000
     celldm(4)=   0.000000  celldm(5)=   0.000000  celldm(6)=   0.000000

     crystal axes: (cart. coord. in units of alat)
               a(1) = (   6.579727   0.000000   0.000000 )
               a(2) = (  -0.001163   8.942395   0.000000 )
               a(3) = (   0.000000   0.000000  25.155947 )

     reciprocal axes: (cart. coord. in units 2 pi/alat)
               b(1) = (  0.151982  0.000020  0.000000 )
               b(2) = (  0.000000  0.111827  0.000000 )
               b(3) = (  0.000000  0.000000  0.039752 )

     PseudoPot. # 1 for O  read from file:
     /storage/coda1/p-amedford6/0/shared/rich_project_chbe-medford/medford-share/data/pseudos_module/espresso/nninc/pbe/van/O.UPF
     MD5 check sum: 78c19812648e8988a0fe644b0f25305e
     Pseudo is Ultrasoft, Zval =  6.0
     Generated by new atomic code, or converted to UPF format
     Using radial grid of  737 points,  4 beta functions with:
                l(1) =   0
                l(2) =   0
                l(3) =   1
                l(4) =   1
     Q(r) pseudized with  8 coefficients,  rinner =    0.800   0.800   0.800

     PseudoPot. # 2 for Ti read from file:
     /storage/coda1/p-amedford6/0/shared/rich_project_chbe-medford/medford-share/data/pseudos_module/espresso/nninc/pbe/van/Ti.UPF
     MD5 check sum: 8e4df49b7f0d34bbd5052bf3f5ea0213
     Pseudo is Ultrasoft, Zval = 12.0
     Generated by new atomic code, or converted to UPF format
     Using radial grid of  851 points,  6 beta functions with:
                l(1) =   0
                l(2) =   0
                l(3) =   1
                l(4) =   1
                l(5) =   2
                l(6) =   2
     Q(r) pseudized with  8 coefficients,  rinner =    1.000   1.000   1.000
                                                       1.000   1.000

     PseudoPot. # 3 for H  read from file:
     /storage/coda1/p-amedford6/0/shared/rich_project_chbe-medford/medford-share/data/pseudos_module/espresso/nninc/pbe/van/H.UPF
     MD5 check sum: b5ee9d7bfd3a09ee7748110bda690ff7
     Pseudo is Ultrasoft, Zval =  1.0
     Generated by new atomic code, or converted to UPF format
     Using radial grid of  615 points,  1 beta functions with:
                l(1) =   0
     Q(r) pseudized with  8 coefficients,  rinner =    0.800

     PseudoPot. # 4 for N  read from file:
     /storage/coda1/p-amedford6/0/shared/rich_project_chbe-medford/medford-share/data/pseudos_module/espresso/nninc/pbe/van/N.UPF
     MD5 check sum: 90d10febe142ad51ac9d5be1deb811c4
     Pseudo is Ultrasoft, Zval =  5.0
     Generated by new atomic code, or converted to UPF format
     Using radial grid of  729 points,  4 beta functions with:
                l(1) =   0
                l(2) =   0
                l(3) =   1
                l(4) =   1
     Q(r) pseudized with  8 coefficients,  rinner =    0.800   0.800   0.800

     atomic species   valence    mass     pseudopotential
        O1             6.00    15.99900     O ( 1.00)
        Ti1           12.00    47.86700     Ti( 1.00)
        H1             1.00     1.00800     H ( 1.00)
        N1             5.00    14.00700     N ( 1.00)

     No symmetry found

   Cartesian axes

     site n.     atom                  positions (alat units)
         1           O1  tau(   1) = (   0.0007354   0.0005023  10.5931620  )
         2           O1  tau(   2) = (   3.2894307   8.9151027  13.8626301  )
         3           O1  tau(   3) = (   6.5785074   8.9029937  17.1811234  )
         4           O1  tau(   4) = (   0.0006271   0.0005054   7.9858123  )
         5           O1  tau(   5) = (   3.2894531   8.9103059  11.1803102  )
         6           O1  tau(   6) = (   0.0001665   0.0898506  14.4854618  )
         7           O1  tau(   7) = (   1.9868534   1.4903216   9.2879459  )
         8           O1  tau(   8) = (   5.2077972   1.5880252  12.5310617  )
         9           O1  tau(   9) = (   2.0270748   1.5591520  16.0154840  )
        10           Ti1 tau(  10) = (   0.0007404   1.4906270   9.2895810  )
        11           Ti1 tau(  11) = (   3.2905041   1.3137855  12.4866761  )
        12           Ti1 tau(  12) = (   0.0002678   1.1980239  15.9503415  )
        13           O1  tau(  13) = (   4.5942328   1.4918067   9.2879030  )
        14           O1  tau(  14) = (   1.3724876   1.5877008  12.5310667  )
        15           O1  tau(  15) = (   4.5530873   1.5595562  16.0152608  )
        16           Ti1 tau(  16) = (   3.2902859   2.9801868   9.2893338  )
        17           Ti1 tau(  17) = (   0.0008780   2.7802750  12.4897906  )
        18           Ti1 tau(  18) = (   3.2898779   2.8637395  15.6733051  )
        19           O1  tau(  19) = (   0.0003479   2.9813005  10.5931620  )
        20           O1  tau(  20) = (   3.2899356   2.9525523  13.8505550  )
        21           O1  tau(  21) = (   0.0002396   2.9813036   7.9858123  )
        22           O1  tau(  22) = (   3.2901204   2.9601344  11.1763257  )
        23           O1  tau(  23) = (   0.0004730   3.0483324  14.4991547  )
        24           O1  tau(  24) = (   1.9864658   4.4711199   9.2879459  )
        25           O1  tau(  25) = (   5.2121867   4.5795871  12.5488104  )
        26           O1  tau(  26) = (   2.0380122   4.5167588  15.9960207  )
        27           Ti1 tau(  27) = (   0.0003529   4.4714252   9.2895810  )
        28           Ti1 tau(  28) = (   3.2900145   4.2996056  12.4866231  )
        29           Ti1 tau(  29) = (   0.0009039   4.3359069  15.7637737  )
        30           O1  tau(  30) = (   4.5938453   4.4726049   9.2879030  )
        31           O1  tau(  31) = (   1.3674610   4.5798255  12.5489393  )
        32           O1  tau(  32) = (   4.5418257   4.5152924  15.9960624  )
        33           Ti1 tau(  33) = (   3.2898983   5.9609850   9.2893338  )
        34           Ti1 tau(  34) = (   0.0004239   5.7833099  12.5042391  )
        35           Ti1 tau(  35) = (   3.2910320   5.8371074  15.6885635  )
        36           O1  tau(  36) = (  -0.0000397   5.9620987  10.5931620  )
        37           O1  tau(  37) = (   3.2901811   5.9367453  13.8700337  )
        38           O1  tau(  38) = (  -0.0004039   5.8805593  17.2333871  )
        39           O1  tau(  39) = (  -0.0001480   5.9621018   7.9858123  )
        40           O1  tau(  40) = (   3.2898277   5.9371809  11.1794419  )
        41           O1  tau(  41) = (  -0.0006310   6.0052776  14.6075531  )
        42           O1  tau(  42) = (   1.9860782   7.4519181   9.2879459  )
        43           O1  tau(  43) = (   5.2131951   7.5341658  12.5551123  )
        44           O1  tau(  44) = (   2.0327247   7.5116181  16.0212389  )
        45           Ti1 tau(  45) = (  -0.0000347   7.4522234   9.2895810  )
        46           Ti1 tau(  46) = (   3.2898580   7.2746474  12.4940400  )
        47           Ti1 tau(  47) = (  -0.0002525   7.1929251  16.1233257  )
        48           O1  tau(  48) = (   4.5934577   7.4534031   9.2879030  )
        49           O1  tau(  49) = (   1.3658113   7.5340457  12.5553947  )
        50           O1  tau(  50) = (   4.5451309   7.5107891  16.0219122  )
        51           Ti1 tau(  51) = (   3.2895107   8.9417832   9.2893338  )
        52           Ti1 tau(  52) = (   0.0004043   8.7442612  12.5370553  )
        53           Ti1 tau(  53) = (   3.2888508   8.8110328  15.6839088  )
        54           H1  tau(  54) = (   6.5771461   3.9800110  18.9428080  )
        55           N1  tau(  55) = (   6.5778577   3.0643241  18.4967573  )
        56           N1  tau(  56) = (   6.5697483   2.9855599  17.2125610  )
        57           H1  tau(  57) = (   6.5772452   2.2208360  19.0633684  )

     number of k points=    10  Fermi-Dirac smearing, width (Ry)=  0.0073
                       cart. coord. in units 2pi/alat
        k(    1) = (   0.0000000   0.0000000   0.0000000), wk =   0.1250000
        k(    2) = (   0.0000000   0.0279567   0.0000000), wk =   0.2500000
        k(    3) = (   0.0000000  -0.0559134   0.0000000), wk =   0.1250000
        k(    4) = (   0.0379955   0.0000049   0.0000000), wk =   0.2500000
        k(    5) = (   0.0379955   0.0279617   0.0000000), wk =   0.2500000
        k(    6) = (   0.0379955  -0.0559085   0.0000000), wk =   0.2500000
        k(    7) = (   0.0379955  -0.0279518   0.0000000), wk =   0.2500000
        k(    8) = (  -0.0759910  -0.0000099   0.0000000), wk =   0.1250000
        k(    9) = (  -0.0759910   0.0279468   0.0000000), wk =   0.2500000
        k(   10) = (  -0.0759910  -0.0559233   0.0000000), wk =   0.1250000

     Initial potential from superposition of free atoms

     starting charge  419.99912, renormalised to  438.00000

     negative rho (up, down):  3.820E-02 0.000E+00

     %%%%%%%%%%%%%%%%%%%%%%%%%%%%%%%%%%%%%%%%%%%%%%%%%%%%%%%%%%%%%%%%%%%%%%%%
     %                                                                      %
     % You are using vdW-DF, which was implemented by the Thonhauser group. %
     % Please cite the following two papers that made this development      %
     % possible and the two reviews that describe the various versions:     %
     %                                                                      %
     %   T. Thonhauser et al., PRL 115, 136402 (2015).                      %
     %   T. Thonhauser et al., PRB 76, 125112 (2007).                       %
     %   K. Berland et al., Rep. Prog. Phys. 78, 066501 (2015).             %
     %   D.C. Langreth et al., J. Phys.: Condens. Matter 21, 084203 (2009). %
     %                                                                      %
     %                                                                      %
     % If you are calculating the stress with vdW-DF, please also cite:     %
     %                                                                      %
     %   R. Sabatini et al., J. Phys.: Condens. Matter 24, 424209 (2012).   %
     %                                                                      %
     %%%%%%%%%%%%%%%%%%%%%%%%%%%%%%%%%%%%%%%%%%%%%%%%%%%%%%%%%%%%%%%%%%%%%%%%

     Adding external electric field

     Computed dipole along edir(3) :
        Dipole               -4.0077 Ry au,        -10.1866 Debye
        Dipole field         -0.0050 Ry au,

        Potential amp.        0.4674 Ry
        Total length         46.3494 bohr

     Starting wfcs are  330 atomic wfcs
  @ DRIVER MODE: Message from server: STATUS
  @ DRIVER MODE: Message from server: POSDATA
  @ DRIVER MODE: Reading and sharing cell
  @ DRIVER MODE: Reading and sharing positions
  @ DRIVER MODE: Received positions

     Self-consistent Calculation

     iteration #  1     ecut=    29.40 Ry     beta= 0.05
     Davidson diagonalization with overlap
     c_bands:  2 eigenvalues not converged
     c_bands:  4 eigenvalues not converged
     c_bands:  1 eigenvalues not converged
     c_bands:  4 eigenvalues not converged
     c_bands:  1 eigenvalues not converged
     c_bands:  1 eigenvalues not converged
     ethr =  1.00E-05,  avg # of iterations = 25.3

[...]

     total energy              =   -3291.57981925 Ry
     estimated scf accuracy    <      28.48408659 Ry

     iteration #  2     ecut=    29.40 Ry     beta= 0.05
     Davidson diagonalization with overlap
     ethr =  6.50E-03,  avg # of iterations =  4.7

[...]

     iteration # 35     ecut=    29.40 Ry     beta= 0.05
     Davidson diagonalization with overlap
     c_bands:  2 eigenvalues not converged
     c_bands:  1 eigenvalues not converged
     c_bands:  1 eigenvalues not converged
     c_bands:  1 eigenvalues not converged
     ethr =  1.64E-06,  avg # of iterations = 14.2

[...]

     total energy              =   -3290.76831396 Ry
     estimated scf accuracy    <       0.00000027 Ry

     iteration # 61     ecut=    29.40 Ry     beta= 0.05
     Davidson diagonalization with overlap
     ethr =  5.13E-11,  avg # of iterations =  6.1

     negative rho (up, down):  3.581E-02 0.000E+00

     Adding external electric field

     Computed dipole along edir(3) :
        Dipole                1.4099 Ry au,          3.5836 Debye
        Dipole field          0.0018 Ry au,

        Potential amp.       -0.1644 Ry
        Total length         46.3494 bohr

     End of self-consistent calculation

          k = 0.0000 0.0000 0.0000 ( 26871 PWs)   bands (ev):

   -58.1000 -58.0757 -58.0727 -57.9811 -57.9574 -57.9516 -57.8985 -57.8647
   -57.8327 -57.6322 -57.5518 -57.5084 -57.0197 -56.9783 -56.9558 -56.8028
   -56.7753 -56.7652 -34.4590 -34.4571 -34.4546 -34.4434 -34.4403 -34.3915
   -34.3884 -34.3176 -34.2976 -34.2745 -34.2684 -34.2435 -34.2392 -34.2160
   -34.2120 -34.2063 -34.1995 -34.1976 -34.1811 -34.1604 -34.1553 -34.1456
   -34.1446 -34.1354 -34.0923 -34.0818 -34.0459 -34.0269 -33.9951 -33.9147
   -33.8477 -33.8056 -33.7979 -33.7899 -33.7324 -33.6604 -33.5321 -33.4368
   -33.2916 -33.2700 -33.2507 -33.2395 -33.2264 -33.2174 -33.1422 -33.1364
   -33.1201 -33.1118 -33.1083 -33.0918 -33.0141 -32.9533 -32.9396 -32.8131
   -20.4751 -18.8329 -18.3407 -18.2134 -18.2077 -18.1892 -18.1477 -18.1403
   -18.0721 -17.8258 -17.6988 -17.6774 -17.6743 -17.6450 -17.5732 -17.5710
   -17.5437 -17.5110 -17.4982 -17.4737 -17.3964 -17.3924 -17.3209 -17.2896
   -17.2354 -17.1648 -17.1165 -17.0888 -17.0192 -16.8985 -16.7212 -16.5741
   -16.4266 -15.2742 -15.2291 -15.2234 -12.9660  -9.1857  -6.9537  -6.1814
    -5.8700  -5.7471  -5.7238  -5.4583  -5.4461  -5.3712  -5.3613  -5.3151
    -5.2325  -5.2286  -5.2172  -5.2142  -5.1752  -5.0464  -5.0334  -4.9003
    -4.8448  -4.8277  -4.8133  -4.7891  -4.7307  -4.7159  -4.6584  -4.6477
    -4.6275  -4.6162  -4.6072  -4.5104  -4.4719  -4.3776  -4.3514  -4.3274
    -4.3098  -4.2594  -4.1928  -4.1468  -4.1356  -4.0703  -4.0454  -3.9755
    -3.9503  -3.9461  -3.9252  -3.8911  -3.8382  -3.6564  -3.6328  -3.5477
    -3.4197  -3.3510  -3.2668  -3.2569  -3.1789  -3.1673  -3.1448  -3.1333
    -3.1240  -3.1133  -3.0496  -2.9681  -2.9398  -2.8947  -2.8747  -2.8637
    -2.8346  -2.6971  -2.6968  -2.6869  -2.6766  -2.6271  -2.6220  -2.5846
    -2.5810  -2.5776  -2.4769  -2.3894  -2.3599  -2.3464  -2.3106  -2.2613
    -2.1911  -2.1803  -2.1545  -2.0672  -1.9874  -1.9588  -1.7863  -1.7373
    -1.6889  -1.6472  -1.6447  -1.6217  -1.5702  -1.4772  -1.4667  -1.4103
    -1.3597  -1.2022  -0.9957  -0.7226  -0.5017  -0.4912  -0.4645  -0.2939
    -0.2821  -0.1878   0.9412   0.9619   1.2037   1.4190   1.4232   1.5157
     1.6914   1.7068   1.7182   1.7345   1.7702

[...]

          k = 0.0380-0.0280 0.0000 ( 26873 PWs)   bands (ev):

[...]

          k =-0.0760-0.0000 0.0000 ( 26902 PWs)   bands (ev):

[...]

          k =-0.0760-0.0559 0.0000 ( 26868 PWs)   bands (ev):

   -58.0930 -58.0897 -58.0657 -57.9754 -57.9688 -57.9459 -57.8973 -57.8670
   -57.8316 -57.6319 -57.5524 -57.5080 -57.0189 -56.9805 -56.9544 -56.7999
   -56.7822 -56.7611 -34.5392 -34.5203 -34.4480 -34.4454 -34.4029 -34.3878
   -34.2961 -34.2785 -34.2582 -34.2552 -34.2437 -34.2417 -34.2294 -34.2272
   -34.2236 -34.2216 -34.2187 -34.2138 -34.1760 -34.1729 -34.1691 -34.1399
   -34.1333 -34.1128 -34.1066 -34.0981 -34.0754 -34.0367 -33.9267 -33.9104
   -33.8651 -33.8464 -33.8061 -33.7966 -33.7331 -33.6607 -33.5751 -33.3556
   -33.2966 -33.2725 -33.2530 -33.2495 -33.2201 -33.2170 -33.1919 -33.1642
   -33.1435 -33.1274 -33.1073 -33.0007 -32.9824 -32.9256 -32.9174 -32.9012
   -20.4744 -18.5511 -18.5418 -18.2347 -18.1109 -18.0963 -17.9486 -17.8909
   -17.8620 -17.8571 -17.8084 -17.7976 -17.7630 -17.7449 -17.6578 -17.6529
   -17.5969 -17.5883 -17.5835 -17.5510 -17.5359 -17.5206 -17.3215 -17.2657
   -17.1805 -17.1484 -17.1267 -17.0116 -16.9947 -16.9598 -16.7333 -16.5736
   -16.3946 -15.2820 -15.2738 -15.1613 -12.9643  -9.1862  -6.9118  -5.8542
    -5.8454  -5.7396  -5.7021  -5.4474  -5.2133  -5.2008  -5.1939  -5.1731
    -5.1619  -5.1115  -5.0910  -5.0861  -5.0453  -5.0338  -5.0020  -4.9715
    -4.8935  -4.8609  -4.8542  -4.8478  -4.8376  -4.7833  -4.7092  -4.6908
    -4.6624  -4.6368  -4.5828  -4.5164  -4.4674  -4.4360  -4.4121  -4.3245
    -4.2753  -4.2629  -4.0936  -4.0727  -4.0695  -3.9879  -3.9551  -3.8870
    -3.8494  -3.7592  -3.5700  -3.5686  -3.5614  -3.5566  -3.4818  -3.4686
    -3.4538  -3.4339  -3.3752  -3.3480  -3.3432  -3.3226  -3.2665  -3.2280
    -3.1478  -3.0906  -3.0879  -3.0803  -3.0571  -3.0484  -3.0263  -3.0022
    -2.9769  -2.9440  -2.9049  -2.8661  -2.8511  -2.7865  -2.7161  -2.6826
    -2.6626  -2.6458  -2.6255  -2.5341  -2.5027  -2.4009  -2.3764  -2.2667
    -2.1346  -2.0155  -1.9803  -1.9647  -1.9635  -1.8833  -1.8175  -1.8074
    -1.7693  -1.7148  -1.6413  -1.6398  -1.5767  -1.5040  -1.3352  -1.3266
    -1.3122  -1.2691  -1.1552  -1.1380  -0.7310  -0.4177  -0.4064  -0.3681
    -0.3148  -0.3106   0.8590   1.1318   1.2179   1.2335   1.3262   1.3380
     1.3892   1.4991   1.5584   1.5702   1.7544

     the Fermi energy is     0.9506 ev

!    total energy              =   -3290.76834738 Ry
     estimated scf accuracy    <       0.00000003 Ry
     smearing contrib. (-TS)   =      -0.02527467 Ry
     internal energy E=F+TS    =   -3290.74307271 Ry

     The total energy is F=E-TS. E is the sum of the following terms:
     one-electron contribution =  -34651.75508306 Ry
     hartree contribution      =   17388.88664183 Ry
     xc contribution           =    -540.56782390 Ry
     ewald contribution        =   14512.69069164 Ry
     electric field correction =       0.00250080 Ry

     convergence has been achieved in  61 iterations

     Forces acting on atoms (cartesian axes, Ry/au):

     atom    1 type  1   force =     0.00005565    0.00574109    0.05230366
     atom    2 type  1   force =    -0.00007349   -0.00107702   -0.00803795
     atom    3 type  1   force =     0.00005911   -0.00577386   -0.00142617
     atom    4 type  1   force =     0.00005072    0.00074930    0.10112662
     atom    5 type  1   force =    -0.00005773   -0.00053874    0.00807299
     atom    6 type  1   force =     0.00001189   -0.00069289    0.00119722
     atom    7 type  1   force =     0.07734237   -0.00001635   -0.03167428
     atom    8 type  1   force =     0.00602913   -0.02644656    0.00063307
     atom    9 type  1   force =     0.00675951   -0.01958173    0.00232478
     atom   10 type  2   force =    -0.00008328   -0.01108556   -0.16208579
     atom   11 type  2   force =     0.00029758    0.01947801   -0.00148115
     atom   12 type  2   force =    -0.00026363    0.02602991   -0.00098557
     atom   13 type  1   force =    -0.07744224   -0.00045762   -0.03164070
     atom   14 type  1   force =    -0.00577768   -0.02673445    0.00064517
     atom   15 type  1   force =    -0.00772270   -0.01989034    0.00175913
     atom   16 type  2   force =     0.00011861   -0.00266642    0.06039565
     atom   17 type  2   force =    -0.00051221    0.03271475    0.00353612
     atom   18 type  2   force =     0.00032524    0.01781453   -0.00032579
     atom   19 type  1   force =     0.00005701    0.00935159    0.05079899
     atom   20 type  1   force =    -0.00007021   -0.00146481   -0.00570957
     atom   21 type  1   force =     0.00004643    0.00264271    0.10242026
     atom   22 type  1   force =    -0.00005148   -0.00072451    0.00788851
     atom   23 type  1   force =     0.00004277   -0.00212075    0.00104662
     atom   24 type  1   force =     0.07606776   -0.00029565   -0.03166062
     atom   25 type  1   force =     0.00669254   -0.02614568    0.00079451
     atom   26 type  1   force =     0.00539684   -0.01975314    0.00076289
     atom   27 type  2   force =    -0.00006267   -0.00162666   -0.16991848
     atom   28 type  2   force =     0.00031808    0.02056725   -0.00170991
     atom   29 type  2   force =    -0.00064362    0.02393300    0.00174061
     atom   30 type  1   force =    -0.07617088   -0.00074715   -0.03162700
     atom   31 type  1   force =    -0.00641480   -0.02645302    0.00081012
     atom   32 type  1   force =    -0.00614968   -0.01908328    0.00023091
     atom   33 type  2   force =     0.00011263   -0.00117352    0.06157818
     atom   34 type  2   force =    -0.00054843    0.03174927    0.00376810
     atom   35 type  2   force =     0.00019125    0.02584958    0.00303903
     atom   36 type  1   force =     0.00004875    0.00404956    0.05967554
     atom   37 type  1   force =    -0.00006650   -0.00141855   -0.00682818
     atom   38 type  1   force =     0.00005196   -0.00311211   -0.00222824
     atom   39 type  1   force =     0.00005453   -0.00126298    0.10264221
     atom   40 type  1   force =    -0.00005821   -0.00077586    0.00709212
     atom   41 type  1   force =     0.00008123   -0.00323011    0.00247542
     atom   42 type  1   force =     0.07734946   -0.00092112   -0.03227076
     atom   43 type  1   force =     0.00825899   -0.02793798    0.00022498
     atom   44 type  1   force =     0.00768297   -0.02188760    0.00211428
     atom   45 type  2   force =    -0.00008839    0.00750027   -0.16110751
     atom   46 type  2   force =     0.00035173    0.02098770   -0.00161802
     atom   47 type  2   force =    -0.00009839    0.02093972   -0.00087963
     atom   48 type  1   force =    -0.07744944   -0.00136725   -0.03224700
     atom   49 type  1   force =    -0.00798407   -0.02823573    0.00024692
     atom   50 type  1   force =    -0.00773223   -0.02185816    0.00210271
     atom   51 type  2   force =     0.00011031   -0.00314902    0.06196523
     atom   52 type  2   force =    -0.00054793    0.03310543    0.00410607
     atom   53 type  2   force =     0.00013535    0.02976225    0.00538058
     atom   54 type  3   force =     0.00008055    0.00029375    0.00038446
     atom   55 type  4   force =    -0.00057164    0.00083918   -0.00160876
     atom   56 type  4   force =     0.00249250   -0.00483603    0.00106263
     atom   57 type  3   force =    -0.00003192    0.00044338    0.00072479

     Total force =     0.436430     Total SCF correction =     0.000579
  @ DRIVER MODE: Message from server: STATUS
  @ DRIVER MODE: Message from server: GETFORCE
  @ DRIVER MODE: Returning v,forces,stress,ensemble

     Writing output data file ./calc.save/
  @ DRIVER MODE: Message from server: EXIT
  @ DRIVE MODE: Exiting

     General routines

     Parallel routines

   This run was terminated on:  19: 6: 4  18Oct2021

   JOB DONE.