     Program PWSCF v.6.7GPU starts on 16Sep2021 at  7: 4:15

     R & G space division:  proc/nbgrp/npool/nimage =      10
     Reading input from /storage/home/hcoda1/3/ntian30/research/carbon/CxH_vib/H2O_calc/ads_slab/CH3NH2NHH2O_c/out_0043/pw.inp
Warning: card &CELL ignored
Warning: card   CELL_DYNAMICS='IPI', ignored
Warning: card / ignored

     Current dimensions of program PWSCF are:
     Max number of different atomic species (ntypx) = 10
     Max number of k-points (npk) =  40000
     Max angular momentum in pseudopotentials (lmaxx) =  3
     Presently no symmetry can be used with electric field

     Message from routine cell_base_init:
     DEPRECATED: use true lattice parameter, not A to a.u. conversion factor

     IMPORTANT: XC functional enforced from input :
     Exchange-correlation= BEEF-VDW
                           (   1   4  43  14   2   0   0)
     Any further DFT definition will be discarded
     Please, verify this is what you really want

  @ DRIVER MODE: Connecting to
 qe_1139763_2852614.sched-torque.pace.gatech.eduto823mff_scratch
  using UNIX socket
  @ DRIVER MODE: Message from server: STATUS
  @ DRIVER MODE: Message from server: INIT
  @ DRIVER MODE: Receiving replica           0          -1
  @ DRIVER MODE: Receiving encoded integer          25
  @ DRIVER MODE:  SCF:  T  FORCE:  T  STRESS:  F  VC:  F  ENSEMBLE:  F
  @ DRIVER MODE:  SCF:  T  FORCE:  T  STRESS:  F  VC:  F  ENSEMBLE:  F

     Using Slab Decomposition

     bravais-lattice index     =            0
     lattice parameter (alat)  =       1.8897  a.u.
     unit-cell volume          =    6658.9804 (a.u.)^3
     number of atoms/cell      =           59
     number of atomic types    =            5
     number of electrons       =       406.00
     number of Kohn-Sham states=          213
     kinetic-energy cutoff     =      29.3995  Ry
     charge density cutoff     =     293.9946  Ry
     scf convergence threshold =      7.3E-08
     mixing beta               =       0.0500
     number of iterations used =            8  plain     mixing
     Exchange-correlation= BEEF-VDW
                           (   1   4  43  14   2   0   0)

     celldm(1)=   1.889726  celldm(2)=   0.000000  celldm(3)=   0.000000
     celldm(4)=   0.000000  celldm(5)=   0.000000  celldm(6)=   0.000000

     crystal axes: (cart. coord. in units of alat)
               a(1) = (   6.579727   0.000000   0.000000 )
               a(2) = (  -0.000775   5.961596   0.000000 )
               a(3) = (   0.000000   0.000000  25.155947 )

     reciprocal axes: (cart. coord. in units 2 pi/alat)
               b(1) = (  0.151982  0.000020  0.000000 )
               b(2) = (  0.000000  0.167740  0.000000 )
               b(3) = (  0.000000  0.000000  0.039752 )

     PseudoPot. # 1 for Ti read from file:
     /storage/coda1/p-amedford6/0/shared/rich_project_chbe-medford/medford-share/data/pseudos_module/espresso/nninc/pbe/van/Ti.UPF
     MD5 check sum: 8e4df49b7f0d34bbd5052bf3f5ea0213
     Pseudo is Ultrasoft, Zval = 12.0
     Generated by new atomic code, or converted to UPF format
     Using radial grid of  851 points,  6 beta functions with:
                l(1) =   0
                l(2) =   0
                l(3) =   1
                l(4) =   1
                l(5) =   2
                l(6) =   2
     Q(r) pseudized with  8 coefficients,  rinner =    1.000   1.000   1.000
                                                       1.000   1.000

     PseudoPot. # 2 for O  read from file:
     /storage/coda1/p-amedford6/0/shared/rich_project_chbe-medford/medford-share/data/pseudos_module/espresso/nninc/pbe/van/O.UPF
     MD5 check sum: 78c19812648e8988a0fe644b0f25305e
     Pseudo is Ultrasoft, Zval =  6.0
     Generated by new atomic code, or converted to UPF format
     Using radial grid of  737 points,  4 beta functions with:
                l(1) =   0
                l(2) =   0
                l(3) =   1
                l(4) =   1
     Q(r) pseudized with  8 coefficients,  rinner =    0.800   0.800   0.800

     PseudoPot. # 3 for N  read from file:
     /storage/coda1/p-amedford6/0/shared/rich_project_chbe-medford/medford-share/data/pseudos_module/espresso/nninc/pbe/van/N.UPF
     MD5 check sum: 90d10febe142ad51ac9d5be1deb811c4
     Pseudo is Ultrasoft, Zval =  5.0
     Generated by new atomic code, or converted to UPF format
     Using radial grid of  729 points,  4 beta functions with:
                l(1) =   0
                l(2) =   0
                l(3) =   1
                l(4) =   1
     Q(r) pseudized with  8 coefficients,  rinner =    0.800   0.800   0.800

     PseudoPot. # 4 for C  read from file:
     /storage/coda1/p-amedford6/0/shared/rich_project_chbe-medford/medford-share/data/pseudos_module/espresso/nninc/pbe/van/C.UPF
     MD5 check sum: 1a69bf6b8db32088f5b2163dbdb77a27
     Pseudo is Ultrasoft, Zval =  4.0
     Generated by new atomic code, or converted to UPF format
     Using radial grid of  721 points,  4 beta functions with:
                l(1) =   0
                l(2) =   0
                l(3) =   1
                l(4) =   1
     Q(r) pseudized with  8 coefficients,  rinner =    0.800   0.800   0.800

     PseudoPot. # 5 for H  read from file:
     /storage/coda1/p-amedford6/0/shared/rich_project_chbe-medford/medford-share/data/pseudos_module/espresso/nninc/pbe/van/H.UPF
     MD5 check sum: b5ee9d7bfd3a09ee7748110bda690ff7
     Pseudo is Ultrasoft, Zval =  1.0
     Generated by new atomic code, or converted to UPF format
     Using radial grid of  615 points,  1 beta functions with:
                l(1) =   0
     Q(r) pseudized with  8 coefficients,  rinner =    0.800

     atomic species   valence    mass     pseudopotential
        Ti1           12.00    47.86700     Ti( 1.00)
        O1             6.00    15.99900     O ( 1.00)
        N1             5.00    14.00700     N ( 1.00)
        C1             4.00    12.01100     C ( 1.00)
        H1             1.00     1.00800     H ( 1.00)

     No symmetry found

   Cartesian axes

     site n.     atom                  positions (alat units)
         1           Ti1 tau(   1) = (   0.0004258   2.9801865   6.0000000  )
         2           Ti1 tau(   2) = (   3.2906075   1.4906267   6.0002472  )
         3           O1  tau(   3) = (   0.0006271   0.0005054   7.9858123  )
         4           O1  tau(   4) = (   3.2906025   0.0005020   7.3038282  )
         5           O1  tau(   5) = (   4.5942328   1.4918067   9.2879030  )
         6           O1  tau(   6) = (   1.9868534   1.4903216   9.2879459  )
         7           Ti1 tau(   7) = (   3.2907910   2.8959150   9.1758416  )
         8           Ti1 tau(   8) = (   0.0015273   1.4827037   9.2680791  )
         9           O1  tau(   9) = (   3.2795193   0.0050042  11.3600746  )
        10           O1  tau(  10) = (   0.0116148   5.9584955  10.6183126  )
        11           O1  tau(  11) = (   1.2764768   1.4833402  12.6625751  )
        12           O1  tau(  12) = (   5.2691860   1.4824858  12.6730715  )
        13           Ti1 tau(  13) = (   6.5785005   2.9712200  12.5432933  )
        14           Ti1 tau(  14) = (   3.2815129   1.4861921  12.5133659  )
        15           O1  tau(  15) = (   0.0084525   5.9333602  14.7514412  )
        16           O1  tau(  16) = (   3.2474592   5.9449689  14.0025778  )
        17           O1  tau(  17) = (   4.5272503   1.5270814  16.0535473  )
        18           O1  tau(  18) = (   2.0088677   1.5398698  16.1918835  )
        19           Ti1 tau(  19) = (   3.2695027   3.0127370  15.7044713  )
        20           Ti1 tau(  20) = (   6.4897317   1.5391078  15.7731133  )
        21           O1  tau(  21) = (   3.2904802   0.0005063   4.7018136  )
        22           O1  tau(  22) = (   6.4943121   0.0104379  17.3746616  )
        23           O1  tau(  23) = (   1.3043587   1.4918075   6.0039043  )
        24           O1  tau(  24) = (   5.2767064   1.4903225   6.0039473  )
        25           Ti1 tau(  25) = (   0.0000382   5.9609847   6.0000000  )
        26           Ti1 tau(  26) = (   3.2902200   4.4714249   6.0002472  )
        27           O1  tau(  27) = (   0.0002396   2.9813036   7.9858123  )
        28           O1  tau(  28) = (   3.2902150   2.9813002   7.3038282  )
        29           O1  tau(  29) = (   4.5938453   4.4726049   9.2879030  )
        30           O1  tau(  30) = (   1.9864658   4.4711199   9.2879459  )
        31           Ti1 tau(  31) = (   3.2891106   5.8743827   9.1763621  )
        32           Ti1 tau(  32) = (   0.0006254   4.4649316   9.2693709  )
        33           O1  tau(  33) = (   3.2806081   2.9711243  11.3509633  )
        34           O1  tau(  34) = (   0.0092240   2.9805883  10.6323155  )
        35           O1  tau(  35) = (   1.2760424   4.4718827  12.6381679  )
        36           O1  tau(  36) = (   5.2690016   4.4731519  12.6446470  )
        37           Ti1 tau(  37) = (   6.5708669   5.9382087  12.5160675  )
        38           Ti1 tau(  38) = (   3.2845625   4.4656782  12.4980923  )
        39           O1  tau(  39) = (   6.5779858   3.0049062  14.7590937  )
        40           O1  tau(  40) = (   3.2501146   3.0001303  13.9242794  )
        41           O1  tau(  41) = (   4.5300198   4.4412671  16.1793791  )
        42           O1  tau(  42) = (   2.0030354   4.4482434  16.2507355  )
        43           Ti1 tau(  43) = (   3.2558399   0.0045369  15.7947069  )
        44           Ti1 tau(  44) = (   0.0024851   4.6597080  16.1671864  )
        45           O1  tau(  45) = (   3.2900926   2.9813045   4.7018136  )
        46           O1  tau(  46) = (   1.3039711   4.4726057   6.0039043  )
        47           O1  tau(  47) = (   5.2763189   4.4711207   6.0039473  )
        48           N1  tau(  48) = (   0.8610865   2.3037131  18.4629187  )
        49           N1  tau(  49) = (   6.4642385   2.8627238  17.5618644  )
        50           C1  tau(  50) = (   1.1134797   3.0572184  19.7121060  )
        51           H1  tau(  51) = (   0.2160447   3.0254214  20.3281890  )
        52           H1  tau(  52) = (   1.9467850   2.5864873  20.2353232  )
        53           H1  tau(  53) = (   1.3463996   4.0866186  19.4485780  )
        54           H1  tau(  54) = (   0.5832711   1.3114681  18.6183785  )
        55           H1  tau(  55) = (   5.5543591   2.7461405  18.0238738  )
        56           H1  tau(  56) = (   1.7079168   2.1891883  17.8702682  )
        57           O1  tau(  57) = (   4.0734316   0.3075885  18.7765601  )
        58           H1  tau(  58) = (   4.9241673   0.1787741  18.2816895  )
        59           H1  tau(  59) = (   3.8734322   5.3936830  19.1372508  )

     number of k points=    10  Fermi-Dirac smearing, width (Ry)=  0.0073
                       cart. coord. in units 2pi/alat
        k(    1) = (   0.0000000   0.0000000   0.0000000), wk =   0.1250000
        k(    2) = (   0.0000000   0.0419351   0.0000000), wk =   0.2500000
        k(    3) = (   0.0000000  -0.0838702   0.0000000), wk =   0.1250000
        k(    4) = (   0.0379955   0.0000049   0.0000000), wk =   0.2500000
        k(    5) = (   0.0379955   0.0419400   0.0000000), wk =   0.2500000
        k(    6) = (   0.0379955  -0.0838652   0.0000000), wk =   0.2500000
        k(    7) = (   0.0379955  -0.0419301   0.0000000), wk =   0.2500000
        k(    8) = (  -0.0759910  -0.0000099   0.0000000), wk =   0.1250000
        k(    9) = (  -0.0759910   0.0419252   0.0000000), wk =   0.2500000
        k(   10) = (  -0.0759910  -0.0838800   0.0000000), wk =   0.1250000

     Initial potential from superposition of free atoms

     starting charge  389.99912, renormalised to  406.00000

     negative rho (up, down):  1.392E-02 0.000E+00

     %%%%%%%%%%%%%%%%%%%%%%%%%%%%%%%%%%%%%%%%%%%%%%%%%%%%%%%%%%%%%%%%%%%%%%%%
     %                                                                      %
     % You are using vdW-DF, which was implemented by the Thonhauser group. %
     % Please cite the following two papers that made this development      %
     % possible and the two reviews that describe the various versions:     %
     %                                                                      %
     %   T. Thonhauser et al., PRL 115, 136402 (2015).                      %
     %   T. Thonhauser et al., PRB 76, 125112 (2007).                       %
     %   K. Berland et al., Rep. Prog. Phys. 78, 066501 (2015).             %
     %   D.C. Langreth et al., J. Phys.: Condens. Matter 21, 084203 (2009). %
     %                                                                      %
     %                                                                      %
     % If you are calculating the stress with vdW-DF, please also cite:     %
     %                                                                      %
     %   R. Sabatini et al., J. Phys.: Condens. Matter 24, 424209 (2012).   %
     %                                                                      %
     %%%%%%%%%%%%%%%%%%%%%%%%%%%%%%%%%%%%%%%%%%%%%%%%%%%%%%%%%%%%%%%%%%%%%%%%

     Adding external electric field

     Computed dipole along edir(3) :
        Dipole              -15.6809 Ry au,        -39.8568 Debye
        Dipole field         -0.0296 Ry au,

        Potential amp.        2.7431 Ry
        Total length         46.3494 bohr

     Starting wfcs are  308 atomic wfcs
  @ DRIVER MODE: Message from server: STATUS
  @ DRIVER MODE: Message from server: POSDATA
  @ DRIVER MODE: Reading and sharing cell
  @ DRIVER MODE: Reading and sharing positions
  @ DRIVER MODE: Received positions

     Self-consistent Calculation

     iteration #  1     ecut=    29.40 Ry     beta= 0.05
     Davidson diagonalization with overlap
     c_bands:  2 eigenvalues not converged
     c_bands:  5 eigenvalues not converged
     c_bands:  2 eigenvalues not converged
     c_bands:  4 eigenvalues not converged
     c_bands:  4 eigenvalues not converged
     c_bands:  5 eigenvalues not converged
     c_bands:  5 eigenvalues not converged
     c_bands:  1 eigenvalues not converged
     ethr =  1.00E-05,  avg # of iterations = 22.5

[...]

     total energy              =   -2140.16029716 Ry
     estimated scf accuracy    <    9575.46168080 Ry

     iteration #  2     ecut=    29.40 Ry     beta= 0.05
     Davidson diagonalization with overlap
     ethr =  1.00E-02,  avg # of iterations = 31.6

[...]

     iteration # 61     ecut=    29.40 Ry     beta= 0.05
     Davidson diagonalization with overlap
     c_bands:  1 eigenvalues not converged
     ethr =  5.86E-11,  avg # of iterations = 10.2

[...]

     total energy              =   -2977.68478955 Ry
     estimated scf accuracy    <       0.00000008 Ry

     iteration # 65     ecut=    29.40 Ry     beta= 0.05
     Davidson diagonalization with overlap
     ethr =  1.87E-11,  avg # of iterations =  2.0

     negative rho (up, down):  1.243E-02 0.000E+00

     Adding external electric field

     Computed dipole along edir(3) :
        Dipole                1.6069 Ry au,          4.0844 Debye
        Dipole field          0.0030 Ry au,

        Potential amp.       -0.2811 Ry
        Total length         46.3494 bohr

     End of self-consistent calculation

          k = 0.0000 0.0000 0.0000 ( 18029 PWs)   bands (ev):

   -54.9543 -54.9177 -54.9150 -54.8836 -54.8440 -54.8341 -54.7940 -54.7624
   -54.7572 -54.7471 -54.7272 -54.7220 -54.7138 -54.6592 -53.9331 -53.8991
   -31.5263 -31.4078 -31.3207 -31.2820 -31.2645 -31.2518 -31.2493 -31.2439
   -31.2096 -31.2077 -31.1632 -31.1628 -31.1572 -31.1270 -31.1084 -31.0885
   -31.0779 -31.0720 -31.0707 -31.0636 -31.0293 -31.0247 -31.0180 -31.0127
   -30.9928 -30.9746 -30.9643 -30.9633 -30.9558 -30.9552 -30.9453 -30.9368
   -30.9204 -30.9203 -30.9117 -30.9093 -30.8840 -30.8779 -30.8760 -30.8747
   -30.8563 -30.8559 -30.3419 -30.2494 -30.2272 -30.1584 -30.0717 -29.9607
   -18.9556 -18.2088 -15.7894 -15.5217 -15.3964 -15.1963 -15.1432 -15.0382
   -14.8782 -14.8174 -14.7526 -14.7278 -14.7219 -14.6951 -14.6224 -14.5670
   -14.5374 -14.4858 -14.4852 -14.4489 -14.4418 -14.4367 -14.3823 -14.3785
   -14.3420 -14.3283 -14.3205 -14.1775 -14.0990 -14.0504 -14.0403 -13.1733
   -12.4357 -12.3185 -10.9721  -7.5821  -6.3952  -5.9732  -5.7493  -4.0073
    -3.8450  -3.1332  -2.9616  -2.9499  -2.8728  -2.8494  -2.6781  -2.6184
    -2.5096  -2.3884  -2.3179  -2.2207  -2.1769  -2.1585  -2.1449  -2.0303
    -1.9458  -1.9085  -1.8685  -1.8305  -1.8135  -1.7683  -1.7470  -1.7369
    -1.7043  -1.6789  -1.5258  -1.4501  -1.4136  -1.3794  -1.3404  -1.2830
    -1.2612  -1.2453  -1.2400  -1.2320  -1.2155  -1.1912  -1.1549  -1.1233
    -1.0552  -0.9712  -0.9620  -0.8506  -0.7666  -0.6338  -0.5809  -0.5229
    -0.4925  -0.4261  -0.3838  -0.3367  -0.3005  -0.2941  -0.2472  -0.1604
    -0.1466  -0.0899  -0.0713   0.0134   0.0601   0.0654   0.0762   0.2527
     0.2629   0.2807   0.3838   0.4645   0.5035   0.5201   0.5777   0.6401
     0.6426   0.6808   0.7029   0.7334   0.8163   0.9198   0.9448   0.9834
     0.9975   1.0231   1.0400   1.0674   1.1065   1.1876   1.1936   1.2710
     1.3648   1.3751   1.6373   1.6693   2.0001   2.0270   2.0895   2.2752
     2.6640   2.7115   4.1477   4.2097   4.2551   4.2805   4.2987   4.3803
     4.4002   4.6156   4.6419   4.6428   4.6521

[...]

          k = 0.0380-0.0419 0.0000 ( 17876 PWs)   bands (ev):

[...]

          k =-0.0760-0.0000 0.0000 ( 17886 PWs)   bands (ev):

[...]

          k =-0.0760-0.0839 0.0000 ( 17948 PWs)   bands (ev):

   -54.9425 -54.9267 -54.9006 -54.9006 -54.8415 -54.8246 -54.8036 -54.7547
   -54.7470 -54.7416 -54.7324 -54.7292 -54.7243 -54.6616 -53.9162 -53.9159
   -31.3350 -31.3237 -31.2577 -31.2230 -31.2229 -31.2166 -31.1932 -31.1930
   -31.1673 -31.1656 -31.1564 -31.1527 -31.1447 -31.0946 -31.0812 -31.0805
   -31.0762 -31.0749 -31.0717 -31.0690 -31.0414 -31.0318 -31.0293 -31.0229
   -31.0221 -31.0200 -31.0199 -31.0187 -30.9981 -30.9806 -30.9746 -30.9671
   -30.9613 -30.9557 -30.9542 -30.9499 -30.9491 -30.9221 -30.9154 -30.9127
   -30.9078 -30.8972 -30.2400 -30.2398 -30.1545 -30.1543 -30.1151 -30.1150
   -18.9506 -18.2094 -15.2801 -15.1532 -15.0542 -14.9987 -14.9520 -14.9363
   -14.9187 -14.8653 -14.8352 -14.7754 -14.7517 -14.7035 -14.6595 -14.6555
   -14.6276 -14.5482 -14.5330 -14.5205 -14.5130 -14.4622 -14.4482 -14.4253
   -14.4027 -14.3987 -14.3801 -14.3073 -14.2981 -14.2939 -14.2536 -13.1825
   -12.4201 -12.4199 -10.9727  -7.5933  -6.3856  -5.9726  -5.7341  -3.9856
    -3.8392  -2.5620  -2.5401  -2.4045  -2.3801  -2.2795  -2.1875  -2.1367
    -2.1314  -1.9924  -1.9597  -1.9437  -1.9287  -1.9160  -1.8675  -1.8437
    -1.8082  -1.7905  -1.7813  -1.7713  -1.7558  -1.7353  -1.6831  -1.6788
    -1.6686  -1.6542  -1.6102  -1.5946  -1.5636  -1.5528  -1.5245  -1.5019
    -1.4349  -1.3404  -1.2929  -1.2496  -1.1945  -1.1426  -1.1367  -1.0578
    -1.0401  -1.0085  -0.9775  -0.9524  -0.8570  -0.7832  -0.6889  -0.6862
    -0.6830  -0.5631  -0.5227  -0.5051  -0.4921  -0.4622  -0.3781  -0.3680
    -0.3084  -0.2340  -0.2073  -0.2027  -0.1766  -0.0577  -0.0317   0.0276
     0.0581   0.0904   0.0925   0.1724   0.1853   0.2446   0.2587   0.2720
     0.3170   0.3346   0.4330   0.5229   0.5588   0.6616   0.7549   0.7839
     0.8790   0.9367   1.0418   1.0623   1.0856   1.1823   1.1907   1.2253
     1.3541   1.3610   1.4770   1.5166   1.5267   1.5292   2.4476   2.4490
     2.5315   2.5316   4.2742   4.3971   4.4125   4.4586   4.5123   4.6543
     4.6778   4.7250   4.7268   4.8011   4.8107

     the Fermi energy is     4.1999 ev

!    total energy              =   -2977.68482380 Ry
     estimated scf accuracy    <       0.00000006 Ry
     smearing contrib. (-TS)   =      -0.03700497 Ry
     internal energy E=F+TS    =   -2977.64781883 Ry

     The total energy is F=E-TS. E is the sum of the following terms:
     one-electron contribution =  -23305.64412631 Ry
     hartree contribution      =   11753.82001010 Ry
     xc contribution           =    -496.60127242 Ry
     ewald contribution        =    9070.77269693 Ry
     electric field correction =       0.00487287 Ry

     convergence has been achieved in  65 iterations

     Forces acting on atoms (cartesian axes, Ry/au):

     atom    1 type  1   force =     0.00008716   -0.00025757    0.09410770
     atom    2 type  1   force =    -0.00008587   -0.00045555   -0.17748982
     atom    3 type  2   force =     0.00006323   -0.00033012   -0.02122979
     atom    4 type  2   force =     0.00003886   -0.00179025    0.05729977
     atom    5 type  2   force =    -0.01080393   -0.00101309    0.00668946
     atom    6 type  2   force =     0.01200276   -0.00033165    0.00504227
     atom    7 type  1   force =    -0.00060119    0.00105291   -0.01460194
     atom    8 type  1   force =     0.00086358    0.00330631    0.00460335
     atom    9 type  2   force =     0.00001285   -0.00005378    0.00014638
     atom   10 type  2   force =    -0.00368736    0.00211170   -0.00165604
     atom   11 type  2   force =    -0.00016924    0.00061898   -0.00010121
     atom   12 type  2   force =     0.00018683    0.00028465   -0.00021693
     atom   13 type  1   force =    -0.00019419   -0.00026535    0.00011731
     atom   14 type  1   force =     0.00025001   -0.00021624   -0.00037206
     atom   15 type  2   force =     0.00020645    0.00033859   -0.00012256
     atom   16 type  2   force =    -0.00012228    0.00025280   -0.00019089
     atom   17 type  2   force =    -0.00017480   -0.00030102    0.00030320
     atom   18 type  2   force =     0.00019184    0.00005309    0.00001655
     atom   19 type  1   force =    -0.00002242    0.00021192   -0.00047613
     atom   20 type  1   force =     0.00043104   -0.00004114    0.00000001
     atom   21 type  2   force =     0.00011902   -0.00008356    0.10377851
     atom   22 type  2   force =     0.00057486   -0.00033087   -0.00071985
     atom   23 type  2   force =    -0.07067656   -0.00015308   -0.02715417
     atom   24 type  2   force =     0.07064258    0.00031266   -0.02715883
     atom   25 type  1   force =     0.00011103   -0.00016810    0.09373917
     atom   26 type  1   force =    -0.00006523   -0.00053408   -0.17771706
     atom   27 type  2   force =     0.00006873   -0.00005007   -0.02032894
     atom   28 type  2   force =     0.00006620   -0.00145944    0.05630471
     atom   29 type  2   force =    -0.01130870   -0.00039742    0.00737209
     atom   30 type  2   force =     0.01242511    0.00000034    0.00576104
     atom   31 type  1   force =    -0.00075041    0.00574308   -0.01563661
     atom   32 type  1   force =     0.00081802   -0.00459328    0.00435076
     atom   33 type  2   force =     0.00001894    0.00015314    0.00029382
     atom   34 type  2   force =    -0.00321166   -0.00103275   -0.00520024
     atom   35 type  2   force =    -0.00011372   -0.00039628    0.00007766
     atom   36 type  2   force =     0.00021074   -0.00006553   -0.00009705
     atom   37 type  1   force =    -0.00012538    0.00043954   -0.00010341
     atom   38 type  1   force =     0.00008806    0.00015317   -0.00012701
     atom   39 type  2   force =    -0.00046016   -0.00029444   -0.00017951
     atom   40 type  2   force =     0.00013111   -0.00008172    0.00027159
     atom   41 type  2   force =    -0.00006164    0.00021642   -0.00016382
     atom   42 type  2   force =     0.00046662    0.00007903   -0.00027039
     atom   43 type  1   force =    -0.00015920   -0.00001626   -0.00010165
     atom   44 type  1   force =     0.00034806    0.00039467    0.00037151
     atom   45 type  2   force =     0.00010611   -0.00006452    0.10376027
     atom   46 type  2   force =    -0.07067261   -0.00006706   -0.02712950
     atom   47 type  2   force =     0.07064740    0.00034090   -0.02715063
     atom   48 type  3   force =    -0.00056272   -0.00072405    0.00152507
     atom   49 type  3   force =    -0.01173584   -0.00148139    0.00530863
     atom   50 type  4   force =     0.00033666    0.00037236   -0.00020750
     atom   51 type  5   force =     0.00062963    0.00078311   -0.00032074
     atom   52 type  5   force =    -0.00006950    0.00033405    0.00020840
     atom   53 type  5   force =     0.00013538   -0.00053238   -0.00050294
     atom   54 type  5   force =     0.00042630   -0.00013937    0.00021374
     atom   55 type  5   force =     0.01308565    0.00048845   -0.00523545
     atom   56 type  5   force =     0.00015256   -0.00009983    0.00022900
     atom   57 type  2   force =    -0.00084663    0.00076848    0.00146975
     atom   58 type  5   force =     0.00034904   -0.00063237   -0.00103659
     atom   59 type  5   force =     0.00038880   -0.00035675   -0.00036245

     Total force =     0.366359     Total SCF correction =     0.000694
  @ DRIVER MODE: Message from server: STATUS
  @ DRIVER MODE: Message from server: GETFORCE
  @ DRIVER MODE: Returning v,forces,stress,ensemble

     Writing output data file ./calc.save/
  @ DRIVER MODE: Message from server: EXIT
  @ DRIVE MODE: Exiting

     General routines

     Parallel routines

   This run was terminated on:   7:22:50  16Sep2021

   JOB DONE.