     Program PWSCF v.6.7GPU starts on 12Oct2021 at 10: 1: 9

     R & G space division:  proc/nbgrp/npool/nimage =       8
     Reading input from /storage/home/hcoda1/3/ntian30/research/carbon/ACS_vib/ads_slab/NH2/out_0003/pw.inp
Warning: card &CELL ignored
Warning: card   CELL_DYNAMICS='IPI', ignored
Warning: card / ignored

     Current dimensions of program PWSCF are:
     Max number of different atomic species (ntypx) = 10
     Max number of k-points (npk) =  40000
     Max angular momentum in pseudopotentials (lmaxx) =  3
     Presently no symmetry can be used with electric field

     Message from routine cell_base_init:
     DEPRECATED: use true lattice parameter, not A to a.u. conversion factor

     IMPORTANT: XC functional enforced from input :
     Exchange-correlation= BEEF-VDW
                           (   1   4  43  14   2   0   0)
     Any further DFT definition will be discarded
     Please, verify this is what you really want

  @ DRIVER MODE: Connecting to
 qe_1139763_3181316.sched-torque.pace.gatech.educwkccaj9_scratch
  using UNIX socket
  @ DRIVER MODE: Message from server: STATUS
  @ DRIVER MODE: Message from server: INIT
  @ DRIVER MODE: Receiving replica           0          -1
  @ DRIVER MODE: Receiving encoded integer          25
  @ DRIVER MODE:  SCF:  T  FORCE:  T  STRESS:  F  VC:  F  ENSEMBLE:  F
  @ DRIVER MODE:  SCF:  T  FORCE:  T  STRESS:  F  VC:  F  ENSEMBLE:  F

     Using Slab Decomposition

     bravais-lattice index     =            0
     lattice parameter (alat)  =       1.8897  a.u.
     unit-cell volume          =    6658.9804 (a.u.)^3
     number of atoms/cell      =           50
     number of atomic types    =            4
     number of electrons       =       385.00
     number of Kohn-Sham states=          202
     kinetic-energy cutoff     =      29.3995  Ry
     charge density cutoff     =     293.9946  Ry
     scf convergence threshold =      7.3E-08
     mixing beta               =       0.0500
     number of iterations used =            8  plain     mixing
     Exchange-correlation= BEEF-VDW
                           (   1   4  43  14   2   0   0)

     celldm(1)=   1.889726  celldm(2)=   0.000000  celldm(3)=   0.000000
     celldm(4)=   0.000000  celldm(5)=   0.000000  celldm(6)=   0.000000

     crystal axes: (cart. coord. in units of alat)
               a(1) = (   6.579727   0.000000   0.000000 )
               a(2) = (  -0.000775   5.961596   0.000000 )
               a(3) = (   0.000000   0.000000  25.155947 )

     reciprocal axes: (cart. coord. in units 2 pi/alat)
               b(1) = (  0.151982  0.000020  0.000000 )
               b(2) = (  0.000000  0.167740  0.000000 )
               b(3) = (  0.000000  0.000000  0.039752 )

     PseudoPot. # 1 for Ti read from file:
     /storage/coda1/p-amedford6/0/shared/rich_project_chbe-medford/medford-share/data/pseudos_module/espresso/nninc/pbe/van/Ti.UPF
     MD5 check sum: 8e4df49b7f0d34bbd5052bf3f5ea0213
     Pseudo is Ultrasoft, Zval = 12.0
     Generated by new atomic code, or converted to UPF format
     Using radial grid of  851 points,  6 beta functions with:
                l(1) =   0
                l(2) =   0
                l(3) =   1
                l(4) =   1
                l(5) =   2
                l(6) =   2
     Q(r) pseudized with  8 coefficients,  rinner =    1.000   1.000   1.000
                                                       1.000   1.000

     PseudoPot. # 2 for O  read from file:
     /storage/coda1/p-amedford6/0/shared/rich_project_chbe-medford/medford-share/data/pseudos_module/espresso/nninc/pbe/van/O.UPF
     MD5 check sum: 78c19812648e8988a0fe644b0f25305e
     Pseudo is Ultrasoft, Zval =  6.0
     Generated by new atomic code, or converted to UPF format
     Using radial grid of  737 points,  4 beta functions with:
                l(1) =   0
                l(2) =   0
                l(3) =   1
                l(4) =   1
     Q(r) pseudized with  8 coefficients,  rinner =    0.800   0.800   0.800

     PseudoPot. # 3 for H  read from file:
     /storage/coda1/p-amedford6/0/shared/rich_project_chbe-medford/medford-share/data/pseudos_module/espresso/nninc/pbe/van/H.UPF
     MD5 check sum: b5ee9d7bfd3a09ee7748110bda690ff7
     Pseudo is Ultrasoft, Zval =  1.0
     Generated by new atomic code, or converted to UPF format
     Using radial grid of  615 points,  1 beta functions with:
                l(1) =   0
     Q(r) pseudized with  8 coefficients,  rinner =    0.800

     PseudoPot. # 4 for N  read from file:
     /storage/coda1/p-amedford6/0/shared/rich_project_chbe-medford/medford-share/data/pseudos_module/espresso/nninc/pbe/van/N.UPF
     MD5 check sum: 90d10febe142ad51ac9d5be1deb811c4
     Pseudo is Ultrasoft, Zval =  5.0
     Generated by new atomic code, or converted to UPF format
     Using radial grid of  729 points,  4 beta functions with:
                l(1) =   0
                l(2) =   0
                l(3) =   1
                l(4) =   1
     Q(r) pseudized with  8 coefficients,  rinner =    0.800   0.800   0.800

     atomic species   valence    mass     pseudopotential
        Ti1           12.00    47.86700     Ti( 1.00)
        O1             6.00    15.99900     O ( 1.00)
        H1             1.00     1.00800     H ( 1.00)
        N1             5.00    14.00700     N ( 1.00)

     No symmetry found

   Cartesian axes

     site n.     atom                  positions (alat units)
         1           Ti1 tau(   1) = (   0.0004258   2.9801865   6.0000000  )
         2           Ti1 tau(   2) = (   3.2906075   1.4906267   6.0002472  )
         3           O1  tau(   3) = (   0.0006271   0.0005054   7.9858123  )
         4           O1  tau(   4) = (   3.2906025   0.0005020   7.3038282  )
         5           O1  tau(   5) = (   4.5942328   1.4918067   9.2879030  )
         6           O1  tau(   6) = (   1.9868534   1.4903216   9.2879459  )
         7           Ti1 tau(   7) = (   3.2907910   2.8959150   9.1758416  )
         8           Ti1 tau(   8) = (   0.0015273   1.4827037   9.2680791  )
         9           O1  tau(   9) = (   3.3258991   5.9546141  11.3332578  )
        10           O1  tau(  10) = (   0.0116148   5.9584955  10.6183126  )
        11           O1  tau(  11) = (   1.3488932   1.4798543  12.6053297  )
        12           O1  tau(  12) = (   5.3234149   1.4779677  12.6259018  )
        13           Ti1 tau(  13) = (   0.0250334   2.9927558  12.6206450  )
        14           Ti1 tau(  14) = (   3.3016322   1.4795038  12.4820857  )
        15           O1  tau(  15) = (   0.0664024   0.0157593  14.6586037  )
        16           O1  tau(  16) = (   3.3323282   0.0041071  13.9289915  )
        17           O1  tau(  17) = (   4.5995015   1.5314437  16.0640773  )
        18           O1  tau(  18) = (   2.1161456   1.5293183  16.0749432  )
        19           Ti1 tau(  19) = (   3.3498380   3.0088313  15.6963580  )
        20           Ti1 tau(  20) = (   0.0530739   1.5396549  15.8437714  )
        21           O1  tau(  21) = (   3.2904802   0.0005063   4.7018136  )
        22           O1  tau(  22) = (   0.0625368   0.0441461  17.2188842  )
        23           O1  tau(  23) = (   1.3043587   1.4918075   6.0039043  )
        24           O1  tau(  24) = (   5.2767064   1.4903225   6.0039473  )
        25           Ti1 tau(  25) = (   0.0000382   5.9609847   6.0000000  )
        26           Ti1 tau(  26) = (   3.2902200   4.4714249   6.0002472  )
        27           O1  tau(  27) = (   0.0002396   2.9813036   7.9858123  )
        28           O1  tau(  28) = (   3.2902150   2.9813002   7.3038282  )
        29           O1  tau(  29) = (   4.5938453   4.4726049   9.2879030  )
        30           O1  tau(  30) = (   1.9864658   4.4711199   9.2879459  )
        31           Ti1 tau(  31) = (   3.2891106   5.8743827   9.1763621  )
        32           Ti1 tau(  32) = (   0.0006254   4.4649316   9.2693709  )
        33           O1  tau(  33) = (   3.3263537   2.9785333  11.3304563  )
        34           O1  tau(  34) = (   0.0092240   2.9805883  10.6323155  )
        35           O1  tau(  35) = (   1.3430786   4.4678698  12.6172051  )
        36           O1  tau(  36) = (   5.3277099   4.4710525  12.6377626  )
        37           Ti1 tau(  37) = (   0.0170098   0.0068522  12.5677129  )
        38           Ti1 tau(  38) = (   3.3012998   4.4598595  12.4837504  )
        39           O1  tau(  39) = (   0.0613649   2.9331972  14.6385027  )
        40           O1  tau(  40) = (   3.3336062   2.9900835  13.9042222  )
        41           O1  tau(  41) = (   4.5971590   4.4874278  16.0927711  )
        42           O1  tau(  42) = (   2.1143488   4.4887574  16.1000639  )
        43           Ti1 tau(  43) = (   3.3470598   0.0240971  15.7232225  )
        44           Ti1 tau(  44) = (   0.0592690   4.6672874  16.1350517  )
        45           O1  tau(  45) = (   3.2900926   2.9813045   4.7018136  )
        46           O1  tau(  46) = (   1.3039711   4.4726057   6.0039043  )
        47           O1  tau(  47) = (   5.2763189   4.4711207   6.0039473  )
        48           H1  tau(  48) = (   5.8602933   2.8936204  18.0417654  )
        49           H1  tau(  49) = (   0.9096825   2.8932289  17.9980414  )
        50           N1  tau(  50) = (   0.0797844   2.9726167  17.4194980  )

     number of k points=    10  Fermi-Dirac smearing, width (Ry)=  0.0073
                       cart. coord. in units 2pi/alat
        k(    1) = (   0.0000000   0.0000000   0.0000000), wk =   0.1250000
        k(    2) = (   0.0000000   0.0419351   0.0000000), wk =   0.2500000
        k(    3) = (   0.0000000  -0.0838702   0.0000000), wk =   0.1250000
        k(    4) = (   0.0379955   0.0000049   0.0000000), wk =   0.2500000
        k(    5) = (   0.0379955   0.0419400   0.0000000), wk =   0.2500000
        k(    6) = (   0.0379955  -0.0838652   0.0000000), wk =   0.2500000
        k(    7) = (   0.0379955  -0.0419301   0.0000000), wk =   0.2500000
        k(    8) = (  -0.0759910  -0.0000099   0.0000000), wk =   0.1250000
        k(    9) = (  -0.0759910   0.0419252   0.0000000), wk =   0.2500000
        k(   10) = (  -0.0759910  -0.0838800   0.0000000), wk =   0.1250000

     Initial potential from superposition of free atoms

     starting charge  368.99922, renormalised to  385.00000

     negative rho (up, down):  2.142E-02 0.000E+00

     %%%%%%%%%%%%%%%%%%%%%%%%%%%%%%%%%%%%%%%%%%%%%%%%%%%%%%%%%%%%%%%%%%%%%%%%
     %                                                                      %
     % You are using vdW-DF, which was implemented by the Thonhauser group. %
     % Please cite the following two papers that made this development      %
     % possible and the two reviews that describe the various versions:     %
     %                                                                      %
     %   T. Thonhauser et al., PRL 115, 136402 (2015).                      %
     %   T. Thonhauser et al., PRB 76, 125112 (2007).                       %
     %   K. Berland et al., Rep. Prog. Phys. 78, 066501 (2015).             %
     %   D.C. Langreth et al., J. Phys.: Condens. Matter 21, 084203 (2009). %
     %                                                                      %
     %                                                                      %
     % If you are calculating the stress with vdW-DF, please also cite:     %
     %                                                                      %
     %   R. Sabatini et al., J. Phys.: Condens. Matter 24, 424209 (2012).   %
     %                                                                      %
     %%%%%%%%%%%%%%%%%%%%%%%%%%%%%%%%%%%%%%%%%%%%%%%%%%%%%%%%%%%%%%%%%%%%%%%%

     Adding external electric field

     Computed dipole along edir(3) :
        Dipole               -1.9920 Ry au,         -5.0631 Debye
        Dipole field         -0.0038 Ry au,

        Potential amp.        0.3485 Ry
        Total length         46.3494 bohr

     Starting wfcs are  290 atomic wfcs
  @ DRIVER MODE: Message from server: STATUS
  @ DRIVER MODE: Message from server: POSDATA
  @ DRIVER MODE: Reading and sharing cell
  @ DRIVER MODE: Reading and sharing positions
  @ DRIVER MODE: Received positions

     Self-consistent Calculation

     iteration #  1     ecut=    29.40 Ry     beta= 0.05
     Davidson diagonalization with overlap
     c_bands:  2 eigenvalues not converged
     c_bands:  1 eigenvalues not converged
     c_bands:  4 eigenvalues not converged
     c_bands:  1 eigenvalues not converged
     c_bands:  3 eigenvalues not converged
     ethr =  1.00E-05,  avg # of iterations = 18.3

[...]

     total energy              =   -2907.97572828 Ry
     estimated scf accuracy    <      12.38657613 Ry

     iteration #  2     ecut=    29.40 Ry     beta= 0.05
     Davidson diagonalization with overlap
     ethr =  3.22E-03,  avg # of iterations =  1.0

[...]

     iteration # 47     ecut=    29.40 Ry     beta= 0.05
     Davidson diagonalization with overlap
     c_bands:  1 eigenvalues not converged
     ethr =  1.69E-06,  avg # of iterations = 12.4

[...]

     total energy              =   -2906.48808679 Ry
     estimated scf accuracy    <       0.00000008 Ry

     iteration # 81     ecut=    29.40 Ry     beta= 0.05
     Davidson diagonalization with overlap
     ethr =  2.09E-11,  avg # of iterations =  7.8

     negative rho (up, down):  2.070E-02 0.000E+00

     Adding external electric field

     Computed dipole along edir(3) :
        Dipole                0.6482 Ry au,          1.6477 Debye
        Dipole field          0.0012 Ry au,

        Potential amp.       -0.1134 Ry
        Total length         46.3494 bohr

     End of self-consistent calculation

          k = 0.0000 0.0000 0.0000 ( 18029 PWs)   bands (ev):

   -56.1962 -56.1893 -56.1621 -56.1533 -56.0924 -56.0196 -56.0106 -56.0013
   -55.9757 -55.9676 -55.9623 -55.9287 -55.7387 -55.4407 -55.1700 -55.1360
   -32.7502 -32.6777 -32.5334 -32.5081 -32.5007 -32.4967 -32.4895 -32.4528
   -32.4379 -32.4270 -32.3882 -32.3851 -32.3699 -32.3484 -32.3345 -32.3211
   -32.3185 -32.2996 -32.2798 -32.2534 -32.2354 -32.2137 -32.2061 -32.1931
   -32.1875 -32.1795 -32.1682 -32.1651 -32.1599 -32.1419 -32.1381 -32.1321
   -32.1303 -32.1180 -32.1152 -32.1078 -32.0745 -31.9932 -31.9216 -31.7313
   -31.7065 -31.6425 -31.5772 -31.4891 -31.4666 -31.3938 -31.3073 -31.1964
   -16.9239 -16.6651 -16.4498 -16.3435 -16.2713 -16.2146 -16.0224 -15.9055
   -15.8666 -15.7684 -15.7309 -15.6961 -15.6935 -15.6681 -15.6470 -15.6248
   -15.6145 -15.5957 -15.5589 -15.5499 -15.5133 -15.4589 -15.3552 -15.3396
   -15.3299 -15.2848 -15.2342 -15.2211 -14.7546 -13.6729 -13.5565 -13.5003
    -4.7122  -4.3007  -4.1104  -4.0953  -4.0616  -4.0236  -3.7943  -3.7527
    -3.3992  -3.3612  -3.3537  -3.3188  -3.2985  -3.2653  -3.0834  -3.0138
    -3.0053  -2.9659  -2.9640  -2.9492  -2.9479  -2.9174  -2.9127  -2.7955
    -2.7260  -2.6108  -2.5887  -2.5065  -2.4936  -2.4748  -2.4442  -2.4233
    -2.4147  -2.4062  -2.3776  -2.3664  -2.2250  -2.1923  -2.0411  -1.9929
    -1.9782  -1.8423  -1.7986  -1.6655  -1.6486  -1.6160  -1.5916  -1.5817
    -1.4887  -1.4691  -1.3773  -1.3319  -1.2625  -1.2589  -1.1941  -1.1768
    -1.0687  -1.0591  -1.0457  -0.9522  -0.9344  -0.9242  -0.8755  -0.7849
    -0.6309  -0.5937  -0.5899  -0.5669  -0.4944  -0.4506  -0.3718  -0.3507
    -0.3425  -0.2867  -0.2568  -0.2175  -0.1852  -0.1679  -0.1608  -0.1113
     0.0703   0.1076   0.1617   0.1961   0.2031   0.3536   0.3957   0.4728
     0.5767   0.7778   0.8072   0.8515   0.9696   1.0445   1.4227   1.4682
     2.9465   3.0231   3.0280   3.0799   3.1890   3.2041   3.3964   3.4186
     3.4413   3.4466

[...]

          k = 0.0380-0.0419 0.0000 ( 17876 PWs)   bands (ev):

[...]

          k =-0.0760-0.0000 0.0000 ( 17886 PWs)   bands (ev):

[...]

          k =-0.0760-0.0839 0.0000 ( 17948 PWs)   bands (ev):

   -56.1795 -56.1786 -56.1719 -56.1704 -56.0880 -56.0239 -55.9968 -55.9896
   -55.9850 -55.9833 -55.9459 -55.9453 -55.7378 -55.4414 -55.1531 -55.1528
   -32.5542 -32.5514 -32.4933 -32.4926 -32.4753 -32.4744 -32.4732 -32.4494
   -32.3939 -32.3861 -32.3660 -32.3602 -32.3516 -32.3141 -32.3022 -32.2990
   -32.2982 -32.2969 -32.2887 -32.2866 -32.2853 -32.2830 -32.2790 -32.2280
   -32.2056 -32.2023 -32.2019 -32.1880 -32.1819 -32.1815 -32.1780 -32.1776
   -32.1606 -32.1598 -32.1526 -32.1448 -32.0775 -31.9959 -31.9185 -31.7899
   -31.7080 -31.6649 -31.4795 -31.4792 -31.3901 -31.3897 -31.3507 -31.3504
   -16.3793 -16.3464 -16.1246 -16.1158 -16.1027 -16.1004 -15.9197 -15.8893
   -15.8862 -15.8535 -15.8365 -15.8021 -15.7640 -15.7320 -15.6988 -15.6880
   -15.6786 -15.6654 -15.6423 -15.6282 -15.6223 -15.6144 -15.5061 -15.5019
   -15.4718 -15.4095 -15.3345 -15.1961 -14.9140 -13.6585 -13.6582 -13.5195
    -4.7359  -3.6755  -3.6386  -3.3560  -3.3469  -3.3394  -3.2875  -3.1255
    -3.0785  -3.0509  -3.0428  -3.0018  -2.9978  -2.9853  -2.9722  -2.9425
    -2.9248  -2.9189  -2.8961  -2.8553  -2.8470  -2.8425  -2.8099  -2.8072
    -2.8013  -2.7596  -2.7288  -2.7165  -2.6983  -2.6773  -2.6455  -2.4003
    -2.3846  -2.3281  -2.3238  -2.3179  -2.2740  -2.2525  -2.2467  -2.2389
    -2.1462  -2.0424  -1.9143  -1.8823  -1.8723  -1.7899  -1.7414  -1.6304
    -1.5926  -1.5619  -1.5584  -1.4953  -1.4441  -1.3988  -1.3842  -1.3131
    -1.2776  -1.2659  -1.1649  -1.1470  -1.1435  -1.1389  -1.0308  -0.9524
    -0.9484  -0.9397  -0.9068  -0.8997  -0.8006  -0.7977  -0.7523  -0.6814
    -0.6739  -0.6530  -0.5085  -0.3781  -0.1838  -0.1475  -0.1135  -0.0451
     0.0335   0.0906   0.1201   0.1289   0.1411   0.2008   0.2387   0.3491
     0.3524   0.4595   0.5587   0.8001   1.2156   1.2164   1.2878   1.2881
     3.2283   3.2369   3.2675   3.2949   3.4481   3.4527   3.4743   3.4752
     3.6185   3.6328

     the Fermi energy is     2.9405 ev

!    total energy              =   -2906.48809258 Ry
     estimated scf accuracy    <       0.00000005 Ry
     smearing contrib. (-TS)   =      -0.02176353 Ry
     internal energy E=F+TS    =   -2906.46632905 Ry

     The total energy is F=E-TS. E is the sum of the following terms:
     one-electron contribution =  -25125.45738170 Ry
     hartree contribution      =   12642.93261065 Ry
     xc contribution           =    -475.65705787 Ry
     ewald contribution        =   10051.71470685 Ry
     electric field correction =       0.00079301 Ry

     convergence has been achieved in  81 iterations

     Forces acting on atoms (cartesian axes, Ry/au):

     atom    1 type  1   force =     0.00015552   -0.00026890    0.09707375
     atom    2 type  1   force =    -0.00008961   -0.00052518   -0.17530705
     atom    3 type  2   force =     0.00015044   -0.00009310   -0.02539645
     atom    4 type  2   force =     0.00004979   -0.00153065    0.05272381
     atom    5 type  2   force =    -0.01197897   -0.00048439    0.00189285
     atom    6 type  2   force =     0.01458546   -0.00001839    0.00350727
     atom    7 type  1   force =     0.00108307    0.00035630   -0.01157440
     atom    8 type  1   force =    -0.00051456    0.00755862    0.03127915
     atom    9 type  2   force =     0.00006820    0.00013512   -0.00041047
     atom   10 type  2   force =    -0.00054073    0.00073063   -0.01781520
     atom   11 type  2   force =     0.00025642   -0.00020408   -0.00000410
     atom   12 type  2   force =    -0.00023104   -0.00007147   -0.00000311
     atom   13 type  1   force =    -0.00030209    0.00077392    0.00096881
     atom   14 type  1   force =    -0.00069219    0.00037394   -0.00173100
     atom   15 type  2   force =    -0.00020741   -0.00057710   -0.00025997
     atom   16 type  2   force =     0.00024761    0.00000073    0.00103202
     atom   17 type  2   force =    -0.00016092   -0.00014247    0.00020441
     atom   18 type  2   force =    -0.00030051   -0.00004192   -0.00004146
     atom   19 type  1   force =    -0.00028177    0.00030922    0.00090687
     atom   20 type  1   force =    -0.00002538    0.00143390   -0.00066036
     atom   21 type  2   force =     0.00003575   -0.00009355    0.10317938
     atom   22 type  2   force =    -0.00023967    0.00093642    0.00143007
     atom   23 type  2   force =    -0.07154508   -0.00018702   -0.02782092
     atom   24 type  2   force =     0.07147130    0.00028091   -0.02787730
     atom   25 type  1   force =     0.00002980   -0.00025242    0.09659050
     atom   26 type  1   force =    -0.00008952   -0.00037105   -0.17546005
     atom   27 type  2   force =     0.00018755   -0.00020261   -0.02448977
     atom   28 type  2   force =     0.00009343   -0.00125660    0.05251252
     atom   29 type  2   force =    -0.01213857    0.00020283    0.00164206
     atom   30 type  2   force =     0.01463376    0.00048210    0.00329127
     atom   31 type  1   force =     0.00096935    0.00319066   -0.01215130
     atom   32 type  1   force =    -0.00070260   -0.00921765    0.03172411
     atom   33 type  2   force =     0.00010970    0.00002728    0.00008598
     atom   34 type  2   force =    -0.00009449    0.00026948   -0.02689880
     atom   35 type  2   force =     0.00047535    0.00015924    0.00019664
     atom   36 type  2   force =    -0.00041066    0.00018923    0.00024974
     atom   37 type  1   force =    -0.00054355    0.00021343    0.00029797
     atom   38 type  1   force =    -0.00074125   -0.00007169   -0.00168852
     atom   39 type  2   force =    -0.00004044   -0.00012539    0.00019390
     atom   40 type  2   force =     0.00013726   -0.00012627    0.00056510
     atom   41 type  2   force =    -0.00063013    0.00017121   -0.00021973
     atom   42 type  2   force =    -0.00016422    0.00008657   -0.00016468
     atom   43 type  1   force =    -0.00016158   -0.00007568    0.00082978
     atom   44 type  1   force =    -0.00041220   -0.00161061   -0.00065844
     atom   45 type  2   force =     0.00001597   -0.00009146    0.10318637
     atom   46 type  2   force =    -0.07153699   -0.00011422   -0.02781127
     atom   47 type  2   force =     0.07149198    0.00029321   -0.02788459
     atom   48 type  3   force =     0.00050004    0.00041523   -0.00138033
     atom   49 type  3   force =    -0.00005260    0.00032872    0.00042009
     atom   50 type  4   force =    -0.00191902   -0.00116501    0.00172486

     Total force =     0.368992     Total SCF correction =     0.000504
  @ DRIVER MODE: Message from server: STATUS
  @ DRIVER MODE: Message from server: GETFORCE
  @ DRIVER MODE: Returning v,forces,stress,ensemble

     Writing output data file ./calc.save/
  @ DRIVER MODE: Message from server: EXIT
  @ DRIVE MODE: Exiting

     General routines

     Parallel routines

   This run was terminated on:  10:29:59  12Oct2021

   JOB DONE.