     Program PWSCF v.6.7GPU starts on 16Sep2021 at  0: 6: 7

     R & G space division:  proc/nbgrp/npool/nimage =      10
     Reading input from /storage/home/hcoda1/3/ntian30/research/carbon/CxH_vib/H2O_calc/ads_slab/CHN2H2O_c/out_0027/pw.inp
Warning: card &CELL ignored
Warning: card   CELL_DYNAMICS='IPI', ignored
Warning: card / ignored

     Current dimensions of program PWSCF are:
     Max number of different atomic species (ntypx) = 10
     Max number of k-points (npk) =  40000
     Max angular momentum in pseudopotentials (lmaxx) =  3
     Presently no symmetry can be used with electric field

     Message from routine cell_base_init:
     DEPRECATED: use true lattice parameter, not A to a.u. conversion factor

     IMPORTANT: XC functional enforced from input :
     Exchange-correlation= BEEF-VDW
                           (   1   4  43  14   2   0   0)
     Any further DFT definition will be discarded
     Please, verify this is what you really want

  @ DRIVER MODE: Connecting to
 qe_1139763_2852625.sched-torque.pace.gatech.edu2qnfonxj_scratch
  using UNIX socket
  @ DRIVER MODE: Message from server: STATUS
  @ DRIVER MODE: Message from server: INIT
  @ DRIVER MODE: Receiving replica           0          -1
  @ DRIVER MODE: Receiving encoded integer          25
  @ DRIVER MODE:  SCF:  T  FORCE:  T  STRESS:  F  VC:  F  ENSEMBLE:  F
  @ DRIVER MODE:  SCF:  T  FORCE:  T  STRESS:  F  VC:  F  ENSEMBLE:  F

     Using Slab Decomposition

     bravais-lattice index     =            0
     lattice parameter (alat)  =       1.8897  a.u.
     unit-cell volume          =    6658.9804 (a.u.)^3
     number of atoms/cell      =           54
     number of atomic types    =            5
     number of electrons       =       401.00
     number of Kohn-Sham states=          210
     kinetic-energy cutoff     =      29.3995  Ry
     charge density cutoff     =     293.9946  Ry
     scf convergence threshold =      7.3E-08
     mixing beta               =       0.0500
     number of iterations used =            8  plain     mixing
     Exchange-correlation= BEEF-VDW
                           (   1   4  43  14   2   0   0)

     celldm(1)=   1.889726  celldm(2)=   0.000000  celldm(3)=   0.000000
     celldm(4)=   0.000000  celldm(5)=   0.000000  celldm(6)=   0.000000

     crystal axes: (cart. coord. in units of alat)
               a(1) = (   6.579727   0.000000   0.000000 )
               a(2) = (  -0.000775   5.961596   0.000000 )
               a(3) = (   0.000000   0.000000  25.155947 )

     reciprocal axes: (cart. coord. in units 2 pi/alat)
               b(1) = (  0.151982  0.000020  0.000000 )
               b(2) = (  0.000000  0.167740  0.000000 )
               b(3) = (  0.000000  0.000000  0.039752 )

     PseudoPot. # 1 for Ti read from file:
     /storage/coda1/p-amedford6/0/shared/rich_project_chbe-medford/medford-share/data/pseudos_module/espresso/nninc/pbe/van/Ti.UPF
     MD5 check sum: 8e4df49b7f0d34bbd5052bf3f5ea0213
     Pseudo is Ultrasoft, Zval = 12.0
     Generated by new atomic code, or converted to UPF format
     Using radial grid of  851 points,  6 beta functions with:
                l(1) =   0
                l(2) =   0
                l(3) =   1
                l(4) =   1
                l(5) =   2
                l(6) =   2
     Q(r) pseudized with  8 coefficients,  rinner =    1.000   1.000   1.000
                                                       1.000   1.000

     PseudoPot. # 2 for O  read from file:
     /storage/coda1/p-amedford6/0/shared/rich_project_chbe-medford/medford-share/data/pseudos_module/espresso/nninc/pbe/van/O.UPF
     MD5 check sum: 78c19812648e8988a0fe644b0f25305e
     Pseudo is Ultrasoft, Zval =  6.0
     Generated by new atomic code, or converted to UPF format
     Using radial grid of  737 points,  4 beta functions with:
                l(1) =   0
                l(2) =   0
                l(3) =   1
                l(4) =   1
     Q(r) pseudized with  8 coefficients,  rinner =    0.800   0.800   0.800

     PseudoPot. # 3 for C  read from file:
     /storage/coda1/p-amedford6/0/shared/rich_project_chbe-medford/medford-share/data/pseudos_module/espresso/nninc/pbe/van/C.UPF
     MD5 check sum: 1a69bf6b8db32088f5b2163dbdb77a27
     Pseudo is Ultrasoft, Zval =  4.0
     Generated by new atomic code, or converted to UPF format
     Using radial grid of  721 points,  4 beta functions with:
                l(1) =   0
                l(2) =   0
                l(3) =   1
                l(4) =   1
     Q(r) pseudized with  8 coefficients,  rinner =    0.800   0.800   0.800

     PseudoPot. # 4 for H  read from file:
     /storage/coda1/p-amedford6/0/shared/rich_project_chbe-medford/medford-share/data/pseudos_module/espresso/nninc/pbe/van/H.UPF
     MD5 check sum: b5ee9d7bfd3a09ee7748110bda690ff7
     Pseudo is Ultrasoft, Zval =  1.0
     Generated by new atomic code, or converted to UPF format
     Using radial grid of  615 points,  1 beta functions with:
                l(1) =   0
     Q(r) pseudized with  8 coefficients,  rinner =    0.800

     PseudoPot. # 5 for N  read from file:
     /storage/coda1/p-amedford6/0/shared/rich_project_chbe-medford/medford-share/data/pseudos_module/espresso/nninc/pbe/van/N.UPF
     MD5 check sum: 90d10febe142ad51ac9d5be1deb811c4
     Pseudo is Ultrasoft, Zval =  5.0
     Generated by new atomic code, or converted to UPF format
     Using radial grid of  729 points,  4 beta functions with:
                l(1) =   0
                l(2) =   0
                l(3) =   1
                l(4) =   1
     Q(r) pseudized with  8 coefficients,  rinner =    0.800   0.800   0.800

     atomic species   valence    mass     pseudopotential
        Ti1           12.00    47.86700     Ti( 1.00)
        O1             6.00    15.99900     O ( 1.00)
        C1             4.00    12.01100     C ( 1.00)
        H1             1.00     1.00800     H ( 1.00)
        N1             5.00    14.00700     N ( 1.00)

     No symmetry found

   Cartesian axes

     site n.     atom                  positions (alat units)
         1           Ti1 tau(   1) = (   0.0004258   2.9801865   6.0000000  )
         2           Ti1 tau(   2) = (   3.2906075   1.4906267   6.0002472  )
         3           O1  tau(   3) = (   0.0006271   0.0005054   7.9858123  )
         4           O1  tau(   4) = (   3.2906025   0.0005020   7.3038282  )
         5           O1  tau(   5) = (   4.5942328   1.4918067   9.2879030  )
         6           O1  tau(   6) = (   1.9868534   1.4903216   9.2879459  )
         7           Ti1 tau(   7) = (   3.2907910   2.8959150   9.1758416  )
         8           Ti1 tau(   8) = (   0.0015273   1.4827037   9.2680791  )
         9           O1  tau(   9) = (   3.2982821   5.9591942  11.3418950  )
        10           O1  tau(  10) = (   0.0116148   5.9584955  10.6183126  )
        11           O1  tau(  11) = (   1.2990089   1.4837789  12.6285733  )
        12           O1  tau(  12) = (   5.2904647   1.4888503  12.6163117  )
        13           Ti1 tau(  13) = (   0.0603338   2.9457994  12.6026339  )
        14           Ti1 tau(  14) = (   3.3706290   1.4705258  12.5092779  )
        15           O1  tau(  15) = (   6.5788109   0.0160518  14.6499261  )
        16           O1  tau(  16) = (   3.3158691   0.0087694  13.9605792  )
        17           O1  tau(  17) = (   4.5613999   1.5213109  16.0555727  )
        18           O1  tau(  18) = (   2.0390476   1.5587733  16.0026688  )
        19           Ti1 tau(  19) = (   3.2958454   3.0042652  15.6812246  )
        20           Ti1 tau(  20) = (   0.0477533   1.5223793  15.8108347  )
        21           O1  tau(  21) = (   3.2904802   0.0005063   4.7018136  )
        22           O1  tau(  22) = (   0.0778492   0.0082781  17.2116806  )
        23           O1  tau(  23) = (   1.3043587   1.4918075   6.0039043  )
        24           O1  tau(  24) = (   5.2767064   1.4903225   6.0039473  )
        25           Ti1 tau(  25) = (   0.0000382   5.9609847   6.0000000  )
        26           Ti1 tau(  26) = (   3.2902200   4.4714249   6.0002472  )
        27           O1  tau(  27) = (   0.0002396   2.9813036   7.9858123  )
        28           O1  tau(  28) = (   3.2902150   2.9813002   7.3038282  )
        29           O1  tau(  29) = (   4.5938453   4.4726049   9.2879030  )
        30           O1  tau(  30) = (   1.9864658   4.4711199   9.2879459  )
        31           Ti1 tau(  31) = (   3.2891106   5.8743827   9.1763621  )
        32           Ti1 tau(  32) = (   0.0006254   4.4649316   9.2693709  )
        33           O1  tau(  33) = (   3.3003553   2.9806904  11.3444413  )
        34           O1  tau(  34) = (   0.0092240   2.9805883  10.6323155  )
        35           O1  tau(  35) = (   1.2971990   4.4717445  12.6361083  )
        36           O1  tau(  36) = (   5.2938362   4.4783115  12.6231241  )
        37           Ti1 tau(  37) = (   0.0537182   5.9220384  12.5388396  )
        38           Ti1 tau(  38) = (   3.3696634   4.4695314  12.5002334  )
        39           O1  tau(  39) = (   0.0023790   2.9538485  14.6690360  )
        40           O1  tau(  40) = (   3.3142834   2.9899978  13.8932647  )
        41           O1  tau(  41) = (   4.5682027   4.4688565  16.0600133  )
        42           O1  tau(  42) = (   2.0418658   4.4415600  16.0251682  )
        43           Ti1 tau(  43) = (   3.3511655   0.0130708  15.8150828  )
        44           Ti1 tau(  44) = (   0.0311020   4.6533438  16.0685068  )
        45           O1  tau(  45) = (   3.2900926   2.9813045   4.7018136  )
        46           O1  tau(  46) = (   1.3039711   4.4726057   6.0039043  )
        47           O1  tau(  47) = (   5.2763189   4.4711207   6.0039473  )
        48           C1  tau(  48) = (   0.0453995   2.9433715  17.6444507  )
        49           H1  tau(  49) = (   0.9770157   2.9292850  18.2072415  )
        50           N1  tau(  50) = (   5.5932985   2.7872967  18.4085793  )
        51           N1  tau(  51) = (   4.6087457   2.6299947  18.9712495  )
        52           O1  tau(  52) = (   3.0556172   5.9308547  18.1262901  )
        53           H1  tau(  53) = (   3.4776725   0.7204629  18.5958315  )
        54           H1  tau(  54) = (   2.0935776   0.0631959  18.2589326  )

     number of k points=    10  Fermi-Dirac smearing, width (Ry)=  0.0073
                       cart. coord. in units 2pi/alat
        k(    1) = (   0.0000000   0.0000000   0.0000000), wk =   0.1250000
        k(    2) = (   0.0000000   0.0419351   0.0000000), wk =   0.2500000
        k(    3) = (   0.0000000  -0.0838702   0.0000000), wk =   0.1250000
        k(    4) = (   0.0379955   0.0000049   0.0000000), wk =   0.2500000
        k(    5) = (   0.0379955   0.0419400   0.0000000), wk =   0.2500000
        k(    6) = (   0.0379955  -0.0838652   0.0000000), wk =   0.2500000
        k(    7) = (   0.0379955  -0.0419301   0.0000000), wk =   0.2500000
        k(    8) = (  -0.0759910  -0.0000099   0.0000000), wk =   0.1250000
        k(    9) = (  -0.0759910   0.0419252   0.0000000), wk =   0.2500000
        k(   10) = (  -0.0759910  -0.0838800   0.0000000), wk =   0.1250000

     Initial potential from superposition of free atoms

     starting charge  384.99916, renormalised to  401.00000

     negative rho (up, down):  1.776E-02 0.000E+00

     %%%%%%%%%%%%%%%%%%%%%%%%%%%%%%%%%%%%%%%%%%%%%%%%%%%%%%%%%%%%%%%%%%%%%%%%
     %                                                                      %
     % You are using vdW-DF, which was implemented by the Thonhauser group. %
     % Please cite the following two papers that made this development      %
     % possible and the two reviews that describe the various versions:     %
     %                                                                      %
     %   T. Thonhauser et al., PRL 115, 136402 (2015).                      %
     %   T. Thonhauser et al., PRB 76, 125112 (2007).                       %
     %   K. Berland et al., Rep. Prog. Phys. 78, 066501 (2015).             %
     %   D.C. Langreth et al., J. Phys.: Condens. Matter 21, 084203 (2009). %
     %                                                                      %
     %                                                                      %
     % If you are calculating the stress with vdW-DF, please also cite:     %
     %                                                                      %
     %   R. Sabatini et al., J. Phys.: Condens. Matter 24, 424209 (2012).   %
     %                                                                      %
     %%%%%%%%%%%%%%%%%%%%%%%%%%%%%%%%%%%%%%%%%%%%%%%%%%%%%%%%%%%%%%%%%%%%%%%%

     Adding external electric field

     Computed dipole along edir(3) :
        Dipole              -11.5984 Ry au,        -29.4801 Debye
        Dipole field         -0.0219 Ry au,

        Potential amp.        2.0290 Ry
        Total length         46.3494 bohr

     Starting wfcs are  303 atomic wfcs
  @ DRIVER MODE: Message from server: STATUS
  @ DRIVER MODE: Message from server: POSDATA
  @ DRIVER MODE: Reading and sharing cell
  @ DRIVER MODE: Reading and sharing positions
  @ DRIVER MODE: Received positions

     Self-consistent Calculation

     iteration #  1     ecut=    29.40 Ry     beta= 0.05
     Davidson diagonalization with overlap
     c_bands:  3 eigenvalues not converged
     c_bands:  1 eigenvalues not converged
     c_bands:  3 eigenvalues not converged
     c_bands:  3 eigenvalues not converged
     c_bands:  5 eigenvalues not converged
     c_bands:  2 eigenvalues not converged
     c_bands:  3 eigenvalues not converged
     c_bands:  1 eigenvalues not converged
     c_bands:  5 eigenvalues not converged
     ethr =  1.00E-05,  avg # of iterations = 23.5

[...]

     total energy              =   -2415.43885544 Ry
     estimated scf accuracy    <    6267.18846377 Ry

     iteration #  2     ecut=    29.40 Ry     beta= 0.05
     Davidson diagonalization with overlap
     ethr =  1.00E-02,  avg # of iterations = 30.9

[...]

     iteration # 59     ecut=    29.40 Ry     beta= 0.05
     Davidson diagonalization with overlap
     c_bands:  2 eigenvalues not converged
     ethr =  5.61E-10,  avg # of iterations = 14.3

[...]

     total energy              =   -2971.50202188 Ry
     estimated scf accuracy    <       0.00000011 Ry

     iteration # 65     ecut=    29.40 Ry     beta= 0.05
     Davidson diagonalization with overlap
     ethr =  2.67E-11,  avg # of iterations = 12.1

     negative rho (up, down):  1.755E-02 0.000E+00

     Adding external electric field

     Computed dipole along edir(3) :
        Dipole                0.5774 Ry au,          1.4675 Debye
        Dipole field          0.0011 Ry au,

        Potential amp.       -0.1010 Ry
        Total length         46.3494 bohr

     End of self-consistent calculation

          k = 0.0000 0.0000 0.0000 ( 18029 PWs)   bands (ev):

   -55.8816 -55.8475 -55.8469 -55.8414 -55.8103 -55.7248 -55.6956 -55.6873
   -55.6618 -55.6616 -55.6520 -55.6280 -55.4136 -55.2217 -54.8632 -54.8292
   -32.3895 -32.3651 -32.2472 -32.2199 -32.1944 -32.1739 -32.1516 -32.1449
   -32.1253 -32.0727 -32.0675 -32.0654 -32.0339 -32.0273 -32.0223 -31.9963
   -31.9870 -31.9791 -31.9719 -31.9444 -31.9388 -31.9212 -31.8998 -31.8891
   -31.8863 -31.8746 -31.8740 -31.8601 -31.8534 -31.8487 -31.8376 -31.8345
   -31.8298 -31.8256 -31.8149 -31.8031 -31.7737 -31.6622 -31.6283 -31.4817
   -31.4663 -31.4347 -31.2704 -31.1817 -31.1593 -31.0871 -31.0006 -30.8896
   -20.5021 -18.7486 -16.5840 -16.3538 -16.1299 -16.0390 -15.9939 -15.7837
   -15.6746 -15.6190 -15.4953 -15.4322 -15.4233 -15.4159 -15.3947 -15.3849
   -15.3282 -15.3184 -15.3055 -15.2998 -15.2720 -15.2353 -15.2194 -15.2180
   -15.1465 -15.0434 -15.0223 -14.9993 -14.9971 -14.9390 -14.4982 -13.6102
   -13.3652 -13.2487  -6.5514  -5.8293  -4.7086  -4.4894  -3.9577  -3.8238
    -3.7885  -3.7525  -3.7165  -3.5213  -3.4907  -3.3780  -3.2316  -3.1310
    -3.0617  -3.0262  -2.9726  -2.8967  -2.8273  -2.7649  -2.7295  -2.6871
    -2.6777  -2.6420  -2.6355  -2.6177  -2.5982  -2.4975  -2.4611  -2.4137
    -2.3490  -2.2470  -2.2272  -2.1953  -2.1900  -2.1545  -2.1466  -2.1255
    -2.1082  -2.0987  -2.0236  -1.9271  -1.8778  -1.7852  -1.6728  -1.5358
    -1.5343  -1.4886  -1.3605  -1.3471  -1.3170  -1.2903  -1.2750  -1.2321
    -1.1434  -1.0873  -1.0410  -0.9778  -0.9045  -0.8154  -0.7716  -0.7203
    -0.6571  -0.6406  -0.6325  -0.6140  -0.5763  -0.4700  -0.4459  -0.3691
    -0.3666  -0.2812  -0.2497  -0.1893  -0.1589  -0.1203  -0.0816  -0.0080
     0.0120   0.0370   0.0550   0.0822   0.0911   0.1324   0.1656   0.1700
     0.3655   0.3914   0.4501   0.4601   0.5201   0.6414   0.6593   0.7738
     0.8908   1.0864   1.1594   1.2527   1.3512   1.7307   1.7766   1.7830
     3.2419   3.3395   3.3781   3.3871   3.4744   3.4862   3.7030   3.7490
     3.7566   3.8115

[...]

          k = 0.0380-0.0419 0.0000 ( 17876 PWs)   bands (ev):

[...]

          k =-0.0760-0.0000 0.0000 ( 17886 PWs)   bands (ev):

[...]

          k =-0.0760-0.0839 0.0000 ( 17948 PWs)   bands (ev):

   -55.8649 -55.8641 -55.8403 -55.8315 -55.8250 -55.7136 -55.6986 -55.6790
   -55.6777 -55.6534 -55.6468 -55.6432 -55.4122 -55.2230 -54.8462 -54.8460
   -32.2065 -32.1842 -32.1806 -32.1801 -32.1597 -32.1590 -32.1312 -32.1040
   -32.0916 -32.0643 -32.0562 -32.0514 -32.0379 -32.0077 -31.9999 -31.9932
   -31.9855 -31.9851 -31.9845 -31.9832 -31.9814 -31.9790 -31.9601 -31.9271
   -31.9148 -31.9099 -31.9022 -31.8809 -31.8802 -31.8767 -31.8696 -31.8620
   -31.8582 -31.8544 -31.8517 -31.8493 -31.7858 -31.6655 -31.6215 -31.5387
   -31.4840 -31.4576 -31.1721 -31.1720 -31.0832 -31.0831 -31.0439 -31.0439
   -20.5014 -18.7477 -16.0447 -15.9283 -15.8468 -15.8060 -15.7381 -15.7022
   -15.6549 -15.5906 -15.5608 -15.5570 -15.5028 -15.4865 -15.4461 -15.4316
   -15.4070 -15.4009 -15.3849 -15.3366 -15.3246 -15.3162 -15.3074 -15.3038
   -15.2634 -15.2289 -15.2036 -15.1992 -15.0933 -14.9628 -14.6727 -13.6190
   -13.3506 -13.3504  -6.5493  -5.8243  -4.6674  -4.4627  -3.6318  -3.3296
    -3.3202  -3.1048  -3.0502  -2.9923  -2.9863  -2.9411  -2.8186  -2.7909
    -2.7425  -2.7342  -2.6953  -2.6900  -2.6851  -2.6656  -2.6319  -2.6126
    -2.6073  -2.5559  -2.5504  -2.5436  -2.5263  -2.5154  -2.5079  -2.4834
    -2.4553  -2.4408  -2.4239  -2.3945  -2.3122  -2.2791  -2.1135  -2.0722
    -2.0245  -2.0160  -1.9850  -1.9649  -1.9525  -1.9312  -1.8875  -1.7299
    -1.6524  -1.5855  -1.5742  -1.5648  -1.4912  -1.4742  -1.3621  -1.3248
    -1.2919  -1.2579  -1.1829  -1.1051  -1.0964  -1.0758  -0.9708  -0.9634
    -0.9292  -0.8860  -0.8473  -0.8365  -0.8279  -0.7488  -0.6937  -0.6226
    -0.6162  -0.5916  -0.5785  -0.5525  -0.5275  -0.4347  -0.3668  -0.3110
    -0.2768  -0.1893  -0.1596   0.0627   0.0844   0.1948   0.2080   0.2756
     0.3173   0.4258   0.4342   0.4815   0.5048   0.5306   0.5920   0.6582
     0.6679   0.6950   0.8129   1.5225   1.5239   1.5962   1.5965   1.6972
     3.5606   3.5928   3.6253   3.6352   3.7447   3.7653   3.7855   3.7881
     3.9034   3.9241

     the Fermi energy is     3.2496 ev

!    total energy              =   -2971.50205678 Ry
     estimated scf accuracy    <       0.00000004 Ry
     smearing contrib. (-TS)   =      -0.02121404 Ry
     internal energy E=F+TS    =   -2971.48084275 Ry

     The total energy is F=E-TS. E is the sum of the following terms:
     one-electron contribution =  -24213.78983087 Ry
     hartree contribution      =   12197.56288939 Ry
     xc contribution           =    -492.38766154 Ry
     ewald contribution        =    9537.13313117 Ry
     electric field correction =       0.00062910 Ry

     convergence has been achieved in  65 iterations

     Forces acting on atoms (cartesian axes, Ry/au):

     atom    1 type  1   force =     0.00019185   -0.00029924    0.09588604
     atom    2 type  1   force =    -0.00004073   -0.00049263   -0.17569508
     atom    3 type  2   force =     0.00007065   -0.00014533   -0.02406772
     atom    4 type  2   force =     0.00005890   -0.00155535    0.05356895
     atom    5 type  2   force =    -0.01129861   -0.00085017    0.00337102
     atom    6 type  2   force =     0.01317328   -0.00018412    0.00286256
     atom    7 type  1   force =    -0.00059558    0.00052820   -0.00603242
     atom    8 type  1   force =     0.00022115    0.00883258    0.02325256
     atom    9 type  2   force =    -0.00020816    0.00013901   -0.00007985
     atom   10 type  2   force =    -0.00059997    0.00120509   -0.01588176
     atom   11 type  2   force =    -0.00017988    0.00013982   -0.00003213
     atom   12 type  2   force =    -0.00019396   -0.00008032   -0.00016325
     atom   13 type  1   force =     0.00000187    0.00058247    0.00018107
     atom   14 type  1   force =    -0.00005782    0.00002622   -0.00000869
     atom   15 type  2   force =    -0.00025429   -0.00008295   -0.00008977
     atom   16 type  2   force =    -0.00022969    0.00022633   -0.00018202
     atom   17 type  2   force =    -0.00033888   -0.00007254    0.00026217
     atom   18 type  2   force =    -0.00033543    0.00005099    0.00024242
     atom   19 type  1   force =    -0.00012213   -0.00010829   -0.00014552
     atom   20 type  1   force =    -0.00029677   -0.00046298    0.00008003
     atom   21 type  2   force =     0.00006270   -0.00004443    0.10324816
     atom   22 type  2   force =     0.00016051    0.00020638   -0.00026361
     atom   23 type  2   force =    -0.07143725   -0.00013181   -0.02768158
     atom   24 type  2   force =     0.07141779    0.00029563   -0.02771445
     atom   25 type  1   force =     0.00002726   -0.00023691    0.09567288
     atom   26 type  1   force =    -0.00015431   -0.00036516   -0.17584887
     atom   27 type  2   force =     0.00010111   -0.00019923   -0.02306170
     atom   28 type  2   force =     0.00012348   -0.00121857    0.05308599
     atom   29 type  2   force =    -0.01154979    0.00062465    0.00328492
     atom   30 type  2   force =     0.01329002    0.00093233    0.00278975
     atom   31 type  1   force =    -0.00047128    0.00378015   -0.01063217
     atom   32 type  1   force =     0.00008795   -0.01102651    0.02365614
     atom   33 type  2   force =     0.00011206   -0.00003923    0.00003883
     atom   34 type  2   force =     0.00007916    0.00061958   -0.02081420
     atom   35 type  2   force =    -0.00019078   -0.00022880    0.00000559
     atom   36 type  2   force =    -0.00038683    0.00001324   -0.00008785
     atom   37 type  1   force =     0.00032611   -0.00053193   -0.00006149
     atom   38 type  1   force =     0.00000947    0.00001562   -0.00017357
     atom   39 type  2   force =    -0.00034417   -0.00001520    0.00002687
     atom   40 type  2   force =     0.00002973   -0.00016885   -0.00030666
     atom   41 type  2   force =    -0.00026853   -0.00026445   -0.00013336
     atom   42 type  2   force =    -0.00004267   -0.00024502   -0.00033817
     atom   43 type  1   force =     0.00021383   -0.00073069   -0.00015804
     atom   44 type  1   force =    -0.00017188   -0.00026359    0.00026834
     atom   45 type  2   force =     0.00006344   -0.00008341    0.10323154
     atom   46 type  2   force =    -0.07144652   -0.00009501   -0.02770129
     atom   47 type  2   force =     0.07144792    0.00034222   -0.02772811
     atom   48 type  3   force =    -0.00010488    0.00009224    0.00045430
     atom   49 type  4   force =     0.00026512    0.00021396    0.00019211
     atom   50 type  5   force =     0.00108697    0.00049432   -0.00035159
     atom   51 type  5   force =    -0.00129026    0.00004217   -0.00002874
     atom   52 type  2   force =     0.00331019    0.01255518    0.00733678
     atom   53 type  4   force =    -0.00422310   -0.01052374   -0.00601627
     atom   54 type  4   force =     0.00090163   -0.00121197   -0.00151909

     Total force =     0.367350     Total SCF correction =     0.000620
  @ DRIVER MODE: Message from server: STATUS
  @ DRIVER MODE: Message from server: GETFORCE
  @ DRIVER MODE: Returning v,forces,stress,ensemble

     Writing output data file ./calc.save/
  @ DRIVER MODE: Message from server: EXIT
  @ DRIVE MODE: Exiting

     General routines

     Parallel routines

   This run was terminated on:   0:24:15  16Sep2021

   JOB DONE.