     Program PWSCF v.6.7GPU starts on 15Sep2021 at  3:25:13

     R & G space division:  proc/nbgrp/npool/nimage =      10
     Reading input from /storage/home/hcoda1/3/ntian30/research/carbon/CxH_vib/CH2_calc/ads_slab/CH2OHN2_a/out_0040/pw.inp
Warning: card &CELL ignored
Warning: card   CELL_DYNAMICS='IPI', ignored
Warning: card / ignored

     Current dimensions of program PWSCF are:
     Max number of different atomic species (ntypx) = 10
     Max number of k-points (npk) =  40000
     Max angular momentum in pseudopotentials (lmaxx) =  3
     Presently no symmetry can be used with electric field

     Message from routine cell_base_init:
     DEPRECATED: use true lattice parameter, not A to a.u. conversion factor

     IMPORTANT: XC functional enforced from input :
     Exchange-correlation= BEEF-VDW
                           (   1   4  43  14   2   0   0)
     Any further DFT definition will be discarded
     Please, verify this is what you really want

  @ DRIVER MODE: Connecting to
 qe_1139763_2840440.sched-torque.pace.gatech.educhfc4pmf_scratch
  using UNIX socket
  @ DRIVER MODE: Message from server: STATUS
  @ DRIVER MODE: Message from server: INIT
  @ DRIVER MODE: Receiving replica           0          -1
  @ DRIVER MODE: Receiving encoded integer          25
  @ DRIVER MODE:  SCF:  T  FORCE:  T  STRESS:  F  VC:  F  ENSEMBLE:  F
  @ DRIVER MODE:  SCF:  T  FORCE:  T  STRESS:  F  VC:  F  ENSEMBLE:  F

     Using Slab Decomposition

     bravais-lattice index     =            0
     lattice parameter (alat)  =       1.8897  a.u.
     unit-cell volume          =    6658.9804 (a.u.)^3
     number of atoms/cell      =           54
     number of atomic types    =            5
     number of electrons       =       401.00
     number of Kohn-Sham states=          210
     kinetic-energy cutoff     =      29.3995  Ry
     charge density cutoff     =     293.9946  Ry
     scf convergence threshold =      7.3E-08
     mixing beta               =       0.0500
     number of iterations used =            8  plain     mixing
     Exchange-correlation= BEEF-VDW
                           (   1   4  43  14   2   0   0)

     celldm(1)=   1.889726  celldm(2)=   0.000000  celldm(3)=   0.000000
     celldm(4)=   0.000000  celldm(5)=   0.000000  celldm(6)=   0.000000

     crystal axes: (cart. coord. in units of alat)
               a(1) = (   6.579727   0.000000   0.000000 )
               a(2) = (  -0.000775   5.961596   0.000000 )
               a(3) = (   0.000000   0.000000  25.155947 )

     reciprocal axes: (cart. coord. in units 2 pi/alat)
               b(1) = (  0.151982  0.000020  0.000000 )
               b(2) = (  0.000000  0.167740  0.000000 )
               b(3) = (  0.000000  0.000000  0.039752 )

     PseudoPot. # 1 for C  read from file:
     /storage/coda1/p-amedford6/0/shared/rich_project_chbe-medford/medford-share/data/pseudos_module/espresso/nninc/pbe/van/C.UPF
     MD5 check sum: 1a69bf6b8db32088f5b2163dbdb77a27
     Pseudo is Ultrasoft, Zval =  4.0
     Generated by new atomic code, or converted to UPF format
     Using radial grid of  721 points,  4 beta functions with:
                l(1) =   0
                l(2) =   0
                l(3) =   1
                l(4) =   1
     Q(r) pseudized with  8 coefficients,  rinner =    0.800   0.800   0.800

     PseudoPot. # 2 for H  read from file:
     /storage/coda1/p-amedford6/0/shared/rich_project_chbe-medford/medford-share/data/pseudos_module/espresso/nninc/pbe/van/H.UPF
     MD5 check sum: b5ee9d7bfd3a09ee7748110bda690ff7
     Pseudo is Ultrasoft, Zval =  1.0
     Generated by new atomic code, or converted to UPF format
     Using radial grid of  615 points,  1 beta functions with:
                l(1) =   0
     Q(r) pseudized with  8 coefficients,  rinner =    0.800

     PseudoPot. # 3 for O  read from file:
     /storage/coda1/p-amedford6/0/shared/rich_project_chbe-medford/medford-share/data/pseudos_module/espresso/nninc/pbe/van/O.UPF
     MD5 check sum: 78c19812648e8988a0fe644b0f25305e
     Pseudo is Ultrasoft, Zval =  6.0
     Generated by new atomic code, or converted to UPF format
     Using radial grid of  737 points,  4 beta functions with:
                l(1) =   0
                l(2) =   0
                l(3) =   1
                l(4) =   1
     Q(r) pseudized with  8 coefficients,  rinner =    0.800   0.800   0.800

     PseudoPot. # 4 for Ti read from file:
     /storage/coda1/p-amedford6/0/shared/rich_project_chbe-medford/medford-share/data/pseudos_module/espresso/nninc/pbe/van/Ti.UPF
     MD5 check sum: 8e4df49b7f0d34bbd5052bf3f5ea0213
     Pseudo is Ultrasoft, Zval = 12.0
     Generated by new atomic code, or converted to UPF format
     Using radial grid of  851 points,  6 beta functions with:
                l(1) =   0
                l(2) =   0
                l(3) =   1
                l(4) =   1
                l(5) =   2
                l(6) =   2
     Q(r) pseudized with  8 coefficients,  rinner =    1.000   1.000   1.000
                                                       1.000   1.000

     PseudoPot. # 5 for N  read from file:
     /storage/coda1/p-amedford6/0/shared/rich_project_chbe-medford/medford-share/data/pseudos_module/espresso/nninc/pbe/van/N.UPF
     MD5 check sum: 90d10febe142ad51ac9d5be1deb811c4
     Pseudo is Ultrasoft, Zval =  5.0
     Generated by new atomic code, or converted to UPF format
     Using radial grid of  729 points,  4 beta functions with:
                l(1) =   0
                l(2) =   0
                l(3) =   1
                l(4) =   1
     Q(r) pseudized with  8 coefficients,  rinner =    0.800   0.800   0.800

     atomic species   valence    mass     pseudopotential
        C1             4.00    12.01100     C ( 1.00)
        H1             1.00     1.00800     H ( 1.00)
        O1             6.00    15.99900     O ( 1.00)
        Ti1           12.00    47.86700     Ti( 1.00)
        N1             5.00    14.00700     N ( 1.00)

     No symmetry found

   Cartesian axes

     site n.     atom                  positions (alat units)
         1           C1  tau(   1) = (   5.1764158   1.5385028  19.8564928  )
         2           H1  tau(   2) = (   4.2418317   1.4168958  19.3325039  )
         3           H1  tau(   3) = (   6.1328006   2.9100337  18.2018079  )
         4           H1  tau(   4) = (   6.0297582   0.9181690  19.6386741  )
         5           O1  tau(   5) = (   0.0006271   0.0005054   7.9858123  )
         6           O1  tau(   6) = (   3.2906025   0.0005020   7.3038282  )
         7           O1  tau(   7) = (   4.5942328   1.4918067   9.2879030  )
         8           O1  tau(   8) = (   1.9868534   1.4903216   9.2879459  )
         9           O1  tau(   9) = (   3.2696825   0.0177092  11.3460806  )
        10           O1  tau(  10) = (   6.5743896   0.0111799  10.6115589  )
        11           O1  tau(  11) = (   1.2770957   1.5070501  12.6511825  )
        12           O1  tau(  12) = (   5.2749141   1.5057152  12.6378801  )
        13           O1  tau(  13) = (   6.5263050   0.0247340  14.7317399  )
        14           O1  tau(  14) = (   3.2747511   0.0213673  13.9312909  )
        15           O1  tau(  15) = (   4.4933390   1.5239927  16.1070736  )
        16           O1  tau(  16) = (   2.0026543   1.5217075  16.0711130  )
        17           O1  tau(  17) = (   3.2904802   0.0005063   4.7018136  )
        18           O1  tau(  18) = (   6.5469758   0.0421337  17.2556835  )
        19           O1  tau(  19) = (   1.3043587   1.4918075   6.0039043  )
        20           O1  tau(  20) = (   5.2767064   1.4903225   6.0039473  )
        21           O1  tau(  21) = (   0.0002396   2.9813036   7.9858123  )
        22           O1  tau(  22) = (   3.2902150   2.9813002   7.3038282  )
        23           O1  tau(  23) = (   4.5938453   4.4726049   9.2879030  )
        24           O1  tau(  24) = (   1.9864658   4.4711199   9.2879459  )
        25           O1  tau(  25) = (   3.2722311   3.0011533  11.3472759  )
        26           O1  tau(  26) = (   6.5787409   2.9955660  10.5677177  )
        27           O1  tau(  27) = (   1.2755865   4.4883074  12.6550720  )
        28           O1  tau(  28) = (   5.2773609   4.4903743  12.6413705  )
        29           O1  tau(  29) = (   6.5451067   2.9841024  14.7029789  )
        30           O1  tau(  30) = (   3.2773495   3.0062142  13.9304278  )
        31           O1  tau(  31) = (   4.4941242   4.5002890  16.1165364  )
        32           O1  tau(  32) = (   2.0016379   4.5015838  16.0818063  )
        33           O1  tau(  33) = (   3.2900926   2.9813045   4.7018136  )
        34           O1  tau(  34) = (   1.3039711   4.4726057   6.0039043  )
        35           O1  tau(  35) = (   5.2763189   4.4711207   6.0039473  )
        36           O1  tau(  36) = (   6.5536212   3.0044252  17.3297899  )
        37           Ti1 tau(  37) = (   0.0004258   2.9801865   6.0000000  )
        38           Ti1 tau(  38) = (   3.2906075   1.4906267   6.0002472  )
        39           Ti1 tau(  39) = (   3.3348906   3.0327224   9.1579215  )
        40           Ti1 tau(  40) = (   0.0203972   1.6099837   9.3624797  )
        41           Ti1 tau(  41) = (   6.5380572   3.0081639  12.8251979  )
        42           Ti1 tau(  42) = (   3.2225065   1.5141752  12.4854623  )
        43           Ti1 tau(  43) = (   3.2525775   3.0161725  15.7233172  )
        44           Ti1 tau(  44) = (   6.5465844   1.4469101  15.9770741  )
        45           Ti1 tau(  45) = (   0.0000382   5.9609847   6.0000000  )
        46           Ti1 tau(  46) = (   3.2902200   4.4714249   6.0002472  )
        47           Ti1 tau(  47) = (   3.2831171   0.0558662   9.1532617  )
        48           Ti1 tau(  48) = (   0.0294011   4.5318189   9.2743274  )
        49           Ti1 tau(  49) = (   6.5160019   0.0223579  12.5245727  )
        50           Ti1 tau(  50) = (   3.2207252   4.4944464  12.4919313  )
        51           Ti1 tau(  51) = (   3.2545639   0.0336594  15.7221480  )
        52           Ti1 tau(  52) = (   6.5427997   4.6104004  16.1309301  )
        53           N1  tau(  53) = (   5.0796009   2.6163306  22.0446247  )
        54           N1  tau(  54) = (   5.1188049   2.1015644  21.0330699  )

     number of k points=    10  Fermi-Dirac smearing, width (Ry)=  0.0073
                       cart. coord. in units 2pi/alat
        k(    1) = (   0.0000000   0.0000000   0.0000000), wk =   0.1250000
        k(    2) = (   0.0000000   0.0419351   0.0000000), wk =   0.2500000
        k(    3) = (   0.0000000  -0.0838702   0.0000000), wk =   0.1250000
        k(    4) = (   0.0379955   0.0000049   0.0000000), wk =   0.2500000
        k(    5) = (   0.0379955   0.0419400   0.0000000), wk =   0.2500000
        k(    6) = (   0.0379955  -0.0838652   0.0000000), wk =   0.2500000
        k(    7) = (   0.0379955  -0.0419301   0.0000000), wk =   0.2500000
        k(    8) = (  -0.0759910  -0.0000099   0.0000000), wk =   0.1250000
        k(    9) = (  -0.0759910   0.0419252   0.0000000), wk =   0.2500000
        k(   10) = (  -0.0759910  -0.0838800   0.0000000), wk =   0.1250000

     Initial potential from superposition of free atoms

     starting charge  384.99916, renormalised to  401.00000

     negative rho (up, down):  1.196E-02 0.000E+00

     %%%%%%%%%%%%%%%%%%%%%%%%%%%%%%%%%%%%%%%%%%%%%%%%%%%%%%%%%%%%%%%%%%%%%%%%
     %                                                                      %
     % You are using vdW-DF, which was implemented by the Thonhauser group. %
     % Please cite the following two papers that made this development      %
     % possible and the two reviews that describe the various versions:     %
     %                                                                      %
     %   T. Thonhauser et al., PRL 115, 136402 (2015).                      %
     %   T. Thonhauser et al., PRB 76, 125112 (2007).                       %
     %   K. Berland et al., Rep. Prog. Phys. 78, 066501 (2015).             %
     %   D.C. Langreth et al., J. Phys.: Condens. Matter 21, 084203 (2009). %
     %                                                                      %
     %                                                                      %
     % If you are calculating the stress with vdW-DF, please also cite:     %
     %                                                                      %
     %   R. Sabatini et al., J. Phys.: Condens. Matter 24, 424209 (2012).   %
     %                                                                      %
     %%%%%%%%%%%%%%%%%%%%%%%%%%%%%%%%%%%%%%%%%%%%%%%%%%%%%%%%%%%%%%%%%%%%%%%%

     Adding external electric field

     Computed dipole along edir(3) :
        Dipole              -14.0962 Ry au,        -35.8290 Debye
        Dipole field         -0.0266 Ry au,

        Potential amp.        2.4659 Ry
        Total length         46.3494 bohr

     Starting wfcs are  303 atomic wfcs
  @ DRIVER MODE: Message from server: STATUS
  @ DRIVER MODE: Message from server: POSDATA
  @ DRIVER MODE: Reading and sharing cell
  @ DRIVER MODE: Reading and sharing positions
  @ DRIVER MODE: Received positions

     Self-consistent Calculation

     iteration #  1     ecut=    29.40 Ry     beta= 0.05
     Davidson diagonalization with overlap
     c_bands:  5 eigenvalues not converged
     c_bands:  4 eigenvalues not converged
     c_bands:  5 eigenvalues not converged
     c_bands:  2 eigenvalues not converged
     c_bands:  4 eigenvalues not converged
     c_bands:  4 eigenvalues not converged
     c_bands:  4 eigenvalues not converged
     c_bands:  4 eigenvalues not converged
     c_bands:  5 eigenvalues not converged
     ethr =  1.00E-05,  avg # of iterations = 22.0

[...]

     total energy              =   -2410.41829052 Ry
     estimated scf accuracy    <    6378.92414376 Ry

     iteration #  2     ecut=    29.40 Ry     beta= 0.05
     Davidson diagonalization with overlap
     ethr =  1.00E-02,  avg # of iterations = 24.1

[...]

     iteration # 72     ecut=    29.40 Ry     beta= 0.05
     Davidson diagonalization with overlap
     c_bands:  2 eigenvalues not converged
     c_bands:  2 eigenvalues not converged
     ethr =  2.15E-10,  avg # of iterations = 15.8

[...]

     total energy              =   -2971.53788667 Ry
     estimated scf accuracy    <       0.00000012 Ry

     iteration # 77     ecut=    29.40 Ry     beta= 0.05
     Davidson diagonalization with overlap
     ethr =  3.04E-11,  avg # of iterations = 13.1

     negative rho (up, down):  1.326E-02 0.000E+00

     Adding external electric field

     Computed dipole along edir(3) :
        Dipole                0.4533 Ry au,          1.1521 Debye
        Dipole field          0.0009 Ry au,

        Potential amp.       -0.0793 Ry
        Total length         46.3494 bohr

     End of self-consistent calculation

          k = 0.0000 0.0000 0.0000 ( 18029 PWs)   bands (ev):

   -55.7584 -55.7453 -55.7214 -55.7090 -55.6662 -55.6448 -55.6190 -55.5858
   -55.5827 -55.5729 -55.5314 -55.5080 -55.4744 -55.4082 -54.7688 -54.7347
   -32.3095 -32.2255 -32.1921 -32.1066 -32.0773 -32.0596 -32.0501 -32.0267
   -31.9878 -31.9836 -31.9686 -31.9608 -31.9552 -31.9263 -31.9188 -31.9153
   -31.9111 -31.8895 -31.8817 -31.8541 -31.8477 -31.8242 -31.8235 -31.8174
   -31.8005 -31.7940 -31.7759 -31.7718 -31.7642 -31.7620 -31.7547 -31.7474
   -31.7356 -31.7322 -31.7274 -31.6884 -31.6876 -31.6530 -31.6302 -31.6142
   -31.5970 -31.5940 -31.1784 -31.0816 -31.0593 -30.9952 -30.9092 -30.7979
   -20.8327 -16.9918 -16.4937 -16.1995 -16.0329 -15.9056 -15.8769 -15.7761
   -15.5852 -15.4507 -15.4338 -15.3594 -15.3250 -15.3174 -15.2870 -15.2774
   -15.2712 -15.2613 -15.2140 -15.1893 -15.1738 -15.1590 -15.1328 -15.0811
   -15.0338 -14.9621 -14.9146 -14.8743 -14.8547 -14.7555 -14.7368 -13.9206
   -13.2694 -13.1512  -6.5478  -5.6030  -4.9789  -4.5597  -3.8573  -3.6811
    -3.6638  -3.6454  -3.5623  -3.5360  -3.3194  -3.3035  -3.0032  -2.9279
    -2.8976  -2.8943  -2.8802  -2.7025  -2.6492  -2.5956  -2.5837  -2.5725
    -2.5662  -2.5452  -2.5406  -2.5115  -2.4878  -2.4636  -2.4546  -2.3165
    -2.2880  -2.1703  -2.1505  -2.1395  -2.0818  -2.0576  -2.0240  -2.0026
    -1.9974  -1.9804  -1.9587  -1.9237  -1.8384  -1.8143  -1.6895  -1.5844
    -1.5478  -1.4540  -1.3076  -1.2342  -1.2148  -1.1835  -1.1573  -1.1424
    -1.0952  -1.0703  -1.0183  -0.9557  -0.9505  -0.8460  -0.7728  -0.7352
    -0.6578  -0.6381  -0.6198  -0.5004  -0.4795  -0.4682  -0.2957  -0.2349
    -0.2230  -0.2202  -0.0912  -0.0495  -0.0154  -0.0021   0.0275   0.0584
     0.1038   0.1461   0.2051   0.2294   0.2402   0.2486   0.2717   0.2976
     0.4133   0.4296   0.4416   0.5586   0.5779   0.7672   0.7748   0.8919
     0.9920   1.1597   1.2556   1.3267   1.4267   1.7248   1.8445   1.9049
     3.4314   3.4625   3.4938   3.5111   3.5824   3.7054   3.8132   3.8688
     3.8898   3.9116

[...]

          k = 0.0380-0.0419 0.0000 ( 17876 PWs)   bands (ev):

[...]

          k =-0.0760-0.0000 0.0000 ( 17886 PWs)   bands (ev):

[...]

          k =-0.0760-0.0839 0.0000 ( 17948 PWs)   bands (ev):

   -55.7472 -55.7324 -55.7282 -55.7259 -55.6627 -55.6400 -55.6070 -55.5947
   -55.5907 -55.5760 -55.5286 -55.4920 -55.4905 -55.4105 -54.7522 -54.7511
   -32.1131 -32.1091 -32.0921 -32.0495 -32.0393 -32.0340 -32.0163 -32.0157
   -32.0086 -31.9721 -31.9476 -31.9400 -31.9376 -31.9033 -31.8986 -31.8899
   -31.8786 -31.8748 -31.8735 -31.8640 -31.8629 -31.8530 -31.8480 -31.8410
   -31.8378 -31.8157 -31.8109 -31.8066 -31.7992 -31.7990 -31.7952 -31.7765
   -31.7696 -31.7517 -31.7486 -31.7426 -31.7270 -31.7104 -31.6972 -31.6902
   -31.6386 -31.6034 -31.0726 -31.0713 -30.9918 -30.9910 -30.9527 -30.9517
   -20.8325 -16.9261 -15.9360 -15.9269 -15.6847 -15.6784 -15.6742 -15.6036
   -15.5196 -15.4984 -15.4765 -15.4722 -15.4226 -15.4090 -15.3971 -15.3338
   -15.2990 -15.2813 -15.2635 -15.2593 -15.2051 -15.2003 -15.1563 -15.1325
   -15.1143 -15.1087 -15.0839 -15.0797 -15.0408 -14.9794 -14.9110 -13.9204
   -13.2537 -13.2512  -6.5421  -5.6054  -4.9189  -4.5563  -3.5358  -3.2277
    -3.2168  -2.9510  -2.9022  -2.8892  -2.8074  -2.7451  -2.6797  -2.6390
    -2.6141  -2.6059  -2.5976  -2.5904  -2.5815  -2.5768  -2.5593  -2.5423
    -2.5213  -2.5096  -2.4524  -2.4314  -2.4064  -2.3869  -2.3791  -2.3683
    -2.3312  -2.3125  -2.3015  -2.2856  -2.2813  -2.2000  -2.0550  -2.0089
    -1.9137  -1.8937  -1.8844  -1.8416  -1.8199  -1.8030  -1.7883  -1.7390
    -1.7226  -1.5546  -1.4851  -1.4683  -1.4504  -1.4186  -1.3616  -1.2724
    -1.2417  -1.1679  -1.1606  -1.1183  -1.0591  -0.9841  -0.9622  -0.9219
    -0.8627  -0.8258  -0.7688  -0.7359  -0.7141  -0.7066  -0.6557  -0.5992
    -0.5609  -0.5005  -0.4743  -0.4111  -0.3712  -0.3348  -0.2785  -0.2523
    -0.2165  -0.1067   0.0003   0.1364   0.1986   0.2745   0.2881   0.3143
     0.3355   0.4529   0.4839   0.5118   0.5543   0.6416   0.6955   0.7652
     0.7849   0.8132   0.8697   1.6162   1.6174   1.7066   1.7174   1.7276
     3.6286   3.6647   3.6832   3.7322   3.8899   3.8945   3.9132   3.9211
     3.9735   4.0528

     the Fermi energy is     3.3973 ev

!    total energy              =   -2971.53791601 Ry
     estimated scf accuracy    <       0.00000007 Ry
     smearing contrib. (-TS)   =      -0.02329365 Ry
     internal energy E=F+TS    =   -2971.51462236 Ry

     The total energy is F=E-TS. E is the sum of the following terms:
     one-electron contribution =  -22751.58290649 Ry
     hartree contribution      =   11466.90971860 Ry
     xc contribution           =    -492.33465706 Ry
     ewald contribution        =    8805.49283489 Ry
     electric field correction =       0.00038771 Ry

     convergence has been achieved in  77 iterations

     Forces acting on atoms (cartesian axes, Ry/au):

     atom    1 type  1   force =    -0.00142604    0.00567050    0.00598612
     atom    2 type  2   force =    -0.00036946    0.00118666   -0.00017702
     atom    3 type  2   force =    -0.00156337   -0.00084430   -0.00040772
     atom    4 type  2   force =     0.00092720    0.00002934    0.00070937
     atom    5 type  3   force =     0.00034340   -0.00680510   -0.03336459
     atom    6 type  3   force =    -0.00002337    0.00055039    0.04533368
     atom    7 type  3   force =    -0.02047011    0.00052979    0.00450702
     atom    8 type  3   force =     0.01815151   -0.00159936    0.00413805
     atom    9 type  3   force =     0.00013367    0.00000888   -0.00010413
     atom   10 type  3   force =    -0.00004637   -0.00004798    0.00018706
     atom   11 type  3   force =     0.00022589   -0.00009598   -0.00030925
     atom   12 type  3   force =     0.00049136    0.00012162   -0.00015417
     atom   13 type  3   force =     0.00030788   -0.00021158   -0.00020499
     atom   14 type  3   force =     0.00035797    0.00020764   -0.00005775
     atom   15 type  3   force =    -0.00024619   -0.00013870    0.00033382
     atom   16 type  3   force =     0.00027740   -0.00009577    0.00009471
     atom   17 type  3   force =     0.00003257    0.00006086    0.10415148
     atom   18 type  3   force =    -0.00011938    0.00011734    0.00069716
     atom   19 type  3   force =    -0.06901679    0.00070875   -0.02967772
     atom   20 type  3   force =     0.06878733    0.00127403   -0.02967098
     atom   21 type  3   force =     0.00038275    0.00378395   -0.02830134
     atom   22 type  3   force =     0.00085618    0.00084453    0.04703044
     atom   23 type  3   force =    -0.01798975    0.00141207    0.00374904
     atom   24 type  3   force =     0.01769002    0.00226935    0.00327734
     atom   25 type  3   force =    -0.00015923   -0.00019772    0.00003040
     atom   26 type  3   force =     0.00016808   -0.00002840    0.00042005
     atom   27 type  3   force =    -0.00026143   -0.00015017    0.00026100
     atom   28 type  3   force =    -0.00000384   -0.00021091    0.00059012
     atom   29 type  3   force =     0.00009029   -0.00054871    0.00008049
     atom   30 type  3   force =    -0.00019785   -0.00033884    0.00037368
     atom   31 type  3   force =    -0.00035692   -0.00010140    0.00003820
     atom   32 type  3   force =    -0.00006043   -0.00020232   -0.00035509
     atom   33 type  3   force =     0.00004199    0.00003505    0.10423464
     atom   34 type  3   force =    -0.06859460   -0.00136740   -0.02971725
     atom   35 type  3   force =     0.06847497   -0.00099294   -0.02969792
     atom   36 type  3   force =     0.00120631    0.00058704   -0.00004167
     atom   37 type  4   force =    -0.00001071   -0.00159616    0.10639268
     atom   38 type  4   force =    -0.00016728    0.00073998   -0.17961780
     atom   39 type  4   force =    -0.00039599    0.00006830   -0.00014662
     atom   40 type  4   force =     0.00000348    0.00006153   -0.00008825
     atom   41 type  4   force =    -0.00005013    0.00054434   -0.00057197
     atom   42 type  4   force =    -0.00013922    0.00001742    0.00022548
     atom   43 type  4   force =    -0.00013129   -0.00024032   -0.00047027
     atom   44 type  4   force =     0.00052828    0.00056788   -0.00037283
     atom   45 type  4   force =    -0.00000309    0.00122106    0.11837629
     atom   46 type  4   force =    -0.00000063   -0.00034585   -0.17986639
     atom   47 type  4   force =     0.00035094    0.00006055   -0.00025450
     atom   48 type  4   force =    -0.00002648    0.00025664   -0.00034031
     atom   49 type  4   force =     0.00055509    0.00057121   -0.00006193
     atom   50 type  4   force =     0.00014373    0.00012141   -0.00080571
     atom   51 type  4   force =     0.00041994   -0.00078011   -0.00015109
     atom   52 type  4   force =     0.00085624   -0.00110007    0.00051135
     atom   53 type  5   force =     0.00016812    0.01193668    0.01656335
     atom   54 type  5   force =    -0.00014261   -0.01752471   -0.02330379

     Total force =     0.378339     Total SCF correction =     0.000802
  @ DRIVER MODE: Message from server: STATUS
  @ DRIVER MODE: Message from server: GETFORCE
  @ DRIVER MODE: Returning v,forces,stress,ensemble

     Writing output data file ./calc.save/
  @ DRIVER MODE: Message from server: EXIT
  @ DRIVE MODE: Exiting

     General routines

     Parallel routines

   This run was terminated on:   3:46:56  15Sep2021

   JOB DONE.