     Program PWSCF v.6.7GPU starts on 23Aug2021 at 13: 9:30

     R & G space division:  proc/nbgrp/npool/nimage =       6
     Reading input from /storage/home/hcoda1/3/ntian30/research/carbon/CH_vib/ads_slab/CHN2_a/out_0001/pw.inp
Warning: card &CELL ignored
Warning: card   CELL_DYNAMICS='IPI', ignored
Warning: card / ignored

     Current dimensions of program PWSCF are:
     Max number of different atomic species (ntypx) = 10
     Max number of k-points (npk) =  40000
     Max angular momentum in pseudopotentials (lmaxx) =  3
     Presently no symmetry can be used with electric field

     Message from routine cell_base_init:
     DEPRECATED: use true lattice parameter, not A to a.u. conversion factor

     IMPORTANT: XC functional enforced from input :
     Exchange-correlation= BEEF-VDW
                           (   1   4  43  14   2   0   0)
     Any further DFT definition will be discarded
     Please, verify this is what you really want

  @ DRIVER MODE: Connecting to
 qe_1139763_2632791.sched-torque.pace.gatech.edu4r30av4v_scratch
  using UNIX socket
  @ DRIVER MODE: Message from server: STATUS
  @ DRIVER MODE: Message from server: INIT
  @ DRIVER MODE: Receiving replica           0          -1
  @ DRIVER MODE: Receiving encoded integer          25
  @ DRIVER MODE:  SCF:  T  FORCE:  T  STRESS:  F  VC:  F  ENSEMBLE:  F
  @ DRIVER MODE:  SCF:  T  FORCE:  T  STRESS:  F  VC:  F  ENSEMBLE:  F

     Using Slab Decomposition

     bravais-lattice index     =            0
     lattice parameter (alat)  =       1.8897  a.u.
     unit-cell volume          =    6658.9804 (a.u.)^3
     number of atoms/cell      =           51
     number of atomic types    =            5
     number of electrons       =       393.00
     number of Kohn-Sham states=          206
     kinetic-energy cutoff     =      29.3995  Ry
     charge density cutoff     =     293.9946  Ry
     scf convergence threshold =      7.3E-08
     mixing beta               =       0.0500
     number of iterations used =            8  plain     mixing
     Exchange-correlation= BEEF-VDW
                           (   1   4  43  14   2   0   0)

     celldm(1)=   1.889726  celldm(2)=   0.000000  celldm(3)=   0.000000
     celldm(4)=   0.000000  celldm(5)=   0.000000  celldm(6)=   0.000000

     crystal axes: (cart. coord. in units of alat)
               a(1) = (   6.579727   0.000000   0.000000 )
               a(2) = (  -0.000775   5.961596   0.000000 )
               a(3) = (   0.000000   0.000000  25.155947 )

     reciprocal axes: (cart. coord. in units 2 pi/alat)
               b(1) = (  0.151982  0.000020  0.000000 )
               b(2) = (  0.000000  0.167740  0.000000 )
               b(3) = (  0.000000  0.000000  0.039752 )

     PseudoPot. # 1 for Ti read from file:
     /storage/coda1/p-amedford6/0/shared/rich_project_chbe-medford/medford-share/data/pseudos_module/espresso/nninc/pbe/van/Ti.UPF
     MD5 check sum: 8e4df49b7f0d34bbd5052bf3f5ea0213
     Pseudo is Ultrasoft, Zval = 12.0
     Generated by new atomic code, or converted to UPF format
     Using radial grid of  851 points,  6 beta functions with:
                l(1) =   0
                l(2) =   0
                l(3) =   1
                l(4) =   1
                l(5) =   2
                l(6) =   2
     Q(r) pseudized with  8 coefficients,  rinner =    1.000   1.000   1.000
                                                       1.000   1.000

     PseudoPot. # 2 for O  read from file:
     /storage/coda1/p-amedford6/0/shared/rich_project_chbe-medford/medford-share/data/pseudos_module/espresso/nninc/pbe/van/O.UPF
     MD5 check sum: 78c19812648e8988a0fe644b0f25305e
     Pseudo is Ultrasoft, Zval =  6.0
     Generated by new atomic code, or converted to UPF format
     Using radial grid of  737 points,  4 beta functions with:
                l(1) =   0
                l(2) =   0
                l(3) =   1
                l(4) =   1
     Q(r) pseudized with  8 coefficients,  rinner =    0.800   0.800   0.800

     PseudoPot. # 3 for N  read from file:
     /storage/coda1/p-amedford6/0/shared/rich_project_chbe-medford/medford-share/data/pseudos_module/espresso/nninc/pbe/van/N.UPF
     MD5 check sum: 90d10febe142ad51ac9d5be1deb811c4
     Pseudo is Ultrasoft, Zval =  5.0
     Generated by new atomic code, or converted to UPF format
     Using radial grid of  729 points,  4 beta functions with:
                l(1) =   0
                l(2) =   0
                l(3) =   1
                l(4) =   1
     Q(r) pseudized with  8 coefficients,  rinner =    0.800   0.800   0.800

     PseudoPot. # 4 for C  read from file:
     /storage/coda1/p-amedford6/0/shared/rich_project_chbe-medford/medford-share/data/pseudos_module/espresso/nninc/pbe/van/C.UPF
     MD5 check sum: 1a69bf6b8db32088f5b2163dbdb77a27
     Pseudo is Ultrasoft, Zval =  4.0
     Generated by new atomic code, or converted to UPF format
     Using radial grid of  721 points,  4 beta functions with:
                l(1) =   0
                l(2) =   0
                l(3) =   1
                l(4) =   1
     Q(r) pseudized with  8 coefficients,  rinner =    0.800   0.800   0.800

     PseudoPot. # 5 for H  read from file:
     /storage/coda1/p-amedford6/0/shared/rich_project_chbe-medford/medford-share/data/pseudos_module/espresso/nninc/pbe/van/H.UPF
     MD5 check sum: b5ee9d7bfd3a09ee7748110bda690ff7
     Pseudo is Ultrasoft, Zval =  1.0
     Generated by new atomic code, or converted to UPF format
     Using radial grid of  615 points,  1 beta functions with:
                l(1) =   0
     Q(r) pseudized with  8 coefficients,  rinner =    0.800

     atomic species   valence    mass     pseudopotential
        Ti1           12.00    47.86700     Ti( 1.00)
        O1             6.00    15.99900     O ( 1.00)
        N1             5.00    14.00700     N ( 1.00)
        C1             4.00    12.01100     C ( 1.00)
        H1             1.00     1.00800     H ( 1.00)

     No symmetry found

   Cartesian axes

     site n.     atom                  positions (alat units)
         1           Ti1 tau(   1) = (   0.0004258   2.9801865   6.0000000  )
         2           Ti1 tau(   2) = (   3.2906075   1.4906267   6.0002472  )
         3           O1  tau(   3) = (   0.0006271   0.0005054   7.9858123  )
         4           O1  tau(   4) = (   3.2906025   0.0005020   7.3038282  )
         5           O1  tau(   5) = (   4.5942328   1.4918067   9.2879030  )
         6           O1  tau(   6) = (   1.9868534   1.4903216   9.2879459  )
         7           Ti1 tau(   7) = (   3.2907910   2.8959150   9.1758416  )
         8           Ti1 tau(   8) = (   0.0015273   1.4827037   9.2680791  )
         9           O1  tau(   9) = (   3.3035207   5.9473585  11.3310231  )
        10           O1  tau(  10) = (   0.0116148   5.9584955  10.6183126  )
        11           O1  tau(  11) = (   1.3208475   1.4758257  12.6111770  )
        12           O1  tau(  12) = (   5.3082752   1.4698866  12.6250687  )
        13           Ti1 tau(  13) = (   6.5356446   2.9641997  12.6185077  )
        14           Ti1 tau(  14) = (   3.2189969   1.4721334  12.4835407  )
        15           O1  tau(  15) = (   0.0393797   5.9575543  14.6615593  )
        16           O1  tau(  16) = (   3.2985004   5.9511915  13.9168519  )
        17           O1  tau(  17) = (   4.5692420   1.4945533  16.0479082  )
        18           O1  tau(  18) = (   2.0930108   1.4957509  16.0624375  )
        19           Ti1 tau(  19) = (   3.3255584   2.9801015  15.7018593  )
        20           Ti1 tau(  20) = (   6.5669960   1.4976744  15.8335939  )
        21           O1  tau(  21) = (   3.2904802   0.0005063   4.7018136  )
        22           O1  tau(  22) = (   0.0392190   0.0140749  17.2134629  )
        23           O1  tau(  23) = (   1.3043587   1.4918075   6.0039043  )
        24           O1  tau(  24) = (   5.2767064   1.4903225   6.0039473  )
        25           Ti1 tau(  25) = (   0.0000382   5.9609847   6.0000000  )
        26           Ti1 tau(  26) = (   3.2902200   4.4714249   6.0002472  )
        27           O1  tau(  27) = (   0.0002396   2.9813036   7.9858123  )
        28           O1  tau(  28) = (   3.2902150   2.9813002   7.3038282  )
        29           O1  tau(  29) = (   4.5938453   4.4726049   9.2879030  )
        30           O1  tau(  30) = (   1.9864658   4.4711199   9.2879459  )
        31           Ti1 tau(  31) = (   3.2891106   5.8743827   9.1763621  )
        32           Ti1 tau(  32) = (   0.0006254   4.4649316   9.2693709  )
        33           O1  tau(  33) = (   3.3031456   2.9698018  11.3313920  )
        34           O1  tau(  34) = (   0.0092240   2.9805883  10.6323155  )
        35           O1  tau(  35) = (   1.3161540   4.4602657  12.6201046  )
        36           O1  tau(  36) = (   5.3094940   4.4638127  12.6365964  )
        37           Ti1 tau(  37) = (   6.5345696   5.9399333  12.5489351  )
        38           Ti1 tau(  38) = (   3.2177077   4.4523588  12.4826418  )
        39           O1  tau(  39) = (   0.0172592   2.9259015  14.6604509  )
        40           O1  tau(  40) = (   3.3090452   2.9742471  13.9045505  )
        41           O1  tau(  41) = (   4.5663562   4.4668710  16.0744231  )
        42           O1  tau(  42) = (   2.0880155   4.4652721  16.0825153  )
        43           Ti1 tau(  43) = (   3.2840513   5.9573583  15.7162584  )
        44           Ti1 tau(  44) = (   0.0037803   4.6334615  16.1183230  )
        45           O1  tau(  45) = (   3.2900926   2.9813045   4.7018136  )
        46           O1  tau(  46) = (   1.3039711   4.4726057   6.0039043  )
        47           O1  tau(  47) = (   5.2763189   4.4711207   6.0039473  )
        48           N1  tau(  48) = (   0.6303421   2.7964730  18.4694378  )
        49           C1  tau(  49) = (   1.0548146   2.6213466  19.5673862  )
        50           H1  tau(  50) = (   1.9720372   2.4638087  20.0927579  )
        51           N1  tau(  51) = (   0.0785678   2.9476959  17.3929364  )

     number of k points=    10  Fermi-Dirac smearing, width (Ry)=  0.0073
                       cart. coord. in units 2pi/alat
        k(    1) = (   0.0000000   0.0000000   0.0000000), wk =   0.1250000
        k(    2) = (   0.0000000   0.0419351   0.0000000), wk =   0.2500000
        k(    3) = (   0.0000000  -0.0838702   0.0000000), wk =   0.1250000
        k(    4) = (   0.0379955   0.0000049   0.0000000), wk =   0.2500000
        k(    5) = (   0.0379955   0.0419400   0.0000000), wk =   0.2500000
        k(    6) = (   0.0379955  -0.0838652   0.0000000), wk =   0.2500000
        k(    7) = (   0.0379955  -0.0419301   0.0000000), wk =   0.2500000
        k(    8) = (  -0.0759910  -0.0000099   0.0000000), wk =   0.1250000
        k(    9) = (  -0.0759910   0.0419252   0.0000000), wk =   0.2500000
        k(   10) = (  -0.0759910  -0.0838800   0.0000000), wk =   0.1250000

     Initial potential from superposition of free atoms

     starting charge  376.99918, renormalised to  393.00000

     negative rho (up, down):  1.612E-02 0.000E+00

     %%%%%%%%%%%%%%%%%%%%%%%%%%%%%%%%%%%%%%%%%%%%%%%%%%%%%%%%%%%%%%%%%%%%%%%%
     %                                                                      %
     % You are using vdW-DF, which was implemented by the Thonhauser group. %
     % Please cite the following two papers that made this development      %
     % possible and the two reviews that describe the various versions:     %
     %                                                                      %
     %   T. Thonhauser et al., PRL 115, 136402 (2015).                      %
     %   T. Thonhauser et al., PRB 76, 125112 (2007).                       %
     %   K. Berland et al., Rep. Prog. Phys. 78, 066501 (2015).             %
     %   D.C. Langreth et al., J. Phys.: Condens. Matter 21, 084203 (2009). %
     %                                                                      %
     %                                                                      %
     % If you are calculating the stress with vdW-DF, please also cite:     %
     %                                                                      %
     %   R. Sabatini et al., J. Phys.: Condens. Matter 24, 424209 (2012).   %
     %                                                                      %
     %%%%%%%%%%%%%%%%%%%%%%%%%%%%%%%%%%%%%%%%%%%%%%%%%%%%%%%%%%%%%%%%%%%%%%%%

     Adding external electric field

     Computed dipole along edir(3) :
        Dipole               -7.3725 Ry au,        -18.7391 Debye
        Dipole field         -0.0139 Ry au,

        Potential amp.        1.2897 Ry
        Total length         46.3494 bohr

     Starting wfcs are  297 atomic wfcs
  @ DRIVER MODE: Message from server: STATUS
  @ DRIVER MODE: Message from server: POSDATA
  @ DRIVER MODE: Reading and sharing cell
  @ DRIVER MODE: Reading and sharing positions
  @ DRIVER MODE: Received positions

     Self-consistent Calculation

     iteration #  1     ecut=    29.40 Ry     beta= 0.05
     Davidson diagonalization with overlap
     c_bands:  1 eigenvalues not converged
     c_bands:  1 eigenvalues not converged
     c_bands:  1 eigenvalues not converged
     c_bands:  1 eigenvalues not converged
     ethr =  1.00E-05,  avg # of iterations = 18.6

[...]

     total energy              =   -2708.00292588 Ry
     estimated scf accuracy    <    2533.23740325 Ry

[...]

     iteration #  3     ecut=    29.40 Ry     beta= 0.05
     Davidson diagonalization with overlap
     ethr =  1.00E-02,  avg # of iterations = 17.0

[...]

     iteration # 37     ecut=    29.40 Ry     beta= 0.05
     Davidson diagonalization with overlap
     c_bands:  1 eigenvalues not converged
     ethr =  9.81E-09,  avg # of iterations = 12.0

[...]

     total energy              =   -2936.63849745 Ry
     estimated scf accuracy    <       0.00000015 Ry

     iteration # 48     ecut=    29.40 Ry     beta= 0.05
     Davidson diagonalization with overlap
     ethr =  3.77E-11,  avg # of iterations =  9.0

     negative rho (up, down):  1.641E-02 0.000E+00

     Adding external electric field

     Computed dipole along edir(3) :
        Dipole                0.6540 Ry au,          1.6623 Debye
        Dipole field          0.0012 Ry au,

        Potential amp.       -0.1144 Ry
        Total length         46.3494 bohr

     End of self-consistent calculation

          k = 0.0000 0.0000 0.0000 ( 18029 PWs)   bands (ev):

   -55.9573 -55.9521 -55.9232 -55.9161 -55.8200 -55.8158 -55.7848 -55.7795
   -55.7678 -55.7339 -55.7337 -55.7001 -55.5119 -55.2913 -54.9362 -54.9021
   -32.5063 -32.4401 -32.3190 -32.2768 -32.2668 -32.2594 -32.2499 -32.2246
   -32.2003 -32.1773 -32.1541 -32.1461 -32.1317 -32.1095 -32.1036 -32.0917
   -32.0620 -32.0556 -32.0505 -32.0254 -32.0214 -32.0145 -31.9939 -31.9743
   -31.9648 -31.9571 -31.9570 -31.9548 -31.9454 -31.9357 -31.9316 -31.9089
   -31.8987 -31.8870 -31.8841 -31.8747 -31.8461 -31.7403 -31.7317 -31.5622
   -31.5263 -31.5112 -31.3433 -31.2549 -31.2325 -31.1601 -31.0736 -30.9624
   -19.3436 -16.7060 -16.4358 -16.2025 -16.1122 -16.0882 -15.9676 -15.8034
   -15.6845 -15.6286 -15.5278 -15.5230 -15.4946 -15.4625 -15.4425 -15.4297
   -15.4054 -15.4018 -15.3785 -15.3648 -15.3198 -15.2990 -15.2831 -15.1896
   -15.1354 -15.0929 -15.0577 -15.0334 -15.0174 -14.5621 -13.9883 -13.4385
   -13.3221  -6.7554  -5.2563  -4.2969  -4.0786  -4.0650  -3.9216  -3.8644
    -3.8156  -3.7121  -3.5748  -3.5087  -3.1977  -3.1416  -3.1266  -3.1108
    -3.0789  -2.8654  -2.8107  -2.7732  -2.7461  -2.7361  -2.7277  -2.7221
    -2.7058  -2.6779  -2.5717  -2.5007  -2.4261  -2.4161  -2.3592  -2.3564
    -2.2703  -2.2472  -2.2248  -2.2032  -2.1989  -2.1884  -2.1621  -2.1404
    -2.0147  -1.9444  -1.8338  -1.7649  -1.7296  -1.5668  -1.5486  -1.4219
    -1.4180  -1.3864  -1.3507  -1.3327  -1.2587  -1.1590  -1.1250  -1.1096
    -1.0628  -0.9799  -0.9335  -0.8522  -0.8073  -0.7805  -0.7287  -0.7211
    -0.7129  -0.6658  -0.5128  -0.4386  -0.3847  -0.3718  -0.3372  -0.2637
    -0.2384  -0.1554  -0.1125  -0.0880  -0.0771  -0.0244   0.0153   0.0285
     0.0423   0.0514   0.0621   0.2401   0.2890   0.3138   0.3671   0.3884
     0.5661   0.5976   0.6967   0.7860   1.0125   1.0862   1.1652   1.2775
     1.2816   1.4990   1.6573   1.7029   3.1734   3.2632   3.3047   3.3096
     3.4152   3.4809   3.6283   3.6497   3.6739   3.7169

[...]

          k = 0.0380-0.0419 0.0000 ( 17876 PWs)   bands (ev):

[...]

          k =-0.0760-0.0000 0.0000 ( 17886 PWs)   bands (ev):

[...]

          k =-0.0760-0.0839 0.0000 ( 17948 PWs)   bands (ev):

   -55.9407 -55.9397 -55.9348 -55.9332 -55.8062 -55.8031 -55.7986 -55.7921
   -55.7515 -55.7496 -55.7185 -55.7156 -55.5107 -55.2924 -54.9191 -54.9190
   -32.3096 -32.3087 -32.2557 -32.2551 -32.2357 -32.2348 -32.2097 -32.2084
   -32.1645 -32.1601 -32.1391 -32.1362 -32.0894 -32.0863 -32.0840 -32.0773
   -32.0719 -32.0644 -32.0603 -32.0593 -32.0570 -32.0540 -32.0222 -32.0120
   -32.0111 -31.9991 -31.9931 -31.9826 -31.9522 -31.9516 -31.9494 -31.9470
   -31.9330 -31.9314 -31.9281 -31.9255 -31.8858 -31.7427 -31.7286 -31.6311
   -31.5369 -31.5268 -31.2453 -31.2452 -31.1561 -31.1559 -31.1169 -31.1168
   -19.3409 -16.1381 -16.1161 -15.9125 -15.8770 -15.8715 -15.8594 -15.7493
   -15.6716 -15.6535 -15.6513 -15.5805 -15.5539 -15.5352 -15.4979 -15.4928
   -15.4790 -15.4756 -15.4442 -15.4223 -15.4154 -15.3979 -15.3899 -15.3125
   -15.2770 -15.2725 -15.2521 -15.1411 -15.0025 -14.7415 -13.9939 -13.4240
   -13.4238  -6.7546  -5.2258  -4.2646  -4.0570  -3.4279  -3.4030  -3.1535
    -3.1165  -3.1083  -3.0523  -2.8802  -2.8639  -2.8488  -2.8231  -2.7920
    -2.7862  -2.7799  -2.7659  -2.7474  -2.7123  -2.6793  -2.6541  -2.6313
    -2.6264  -2.6169  -2.5866  -2.5731  -2.5469  -2.5283  -2.5058  -2.4898
    -2.4756  -2.4654  -2.2852  -2.2002  -2.1638  -2.1001  -2.0909  -2.0666
    -2.0232  -2.0145  -1.9952  -1.9494  -1.8140  -1.7015  -1.6603  -1.6420
    -1.5646  -1.5267  -1.4521  -1.3888  -1.3488  -1.3406  -1.2920  -1.2273
    -1.1815  -1.1647  -1.1058  -1.0735  -1.0245  -1.0079  -0.9591  -0.9190
    -0.9149  -0.8392  -0.7860  -0.7647  -0.7287  -0.7241  -0.6855  -0.6302
    -0.6134  -0.5793  -0.4624  -0.4376  -0.3255  -0.2456  -0.1936   0.0031
     0.0771   0.1139   0.1683   0.2341   0.3164   0.3384   0.3498   0.3600
     0.4112   0.4615   0.5693   0.5806   0.6151   0.7391   1.1920   1.4133
     1.4499   1.4505   1.5227   1.5229   3.4753   3.4922   3.5149   3.5298
     3.6830   3.6882   3.7101   3.7109   3.8379   3.8530

     the Fermi energy is     3.1753 ev

!    total energy              =   -2936.63863978 Ry
     estimated scf accuracy    <       0.00000005 Ry
     smearing contrib. (-TS)   =      -0.02149876 Ry
     internal energy E=F+TS    =   -2936.61714102 Ry

     The total energy is F=E-TS. E is the sum of the following terms:
     one-electron contribution =  -24412.51929147 Ry
     hartree contribution      =   12291.55233059 Ry
     xc contribution           =    -483.59158942 Ry
     ewald contribution        =    9667.94060208 Ry
     electric field correction =       0.00080720 Ry

     convergence has been achieved in  48 iterations

     Forces acting on atoms (cartesian axes, Ry/au):

     atom    1 type  1   force =     0.00002147   -0.00024824    0.09654779
     atom    2 type  1   force =     0.00006941   -0.00048246   -0.17538869
     atom    3 type  2   force =     0.00017299   -0.00006379   -0.02446719
     atom    4 type  2   force =     0.00002950   -0.00142474    0.05286234
     atom    5 type  2   force =    -0.01166909   -0.00077457    0.00292083
     atom    6 type  2   force =     0.01353818   -0.00028918    0.00323384
     atom    7 type  1   force =     0.00094017    0.00042860   -0.01150995
     atom    8 type  1   force =    -0.00001736    0.00992457    0.02611660
     atom    9 type  2   force =    -0.00031611    0.00021922    0.00027011
     atom   10 type  2   force =    -0.00267857    0.00000178   -0.01399920
     atom   11 type  2   force =     0.00068385    0.00021903    0.00031984
     atom   12 type  2   force =    -0.00055847    0.00001115   -0.00002693
     atom   13 type  1   force =     0.00035688   -0.00029265    0.00032346
     atom   14 type  1   force =    -0.00059365   -0.00055290   -0.00049936
     atom   15 type  2   force =    -0.00021015   -0.00014179    0.00071926
     atom   16 type  2   force =     0.00022871   -0.00011437   -0.00033518
     atom   17 type  2   force =    -0.00001356    0.00009044   -0.00023775
     atom   18 type  2   force =    -0.00040573    0.00035923   -0.00023780
     atom   19 type  1   force =    -0.00048296   -0.00005663   -0.00057471
     atom   20 type  1   force =     0.00042988   -0.00018314   -0.00028733
     atom   21 type  2   force =     0.00006199    0.00001173    0.10325303
     atom   22 type  2   force =     0.00011205   -0.00035401   -0.00030054
     atom   23 type  2   force =    -0.07147806   -0.00007476   -0.02764332
     atom   24 type  2   force =     0.07145105    0.00039551   -0.02772275
     atom   25 type  1   force =     0.00026109   -0.00022824    0.09601377
     atom   26 type  1   force =     0.00011478   -0.00026434   -0.17570042
     atom   27 type  2   force =     0.00019829   -0.00017047   -0.02350365
     atom   28 type  2   force =     0.00004598   -0.00120979    0.05301453
     atom   29 type  2   force =    -0.01183900   -0.00001381    0.00275795
     atom   30 type  2   force =     0.01361070    0.00035963    0.00305209
     atom   31 type  1   force =     0.00085860    0.00351995   -0.01215232
     atom   32 type  1   force =     0.00012083   -0.01161543    0.02658858
     atom   33 type  2   force =    -0.00010461    0.00007298   -0.00031722
     atom   34 type  2   force =    -0.00274659   -0.00024669   -0.02149068
     atom   35 type  2   force =     0.00042118   -0.00003314    0.00029634
     atom   36 type  2   force =    -0.00032623   -0.00023261   -0.00023157
     atom   37 type  1   force =     0.00049049   -0.00076319   -0.00046849
     atom   38 type  1   force =    -0.00059144    0.00094869    0.00010544
     atom   39 type  2   force =    -0.00025454   -0.00020122    0.00084411
     atom   40 type  2   force =     0.00009353    0.00020301    0.00000095
     atom   41 type  2   force =    -0.00005473    0.00030272   -0.00013204
     atom   42 type  2   force =    -0.00005183    0.00008486   -0.00002367
     atom   43 type  1   force =     0.00001111    0.00058786   -0.00059871
     atom   44 type  1   force =     0.00023309    0.00119149   -0.00120554
     atom   45 type  2   force =     0.00006571    0.00002441    0.10322903
     atom   46 type  2   force =    -0.07152322   -0.00000395   -0.02766619
     atom   47 type  2   force =     0.07145807    0.00037342   -0.02772566
     atom   48 type  3   force =     0.01490378   -0.00316508    0.02219546
     atom   49 type  4   force =    -0.00742167    0.00207488   -0.01169573
     atom   50 type  5   force =    -0.00123070    0.00124233   -0.00064814
     atom   51 type  3   force =    -0.00641507    0.00055369   -0.00787464

     Total force =     0.368868     Total SCF correction =     0.000419
  @ DRIVER MODE: Message from server: STATUS
  @ DRIVER MODE: Message from server: GETFORCE
  @ DRIVER MODE: Returning v,forces,stress,ensemble

     Writing output data file ./calc.save/
  @ DRIVER MODE: Message from server: EXIT
  @ DRIVE MODE: Exiting

     General routines

     Parallel routines

   This run was terminated on:  13:31:46  23Aug2021

   JOB DONE.