     Program PWSCF v.6.7GPU starts on  4Aug2021 at  2:56:41

     R & G space division:  proc/nbgrp/npool/nimage =      16
     Reading input from /storage/home/hcoda1/3/ntian30/research/carbon/02Aug_vib_paired/ads_slab/CH3NH3NH3_a/out_0037/pw.inp
Warning: card &CELL ignored
Warning: card   CELL_DYNAMICS='IPI', ignored
Warning: card / ignored

     Current dimensions of program PWSCF are:
     Max number of different atomic species (ntypx) = 10
     Max number of k-points (npk) =  40000
     Max angular momentum in pseudopotentials (lmaxx) =  3
     Presently no symmetry can be used with electric field

     Message from routine cell_base_init:
     DEPRECATED: use true lattice parameter, not A to a.u. conversion factor

     IMPORTANT: XC functional enforced from input :
     Exchange-correlation= BEEF-VDW
                           (   1   4  43  14   2   0   0)
     Any further DFT definition will be discarded
     Please, verify this is what you really want

  @ DRIVER MODE: Connecting to
 qe_1139763_2492108.sched-torque.pace.gatech.eduovxg2mdx_scratch
  using UNIX socket
  @ DRIVER MODE: Message from server: STATUS
  @ DRIVER MODE: Message from server: INIT
  @ DRIVER MODE: Receiving replica           0          -1
  @ DRIVER MODE: Receiving encoded integer          25
  @ DRIVER MODE:  SCF:  T  FORCE:  T  STRESS:  F  VC:  F  ENSEMBLE:  F
  @ DRIVER MODE:  SCF:  T  FORCE:  T  STRESS:  F  VC:  F  ENSEMBLE:  F

     Using Slab Decomposition

     bravais-lattice index     =            0
     lattice parameter (alat)  =       1.8897  a.u.
     unit-cell volume          =    6658.9804 (a.u.)^3
     number of atoms/cell      =           59
     number of atomic types    =            5
     number of electrons       =       401.00
     number of Kohn-Sham states=          210
     kinetic-energy cutoff     =      29.3995  Ry
     charge density cutoff     =     293.9946  Ry
     scf convergence threshold =      7.3E-08
     mixing beta               =       0.0500
     number of iterations used =            8  plain     mixing
     Exchange-correlation= BEEF-VDW
                           (   1   4  43  14   2   0   0)

     celldm(1)=   1.889726  celldm(2)=   0.000000  celldm(3)=   0.000000
     celldm(4)=   0.000000  celldm(5)=   0.000000  celldm(6)=   0.000000

     crystal axes: (cart. coord. in units of alat)
               a(1) = (   6.579727   0.000000   0.000000 )
               a(2) = (  -0.000775   5.961596   0.000000 )
               a(3) = (   0.000000   0.000000  25.155947 )

     reciprocal axes: (cart. coord. in units 2 pi/alat)
               b(1) = (  0.151982  0.000020  0.000000 )
               b(2) = (  0.000000  0.167740  0.000000 )
               b(3) = (  0.000000  0.000000  0.039752 )

     PseudoPot. # 1 for Ti read from file:
     /storage/coda1/p-amedford6/0/shared/rich_project_chbe-medford/medford-share/data/pseudos_module/espresso/nninc/pbe/van/Ti.UPF
     MD5 check sum: 8e4df49b7f0d34bbd5052bf3f5ea0213
     Pseudo is Ultrasoft, Zval = 12.0
     Generated by new atomic code, or converted to UPF format
     Using radial grid of  851 points,  6 beta functions with:
                l(1) =   0
                l(2) =   0
                l(3) =   1
                l(4) =   1
                l(5) =   2
                l(6) =   2
     Q(r) pseudized with  8 coefficients,  rinner =    1.000   1.000   1.000
                                                       1.000   1.000

     PseudoPot. # 2 for O  read from file:
     /storage/coda1/p-amedford6/0/shared/rich_project_chbe-medford/medford-share/data/pseudos_module/espresso/nninc/pbe/van/O.UPF
     MD5 check sum: 78c19812648e8988a0fe644b0f25305e
     Pseudo is Ultrasoft, Zval =  6.0
     Generated by new atomic code, or converted to UPF format
     Using radial grid of  737 points,  4 beta functions with:
                l(1) =   0
                l(2) =   0
                l(3) =   1
                l(4) =   1
     Q(r) pseudized with  8 coefficients,  rinner =    0.800   0.800   0.800

     PseudoPot. # 3 for C  read from file:
     /storage/coda1/p-amedford6/0/shared/rich_project_chbe-medford/medford-share/data/pseudos_module/espresso/nninc/pbe/van/C.UPF
     MD5 check sum: 1a69bf6b8db32088f5b2163dbdb77a27
     Pseudo is Ultrasoft, Zval =  4.0
     Generated by new atomic code, or converted to UPF format
     Using radial grid of  721 points,  4 beta functions with:
                l(1) =   0
                l(2) =   0
                l(3) =   1
                l(4) =   1
     Q(r) pseudized with  8 coefficients,  rinner =    0.800   0.800   0.800

     PseudoPot. # 4 for H  read from file:
     /storage/coda1/p-amedford6/0/shared/rich_project_chbe-medford/medford-share/data/pseudos_module/espresso/nninc/pbe/van/H.UPF
     MD5 check sum: b5ee9d7bfd3a09ee7748110bda690ff7
     Pseudo is Ultrasoft, Zval =  1.0
     Generated by new atomic code, or converted to UPF format
     Using radial grid of  615 points,  1 beta functions with:
                l(1) =   0
     Q(r) pseudized with  8 coefficients,  rinner =    0.800

     PseudoPot. # 5 for N  read from file:
     /storage/coda1/p-amedford6/0/shared/rich_project_chbe-medford/medford-share/data/pseudos_module/espresso/nninc/pbe/van/N.UPF
     MD5 check sum: 90d10febe142ad51ac9d5be1deb811c4
     Pseudo is Ultrasoft, Zval =  5.0
     Generated by new atomic code, or converted to UPF format
     Using radial grid of  729 points,  4 beta functions with:
                l(1) =   0
                l(2) =   0
                l(3) =   1
                l(4) =   1
     Q(r) pseudized with  8 coefficients,  rinner =    0.800   0.800   0.800

     atomic species   valence    mass     pseudopotential
        Ti1           12.00    47.86700     Ti( 1.00)
        O1             6.00    15.99900     O ( 1.00)
        C1             4.00    12.01100     C ( 1.00)
        H1             1.00     1.00800     H ( 1.00)
        N1             5.00    14.00700     N ( 1.00)

     No symmetry found

   Cartesian axes

     site n.     atom                  positions (alat units)
         1           Ti1 tau(   1) = (   0.0004258   2.9801865   6.0000000  )
         2           Ti1 tau(   2) = (   3.2906075   1.4906267   6.0002472  )
         3           O1  tau(   3) = (   0.0006271   0.0005054   7.9858123  )
         4           O1  tau(   4) = (   3.2906025   0.0005020   7.3038282  )
         5           O1  tau(   5) = (   4.5942328   1.4918067   9.2879030  )
         6           O1  tau(   6) = (   1.9868534   1.4903216   9.2879459  )
         7           Ti1 tau(   7) = (   3.2907910   2.8959150   9.1758416  )
         8           Ti1 tau(   8) = (   0.0015273   1.4827037   9.2680791  )
         9           O1  tau(   9) = (   3.3006472   5.9526327  11.3326431  )
        10           O1  tau(  10) = (   0.0116148   5.9584955  10.6183126  )
        11           O1  tau(  11) = (   1.2986171   1.4856602  12.6180737  )
        12           O1  tau(  12) = (   5.2832837   1.4869688  12.6136912  )
        13           Ti1 tau(  13) = (   0.0716907   2.9700601  12.6329626  )
        14           Ti1 tau(  14) = (   3.3921379   1.4824266  12.4783935  )
        15           O1  tau(  15) = (   0.0098915   0.0277142  14.6273811  )
        16           O1  tau(  16) = (   3.2980527   0.0034327  13.9214941  )
        17           O1  tau(  17) = (   4.5491770   1.5035522  16.0668258  )
        18           O1  tau(  18) = (   2.0540802   1.5011373  16.0688643  )
        19           Ti1 tau(  19) = (   3.2973159   2.9845483  15.7023000  )
        20           Ti1 tau(  20) = (   6.5754392   1.4353193  15.8239573  )
        21           O1  tau(  21) = (   3.2904802   0.0005063   4.7018136  )
        22           O1  tau(  22) = (   0.0048264   5.9571524  17.1588256  )
        23           O1  tau(  23) = (   1.3043587   1.4918075   6.0039043  )
        24           O1  tau(  24) = (   5.2767064   1.4903225   6.0039473  )
        25           Ti1 tau(  25) = (   0.0000382   5.9609847   6.0000000  )
        26           Ti1 tau(  26) = (   3.2902200   4.4714249   6.0002472  )
        27           O1  tau(  27) = (   0.0002396   2.9813036   7.9858123  )
        28           O1  tau(  28) = (   3.2902150   2.9813002   7.3038282  )
        29           O1  tau(  29) = (   4.5938453   4.4726049   9.2879030  )
        30           O1  tau(  30) = (   1.9864658   4.4711199   9.2879459  )
        31           Ti1 tau(  31) = (   3.2891106   5.8743827   9.1763621  )
        32           Ti1 tau(  32) = (   0.0006254   4.4649316   9.2693709  )
        33           O1  tau(  33) = (   3.3024910   2.9811918  11.3312481  )
        34           O1  tau(  34) = (   0.0092240   2.9805883  10.6323155  )
        35           O1  tau(  35) = (   1.2967186   4.4682081  12.6345707  )
        36           O1  tau(  36) = (   5.2888097   4.4704914  12.6297389  )
        37           Ti1 tau(  37) = (   0.0778612   5.9457776  12.5489457  )
        38           Ti1 tau(  38) = (   3.3928769   4.4622707  12.4864817  )
        39           O1  tau(  39) = (   0.0140712   2.9461142  14.6842920  )
        40           O1  tau(  40) = (   3.2991745   2.9776924  13.9065265  )
        41           O1  tau(  41) = (   4.5418516   4.4678888  16.0645815  )
        42           O1  tau(  42) = (   2.0574864   4.4691885  16.0636024  )
        43           Ti1 tau(  43) = (   3.2861726   0.0051191  15.7195692  )
        44           Ti1 tau(  44) = (   6.5761434   4.5285208  16.1368719  )
        45           O1  tau(  45) = (   3.2900926   2.9813045   4.7018136  )
        46           O1  tau(  46) = (   1.3039711   4.4726057   6.0039043  )
        47           O1  tau(  47) = (   5.2763189   4.4711207   6.0039473  )
        48           C1  tau(  48) = (   0.0175971   3.0427671  17.7901079  )
        49           H1  tau(  49) = (   5.6823727   3.3959267  18.2745233  )
        50           H1  tau(  50) = (   0.1100020   1.9921885  18.0671921  )
        51           H1  tau(  51) = (   0.8707680   3.5346006  18.2680029  )
        52           N1  tau(  52) = (   6.1495222   1.5591847  21.8098380  )
        53           H1  tau(  53) = (   6.1793786   2.4848735  21.3946126  )
        54           H1  tau(  54) = (   6.2462200   0.9013766  21.0428083  )
        55           H1  tau(  55) = (   5.2088654   1.4380024  22.1828036  )
        56           N1  tau(  56) = (   2.8510371   0.9663425  23.1835989  )
        57           H1  tau(  57) = (   2.8683653   5.9129692  23.1556095  )
        58           H1  tau(  58) = (   1.9074079   1.2374795  22.9038124  )
        59           H1  tau(  59) = (   2.9640119   1.2328864  24.1466208  )

     number of k points=    10  Fermi-Dirac smearing, width (Ry)=  0.0073
                       cart. coord. in units 2pi/alat
        k(    1) = (   0.0000000   0.0000000   0.0000000), wk =   0.1250000
        k(    2) = (   0.0000000   0.0419351   0.0000000), wk =   0.2500000
        k(    3) = (   0.0000000  -0.0838702   0.0000000), wk =   0.1250000
        k(    4) = (   0.0379955   0.0000049   0.0000000), wk =   0.2500000
        k(    5) = (   0.0379955   0.0419400   0.0000000), wk =   0.2500000
        k(    6) = (   0.0379955  -0.0838652   0.0000000), wk =   0.2500000
        k(    7) = (   0.0379955  -0.0419301   0.0000000), wk =   0.2500000
        k(    8) = (  -0.0759910  -0.0000099   0.0000000), wk =   0.1250000
        k(    9) = (  -0.0759910   0.0419252   0.0000000), wk =   0.2500000
        k(   10) = (  -0.0759910  -0.0838800   0.0000000), wk =   0.1250000

     Initial potential from superposition of free atoms

     starting charge  384.99911, renormalised to  401.00000

     negative rho (up, down):  4.919E-03 0.000E+00

     %%%%%%%%%%%%%%%%%%%%%%%%%%%%%%%%%%%%%%%%%%%%%%%%%%%%%%%%%%%%%%%%%%%%%%%%
     %                                                                      %
     % You are using vdW-DF, which was implemented by the Thonhauser group. %
     % Please cite the following two papers that made this development      %
     % possible and the two reviews that describe the various versions:     %
     %                                                                      %
     %   T. Thonhauser et al., PRL 115, 136402 (2015).                      %
     %   T. Thonhauser et al., PRB 76, 125112 (2007).                       %
     %   K. Berland et al., Rep. Prog. Phys. 78, 066501 (2015).             %
     %   D.C. Langreth et al., J. Phys.: Condens. Matter 21, 084203 (2009). %
     %                                                                      %
     %                                                                      %
     % If you are calculating the stress with vdW-DF, please also cite:     %
     %                                                                      %
     %   R. Sabatini et al., J. Phys.: Condens. Matter 24, 424209 (2012).   %
     %                                                                      %
     %%%%%%%%%%%%%%%%%%%%%%%%%%%%%%%%%%%%%%%%%%%%%%%%%%%%%%%%%%%%%%%%%%%%%%%%

     Adding external electric field

     Computed dipole along edir(3) :
        Dipole              -16.7092 Ry au,        -42.4705 Debye
        Dipole field         -0.0315 Ry au,

        Potential amp.        2.9230 Ry
        Total length         46.3494 bohr

     Starting wfcs are  305 atomic wfcs
  @ DRIVER MODE: Message from server: STATUS
  @ DRIVER MODE: Message from server: POSDATA
  @ DRIVER MODE: Reading and sharing cell
  @ DRIVER MODE: Reading and sharing positions
  @ DRIVER MODE: Received positions

     Self-consistent Calculation

     iteration #  1     ecut=    29.40 Ry     beta= 0.05
     Davidson diagonalization with overlap
     c_bands:  2 eigenvalues not converged
     c_bands:  3 eigenvalues not converged
     c_bands:  1 eigenvalues not converged
     c_bands:  4 eigenvalues not converged
     c_bands:  4 eigenvalues not converged
     c_bands:  2 eigenvalues not converged
     c_bands:  3 eigenvalues not converged
     c_bands:  3 eigenvalues not converged
     c_bands:  4 eigenvalues not converged
     ethr =  1.00E-05,  avg # of iterations = 19.8

[...]

     total energy              =   -2364.24300269 Ry
     estimated scf accuracy    <    6692.74276643 Ry

     iteration #  2     ecut=    29.40 Ry     beta= 0.05
     Davidson diagonalization with overlap
     ethr =  1.00E-02,  avg # of iterations = 22.0

[...]

     iteration # 70     ecut=    29.40 Ry     beta= 0.05
     Davidson diagonalization with overlap
     c_bands:  2 eigenvalues not converged
     ethr =  2.29E-11,  avg # of iterations = 15.2

[...]

     total energy              =   -2946.58231771 Ry
     estimated scf accuracy    <       0.00000010 Ry

     iteration # 71     ecut=    29.40 Ry     beta= 0.05
     Davidson diagonalization with overlap
     ethr =  2.29E-11,  avg # of iterations =  8.4

     negative rho (up, down):  7.006E-03 0.000E+00

     Adding external electric field

     Computed dipole along edir(3) :
        Dipole                0.3085 Ry au,          0.7841 Debye
        Dipole field          0.0006 Ry au,

        Potential amp.       -0.0540 Ry
        Total length         46.3494 bohr

     End of self-consistent calculation

          k = 0.0000 0.0000 0.0000 ( 18029 PWs)   bands (ev):

   -56.0008 -55.9908 -55.9667 -55.9537 -55.8812 -55.8567 -55.8359 -55.8177
   -55.8080 -55.7744 -55.7739 -55.7407 -55.6151 -55.3931 -54.9817 -54.9477
   -32.5446 -32.4834 -32.3556 -32.3356 -32.3073 -32.3048 -32.2937 -32.2648
   -32.2430 -32.2194 -32.2124 -32.1979 -32.1705 -32.1529 -32.1438 -32.1298
   -32.1135 -32.1052 -32.0900 -32.0615 -32.0580 -32.0578 -32.0298 -32.0105
   -32.0100 -32.0053 -31.9961 -31.9920 -31.9786 -31.9767 -31.9681 -31.9485
   -31.9463 -31.9400 -31.9272 -31.9136 -31.8862 -31.8683 -31.8309 -31.6698
   -31.6436 -31.5309 -31.3889 -31.3000 -31.2776 -31.2054 -31.1190 -31.0082
   -16.7457 -16.4765 -16.2500 -16.1540 -16.1268 -16.0076 -15.8424 -15.7205
   -15.6721 -15.5719 -15.5624 -15.5378 -15.5051 -15.4809 -15.4802 -15.4460
   -15.4431 -15.4240 -15.4123 -15.3623 -15.3391 -15.3274 -15.2122 -15.1784
   -15.1362 -15.1149 -15.0574 -15.0447 -14.6221 -13.4849 -13.3685 -13.0381
   -12.9302  -9.1047  -4.1189  -3.9622  -3.9080  -3.8629  -3.8321  -3.6153
    -3.5491  -3.2515  -3.1874  -3.1728  -3.1553  -3.1525  -3.1229  -3.0829
    -3.0593  -2.9894  -2.9045  -2.8343  -2.8204  -2.8119  -2.8092  -2.7798
    -2.7702  -2.7581  -2.7174  -2.6916  -2.6655  -2.6154  -2.5604  -2.4985
    -2.4150  -2.3970  -2.3155  -2.2930  -2.2869  -2.2440  -2.2295  -2.2216
    -2.2027  -2.1776  -2.1645  -1.9811  -1.9424  -1.8396  -1.7836  -1.7815
    -1.6104  -1.5101  -1.4684  -1.4575  -1.4283  -1.3946  -1.3877  -1.3017
    -1.1846  -1.1536  -1.1205  -1.0486  -1.0050  -0.9732  -0.8756  -0.8482
    -0.7652  -0.7630  -0.7408  -0.6527  -0.5990  -0.4855  -0.4375  -0.4275
    -0.3895  -0.3604  -0.2912  -0.2769  -0.2200  -0.1477  -0.1268  -0.0641
    -0.0337  -0.0195  -0.0083   0.0085   0.0350   0.0653   0.1694   0.1998
     0.2791   0.3469   0.4423   0.5397   0.6456   0.6543   0.7559   0.9647
     1.0384   1.1371   1.1961   1.2325   1.6117   1.6576   1.7621   2.2010
     3.1362   3.2204   3.2678   3.2787   3.3697   3.3860   3.5865   3.6109
     3.6320   3.6839

[...]

          k = 0.0380-0.0419 0.0000 ( 17876 PWs)   bands (ev):

[...]

          k =-0.0760-0.0000 0.0000 ( 17886 PWs)   bands (ev):

[...]

          k =-0.0760-0.0839 0.0000 ( 17948 PWs)   bands (ev):

   -55.9842 -55.9832 -55.9767 -55.9675 -55.8733 -55.8464 -55.8437 -55.8278
   -55.7920 -55.7894 -55.7588 -55.7564 -55.6140 -55.3941 -54.9647 -54.9646
   -32.3523 -32.3435 -32.2990 -32.2983 -32.2795 -32.2786 -32.2623 -32.2533
   -32.2069 -32.1951 -32.1889 -32.1862 -32.1484 -32.1325 -32.1308 -32.1215
   -32.1111 -32.1036 -32.1036 -32.1025 -32.0970 -32.0942 -32.0732 -32.0632
   -32.0441 -32.0413 -32.0319 -32.0148 -31.9919 -31.9910 -31.9895 -31.9879
   -31.9731 -31.9717 -31.9686 -31.9646 -31.9359 -31.8595 -31.8341 -31.6836
   -31.6717 -31.5752 -31.2904 -31.2903 -31.2018 -31.2017 -31.1622 -31.1622
   -16.1785 -16.1591 -15.9515 -15.9148 -15.9118 -15.9025 -15.7907 -15.7057
   -15.6959 -15.6952 -15.6126 -15.6004 -15.5842 -15.5401 -15.5358 -15.5265
   -15.5168 -15.5048 -15.4618 -15.4568 -15.4380 -15.4304 -15.3484 -15.3182
   -15.3145 -15.2759 -15.1438 -15.0123 -14.8640 -13.4705 -13.4702 -12.9975
   -12.9704  -9.1212  -3.4705  -3.4449  -3.1948  -3.1586  -3.1493  -3.1310
    -3.1092  -3.0853  -2.9891  -2.9248  -2.9169  -2.8985  -2.8837  -2.8790
    -2.8427  -2.8303  -2.8205  -2.8087  -2.7904  -2.7560  -2.7470  -2.7148
    -2.7038  -2.6837  -2.6705  -2.6551  -2.6304  -2.6177  -2.6113  -2.5802
    -2.5661  -2.5492  -2.5286  -2.5056  -2.4225  -2.2333  -2.2036  -2.1390
    -2.1299  -2.0992  -2.0879  -2.0645  -2.0501  -2.0314  -1.9847  -1.8316
    -1.7297  -1.7036  -1.6758  -1.6005  -1.5796  -1.5317  -1.4179  -1.3832
    -1.3558  -1.3299  -1.2798  -1.2288  -1.2114  -1.1883  -1.1194  -1.1058
    -1.0282  -0.9847  -0.9623  -0.9580  -0.8930  -0.8500  -0.7681  -0.7628
    -0.7188  -0.6832  -0.6357  -0.5955  -0.5906  -0.5037  -0.4781  -0.3614
    -0.3067  -0.0470   0.0026   0.0539   0.0800   0.1390   0.1894   0.2040
     0.3130   0.3174   0.3540   0.3977   0.4384   0.5259   0.5452   0.5800
     0.7261   1.3003   1.4030   1.4036   1.4769   1.4773   1.9538   1.9941
     3.4212   3.4366   3.4670   3.4994   3.6408   3.6446   3.6660   3.6678
     3.7938   3.8084

     the Fermi energy is     3.1340 ev

!    total energy              =   -2946.58234153 Ry
     estimated scf accuracy    <       0.00000003 Ry
     smearing contrib. (-TS)   =      -0.02178480 Ry
     internal energy E=F+TS    =   -2946.56055673 Ry

     The total energy is F=E-TS. E is the sum of the following terms:
     one-electron contribution =  -22199.41478766 Ry
     hartree contribution      =   11188.69810003 Ry
     xc contribution           =    -489.85239522 Ry
     ewald contribution        =    8554.00834653 Ry
     electric field correction =       0.00017960 Ry

     convergence has been achieved in  71 iterations

     Forces acting on atoms (cartesian axes, Ry/au):

     atom    1 type  1   force =     0.00012933   -0.00026832    0.09670273
     atom    2 type  1   force =    -0.00013912   -0.00054745   -0.17511259
     atom    3 type  2   force =    -0.00000390   -0.00003006   -0.02503686
     atom    4 type  2   force =     0.00007580   -0.00144071    0.05270008
     atom    5 type  2   force =    -0.01210954   -0.00083649    0.00339302
     atom    6 type  2   force =     0.01402505   -0.00015201    0.00289917
     atom    7 type  1   force =    -0.00081975    0.00067874   -0.01135429
     atom    8 type  1   force =     0.00026179    0.01149133    0.02859367
     atom    9 type  2   force =    -0.00010126    0.00008288   -0.00001629
     atom   10 type  2   force =    -0.00085140    0.00076915   -0.01661284
     atom   11 type  2   force =    -0.00031502    0.00010114    0.00002528
     atom   12 type  2   force =    -0.00000696    0.00020826    0.00004727
     atom   13 type  1   force =    -0.00011873   -0.00019644    0.00011957
     atom   14 type  1   force =    -0.00020787    0.00001356   -0.00002873
     atom   15 type  2   force =    -0.00003376    0.00004611   -0.00011387
     atom   16 type  2   force =    -0.00012293   -0.00004257    0.00001914
     atom   17 type  2   force =    -0.00002444   -0.00015947   -0.00002542
     atom   18 type  2   force =    -0.00020726   -0.00017754   -0.00002543
     atom   19 type  1   force =    -0.00000960   -0.00020444    0.00013786
     atom   20 type  1   force =     0.00010836   -0.00036301   -0.00005312
     atom   21 type  2   force =     0.00006652    0.00001086    0.10293349
     atom   22 type  2   force =    -0.00010700   -0.00006629   -0.00038326
     atom   23 type  2   force =    -0.07139531   -0.00010198   -0.02771790
     atom   24 type  2   force =     0.07135279    0.00030244   -0.02774830
     atom   25 type  1   force =     0.00000727   -0.00029653    0.09646320
     atom   26 type  1   force =    -0.00017266   -0.00026527   -0.17526426
     atom   27 type  2   force =     0.00009311   -0.00020107   -0.02394351
     atom   28 type  2   force =     0.00011365   -0.00119838    0.05273575
     atom   29 type  2   force =    -0.01214082    0.00045675    0.00287296
     atom   30 type  2   force =     0.01397568    0.00080316    0.00242103
     atom   31 type  1   force =    -0.00076138    0.00311680   -0.01227891
     atom   32 type  1   force =     0.00027080   -0.01312089    0.02917051
     atom   33 type  2   force =    -0.00009698   -0.00002884    0.00003935
     atom   34 type  2   force =    -0.00028807    0.00077327   -0.02206085
     atom   35 type  2   force =    -0.00016622    0.00007939   -0.00004137
     atom   36 type  2   force =    -0.00010440    0.00020063   -0.00003108
     atom   37 type  1   force =    -0.00002191   -0.00031352   -0.00016598
     atom   38 type  1   force =     0.00003320    0.00000377    0.00001693
     atom   39 type  2   force =    -0.00008257    0.00013792    0.00026764
     atom   40 type  2   force =    -0.00013405   -0.00001376   -0.00007743
     atom   41 type  2   force =     0.00000952   -0.00021178    0.00000502
     atom   42 type  2   force =    -0.00020365   -0.00021979    0.00017811
     atom   43 type  1   force =     0.00031082   -0.00017285   -0.00017421
     atom   44 type  1   force =     0.00018999   -0.00026186    0.00017903
     atom   45 type  2   force =     0.00006423   -0.00007151    0.10292591
     atom   46 type  2   force =    -0.07140955   -0.00009238   -0.02772434
     atom   47 type  2   force =     0.07136761    0.00036549   -0.02773717
     atom   48 type  3   force =    -0.00018305    0.00037411    0.00003951
     atom   49 type  4   force =    -0.00007425    0.00041763    0.00021209
     atom   50 type  4   force =    -0.00008396    0.00013151    0.00005597
     atom   51 type  4   force =     0.00008284    0.00029364    0.00038185
     atom   52 type  5   force =    -0.00051875   -0.00031528    0.00136083
     atom   53 type  4   force =     0.00008687    0.00056866   -0.00047919
     atom   54 type  4   force =    -0.00044338   -0.00041886   -0.00136519
     atom   55 type  4   force =     0.00064493    0.00022052   -0.00036858
     atom   56 type  5   force =    -0.00553579   -0.00341550   -0.01928154
     atom   57 type  4   force =     0.00086754    0.00063734    0.00184906
     atom   58 type  4   force =     0.00388046   -0.00030020    0.00171355
     atom   59 type  4   force =     0.00097711    0.00322000    0.01476291

     Total force =     0.368608     Total SCF correction =     0.000438
  @ DRIVER MODE: Message from server: STATUS
  @ DRIVER MODE: Message from server: GETFORCE
  @ DRIVER MODE: Returning v,forces,stress,ensemble

     Writing output data file ./calc.save/
  @ DRIVER MODE: Message from server: EXIT
  @ DRIVE MODE: Exiting

     General routines

     Parallel routines

   This run was terminated on:   3:12:30   4Aug2021

   JOB DONE.