     Program PWSCF v.6.7GPU starts on 12Oct2021 at 15:33:19

     R & G space division:  proc/nbgrp/npool/nimage =       8
     Reading input from /storage/home/hcoda1/3/ntian30/research/carbon/ACS_vib/ads_slab/NH3/out_0022/pw.inp
Warning: card &CELL ignored
Warning: card   CELL_DYNAMICS='IPI', ignored
Warning: card / ignored

     Current dimensions of program PWSCF are:
     Max number of different atomic species (ntypx) = 10
     Max number of k-points (npk) =  40000
     Max angular momentum in pseudopotentials (lmaxx) =  3
     Presently no symmetry can be used with electric field

     Message from routine cell_base_init:
     DEPRECATED: use true lattice parameter, not A to a.u. conversion factor

     IMPORTANT: XC functional enforced from input :
     Exchange-correlation= BEEF-VDW
                           (   1   4  43  14   2   0   0)
     Any further DFT definition will be discarded
     Please, verify this is what you really want

  @ DRIVER MODE: Connecting to
 qe_1139763_3181317.sched-torque.pace.gatech.edua7zfecpc_scratch
  using UNIX socket
  @ DRIVER MODE: Message from server: STATUS
  @ DRIVER MODE: Message from server: INIT
  @ DRIVER MODE: Receiving replica           0          -1
  @ DRIVER MODE: Receiving encoded integer          25
  @ DRIVER MODE:  SCF:  T  FORCE:  T  STRESS:  F  VC:  F  ENSEMBLE:  F
  @ DRIVER MODE:  SCF:  T  FORCE:  T  STRESS:  F  VC:  F  ENSEMBLE:  F

     Using Slab Decomposition

     bravais-lattice index     =            0
     lattice parameter (alat)  =       1.8897  a.u.
     unit-cell volume          =    6658.9804 (a.u.)^3
     number of atoms/cell      =           51
     number of atomic types    =            4
     number of electrons       =       386.00
     number of Kohn-Sham states=          203
     kinetic-energy cutoff     =      29.3995  Ry
     charge density cutoff     =     293.9946  Ry
     scf convergence threshold =      7.3E-08
     mixing beta               =       0.0500
     number of iterations used =            8  plain     mixing
     Exchange-correlation= BEEF-VDW
                           (   1   4  43  14   2   0   0)

     celldm(1)=   1.889726  celldm(2)=   0.000000  celldm(3)=   0.000000
     celldm(4)=   0.000000  celldm(5)=   0.000000  celldm(6)=   0.000000

     crystal axes: (cart. coord. in units of alat)
               a(1) = (   6.579727   0.000000   0.000000 )
               a(2) = (  -0.000775   5.961596   0.000000 )
               a(3) = (   0.000000   0.000000  25.155947 )

     reciprocal axes: (cart. coord. in units 2 pi/alat)
               b(1) = (  0.151982  0.000020  0.000000 )
               b(2) = (  0.000000  0.167740  0.000000 )
               b(3) = (  0.000000  0.000000  0.039752 )

     PseudoPot. # 1 for Ti read from file:
     /storage/coda1/p-amedford6/0/shared/rich_project_chbe-medford/medford-share/data/pseudos_module/espresso/nninc/pbe/van/Ti.UPF
     MD5 check sum: 8e4df49b7f0d34bbd5052bf3f5ea0213
     Pseudo is Ultrasoft, Zval = 12.0
     Generated by new atomic code, or converted to UPF format
     Using radial grid of  851 points,  6 beta functions with:
                l(1) =   0
                l(2) =   0
                l(3) =   1
                l(4) =   1
                l(5) =   2
                l(6) =   2
     Q(r) pseudized with  8 coefficients,  rinner =    1.000   1.000   1.000
                                                       1.000   1.000

     PseudoPot. # 2 for O  read from file:
     /storage/coda1/p-amedford6/0/shared/rich_project_chbe-medford/medford-share/data/pseudos_module/espresso/nninc/pbe/van/O.UPF
     MD5 check sum: 78c19812648e8988a0fe644b0f25305e
     Pseudo is Ultrasoft, Zval =  6.0
     Generated by new atomic code, or converted to UPF format
     Using radial grid of  737 points,  4 beta functions with:
                l(1) =   0
                l(2) =   0
                l(3) =   1
                l(4) =   1
     Q(r) pseudized with  8 coefficients,  rinner =    0.800   0.800   0.800

     PseudoPot. # 3 for N  read from file:
     /storage/coda1/p-amedford6/0/shared/rich_project_chbe-medford/medford-share/data/pseudos_module/espresso/nninc/pbe/van/N.UPF
     MD5 check sum: 90d10febe142ad51ac9d5be1deb811c4
     Pseudo is Ultrasoft, Zval =  5.0
     Generated by new atomic code, or converted to UPF format
     Using radial grid of  729 points,  4 beta functions with:
                l(1) =   0
                l(2) =   0
                l(3) =   1
                l(4) =   1
     Q(r) pseudized with  8 coefficients,  rinner =    0.800   0.800   0.800

     PseudoPot. # 4 for H  read from file:
     /storage/coda1/p-amedford6/0/shared/rich_project_chbe-medford/medford-share/data/pseudos_module/espresso/nninc/pbe/van/H.UPF
     MD5 check sum: b5ee9d7bfd3a09ee7748110bda690ff7
     Pseudo is Ultrasoft, Zval =  1.0
     Generated by new atomic code, or converted to UPF format
     Using radial grid of  615 points,  1 beta functions with:
                l(1) =   0
     Q(r) pseudized with  8 coefficients,  rinner =    0.800

     atomic species   valence    mass     pseudopotential
        Ti1           12.00    47.86700     Ti( 1.00)
        O1             6.00    15.99900     O ( 1.00)
        N1             5.00    14.00700     N ( 1.00)
        H1             1.00     1.00800     H ( 1.00)

     No symmetry found

   Cartesian axes

     site n.     atom                  positions (alat units)
         1           Ti1 tau(   1) = (   0.0004258   2.9801865   6.0000000  )
         2           Ti1 tau(   2) = (   3.2906075   1.4906267   6.0002472  )
         3           O1  tau(   3) = (   0.0006271   0.0005054   7.9858123  )
         4           O1  tau(   4) = (   3.2906025   0.0005020   7.3038282  )
         5           O1  tau(   5) = (   4.5942328   1.4918067   9.2879030  )
         6           O1  tau(   6) = (   1.9868534   1.4903216   9.2879459  )
         7           Ti1 tau(   7) = (   3.2905188   2.9817269   9.1608671  )
         8           Ti1 tau(   8) = (   0.0008727   1.4903491   9.2579811  )
         9           O1  tau(   9) = (   3.2954587   0.0012773  11.3746546  )
        10           O1  tau(  10) = (   0.0020290   0.0006084  10.6073296  )
        11           O1  tau(  11) = (   1.2942686   1.4887116  12.6629798  )
        12           O1  tau(  12) = (   5.2972733   1.4890718  12.6650130  )
        13           Ti1 tau(  13) = (   0.0067627   2.9786896  12.5148789  )
        14           Ti1 tau(  14) = (   3.2982433   1.4907855  12.5198723  )
        15           O1  tau(  15) = (   0.0088675   5.9288053  14.6873217  )
        16           O1  tau(  16) = (   3.2976659   5.9545549  13.9976866  )
        17           O1  tau(  17) = (   4.5618459   1.5065800  16.1616785  )
        18           O1  tau(  18) = (   2.0406978   1.5054917  16.1618958  )
        19           Ti1 tau(  19) = (   3.3003398   2.9801551  15.7464260  )
        20           Ti1 tau(  20) = (   0.0122322   1.3591711  15.8926631  )
        21           O1  tau(  21) = (   3.2904802   0.0005063   4.7018136  )
        22           O1  tau(  22) = (   0.0111396   0.0327255  17.2179391  )
        23           O1  tau(  23) = (   1.3043587   1.4918075   6.0039043  )
        24           O1  tau(  24) = (   5.2767064   1.4903225   6.0039473  )
        25           Ti1 tau(  25) = (   0.0000382   5.9609847   6.0000000  )
        26           Ti1 tau(  26) = (   3.2902200   4.4714249   6.0002472  )
        27           O1  tau(  27) = (   0.0002396   2.9813036   7.9858123  )
        28           O1  tau(  28) = (   3.2902150   2.9813002   7.3038282  )
        29           O1  tau(  29) = (   4.5938453   4.4726049   9.2879030  )
        30           O1  tau(  30) = (   1.9864658   4.4711199   9.2879459  )
        31           Ti1 tau(  31) = (   3.2908958   0.0009406   9.1591437  )
        32           Ti1 tau(  32) = (   0.0004876   4.4725358   9.2579169  )
        33           O1  tau(  33) = (   3.2950182   2.9773574  11.3676543  )
        34           O1  tau(  34) = (   0.0019984   2.9784031  10.6274637  )
        35           O1  tau(  35) = (   1.2946310   4.4674284  12.6500497  )
        36           O1  tau(  36) = (   5.2961322   4.4668132  12.6522398  )
        37           Ti1 tau(  37) = (   0.0072964   5.9565020  12.4821340  )
        38           Ti1 tau(  38) = (   3.2980713   4.4687862  12.5160290  )
        39           O1  tau(  39) = (   0.0098827   2.9916113  14.9005182  )
        40           O1  tau(  40) = (   3.2960480   2.9848727  13.9584560  )
        41           O1  tau(  41) = (   4.5591248   4.4529439  16.1935040  )
        42           O1  tau(  42) = (   2.0431063   4.4547719  16.1917947  )
        43           Ti1 tau(  43) = (   3.3030955   0.0010839  15.7925060  )
        44           Ti1 tau(  44) = (   0.0111621   4.5610188  15.9796684  )
        45           O1  tau(  45) = (   3.2900926   2.9813045   4.7018136  )
        46           O1  tau(  46) = (   1.3039711   4.4726057   6.0039043  )
        47           O1  tau(  47) = (   5.2763189   4.4711207   6.0039473  )
        48           N1  tau(  48) = (   0.0348475   3.0484350  18.0388005  )
        49           H1  tau(  49) = (   0.0344738   2.0763216  18.3478120  )
        50           H1  tau(  50) = (   0.8651728   3.4882926  18.4252144  )
        51           H1  tau(  51) = (   5.8033537   3.5085160  18.4509717  )

     number of k points=    10  Fermi-Dirac smearing, width (Ry)=  0.0073
                       cart. coord. in units 2pi/alat
        k(    1) = (   0.0000000   0.0000000   0.0000000), wk =   0.1250000
        k(    2) = (   0.0000000   0.0419351   0.0000000), wk =   0.2500000
        k(    3) = (   0.0000000  -0.0838702   0.0000000), wk =   0.1250000
        k(    4) = (   0.0379955   0.0000049   0.0000000), wk =   0.2500000
        k(    5) = (   0.0379955   0.0419400   0.0000000), wk =   0.2500000
        k(    6) = (   0.0379955  -0.0838652   0.0000000), wk =   0.2500000
        k(    7) = (   0.0379955  -0.0419301   0.0000000), wk =   0.2500000
        k(    8) = (  -0.0759910  -0.0000099   0.0000000), wk =   0.1250000
        k(    9) = (  -0.0759910   0.0419252   0.0000000), wk =   0.2500000
        k(   10) = (  -0.0759910  -0.0838800   0.0000000), wk =   0.1250000

     Initial potential from superposition of free atoms

     starting charge  369.99921, renormalised to  386.00000

     negative rho (up, down):  1.972E-02 0.000E+00

     %%%%%%%%%%%%%%%%%%%%%%%%%%%%%%%%%%%%%%%%%%%%%%%%%%%%%%%%%%%%%%%%%%%%%%%%
     %                                                                      %
     % You are using vdW-DF, which was implemented by the Thonhauser group. %
     % Please cite the following two papers that made this development      %
     % possible and the two reviews that describe the various versions:     %
     %                                                                      %
     %   T. Thonhauser et al., PRL 115, 136402 (2015).                      %
     %   T. Thonhauser et al., PRB 76, 125112 (2007).                       %
     %   K. Berland et al., Rep. Prog. Phys. 78, 066501 (2015).             %
     %   D.C. Langreth et al., J. Phys.: Condens. Matter 21, 084203 (2009). %
     %                                                                      %
     %                                                                      %
     % If you are calculating the stress with vdW-DF, please also cite:     %
     %                                                                      %
     %   R. Sabatini et al., J. Phys.: Condens. Matter 24, 424209 (2012).   %
     %                                                                      %
     %%%%%%%%%%%%%%%%%%%%%%%%%%%%%%%%%%%%%%%%%%%%%%%%%%%%%%%%%%%%%%%%%%%%%%%%

     Adding external electric field

     Computed dipole along edir(3) :
        Dipole               -3.5656 Ry au,         -9.0628 Debye
        Dipole field         -0.0067 Ry au,

        Potential amp.        0.6237 Ry
        Total length         46.3494 bohr

     Starting wfcs are  291 atomic wfcs
  @ DRIVER MODE: Message from server: STATUS
  @ DRIVER MODE: Message from server: POSDATA
  @ DRIVER MODE: Reading and sharing cell
  @ DRIVER MODE: Reading and sharing positions
  @ DRIVER MODE: Received positions

     Self-consistent Calculation

     iteration #  1     ecut=    29.40 Ry     beta= 0.05
     Davidson diagonalization with overlap
     c_bands:  1 eigenvalues not converged
     c_bands:  2 eigenvalues not converged
     c_bands:  1 eigenvalues not converged
     c_bands:  4 eigenvalues not converged
     c_bands:  1 eigenvalues not converged
     c_bands:  1 eigenvalues not converged
     c_bands:  3 eigenvalues not converged
     ethr =  1.00E-05,  avg # of iterations = 20.0

[...]

     total energy              =   -2896.14680090 Ry
     estimated scf accuracy    <     156.21790514 Ry

     iteration #  2     ecut=    29.40 Ry     beta= 0.05
     Davidson diagonalization with overlap
     ethr =  1.00E-02,  avg # of iterations = 14.8

[...]

     iteration # 60     ecut=    29.40 Ry     beta= 0.05
     Davidson diagonalization with overlap
     c_bands:  1 eigenvalues not converged
     ethr =  4.28E-11,  avg # of iterations = 11.6

[...]

     total energy              =   -2907.69388204 Ry
     estimated scf accuracy    <       0.00000018 Ry

     iteration # 63     ecut=    29.40 Ry     beta= 0.05
     Davidson diagonalization with overlap
     ethr =  3.73E-11,  avg # of iterations =  7.2

     negative rho (up, down):  1.930E-02 0.000E+00

     Adding external electric field

     Computed dipole along edir(3) :
        Dipole                1.2457 Ry au,          3.1662 Debye
        Dipole field          0.0024 Ry au,

        Potential amp.       -0.2179 Ry
        Total length         46.3494 bohr

     End of self-consistent calculation

          k = 0.0000 0.0000 0.0000 ( 18029 PWs)   bands (ev):

   -55.6689 -55.6327 -55.6265 -55.5923 -55.5787 -55.5507 -55.5412 -55.5036
   -55.4976 -55.4960 -55.4618 -55.4608 -55.4510 -55.4170 -54.7119 -54.6778
   -32.2382 -32.1736 -32.1249 -32.0274 -31.9858 -31.9707 -31.9692 -31.9632
   -31.9171 -31.9123 -31.8755 -31.8748 -31.8725 -31.8715 -31.8433 -31.8236
   -31.8223 -31.8132 -31.8041 -31.7973 -31.7797 -31.7747 -31.7530 -31.7496
   -31.7456 -31.7302 -31.7215 -31.7208 -31.6865 -31.6822 -31.6703 -31.6550
   -31.6548 -31.6429 -31.6354 -31.6302 -31.6281 -31.6012 -31.5950 -31.5849
   -31.5833 -31.5648 -31.1236 -31.0226 -31.0010 -30.9398 -30.8534 -30.7424
   -16.5050 -16.2634 -16.1370 -15.9978 -15.8866 -15.8439 -15.7571 -15.7242
   -15.6106 -15.5226 -15.3981 -15.3528 -15.3264 -15.3209 -15.3087 -15.2901
   -15.2807 -15.2176 -15.1787 -15.1700 -15.1497 -15.1482 -15.1058 -15.1050
   -15.0482 -15.0324 -14.8954 -14.8209 -14.7599 -14.5090 -13.2133 -13.0942
    -6.0806  -5.9355  -3.8329  -3.6734  -3.6458  -3.5961  -3.5854  -3.4292
    -3.2695  -3.1363  -3.0916  -2.9537  -2.9199  -2.8719  -2.8435  -2.6957
    -2.6617  -2.6319  -2.5745  -2.5444  -2.5435  -2.5352  -2.5218  -2.4405
    -2.4379  -2.4195  -2.3041  -2.2536  -2.1428  -2.1122  -2.0484  -2.0314
    -1.9942  -1.9931  -1.9830  -1.9322  -1.9311  -1.9070  -1.8735  -1.8037
    -1.7082  -1.6528  -1.5635  -1.5278  -1.4211  -1.4176  -1.2504  -1.2307
    -1.1652  -1.1214  -1.1113  -1.0782  -1.0686  -1.0185  -0.9090  -0.8246
    -0.7861  -0.7239  -0.6731  -0.6406  -0.6035  -0.5304  -0.4599  -0.4527
    -0.4211  -0.3055  -0.2636  -0.2086  -0.1557  -0.1469  -0.1116  -0.0126
    -0.0072   0.0917   0.0983   0.1310   0.1593   0.2656   0.2740   0.2832
     0.3032   0.3041   0.3917   0.4297   0.4913   0.5070   0.6523   0.8667
     0.9037   0.9345   1.2065   1.2817   1.3133   1.4768   1.8959   1.9481
     3.4300   3.4944   3.5291   3.5586   3.5726   3.6394   3.9198   3.9225
     3.9355   3.9504   3.9861

[...]

          k = 0.0380-0.0419 0.0000 ( 17876 PWs)   bands (ev):

[...]

          k =-0.0760-0.0000 0.0000 ( 17886 PWs)   bands (ev):

[...]

          k =-0.0760-0.0839 0.0000 ( 17948 PWs)   bands (ev):

   -55.6525 -55.6489 -55.6099 -55.6088 -55.5741 -55.5476 -55.5301 -55.5147
   -55.5018 -55.4798 -55.4776 -55.4640 -55.4356 -55.4326 -54.6948 -54.6948
   -32.0929 -32.0426 -32.0395 -31.9561 -31.9403 -31.9392 -31.9279 -31.9030
   -31.9019 -31.8721 -31.8699 -31.8653 -31.8617 -31.8394 -31.8290 -31.8191
   -31.7964 -31.7956 -31.7952 -31.7921 -31.7898 -31.7872 -31.7853 -31.7465
   -31.7447 -31.7430 -31.7369 -31.7324 -31.7277 -31.7275 -31.7272 -31.7256
   -31.7070 -31.7038 -31.6915 -31.6779 -31.6762 -31.6588 -31.6559 -31.6466
   -31.6214 -31.6185 -31.0136 -31.0135 -30.9363 -30.9362 -30.8967 -30.8966
   -16.0634 -15.9160 -15.9123 -15.8589 -15.6964 -15.6833 -15.6528 -15.6340
   -15.4923 -15.4757 -15.4601 -15.4535 -15.4097 -15.4001 -15.3928 -15.3823
   -15.2629 -15.2586 -15.2483 -15.2449 -15.1769 -15.1737 -15.1706 -15.1539
   -15.1283 -15.1154 -15.0796 -15.0752 -14.9989 -14.8437 -13.1953 -13.1953
    -6.0373  -5.9415  -3.1882  -3.1480  -3.1229  -2.9052  -2.8710  -2.8419
    -2.8303  -2.7477  -2.6859  -2.6819  -2.6683  -2.6294  -2.5756  -2.5604
    -2.5546  -2.5194  -2.5069  -2.4939  -2.4607  -2.4469  -2.3908  -2.3620
    -2.3494  -2.3477  -2.3356  -2.3286  -2.3132  -2.2947  -2.2726  -2.2671
    -2.1496  -2.0451  -1.9989  -1.9901  -1.8881  -1.8841  -1.8831  -1.7967
    -1.7763  -1.7236  -1.7185  -1.6971  -1.4828  -1.4652  -1.4476  -1.4436
    -1.4187  -1.3408  -1.2627  -1.2347  -1.2191  -1.1648  -1.0505  -1.0179
    -0.9978  -0.9243  -0.8809  -0.8662  -0.8163  -0.6822  -0.6694  -0.6652
    -0.6509  -0.6456  -0.5880  -0.5824  -0.5013  -0.4549  -0.4035  -0.3911
    -0.3706  -0.1784  -0.1446  -0.0782   0.0184   0.0238   0.1997   0.2456
     0.2523   0.3554   0.3779   0.4153   0.4710   0.5926   0.6059   0.6424
     0.7183   0.7747   0.7753   0.7775   1.6649   1.6663   1.7663   1.7664
     3.5769   3.6661   3.6831   3.7462   3.8393   3.9423   3.9437   3.9586
     3.9882   3.9896   4.0934

     the Fermi energy is     3.4898 ev

!    total energy              =   -2907.69390738 Ry
     estimated scf accuracy    <       0.00000003 Ry
     smearing contrib. (-TS)   =      -0.03697235 Ry
     internal energy E=F+TS    =   -2907.65693503 Ry

     The total energy is F=E-TS. E is the sum of the following terms:
     one-electron contribution =  -24675.88995166 Ry
     hartree contribution      =   12422.75076145 Ry
     xc contribution           =    -476.54645771 Ry
     ewald contribution        =    9822.02578464 Ry
     electric field correction =       0.00292824 Ry

     convergence has been achieved in  63 iterations

     Forces acting on atoms (cartesian axes, Ry/au):

     atom    1 type  1   force =    -0.00000265    0.00004863    0.09123447
     atom    2 type  1   force =    -0.00012658    0.00034838   -0.18252706
     atom    3 type  2   force =     0.00003469   -0.00041827   -0.02466511
     atom    4 type  2   force =     0.00001320    0.00000862    0.05209154
     atom    5 type  2   force =    -0.01338628   -0.00057612    0.00485931
     atom    6 type  2   force =     0.01363121   -0.00009777    0.00501903
     atom    7 type  1   force =    -0.00000809   -0.00034507   -0.00325318
     atom    8 type  1   force =    -0.00007003    0.00367786    0.00360301
     atom    9 type  2   force =     0.00001008    0.00016099   -0.00017172
     atom   10 type  2   force =     0.00003528    0.00004121   -0.00037300
     atom   11 type  2   force =    -0.00003054    0.00019602    0.00017861
     atom   12 type  2   force =     0.00007616    0.00014745    0.00014376
     atom   13 type  1   force =     0.00012461    0.00055312   -0.00018799
     atom   14 type  1   force =     0.00010385   -0.00016591   -0.00074257
     atom   15 type  2   force =     0.00011240   -0.00005952   -0.00010371
     atom   16 type  2   force =    -0.00004149    0.00005863    0.00027410
     atom   17 type  2   force =     0.00054530    0.00008227   -0.00002473
     atom   18 type  2   force =    -0.00056936    0.00018036    0.00009182
     atom   19 type  1   force =     0.00025223    0.00023970    0.00044914
     atom   20 type  1   force =    -0.00006420   -0.00160520   -0.00043671
     atom   21 type  2   force =     0.00001263    0.00011752    0.10478133
     atom   22 type  2   force =     0.00009582    0.00049725    0.00145606
     atom   23 type  2   force =    -0.06845623   -0.00022755   -0.02642220
     atom   24 type  2   force =     0.06830017    0.00020320   -0.02648002
     atom   25 type  1   force =     0.00006913    0.00001051    0.09095781
     atom   26 type  1   force =    -0.00009194   -0.00043963   -0.18246086
     atom   27 type  2   force =     0.00002463    0.00005839   -0.02329004
     atom   28 type  2   force =     0.00000523    0.00001509    0.05197909
     atom   29 type  2   force =    -0.01321591   -0.00010118    0.00519533
     atom   30 type  2   force =     0.01345383    0.00041475    0.00534253
     atom   31 type  1   force =     0.00004376    0.00024419   -0.00293052
     atom   32 type  1   force =    -0.00008650   -0.00359244    0.00349290
     atom   33 type  2   force =     0.00001301   -0.00019747    0.00019475
     atom   34 type  2   force =     0.00001640   -0.00006290   -0.00063823
     atom   35 type  2   force =    -0.00008801   -0.00028857   -0.00002426
     atom   36 type  2   force =     0.00012331   -0.00023879   -0.00005294
     atom   37 type  1   force =     0.00009479   -0.00064578    0.00076813
     atom   38 type  1   force =     0.00009173    0.00016067   -0.00069106
     atom   39 type  2   force =     0.00006552   -0.00017264    0.00012355
     atom   40 type  2   force =     0.00008890   -0.00010571    0.00068303
     atom   41 type  2   force =     0.00040092   -0.00015641    0.00020024
     atom   42 type  2   force =    -0.00035102   -0.00025393    0.00034963
     atom   43 type  1   force =     0.00009245   -0.00033795    0.00002111
     atom   44 type  1   force =    -0.00003612    0.00036805    0.00000971
     atom   45 type  2   force =     0.00001442    0.00009296    0.10476443
     atom   46 type  2   force =    -0.06843899   -0.00017208   -0.02640840
     atom   47 type  2   force =     0.06829047    0.00026397   -0.02645461
     atom   48 type  3   force =    -0.00397965    0.00580960    0.00251095
     atom   49 type  4   force =    -0.00150168    0.00020181   -0.00003231
     atom   50 type  4   force =     0.00026218    0.00015667   -0.00050823
     atom   51 type  4   force =     0.00404699   -0.00409694   -0.00189591

     Total force =     0.366367     Total SCF correction =     0.000496
  @ DRIVER MODE: Message from server: STATUS
  @ DRIVER MODE: Message from server: GETFORCE
  @ DRIVER MODE: Returning v,forces,stress,ensemble

     Writing output data file ./calc.save/
  @ DRIVER MODE: Message from server: EXIT
  @ DRIVE MODE: Exiting

     General routines

     Parallel routines

   This run was terminated on:  15:52:41  12Oct2021

   JOB DONE.