     Program PWSCF v.6.7GPU starts on 24Sep2021 at  2:50: 2

     R & G space division:  proc/nbgrp/npool/nimage =       8
     Reading input from /storage/home/hcoda1/3/ntian30/research/carbon/CxH_vib/H2O_calc/ads_slab/CH3NHNH2HO_a/out_0033/pw.inp
Warning: card &CELL ignored
Warning: card   CELL_DYNAMICS='IPI', ignored
Warning: card / ignored

     Current dimensions of program PWSCF are:
     Max number of different atomic species (ntypx) = 10
     Max number of k-points (npk) =  40000
     Max angular momentum in pseudopotentials (lmaxx) =  3
     Presently no symmetry can be used with electric field

     Message from routine cell_base_init:
     DEPRECATED: use true lattice parameter, not A to a.u. conversion factor

     IMPORTANT: XC functional enforced from input :
     Exchange-correlation= BEEF-VDW
                           (   1   4  43  14   2   0   0)
     Any further DFT definition will be discarded
     Please, verify this is what you really want

  @ DRIVER MODE: Connecting to
 qe_1139763_2947307.sched-torque.pace.gatech.eduzx9vdgyw_scratch
  using UNIX socket
  @ DRIVER MODE: Message from server: STATUS
  @ DRIVER MODE: Message from server: INIT
  @ DRIVER MODE: Receiving replica           0          -1
  @ DRIVER MODE: Receiving encoded integer          25
  @ DRIVER MODE:  SCF:  T  FORCE:  T  STRESS:  F  VC:  F  ENSEMBLE:  F
  @ DRIVER MODE:  SCF:  T  FORCE:  T  STRESS:  F  VC:  F  ENSEMBLE:  F

     Using Slab Decomposition

     bravais-lattice index     =            0
     lattice parameter (alat)  =       1.8897  a.u.
     unit-cell volume          =    6658.9804 (a.u.)^3
     number of atoms/cell      =           58
     number of atomic types    =            5
     number of electrons       =       405.00
     number of Kohn-Sham states=          212
     kinetic-energy cutoff     =      29.3995  Ry
     charge density cutoff     =     293.9946  Ry
     scf convergence threshold =      7.3E-08
     mixing beta               =       0.0500
     number of iterations used =            8  plain     mixing
     Exchange-correlation= BEEF-VDW
                           (   1   4  43  14   2   0   0)

     celldm(1)=   1.889726  celldm(2)=   0.000000  celldm(3)=   0.000000
     celldm(4)=   0.000000  celldm(5)=   0.000000  celldm(6)=   0.000000

     crystal axes: (cart. coord. in units of alat)
               a(1) = (   6.579727   0.000000   0.000000 )
               a(2) = (  -0.000775   5.961596   0.000000 )
               a(3) = (   0.000000   0.000000  25.155947 )

     reciprocal axes: (cart. coord. in units 2 pi/alat)
               b(1) = (  0.151982  0.000020  0.000000 )
               b(2) = (  0.000000  0.167740  0.000000 )
               b(3) = (  0.000000  0.000000  0.039752 )

     PseudoPot. # 1 for Ti read from file:
     /storage/coda1/p-amedford6/0/shared/rich_project_chbe-medford/medford-share/data/pseudos_module/espresso/nninc/pbe/van/Ti.UPF
     MD5 check sum: 8e4df49b7f0d34bbd5052bf3f5ea0213
     Pseudo is Ultrasoft, Zval = 12.0
     Generated by new atomic code, or converted to UPF format
     Using radial grid of  851 points,  6 beta functions with:
                l(1) =   0
                l(2) =   0
                l(3) =   1
                l(4) =   1
                l(5) =   2
                l(6) =   2
     Q(r) pseudized with  8 coefficients,  rinner =    1.000   1.000   1.000
                                                       1.000   1.000

     PseudoPot. # 2 for O  read from file:
     /storage/coda1/p-amedford6/0/shared/rich_project_chbe-medford/medford-share/data/pseudos_module/espresso/nninc/pbe/van/O.UPF
     MD5 check sum: 78c19812648e8988a0fe644b0f25305e
     Pseudo is Ultrasoft, Zval =  6.0
     Generated by new atomic code, or converted to UPF format
     Using radial grid of  737 points,  4 beta functions with:
                l(1) =   0
                l(2) =   0
                l(3) =   1
                l(4) =   1
     Q(r) pseudized with  8 coefficients,  rinner =    0.800   0.800   0.800

     PseudoPot. # 3 for N  read from file:
     /storage/coda1/p-amedford6/0/shared/rich_project_chbe-medford/medford-share/data/pseudos_module/espresso/nninc/pbe/van/N.UPF
     MD5 check sum: 90d10febe142ad51ac9d5be1deb811c4
     Pseudo is Ultrasoft, Zval =  5.0
     Generated by new atomic code, or converted to UPF format
     Using radial grid of  729 points,  4 beta functions with:
                l(1) =   0
                l(2) =   0
                l(3) =   1
                l(4) =   1
     Q(r) pseudized with  8 coefficients,  rinner =    0.800   0.800   0.800

     PseudoPot. # 4 for C  read from file:
     /storage/coda1/p-amedford6/0/shared/rich_project_chbe-medford/medford-share/data/pseudos_module/espresso/nninc/pbe/van/C.UPF
     MD5 check sum: 1a69bf6b8db32088f5b2163dbdb77a27
     Pseudo is Ultrasoft, Zval =  4.0
     Generated by new atomic code, or converted to UPF format
     Using radial grid of  721 points,  4 beta functions with:
                l(1) =   0
                l(2) =   0
                l(3) =   1
                l(4) =   1
     Q(r) pseudized with  8 coefficients,  rinner =    0.800   0.800   0.800

     PseudoPot. # 5 for H  read from file:
     /storage/coda1/p-amedford6/0/shared/rich_project_chbe-medford/medford-share/data/pseudos_module/espresso/nninc/pbe/van/H.UPF
     MD5 check sum: b5ee9d7bfd3a09ee7748110bda690ff7
     Pseudo is Ultrasoft, Zval =  1.0
     Generated by new atomic code, or converted to UPF format
     Using radial grid of  615 points,  1 beta functions with:
                l(1) =   0
     Q(r) pseudized with  8 coefficients,  rinner =    0.800

     atomic species   valence    mass     pseudopotential
        Ti1           12.00    47.86700     Ti( 1.00)
        O1             6.00    15.99900     O ( 1.00)
        N1             5.00    14.00700     N ( 1.00)
        C1             4.00    12.01100     C ( 1.00)
        H1             1.00     1.00800     H ( 1.00)

     No symmetry found

   Cartesian axes

     site n.     atom                  positions (alat units)
         1           Ti1 tau(   1) = (   0.0004258   2.9801865   6.0000000  )
         2           Ti1 tau(   2) = (   3.2906075   1.4906267   6.0002472  )
         3           O1  tau(   3) = (   0.0006271   0.0005054   7.9858123  )
         4           O1  tau(   4) = (   3.2906025   0.0005020   7.3038282  )
         5           O1  tau(   5) = (   4.5942328   1.4918067   9.2879030  )
         6           O1  tau(   6) = (   1.9868534   1.4903216   9.2879459  )
         7           Ti1 tau(   7) = (   3.2907910   2.8959150   9.1758416  )
         8           Ti1 tau(   8) = (   0.0015273   1.4827037   9.2680791  )
         9           O1  tau(   9) = (   3.3003128   0.0493987  11.3625472  )
        10           O1  tau(  10) = (   0.0116148   5.9584955  10.6183126  )
        11           O1  tau(  11) = (   1.2863924   1.5188706  12.6959087  )
        12           O1  tau(  12) = (   5.3173592   1.5183023  12.6957539  )
        13           Ti1 tau(  13) = (   0.0130489   2.9571150  12.5182267  )
        14           Ti1 tau(  14) = (   3.3124343   1.5987737  12.4587140  )
        15           O1  tau(  15) = (   0.0455642   5.8537743  14.6515032  )
        16           O1  tau(  16) = (   3.3135256   5.8999501  14.0036581  )
        17           O1  tau(  17) = (   4.5824137   1.5787328  16.0473457  )
        18           O1  tau(  18) = (   2.0456054   1.5356268  16.0652349  )
        19           Ti1 tau(  19) = (   3.2855744   2.9948502  15.7047272  )
        20           Ti1 tau(  20) = (   0.0729980   1.3194477  15.7501807  )
        21           O1  tau(  21) = (   3.2904802   0.0005063   4.7018136  )
        22           O1  tau(  22) = (   6.5643345   0.1786488  17.1561759  )
        23           O1  tau(  23) = (   1.3043587   1.4918075   6.0039043  )
        24           O1  tau(  24) = (   5.2767064   1.4903225   6.0039473  )
        25           Ti1 tau(  25) = (   0.0000382   5.9609847   6.0000000  )
        26           Ti1 tau(  26) = (   3.2902200   4.4714249   6.0002472  )
        27           O1  tau(  27) = (   0.0002396   2.9813036   7.9858123  )
        28           O1  tau(  28) = (   3.2902150   2.9813002   7.3038282  )
        29           O1  tau(  29) = (   4.5938453   4.4726049   9.2879030  )
        30           O1  tau(  30) = (   1.9864658   4.4711199   9.2879459  )
        31           Ti1 tau(  31) = (   3.2891106   5.8743827   9.1763621  )
        32           Ti1 tau(  32) = (   0.0006254   4.4649316   9.2693709  )
        33           O1  tau(  33) = (   3.3044115   2.9646987  11.3227374  )
        34           O1  tau(  34) = (   0.0092240   2.9805883  10.6323155  )
        35           O1  tau(  35) = (   1.2889249   4.4812606  12.6373974  )
        36           O1  tau(  36) = (   5.3198440   4.4849614  12.6453916  )
        37           Ti1 tau(  37) = (   0.0274371   5.9167426  12.5032498  )
        38           Ti1 tau(  38) = (   3.3124303   4.6827448  12.7121475  )
        39           O1  tau(  39) = (   0.0064664   3.0605765  14.9143048  )
        40           O1  tau(  40) = (   3.2921723   3.0190953  13.9337278  )
        41           O1  tau(  41) = (   4.5343043   4.4484976  16.2223827  )
        42           O1  tau(  42) = (   2.0055671   4.4324605  16.2273083  )
        43           Ti1 tau(  43) = (   3.3963104   0.0511244  16.3072024  )
        44           Ti1 tau(  44) = (   0.1011521   4.5293608  16.0606835  )
        45           O1  tau(  45) = (   3.2900926   2.9813045   4.7018136  )
        46           O1  tau(  46) = (   1.3039711   4.4726057   6.0039043  )
        47           O1  tau(  47) = (   5.2763189   4.4711207   6.0039473  )
        48           N1  tau(  48) = (   0.7799224   3.1460235  19.0808133  )
        49           N1  tau(  49) = (   6.3029119   3.3142126  18.0946246  )
        50           C1  tau(  50) = (   0.9829876   4.3811599  19.8296872  )
        51           H1  tau(  51) = (   0.0599524   4.7630682  20.2995108  )
        52           H1  tau(  52) = (   1.7087173   4.1728717  20.6153690  )
        53           H1  tau(  53) = (   1.3778604   5.1410331  19.1745456  )
        54           H1  tau(  54) = (   0.4845774   2.4057476  19.7140978  )
        55           H1  tau(  55) = (   5.5451363   3.8924421  18.4761980  )
        56           H1  tau(  56) = (   5.8791802   2.3931312  17.9634808  )
        57           O1  tau(  57) = (   3.3895457   0.1916509  18.1699706  )
        58           H1  tau(  58) = (   3.8128180   5.4341384  18.6581559  )

     number of k points=    10  Fermi-Dirac smearing, width (Ry)=  0.0073
                       cart. coord. in units 2pi/alat
        k(    1) = (   0.0000000   0.0000000   0.0000000), wk =   0.1250000
        k(    2) = (   0.0000000   0.0419351   0.0000000), wk =   0.2500000
        k(    3) = (   0.0000000  -0.0838702   0.0000000), wk =   0.1250000
        k(    4) = (   0.0379955   0.0000049   0.0000000), wk =   0.2500000
        k(    5) = (   0.0379955   0.0419400   0.0000000), wk =   0.2500000
        k(    6) = (   0.0379955  -0.0838652   0.0000000), wk =   0.2500000
        k(    7) = (   0.0379955  -0.0419301   0.0000000), wk =   0.2500000
        k(    8) = (  -0.0759910  -0.0000099   0.0000000), wk =   0.1250000
        k(    9) = (  -0.0759910   0.0419252   0.0000000), wk =   0.2500000
        k(   10) = (  -0.0759910  -0.0838800   0.0000000), wk =   0.1250000

     Initial potential from superposition of free atoms

     starting charge  388.99913, renormalised to  405.00000

     negative rho (up, down):  1.368E-02 0.000E+00

     %%%%%%%%%%%%%%%%%%%%%%%%%%%%%%%%%%%%%%%%%%%%%%%%%%%%%%%%%%%%%%%%%%%%%%%%
     %                                                                      %
     % You are using vdW-DF, which was implemented by the Thonhauser group. %
     % Please cite the following two papers that made this development      %
     % possible and the two reviews that describe the various versions:     %
     %                                                                      %
     %   T. Thonhauser et al., PRL 115, 136402 (2015).                      %
     %   T. Thonhauser et al., PRB 76, 125112 (2007).                       %
     %   K. Berland et al., Rep. Prog. Phys. 78, 066501 (2015).             %
     %   D.C. Langreth et al., J. Phys.: Condens. Matter 21, 084203 (2009). %
     %                                                                      %
     %                                                                      %
     % If you are calculating the stress with vdW-DF, please also cite:     %
     %                                                                      %
     %   R. Sabatini et al., J. Phys.: Condens. Matter 24, 424209 (2012).   %
     %                                                                      %
     %%%%%%%%%%%%%%%%%%%%%%%%%%%%%%%%%%%%%%%%%%%%%%%%%%%%%%%%%%%%%%%%%%%%%%%%

     Adding external electric field

     Computed dipole along edir(3) :
        Dipole              -14.8124 Ry au,        -37.6493 Debye
        Dipole field         -0.0280 Ry au,

        Potential amp.        2.5912 Ry
        Total length         46.3494 bohr

     Starting wfcs are  307 atomic wfcs
  @ DRIVER MODE: Message from server: STATUS
  @ DRIVER MODE: Message from server: POSDATA
  @ DRIVER MODE: Reading and sharing cell
  @ DRIVER MODE: Reading and sharing positions
  @ DRIVER MODE: Received positions

     Self-consistent Calculation

     iteration #  1     ecut=    29.40 Ry     beta= 0.05
     Davidson diagonalization with overlap
     c_bands:  4 eigenvalues not converged
     c_bands:  4 eigenvalues not converged
     c_bands:  5 eigenvalues not converged
     c_bands:  2 eigenvalues not converged
     c_bands:  3 eigenvalues not converged
     c_bands:  4 eigenvalues not converged
     c_bands:  2 eigenvalues not converged
     ethr =  1.00E-05,  avg # of iterations = 22.9

[...]

     total energy              =   -2202.96593484 Ry
     estimated scf accuracy    <    8803.91481362 Ry

     iteration #  2     ecut=    29.40 Ry     beta= 0.05
     Davidson diagonalization with overlap
     ethr =  1.00E-02,  avg # of iterations = 31.9

[...]

     iteration # 79     ecut=    29.40 Ry     beta= 0.05
     Davidson diagonalization with overlap
     c_bands:  1 eigenvalues not converged
     ethr =  1.11E-09,  avg # of iterations =  3.8

[...]

     total energy              =   -2976.46398197 Ry
     estimated scf accuracy    <       0.00000010 Ry

     iteration # 88     ecut=    29.40 Ry     beta= 0.05
     Davidson diagonalization with overlap
     ethr =  2.37E-11,  avg # of iterations =  6.4

     negative rho (up, down):  1.441E-02 0.000E+00

     Adding external electric field

     Computed dipole along edir(3) :
        Dipole                1.2272 Ry au,          3.1193 Debye
        Dipole field          0.0023 Ry au,

        Potential amp.       -0.2147 Ry
        Total length         46.3494 bohr

     End of self-consistent calculation

          k = 0.0000 0.0000 0.0000 ( 18029 PWs)   bands (ev):

   -55.4447 -55.3569 -55.3228 -55.2181 -55.2152 -55.1875 -55.1853 -55.1777
   -55.1534 -55.1305 -55.0874 -54.9855 -54.9371 -54.8938 -54.3317 -54.2976
   -31.8420 -31.7910 -31.7218 -31.7045 -31.6903 -31.6753 -31.6546 -31.6478
   -31.6166 -31.6031 -31.5969 -31.5093 -31.4944 -31.4872 -31.4674 -31.4639
   -31.4600 -31.4508 -31.4502 -31.4205 -31.4142 -31.3925 -31.3856 -31.3756
   -31.3708 -31.3548 -31.3539 -31.3219 -31.3215 -31.3150 -31.3142 -31.3085
   -31.3001 -31.2821 -31.2583 -31.2398 -31.1746 -31.1528 -31.1412 -31.1327
   -31.1121 -31.1030 -30.7377 -30.6513 -30.6288 -30.5551 -30.4688 -30.3570
   -17.7428 -16.3669 -16.0109 -15.8471 -15.6323 -15.5396 -15.5126 -15.3137
   -15.2187 -15.1605 -14.9590 -14.9319 -14.8945 -14.8815 -14.8728 -14.8517
   -14.8481 -14.7966 -14.7811 -14.7712 -14.7677 -14.7374 -14.7103 -14.6711
   -14.6113 -14.5977 -14.4952 -14.4397 -14.3998 -14.1585 -14.1381 -13.1792
   -12.8303 -12.7139  -9.4518  -6.4459  -5.7448  -4.2722  -3.9338  -3.3691
    -3.2677  -3.2560  -3.1997  -3.1321  -2.9809  -2.8843  -2.7875  -2.7453
    -2.6232  -2.5980  -2.4923  -2.4436  -2.3708  -2.3243  -2.2831  -2.2487
    -2.2210  -2.1647  -2.1424  -2.1164  -2.1054  -2.0324  -2.0142  -1.9244
    -1.8916  -1.8782  -1.7603  -1.7259  -1.6912  -1.6778  -1.6688  -1.6625
    -1.6192  -1.6085  -1.5978  -1.5559  -1.4553  -1.4476  -1.4298  -1.3391
    -1.2417  -0.9915  -0.9604  -0.9098  -0.8983  -0.8202  -0.7816  -0.7500
    -0.7173  -0.6474  -0.6362  -0.6102  -0.5489  -0.4734  -0.4191  -0.3715
    -0.3372  -0.2254  -0.1754  -0.1316  -0.0987  -0.0620   0.0010   0.0405
     0.0647   0.1078   0.1954   0.2587   0.2861   0.3030   0.3532   0.3950
     0.4330   0.4735   0.5452   0.5677   0.5779   0.6171   0.6258   0.6467
     0.7421   0.7605   0.8201   0.8474   0.9352   0.9662   1.0104   1.1801
     1.2496   1.3078   1.3862   1.4760   1.6401   1.6946   1.7196   1.8886
     2.2620   2.3073   3.7270   3.8744   3.8907   3.9685   3.9854   4.0495
     4.2159   4.2752   4.4129   4.4233

[...]

          k = 0.0380-0.0419 0.0000 ( 17876 PWs)   bands (ev):

[...]

          k =-0.0760-0.0000 0.0000 ( 17886 PWs)   bands (ev):

[...]

          k =-0.0760-0.0839 0.0000 ( 17948 PWs)   bands (ev):

   -55.4439 -55.3399 -55.3396 -55.2168 -55.2036 -55.1893 -55.1860 -55.1716
   -55.1688 -55.1224 -55.0955 -54.9824 -54.9381 -54.8968 -54.3146 -54.3146
   -31.7297 -31.6694 -31.6574 -31.6572 -31.6560 -31.6420 -31.6335 -31.6331
   -31.5758 -31.5310 -31.5095 -31.4987 -31.4933 -31.4881 -31.4654 -31.4597
   -31.4591 -31.4561 -31.4497 -31.4372 -31.4305 -31.4276 -31.4161 -31.3901
   -31.3853 -31.3836 -31.3760 -31.3682 -31.3497 -31.3443 -31.3410 -31.3406
   -31.3378 -31.3176 -31.3161 -31.2516 -31.2345 -31.2067 -31.1788 -31.1551
   -31.1490 -31.1078 -30.6416 -30.6415 -30.5507 -30.5504 -30.5121 -30.5119
   -17.7387 -16.3569 -15.5916 -15.4466 -15.3382 -15.3278 -15.2040 -15.1367
   -15.1270 -15.0933 -15.0706 -15.0487 -15.0301 -15.0151 -14.9601 -14.9205
   -14.8892 -14.8618 -14.8572 -14.8142 -14.8045 -14.7932 -14.7752 -14.7637
   -14.7085 -14.6723 -14.6626 -14.6041 -14.4651 -14.4443 -14.2886 -13.1806
   -12.8159 -12.8157  -9.4707  -6.4304  -5.7507  -4.2583  -3.9226  -2.9668
    -2.8022  -2.6584  -2.6260  -2.5628  -2.4493  -2.4259  -2.3670  -2.3165
    -2.2924  -2.2708  -2.2189  -2.2088  -2.1629  -2.1468  -2.1227  -2.1079
    -2.0913  -2.0848  -2.0569  -2.0411  -2.0308  -2.0175  -1.9908  -1.9797
    -1.9614  -1.9327  -1.9125  -1.9034  -1.8699  -1.8276  -1.7667  -1.6557
    -1.5823  -1.5711  -1.5272  -1.5022  -1.4860  -1.4450  -1.4324  -1.3914
    -1.3740  -1.3078  -1.1498  -1.1249  -1.1102  -0.9678  -0.9605  -0.9316
    -0.8576  -0.8158  -0.7940  -0.7360  -0.7061  -0.6658  -0.5891  -0.5459
    -0.4916  -0.4254  -0.3255  -0.3179  -0.3019  -0.2818  -0.2656  -0.2578
    -0.2246  -0.1874  -0.1144  -0.0678  -0.0592  -0.0532  -0.0020   0.0779
     0.1288   0.2432   0.3894   0.3938   0.4608   0.4616   0.6613   0.6702
     0.7468   0.7822   0.8166   0.8438   0.9376   0.9556   0.9933   1.0762
     1.1397   1.1692   1.1901   1.1948   1.2479   1.4593   2.0569   2.0648
     2.1276   2.1278   3.9682   4.2012   4.2414   4.2546   4.2729   4.2994
     4.3130   4.3271   4.3940   4.4178

     the Fermi energy is     3.7643 ev

!    total energy              =   -2976.46398961 Ry
     estimated scf accuracy    <       0.00000007 Ry
     smearing contrib. (-TS)   =      -0.01955268 Ry
     internal energy E=F+TS    =   -2976.44443693 Ry

     The total energy is F=E-TS. E is the sum of the following terms:
     one-electron contribution =  -23037.32774364 Ry
     hartree contribution      =   11616.38583665 Ry
     xc contribution           =    -495.73088136 Ry
     ewald contribution        =    8940.22550920 Ry
     electric field correction =       0.00284221 Ry

     convergence has been achieved in  88 iterations

     Forces acting on atoms (cartesian axes, Ry/au):

     atom    1 type  1   force =     0.00016112   -0.00022991    0.09414950
     atom    2 type  1   force =    -0.00010484    0.00018630   -0.17538349
     atom    3 type  2   force =     0.00005372   -0.00049179   -0.02103257
     atom    4 type  2   force =    -0.00002431   -0.00093908    0.05426328
     atom    5 type  2   force =    -0.00489080   -0.00215655    0.00106361
     atom    6 type  2   force =     0.00671351   -0.00138216    0.00107984
     atom    7 type  1   force =     0.00006330    0.00330579    0.00865362
     atom    8 type  1   force =    -0.00009943    0.00120055    0.00270926
     atom    9 type  2   force =    -0.00021839   -0.00030072   -0.00058455
     atom   10 type  2   force =    -0.00111975    0.00429243   -0.01024016
     atom   11 type  2   force =    -0.00007671   -0.00054995   -0.00010912
     atom   12 type  2   force =     0.00062022   -0.00031500   -0.00026972
     atom   13 type  1   force =    -0.00142931    0.00018500   -0.00057344
     atom   14 type  1   force =     0.00070712    0.00018143   -0.00047038
     atom   15 type  2   force =     0.00013220   -0.00000654    0.00004341
     atom   16 type  2   force =    -0.00009505   -0.00069525   -0.00030207
     atom   17 type  2   force =    -0.00044242    0.00069324    0.00007900
     atom   18 type  2   force =    -0.00075250    0.00031800   -0.00022339
     atom   19 type  1   force =     0.00041849   -0.00094902    0.00057463
     atom   20 type  1   force =    -0.00069235   -0.00007326    0.00053529
     atom   21 type  2   force =     0.00003738   -0.00001017    0.10319940
     atom   22 type  2   force =    -0.00009247   -0.00000217    0.00047503
     atom   23 type  2   force =    -0.07197724   -0.00019966   -0.02725333
     atom   24 type  2   force =     0.07185414    0.00025614   -0.02732462
     atom   25 type  1   force =     0.00007699   -0.00016572    0.09388472
     atom   26 type  1   force =    -0.00012066   -0.00136708   -0.17551780
     atom   27 type  2   force =     0.00011069   -0.00005340   -0.01984300
     atom   28 type  2   force =     0.00006393   -0.00105173    0.04981653
     atom   29 type  2   force =    -0.00747341    0.00209270    0.00338851
     atom   30 type  2   force =     0.00907682    0.00223441    0.00330616
     atom   31 type  1   force =     0.00019647    0.00151119    0.00004598
     atom   32 type  1   force =    -0.00008727   -0.00226451    0.00301751
     atom   33 type  2   force =    -0.00017606   -0.00031734   -0.00002087
     atom   34 type  2   force =    -0.00117133   -0.00218397   -0.00963477
     atom   35 type  2   force =     0.00062911    0.00005939   -0.00022449
     atom   36 type  2   force =     0.00038501    0.00011916   -0.00035425
     atom   37 type  1   force =    -0.00096161    0.00024901    0.00035738
     atom   38 type  1   force =     0.00096255   -0.00022794    0.00020896
     atom   39 type  2   force =    -0.00016943   -0.00052548    0.00009913
     atom   40 type  2   force =    -0.00019802   -0.00019117   -0.00016821
     atom   41 type  2   force =     0.00024029   -0.00032264   -0.00009742
     atom   42 type  2   force =    -0.00066165    0.00005291   -0.00008619
     atom   43 type  1   force =     0.00022530    0.00093642    0.00048864
     atom   44 type  1   force =    -0.00041337    0.00086123    0.00005097
     atom   45 type  2   force =     0.00002465    0.00003534    0.10301675
     atom   46 type  2   force =    -0.07193086   -0.00007756   -0.02720886
     atom   47 type  2   force =     0.07181952    0.00035207   -0.02729160
     atom   48 type  3   force =    -0.00030776   -0.00204780   -0.00015233
     atom   49 type  3   force =    -0.00032723   -0.00015143   -0.00042999
     atom   50 type  4   force =    -0.00251481   -0.00680083    0.00445384
     atom   51 type  5   force =    -0.00085561    0.00015951    0.00021983
     atom   52 type  5   force =     0.00054012   -0.00016779    0.00046282
     atom   53 type  5   force =     0.00261799    0.00822950   -0.00510672
     atom   54 type  5   force =     0.00056706   -0.00038878   -0.00010590
     atom   55 type  5   force =     0.00052107   -0.00058978    0.00004207
     atom   56 type  5   force =     0.00065580   -0.00002160   -0.00005507
     atom   57 type  2   force =     0.00069089   -0.00124120    0.00015436
     atom   58 type  5   force =    -0.00078080    0.00094725    0.00022426

     Total force =     0.362224     Total SCF correction =     0.000458
  @ DRIVER MODE: Message from server: STATUS
  @ DRIVER MODE: Message from server: GETFORCE
  @ DRIVER MODE: Returning v,forces,stress,ensemble

     Writing output data file ./calc.save/
  @ DRIVER MODE: Message from server: EXIT
  @ DRIVE MODE: Exiting

     General routines

     Parallel routines

   This run was terminated on:   3:34:52  24Sep2021

   JOB DONE.