     Program PWSCF v.6.7GPU starts on 16Sep2021 at  1:17:23

     R & G space division:  proc/nbgrp/npool/nimage =      10
     Reading input from /storage/home/hcoda1/3/ntian30/research/carbon/CxH_vib/H2O_calc/ads_slab/CHNHH2O_a/out_0029/pw.inp
Warning: card &CELL ignored
Warning: card   CELL_DYNAMICS='IPI', ignored
Warning: card / ignored

     Current dimensions of program PWSCF are:
     Max number of different atomic species (ntypx) = 10
     Max number of k-points (npk) =  40000
     Max angular momentum in pseudopotentials (lmaxx) =  3
     Presently no symmetry can be used with electric field

     Message from routine cell_base_init:
     DEPRECATED: use true lattice parameter, not A to a.u. conversion factor

     IMPORTANT: XC functional enforced from input :
     Exchange-correlation= BEEF-VDW
                           (   1   4  43  14   2   0   0)
     Any further DFT definition will be discarded
     Please, verify this is what you really want

  @ DRIVER MODE: Connecting to
 qe_1139763_2852628.sched-torque.pace.gatech.edusbs2_45r_scratch
  using UNIX socket
  @ DRIVER MODE: Message from server: STATUS
  @ DRIVER MODE: Message from server: INIT
  @ DRIVER MODE: Receiving replica           0          -1
  @ DRIVER MODE: Receiving encoded integer          25
  @ DRIVER MODE:  SCF:  T  FORCE:  T  STRESS:  F  VC:  F  ENSEMBLE:  F
  @ DRIVER MODE:  SCF:  T  FORCE:  T  STRESS:  F  VC:  F  ENSEMBLE:  F

     Using Slab Decomposition

     bravais-lattice index     =            0
     lattice parameter (alat)  =       1.8897  a.u.
     unit-cell volume          =    6658.9804 (a.u.)^3
     number of atoms/cell      =           54
     number of atomic types    =            5
     number of electrons       =       397.00
     number of Kohn-Sham states=          208
     kinetic-energy cutoff     =      29.3995  Ry
     charge density cutoff     =     293.9946  Ry
     scf convergence threshold =      7.3E-08
     mixing beta               =       0.0500
     number of iterations used =            8  plain     mixing
     Exchange-correlation= BEEF-VDW
                           (   1   4  43  14   2   0   0)

     celldm(1)=   1.889726  celldm(2)=   0.000000  celldm(3)=   0.000000
     celldm(4)=   0.000000  celldm(5)=   0.000000  celldm(6)=   0.000000

     crystal axes: (cart. coord. in units of alat)
               a(1) = (   6.579727   0.000000   0.000000 )
               a(2) = (  -0.000775   5.961596   0.000000 )
               a(3) = (   0.000000   0.000000  25.155947 )

     reciprocal axes: (cart. coord. in units 2 pi/alat)
               b(1) = (  0.151982  0.000020  0.000000 )
               b(2) = (  0.000000  0.167740  0.000000 )
               b(3) = (  0.000000  0.000000  0.039752 )

     PseudoPot. # 1 for Ti read from file:
     /storage/coda1/p-amedford6/0/shared/rich_project_chbe-medford/medford-share/data/pseudos_module/espresso/nninc/pbe/van/Ti.UPF
     MD5 check sum: 8e4df49b7f0d34bbd5052bf3f5ea0213
     Pseudo is Ultrasoft, Zval = 12.0
     Generated by new atomic code, or converted to UPF format
     Using radial grid of  851 points,  6 beta functions with:
                l(1) =   0
                l(2) =   0
                l(3) =   1
                l(4) =   1
                l(5) =   2
                l(6) =   2
     Q(r) pseudized with  8 coefficients,  rinner =    1.000   1.000   1.000
                                                       1.000   1.000

     PseudoPot. # 2 for O  read from file:
     /storage/coda1/p-amedford6/0/shared/rich_project_chbe-medford/medford-share/data/pseudos_module/espresso/nninc/pbe/van/O.UPF
     MD5 check sum: 78c19812648e8988a0fe644b0f25305e
     Pseudo is Ultrasoft, Zval =  6.0
     Generated by new atomic code, or converted to UPF format
     Using radial grid of  737 points,  4 beta functions with:
                l(1) =   0
                l(2) =   0
                l(3) =   1
                l(4) =   1
     Q(r) pseudized with  8 coefficients,  rinner =    0.800   0.800   0.800

     PseudoPot. # 3 for N  read from file:
     /storage/coda1/p-amedford6/0/shared/rich_project_chbe-medford/medford-share/data/pseudos_module/espresso/nninc/pbe/van/N.UPF
     MD5 check sum: 90d10febe142ad51ac9d5be1deb811c4
     Pseudo is Ultrasoft, Zval =  5.0
     Generated by new atomic code, or converted to UPF format
     Using radial grid of  729 points,  4 beta functions with:
                l(1) =   0
                l(2) =   0
                l(3) =   1
                l(4) =   1
     Q(r) pseudized with  8 coefficients,  rinner =    0.800   0.800   0.800

     PseudoPot. # 4 for C  read from file:
     /storage/coda1/p-amedford6/0/shared/rich_project_chbe-medford/medford-share/data/pseudos_module/espresso/nninc/pbe/van/C.UPF
     MD5 check sum: 1a69bf6b8db32088f5b2163dbdb77a27
     Pseudo is Ultrasoft, Zval =  4.0
     Generated by new atomic code, or converted to UPF format
     Using radial grid of  721 points,  4 beta functions with:
                l(1) =   0
                l(2) =   0
                l(3) =   1
                l(4) =   1
     Q(r) pseudized with  8 coefficients,  rinner =    0.800   0.800   0.800

     PseudoPot. # 5 for H  read from file:
     /storage/coda1/p-amedford6/0/shared/rich_project_chbe-medford/medford-share/data/pseudos_module/espresso/nninc/pbe/van/H.UPF
     MD5 check sum: b5ee9d7bfd3a09ee7748110bda690ff7
     Pseudo is Ultrasoft, Zval =  1.0
     Generated by new atomic code, or converted to UPF format
     Using radial grid of  615 points,  1 beta functions with:
                l(1) =   0
     Q(r) pseudized with  8 coefficients,  rinner =    0.800

     atomic species   valence    mass     pseudopotential
        Ti1           12.00    47.86700     Ti( 1.00)
        O1             6.00    15.99900     O ( 1.00)
        N1             5.00    14.00700     N ( 1.00)
        C1             4.00    12.01100     C ( 1.00)
        H1             1.00     1.00800     H ( 1.00)

     No symmetry found

   Cartesian axes

     site n.     atom                  positions (alat units)
         1           Ti1 tau(   1) = (   0.0004258   2.9801865   6.0000000  )
         2           Ti1 tau(   2) = (   3.2906075   1.4906267   6.0002472  )
         3           O1  tau(   3) = (   0.0006271   0.0005054   7.9858123  )
         4           O1  tau(   4) = (   3.2906025   0.0005020   7.3038282  )
         5           O1  tau(   5) = (   4.5942328   1.4918067   9.2879030  )
         6           O1  tau(   6) = (   1.9868534   1.4903216   9.2879459  )
         7           Ti1 tau(   7) = (   3.2907910   2.8959150   9.1758416  )
         8           Ti1 tau(   8) = (   0.0015273   1.4827037   9.2680791  )
         9           O1  tau(   9) = (   3.2914171   5.9475995  11.3455371  )
        10           O1  tau(  10) = (   0.0116148   5.9584955  10.6183126  )
        11           O1  tau(  11) = (   1.3057669   1.4807986  12.6390077  )
        12           O1  tau(  12) = (   5.3035249   1.4749620  12.6227664  )
        13           Ti1 tau(  13) = (   6.5294082   2.9362577  12.6231083  )
        14           Ti1 tau(  14) = (   3.2175537   1.4615748  12.5070279  )
        15           O1  tau(  15) = (   6.5585639   5.9474800  14.6380151  )
        16           O1  tau(  16) = (   3.3125803   5.9531145  13.9695519  )
        17           O1  tau(  17) = (   4.5393379   1.5011389  16.1071157  )
        18           O1  tau(  18) = (   2.0094023   1.5044898  16.0307267  )
        19           Ti1 tau(  19) = (   3.2760958   2.9523363  15.6877793  )
        20           Ti1 tau(  20) = (   0.0277933   1.3451898  16.0452527  )
        21           O1  tau(  21) = (   3.2904802   0.0005063   4.7018136  )
        22           O1  tau(  22) = (   0.0198929   5.9263875  17.1601691  )
        23           O1  tau(  23) = (   1.3043587   1.4918075   6.0039043  )
        24           O1  tau(  24) = (   5.2767064   1.4903225   6.0039473  )
        25           Ti1 tau(  25) = (   0.0000382   5.9609847   6.0000000  )
        26           Ti1 tau(  26) = (   3.2902200   4.4714249   6.0002472  )
        27           O1  tau(  27) = (   0.0002396   2.9813036   7.9858123  )
        28           O1  tau(  28) = (   3.2902150   2.9813002   7.3038282  )
        29           O1  tau(  29) = (   4.5938453   4.4726049   9.2879030  )
        30           O1  tau(  30) = (   1.9864658   4.4711199   9.2879459  )
        31           Ti1 tau(  31) = (   3.2891106   5.8743827   9.1763621  )
        32           Ti1 tau(  32) = (   0.0006254   4.4649316   9.2693709  )
        33           O1  tau(  33) = (   3.2862706   2.9662616  11.3468726  )
        34           O1  tau(  34) = (   0.0092240   2.9805883  10.6323155  )
        35           O1  tau(  35) = (   1.3102706   4.4726941  12.6361575  )
        36           O1  tau(  36) = (   5.3014905   4.4644878  12.6181669  )
        37           Ti1 tau(  37) = (   6.5311680   5.9227251  12.5202533  )
        38           Ti1 tau(  38) = (   3.2191334   4.4553394  12.5017427  )
        39           O1  tau(  39) = (   6.5614274   2.9920157  14.6796082  )
        40           O1  tau(  40) = (   3.3146075   2.9603188  13.8993185  )
        41           O1  tau(  41) = (   4.5484517   4.4144432  16.0509510  )
        42           O1  tau(  42) = (   2.0146171   4.4214036  15.9967612  )
        43           Ti1 tau(  43) = (   3.3303817   5.9274347  15.8100502  )
        44           Ti1 tau(  44) = (   0.0273359   4.4939047  15.8144843  )
        45           O1  tau(  45) = (   3.2900926   2.9813045   4.7018136  )
        46           O1  tau(  46) = (   1.3039711   4.4726057   6.0039043  )
        47           O1  tau(  47) = (   5.2763189   4.4711207   6.0039473  )
        48           N1  tau(  48) = (   6.5134970   2.9613368  17.6459670  )
        49           C1  tau(  49) = (   0.7931072   3.0267964  18.6255283  )
        50           H1  tau(  50) = (   1.8307262   2.9311331  18.2395185  )
        51           H1  tau(  51) = (   5.5494773   3.0666896  17.9713127  )
        52           O1  tau(  52) = (   3.1855344   5.8058271  18.1512476  )
        53           H1  tau(  53) = (   3.8461454   0.3022996  18.7034462  )
        54           H1  tau(  54) = (   2.3120581   0.0053998  18.5533318  )

     number of k points=    10  Fermi-Dirac smearing, width (Ry)=  0.0073
                       cart. coord. in units 2pi/alat
        k(    1) = (   0.0000000   0.0000000   0.0000000), wk =   0.1250000
        k(    2) = (   0.0000000   0.0419351   0.0000000), wk =   0.2500000
        k(    3) = (   0.0000000  -0.0838702   0.0000000), wk =   0.1250000
        k(    4) = (   0.0379955   0.0000049   0.0000000), wk =   0.2500000
        k(    5) = (   0.0379955   0.0419400   0.0000000), wk =   0.2500000
        k(    6) = (   0.0379955  -0.0838652   0.0000000), wk =   0.2500000
        k(    7) = (   0.0379955  -0.0419301   0.0000000), wk =   0.2500000
        k(    8) = (  -0.0759910  -0.0000099   0.0000000), wk =   0.1250000
        k(    9) = (  -0.0759910   0.0419252   0.0000000), wk =   0.2500000
        k(   10) = (  -0.0759910  -0.0838800   0.0000000), wk =   0.1250000

     Initial potential from superposition of free atoms

     starting charge  380.99916, renormalised to  397.00000

     negative rho (up, down):  1.755E-02 0.000E+00

     %%%%%%%%%%%%%%%%%%%%%%%%%%%%%%%%%%%%%%%%%%%%%%%%%%%%%%%%%%%%%%%%%%%%%%%%
     %                                                                      %
     % You are using vdW-DF, which was implemented by the Thonhauser group. %
     % Please cite the following two papers that made this development      %
     % possible and the two reviews that describe the various versions:     %
     %                                                                      %
     %   T. Thonhauser et al., PRL 115, 136402 (2015).                      %
     %   T. Thonhauser et al., PRB 76, 125112 (2007).                       %
     %   K. Berland et al., Rep. Prog. Phys. 78, 066501 (2015).             %
     %   D.C. Langreth et al., J. Phys.: Condens. Matter 21, 084203 (2009). %
     %                                                                      %
     %                                                                      %
     % If you are calculating the stress with vdW-DF, please also cite:     %
     %                                                                      %
     %   R. Sabatini et al., J. Phys.: Condens. Matter 24, 424209 (2012).   %
     %                                                                      %
     %%%%%%%%%%%%%%%%%%%%%%%%%%%%%%%%%%%%%%%%%%%%%%%%%%%%%%%%%%%%%%%%%%%%%%%%

     Adding external electric field

     Computed dipole along edir(3) :
        Dipole               -9.1619 Ry au,        -23.2872 Debye
        Dipole field         -0.0173 Ry au,

        Potential amp.        1.6027 Ry
        Total length         46.3494 bohr

     Starting wfcs are  300 atomic wfcs
  @ DRIVER MODE: Message from server: STATUS
  @ DRIVER MODE: Message from server: POSDATA
  @ DRIVER MODE: Reading and sharing cell
  @ DRIVER MODE: Reading and sharing positions
  @ DRIVER MODE: Received positions

     Self-consistent Calculation

     iteration #  1     ecut=    29.40 Ry     beta= 0.05
     Davidson diagonalization with overlap
     c_bands:  1 eigenvalues not converged
     c_bands:  1 eigenvalues not converged
     c_bands:  1 eigenvalues not converged
     c_bands:  1 eigenvalues not converged
     c_bands:  1 eigenvalues not converged
     c_bands:  1 eigenvalues not converged
     c_bands:  1 eigenvalues not converged
     c_bands:  1 eigenvalues not converged
     ethr =  1.00E-05,  avg # of iterations = 19.7

[...]

     total energy              =   -2547.29363665 Ry
     estimated scf accuracy    <    4504.68941787 Ry

     iteration #  2     ecut=    29.40 Ry     beta= 0.05
     Davidson diagonalization with overlap
     ethr =  1.00E-02,  avg # of iterations = 25.2

[...]

     iteration # 82     ecut=    29.40 Ry     beta= 0.05
     Davidson diagonalization with overlap
     c_bands:  1 eigenvalues not converged
     ethr =  4.05E-11,  avg # of iterations = 11.5

[...]

     total energy              =   -2952.61560089 Ry
     estimated scf accuracy    <       0.00000020 Ry

     iteration # 85     ecut=    29.40 Ry     beta= 0.05
     Davidson diagonalization with overlap
     ethr =  2.49E-11,  avg # of iterations =  6.1

     negative rho (up, down):  1.616E-02 0.000E+00

     Adding external electric field

     Computed dipole along edir(3) :
        Dipole                0.4123 Ry au,          1.0479 Debye
        Dipole field          0.0008 Ry au,

        Potential amp.       -0.0721 Ry
        Total length         46.3494 bohr

     End of self-consistent calculation

          k = 0.0000 0.0000 0.0000 ( 18029 PWs)   bands (ev):

   -56.0206 -55.9960 -55.9884 -55.9865 -55.9598 -55.8664 -55.8338 -55.8250
   -55.8213 -55.8081 -55.7996 -55.7746 -55.7450 -55.5756 -55.0060 -54.9720
   -32.5419 -32.5044 -32.3972 -32.3658 -32.3328 -32.3127 -32.3033 -32.2981
   -32.2639 -32.2327 -32.2214 -32.2145 -32.2056 -32.1927 -32.1751 -32.1730
   -32.1484 -32.1262 -32.1249 -32.1218 -32.0891 -32.0778 -32.0690 -32.0366
   -32.0259 -32.0244 -32.0204 -32.0164 -32.0135 -32.0080 -31.9930 -31.9826
   -31.9803 -31.9789 -31.9668 -31.9608 -31.9571 -31.9385 -31.9192 -31.8363
   -31.8194 -31.7326 -31.4135 -31.3242 -31.3018 -31.2301 -31.1436 -31.0326
   -19.2059 -16.7529 -16.5127 -16.3375 -16.1977 -16.1670 -15.9501 -15.8484
   -15.7777 -15.7234 -15.6542 -15.6022 -15.5686 -15.5594 -15.5426 -15.5187
   -15.4991 -15.4765 -15.4534 -15.4414 -15.4351 -15.3933 -15.3856 -15.3696
   -15.3510 -15.2441 -15.1809 -15.1566 -15.1115 -15.0882 -14.7353 -13.5084
   -13.3918  -7.8660  -7.0149  -4.1604  -4.0578  -3.9836  -3.9574  -3.9284
    -3.7890  -3.6915  -3.5428  -3.5170  -3.3046  -3.2726  -3.2170  -3.1921
    -3.1302  -3.0685  -2.9734  -2.9295  -2.8532  -2.8368  -2.8242  -2.8019
    -2.7812  -2.7646  -2.7250  -2.6607  -2.5907  -2.5562  -2.4434  -2.4176
    -2.4107  -2.3434  -2.3361  -2.3243  -2.3106  -2.2796  -2.2577  -2.2547
    -2.1832  -2.1514  -2.0806  -2.0289  -1.9682  -1.8505  -1.6980  -1.6362
    -1.5853  -1.5263  -1.5004  -1.4647  -1.4429  -1.4182  -1.3602  -1.3010
    -1.2364  -1.2246  -1.1538  -1.0616  -0.9901  -0.9540  -0.8822  -0.8200
    -0.7985  -0.7704  -0.7621  -0.7531  -0.7051  -0.5319  -0.4759  -0.4621
    -0.4216  -0.3396  -0.3077  -0.2994  -0.2505  -0.2420  -0.2020  -0.1135
    -0.0945  -0.0594  -0.0416  -0.0280   0.0049   0.0242   0.1794   0.2000
     0.2425   0.2640   0.3668   0.4727   0.5396   0.6270   0.7217   0.9402
     1.0162   1.0935   1.2072   1.5883   1.6344   2.7821   3.1077   3.1963
     3.2345   3.2406   3.2748   3.3452   3.5617   3.5929   3.6103   3.6674

[...]

          k = 0.0380-0.0419 0.0000 ( 17876 PWs)   bands (ev):

[...]

          k =-0.0760-0.0000 0.0000 ( 17886 PWs)   bands (ev):

[...]

          k =-0.0760-0.0839 0.0000 ( 17948 PWs)   bands (ev):

   -56.0043 -56.0026 -55.9870 -55.9798 -55.9754 -55.8571 -55.8344 -55.8229
   -55.8173 -55.8154 -55.7920 -55.7910 -55.7434 -55.5771 -54.9891 -54.9888
   -32.3557 -32.3398 -32.3202 -32.3191 -32.2988 -32.2974 -32.2761 -32.2679
   -32.2489 -32.2163 -32.2014 -32.1965 -32.1922 -32.1709 -32.1433 -32.1383
   -32.1334 -32.1314 -32.1297 -32.1282 -32.1274 -32.1245 -32.1237 -32.1221
   -32.0752 -32.0562 -32.0474 -32.0357 -32.0237 -32.0214 -32.0201 -32.0183
   -32.0176 -32.0070 -32.0052 -31.9950 -31.9886 -31.9744 -31.9688 -31.8401
   -31.8245 -31.8195 -31.3146 -31.3144 -31.2263 -31.2261 -31.1869 -31.1868
   -19.2049 -16.2117 -16.0921 -16.0378 -15.9447 -15.9192 -15.9047 -15.8302
   -15.7782 -15.7250 -15.7153 -15.6913 -15.6770 -15.6695 -15.6105 -15.5824
   -15.5583 -15.5473 -15.5038 -15.4907 -15.4829 -15.4693 -15.4673 -15.4611
   -15.4175 -15.3864 -15.3491 -15.3451 -15.2059 -15.0971 -15.0075 -13.4937
   -13.4934  -7.8755  -7.0161  -3.9608  -3.6468  -3.4899  -3.3131  -3.2639
    -3.1633  -3.1525  -3.1203  -3.1002  -2.9909  -2.9313  -2.9186  -2.8968
    -2.8560  -2.8463  -2.8396  -2.8347  -2.8002  -2.7985  -2.7619  -2.7430
    -2.7119  -2.6980  -2.6923  -2.6855  -2.6617  -2.6420  -2.6028  -2.5875
    -2.5714  -2.5415  -2.5047  -2.3704  -2.3013  -2.2237  -2.2164  -2.1761
    -2.1635  -2.1439  -2.1006  -2.0829  -2.0556  -1.9747  -1.8987  -1.7446
    -1.7264  -1.7029  -1.6719  -1.6112  -1.5190  -1.4957  -1.4662  -1.4196
    -1.4039  -1.3454  -1.3253  -1.2929  -1.2378  -1.1752  -1.1376  -1.1102
    -1.0650  -1.0010  -0.9797  -0.9595  -0.9452  -0.8834  -0.7758  -0.7691
    -0.7634  -0.7137  -0.6984  -0.6687  -0.6467  -0.5560  -0.4761  -0.4164
    -0.3198  -0.1556  -0.0758   0.0223   0.0594   0.1040   0.1486   0.1906
     0.2873   0.2894   0.3624   0.3929   0.4099   0.4918   0.5028   0.5260
     0.6864   1.3788   1.3800   1.4539   1.4545   2.8171   3.3657   3.4116
     3.4459   3.4923   3.5951   3.6152   3.6438   3.6456   3.7247   3.7724

     the Fermi energy is     3.1108 ev

!    total energy              =   -2952.61560595 Ry
     estimated scf accuracy    <       0.00000005 Ry
     smearing contrib. (-TS)   =      -0.02579166 Ry
     internal energy E=F+TS    =   -2952.58981429 Ry

     The total energy is F=E-TS. E is the sum of the following terms:
     one-electron contribution =  -24512.65867153 Ry
     hartree contribution      =   12343.55573801 Ry
     xc contribution           =    -487.95540574 Ry
     ewald contribution        =    9704.46820420 Ry
     electric field correction =       0.00032077 Ry

     convergence has been achieved in  85 iterations

     Forces acting on atoms (cartesian axes, Ry/au):

     atom    1 type  1   force =    -0.00003263   -0.00029757    0.09592376
     atom    2 type  1   force =     0.00005260   -0.00049177   -0.17608403
     atom    3 type  2   force =     0.00010333   -0.00009828   -0.02431886
     atom    4 type  2   force =     0.00000952   -0.00163279    0.05390223
     atom    5 type  2   force =    -0.01178270   -0.00141345    0.00393151
     atom    6 type  2   force =     0.01321281   -0.00102202    0.00317237
     atom    7 type  1   force =     0.00034935    0.00067785   -0.00766180
     atom    8 type  1   force =     0.00026492    0.01496524    0.02332270
     atom    9 type  2   force =    -0.00004881    0.00018598    0.00010469
     atom   10 type  2   force =    -0.00219182    0.00049842   -0.01741883
     atom   11 type  2   force =     0.00045521   -0.00026363   -0.00021511
     atom   12 type  2   force =    -0.00082669   -0.00017315    0.00000192
     atom   13 type  1   force =     0.00045982    0.00044311    0.00006432
     atom   14 type  1   force =    -0.00018893   -0.00001917    0.00093281
     atom   15 type  2   force =    -0.00013390   -0.00003269   -0.00073013
     atom   16 type  2   force =    -0.00000568    0.00052497   -0.00053941
     atom   17 type  2   force =    -0.00038569    0.00038831   -0.00004480
     atom   18 type  2   force =     0.00012826    0.00033258   -0.00039248
     atom   19 type  1   force =     0.00068447    0.00054943   -0.00043811
     atom   20 type  1   force =    -0.00051976    0.00037649   -0.00008677
     atom   21 type  2   force =     0.00006474   -0.00000288    0.10333589
     atom   22 type  2   force =    -0.00028902   -0.00021140    0.00068148
     atom   23 type  2   force =    -0.07134724   -0.00010730   -0.02761636
     atom   24 type  2   force =     0.07126688    0.00034141   -0.02768699
     atom   25 type  1   force =     0.00023883   -0.00029542    0.09574618
     atom   26 type  1   force =     0.00012009   -0.00028740   -0.17601554
     atom   27 type  2   force =     0.00014026   -0.00028739   -0.02321265
     atom   28 type  2   force =     0.00000334   -0.00132555    0.05366272
     atom   29 type  2   force =    -0.01212619    0.00039641    0.00377569
     atom   30 type  2   force =     0.01351542    0.00101080    0.00302014
     atom   31 type  1   force =     0.00024633    0.00375078   -0.01144550
     atom   32 type  1   force =     0.00044603   -0.01662202    0.02313679
     atom   33 type  2   force =     0.00018189    0.00010366   -0.00032918
     atom   34 type  2   force =    -0.00191441   -0.00010117   -0.02069872
     atom   35 type  2   force =     0.00044904    0.00005943    0.00007253
     atom   36 type  2   force =    -0.00087368   -0.00000477    0.00033038
     atom   37 type  1   force =     0.00080539    0.00004382   -0.00029165
     atom   38 type  1   force =     0.00000018    0.00018184    0.00043887
     atom   39 type  2   force =    -0.00025776    0.00044555   -0.00055060
     atom   40 type  2   force =    -0.00038900   -0.00007541   -0.00023327
     atom   41 type  2   force =    -0.00047788    0.00020717    0.00011770
     atom   42 type  2   force =    -0.00005727    0.00009458   -0.00002295
     atom   43 type  1   force =     0.00038207    0.00001245    0.00012710
     atom   44 type  1   force =    -0.00005926   -0.00030378    0.00037077
     atom   45 type  2   force =     0.00006882    0.00000002    0.10330250
     atom   46 type  2   force =    -0.07133419   -0.00004775   -0.02759922
     atom   47 type  2   force =     0.07125589    0.00038385   -0.02767023
     atom   48 type  3   force =     0.00127528    0.00100209    0.00029267
     atom   49 type  4   force =    -0.00023763   -0.00017172   -0.00033274
     atom   50 type  5   force =    -0.00002549   -0.00062073    0.00009225
     atom   51 type  5   force =     0.00020422   -0.00059406    0.00009420
     atom   52 type  2   force =    -0.00010916    0.00691347    0.01390854
     atom   53 type  5   force =    -0.00629597   -0.00545041   -0.00724521
     atom   54 type  5   force =     0.00552577   -0.00193603   -0.00498156

     Total force =     0.368341     Total SCF correction =     0.000536
  @ DRIVER MODE: Message from server: STATUS
  @ DRIVER MODE: Message from server: GETFORCE
  @ DRIVER MODE: Returning v,forces,stress,ensemble

     Writing output data file ./calc.save/
  @ DRIVER MODE: Message from server: EXIT
  @ DRIVE MODE: Exiting

     General routines

     Parallel routines

   This run was terminated on:   1:38:53  16Sep2021

   JOB DONE.