     Program PWSCF v.6.7GPU starts on 15Sep2021 at 20:41:21

     R & G space division:  proc/nbgrp/npool/nimage =      10
     Reading input from /storage/home/hcoda1/3/ntian30/research/carbon/CxH_vib/H2O_calc/ads_slab/CH3N2HH2O_a/out_0016/pw.inp
Warning: card &CELL ignored
Warning: card   CELL_DYNAMICS='IPI', ignored
Warning: card / ignored

     Current dimensions of program PWSCF are:
     Max number of different atomic species (ntypx) = 10
     Max number of k-points (npk) =  40000
     Max angular momentum in pseudopotentials (lmaxx) =  3
     Presently no symmetry can be used with electric field

     Message from routine cell_base_init:
     DEPRECATED: use true lattice parameter, not A to a.u. conversion factor

     IMPORTANT: XC functional enforced from input :
     Exchange-correlation= BEEF-VDW
                           (   1   4  43  14   2   0   0)
     Any further DFT definition will be discarded
     Please, verify this is what you really want

  @ DRIVER MODE: Connecting to
 qe_1139763_2852617.sched-torque.pace.gatech.edusld8bd_q_scratch
  using UNIX socket
  @ DRIVER MODE: Message from server: STATUS
  @ DRIVER MODE: Message from server: INIT
  @ DRIVER MODE: Receiving replica           0          -1
  @ DRIVER MODE: Receiving encoded integer          25
  @ DRIVER MODE:  SCF:  T  FORCE:  T  STRESS:  F  VC:  F  ENSEMBLE:  F
  @ DRIVER MODE:  SCF:  T  FORCE:  T  STRESS:  F  VC:  F  ENSEMBLE:  F

     Using Slab Decomposition

     bravais-lattice index     =            0
     lattice parameter (alat)  =       1.8897  a.u.
     unit-cell volume          =    6658.9804 (a.u.)^3
     number of atoms/cell      =           57
     number of atomic types    =            5
     number of electrons       =       404.00
     number of Kohn-Sham states=          212
     kinetic-energy cutoff     =      29.3995  Ry
     charge density cutoff     =     293.9946  Ry
     scf convergence threshold =      7.3E-08
     mixing beta               =       0.0500
     number of iterations used =            8  plain     mixing
     Exchange-correlation= BEEF-VDW
                           (   1   4  43  14   2   0   0)

     celldm(1)=   1.889726  celldm(2)=   0.000000  celldm(3)=   0.000000
     celldm(4)=   0.000000  celldm(5)=   0.000000  celldm(6)=   0.000000

     crystal axes: (cart. coord. in units of alat)
               a(1) = (   6.579727   0.000000   0.000000 )
               a(2) = (  -0.000775   5.961596   0.000000 )
               a(3) = (   0.000000   0.000000  25.155947 )

     reciprocal axes: (cart. coord. in units 2 pi/alat)
               b(1) = (  0.151982  0.000020  0.000000 )
               b(2) = (  0.000000  0.167740  0.000000 )
               b(3) = (  0.000000  0.000000  0.039752 )

     PseudoPot. # 1 for Ti read from file:
     /storage/coda1/p-amedford6/0/shared/rich_project_chbe-medford/medford-share/data/pseudos_module/espresso/nninc/pbe/van/Ti.UPF
     MD5 check sum: 8e4df49b7f0d34bbd5052bf3f5ea0213
     Pseudo is Ultrasoft, Zval = 12.0
     Generated by new atomic code, or converted to UPF format
     Using radial grid of  851 points,  6 beta functions with:
                l(1) =   0
                l(2) =   0
                l(3) =   1
                l(4) =   1
                l(5) =   2
                l(6) =   2
     Q(r) pseudized with  8 coefficients,  rinner =    1.000   1.000   1.000
                                                       1.000   1.000

     PseudoPot. # 2 for O  read from file:
     /storage/coda1/p-amedford6/0/shared/rich_project_chbe-medford/medford-share/data/pseudos_module/espresso/nninc/pbe/van/O.UPF
     MD5 check sum: 78c19812648e8988a0fe644b0f25305e
     Pseudo is Ultrasoft, Zval =  6.0
     Generated by new atomic code, or converted to UPF format
     Using radial grid of  737 points,  4 beta functions with:
                l(1) =   0
                l(2) =   0
                l(3) =   1
                l(4) =   1
     Q(r) pseudized with  8 coefficients,  rinner =    0.800   0.800   0.800

     PseudoPot. # 3 for N  read from file:
     /storage/coda1/p-amedford6/0/shared/rich_project_chbe-medford/medford-share/data/pseudos_module/espresso/nninc/pbe/van/N.UPF
     MD5 check sum: 90d10febe142ad51ac9d5be1deb811c4
     Pseudo is Ultrasoft, Zval =  5.0
     Generated by new atomic code, or converted to UPF format
     Using radial grid of  729 points,  4 beta functions with:
                l(1) =   0
                l(2) =   0
                l(3) =   1
                l(4) =   1
     Q(r) pseudized with  8 coefficients,  rinner =    0.800   0.800   0.800

     PseudoPot. # 4 for C  read from file:
     /storage/coda1/p-amedford6/0/shared/rich_project_chbe-medford/medford-share/data/pseudos_module/espresso/nninc/pbe/van/C.UPF
     MD5 check sum: 1a69bf6b8db32088f5b2163dbdb77a27
     Pseudo is Ultrasoft, Zval =  4.0
     Generated by new atomic code, or converted to UPF format
     Using radial grid of  721 points,  4 beta functions with:
                l(1) =   0
                l(2) =   0
                l(3) =   1
                l(4) =   1
     Q(r) pseudized with  8 coefficients,  rinner =    0.800   0.800   0.800

     PseudoPot. # 5 for H  read from file:
     /storage/coda1/p-amedford6/0/shared/rich_project_chbe-medford/medford-share/data/pseudos_module/espresso/nninc/pbe/van/H.UPF
     MD5 check sum: b5ee9d7bfd3a09ee7748110bda690ff7
     Pseudo is Ultrasoft, Zval =  1.0
     Generated by new atomic code, or converted to UPF format
     Using radial grid of  615 points,  1 beta functions with:
                l(1) =   0
     Q(r) pseudized with  8 coefficients,  rinner =    0.800

     atomic species   valence    mass     pseudopotential
        Ti1           12.00    47.86700     Ti( 1.00)
        O1             6.00    15.99900     O ( 1.00)
        N1             5.00    14.00700     N ( 1.00)
        C1             4.00    12.01100     C ( 1.00)
        H1             1.00     1.00800     H ( 1.00)

     No symmetry found

   Cartesian axes

     site n.     atom                  positions (alat units)
         1           Ti1 tau(   1) = (   0.0004258   2.9801865   6.0000000  )
         2           Ti1 tau(   2) = (   3.2906075   1.4906267   6.0002472  )
         3           O1  tau(   3) = (   0.0006271   0.0005054   7.9858123  )
         4           O1  tau(   4) = (   3.2906025   0.0005020   7.3038282  )
         5           O1  tau(   5) = (   4.5942328   1.4918067   9.2879030  )
         6           O1  tau(   6) = (   1.9868534   1.4903216   9.2879459  )
         7           Ti1 tau(   7) = (   3.2907910   2.8959150   9.1758416  )
         8           Ti1 tau(   8) = (   0.0015273   1.4827037   9.2680791  )
         9           O1  tau(   9) = (   3.2846840   0.0164488  11.3171736  )
        10           O1  tau(  10) = (   0.0116148   5.9584955  10.6183126  )
        11           O1  tau(  11) = (   1.2780696   1.4966870  12.6228330  )
        12           O1  tau(  12) = (   5.2671132   1.5021727  12.6038655  )
        13           Ti1 tau(  13) = (   0.0814623   2.9703834  12.6092300  )
        14           Ti1 tau(  14) = (   3.3984034   1.5042134  12.4754612  )
        15           O1  tau(  15) = (   6.5611900   5.9602394  14.6246442  )
        16           O1  tau(  16) = (   3.2847170   0.0117735  13.9091713  )
        17           O1  tau(  17) = (   4.5127615   1.5439160  15.9886145  )
        18           O1  tau(  18) = (   2.0245574   1.5486524  15.9865356  )
        19           Ti1 tau(  19) = (   3.2678410   3.0292036  15.6627315  )
        20           Ti1 tau(  20) = (   6.5437773   1.5790868  15.8036792  )
        21           O1  tau(  21) = (   3.2904802   0.0005063   4.7018136  )
        22           O1  tau(  22) = (   6.5616667   0.0409992  17.2467836  )
        23           O1  tau(  23) = (   1.3043587   1.4918075   6.0039043  )
        24           O1  tau(  24) = (   5.2767064   1.4903225   6.0039473  )
        25           Ti1 tau(  25) = (   0.0000382   5.9609847   6.0000000  )
        26           Ti1 tau(  26) = (   3.2902200   4.4714249   6.0002472  )
        27           O1  tau(  27) = (   0.0002396   2.9813036   7.9858123  )
        28           O1  tau(  28) = (   3.2902150   2.9813002   7.3038282  )
        29           O1  tau(  29) = (   4.5938453   4.4726049   9.2879030  )
        30           O1  tau(  30) = (   1.9864658   4.4711199   9.2879459  )
        31           Ti1 tau(  31) = (   3.2891106   5.8743827   9.1763621  )
        32           Ti1 tau(  32) = (   0.0006254   4.4649316   9.2693709  )
        33           O1  tau(  33) = (   3.2886753   2.9955121  11.3174028  )
        34           O1  tau(  34) = (   0.0092240   2.9805883  10.6323155  )
        35           O1  tau(  35) = (   1.2771457   4.4765085  12.6200386  )
        36           O1  tau(  36) = (   5.2716127   4.4859779  12.5990880  )
        37           Ti1 tau(  37) = (   0.0719143   5.9417653  12.6408960  )
        38           Ti1 tau(  38) = (   3.4009286   4.4967646  12.4819834  )
        39           O1  tau(  39) = (   6.5633752   2.9851081  14.6229342  )
        40           O1  tau(  40) = (   3.2806164   3.0132077  13.8636590  )
        41           O1  tau(  41) = (   4.5054435   4.4842064  16.0752605  )
        42           O1  tau(  42) = (   2.0287922   4.4846499  16.0567397  )
        43           Ti1 tau(  43) = (   3.2585180   0.0608266  15.7494983  )
        44           Ti1 tau(  44) = (   6.5556145   4.6328118  16.1363011  )
        45           O1  tau(  45) = (   3.2900926   2.9813045   4.7018136  )
        46           O1  tau(  46) = (   1.3039711   4.4726057   6.0039043  )
        47           O1  tau(  47) = (   5.2763189   4.4711207   6.0039473  )
        48           N1  tau(  48) = (   6.4582227   2.6263240  18.5734135  )
        49           N1  tau(  49) = (   6.5493832   2.9496485  17.3103279  )
        50           C1  tau(  50) = (   0.1600853   3.5696473  19.6455425  )
        51           H1  tau(  51) = (   6.1911903   4.4878083  19.4849519  )
        52           H1  tau(  52) = (   6.4401482   3.1080517  20.5902855  )
        53           H1  tau(  53) = (   1.2308410   3.8049764  19.6956042  )
        54           H1  tau(  54) = (   6.5044843   1.6253530  18.7706356  )
        55           O1  tau(  55) = (   3.2415852   0.0755412  18.2049893  )
        56           H1  tau(  56) = (   4.0109045   5.4607113  18.3409029  )
        57           H1  tau(  57) = (   2.4534619   5.4803556  18.3240773  )

     number of k points=    10  Fermi-Dirac smearing, width (Ry)=  0.0073
                       cart. coord. in units 2pi/alat
        k(    1) = (   0.0000000   0.0000000   0.0000000), wk =   0.1250000
        k(    2) = (   0.0000000   0.0419351   0.0000000), wk =   0.2500000
        k(    3) = (   0.0000000  -0.0838702   0.0000000), wk =   0.1250000
        k(    4) = (   0.0379955   0.0000049   0.0000000), wk =   0.2500000
        k(    5) = (   0.0379955   0.0419400   0.0000000), wk =   0.2500000
        k(    6) = (   0.0379955  -0.0838652   0.0000000), wk =   0.2500000
        k(    7) = (   0.0379955  -0.0419301   0.0000000), wk =   0.2500000
        k(    8) = (  -0.0759910  -0.0000099   0.0000000), wk =   0.1250000
        k(    9) = (  -0.0759910   0.0419252   0.0000000), wk =   0.2500000
        k(   10) = (  -0.0759910  -0.0838800   0.0000000), wk =   0.1250000

     Initial potential from superposition of free atoms

     starting charge  387.99913, renormalised to  404.00000

     negative rho (up, down):  1.445E-02 0.000E+00

     %%%%%%%%%%%%%%%%%%%%%%%%%%%%%%%%%%%%%%%%%%%%%%%%%%%%%%%%%%%%%%%%%%%%%%%%
     %                                                                      %
     % You are using vdW-DF, which was implemented by the Thonhauser group. %
     % Please cite the following two papers that made this development      %
     % possible and the two reviews that describe the various versions:     %
     %                                                                      %
     %   T. Thonhauser et al., PRL 115, 136402 (2015).                      %
     %   T. Thonhauser et al., PRB 76, 125112 (2007).                       %
     %   K. Berland et al., Rep. Prog. Phys. 78, 066501 (2015).             %
     %   D.C. Langreth et al., J. Phys.: Condens. Matter 21, 084203 (2009). %
     %                                                                      %
     %                                                                      %
     % If you are calculating the stress with vdW-DF, please also cite:     %
     %                                                                      %
     %   R. Sabatini et al., J. Phys.: Condens. Matter 24, 424209 (2012).   %
     %                                                                      %
     %%%%%%%%%%%%%%%%%%%%%%%%%%%%%%%%%%%%%%%%%%%%%%%%%%%%%%%%%%%%%%%%%%%%%%%%

     Adding external electric field

     Computed dipole along edir(3) :
        Dipole              -13.5668 Ry au,        -34.4835 Debye
        Dipole field         -0.0256 Ry au,

        Potential amp.        2.3733 Ry
        Total length         46.3494 bohr

     Starting wfcs are  306 atomic wfcs
  @ DRIVER MODE: Message from server: STATUS
  @ DRIVER MODE: Message from server: POSDATA
  @ DRIVER MODE: Reading and sharing cell
  @ DRIVER MODE: Reading and sharing positions
  @ DRIVER MODE: Received positions

     Self-consistent Calculation

     iteration #  1     ecut=    29.40 Ry     beta= 0.05
     Davidson diagonalization with overlap
     c_bands:  4 eigenvalues not converged
     c_bands:  4 eigenvalues not converged
     c_bands:  4 eigenvalues not converged
     c_bands:  4 eigenvalues not converged
     c_bands:  3 eigenvalues not converged
     c_bands:  3 eigenvalues not converged
     ethr =  1.00E-05,  avg # of iterations = 25.3

[...]

     total energy              =   -2338.83507501 Ry
     estimated scf accuracy    <    7253.88502308 Ry

     iteration #  2     ecut=    29.40 Ry     beta= 0.05
     Davidson diagonalization with overlap
     ethr =  1.00E-02,  avg # of iterations = 23.1

[...]

     iteration # 47     ecut=    29.40 Ry     beta= 0.05
     Davidson diagonalization with overlap
     c_bands:  1 eigenvalues not converged
     ethr =  1.56E-07,  avg # of iterations =  7.0

[...]

     total energy              =   -2975.23029038 Ry
     estimated scf accuracy    <       0.00000008 Ry

     iteration # 65     ecut=    29.40 Ry     beta= 0.05
     Davidson diagonalization with overlap
     ethr =  1.93E-11,  avg # of iterations =  7.4

     negative rho (up, down):  1.506E-02 0.000E+00

     Adding external electric field

     Computed dipole along edir(3) :
        Dipole                1.1638 Ry au,          2.9582 Debye
        Dipole field          0.0022 Ry au,

        Potential amp.       -0.2036 Ry
        Total length         46.3494 bohr

     End of self-consistent calculation

          k = 0.0000 0.0000 0.0000 ( 18029 PWs)   bands (ev):

   -55.5027 -55.4687 -55.3304 -55.2939 -55.2599 -55.2262 -55.2000 -55.1971
   -55.1850 -55.1624 -55.1507 -55.0126 -54.5506 -54.4333 -54.3993 -54.3877
   -31.9757 -31.8657 -31.7970 -31.7820 -31.7188 -31.7101 -31.6741 -31.6559
   -31.6194 -31.6028 -31.5981 -31.5716 -31.5615 -31.5174 -31.5096 -31.4986
   -31.4798 -31.4782 -31.4534 -31.4358 -31.4237 -31.4146 -31.4113 -31.3942
   -31.3900 -31.3822 -31.3726 -31.3654 -31.3634 -31.3612 -31.3389 -31.3277
   -31.3152 -31.2975 -31.2048 -31.1777 -31.0449 -30.8383 -30.7750 -30.7606
   -30.7552 -30.7324 -30.7229 -30.6554 -30.5980 -30.5692 -30.5670 -30.4580
   -18.7923 -17.7315 -16.0716 -15.8795 -15.6072 -15.4846 -15.4568 -15.2730
   -15.1965 -15.1449 -15.0125 -14.9659 -14.9362 -14.9063 -14.8935 -14.8364
   -14.8093 -14.7822 -14.7537 -14.7481 -14.7285 -14.7069 -14.6665 -14.6075
   -14.5828 -14.5214 -14.4712 -14.4495 -14.3574 -14.3517 -13.9283 -12.9347
   -12.8192 -11.8820  -8.8177  -6.5623  -5.5811  -4.3142  -4.1088  -3.4564
    -3.3805  -3.3217  -3.2060  -3.1366  -2.9877  -2.9509  -2.8934  -2.7769
    -2.6027  -2.5447  -2.5193  -2.4899  -2.4057  -2.2718  -2.2602  -2.2126
    -2.1846  -2.1640  -2.1503  -2.1335  -2.0388  -1.9996  -1.9623  -1.8568
    -1.8169  -1.7928  -1.7763  -1.7680  -1.7514  -1.6866  -1.6554  -1.6367
    -1.6260  -1.5889  -1.5551  -1.5447  -1.4158  -1.3963  -1.2796  -1.1564
    -1.1293  -1.0700  -1.0444  -0.8853  -0.8803  -0.8586  -0.8169  -0.8094
    -0.7378  -0.6647  -0.6236  -0.5479  -0.4297  -0.4201  -0.3860  -0.2394
    -0.2358  -0.2126  -0.1744  -0.1632  -0.1124  -0.1046  -0.0573   0.0029
     0.0987   0.1676   0.2744   0.2777   0.3304   0.3701   0.3825   0.4401
     0.4572   0.5066   0.5187   0.5263   0.5783   0.6130   0.6257   0.6830
     0.7345   0.8516   0.9212   0.9458   0.9926   1.1148   1.1902   1.2372
     1.2427   1.4108   1.5341   1.5632   1.5892   1.7893   1.8206   2.1559
     2.1998   3.6711   3.6881   3.7778   3.8367   3.9508   4.0222   4.1108
     4.1895   4.2598   4.3523   4.3872

[...]

          k = 0.0380-0.0419 0.0000 ( 17876 PWs)   bands (ev):

[...]

          k =-0.0760-0.0000 0.0000 ( 17886 PWs)   bands (ev):

[...]

          k =-0.0760-0.0839 0.0000 ( 17948 PWs)   bands (ev):

   -55.4857 -55.4855 -55.3158 -55.3083 -55.2430 -55.2428 -55.1954 -55.1885
   -55.1739 -55.1711 -55.1646 -55.0142 -54.5490 -54.4163 -54.4162 -54.3892
   -31.7912 -31.7912 -31.7822 -31.7822 -31.6788 -31.6616 -31.6067 -31.6062
   -31.5680 -31.5635 -31.5600 -31.5550 -31.5524 -31.5469 -31.5142 -31.5091
   -31.4876 -31.4791 -31.4761 -31.4693 -31.4362 -31.4340 -31.4259 -31.4233
   -31.4127 -31.4110 -31.3993 -31.3970 -31.3927 -31.3866 -31.3865 -31.3807
   -31.3536 -31.3294 -31.3146 -31.2125 -30.9542 -30.7994 -30.7637 -30.7452
   -30.7451 -30.7435 -30.6514 -30.6512 -30.6169 -30.6123 -30.6123 -30.5980
   -18.7913 -17.7255 -15.4951 -15.4288 -15.3579 -15.3540 -15.2493 -15.1964
   -15.1015 -15.0909 -15.0838 -15.0807 -14.9800 -14.9766 -14.9112 -14.9022
   -14.8630 -14.8559 -14.8521 -14.8355 -14.8211 -14.8156 -14.8011 -14.7549
   -14.7365 -14.7307 -14.5674 -14.5424 -14.4269 -14.4086 -14.0528 -12.9213
   -12.9212 -11.8831  -8.8283  -6.5461  -5.5731  -4.2628  -4.1296  -2.9523
    -2.9174  -2.7864  -2.6598  -2.5263  -2.5138  -2.4932  -2.4567  -2.2904
    -2.2776  -2.2620  -2.2524  -2.2113  -2.1998  -2.1809  -2.1667  -2.1130
    -2.0960  -2.0765  -2.0727  -2.0617  -2.0578  -2.0452  -2.0363  -2.0276
    -2.0039  -1.9575  -1.9355  -1.8552  -1.7691  -1.7593  -1.6822  -1.5524
    -1.5454  -1.5335  -1.5320  -1.5201  -1.5104  -1.4689  -1.4352  -1.3785
    -1.2745  -1.1519  -1.0998  -1.0816  -1.0292  -1.0085  -0.9192  -0.8390
    -0.8038  -0.7857  -0.7000  -0.6513  -0.5729  -0.5575  -0.5209  -0.4702
    -0.4458  -0.4318  -0.4151  -0.4070  -0.3455  -0.3005  -0.2328  -0.2187
    -0.1625  -0.1314  -0.1033  -0.0804  -0.0393   0.0541   0.0618   0.0884
     0.1172   0.1322   0.2064   0.3570   0.3976   0.6373   0.6465   0.7176
     0.8461   0.8693   0.8763   0.9525   0.9657   1.0029   1.0243   1.1452
     1.1680   1.1912   1.3206   1.3559   1.4478   1.9590   1.9598   2.0187
     2.0192   3.5341   4.1350   4.1451   4.1624   4.1757   4.2012   4.2077
     4.2502   4.2635   4.3970   4.4176

     the Fermi energy is     3.6471 ev

!    total energy              =   -2975.23033546 Ry
     estimated scf accuracy    <       0.00000004 Ry
     smearing contrib. (-TS)   =      -0.02108872 Ry
     internal energy E=F+TS    =   -2975.20924675 Ry

     The total energy is F=E-TS. E is the sum of the following terms:
     one-electron contribution =  -23878.60562724 Ry
     hartree contribution      =   12036.73840706 Ry
     xc contribution           =    -494.92670964 Ry
     ewald contribution        =    9361.58212693 Ry
     electric field correction =       0.00255614 Ry

     convergence has been achieved in  65 iterations

     Forces acting on atoms (cartesian axes, Ry/au):

     atom    1 type  1   force =     0.00017168   -0.00023979    0.09948112
     atom    2 type  1   force =    -0.00013912   -0.00039408   -0.17309518
     atom    3 type  2   force =    -0.00006833   -0.00000394   -0.02912351
     atom    4 type  2   force =     0.00003903   -0.00102700    0.04891032
     atom    5 type  2   force =    -0.01225993    0.00099666    0.00048619
     atom    6 type  2   force =     0.01356648    0.00186945   -0.00110751
     atom    7 type  1   force =    -0.00136164   -0.00051860   -0.00300928
     atom    8 type  1   force =     0.00094707   -0.00608956    0.04540745
     atom    9 type  2   force =    -0.00000016   -0.00023042    0.00001090
     atom   10 type  2   force =    -0.00155550    0.00261844   -0.03093802
     atom   11 type  2   force =    -0.00017586   -0.00044874    0.00004893
     atom   12 type  2   force =     0.00008374   -0.00023433    0.00015327
     atom   13 type  1   force =    -0.00019467   -0.00053958   -0.00039837
     atom   14 type  1   force =     0.00031582   -0.00017010    0.00017361
     atom   15 type  2   force =     0.00000169   -0.00015668   -0.00022380
     atom   16 type  2   force =    -0.00021943    0.00004915    0.00020063
     atom   17 type  2   force =     0.00017811   -0.00027337    0.00019671
     atom   18 type  2   force =    -0.00004864   -0.00034979    0.00005812
     atom   19 type  1   force =     0.00007686   -0.00019003    0.00025559
     atom   20 type  1   force =    -0.00000188   -0.00049118    0.00012541
     atom   21 type  2   force =     0.00008480   -0.00000670    0.10257445
     atom   22 type  2   force =     0.00005753   -0.00019743    0.00017266
     atom   23 type  2   force =    -0.07248453   -0.00008924   -0.02846654
     atom   24 type  2   force =     0.07244679    0.00034659   -0.02844939
     atom   25 type  1   force =     0.00009779   -0.00027161    0.09898548
     atom   26 type  1   force =    -0.00006419   -0.00041338   -0.17325990
     atom   27 type  2   force =    -0.00003261    0.00000341   -0.02843035
     atom   28 type  2   force =     0.00009337   -0.00076024    0.04807382
     atom   29 type  2   force =    -0.01262727    0.00063343    0.00052353
     atom   30 type  2   force =     0.01386260    0.00096268   -0.00104422
     atom   31 type  1   force =    -0.00147076    0.00226675   -0.00572280
     atom   32 type  1   force =     0.00112383    0.00382506    0.04593034
     atom   33 type  2   force =    -0.00006331   -0.00026556   -0.00006984
     atom   34 type  2   force =    -0.00096540    0.00134121   -0.03378587
     atom   35 type  2   force =    -0.00028522    0.00004120   -0.00023690
     atom   36 type  2   force =     0.00048912    0.00009803   -0.00002838
     atom   37 type  1   force =    -0.00031924    0.00007478    0.00020391
     atom   38 type  1   force =     0.00019204   -0.00029500   -0.00001928
     atom   39 type  2   force =     0.00002754   -0.00051504    0.00043802
     atom   40 type  2   force =    -0.00005183    0.00017316   -0.00021401
     atom   41 type  2   force =    -0.00012048   -0.00024751    0.00011699
     atom   42 type  2   force =     0.00019387   -0.00018548    0.00000784
     atom   43 type  1   force =     0.00008860    0.00006224   -0.00028062
     atom   44 type  1   force =    -0.00001246   -0.00032814   -0.00029037
     atom   45 type  2   force =     0.00009247   -0.00001062    0.10258392
     atom   46 type  2   force =    -0.07250550   -0.00000695   -0.02845858
     atom   47 type  2   force =     0.07246103    0.00037888   -0.02845496
     atom   48 type  3   force =     0.00021797    0.00574198    0.00104462
     atom   49 type  3   force =     0.00003942   -0.00119376   -0.00008120
     atom   50 type  4   force =     0.00118125   -0.02042473    0.00288252
     atom   51 type  5   force =    -0.00421278    0.00842622   -0.00140058
     atom   52 type  5   force =     0.00105857    0.00397767   -0.00314451
     atom   53 type  5   force =     0.00150486    0.00184401    0.00004378
     atom   54 type  5   force =     0.00064757    0.00045315    0.00105301
     atom   55 type  2   force =     0.00060899    0.00054420   -0.00016613
     atom   56 type  5   force =    -0.00021229   -0.00037607   -0.00030701
     atom   57 type  5   force =    -0.00049746    0.00021629    0.00006396

     Total force =     0.372835     Total SCF correction =     0.000343
  @ DRIVER MODE: Message from server: STATUS
  @ DRIVER MODE: Message from server: GETFORCE
  @ DRIVER MODE: Returning v,forces,stress,ensemble

     Writing output data file ./calc.save/
  @ DRIVER MODE: Message from server: EXIT
  @ DRIVE MODE: Exiting

     General routines

     Parallel routines

   This run was terminated on:  20:59:11  15Sep2021

   JOB DONE.