     Program PWSCF v.6.7GPU starts on 16Sep2021 at  4:58:16

     R & G space division:  proc/nbgrp/npool/nimage =      10
     Reading input from /storage/home/hcoda1/3/ntian30/research/carbon/CxH_vib/H2O_calc/ads_slab/CHNHH2O_a/out_0040/pw.inp
Warning: card &CELL ignored
Warning: card   CELL_DYNAMICS='IPI', ignored
Warning: card / ignored

     Current dimensions of program PWSCF are:
     Max number of different atomic species (ntypx) = 10
     Max number of k-points (npk) =  40000
     Max angular momentum in pseudopotentials (lmaxx) =  3
     Presently no symmetry can be used with electric field

     Message from routine cell_base_init:
     DEPRECATED: use true lattice parameter, not A to a.u. conversion factor

     IMPORTANT: XC functional enforced from input :
     Exchange-correlation= BEEF-VDW
                           (   1   4  43  14   2   0   0)
     Any further DFT definition will be discarded
     Please, verify this is what you really want

  @ DRIVER MODE: Connecting to
 qe_1139763_2852628.sched-torque.pace.gatech.eduigh229de_scratch
  using UNIX socket
  @ DRIVER MODE: Message from server: STATUS
  @ DRIVER MODE: Message from server: INIT
  @ DRIVER MODE: Receiving replica           0          -1
  @ DRIVER MODE: Receiving encoded integer          25
  @ DRIVER MODE:  SCF:  T  FORCE:  T  STRESS:  F  VC:  F  ENSEMBLE:  F
  @ DRIVER MODE:  SCF:  T  FORCE:  T  STRESS:  F  VC:  F  ENSEMBLE:  F

     Using Slab Decomposition

     bravais-lattice index     =            0
     lattice parameter (alat)  =       1.8897  a.u.
     unit-cell volume          =    6658.9804 (a.u.)^3
     number of atoms/cell      =           54
     number of atomic types    =            5
     number of electrons       =       397.00
     number of Kohn-Sham states=          208
     kinetic-energy cutoff     =      29.3995  Ry
     charge density cutoff     =     293.9946  Ry
     scf convergence threshold =      7.3E-08
     mixing beta               =       0.0500
     number of iterations used =            8  plain     mixing
     Exchange-correlation= BEEF-VDW
                           (   1   4  43  14   2   0   0)

     celldm(1)=   1.889726  celldm(2)=   0.000000  celldm(3)=   0.000000
     celldm(4)=   0.000000  celldm(5)=   0.000000  celldm(6)=   0.000000

     crystal axes: (cart. coord. in units of alat)
               a(1) = (   6.579727   0.000000   0.000000 )
               a(2) = (  -0.000775   5.961596   0.000000 )
               a(3) = (   0.000000   0.000000  25.155947 )

     reciprocal axes: (cart. coord. in units 2 pi/alat)
               b(1) = (  0.151982  0.000020  0.000000 )
               b(2) = (  0.000000  0.167740  0.000000 )
               b(3) = (  0.000000  0.000000  0.039752 )

     PseudoPot. # 1 for Ti read from file:
     /storage/coda1/p-amedford6/0/shared/rich_project_chbe-medford/medford-share/data/pseudos_module/espresso/nninc/pbe/van/Ti.UPF
     MD5 check sum: 8e4df49b7f0d34bbd5052bf3f5ea0213
     Pseudo is Ultrasoft, Zval = 12.0
     Generated by new atomic code, or converted to UPF format
     Using radial grid of  851 points,  6 beta functions with:
                l(1) =   0
                l(2) =   0
                l(3) =   1
                l(4) =   1
                l(5) =   2
                l(6) =   2
     Q(r) pseudized with  8 coefficients,  rinner =    1.000   1.000   1.000
                                                       1.000   1.000

     PseudoPot. # 2 for O  read from file:
     /storage/coda1/p-amedford6/0/shared/rich_project_chbe-medford/medford-share/data/pseudos_module/espresso/nninc/pbe/van/O.UPF
     MD5 check sum: 78c19812648e8988a0fe644b0f25305e
     Pseudo is Ultrasoft, Zval =  6.0
     Generated by new atomic code, or converted to UPF format
     Using radial grid of  737 points,  4 beta functions with:
                l(1) =   0
                l(2) =   0
                l(3) =   1
                l(4) =   1
     Q(r) pseudized with  8 coefficients,  rinner =    0.800   0.800   0.800

     PseudoPot. # 3 for N  read from file:
     /storage/coda1/p-amedford6/0/shared/rich_project_chbe-medford/medford-share/data/pseudos_module/espresso/nninc/pbe/van/N.UPF
     MD5 check sum: 90d10febe142ad51ac9d5be1deb811c4
     Pseudo is Ultrasoft, Zval =  5.0
     Generated by new atomic code, or converted to UPF format
     Using radial grid of  729 points,  4 beta functions with:
                l(1) =   0
                l(2) =   0
                l(3) =   1
                l(4) =   1
     Q(r) pseudized with  8 coefficients,  rinner =    0.800   0.800   0.800

     PseudoPot. # 4 for C  read from file:
     /storage/coda1/p-amedford6/0/shared/rich_project_chbe-medford/medford-share/data/pseudos_module/espresso/nninc/pbe/van/C.UPF
     MD5 check sum: 1a69bf6b8db32088f5b2163dbdb77a27
     Pseudo is Ultrasoft, Zval =  4.0
     Generated by new atomic code, or converted to UPF format
     Using radial grid of  721 points,  4 beta functions with:
                l(1) =   0
                l(2) =   0
                l(3) =   1
                l(4) =   1
     Q(r) pseudized with  8 coefficients,  rinner =    0.800   0.800   0.800

     PseudoPot. # 5 for H  read from file:
     /storage/coda1/p-amedford6/0/shared/rich_project_chbe-medford/medford-share/data/pseudos_module/espresso/nninc/pbe/van/H.UPF
     MD5 check sum: b5ee9d7bfd3a09ee7748110bda690ff7
     Pseudo is Ultrasoft, Zval =  1.0
     Generated by new atomic code, or converted to UPF format
     Using radial grid of  615 points,  1 beta functions with:
                l(1) =   0
     Q(r) pseudized with  8 coefficients,  rinner =    0.800

     atomic species   valence    mass     pseudopotential
        Ti1           12.00    47.86700     Ti( 1.00)
        O1             6.00    15.99900     O ( 1.00)
        N1             5.00    14.00700     N ( 1.00)
        C1             4.00    12.01100     C ( 1.00)
        H1             1.00     1.00800     H ( 1.00)

     No symmetry found

   Cartesian axes

     site n.     atom                  positions (alat units)
         1           Ti1 tau(   1) = (   0.0004258   2.9801865   6.0000000  )
         2           Ti1 tau(   2) = (   3.2906075   1.4906267   6.0002472  )
         3           O1  tau(   3) = (   0.0006271   0.0005054   7.9858123  )
         4           O1  tau(   4) = (   3.2906025   0.0005020   7.3038282  )
         5           O1  tau(   5) = (   4.5942328   1.4918067   9.2879030  )
         6           O1  tau(   6) = (   1.9868534   1.4903216   9.2879459  )
         7           Ti1 tau(   7) = (   3.2907910   2.8959150   9.1758416  )
         8           Ti1 tau(   8) = (   0.0015273   1.4827037   9.2680791  )
         9           O1  tau(   9) = (   3.2914171   5.9475995  11.3455371  )
        10           O1  tau(  10) = (   0.0116148   5.9584955  10.6183126  )
        11           O1  tau(  11) = (   1.3057669   1.4807986  12.6390077  )
        12           O1  tau(  12) = (   5.3035249   1.4749620  12.6227664  )
        13           Ti1 tau(  13) = (   6.5294082   2.9362577  12.6231083  )
        14           Ti1 tau(  14) = (   3.2175537   1.4615748  12.5070279  )
        15           O1  tau(  15) = (   6.5585639   5.9474800  14.6380151  )
        16           O1  tau(  16) = (   3.3125803   5.9531145  13.9695519  )
        17           O1  tau(  17) = (   4.5393379   1.5011389  16.1071157  )
        18           O1  tau(  18) = (   2.0094023   1.5044898  16.0307267  )
        19           Ti1 tau(  19) = (   3.2760958   2.9523363  15.6877793  )
        20           Ti1 tau(  20) = (   0.0277933   1.3451898  16.0452527  )
        21           O1  tau(  21) = (   3.2904802   0.0005063   4.7018136  )
        22           O1  tau(  22) = (   0.0198929   5.9263875  17.1601691  )
        23           O1  tau(  23) = (   1.3043587   1.4918075   6.0039043  )
        24           O1  tau(  24) = (   5.2767064   1.4903225   6.0039473  )
        25           Ti1 tau(  25) = (   0.0000382   5.9609847   6.0000000  )
        26           Ti1 tau(  26) = (   3.2902200   4.4714249   6.0002472  )
        27           O1  tau(  27) = (   0.0002396   2.9813036   7.9858123  )
        28           O1  tau(  28) = (   3.2902150   2.9813002   7.3038282  )
        29           O1  tau(  29) = (   4.5938453   4.4726049   9.2879030  )
        30           O1  tau(  30) = (   1.9864658   4.4711199   9.2879459  )
        31           Ti1 tau(  31) = (   3.2891106   5.8743827   9.1763621  )
        32           Ti1 tau(  32) = (   0.0006254   4.4649316   9.2693709  )
        33           O1  tau(  33) = (   3.2862706   2.9662616  11.3468726  )
        34           O1  tau(  34) = (   0.0092240   2.9805883  10.6323155  )
        35           O1  tau(  35) = (   1.3102706   4.4726941  12.6361575  )
        36           O1  tau(  36) = (   5.3014905   4.4644878  12.6181669  )
        37           Ti1 tau(  37) = (   6.5311680   5.9227251  12.5202533  )
        38           Ti1 tau(  38) = (   3.2191334   4.4553394  12.5017427  )
        39           O1  tau(  39) = (   6.5614274   2.9920157  14.6796082  )
        40           O1  tau(  40) = (   3.3146075   2.9603188  13.8993185  )
        41           O1  tau(  41) = (   4.5484517   4.4144432  16.0509510  )
        42           O1  tau(  42) = (   2.0146171   4.4214036  15.9967612  )
        43           Ti1 tau(  43) = (   3.3303817   5.9274347  15.8100502  )
        44           Ti1 tau(  44) = (   0.0273359   4.4939047  15.8144843  )
        45           O1  tau(  45) = (   3.2900926   2.9813045   4.7018136  )
        46           O1  tau(  46) = (   1.3039711   4.4726057   6.0039043  )
        47           O1  tau(  47) = (   5.2763189   4.4711207   6.0039473  )
        48           N1  tau(  48) = (   6.5134970   2.9613368  17.6459670  )
        49           C1  tau(  49) = (   0.7931072   3.0267964  18.6255283  )
        50           H1  tau(  50) = (   1.8307262   2.9311331  18.2395185  )
        51           H1  tau(  51) = (   5.5494773   3.0666896  17.9713127  )
        52           O1  tau(  52) = (   3.1855344   5.8058271  18.1612476  )
        53           H1  tau(  53) = (   3.8461454   0.3022996  18.7034462  )
        54           H1  tau(  54) = (   2.3120581   0.0153998  18.5533318  )

     number of k points=    10  Fermi-Dirac smearing, width (Ry)=  0.0073
                       cart. coord. in units 2pi/alat
        k(    1) = (   0.0000000   0.0000000   0.0000000), wk =   0.1250000
        k(    2) = (   0.0000000   0.0419351   0.0000000), wk =   0.2500000
        k(    3) = (   0.0000000  -0.0838702   0.0000000), wk =   0.1250000
        k(    4) = (   0.0379955   0.0000049   0.0000000), wk =   0.2500000
        k(    5) = (   0.0379955   0.0419400   0.0000000), wk =   0.2500000
        k(    6) = (   0.0379955  -0.0838652   0.0000000), wk =   0.2500000
        k(    7) = (   0.0379955  -0.0419301   0.0000000), wk =   0.2500000
        k(    8) = (  -0.0759910  -0.0000099   0.0000000), wk =   0.1250000
        k(    9) = (  -0.0759910   0.0419252   0.0000000), wk =   0.2500000
        k(   10) = (  -0.0759910  -0.0838800   0.0000000), wk =   0.1250000

     Initial potential from superposition of free atoms

     starting charge  380.99916, renormalised to  397.00000

     negative rho (up, down):  1.755E-02 0.000E+00

     %%%%%%%%%%%%%%%%%%%%%%%%%%%%%%%%%%%%%%%%%%%%%%%%%%%%%%%%%%%%%%%%%%%%%%%%
     %                                                                      %
     % You are using vdW-DF, which was implemented by the Thonhauser group. %
     % Please cite the following two papers that made this development      %
     % possible and the two reviews that describe the various versions:     %
     %                                                                      %
     %   T. Thonhauser et al., PRL 115, 136402 (2015).                      %
     %   T. Thonhauser et al., PRB 76, 125112 (2007).                       %
     %   K. Berland et al., Rep. Prog. Phys. 78, 066501 (2015).             %
     %   D.C. Langreth et al., J. Phys.: Condens. Matter 21, 084203 (2009). %
     %                                                                      %
     %                                                                      %
     % If you are calculating the stress with vdW-DF, please also cite:     %
     %                                                                      %
     %   R. Sabatini et al., J. Phys.: Condens. Matter 24, 424209 (2012).   %
     %                                                                      %
     %%%%%%%%%%%%%%%%%%%%%%%%%%%%%%%%%%%%%%%%%%%%%%%%%%%%%%%%%%%%%%%%%%%%%%%%

     Adding external electric field

     Computed dipole along edir(3) :
        Dipole               -9.1667 Ry au,        -23.2993 Debye
        Dipole field         -0.0173 Ry au,

        Potential amp.        1.6036 Ry
        Total length         46.3494 bohr

     Starting wfcs are  300 atomic wfcs
  @ DRIVER MODE: Message from server: STATUS
  @ DRIVER MODE: Message from server: POSDATA
  @ DRIVER MODE: Reading and sharing cell
  @ DRIVER MODE: Reading and sharing positions
  @ DRIVER MODE: Received positions

     Self-consistent Calculation

     iteration #  1     ecut=    29.40 Ry     beta= 0.05
     Davidson diagonalization with overlap
     c_bands:  1 eigenvalues not converged
     c_bands:  1 eigenvalues not converged
     c_bands:  1 eigenvalues not converged
     c_bands:  1 eigenvalues not converged
     c_bands:  1 eigenvalues not converged
     c_bands:  1 eigenvalues not converged
     c_bands:  1 eigenvalues not converged
     c_bands:  1 eigenvalues not converged
     c_bands:  1 eigenvalues not converged
     ethr =  1.00E-05,  avg # of iterations = 19.9

[...]

     total energy              =   -2547.27331622 Ry
     estimated scf accuracy    <    4504.90597145 Ry

     iteration #  2     ecut=    29.40 Ry     beta= 0.05
     Davidson diagonalization with overlap
     ethr =  1.00E-02,  avg # of iterations = 25.2

[...]

     iteration # 70     ecut=    29.40 Ry     beta= 0.05
     Davidson diagonalization with overlap
     c_bands:  1 eigenvalues not converged
     ethr =  2.19E-10,  avg # of iterations = 14.4

[...]

     total energy              =   -2952.61573192 Ry
     estimated scf accuracy    <       0.00000008 Ry

     iteration # 76     ecut=    29.40 Ry     beta= 0.05
     Davidson diagonalization with overlap
     ethr =  1.93E-11,  avg # of iterations = 11.8

     negative rho (up, down):  1.616E-02 0.000E+00

     Adding external electric field

     Computed dipole along edir(3) :
        Dipole                0.4063 Ry au,          1.0328 Debye
        Dipole field          0.0008 Ry au,

        Potential amp.       -0.0711 Ry
        Total length         46.3494 bohr

     End of self-consistent calculation

          k = 0.0000 0.0000 0.0000 ( 18029 PWs)   bands (ev):

   -56.0240 -55.9993 -55.9924 -55.9899 -55.9631 -55.8695 -55.8371 -55.8282
   -55.8247 -55.8113 -55.8029 -55.7778 -55.7482 -55.5788 -55.0096 -54.9756
   -32.5452 -32.5080 -32.4009 -32.3690 -32.3361 -32.3161 -32.3068 -32.3013
   -32.2673 -32.2365 -32.2247 -32.2182 -32.2087 -32.1961 -32.1784 -32.1764
   -32.1516 -32.1298 -32.1282 -32.1250 -32.0923 -32.0812 -32.0722 -32.0399
   -32.0292 -32.0277 -32.0239 -32.0196 -32.0167 -32.0113 -31.9966 -31.9857
   -31.9835 -31.9821 -31.9701 -31.9641 -31.9604 -31.9419 -31.9224 -31.8397
   -31.8226 -31.7357 -31.4170 -31.3278 -31.3055 -31.2337 -31.1472 -31.0362
   -19.2288 -16.7565 -16.5163 -16.3415 -16.2012 -16.1704 -15.9537 -15.8521
   -15.7812 -15.7269 -15.6577 -15.6062 -15.5721 -15.5629 -15.5461 -15.5227
   -15.5027 -15.4799 -15.4569 -15.4450 -15.4386 -15.3963 -15.3891 -15.3730
   -15.3545 -15.2483 -15.1844 -15.1601 -15.1148 -15.0916 -14.7383 -13.5117
   -13.3951  -7.8689  -7.0613  -4.1558  -4.0602  -3.9852  -3.9464  -3.9300
    -3.7770  -3.6948  -3.5458  -3.5187  -3.3079  -3.2753  -3.2204  -3.1953
    -3.1337  -3.0720  -2.9767  -2.9329  -2.8564  -2.8402  -2.8277  -2.8048
    -2.7846  -2.7681  -2.7279  -2.6641  -2.5939  -2.5601  -2.4468  -2.4209
    -2.4141  -2.3467  -2.3396  -2.3280  -2.3145  -2.2830  -2.2611  -2.2581
    -2.1869  -2.1546  -2.0840  -2.0322  -1.9713  -1.8533  -1.7028  -1.6398
    -1.5891  -1.5286  -1.5038  -1.4679  -1.4459  -1.4216  -1.3629  -1.3044
    -1.2402  -1.2280  -1.1575  -1.0650  -0.9936  -0.9551  -0.8849  -0.8235
    -0.8020  -0.7740  -0.7659  -0.7570  -0.7078  -0.5355  -0.4794  -0.4657
    -0.4263  -0.3432  -0.3127  -0.3030  -0.2538  -0.2458  -0.2057  -0.1170
    -0.0979  -0.0629  -0.0451  -0.0315   0.0013   0.0209   0.1760   0.1967
     0.2391   0.2606   0.3631   0.4692   0.5360   0.6236   0.7180   0.9369
     1.0129   1.0900   1.2039   1.5849   1.6310   2.7803   3.1043   3.1929
     3.2310   3.2371   3.2713   3.3419   3.5582   3.5893   3.6067   3.6631

[...]

          k = 0.0380-0.0419 0.0000 ( 17876 PWs)   bands (ev):

[...]

          k =-0.0760-0.0000 0.0000 ( 17886 PWs)   bands (ev):

[...]

          k =-0.0760-0.0839 0.0000 ( 17948 PWs)   bands (ev):

   -56.0077 -56.0061 -55.9910 -55.9831 -55.9787 -55.8603 -55.8375 -55.8263
   -55.8206 -55.8187 -55.7953 -55.7942 -55.7466 -55.5803 -54.9927 -54.9924
   -32.3590 -32.3432 -32.3237 -32.3227 -32.3021 -32.3008 -32.2798 -32.2718
   -32.2523 -32.2195 -32.2046 -32.2002 -32.1957 -32.1742 -32.1466 -32.1415
   -32.1369 -32.1347 -32.1330 -32.1314 -32.1306 -32.1277 -32.1271 -32.1255
   -32.0784 -32.0594 -32.0505 -32.0389 -32.0270 -32.0246 -32.0234 -32.0216
   -32.0211 -32.0102 -32.0084 -31.9983 -31.9919 -31.9776 -31.9720 -31.8435
   -31.8276 -31.8226 -31.3183 -31.3181 -31.2299 -31.2296 -31.1905 -31.1904
   -19.2278 -16.2154 -16.0958 -16.0412 -15.9482 -15.9226 -15.9082 -15.8343
   -15.7818 -15.7286 -15.7191 -15.6949 -15.6808 -15.6731 -15.6145 -15.5860
   -15.5617 -15.5507 -15.5073 -15.4945 -15.4865 -15.4728 -15.4707 -15.4645
   -15.4208 -15.3894 -15.3526 -15.3486 -15.2092 -15.1005 -15.0104 -13.4970
   -13.4967  -7.8781  -7.0629  -3.9218  -3.6482  -3.4934  -3.3164  -3.2665
    -3.1669  -3.1547  -3.1237  -3.1034  -2.9943  -2.9347  -2.9219  -2.9003
    -2.8595  -2.8498  -2.8430  -2.8382  -2.8037  -2.8020  -2.7654  -2.7467
    -2.7148  -2.7014  -2.6957  -2.6888  -2.6650  -2.6455  -2.6059  -2.5909
    -2.5748  -2.5449  -2.5074  -2.3741  -2.3047  -2.2270  -2.2199  -2.1796
    -2.1669  -2.1476  -2.1041  -2.0864  -2.0590  -1.9779  -1.9025  -1.7482
    -1.7300  -1.7063  -1.6760  -1.6146  -1.5224  -1.4980  -1.4696  -1.4232
    -1.4058  -1.3484  -1.3282  -1.2964  -1.2414  -1.1786  -1.1410  -1.1136
    -1.0689  -1.0036  -0.9833  -0.9619  -0.9486  -0.8874  -0.7792  -0.7727
    -0.7668  -0.7172  -0.7018  -0.6722  -0.6522  -0.5594  -0.4801  -0.4200
    -0.3232  -0.1591  -0.0790   0.0187   0.0558   0.1006   0.1452   0.1870
     0.2839   0.2859   0.3586   0.3886   0.4062   0.4884   0.4994   0.5225
     0.6830   1.3755   1.3767   1.4505   1.4510   2.8151   3.3617   3.4081
     3.4422   3.4889   3.5916   3.6118   3.6403   3.6422   3.7206   3.7689

     the Fermi energy is     3.1075 ev

!    total energy              =   -2952.61574266 Ry
     estimated scf accuracy    <       0.00000004 Ry
     smearing contrib. (-TS)   =      -0.02584243 Ry
     internal energy E=F+TS    =   -2952.58990023 Ry

     The total energy is F=E-TS. E is the sum of the following terms:
     one-electron contribution =  -24509.49471780 Ry
     hartree contribution      =   12341.94001324 Ry
     xc contribution           =    -487.96087900 Ry
     ewald contribution        =    9702.92537176 Ry
     electric field correction =       0.00031157 Ry

     convergence has been achieved in  76 iterations

     Forces acting on atoms (cartesian axes, Ry/au):

     atom    1 type  1   force =    -0.00003401   -0.00029951    0.09590861
     atom    2 type  1   force =     0.00005450   -0.00048984   -0.17609841
     atom    3 type  2   force =     0.00010324   -0.00009825   -0.02433482
     atom    4 type  2   force =     0.00000957   -0.00163133    0.05389850
     atom    5 type  2   force =    -0.01177818   -0.00141410    0.00393547
     atom    6 type  2   force =     0.01320481   -0.00102407    0.00317762
     atom    7 type  1   force =     0.00034477    0.00068592   -0.00764120
     atom    8 type  1   force =     0.00026517    0.01496124    0.02333708
     atom    9 type  2   force =    -0.00004880    0.00018722    0.00010369
     atom   10 type  2   force =    -0.00219077    0.00049851   -0.01742806
     atom   11 type  2   force =     0.00046613   -0.00026947   -0.00020364
     atom   12 type  2   force =    -0.00084096   -0.00017728    0.00001289
     atom   13 type  1   force =     0.00046326    0.00044615    0.00005500
     atom   14 type  1   force =    -0.00018646    0.00003828    0.00089462
     atom   15 type  2   force =    -0.00013614   -0.00001217   -0.00074842
     atom   16 type  2   force =     0.00001174    0.00051991   -0.00024229
     atom   17 type  2   force =    -0.00046865    0.00030433    0.00004224
     atom   18 type  2   force =     0.00025933    0.00014028   -0.00016490
     atom   19 type  1   force =     0.00071447    0.00063221   -0.00043400
     atom   20 type  1   force =    -0.00060700    0.00035507   -0.00007367
     atom   21 type  2   force =     0.00006450   -0.00000270    0.10333868
     atom   22 type  2   force =    -0.00026926   -0.00016550    0.00062913
     atom   23 type  2   force =    -0.07136721   -0.00010784   -0.02763940
     atom   24 type  2   force =     0.07128825    0.00034112   -0.02771079
     atom   25 type  1   force =     0.00024318   -0.00029367    0.09574276
     atom   26 type  1   force =     0.00011352   -0.00029262   -0.17602926
     atom   27 type  2   force =     0.00014036   -0.00029050   -0.02323098
     atom   28 type  2   force =     0.00000216   -0.00132530    0.05365894
     atom   29 type  2   force =    -0.01212367    0.00039794    0.00377838
     atom   30 type  2   force =     0.01350906    0.00101092    0.00302309
     atom   31 type  1   force =     0.00024615    0.00375658   -0.01143128
     atom   32 type  1   force =     0.00044464   -0.01662345    0.02315453
     atom   33 type  2   force =     0.00018072    0.00009948   -0.00033836
     atom   34 type  2   force =    -0.00191281   -0.00010373   -0.02070206
     atom   35 type  2   force =     0.00045835    0.00005897    0.00008276
     atom   36 type  2   force =    -0.00088926   -0.00000724    0.00033980
     atom   37 type  1   force =     0.00081150    0.00005210   -0.00028410
     atom   38 type  1   force =     0.00000133    0.00013279    0.00039855
     atom   39 type  2   force =    -0.00025577    0.00043091   -0.00054634
     atom   40 type  2   force =    -0.00039246   -0.00007789   -0.00018468
     atom   41 type  2   force =    -0.00060251    0.00034406    0.00027495
     atom   42 type  2   force =     0.00005034    0.00021017    0.00008492
     atom   43 type  1   force =     0.00038337   -0.00015293    0.00032088
     atom   44 type  1   force =    -0.00001990   -0.00030544    0.00043646
     atom   45 type  2   force =     0.00006747   -0.00000278    0.10330074
     atom   46 type  2   force =    -0.07135381   -0.00004803   -0.02762075
     atom   47 type  2   force =     0.07127639    0.00038204   -0.02769135
     atom   48 type  3   force =     0.00128784    0.00105566    0.00039703
     atom   49 type  4   force =    -0.00027105   -0.00027635   -0.00053983
     atom   50 type  5   force =    -0.00000270   -0.00055645    0.00020685
     atom   51 type  5   force =     0.00018142   -0.00059648    0.00011507
     atom   52 type  2   force =    -0.00336933    0.00087798    0.00346445
     atom   53 type  5   force =     0.00000646   -0.00030633   -0.00053199
     atom   54 type  5   force =     0.00246672   -0.00096858   -0.00226314

     Total force =     0.367851     Total SCF correction =     0.000502
  @ DRIVER MODE: Message from server: STATUS
  @ DRIVER MODE: Message from server: GETFORCE
  @ DRIVER MODE: Returning v,forces,stress,ensemble

     Writing output data file ./calc.save/
  @ DRIVER MODE: Message from server: EXIT
  @ DRIVE MODE: Exiting

     General routines

     Parallel routines

   This run was terminated on:   5:18:45  16Sep2021

   JOB DONE.