     Program PWSCF v.6.7GPU starts on 16Sep2021 at  0: 9: 9

     R & G space division:  proc/nbgrp/npool/nimage =      10
     Reading input from /storage/home/hcoda1/3/ntian30/research/carbon/CxH_vib/H2O_calc/ads_slab/CH2NNHHHH2O_a/out_0024/pw.inp
Warning: card &CELL ignored
Warning: card   CELL_DYNAMICS='IPI', ignored
Warning: card / ignored

     Current dimensions of program PWSCF are:
     Max number of different atomic species (ntypx) = 10
     Max number of k-points (npk) =  40000
     Max angular momentum in pseudopotentials (lmaxx) =  3
     Presently no symmetry can be used with electric field

     Message from routine cell_base_init:
     DEPRECATED: use true lattice parameter, not A to a.u. conversion factor

     IMPORTANT: XC functional enforced from input :
     Exchange-correlation= BEEF-VDW
                           (   1   4  43  14   2   0   0)
     Any further DFT definition will be discarded
     Please, verify this is what you really want

  @ DRIVER MODE: Connecting to
 qe_1139763_2852612.sched-torque.pace.gatech.eduv9jyrddg_scratch
  using UNIX socket
  @ DRIVER MODE: Message from server: STATUS
  @ DRIVER MODE: Message from server: INIT
  @ DRIVER MODE: Receiving replica           0          -1
  @ DRIVER MODE: Receiving encoded integer          25
  @ DRIVER MODE:  SCF:  T  FORCE:  T  STRESS:  F  VC:  F  ENSEMBLE:  F
  @ DRIVER MODE:  SCF:  T  FORCE:  T  STRESS:  F  VC:  F  ENSEMBLE:  F

     Using Slab Decomposition

     bravais-lattice index     =            0
     lattice parameter (alat)  =       1.8897  a.u.
     unit-cell volume          =    6658.9804 (a.u.)^3
     number of atoms/cell      =           58
     number of atomic types    =            5
     number of electrons       =       405.00
     number of Kohn-Sham states=          212
     kinetic-energy cutoff     =      29.3995  Ry
     charge density cutoff     =     293.9946  Ry
     scf convergence threshold =      7.3E-08
     mixing beta               =       0.0500
     number of iterations used =            8  plain     mixing
     Exchange-correlation= BEEF-VDW
                           (   1   4  43  14   2   0   0)

     celldm(1)=   1.889726  celldm(2)=   0.000000  celldm(3)=   0.000000
     celldm(4)=   0.000000  celldm(5)=   0.000000  celldm(6)=   0.000000

     crystal axes: (cart. coord. in units of alat)
               a(1) = (   6.579727   0.000000   0.000000 )
               a(2) = (  -0.000775   5.961596   0.000000 )
               a(3) = (   0.000000   0.000000  25.155947 )

     reciprocal axes: (cart. coord. in units 2 pi/alat)
               b(1) = (  0.151982  0.000020  0.000000 )
               b(2) = (  0.000000  0.167740  0.000000 )
               b(3) = (  0.000000  0.000000  0.039752 )

     PseudoPot. # 1 for Ti read from file:
     /storage/coda1/p-amedford6/0/shared/rich_project_chbe-medford/medford-share/data/pseudos_module/espresso/nninc/pbe/van/Ti.UPF
     MD5 check sum: 8e4df49b7f0d34bbd5052bf3f5ea0213
     Pseudo is Ultrasoft, Zval = 12.0
     Generated by new atomic code, or converted to UPF format
     Using radial grid of  851 points,  6 beta functions with:
                l(1) =   0
                l(2) =   0
                l(3) =   1
                l(4) =   1
                l(5) =   2
                l(6) =   2
     Q(r) pseudized with  8 coefficients,  rinner =    1.000   1.000   1.000
                                                       1.000   1.000

     PseudoPot. # 2 for O  read from file:
     /storage/coda1/p-amedford6/0/shared/rich_project_chbe-medford/medford-share/data/pseudos_module/espresso/nninc/pbe/van/O.UPF
     MD5 check sum: 78c19812648e8988a0fe644b0f25305e
     Pseudo is Ultrasoft, Zval =  6.0
     Generated by new atomic code, or converted to UPF format
     Using radial grid of  737 points,  4 beta functions with:
                l(1) =   0
                l(2) =   0
                l(3) =   1
                l(4) =   1
     Q(r) pseudized with  8 coefficients,  rinner =    0.800   0.800   0.800

     PseudoPot. # 3 for N  read from file:
     /storage/coda1/p-amedford6/0/shared/rich_project_chbe-medford/medford-share/data/pseudos_module/espresso/nninc/pbe/van/N.UPF
     MD5 check sum: 90d10febe142ad51ac9d5be1deb811c4
     Pseudo is Ultrasoft, Zval =  5.0
     Generated by new atomic code, or converted to UPF format
     Using radial grid of  729 points,  4 beta functions with:
                l(1) =   0
                l(2) =   0
                l(3) =   1
                l(4) =   1
     Q(r) pseudized with  8 coefficients,  rinner =    0.800   0.800   0.800

     PseudoPot. # 4 for C  read from file:
     /storage/coda1/p-amedford6/0/shared/rich_project_chbe-medford/medford-share/data/pseudos_module/espresso/nninc/pbe/van/C.UPF
     MD5 check sum: 1a69bf6b8db32088f5b2163dbdb77a27
     Pseudo is Ultrasoft, Zval =  4.0
     Generated by new atomic code, or converted to UPF format
     Using radial grid of  721 points,  4 beta functions with:
                l(1) =   0
                l(2) =   0
                l(3) =   1
                l(4) =   1
     Q(r) pseudized with  8 coefficients,  rinner =    0.800   0.800   0.800

     PseudoPot. # 5 for H  read from file:
     /storage/coda1/p-amedford6/0/shared/rich_project_chbe-medford/medford-share/data/pseudos_module/espresso/nninc/pbe/van/H.UPF
     MD5 check sum: b5ee9d7bfd3a09ee7748110bda690ff7
     Pseudo is Ultrasoft, Zval =  1.0
     Generated by new atomic code, or converted to UPF format
     Using radial grid of  615 points,  1 beta functions with:
                l(1) =   0
     Q(r) pseudized with  8 coefficients,  rinner =    0.800

     atomic species   valence    mass     pseudopotential
        Ti1           12.00    47.86700     Ti( 1.00)
        O1             6.00    15.99900     O ( 1.00)
        N1             5.00    14.00700     N ( 1.00)
        C1             4.00    12.01100     C ( 1.00)
        H1             1.00     1.00800     H ( 1.00)

     No symmetry found

   Cartesian axes

     site n.     atom                  positions (alat units)
         1           Ti1 tau(   1) = (   0.0004258   2.9801865   6.0000000  )
         2           Ti1 tau(   2) = (   3.2906075   1.4906267   6.0002472  )
         3           O1  tau(   3) = (   0.0006271   0.0005054   7.9858123  )
         4           O1  tau(   4) = (   3.2906025   0.0005020   7.3038282  )
         5           O1  tau(   5) = (   4.5942328   1.4918067   9.2879030  )
         6           O1  tau(   6) = (   1.9868534   1.4903216   9.2879459  )
         7           Ti1 tau(   7) = (   3.2907910   2.8959150   9.1758416  )
         8           Ti1 tau(   8) = (   0.0015273   1.4827037   9.2680791  )
         9           O1  tau(   9) = (   3.2987819   5.9401718  11.3551833  )
        10           O1  tau(  10) = (   0.0116148   5.9584955  10.6183126  )
        11           O1  tau(  11) = (   1.3094369   1.4889762  12.6418845  )
        12           O1  tau(  12) = (   5.3041503   1.4933078  12.6143371  )
        13           Ti1 tau(  13) = (   0.0302489   2.9730182  12.5448133  )
        14           Ti1 tau(  14) = (   3.3273137   1.4751619  12.4920661  )
        15           O1  tau(  15) = (   6.5331299   0.0759724  14.6728253  )
        16           O1  tau(  16) = (   3.3443954   0.0128112  13.9985917  )
        17           O1  tau(  17) = (   4.5384157   1.5150964  16.2525342  )
        18           O1  tau(  18) = (   2.0107438   1.5096167  16.1239609  )
        19           Ti1 tau(  19) = (   3.2468703   2.9375149  15.6823127  )
        20           Ti1 tau(  20) = (   6.5402329   1.3810098  16.1103674  )
        21           O1  tau(  21) = (   3.2904802   0.0005063   4.7018136  )
        22           O1  tau(  22) = (   0.0855018   5.8309792  17.2460454  )
        23           O1  tau(  23) = (   1.3043587   1.4918075   6.0039043  )
        24           O1  tau(  24) = (   5.2767064   1.4903225   6.0039473  )
        25           Ti1 tau(  25) = (   0.0000382   5.9609847   6.0000000  )
        26           Ti1 tau(  26) = (   3.2902200   4.4714249   6.0002472  )
        27           O1  tau(  27) = (   0.0002396   2.9813036   7.9858123  )
        28           O1  tau(  28) = (   3.2902150   2.9813002   7.3038282  )
        29           O1  tau(  29) = (   4.5938453   4.4726049   9.2879030  )
        30           O1  tau(  30) = (   1.9864658   4.4711199   9.2879459  )
        31           Ti1 tau(  31) = (   3.2891106   5.8743827   9.1763621  )
        32           Ti1 tau(  32) = (   0.0006254   4.4649316   9.2693709  )
        33           O1  tau(  33) = (   3.2978634   2.9839445  11.3486163  )
        34           O1  tau(  34) = (   0.0092240   2.9805883  10.6323155  )
        35           O1  tau(  35) = (   1.3057425   4.4725738  12.6940039  )
        36           O1  tau(  36) = (   5.3035974   4.4670288  12.6562451  )
        37           Ti1 tau(  37) = (   0.0240142   0.0094741  12.5095027  )
        38           Ti1 tau(  38) = (   3.3290383   4.4615466  12.5202027  )
        39           O1  tau(  39) = (   6.5484913   2.9337383  14.8377676  )
        40           O1  tau(  40) = (   3.3243726   2.9440003  13.9069550  )
        41           O1  tau(  41) = (   4.5478640   4.3999133  16.1372545  )
        42           O1  tau(  42) = (   2.0209518   4.4226222  15.9786897  )
        43           Ti1 tau(  43) = (   3.3220059   5.9437776  15.8132296  )
        44           Ti1 tau(  44) = (   0.0730556   4.5544523  15.7304118  )
        45           O1  tau(  45) = (   3.2900926   2.9813045   4.7018136  )
        46           O1  tau(  46) = (   1.3039711   4.4726057   6.0039043  )
        47           O1  tau(  47) = (   5.2763189   4.4711207   6.0039473  )
        48           N1  tau(  48) = (   0.0453545   2.8788619  17.9090770  )
        49           C1  tau(  49) = (   1.0089482   2.8008358  18.8431878  )
        50           H1  tau(  50) = (   1.0080222   3.4413729  19.7168629  )
        51           H1  tau(  51) = (   1.8954070   2.2543435  18.5900802  )
        52           N1  tau(  52) = (   5.5320326   3.6725468  18.4365114  )
        53           H1  tau(  53) = (   5.8975581   4.6271042  18.6377988  )
        54           H1  tau(  54) = (   4.8553295   3.8628436  17.6443034  )
        55           H1  tau(  55) = (   5.1025442   3.2364756  19.2632064  )
        56           O1  tau(  56) = (   2.8928424   5.6518753  18.2681889  )
        57           H1  tau(  57) = (   3.0708471   0.5134993  18.7460362  )
        58           H1  tau(  58) = (   1.9180978   5.6479514  18.1114729  )

     number of k points=    10  Fermi-Dirac smearing, width (Ry)=  0.0073
                       cart. coord. in units 2pi/alat
        k(    1) = (   0.0000000   0.0000000   0.0000000), wk =   0.1250000
        k(    2) = (   0.0000000   0.0419351   0.0000000), wk =   0.2500000
        k(    3) = (   0.0000000  -0.0838702   0.0000000), wk =   0.1250000
        k(    4) = (   0.0379955   0.0000049   0.0000000), wk =   0.2500000
        k(    5) = (   0.0379955   0.0419400   0.0000000), wk =   0.2500000
        k(    6) = (   0.0379955  -0.0838652   0.0000000), wk =   0.2500000
        k(    7) = (   0.0379955  -0.0419301   0.0000000), wk =   0.2500000
        k(    8) = (  -0.0759910  -0.0000099   0.0000000), wk =   0.1250000
        k(    9) = (  -0.0759910   0.0419252   0.0000000), wk =   0.2500000
        k(   10) = (  -0.0759910  -0.0838800   0.0000000), wk =   0.1250000

     Initial potential from superposition of free atoms

     starting charge  388.99913, renormalised to  405.00000

     negative rho (up, down):  1.580E-02 0.000E+00

     %%%%%%%%%%%%%%%%%%%%%%%%%%%%%%%%%%%%%%%%%%%%%%%%%%%%%%%%%%%%%%%%%%%%%%%%
     %                                                                      %
     % You are using vdW-DF, which was implemented by the Thonhauser group. %
     % Please cite the following two papers that made this development      %
     % possible and the two reviews that describe the various versions:     %
     %                                                                      %
     %   T. Thonhauser et al., PRL 115, 136402 (2015).                      %
     %   T. Thonhauser et al., PRB 76, 125112 (2007).                       %
     %   K. Berland et al., Rep. Prog. Phys. 78, 066501 (2015).             %
     %   D.C. Langreth et al., J. Phys.: Condens. Matter 21, 084203 (2009). %
     %                                                                      %
     %                                                                      %
     % If you are calculating the stress with vdW-DF, please also cite:     %
     %                                                                      %
     %   R. Sabatini et al., J. Phys.: Condens. Matter 24, 424209 (2012).   %
     %                                                                      %
     %%%%%%%%%%%%%%%%%%%%%%%%%%%%%%%%%%%%%%%%%%%%%%%%%%%%%%%%%%%%%%%%%%%%%%%%

     Adding external electric field

     Computed dipole along edir(3) :
        Dipole              -14.4824 Ry au,        -36.8105 Debye
        Dipole field         -0.0273 Ry au,

        Potential amp.        2.5335 Ry
        Total length         46.3494 bohr

     Starting wfcs are  307 atomic wfcs
  @ DRIVER MODE: Message from server: STATUS
  @ DRIVER MODE: Message from server: POSDATA
  @ DRIVER MODE: Reading and sharing cell
  @ DRIVER MODE: Reading and sharing positions
  @ DRIVER MODE: Received positions

     Self-consistent Calculation

     iteration #  1     ecut=    29.40 Ry     beta= 0.05
     Davidson diagonalization with overlap
     c_bands:  2 eigenvalues not converged
     c_bands:  5 eigenvalues not converged
     c_bands:  1 eigenvalues not converged
     c_bands:  3 eigenvalues not converged
     c_bands:  3 eigenvalues not converged
     c_bands:  4 eigenvalues not converged
     ethr =  1.00E-05,  avg # of iterations = 27.0

[...]

     total energy              =   -2173.24673931 Ry
     estimated scf accuracy    <    9121.52634906 Ry

     iteration #  2     ecut=    29.40 Ry     beta= 0.05
     Davidson diagonalization with overlap
     ethr =  1.00E-02,  avg # of iterations = 27.1

[...]

     iteration # 76     ecut=    29.40 Ry     beta= 0.05
     Davidson diagonalization with overlap
     c_bands:  1 eigenvalues not converged
     ethr =  2.09E-11,  avg # of iterations = 15.9

[...]

     total energy              =   -2976.32718868 Ry
     estimated scf accuracy    <       0.00000008 Ry

     iteration # 77     ecut=    29.40 Ry     beta= 0.05
     Davidson diagonalization with overlap
     ethr =  1.90E-11,  avg # of iterations =  3.9

     negative rho (up, down):  1.316E-02 0.000E+00

     Adding external electric field

     Computed dipole along edir(3) :
        Dipole                1.3376 Ry au,          3.3999 Debye
        Dipole field          0.0025 Ry au,

        Potential amp.       -0.2340 Ry
        Total length         46.3494 bohr

     End of self-consistent calculation

          k = 0.0000 0.0000 0.0000 ( 18029 PWs)   bands (ev):

   -55.1721 -55.1428 -55.1311 -55.1087 -55.0927 -55.0493 -55.0084 -54.9819
   -54.9710 -54.9554 -54.9463 -54.9382 -54.8726 -54.7253 -54.1546 -54.1205
   -31.7388 -31.6325 -31.5367 -31.5029 -31.4816 -31.4742 -31.4710 -31.4326
   -31.4096 -31.3878 -31.3819 -31.3794 -31.3675 -31.3464 -31.3200 -31.3170
   -31.3071 -31.2955 -31.2898 -31.2851 -31.2541 -31.2371 -31.2305 -31.2110
   -31.1997 -31.1819 -31.1802 -31.1795 -31.1703 -31.1679 -31.1512 -31.1420
   -31.1319 -31.1306 -31.1086 -31.1012 -31.0971 -31.0795 -31.0536 -31.0174
   -31.0020 -30.8711 -30.5630 -30.4711 -30.4489 -30.3797 -30.2930 -30.1819
   -19.0901 -18.8009 -16.0088 -15.7510 -15.6238 -15.4464 -15.3666 -15.2130
   -15.1429 -15.0604 -15.0328 -14.9687 -14.9296 -14.8995 -14.7867 -14.7795
   -14.7064 -14.7058 -14.6972 -14.6650 -14.6615 -14.6568 -14.6013 -14.5985
   -14.5591 -14.5480 -14.5356 -14.3936 -14.3187 -14.2617 -14.0901 -13.9753
   -12.6569 -12.5398  -9.0082  -7.6894  -6.9468  -6.5506  -5.7651  -3.8092
    -3.3467  -3.2137  -3.1757  -3.1159  -3.0721  -2.9883  -2.8949  -2.7732
    -2.5549  -2.4779  -2.4377  -2.3886  -2.3803  -2.3334  -2.2448  -2.1608
    -2.1284  -2.0927  -2.0433  -2.0281  -1.9870  -1.9607  -1.9414  -1.9001
    -1.8913  -1.7444  -1.6850  -1.6289  -1.5809  -1.5603  -1.5581  -1.5016
    -1.4877  -1.4665  -1.4635  -1.4531  -1.4228  -1.3855  -1.3813  -1.3275
    -1.2900  -1.1644  -1.0902  -0.9745  -0.9151  -0.8842  -0.8006  -0.7320
    -0.7158  -0.6437  -0.5791  -0.5598  -0.5025  -0.4648  -0.3744  -0.3404
    -0.2906  -0.2648  -0.1564  -0.1434  -0.1274  -0.0567   0.0324   0.0413
     0.0654   0.1112   0.1952   0.2304   0.2836   0.3102   0.4099   0.4411
     0.4832   0.5010   0.5267   0.6076   0.6789   0.7157   0.7764   0.7858
     0.8207   0.8256   0.8487   0.9430   0.9738   0.9784   1.0265   1.1934
     1.2508   1.4498   1.4519   1.7821   1.8177   1.8683   2.0546   2.4421
     2.4894   3.9271   3.9933   4.0421   4.0588   4.0772   4.1348   4.1698
     4.3976   4.4205   4.4345   4.4480

[...]

          k = 0.0380-0.0419 0.0000 ( 17876 PWs)   bands (ev):

[...]

          k =-0.0760-0.0000 0.0000 ( 17886 PWs)   bands (ev):

[...]

          k =-0.0760-0.0839 0.0000 ( 17948 PWs)   bands (ev):

   -55.1614 -55.1417 -55.1257 -55.1256 -55.0905 -55.0400 -55.0176 -54.9664
   -54.9605 -54.9574 -54.9562 -54.9541 -54.8708 -54.7269 -54.1375 -54.1375
   -31.5499 -31.5350 -31.4477 -31.4476 -31.4476 -31.4378 -31.4180 -31.4180
   -31.3836 -31.3781 -31.3686 -31.3668 -31.3366 -31.3085 -31.3011 -31.2989
   -31.2963 -31.2928 -31.2903 -31.2855 -31.2763 -31.2624 -31.2485 -31.2449
   -31.2449 -31.2430 -31.2404 -31.2144 -31.1996 -31.1914 -31.1806 -31.1762
   -31.1755 -31.1750 -31.1562 -31.1548 -31.1361 -31.1334 -31.0715 -31.0097
   -31.0059 -30.9451 -30.4616 -30.4615 -30.3757 -30.3755 -30.3363 -30.3363
   -19.0826 -18.8040 -15.5107 -15.3745 -15.3358 -15.2455 -15.1638 -15.1477
   -15.1399 -15.1057 -15.0532 -14.9936 -14.9487 -14.9136 -14.8734 -14.8719
   -14.8588 -14.7587 -14.7476 -14.7401 -14.7232 -14.6751 -14.6654 -14.6486
   -14.6233 -14.6217 -14.5965 -14.5158 -14.5148 -14.4162 -14.3104 -14.0363
   -12.6415 -12.6414  -8.9957  -7.7051  -6.9036  -6.5402  -5.7794  -3.8900
    -3.0081  -2.7686  -2.5739  -2.5458  -2.4267  -2.3750  -2.3291  -2.3077
    -2.2214  -2.1811  -2.1642  -2.1586  -2.1388  -2.0818  -2.0604  -2.0212
    -2.0014  -1.9872  -1.9784  -1.9542  -1.9496  -1.9176  -1.9014  -1.8831
    -1.8772  -1.8406  -1.8018  -1.7907  -1.7530  -1.7325  -1.7241  -1.6666
    -1.5674  -1.5343  -1.4907  -1.4246  -1.3618  -1.3581  -1.2895  -1.2672
    -1.2492  -1.2316  -1.1959  -1.1838  -1.0699  -1.0139  -0.9098  -0.8971
    -0.8911  -0.7866  -0.7520  -0.7107  -0.6801  -0.6432  -0.5875  -0.5087
    -0.5017  -0.4268  -0.3893  -0.3776  -0.3590  -0.2188  -0.1873  -0.1542
    -0.1301  -0.1255  -0.0713  -0.0286   0.0017   0.0392   0.0661   0.0990
     0.1151   0.1911   0.3282   0.3600   0.4021   0.5346   0.5622   0.6775
     0.7031   0.8232   0.8968   0.9414   0.9615   1.0393   1.1167   1.1381
     1.1438   1.2545   1.3052   1.3073   1.3247   2.2270   2.2285   2.3094
     2.3096   3.7808   4.0728   4.1979   4.2147   4.2555   4.3793   4.4445
     4.4798   4.5017   4.5047   4.5889

     the Fermi energy is     3.9760 ev

!    total energy              =   -2976.32720176 Ry
     estimated scf accuracy    <       0.00000003 Ry
     smearing contrib. (-TS)   =      -0.04070229 Ry
     internal energy E=F+TS    =   -2976.28649947 Ry

     The total energy is F=E-TS. E is the sum of the following terms:
     one-electron contribution =  -23820.19529439 Ry
     hartree contribution      =   12008.93725371 Ry
     xc contribution           =    -495.75988221 Ry
     ewald contribution        =    9330.72804687 Ry
     electric field correction =       0.00337654 Ry

     convergence has been achieved in  77 iterations

     Forces acting on atoms (cartesian axes, Ry/au):

     atom    1 type  1   force =     0.00015652   -0.00019651    0.09425098
     atom    2 type  1   force =    -0.00011642   -0.00034936   -0.17723511
     atom    3 type  2   force =     0.00008501    0.00004042   -0.02132814
     atom    4 type  2   force =     0.00001862   -0.00174340    0.05669259
     atom    5 type  2   force =    -0.01044754   -0.00127478    0.00673110
     atom    6 type  2   force =     0.01220533   -0.00072019    0.00624399
     atom    7 type  1   force =    -0.00028534    0.00288107   -0.01266488
     atom    8 type  1   force =    -0.00014490    0.00438593    0.00453034
     atom    9 type  2   force =    -0.00036394    0.00008695    0.00076473
     atom   10 type  2   force =    -0.00008406   -0.00088890   -0.00640580
     atom   11 type  2   force =    -0.00042490   -0.00032931    0.00005812
     atom   12 type  2   force =    -0.00031620   -0.00042290    0.00014554
     atom   13 type  1   force =    -0.00034374   -0.00016881   -0.00031858
     atom   14 type  1   force =     0.00003153   -0.00042993   -0.00033737
     atom   15 type  2   force =    -0.00019987   -0.00010013    0.00001895
     atom   16 type  2   force =    -0.00065478    0.00023445   -0.00033861
     atom   17 type  2   force =    -0.00010392    0.00006379    0.00017831
     atom   18 type  2   force =     0.00036572   -0.00007011    0.00027571
     atom   19 type  1   force =     0.00017730   -0.00101713    0.00007674
     atom   20 type  1   force =     0.00026348   -0.00018583    0.00069364
     atom   21 type  2   force =     0.00004635    0.00001836    0.10365589
     atom   22 type  2   force =    -0.00031941    0.00011323    0.00056944
     atom   23 type  2   force =    -0.07082013   -0.00011402   -0.02714807
     atom   24 type  2   force =     0.07071715    0.00032202   -0.02717932
     atom   25 type  1   force =    -0.00006344   -0.00023011    0.09367026
     atom   26 type  1   force =    -0.00013646   -0.00042966   -0.17736595
     atom   27 type  2   force =     0.00014842   -0.00039282   -0.02028278
     atom   28 type  2   force =     0.00005287   -0.00138061    0.05583986
     atom   29 type  2   force =    -0.01031623   -0.00029766    0.00538457
     atom   30 type  2   force =     0.01198833    0.00009921    0.00502216
     atom   31 type  1   force =    -0.00017469    0.00358296   -0.01532148
     atom   32 type  1   force =    -0.00018873   -0.00484561    0.00437251
     atom   33 type  2   force =    -0.00006676   -0.00016752    0.00032227
     atom   34 type  2   force =     0.00120490    0.00258593   -0.00430081
     atom   35 type  2   force =    -0.00071114   -0.00016217    0.00017399
     atom   36 type  2   force =    -0.00001195   -0.00002848    0.00045189
     atom   37 type  1   force =     0.00038904    0.00041621   -0.00029907
     atom   38 type  1   force =    -0.00000522    0.00052506   -0.00156852
     atom   39 type  2   force =     0.00026925   -0.00043279   -0.00021890
     atom   40 type  2   force =     0.00004848    0.00005102    0.00057401
     atom   41 type  2   force =    -0.00021420   -0.00027635   -0.00017854
     atom   42 type  2   force =     0.00046856   -0.00035550    0.00003642
     atom   43 type  1   force =    -0.00070123    0.00071759    0.00060412
     atom   44 type  1   force =    -0.00007622    0.00001901   -0.00007359
     atom   45 type  2   force =     0.00003995   -0.00002561    0.10366287
     atom   46 type  2   force =    -0.07085152   -0.00005598   -0.02714699
     atom   47 type  2   force =     0.07074759    0.00034533   -0.02717807
     atom   48 type  3   force =     0.00102560   -0.00014102   -0.00054821
     atom   49 type  4   force =    -0.00161555    0.00170405    0.00294303
     atom   50 type  5   force =     0.00053825    0.00017186   -0.00022656
     atom   51 type  5   force =     0.00119606   -0.00126009   -0.00269279
     atom   52 type  3   force =     0.00086676   -0.00012203    0.00017250
     atom   53 type  5   force =    -0.00134757   -0.00010914    0.00038521
     atom   54 type  5   force =     0.00029005   -0.00038745    0.00049557
     atom   55 type  5   force =    -0.00060804   -0.00003873    0.00026894
     atom   56 type  2   force =    -0.00030045    0.00124046   -0.00052734
     atom   57 type  5   force =    -0.00023808   -0.00080070    0.00034468
     atom   58 type  5   force =    -0.00108850    0.00034643    0.00127454

     Total force =     0.365348     Total SCF correction =     0.000384
  @ DRIVER MODE: Message from server: STATUS
  @ DRIVER MODE: Message from server: GETFORCE
  @ DRIVER MODE: Returning v,forces,stress,ensemble

     Writing output data file ./calc.save/
  @ DRIVER MODE: Message from server: EXIT
  @ DRIVE MODE: Exiting

     General routines

     Parallel routines

   This run was terminated on:   0:30:50  16Sep2021

   JOB DONE.