     Program PWSCF v.6.7GPU starts on 16Jul2021 at  4:40:42

     R & G space division:  proc/nbgrp/npool/nimage =      16
     Reading input from /storage/home/hcoda1/3/ntian30/research/carbon/15Jul_vib/ads_slab/CH3NNHH_a/out_0018/pw.inp
Warning: card &CELL ignored
Warning: card   CELL_DYNAMICS='IPI', ignored
Warning: card / ignored

     Current dimensions of program PWSCF are:
     Max number of different atomic species (ntypx) = 10
     Max number of k-points (npk) =  40000
     Max angular momentum in pseudopotentials (lmaxx) =  3
     Presently no symmetry can be used with electric field

     Message from routine cell_base_init:
     DEPRECATED: use true lattice parameter, not A to a.u. conversion factor

     IMPORTANT: XC functional enforced from input :
     Exchange-correlation= BEEF-VDW
                           (   1   4  43  14   2   0   0)
     Any further DFT definition will be discarded
     Please, verify this is what you really want

  @ DRIVER MODE: Connecting to
 qe_1139763_2351651.sched-torque.pace.gatech.eduh8ncka4l_scratch
  using UNIX socket
  @ DRIVER MODE: Message from server: STATUS
  @ DRIVER MODE: Message from server: INIT
  @ DRIVER MODE: Receiving replica           0          -1
  @ DRIVER MODE: Receiving encoded integer          25
  @ DRIVER MODE:  SCF:  T  FORCE:  T  STRESS:  F  VC:  F  ENSEMBLE:  F
  @ DRIVER MODE:  SCF:  T  FORCE:  T  STRESS:  F  VC:  F  ENSEMBLE:  F

     Using Slab Decomposition

     bravais-lattice index     =            0
     lattice parameter (alat)  =       1.8897  a.u.
     unit-cell volume          =    6658.9804 (a.u.)^3
     number of atoms/cell      =           55
     number of atomic types    =            5
     number of electrons       =       397.00
     number of Kohn-Sham states=          208
     kinetic-energy cutoff     =      29.3995  Ry
     charge density cutoff     =     293.9946  Ry
     scf convergence threshold =      7.3E-08
     mixing beta               =       0.0500
     number of iterations used =            8  plain     mixing
     Exchange-correlation= BEEF-VDW
                           (   1   4  43  14   2   0   0)

     celldm(1)=   1.889726  celldm(2)=   0.000000  celldm(3)=   0.000000
     celldm(4)=   0.000000  celldm(5)=   0.000000  celldm(6)=   0.000000

     crystal axes: (cart. coord. in units of alat)
               a(1) = (   6.579727   0.000000   0.000000 )
               a(2) = (  -0.000775   5.961596   0.000000 )
               a(3) = (   0.000000   0.000000  25.155947 )

     reciprocal axes: (cart. coord. in units 2 pi/alat)
               b(1) = (  0.151982  0.000020  0.000000 )
               b(2) = (  0.000000  0.167740  0.000000 )
               b(3) = (  0.000000  0.000000  0.039752 )

     PseudoPot. # 1 for Ti read from file:
     /storage/coda1/p-amedford6/0/shared/rich_project_chbe-medford/medford-share/data/pseudos_module/espresso/nninc/pbe/van/Ti.UPF
     MD5 check sum: 8e4df49b7f0d34bbd5052bf3f5ea0213
     Pseudo is Ultrasoft, Zval = 12.0
     Generated by new atomic code, or converted to UPF format
     Using radial grid of  851 points,  6 beta functions with:
                l(1) =   0
                l(2) =   0
                l(3) =   1
                l(4) =   1
                l(5) =   2
                l(6) =   2
     Q(r) pseudized with  8 coefficients,  rinner =    1.000   1.000   1.000
                                                       1.000   1.000

     PseudoPot. # 2 for O  read from file:
     /storage/coda1/p-amedford6/0/shared/rich_project_chbe-medford/medford-share/data/pseudos_module/espresso/nninc/pbe/van/O.UPF
     MD5 check sum: 78c19812648e8988a0fe644b0f25305e
     Pseudo is Ultrasoft, Zval =  6.0
     Generated by new atomic code, or converted to UPF format
     Using radial grid of  737 points,  4 beta functions with:
                l(1) =   0
                l(2) =   0
                l(3) =   1
                l(4) =   1
     Q(r) pseudized with  8 coefficients,  rinner =    0.800   0.800   0.800

     PseudoPot. # 3 for N  read from file:
     /storage/coda1/p-amedford6/0/shared/rich_project_chbe-medford/medford-share/data/pseudos_module/espresso/nninc/pbe/van/N.UPF
     MD5 check sum: 90d10febe142ad51ac9d5be1deb811c4
     Pseudo is Ultrasoft, Zval =  5.0
     Generated by new atomic code, or converted to UPF format
     Using radial grid of  729 points,  4 beta functions with:
                l(1) =   0
                l(2) =   0
                l(3) =   1
                l(4) =   1
     Q(r) pseudized with  8 coefficients,  rinner =    0.800   0.800   0.800

     PseudoPot. # 4 for C  read from file:
     /storage/coda1/p-amedford6/0/shared/rich_project_chbe-medford/medford-share/data/pseudos_module/espresso/nninc/pbe/van/C.UPF
     MD5 check sum: 1a69bf6b8db32088f5b2163dbdb77a27
     Pseudo is Ultrasoft, Zval =  4.0
     Generated by new atomic code, or converted to UPF format
     Using radial grid of  721 points,  4 beta functions with:
                l(1) =   0
                l(2) =   0
                l(3) =   1
                l(4) =   1
     Q(r) pseudized with  8 coefficients,  rinner =    0.800   0.800   0.800

     PseudoPot. # 5 for H  read from file:
     /storage/coda1/p-amedford6/0/shared/rich_project_chbe-medford/medford-share/data/pseudos_module/espresso/nninc/pbe/van/H.UPF
     MD5 check sum: b5ee9d7bfd3a09ee7748110bda690ff7
     Pseudo is Ultrasoft, Zval =  1.0
     Generated by new atomic code, or converted to UPF format
     Using radial grid of  615 points,  1 beta functions with:
                l(1) =   0
     Q(r) pseudized with  8 coefficients,  rinner =    0.800

     atomic species   valence    mass     pseudopotential
        Ti1           12.00    47.86700     Ti( 1.00)
        O1             6.00    15.99900     O ( 1.00)
        N1             5.00    14.00700     N ( 1.00)
        C1             4.00    12.01100     C ( 1.00)
        H1             1.00     1.00800     H ( 1.00)

     Starting magnetic structure
     atomic species   magnetization
        Ti1          0.000
        O1           0.000
        N1           0.000
        C1           0.025
        H1           0.000

     No symmetry found

   Cartesian axes

     site n.     atom                  positions (alat units)
         1           Ti1 tau(   1) = (   0.0004258   2.9801865   6.0000000  )
         2           Ti1 tau(   2) = (   3.2906075   1.4906267   6.0002472  )
         3           O1  tau(   3) = (   0.0006271   0.0005054   7.9858123  )
         4           O1  tau(   4) = (   3.2906025   0.0005020   7.3038282  )
         5           O1  tau(   5) = (   4.5942328   1.4918067   9.2879030  )
         6           O1  tau(   6) = (   1.9868534   1.4903216   9.2879459  )
         7           Ti1 tau(   7) = (   3.2907910   2.8959150   9.1758416  )
         8           Ti1 tau(   8) = (   0.0015273   1.4827037   9.2680791  )
         9           O1  tau(   9) = (   3.3020592   5.9599881  11.3075072  )
        10           O1  tau(  10) = (   0.0116148   5.9584955  10.6183126  )
        11           O1  tau(  11) = (   1.3218652   1.4872367  12.6142461  )
        12           O1  tau(  12) = (   5.3149618   1.4866655  12.6283206  )
        13           Ti1 tau(  13) = (   6.5343381   3.0098038  12.6530281  )
        14           Ti1 tau(  14) = (   3.2132235   1.4912063  12.4551521  )
        15           O1  tau(  15) = (   0.0515422   5.9562953  14.6829507  )
        16           O1  tau(  16) = (   3.3088797   0.0214154  13.8770011  )
        17           O1  tau(  17) = (   4.5726725   1.5412406  16.1224456  )
        18           O1  tau(  18) = (   2.0900022   1.5114086  15.9969863  )
        19           Ti1 tau(  19) = (   3.3311046   3.0200058  15.6476981  )
        20           Ti1 tau(  20) = (   0.0790784   1.4105808  15.8036947  )
        21           O1  tau(  21) = (   3.2904802   0.0005063   4.7018136  )
        22           O1  tau(  22) = (   0.0613336   0.0214447  17.2555488  )
        23           O1  tau(  23) = (   1.3043587   1.4918075   6.0039043  )
        24           O1  tau(  24) = (   5.2767064   1.4903225   6.0039473  )
        25           Ti1 tau(  25) = (   0.0000382   5.9609847   6.0000000  )
        26           Ti1 tau(  26) = (   3.2902200   4.4714249   6.0002472  )
        27           O1  tau(  27) = (   0.0002396   2.9813036   7.9858123  )
        28           O1  tau(  28) = (   3.2902150   2.9813002   7.3038282  )
        29           O1  tau(  29) = (   4.5938453   4.4726049   9.2879030  )
        30           O1  tau(  30) = (   1.9864658   4.4711199   9.2879459  )
        31           Ti1 tau(  31) = (   3.2891106   5.8743827   9.1763621  )
        32           Ti1 tau(  32) = (   0.0006254   4.4649316   9.2693709  )
        33           O1  tau(  33) = (   3.3026341   2.9893090  11.3092672  )
        34           O1  tau(  34) = (   0.0092240   2.9805883  10.6323155  )
        35           O1  tau(  35) = (   1.3182942   4.4670451  12.6271195  )
        36           O1  tau(  36) = (   5.3124783   4.4780259  12.6376329  )
        37           Ti1 tau(  37) = (   6.5365500   0.0194685  12.5464133  )
        38           Ti1 tau(  38) = (   3.2155898   4.4753301  12.4613306  )
        39           O1  tau(  39) = (   0.0167368   2.9407051  14.7244952  )
        40           O1  tau(  40) = (   3.3149560   2.9822459  13.8616979  )
        41           O1  tau(  41) = (   4.5706274   4.5128733  15.9228735  )
        42           O1  tau(  42) = (   2.1262058   4.4922812  16.0793225  )
        43           Ti1 tau(  43) = (   3.3222298   0.0210159  15.6751784  )
        44           Ti1 tau(  44) = (   6.5499002   4.5104744  16.2959303  )
        45           O1  tau(  45) = (   3.2900926   2.9813045   4.7018136  )
        46           O1  tau(  46) = (   1.3039711   4.4726057   6.0039043  )
        47           O1  tau(  47) = (   5.2763189   4.4711207   6.0039473  )
        48           N1  tau(  48) = (   0.3735289   2.9861087  17.6038306  )
        49           C1  tau(  49) = (   1.3580301   2.7301661  18.6431808  )
        50           H1  tau(  50) = (   1.5128655   3.6233449  19.2741712  )
        51           H1  tau(  51) = (   1.0354786   1.8978442  19.2795547  )
        52           H1  tau(  52) = (   2.3065860   2.4473273  18.1987077  )
        53           N1  tau(  53) = (   5.7326324   3.4596218  18.1373629  )
        54           H1  tau(  54) = (   5.8436824   4.0267099  18.9748678  )
        55           H1  tau(  55) = (   5.0375616   2.7244768  18.2555579  )

     number of k points=    10  Fermi-Dirac smearing, width (Ry)=  0.0073
                       cart. coord. in units 2pi/alat
        k(    1) = (   0.0000000   0.0000000   0.0000000), wk =   0.0625000
        k(    2) = (   0.0000000   0.0419351   0.0000000), wk =   0.1250000
        k(    3) = (   0.0000000  -0.0838702   0.0000000), wk =   0.0625000
        k(    4) = (   0.0379955   0.0000049   0.0000000), wk =   0.1250000
        k(    5) = (   0.0379955   0.0419400   0.0000000), wk =   0.1250000
        k(    6) = (   0.0379955  -0.0838652   0.0000000), wk =   0.1250000
[...]
     %                                                                      %
     % You are using vdW-DF, which was implemented by the Thonhauser group. %
     % Please cite the following two papers that made this development      %
     % possible and the two reviews that describe the various versions:     %
     %                                                                      %
     %   T. Thonhauser et al., PRL 115, 136402 (2015).                      %
     %   T. Thonhauser et al., PRB 76, 125112 (2007).                       %
     %   K. Berland et al., Rep. Prog. Phys. 78, 066501 (2015).             %
     %   D.C. Langreth et al., J. Phys.: Condens. Matter 21, 084203 (2009). %
     %                                                                      %
     %                                                                      %
     % If you are calculating the stress with vdW-DF, please also cite:     %
     %                                                                      %
     %   R. Sabatini et al., J. Phys.: Condens. Matter 24, 424209 (2012).   %
     %                                                                      %
     %%%%%%%%%%%%%%%%%%%%%%%%%%%%%%%%%%%%%%%%%%%%%%%%%%%%%%%%%%%%%%%%%%%%%%%%

     Adding external electric field

     Computed dipole along edir(3) :
        Dipole               -9.2590 Ry au,        -23.5340 Debye
        Dipole field         -0.0175 Ry au,

        Potential amp.        1.6197 Ry
        Total length         46.3494 bohr

[...]

     Starting wfcs are  301 atomic wfcs
  @ DRIVER MODE: Message from server: STATUS
  @ DRIVER MODE: Message from server: POSDATA
  @ DRIVER MODE: Reading and sharing cell
  @ DRIVER MODE: Reading and sharing positions
  @ DRIVER MODE: Received positions

     Self-consistent Calculation

     iteration #  1     ecut=    29.40 Ry     beta= 0.05
     Davidson diagonalization with overlap
     c_bands:  1 eigenvalues not converged
     c_bands:  2 eigenvalues not converged
     c_bands:  1 eigenvalues not converged
     c_bands:  2 eigenvalues not converged
     c_bands:  2 eigenvalues not converged
     c_bands:  2 eigenvalues not converged
     c_bands:  2 eigenvalues not converged
     c_bands:  1 eigenvalues not converged
     c_bands:  4 eigenvalues not converged
     c_bands:  1 eigenvalues not converged
     c_bands:  2 eigenvalues not converged
     c_bands:  1 eigenvalues not converged
     c_bands:  2 eigenvalues not converged
     c_bands:  2 eigenvalues not converged
     c_bands:  2 eigenvalues not converged
     c_bands:  2 eigenvalues not converged
     c_bands:  1 eigenvalues not converged
     c_bands:  4 eigenvalues not converged
     ethr =  1.00E-05,  avg # of iterations = 19.8

[...]

     total energy              =   -2525.30475900 Ry
     estimated scf accuracy    <    4616.24103758 Ry

     total magnetization       =     0.00 Bohr mag/cell
     absolute magnetization    =     0.03 Bohr mag/cell

     iteration #  2     ecut=    29.40 Ry     beta= 0.05
     Davidson diagonalization with overlap
     ethr =  1.00E-02,  avg # of iterations = 24.1

[...]

     iteration # 61     ecut=    29.40 Ry     beta= 0.05
     Davidson diagonalization with overlap
     c_bands:  1 eigenvalues not converged
     ethr =  2.25E-09,  avg # of iterations = 10.1

[...]

     total energy              =   -2941.63805787 Ry
     estimated scf accuracy    <       0.00000012 Ry

[...]

     iteration # 77     ecut=    29.40 Ry     beta= 0.05
     Davidson diagonalization with overlap
     ethr =  2.86E-11,  avg # of iterations =  5.5

     negative rho (up, down):  8.389E-03 8.389E-03

[...]

     Adding external electric field

     Computed dipole along edir(3) :
        Dipole                1.1473 Ry au,          2.9162 Debye
        Dipole field          0.0022 Ry au,

        Potential amp.       -0.2007 Ry
        Total length         46.3494 bohr

     Magnetic moment per site  (integrated on atomic sphere of radius R)
     atom   1 (R=0.726)  charge=  7.9409  magn= -0.0017
     atom   2 (R=0.726)  charge=  7.9244  magn=  0.0001
     atom   3 (R=0.726)  charge=  4.9318  magn=  0.0001
     atom   4 (R=0.726)  charge=  4.9681  magn= -0.0000
     atom   5 (R=0.726)  charge=  4.9367  magn= -0.0000
     atom   6 (R=0.726)  charge=  4.9376  magn= -0.0000
     atom   7 (R=0.726)  charge=  7.9229  magn=  0.0000
     atom   8 (R=0.726)  charge=  7.9151  magn= -0.0002
     atom   9 (R=0.726)  charge=  4.9562  magn= -0.0001
     atom  10 (R=0.726)  charge=  4.9310  magn= -0.0000
     atom  11 (R=0.726)  charge=  4.9387  magn= -0.0001
     atom  12 (R=0.726)  charge=  4.9369  magn= -0.0000
     atom  13 (R=0.726)  charge=  7.9089  magn=  0.0000
     atom  14 (R=0.726)  charge=  7.9274  magn=  0.0001
     atom  15 (R=0.726)  charge=  4.9164  magn= -0.0000
     atom  16 (R=0.726)  charge=  4.9542  magn= -0.0000
     atom  17 (R=0.726)  charge=  4.9068  magn= -0.0000
     atom  18 (R=0.726)  charge=  4.9387  magn= -0.0000
     atom  19 (R=0.726)  charge=  7.9528  magn=  0.0001
     atom  20 (R=0.726)  charge=  7.9411  magn=  0.0000
     atom  21 (R=0.726)  charge=  4.8211  magn= -0.0002
     atom  22 (R=0.726)  charge=  4.9006  magn= -0.0000
     atom  23 (R=0.726)  charge=  4.9281  magn=  0.0002
     atom  24 (R=0.726)  charge=  4.9282  magn=  0.0002
     atom  25 (R=0.726)  charge=  7.9408  magn= -0.0017
     atom  26 (R=0.726)  charge=  7.9244  magn=  0.0001
     atom  27 (R=0.726)  charge=  4.9305  magn=  0.0001
     atom  28 (R=0.726)  charge=  4.9683  magn= -0.0000
     atom  29 (R=0.726)  charge=  4.9375  magn= -0.0000
     atom  30 (R=0.726)  charge=  4.9382  magn= -0.0000
     atom  31 (R=0.726)  charge=  7.9236  magn=  0.0000
     atom  32 (R=0.726)  charge=  7.9154  magn= -0.0002
     atom  33 (R=0.726)  charge=  4.9540  magn= -0.0001
     atom  34 (R=0.726)  charge=  4.9049  magn= -0.0000
     atom  35 (R=0.726)  charge=  4.9378  magn= -0.0001
     atom  36 (R=0.726)  charge=  4.9369  magn= -0.0000
     atom  37 (R=0.726)  charge=  7.9159  magn=  0.0000
     atom  38 (R=0.726)  charge=  7.9271  magn=  0.0001
     atom  39 (R=0.726)  charge=  4.9088  magn= -0.0000
     atom  40 (R=0.726)  charge=  4.9620  magn= -0.0000
     atom  41 (R=0.726)  charge=  4.9463  magn= -0.0000
     atom  42 (R=0.726)  charge=  4.9157  magn= -0.0000
     atom  43 (R=0.726)  charge=  7.9491  magn=  0.0001
     atom  44 (R=0.726)  charge=  7.9600  magn=  0.0000
     atom  45 (R=0.726)  charge=  4.8212  magn= -0.0003
     atom  46 (R=0.726)  charge=  4.9281  magn=  0.0002
     atom  47 (R=0.726)  charge=  4.9282  magn=  0.0002
     atom  48 (R=0.420)  charge=  1.3151  magn= -0.0000
     atom  49 (R=0.448)  charge=  0.8396  magn=  0.0000
     atom  50 (R=0.420)  charge=  0.4384  magn= -0.0000
     atom  51 (R=0.420)  charge=  0.4407  magn= -0.0000
     atom  52 (R=0.420)  charge=  0.4485  magn= -0.0000
     atom  53 (R=0.420)  charge=  1.3378  magn=  0.0000
     atom  54 (R=0.420)  charge=  0.4533  magn= -0.0000
     atom  55 (R=0.420)  charge=  0.4498  magn= -0.0000

     End of self-consistent calculation

 ------ SPIN UP ------------

          k = 0.0000 0.0000 0.0000 ( 18029 PWs)   bands (ev):

   -55.5747 -55.5694 -55.5369 -55.5354 -55.4612 -55.4239 -55.4235 -55.3880
   -55.3709 -55.3368 -55.3277 -55.2939 -55.0321 -54.8752 -54.5383 -54.5043
   -32.1367 -32.0514 -31.9590 -31.8921 -31.8883 -31.8722 -31.8616 -31.8200
   -31.8099 -31.8060 -31.7845 -31.7593 -31.7549 -31.7266 -31.7211 -31.7158
   -31.6734 -31.6603 -31.6586 -31.6492 -31.6484 -31.6261 -31.6136 -31.5965
   -31.5708 -31.5677 -31.5669 -31.5584 -31.5576 -31.5312 -31.5069 -31.5048
   -31.4954 -31.4922 -31.4819 -31.4741 -31.4411 -31.3063 -31.2569 -31.1553
   -31.1279 -31.0362 -30.9445 -30.8578 -30.8353 -30.7615 -30.6750 -30.5638
   -17.5819 -16.3617 -16.0490 -15.8347 -15.7260 -15.7227 -15.6383 -15.4170
   -15.2955 -15.2811 -15.1660 -15.1621 -15.1023 -15.0609 -15.0535 -15.0467
   -15.0139 -15.0027 -14.9843 -14.9487 -14.9160 -14.8979 -14.8744 -14.7726
   -14.7058 -14.6997 -14.6818 -14.6174 -14.5694 -14.2093 -13.0392 -12.9230
   -12.5324  -9.1963  -6.3460  -5.0896  -4.1914  -3.7402  -3.5506  -3.4740
    -3.4387  -3.3707  -3.3245  -3.1800  -3.1734  -2.7944  -2.7750  -2.7569
    -2.7357  -2.7323  -2.4634  -2.4104  -2.3954  -2.3923  -2.3745  -2.3575
    -2.3366  -2.3261  -2.2985  -2.2880  -2.1540  -2.1104  -2.0316  -2.0054
    -1.9900  -1.8789  -1.8535  -1.8333  -1.8216  -1.8084  -1.7789  -1.7722
    -1.7504  -1.6422  -1.5329  -1.4534  -1.4136  -1.3606  -1.3413  -1.1636
    -1.1104  -1.0509  -1.0275  -1.0029  -0.9884  -0.9548  -0.8803  -0.8562
    -0.7134  -0.6748  -0.6209  -0.5946  -0.5659  -0.5102  -0.4763  -0.4461
    -0.3506  -0.3381  -0.3268  -0.3143  -0.2584  -0.0663  -0.0182   0.0008
     0.0158   0.1150   0.1545   0.1791   0.2134   0.2699   0.2983   0.3629
     0.3915   0.4121   0.4224   0.4511   0.4677   0.5997   0.6248   0.6557
     0.7172   0.7706   0.8463   0.9588   1.0412   1.0980   1.1996   1.4177
     1.4852   1.5692   1.6786   1.7100   2.0548   2.0999   3.5653   3.6569
     3.6939   3.7073   3.8138   3.8670   4.0144   4.0241   4.0637   4.0945

[...]

          k =-0.0760-0.0000 0.0000 ( 17886 PWs)   bands (ev):

[...]

 ------ SPIN DOWN ----------

[...]

          k = 0.0380-0.0419 0.0000 ( 17876 PWs)   bands (ev):

[...]

          k =-0.0760-0.0839 0.0000 ( 17948 PWs)   bands (ev):

   -55.5607 -55.5560 -55.5549 -55.5499 -55.4498 -55.4350 -55.4092 -55.4018
   -55.3554 -55.3522 -55.3125 -55.3089 -55.0307 -54.8763 -54.5208 -54.5207
   -31.9421 -31.9317 -31.8682 -31.8675 -31.8510 -31.8501 -31.8439 -31.8274
   -31.8025 -31.7885 -31.7681 -31.7485 -31.7230 -31.7124 -31.7070 -31.6812
   -31.6801 -31.6759 -31.6746 -31.6679 -31.6661 -31.6534 -31.6499 -31.6470
   -31.6263 -31.6133 -31.6029 -31.6020 -31.5531 -31.5510 -31.5452 -31.5429
   -31.5345 -31.5312 -31.5274 -31.5256 -31.4119 -31.3173 -31.2587 -31.2165
   -31.1332 -31.0473 -30.8477 -30.8476 -30.7568 -30.7567 -30.7179 -30.7178
   -17.5700 -15.8217 -15.7818 -15.5268 -15.5180 -15.5152 -15.4754 -15.3515
   -15.3027 -15.2769 -15.2659 -15.2473 -15.2388 -15.1376 -15.1235 -15.1073
   -15.0969 -15.0700 -15.0271 -15.0220 -15.0130 -15.0036 -14.9920 -14.9254
   -14.8733 -14.8694 -14.7552 -14.6637 -14.5231 -14.4341 -13.0258 -13.0258
   -12.5515  -9.1573  -6.3050  -5.1189  -4.1256  -3.3928  -3.1222  -3.0747
    -2.7868  -2.7674  -2.7520  -2.6385  -2.5193  -2.5099  -2.4841  -2.4625
    -2.4280  -2.4153  -2.4051  -2.3970  -2.3789  -2.3609  -2.3501  -2.3103
    -2.2418  -2.2339  -2.2256  -2.2174  -2.2006  -2.1770  -2.1662  -2.1391
    -2.1145  -2.0797  -2.0207  -1.9897  -1.8402  -1.7963  -1.7349  -1.6963
    -1.6877  -1.6587  -1.6251  -1.6177  -1.5067  -1.4922  -1.4588  -1.3285
    -1.2681  -1.2600  -1.2275  -1.1399  -1.1011  -0.9723  -0.9587  -0.9217
    -0.8664  -0.8587  -0.8214  -0.7834  -0.7326  -0.6804  -0.6370  -0.6141
    -0.5956  -0.5243  -0.5238  -0.4770  -0.4204  -0.3503  -0.3271  -0.3197
    -0.2871  -0.2436  -0.1964  -0.1332  -0.0578  -0.0386  -0.0235   0.0755
     0.1488   0.3676   0.4148   0.5116   0.5336   0.5612   0.6213   0.6710
     0.7400   0.7549   0.7832   0.8568   0.8789   0.9706   0.9820   0.9991
     1.1767   1.6453   1.8498   1.8507   1.9188   1.9191   3.8576   3.8735
     3.8979   3.9215   4.0821   4.0860   4.0990   4.1017   4.2222   4.2532

     the Fermi energy is     3.5634 ev

!    total energy              =   -2941.63806629 Ry
     estimated scf accuracy    <       0.00000007 Ry
     smearing contrib. (-TS)   =      -0.02171666 Ry
     internal energy E=F+TS    =   -2941.61634963 Ry

     The total energy is F=E-TS. E is the sum of the following terms:
     one-electron contribution =  -24387.58467735 Ry
     hartree contribution      =   12285.74471397 Ry
     xc contribution           =    -486.93699518 Ry
     ewald contribution        =    9647.15812478 Ry
     electric field correction =       0.00248415 Ry

     total magnetization       =    -0.01 Bohr mag/cell
     absolute magnetization    =     0.01 Bohr mag/cell

     convergence has been achieved in  77 iterations

     Forces acting on atoms (cartesian axes, Ry/au):

     atom    1 type  1   force =    -0.00001106   -0.00019401    0.09686398
     atom    2 type  1   force =     0.00009027   -0.00068639   -0.17461972
     atom    3 type  2   force =     0.00018306   -0.00005935   -0.02512338
     atom    4 type  2   force =     0.00000791   -0.00124862    0.05118788
     atom    5 type  2   force =    -0.01127766   -0.00080141    0.00227687
     atom    6 type  2   force =     0.01311631   -0.00035321    0.00272196
     atom    7 type  1   force =     0.00100479    0.00021191   -0.01339295
     atom    8 type  1   force =    -0.00009849    0.01533414    0.02827265
     atom    9 type  2   force =    -0.00007211   -0.00001289    0.00008611
     atom   10 type  2   force =    -0.00234134    0.00080748   -0.01059093
     atom   11 type  2   force =     0.00035614    0.00005201   -0.00001652
     atom   12 type  2   force =    -0.00043337   -0.00006993    0.00025279
     atom   13 type  1   force =     0.00014787   -0.00018376   -0.00007289
     atom   14 type  1   force =     0.00010620   -0.00022098    0.00003633
     atom   15 type  2   force =    -0.00005072    0.00024668   -0.00008801
     atom   16 type  2   force =    -0.00019970    0.00003757   -0.00019987
     atom   17 type  2   force =    -0.00011297    0.00007759   -0.00005399
     atom   18 type  2   force =    -0.00015850    0.00002891   -0.00015391
     atom   19 type  1   force =    -0.00031985    0.00025690    0.00008409
     atom   20 type  1   force =     0.00004877   -0.00060774    0.00014203
     atom   21 type  2   force =     0.00003619   -0.00009125    0.10301071
     atom   22 type  2   force =    -0.00008945    0.00033705    0.00038641
     atom   23 type  2   force =    -0.07179219   -0.00020952   -0.02779072
     atom   24 type  2   force =     0.07175124    0.00024694   -0.02785520
     atom   25 type  1   force =     0.00003418   -0.00025879    0.09646920
     atom   26 type  1   force =    -0.00000483   -0.00029850   -0.17488392
     atom   27 type  2   force =     0.00019240   -0.00025832   -0.02398259
     atom   28 type  2   force =     0.00005285   -0.00100571    0.05145774
     atom   29 type  2   force =    -0.01130703    0.00078759    0.00169027
     atom   30 type  2   force =     0.01299511    0.00111418    0.00208946
     atom   31 type  1   force =     0.00103821    0.00256815   -0.01541231
     atom   32 type  1   force =     0.00005664   -0.01662800    0.02915022
     atom   33 type  2   force =     0.00011663    0.00003029   -0.00012670
     atom   34 type  2   force =    -0.00271134    0.00093360   -0.01869477
     atom   35 type  2   force =     0.00017539   -0.00007226   -0.00008977
     atom   36 type  2   force =    -0.00037783   -0.00007079    0.00013157
     atom   37 type  1   force =    -0.00011167   -0.00019219    0.00013218
     atom   38 type  1   force =     0.00007720    0.00008844   -0.00005430
     atom   39 type  2   force =    -0.00003306    0.00043597    0.00001373
     atom   40 type  2   force =    -0.00038090    0.00014793   -0.00014855
     atom   41 type  2   force =     0.00010120   -0.00001007   -0.00013695
     atom   42 type  2   force =     0.00002314    0.00021166   -0.00003171
     atom   43 type  1   force =     0.00015975   -0.00003999   -0.00009821
     atom   44 type  1   force =    -0.00028475   -0.00032443   -0.00032847
     atom   45 type  2   force =     0.00005359   -0.00011024    0.10300628
     atom   46 type  2   force =    -0.07181563   -0.00016177   -0.02781574
     atom   47 type  2   force =     0.07175708    0.00022518   -0.02785904
     atom   48 type  3   force =    -0.00032831    0.00043684    0.00157308
     atom   49 type  4   force =     0.00058785    0.00354401    0.00414455
     atom   50 type  5   force =    -0.00117388   -0.00417362   -0.00470900
     atom   51 type  5   force =    -0.00053164   -0.00058090   -0.00062854
     atom   52 type  5   force =     0.00082797    0.00017017    0.00038763
     atom   53 type  3   force =     0.00073567    0.00041848   -0.00012124
     atom   54 type  5   force =     0.00039974   -0.00013194    0.00106518
     atom   55 type  5   force =    -0.00021509    0.00030689   -0.00155300

     Total force =     0.367336     Total SCF correction =     0.000525
  @ DRIVER MODE: Message from server: STATUS
  @ DRIVER MODE: Message from server: GETFORCE
  @ DRIVER MODE: Returning v,forces,stress,ensemble

     Writing output data file ./calc.save/
  @ DRIVER MODE: Message from server: EXIT
  @ DRIVE MODE: Exiting

     General routines

     Parallel routines

   This run was terminated on:   5:13:45  16Jul2021

   JOB DONE.