     Program PWSCF v.6.7GPU starts on 15Sep2021 at 16:13: 3

     R & G space division:  proc/nbgrp/npool/nimage =      10
     Reading input from /storage/home/hcoda1/3/ntian30/research/carbon/CxH_vib/H2O_calc/ads_slab/CH2NHHH2O_a/out_0002/pw.inp
Warning: card &CELL ignored
Warning: card   CELL_DYNAMICS='IPI', ignored
Warning: card / ignored

     Current dimensions of program PWSCF are:
     Max number of different atomic species (ntypx) = 10
     Max number of k-points (npk) =  40000
     Max angular momentum in pseudopotentials (lmaxx) =  3
     Presently no symmetry can be used with electric field

     Message from routine cell_base_init:
     DEPRECATED: use true lattice parameter, not A to a.u. conversion factor

     IMPORTANT: XC functional enforced from input :
     Exchange-correlation= BEEF-VDW
                           (   1   4  43  14   2   0   0)
     Any further DFT definition will be discarded
     Please, verify this is what you really want

  @ DRIVER MODE: Connecting to
 qe_1139763_2852609.sched-torque.pace.gatech.edutcdzzzdc_scratch
  using UNIX socket
  @ DRIVER MODE: Message from server: STATUS
  @ DRIVER MODE: Message from server: INIT
  @ DRIVER MODE: Receiving replica           0          -1
  @ DRIVER MODE: Receiving encoded integer          25
  @ DRIVER MODE:  SCF:  T  FORCE:  T  STRESS:  F  VC:  F  ENSEMBLE:  F
  @ DRIVER MODE:  SCF:  T  FORCE:  T  STRESS:  F  VC:  F  ENSEMBLE:  F

     Using Slab Decomposition

     bravais-lattice index     =            0
     lattice parameter (alat)  =       1.8897  a.u.
     unit-cell volume          =    6658.9804 (a.u.)^3
     number of atoms/cell      =           56
     number of atomic types    =            5
     number of electrons       =       399.00
     number of Kohn-Sham states=          209
     kinetic-energy cutoff     =      29.3995  Ry
     charge density cutoff     =     293.9946  Ry
     scf convergence threshold =      7.3E-08
     mixing beta               =       0.0500
     number of iterations used =            8  plain     mixing
     Exchange-correlation= BEEF-VDW
                           (   1   4  43  14   2   0   0)

     celldm(1)=   1.889726  celldm(2)=   0.000000  celldm(3)=   0.000000
     celldm(4)=   0.000000  celldm(5)=   0.000000  celldm(6)=   0.000000

     crystal axes: (cart. coord. in units of alat)
               a(1) = (   6.579727   0.000000   0.000000 )
               a(2) = (  -0.000775   5.961596   0.000000 )
               a(3) = (   0.000000   0.000000  25.155947 )

     reciprocal axes: (cart. coord. in units 2 pi/alat)
               b(1) = (  0.151982  0.000020  0.000000 )
               b(2) = (  0.000000  0.167740  0.000000 )
               b(3) = (  0.000000  0.000000  0.039752 )

     PseudoPot. # 1 for Ti read from file:
     /storage/coda1/p-amedford6/0/shared/rich_project_chbe-medford/medford-share/data/pseudos_module/espresso/nninc/pbe/van/Ti.UPF
     MD5 check sum: 8e4df49b7f0d34bbd5052bf3f5ea0213
     Pseudo is Ultrasoft, Zval = 12.0
     Generated by new atomic code, or converted to UPF format
     Using radial grid of  851 points,  6 beta functions with:
                l(1) =   0
                l(2) =   0
                l(3) =   1
                l(4) =   1
                l(5) =   2
                l(6) =   2
     Q(r) pseudized with  8 coefficients,  rinner =    1.000   1.000   1.000
                                                       1.000   1.000

     PseudoPot. # 2 for O  read from file:
     /storage/coda1/p-amedford6/0/shared/rich_project_chbe-medford/medford-share/data/pseudos_module/espresso/nninc/pbe/van/O.UPF
     MD5 check sum: 78c19812648e8988a0fe644b0f25305e
     Pseudo is Ultrasoft, Zval =  6.0
     Generated by new atomic code, or converted to UPF format
     Using radial grid of  737 points,  4 beta functions with:
                l(1) =   0
                l(2) =   0
                l(3) =   1
                l(4) =   1
     Q(r) pseudized with  8 coefficients,  rinner =    0.800   0.800   0.800

     PseudoPot. # 3 for N  read from file:
     /storage/coda1/p-amedford6/0/shared/rich_project_chbe-medford/medford-share/data/pseudos_module/espresso/nninc/pbe/van/N.UPF
     MD5 check sum: 90d10febe142ad51ac9d5be1deb811c4
     Pseudo is Ultrasoft, Zval =  5.0
     Generated by new atomic code, or converted to UPF format
     Using radial grid of  729 points,  4 beta functions with:
                l(1) =   0
                l(2) =   0
                l(3) =   1
                l(4) =   1
     Q(r) pseudized with  8 coefficients,  rinner =    0.800   0.800   0.800

     PseudoPot. # 4 for C  read from file:
     /storage/coda1/p-amedford6/0/shared/rich_project_chbe-medford/medford-share/data/pseudos_module/espresso/nninc/pbe/van/C.UPF
     MD5 check sum: 1a69bf6b8db32088f5b2163dbdb77a27
     Pseudo is Ultrasoft, Zval =  4.0
     Generated by new atomic code, or converted to UPF format
     Using radial grid of  721 points,  4 beta functions with:
                l(1) =   0
                l(2) =   0
                l(3) =   1
                l(4) =   1
     Q(r) pseudized with  8 coefficients,  rinner =    0.800   0.800   0.800

     PseudoPot. # 5 for H  read from file:
     /storage/coda1/p-amedford6/0/shared/rich_project_chbe-medford/medford-share/data/pseudos_module/espresso/nninc/pbe/van/H.UPF
     MD5 check sum: b5ee9d7bfd3a09ee7748110bda690ff7
     Pseudo is Ultrasoft, Zval =  1.0
     Generated by new atomic code, or converted to UPF format
     Using radial grid of  615 points,  1 beta functions with:
                l(1) =   0
     Q(r) pseudized with  8 coefficients,  rinner =    0.800

     atomic species   valence    mass     pseudopotential
        Ti1           12.00    47.86700     Ti( 1.00)
        O1             6.00    15.99900     O ( 1.00)
        N1             5.00    14.00700     N ( 1.00)
        C1             4.00    12.01100     C ( 1.00)
        H1             1.00     1.00800     H ( 1.00)

     No symmetry found

   Cartesian axes

     site n.     atom                  positions (alat units)
         1           Ti1 tau(   1) = (   0.0004258   2.9801865   6.0000000  )
         2           Ti1 tau(   2) = (   3.2906075   1.4906267   6.0002472  )
         3           O1  tau(   3) = (   0.0006271   0.0005054   7.9858123  )
         4           O1  tau(   4) = (   3.2906025   0.0005020   7.3038282  )
         5           O1  tau(   5) = (   4.5942328   1.4918067   9.2879030  )
         6           O1  tau(   6) = (   1.9868534   1.4903216   9.2879459  )
         7           Ti1 tau(   7) = (   3.2907910   2.8959150   9.1758416  )
         8           Ti1 tau(   8) = (   0.0015273   1.4827037   9.2680791  )
         9           O1  tau(   9) = (   3.2861202   0.0128588  11.3777969  )
        10           O1  tau(  10) = (   0.0116148   5.9584955  10.6183126  )
        11           O1  tau(  11) = (   1.2831632   1.4993340  12.6921085  )
        12           O1  tau(  12) = (   5.2921761   1.5015178  12.6679780  )
        13           Ti1 tau(  13) = (   0.0111066   2.9912061  12.5123142  )
        14           Ti1 tau(  14) = (   3.3187119   1.4875497  12.5412637  )
        15           O1  tau(  15) = (   6.5416963   5.9006142  14.6662030  )
        16           O1  tau(  16) = (   3.3066524   0.0016155  14.0179881  )
        17           O1  tau(  17) = (   4.5377470   1.5714702  16.1207712  )
        18           O1  tau(  18) = (   1.9925948   1.5577299  16.0387284  )
        19           Ti1 tau(  19) = (   3.2598466   3.0207798  15.7337896  )
        20           Ti1 tau(  20) = (   0.0086319   1.3133152  15.8444473  )
        21           O1  tau(  21) = (   3.2904802   0.0005063   4.7018136  )
        22           O1  tau(  22) = (   6.5660721   0.1678205  17.2271563  )
        23           O1  tau(  23) = (   1.3043587   1.4918075   6.0039043  )
        24           O1  tau(  24) = (   5.2767064   1.4903225   6.0039473  )
        25           Ti1 tau(  25) = (   0.0000382   5.9609847   6.0000000  )
        26           Ti1 tau(  26) = (   3.2902200   4.4714249   6.0002472  )
        27           O1  tau(  27) = (   0.0002396   2.9813036   7.9858123  )
        28           O1  tau(  28) = (   3.2902150   2.9813002   7.3038282  )
        29           O1  tau(  29) = (   4.5938453   4.4726049   9.2879030  )
        30           O1  tau(  30) = (   1.9864658   4.4711199   9.2879459  )
        31           Ti1 tau(  31) = (   3.2891106   5.8743827   9.1763621  )
        32           Ti1 tau(  32) = (   0.0006254   4.4649316   9.2693709  )
        33           O1  tau(  33) = (   3.2870289   2.9785969  11.3746142  )
        34           O1  tau(  34) = (   0.0092240   2.9805883  10.6323155  )
        35           O1  tau(  35) = (   1.2865429   4.4729593  12.6568099  )
        36           O1  tau(  36) = (   5.2907978   4.4713399  12.6331247  )
        37           Ti1 tau(  37) = (   0.0245089   0.0029545  12.5000319  )
        38           Ti1 tau(  38) = (   3.3192338   4.4773935  12.5310228  )
        39           O1  tau(  39) = (   6.5398775   3.0461246  14.9162120  )
        40           O1  tau(  40) = (   3.2968145   3.0151409  13.9465962  )
        41           O1  tau(  41) = (   4.5189833   4.4812017  16.2068643  )
        42           O1  tau(  42) = (   1.9905864   4.4756957  16.1679402  )
        43           Ti1 tau(  43) = (   3.3140030   0.0507474  15.8534526  )
        44           Ti1 tau(  44) = (   0.0184218   4.5194176  15.9927436  )
        45           O1  tau(  45) = (   3.2900926   2.9813045   4.7018136  )
        46           O1  tau(  46) = (   1.3039711   4.4726057   6.0039043  )
        47           O1  tau(  47) = (   5.2763189   4.4711207   6.0039473  )
        48           N1  tau(  48) = (   6.3008993   3.4294391  18.1752670  )
        49           C1  tau(  49) = (   0.7550536   3.1452864  19.0745941  )
        50           H1  tau(  50) = (   1.1396299   3.9643166  19.6610198  )
        51           H1  tau(  51) = (   1.3301158   2.2513941  18.9084762  )
        52           H1  tau(  52) = (   5.7550451   4.2450011  18.4501662  )
        53           H1  tau(  53) = (   5.6463078   2.6497838  18.0429669  )
        54           O1  tau(  54) = (   3.1180431   0.1968263  18.2683150  )
        55           H1  tau(  55) = (   3.8687171   5.7182160  18.6922429  )
        56           H1  tau(  56) = (   2.3371514   5.6040609  18.4451484  )

     number of k points=    10  Fermi-Dirac smearing, width (Ry)=  0.0073
                       cart. coord. in units 2pi/alat
        k(    1) = (   0.0000000   0.0000000   0.0000000), wk =   0.1250000
        k(    2) = (   0.0000000   0.0419351   0.0000000), wk =   0.2500000
        k(    3) = (   0.0000000  -0.0838702   0.0000000), wk =   0.1250000
        k(    4) = (   0.0379955   0.0000049   0.0000000), wk =   0.2500000
        k(    5) = (   0.0379955   0.0419400   0.0000000), wk =   0.2500000
        k(    6) = (   0.0379955  -0.0838652   0.0000000), wk =   0.2500000
        k(    7) = (   0.0379955  -0.0419301   0.0000000), wk =   0.2500000
        k(    8) = (  -0.0759910  -0.0000099   0.0000000), wk =   0.1250000
        k(    9) = (  -0.0759910   0.0419252   0.0000000), wk =   0.2500000
        k(   10) = (  -0.0759910  -0.0838800   0.0000000), wk =   0.1250000

     Initial potential from superposition of free atoms

     starting charge  382.99914, renormalised to  399.00000

     negative rho (up, down):  1.614E-02 0.000E+00

     %%%%%%%%%%%%%%%%%%%%%%%%%%%%%%%%%%%%%%%%%%%%%%%%%%%%%%%%%%%%%%%%%%%%%%%%
     %                                                                      %
     % You are using vdW-DF, which was implemented by the Thonhauser group. %
     % Please cite the following two papers that made this development      %
     % possible and the two reviews that describe the various versions:     %
     %                                                                      %
     %   T. Thonhauser et al., PRL 115, 136402 (2015).                      %
     %   T. Thonhauser et al., PRB 76, 125112 (2007).                       %
     %   K. Berland et al., Rep. Prog. Phys. 78, 066501 (2015).             %
     %   D.C. Langreth et al., J. Phys.: Condens. Matter 21, 084203 (2009). %
     %                                                                      %
     %                                                                      %
     % If you are calculating the stress with vdW-DF, please also cite:     %
     %                                                                      %
     %   R. Sabatini et al., J. Phys.: Condens. Matter 24, 424209 (2012).   %
     %                                                                      %
     %%%%%%%%%%%%%%%%%%%%%%%%%%%%%%%%%%%%%%%%%%%%%%%%%%%%%%%%%%%%%%%%%%%%%%%%

     Adding external electric field

     Computed dipole along edir(3) :
        Dipole              -11.3169 Ry au,        -28.7647 Debye
        Dipole field         -0.0214 Ry au,

        Potential amp.        1.9797 Ry
        Total length         46.3494 bohr

     Starting wfcs are  302 atomic wfcs
  @ DRIVER MODE: Message from server: STATUS
  @ DRIVER MODE: Message from server: POSDATA
  @ DRIVER MODE: Reading and sharing cell
  @ DRIVER MODE: Reading and sharing positions
  @ DRIVER MODE: Received positions

     Self-consistent Calculation

     iteration #  1     ecut=    29.40 Ry     beta= 0.05
     Davidson diagonalization with overlap
     c_bands:  3 eigenvalues not converged
     c_bands:  3 eigenvalues not converged
     c_bands:  1 eigenvalues not converged
     c_bands:  4 eigenvalues not converged
     c_bands:  1 eigenvalues not converged
     c_bands:  1 eigenvalues not converged
     c_bands:  1 eigenvalues not converged
     c_bands:  2 eigenvalues not converged
     c_bands:  3 eigenvalues not converged
     ethr =  1.00E-05,  avg # of iterations = 24.0

[...]

     total energy              =   -2437.57731801 Ry
     estimated scf accuracy    <    5825.79709881 Ry

     iteration #  2     ecut=    29.40 Ry     beta= 0.05
     Davidson diagonalization with overlap
     ethr =  1.00E-02,  avg # of iterations = 27.9

[...]

     iteration # 81     ecut=    29.40 Ry     beta= 0.05
     Davidson diagonalization with overlap
     c_bands:  1 eigenvalues not converged
     ethr =  7.50E-11,  avg # of iterations = 17.2

[...]

     total energy              =   -2955.08667065 Ry
     estimated scf accuracy    <       0.00000011 Ry

     iteration # 84     ecut=    29.40 Ry     beta= 0.05
     Davidson diagonalization with overlap
     ethr =  2.71E-11,  avg # of iterations =  4.9

     negative rho (up, down):  1.530E-02 0.000E+00

     Adding external electric field

     Computed dipole along edir(3) :
        Dipole                0.9627 Ry au,          2.4470 Debye
        Dipole field          0.0018 Ry au,

        Potential amp.       -0.1684 Ry
        Total length         46.3494 bohr

     End of self-consistent calculation

          k = 0.0000 0.0000 0.0000 ( 18029 PWs)   bands (ev):

   -55.5403 -55.5068 -55.5037 -55.4865 -55.4727 -55.4242 -55.3878 -55.3683
   -55.3520 -55.3387 -55.3335 -55.3052 -55.2929 -55.1105 -54.5326 -54.4986
   -32.0962 -31.9988 -31.9124 -31.8980 -31.8720 -31.8572 -31.8435 -31.8389
   -31.7959 -31.7611 -31.7549 -31.7517 -31.7422 -31.7178 -31.7120 -31.6912
   -31.6817 -31.6790 -31.6674 -31.6591 -31.6378 -31.6203 -31.6032 -31.5971
   -31.5680 -31.5640 -31.5586 -31.5568 -31.5545 -31.5421 -31.5325 -31.5258
   -31.5217 -31.5165 -31.5064 -31.4940 -31.4821 -31.4667 -31.4644 -31.4497
   -31.3363 -31.2914 -30.9419 -30.8481 -30.8260 -30.7583 -30.6715 -30.5606
   -19.2392 -16.4110 -16.3167 -16.0863 -15.9217 -15.8411 -15.7440 -15.6032
   -15.5320 -15.4213 -15.3851 -15.2263 -15.2021 -15.1957 -15.1603 -15.1445
   -15.1039 -15.0856 -15.0567 -15.0450 -15.0435 -15.0216 -14.9851 -14.9812
   -14.9387 -14.9257 -14.8683 -14.7703 -14.7024 -14.6384 -14.3256 -13.0352
   -12.9178  -9.2236  -7.0117  -6.5160  -4.6397  -3.7142  -3.5839  -3.5587
    -3.5012  -3.4452  -3.4045  -3.2969  -3.0671  -3.0236  -2.9757  -2.9254
    -2.8082  -2.7370  -2.7328  -2.6538  -2.5784  -2.5358  -2.4818  -2.4735
    -2.3950  -2.3617  -2.3439  -2.3198  -2.2786  -2.2488  -2.2072  -2.1158
    -2.0965  -2.0252  -1.9877  -1.9428  -1.9393  -1.8916  -1.8735  -1.8350
    -1.8338  -1.8249  -1.8048  -1.7659  -1.7232  -1.6682  -1.5765  -1.5550
    -1.3834  -1.2720  -1.2075  -1.1797  -1.1270  -1.0953  -1.0298  -0.9816
    -0.9677  -0.9313  -0.8644  -0.7620  -0.6963  -0.6843  -0.6237  -0.5322
    -0.4746  -0.4378  -0.3543  -0.3283  -0.3096  -0.3044  -0.2401  -0.1729
    -0.1260  -0.0525  -0.0362   0.0199   0.0423   0.0920   0.1234   0.1898
     0.2459   0.2860   0.3378   0.3923   0.3938   0.4089   0.4438   0.4454
     0.5456   0.5575   0.5797   0.6805   0.7793   0.9669   1.0656   1.1003
     1.3981   1.4136   1.4901   1.6745   2.0657   2.1138   3.5196   3.5509
     3.6348   3.6902   3.6991   3.7285   3.7856   4.0388   4.0504   4.0724
     4.0854

[...]

          k = 0.0380-0.0419 0.0000 ( 17876 PWs)   bands (ev):

[...]

          k =-0.0760-0.0000 0.0000 ( 17886 PWs)   bands (ev):

[...]

          k =-0.0760-0.0839 0.0000 ( 17948 PWs)   bands (ev):

   -55.5258 -55.5180 -55.4897 -55.4896 -55.4842 -55.4119 -55.4001 -55.3540
   -55.3536 -55.3476 -55.3223 -55.3218 -55.2911 -55.1123 -54.5157 -54.5154
   -31.9079 -31.8956 -31.8140 -31.8139 -31.7976 -31.7967 -31.7846 -31.7813
   -31.7812 -31.7652 -31.7535 -31.7463 -31.7291 -31.7116 -31.6924 -31.6861
   -31.6830 -31.6809 -31.6763 -31.6696 -31.6669 -31.6578 -31.6293 -31.6283
   -31.6094 -31.6092 -31.6064 -31.5968 -31.5857 -31.5774 -31.5670 -31.5613
   -31.5520 -31.5511 -31.5492 -31.5397 -31.5102 -31.5019 -31.5013 -31.4787
   -31.3750 -31.3392 -30.8387 -30.8385 -30.7545 -30.7543 -30.7150 -30.7148
   -19.2384 -16.3514 -15.8812 -15.7825 -15.6522 -15.5692 -15.5466 -15.4734
   -15.4156 -15.3817 -15.3260 -15.3024 -15.2888 -15.2734 -15.2383 -15.2137
   -15.1936 -15.1494 -15.1319 -15.1138 -15.0827 -15.0573 -15.0463 -15.0411
   -15.0354 -15.0009 -14.9965 -14.9112 -14.9018 -14.8984 -14.5675 -13.0194
   -13.0192  -9.2228  -7.0417  -6.4570  -4.6229  -3.5498  -3.0928  -3.0458
    -2.9901  -2.8518  -2.7919  -2.7265  -2.6896  -2.6474  -2.5968  -2.5641
    -2.5460  -2.4957  -2.4888  -2.4229  -2.4071  -2.3914  -2.3722  -2.3685
    -2.3603  -2.3230  -2.2891  -2.2745  -2.2679  -2.2582  -2.2446  -2.1977
    -2.1825  -2.1511  -2.1415  -2.1078  -2.0791  -2.0484  -1.9377  -1.9045
    -1.8786  -1.8212  -1.7502  -1.7445  -1.6631  -1.6413  -1.5852  -1.5815
    -1.5629  -1.5245  -1.3982  -1.2896  -1.2782  -1.2274  -1.1948  -1.1710
    -1.1079  -1.0574  -1.0026  -1.0001  -0.9107  -0.8630  -0.8363  -0.7342
    -0.7041  -0.6966  -0.5795  -0.5544  -0.5164  -0.5047  -0.4984  -0.4391
    -0.4316  -0.4078  -0.3254  -0.3064  -0.2793  -0.2677  -0.2054  -0.0455
    -0.0142   0.0302   0.1580   0.1974   0.3602   0.3917   0.4239   0.5295
     0.5751   0.6221   0.6268   0.7499   0.7598   0.8471   0.8583   0.8763
     0.9122   0.9239   1.8469   1.8483   1.9338   1.9339   3.5387   3.7780
     3.8453   3.8521   3.8900   4.0261   4.0699   4.1288   4.1320   4.1416
     4.1603

     the Fermi energy is     3.6071 ev

!    total energy              =   -2955.08667833 Ry
     estimated scf accuracy    <       0.00000007 Ry
     smearing contrib. (-TS)   =      -0.04077000 Ry
     internal energy E=F+TS    =   -2955.04590833 Ry

     The total energy is F=E-TS. E is the sum of the following terms:
     one-electron contribution =  -23873.44220089 Ry
     hartree contribution      =   12028.92542356 Ry
     xc contribution           =    -489.73130422 Ry
     ewald contribution        =    9379.20042411 Ry
     electric field correction =       0.00174911 Ry

     convergence has been achieved in  84 iterations

     Forces acting on atoms (cartesian axes, Ry/au):

     atom    1 type  1   force =    -0.00001649   -0.00025620    0.09336606
     atom    2 type  1   force =    -0.00016044   -0.00039708   -0.17807041
     atom    3 type  2   force =     0.00001246   -0.00034820   -0.02033280
     atom    4 type  2   force =    -0.00003553   -0.00190266    0.05857877
     atom    5 type  2   force =    -0.01017958   -0.00085283    0.00746419
     atom    6 type  2   force =     0.01152006   -0.00017928    0.00626533
     atom    7 type  1   force =    -0.00076579    0.00202756   -0.01054431
     atom    8 type  1   force =     0.00031985    0.00072723   -0.00334380
     atom    9 type  2   force =     0.00024500    0.00042875    0.00014708
     atom   10 type  2   force =    -0.00108349    0.00267418   -0.00406731
     atom   11 type  2   force =    -0.00025544    0.00005873    0.00001627
     atom   12 type  2   force =    -0.00005071   -0.00003207    0.00012855
     atom   13 type  1   force =     0.00074854    0.00072233    0.00040654
     atom   14 type  1   force =    -0.00094286   -0.00010116   -0.00011778
     atom   15 type  2   force =    -0.00006214   -0.00017612    0.00055416
     atom   16 type  2   force =     0.00032581    0.00054289    0.00010792
     atom   17 type  2   force =     0.00017182   -0.00022200    0.00038544
     atom   18 type  2   force =     0.00064214    0.00023047    0.00013009
     atom   19 type  1   force =    -0.00085779   -0.00077939   -0.00006372
     atom   20 type  1   force =     0.00023850   -0.00058445   -0.00045406
     atom   21 type  2   force =     0.00002128   -0.00011645    0.10387969
     atom   22 type  2   force =    -0.00002046   -0.00129630    0.00071585
     atom   23 type  2   force =    -0.07054880   -0.00021615   -0.02693837
     atom   24 type  2   force =     0.07036779    0.00022340   -0.02698094
     atom   25 type  1   force =     0.00003725   -0.00021237    0.09296215
     atom   26 type  1   force =    -0.00024422   -0.00043965   -0.17804621
     atom   27 type  2   force =     0.00006929   -0.00024568   -0.01930694
     atom   28 type  2   force =     0.00002386   -0.00162495    0.05767197
     atom   29 type  2   force =    -0.01076348   -0.00046703    0.00809312
     atom   30 type  2   force =     0.01198015   -0.00007533    0.00685256
     atom   31 type  1   force =    -0.00064049    0.00608790   -0.01378309
     atom   32 type  1   force =     0.00027455   -0.00084611   -0.00338885
     atom   33 type  2   force =     0.00014265    0.00006656    0.00000744
     atom   34 type  2   force =    -0.00051207   -0.00107063   -0.00266457
     atom   35 type  2   force =    -0.00040464    0.00005958    0.00004631
     atom   36 type  2   force =     0.00003940    0.00001326    0.00026559
     atom   37 type  1   force =     0.00082572   -0.00081513    0.00027198
     atom   38 type  1   force =    -0.00088462    0.00032463   -0.00055460
     atom   39 type  2   force =    -0.00025730   -0.00016248   -0.00008254
     atom   40 type  2   force =     0.00032923    0.00015646    0.00047274
     atom   41 type  2   force =     0.00045850   -0.00045059    0.00031853
     atom   42 type  2   force =     0.00047222   -0.00015743   -0.00036704
     atom   43 type  1   force =    -0.00115778    0.00017178    0.00025304
     atom   44 type  1   force =     0.00146892   -0.00028090   -0.00102768
     atom   45 type  2   force =     0.00000785   -0.00012110    0.10388694
     atom   46 type  2   force =    -0.07054415   -0.00016755   -0.02691441
     atom   47 type  2   force =     0.07037281    0.00027159   -0.02698544
     atom   48 type  3   force =    -0.01984994    0.00121779   -0.00381462
     atom   49 type  4   force =     0.00747578   -0.00010305    0.00483211
     atom   50 type  5   force =    -0.00008836   -0.00113263   -0.00021199
     atom   51 type  5   force =     0.00064662   -0.00003944    0.00083491
     atom   52 type  5   force =     0.00595122   -0.00540767   -0.00223252
     atom   53 type  5   force =     0.00645374    0.00518053    0.00105983
     atom   54 type  2   force =    -0.00003118    0.00017543    0.00032522
     atom   55 type  5   force =    -0.00063532   -0.00021333   -0.00012269
     atom   56 type  5   force =    -0.00064994    0.00013236    0.00011631

     Total force =     0.366635     Total SCF correction =     0.000669
  @ DRIVER MODE: Message from server: STATUS
  @ DRIVER MODE: Message from server: GETFORCE
  @ DRIVER MODE: Returning v,forces,stress,ensemble

     Writing output data file ./calc.save/
  @ DRIVER MODE: Message from server: EXIT
  @ DRIVE MODE: Exiting

     General routines

     Parallel routines

   This run was terminated on:  16:34:33  15Sep2021

   JOB DONE.