     Program PWSCF v.6.7GPU starts on 16Sep2021 at  0:23:33

     R & G space division:  proc/nbgrp/npool/nimage =      10
     Reading input from /storage/home/hcoda1/3/ntian30/research/carbon/CxH_vib/H2O_calc/ads_slab/CH2OHH2O_a/out_0028/pw.inp
Warning: card &CELL ignored
Warning: card   CELL_DYNAMICS='IPI', ignored
Warning: card / ignored

     Current dimensions of program PWSCF are:
     Max number of different atomic species (ntypx) = 10
     Max number of k-points (npk) =  40000
     Max angular momentum in pseudopotentials (lmaxx) =  3
     Presently no symmetry can be used with electric field

     Message from routine cell_base_init:
     DEPRECATED: use true lattice parameter, not A to a.u. conversion factor

     IMPORTANT: XC functional enforced from input :
     Exchange-correlation= BEEF-VDW
                           (   1   4  43  14   2   0   0)
     Any further DFT definition will be discarded
     Please, verify this is what you really want

  @ DRIVER MODE: Connecting to
 qe_1139763_2852615.sched-torque.pace.gatech.edu1v09xe5k_scratch
  using UNIX socket
  @ DRIVER MODE: Message from server: STATUS
  @ DRIVER MODE: Message from server: INIT
  @ DRIVER MODE: Receiving replica           0          -1
  @ DRIVER MODE: Receiving encoded integer          25
  @ DRIVER MODE:  SCF:  T  FORCE:  T  STRESS:  F  VC:  F  ENSEMBLE:  F
  @ DRIVER MODE:  SCF:  T  FORCE:  T  STRESS:  F  VC:  F  ENSEMBLE:  F

     Using Slab Decomposition

     bravais-lattice index     =            0
     lattice parameter (alat)  =       1.8897  a.u.
     unit-cell volume          =    6658.9804 (a.u.)^3
     number of atoms/cell      =           55
     number of atomic types    =            4
     number of electrons       =       399.00
     number of Kohn-Sham states=          209
     kinetic-energy cutoff     =      29.3995  Ry
     charge density cutoff     =     293.9946  Ry
     scf convergence threshold =      7.3E-08
     mixing beta               =       0.0500
     number of iterations used =            8  plain     mixing
     Exchange-correlation= BEEF-VDW
                           (   1   4  43  14   2   0   0)

     celldm(1)=   1.889726  celldm(2)=   0.000000  celldm(3)=   0.000000
     celldm(4)=   0.000000  celldm(5)=   0.000000  celldm(6)=   0.000000

     crystal axes: (cart. coord. in units of alat)
               a(1) = (   6.579727   0.000000   0.000000 )
               a(2) = (  -0.000775   5.961596   0.000000 )
               a(3) = (   0.000000   0.000000  25.155947 )

     reciprocal axes: (cart. coord. in units 2 pi/alat)
               b(1) = (  0.151982  0.000020  0.000000 )
               b(2) = (  0.000000  0.167740  0.000000 )
               b(3) = (  0.000000  0.000000  0.039752 )

     PseudoPot. # 1 for Ti read from file:
     /storage/coda1/p-amedford6/0/shared/rich_project_chbe-medford/medford-share/data/pseudos_module/espresso/nninc/pbe/van/Ti.UPF
     MD5 check sum: 8e4df49b7f0d34bbd5052bf3f5ea0213
     Pseudo is Ultrasoft, Zval = 12.0
     Generated by new atomic code, or converted to UPF format
     Using radial grid of  851 points,  6 beta functions with:
                l(1) =   0
                l(2) =   0
                l(3) =   1
                l(4) =   1
                l(5) =   2
                l(6) =   2
     Q(r) pseudized with  8 coefficients,  rinner =    1.000   1.000   1.000
                                                       1.000   1.000

     PseudoPot. # 2 for O  read from file:
     /storage/coda1/p-amedford6/0/shared/rich_project_chbe-medford/medford-share/data/pseudos_module/espresso/nninc/pbe/van/O.UPF
     MD5 check sum: 78c19812648e8988a0fe644b0f25305e
     Pseudo is Ultrasoft, Zval =  6.0
     Generated by new atomic code, or converted to UPF format
     Using radial grid of  737 points,  4 beta functions with:
                l(1) =   0
                l(2) =   0
                l(3) =   1
                l(4) =   1
     Q(r) pseudized with  8 coefficients,  rinner =    0.800   0.800   0.800

     PseudoPot. # 3 for C  read from file:
     /storage/coda1/p-amedford6/0/shared/rich_project_chbe-medford/medford-share/data/pseudos_module/espresso/nninc/pbe/van/C.UPF
     MD5 check sum: 1a69bf6b8db32088f5b2163dbdb77a27
     Pseudo is Ultrasoft, Zval =  4.0
     Generated by new atomic code, or converted to UPF format
     Using radial grid of  721 points,  4 beta functions with:
                l(1) =   0
                l(2) =   0
                l(3) =   1
                l(4) =   1
     Q(r) pseudized with  8 coefficients,  rinner =    0.800   0.800   0.800

     PseudoPot. # 4 for H  read from file:
     /storage/coda1/p-amedford6/0/shared/rich_project_chbe-medford/medford-share/data/pseudos_module/espresso/nninc/pbe/van/H.UPF
     MD5 check sum: b5ee9d7bfd3a09ee7748110bda690ff7
     Pseudo is Ultrasoft, Zval =  1.0
     Generated by new atomic code, or converted to UPF format
     Using radial grid of  615 points,  1 beta functions with:
                l(1) =   0
     Q(r) pseudized with  8 coefficients,  rinner =    0.800

     atomic species   valence    mass     pseudopotential
        Ti1           12.00    47.86700     Ti( 1.00)
        O1             6.00    15.99900     O ( 1.00)
        C1             4.00    12.01100     C ( 1.00)
        H1             1.00     1.00800     H ( 1.00)

     No symmetry found

   Cartesian axes

     site n.     atom                  positions (alat units)
         1           Ti1 tau(   1) = (   0.0004258   2.9801865   6.0000000  )
         2           Ti1 tau(   2) = (   3.2906075   1.4906267   6.0002472  )
         3           O1  tau(   3) = (   0.0006271   0.0005054   7.9858123  )
         4           O1  tau(   4) = (   3.2906025   0.0005020   7.3038282  )
         5           O1  tau(   5) = (   4.5942328   1.4918067   9.2879030  )
         6           O1  tau(   6) = (   1.9868534   1.4903216   9.2879459  )
         7           Ti1 tau(   7) = (   3.2434587   3.0186650   9.1693953  )
         8           Ti1 tau(   8) = (   6.5248695   1.5265067   9.2859949  )
         9           O1  tau(   9) = (   3.3238096   0.0077392  11.3399147  )
        10           O1  tau(  10) = (   0.0083103   0.0007143  10.5763085  )
        11           O1  tau(  11) = (   1.3076427   1.5153157  12.5877682  )
        12           O1  tau(  12) = (   5.3324098   1.4751673  12.6362968  )
        13           Ti1 tau(  13) = (   0.0822926   2.9518924  12.6100891  )
        14           Ti1 tau(  14) = (   3.3652580   1.6116561  12.6031695  )
        15           O1  tau(  15) = (   0.1623142   0.0003102  14.6136642  )
        16           O1  tau(  16) = (   3.2083997   0.0016335  13.9229753  )
        17           O1  tau(  17) = (   4.6427586   1.3635169  15.8692112  )
        18           O1  tau(  18) = (   2.0707938   1.5934636  16.1317492  )
        19           Ti1 tau(  19) = (   3.4055461   2.9583945  15.9219660  )
        20           Ti1 tau(  20) = (   0.0529163   1.3399360  15.9091509  )
        21           O1  tau(  21) = (   3.2904802   0.0005063   4.7018136  )
        22           O1  tau(  22) = (   0.1143047   5.9459637  17.1421970  )
        23           O1  tau(  23) = (   1.3043587   1.4918075   6.0039043  )
        24           O1  tau(  24) = (   5.2767064   1.4903225   6.0039473  )
        25           Ti1 tau(  25) = (   0.0000382   5.9609847   6.0000000  )
        26           Ti1 tau(  26) = (   3.2902200   4.4714249   6.0002472  )
        27           O1  tau(  27) = (   0.0002396   2.9813036   7.9858123  )
        28           O1  tau(  28) = (   3.2902150   2.9813002   7.3038282  )
        29           O1  tau(  29) = (   4.5938453   4.4726049   9.2879030  )
        30           O1  tau(  30) = (   1.9864658   4.4711199   9.2879459  )
        31           Ti1 tau(  31) = (   3.2519499   0.0415563   9.1803751  )
        32           Ti1 tau(  32) = (   6.5223785   4.4699269   9.2708698  )
        33           O1  tau(  33) = (   3.3249262   3.0006027  11.3427062  )
        34           O1  tau(  34) = (   6.5728067   2.9803724  10.5910131  )
        35           O1  tau(  35) = (   1.3048910   4.4590737  12.5876729  )
        36           O1  tau(  36) = (   5.3248012   4.5079456  12.6396186  )
        37           Ti1 tau(  37) = (   0.0305998   5.9348532  12.4502240  )
        38           Ti1 tau(  38) = (   3.3518916   4.5407868  12.4757475  )
        39           O1  tau(  39) = (   0.0741357   2.9755951  14.7167286  )
        40           O1  tau(  40) = (   3.3703583   2.9475192  13.9294239  )
        41           O1  tau(  41) = (   4.6408928   4.5782690  15.8216857  )
        42           O1  tau(  42) = (   2.0743197   4.3710070  16.0958311  )
        43           Ti1 tau(  43) = (   3.3271525   5.9323444  15.7323421  )
        44           Ti1 tau(  44) = (   0.0603002   4.5335970  15.7939964  )
        45           O1  tau(  45) = (   3.2900926   2.9813045   4.7018136  )
        46           O1  tau(  46) = (   1.3039711   4.4726057   6.0039043  )
        47           O1  tau(  47) = (   5.2763189   4.4711207   6.0039473  )
        48           C1  tau(  48) = (   4.5917920   3.0228413  17.9030398  )
        49           O1  tau(  49) = (   6.0625861   3.0006587  17.4562122  )
        50           H1  tau(  50) = (   0.0503952   3.1075262  18.2373115  )
        51           H1  tau(  51) = (   4.5265887   2.1706275  18.5876854  )
        52           H1  tau(  52) = (   4.4781653   3.9649082  18.4551422  )
        53           O1  tau(  53) = (   2.8659371   5.8926936  18.2031264  )
        54           H1  tau(  54) = (   3.0528466   0.8172038  18.5446680  )
        55           H1  tau(  55) = (   1.8959954   5.8777970  18.0521013  )

     number of k points=    10  Fermi-Dirac smearing, width (Ry)=  0.0073
                       cart. coord. in units 2pi/alat
        k(    1) = (   0.0000000   0.0000000   0.0000000), wk =   0.1250000
        k(    2) = (   0.0000000   0.0419351   0.0000000), wk =   0.2500000
        k(    3) = (   0.0000000  -0.0838702   0.0000000), wk =   0.1250000
        k(    4) = (   0.0379955   0.0000049   0.0000000), wk =   0.2500000
        k(    5) = (   0.0379955   0.0419400   0.0000000), wk =   0.2500000
        k(    6) = (   0.0379955  -0.0838652   0.0000000), wk =   0.2500000
        k(    7) = (   0.0379955  -0.0419301   0.0000000), wk =   0.2500000
        k(    8) = (  -0.0759910  -0.0000099   0.0000000), wk =   0.1250000
        k(    9) = (  -0.0759910   0.0419252   0.0000000), wk =   0.2500000
        k(   10) = (  -0.0759910  -0.0838800   0.0000000), wk =   0.1250000

     Initial potential from superposition of free atoms

     starting charge  382.99916, renormalised to  399.00000

     negative rho (up, down):  1.858E-02 0.000E+00

     %%%%%%%%%%%%%%%%%%%%%%%%%%%%%%%%%%%%%%%%%%%%%%%%%%%%%%%%%%%%%%%%%%%%%%%%
     %                                                                      %
     % You are using vdW-DF, which was implemented by the Thonhauser group. %
     % Please cite the following two papers that made this development      %
     % possible and the two reviews that describe the various versions:     %
     %                                                                      %
     %   T. Thonhauser et al., PRL 115, 136402 (2015).                      %
     %   T. Thonhauser et al., PRB 76, 125112 (2007).                       %
     %   K. Berland et al., Rep. Prog. Phys. 78, 066501 (2015).             %
     %   D.C. Langreth et al., J. Phys.: Condens. Matter 21, 084203 (2009). %
     %                                                                      %
     %                                                                      %
     % If you are calculating the stress with vdW-DF, please also cite:     %
     %                                                                      %
     %   R. Sabatini et al., J. Phys.: Condens. Matter 24, 424209 (2012).   %
     %                                                                      %
     %%%%%%%%%%%%%%%%%%%%%%%%%%%%%%%%%%%%%%%%%%%%%%%%%%%%%%%%%%%%%%%%%%%%%%%%

     Adding external electric field

     Computed dipole along edir(3) :
        Dipole               -9.7304 Ry au,        -24.7321 Debye
        Dipole field         -0.0184 Ry au,

        Potential amp.        1.7022 Ry
        Total length         46.3494 bohr

     Starting wfcs are  301 atomic wfcs
  @ DRIVER MODE: Message from server: STATUS
  @ DRIVER MODE: Message from server: POSDATA
  @ DRIVER MODE: Reading and sharing cell
  @ DRIVER MODE: Reading and sharing positions
  @ DRIVER MODE: Received positions

     Self-consistent Calculation

     iteration #  1     ecut=    29.40 Ry     beta= 0.05
     Davidson diagonalization with overlap
     c_bands:  1 eigenvalues not converged
     c_bands:  2 eigenvalues not converged
     c_bands:  3 eigenvalues not converged
     c_bands:  5 eigenvalues not converged
     c_bands:  3 eigenvalues not converged
     c_bands:  2 eigenvalues not converged
     c_bands:  3 eigenvalues not converged
     c_bands:  2 eigenvalues not converged
     ethr =  1.00E-05,  avg # of iterations = 19.8

[...]

     total energy              =   -2478.53708259 Ry
     estimated scf accuracy    <    5415.87168670 Ry

     iteration #  2     ecut=    29.40 Ry     beta= 0.05
     Davidson diagonalization with overlap
     ethr =  1.00E-02,  avg # of iterations = 24.2

[...]

     iteration # 66     ecut=    29.40 Ry     beta= 0.05
     Davidson diagonalization with overlap
     c_bands:  2 eigenvalues not converged
     c_bands:  1 eigenvalues not converged
     ethr =  5.35E-11,  avg # of iterations = 15.6

[...]

     total energy              =   -2966.15814681 Ry
     estimated scf accuracy    <       0.00000009 Ry

     iteration # 68     ecut=    29.40 Ry     beta= 0.05
     Davidson diagonalization with overlap
     ethr =  2.29E-11,  avg # of iterations = 12.0

     negative rho (up, down):  1.797E-02 0.000E+00

     Adding external electric field

     Computed dipole along edir(3) :
        Dipole                1.0026 Ry au,          2.5483 Debye
        Dipole field          0.0019 Ry au,

        Potential amp.       -0.1754 Ry
        Total length         46.3494 bohr

     End of self-consistent calculation

          k = 0.0000 0.0000 0.0000 ( 18029 PWs)   bands (ev):

   -55.6900 -55.6535 -55.5823 -55.5740 -55.5175 -55.5153 -55.5095 -55.5066
   -55.4788 -55.4616 -55.4544 -55.4435 -55.4281 -55.3382 -54.6595 -54.6255
   -32.1800 -32.1661 -32.0557 -32.0261 -32.0038 -31.9773 -31.9562 -31.9447
   -31.9312 -31.8715 -31.8443 -31.8375 -31.8340 -31.8249 -31.7974 -31.7881
   -31.7844 -31.7652 -31.7601 -31.7490 -31.7377 -31.7325 -31.6987 -31.6934
   -31.6909 -31.6842 -31.6787 -31.6709 -31.6656 -31.6610 -31.6534 -31.6364
   -31.6326 -31.6303 -31.6248 -31.6217 -31.6132 -31.6129 -31.5875 -31.5647
   -31.5529 -31.4248 -31.0665 -30.9780 -30.9555 -30.8833 -30.7969 -30.6856
   -19.3893 -18.7461 -16.3751 -16.1785 -15.9737 -15.8601 -15.8404 -15.6592
   -15.5353 -15.3890 -15.3368 -15.3081 -15.2869 -15.2176 -15.2108 -15.1958
   -15.1606 -15.1557 -15.1194 -15.0996 -15.0935 -15.0656 -15.0144 -14.9926
   -14.9431 -14.8828 -14.8143 -14.7941 -14.7851 -14.7098 -14.6178 -13.1599
   -13.0433  -9.4150  -6.5067  -6.2716  -4.0715  -3.8376  -3.6862  -3.6446
    -3.6123  -3.5761  -3.4154  -3.3046  -3.1247  -3.0198  -2.9536  -2.9034
    -2.8664  -2.7892  -2.7474  -2.6231  -2.5995  -2.5498  -2.5171  -2.4812
    -2.4742  -2.4530  -2.4079  -2.3900  -2.3743  -2.2179  -2.2075  -2.1740
    -2.1090  -2.0777  -2.0504  -2.0133  -1.9919  -1.9646  -1.9463  -1.9000
    -1.8815  -1.8099  -1.8017  -1.7585  -1.6909  -1.6572  -1.3940  -1.3144
    -1.2960  -1.2573  -1.1938  -1.0968  -1.0931  -1.0866  -1.0862  -1.0288
    -1.0076  -0.8636  -0.8493  -0.8344  -0.7544  -0.6753  -0.5959  -0.5593
    -0.4947  -0.4446  -0.4118  -0.3842  -0.3581  -0.3018  -0.2327  -0.2113
    -0.1403  -0.0666  -0.0334   0.0190   0.0448   0.0902   0.1200   0.1963
     0.2352   0.2691   0.2970   0.3151   0.3251   0.3685   0.3885   0.4781
     0.5552   0.5833   0.5900   0.6641   0.7907   0.8730   0.9849   1.0765
     1.2988   1.3649   1.4164   1.5498   1.5567   1.9367   1.9872   3.4514
     3.5206   3.5800   3.5805   3.6154   3.6959   3.8988   3.9462   4.0038
     4.0372

[...]

          k = 0.0380-0.0419 0.0000 ( 17876 PWs)   bands (ev):

[...]

          k =-0.0760-0.0000 0.0000 ( 17886 PWs)   bands (ev):

[...]

          k =-0.0760-0.0839 0.0000 ( 17948 PWs)   bands (ev):

   -55.6783 -55.6651 -55.5770 -55.5693 -55.5218 -55.5141 -55.5118 -55.5032
   -55.4637 -55.4605 -55.4578 -55.4468 -55.4432 -55.3397 -54.6424 -54.6424
   -32.0989 -31.9875 -31.9767 -31.9748 -31.9527 -31.9018 -31.8753 -31.8542
   -31.8472 -31.8423 -31.8393 -31.8161 -31.8150 -31.8003 -31.7990 -31.7897
   -31.7887 -31.7803 -31.7788 -31.7758 -31.7729 -31.7632 -31.7416 -31.7362
   -31.7303 -31.7184 -31.7115 -31.7048 -31.7024 -31.6881 -31.6740 -31.6663
   -31.6657 -31.6632 -31.6612 -31.6549 -31.6535 -31.6514 -31.6494 -31.6469
   -31.6289 -31.4270 -30.9683 -30.9682 -30.8797 -30.8789 -30.8403 -30.8398
   -19.3828 -18.7450 -15.9932 -15.6543 -15.6413 -15.6361 -15.6054 -15.4841
   -15.4602 -15.4378 -15.3923 -15.3620 -15.3563 -15.3331 -15.2887 -15.2322
   -15.2130 -15.2053 -15.1955 -15.1432 -15.1288 -15.1180 -15.0722 -15.0317
   -15.0292 -15.0055 -14.9792 -14.9739 -14.9734 -14.9457 -14.8783 -13.1466
   -13.1435  -9.4211  -6.5065  -6.2521  -4.0276  -3.7244  -3.1616  -3.0406
    -2.8719  -2.8492  -2.7984  -2.7765  -2.7235  -2.6551  -2.6262  -2.6147
    -2.6130  -2.5790  -2.5164  -2.4825  -2.4785  -2.4392  -2.4209  -2.4132
    -2.3928  -2.3677  -2.3431  -2.3242  -2.3180  -2.2824  -2.2700  -2.2551
    -2.2491  -2.2376  -2.2187  -2.1781  -2.0705  -1.9486  -1.9149  -1.8793
    -1.8395  -1.7806  -1.7743  -1.7604  -1.7262  -1.7254  -1.7091  -1.6308
    -1.4667  -1.4047  -1.3434  -1.3215  -1.2476  -1.2356  -1.2198  -1.1763
    -1.1358  -1.0871  -1.0412  -1.0207  -0.9655  -0.9211  -0.7919  -0.7382
    -0.6540  -0.6489  -0.6264  -0.6113  -0.5571  -0.5323  -0.5073  -0.4629
    -0.4281  -0.3846  -0.3522  -0.3435  -0.3213  -0.2601  -0.1600  -0.1112
    -0.0488  -0.0428   0.0398   0.1692   0.3546   0.3849   0.4432   0.4942
     0.5835   0.6059   0.6548   0.6745   0.7320   0.7592   0.8006   0.8607
     0.9214   0.9496   1.5159   1.7283   1.7347   1.7979   1.8073   3.7430
     3.8305   3.9230   3.9369   3.9715   3.9835   3.9891   4.0186   4.0764
     4.1134

     the Fermi energy is     3.4490 ev

!    total energy              =   -2966.15817038 Ry
     estimated scf accuracy    <       0.00000005 Ry
     smearing contrib. (-TS)   =      -0.02139572 Ry
     internal energy E=F+TS    =   -2966.13677466 Ry

     The total energy is F=E-TS. E is the sum of the following terms:
     one-electron contribution =  -24755.57688214 Ry
     hartree contribution      =   12470.30361185 Ry
     xc contribution           =    -490.95325214 Ry
     ewald contribution        =    9810.08785083 Ry
     electric field correction =       0.00189694 Ry

     convergence has been achieved in  68 iterations

     Forces acting on atoms (cartesian axes, Ry/au):

     atom    1 type  1   force =     0.00075312   -0.00017375    0.09534562
     atom    2 type  1   force =     0.00024389   -0.00220287   -0.17571105
     atom    3 type  2   force =    -0.00066071   -0.00041165   -0.03010207
     atom    4 type  2   force =    -0.00085065    0.00063298    0.05232726
     atom    5 type  2   force =    -0.01385837   -0.00099786    0.00146278
     atom    6 type  2   force =     0.01581084    0.00241173    0.00318681
     atom    7 type  1   force =     0.00033735    0.00039234   -0.00027220
     atom    8 type  1   force =    -0.00036195    0.00140613    0.00065428
     atom    9 type  2   force =     0.00011202   -0.00002114    0.00023823
     atom   10 type  2   force =     0.00017588    0.00016877   -0.00057657
     atom   11 type  2   force =    -0.00023312    0.00024697    0.00019020
     atom   12 type  2   force =    -0.00037899    0.00008828    0.00008401
     atom   13 type  1   force =     0.00022995   -0.00018049   -0.00061818
     atom   14 type  1   force =    -0.00101650    0.00001860    0.00028869
     atom   15 type  2   force =     0.00006474   -0.00111094   -0.00012890
     atom   16 type  2   force =    -0.00001200   -0.00006416   -0.00017799
     atom   17 type  2   force =    -0.00034765   -0.00032374   -0.00009496
     atom   18 type  2   force =     0.00035161   -0.00032467    0.00009295
     atom   19 type  1   force =     0.00003351    0.00035161    0.00014636
     atom   20 type  1   force =     0.00027095    0.00088356    0.00030053
     atom   21 type  2   force =     0.00014770    0.00019722    0.10304500
     atom   22 type  2   force =     0.00016178   -0.00112396    0.00017103
     atom   23 type  2   force =    -0.07129965    0.00094188   -0.02830893
     atom   24 type  2   force =     0.07135111    0.00133523   -0.02834546
     atom   25 type  1   force =     0.00022183    0.00037697    0.10642070
     atom   26 type  1   force =     0.00000024    0.00253230   -0.17559628
     atom   27 type  2   force =    -0.00037805    0.00013548   -0.02787951
     atom   28 type  2   force =    -0.00096206    0.00076483    0.05163331
     atom   29 type  2   force =    -0.01300715   -0.00123233    0.00106797
     atom   30 type  2   force =     0.01545296    0.00037136    0.00295100
     atom   31 type  1   force =     0.00051691    0.00002648   -0.00001734
     atom   32 type  1   force =    -0.00041354   -0.00140782    0.00017704
     atom   33 type  2   force =    -0.00016808   -0.00031224    0.00019701
     atom   34 type  2   force =     0.00000823    0.00010874   -0.00014227
     atom   35 type  2   force =    -0.00061819   -0.00019144    0.00066631
     atom   36 type  2   force =     0.00002913   -0.00037001    0.00024540
     atom   37 type  1   force =     0.00059879    0.00027244    0.00052821
     atom   38 type  1   force =    -0.00092284    0.00014075    0.00046817
     atom   39 type  2   force =    -0.00016844    0.00065152    0.00024870
     atom   40 type  2   force =    -0.00002476   -0.00052173   -0.00066665
     atom   41 type  2   force =     0.00118435   -0.00004148   -0.00011082
     atom   42 type  2   force =    -0.00090939   -0.00013462    0.00016313
     atom   43 type  1   force =     0.00016586   -0.00102534   -0.00005349
     atom   44 type  1   force =    -0.00034118    0.00030223   -0.00014509
     atom   45 type  2   force =     0.00012177    0.00015701    0.10331439
     atom   46 type  2   force =    -0.07122587   -0.00125847   -0.02830421
     atom   47 type  2   force =     0.07129477   -0.00086184   -0.02834348
     atom   48 type  3   force =    -0.00153123    0.00892614    0.00393688
     atom   49 type  2   force =     0.00060238   -0.00025479   -0.00015930
     atom   50 type  4   force =    -0.00004463   -0.00040369   -0.00015605
     atom   51 type  4   force =    -0.00069218    0.00054693    0.00061438
     atom   52 type  4   force =     0.00046229   -0.00965860   -0.00473584
     atom   53 type  2   force =     0.00148271   -0.00029643    0.00080175
     atom   54 type  4   force =    -0.00028278    0.00040600    0.00009461
     atom   55 type  4   force =    -0.00147673    0.00011156   -0.00041610

     Total force =     0.367677     Total SCF correction =     0.000560
  @ DRIVER MODE: Message from server: STATUS
  @ DRIVER MODE: Message from server: GETFORCE
  @ DRIVER MODE: Returning v,forces,stress,ensemble

     Writing output data file ./calc.save/
  @ DRIVER MODE: Message from server: EXIT
  @ DRIVE MODE: Exiting

     General routines

     Parallel routines

   This run was terminated on:   0:42:57  16Sep2021

   JOB DONE.