     Program PWSCF v.6.7GPU starts on 16Sep2021 at  8:13:26

     R & G space division:  proc/nbgrp/npool/nimage =      10
     Reading input from /storage/home/hcoda1/3/ntian30/research/carbon/CxH_vib/H2O_calc/ads_slab/CH2NHNH2O_a/out_0053/pw.inp
Warning: card &CELL ignored
Warning: card   CELL_DYNAMICS='IPI', ignored
Warning: card / ignored

     Current dimensions of program PWSCF are:
     Max number of different atomic species (ntypx) = 10
     Max number of k-points (npk) =  40000
     Max angular momentum in pseudopotentials (lmaxx) =  3
     Presently no symmetry can be used with electric field

     Message from routine cell_base_init:
     DEPRECATED: use true lattice parameter, not A to a.u. conversion factor

     IMPORTANT: XC functional enforced from input :
     Exchange-correlation= BEEF-VDW
                           (   1   4  43  14   2   0   0)
     Any further DFT definition will be discarded
     Please, verify this is what you really want

  @ DRIVER MODE: Connecting to
 qe_1139763_2852610.sched-torque.pace.gatech.edupfgpmn6z_scratch
  using UNIX socket
  @ DRIVER MODE: Message from server: STATUS
  @ DRIVER MODE: Message from server: INIT
  @ DRIVER MODE: Receiving replica           0          -1
  @ DRIVER MODE: Receiving encoded integer          25
  @ DRIVER MODE:  SCF:  T  FORCE:  T  STRESS:  F  VC:  F  ENSEMBLE:  F
  @ DRIVER MODE:  SCF:  T  FORCE:  T  STRESS:  F  VC:  F  ENSEMBLE:  F

     Using Slab Decomposition

     bravais-lattice index     =            0
     lattice parameter (alat)  =       1.8897  a.u.
     unit-cell volume          =    6658.9804 (a.u.)^3
     number of atoms/cell      =           56
     number of atomic types    =            5
     number of electrons       =       403.00
     number of Kohn-Sham states=          211
     kinetic-energy cutoff     =      29.3995  Ry
     charge density cutoff     =     293.9946  Ry
     scf convergence threshold =      7.3E-08
     mixing beta               =       0.0500
     number of iterations used =            8  plain     mixing
     Exchange-correlation= BEEF-VDW
                           (   1   4  43  14   2   0   0)

     celldm(1)=   1.889726  celldm(2)=   0.000000  celldm(3)=   0.000000
     celldm(4)=   0.000000  celldm(5)=   0.000000  celldm(6)=   0.000000

     crystal axes: (cart. coord. in units of alat)
               a(1) = (   6.579727   0.000000   0.000000 )
               a(2) = (  -0.000775   5.961596   0.000000 )
               a(3) = (   0.000000   0.000000  25.155947 )

     reciprocal axes: (cart. coord. in units 2 pi/alat)
               b(1) = (  0.151982  0.000020  0.000000 )
               b(2) = (  0.000000  0.167740  0.000000 )
               b(3) = (  0.000000  0.000000  0.039752 )

     PseudoPot. # 1 for Ti read from file:
     /storage/coda1/p-amedford6/0/shared/rich_project_chbe-medford/medford-share/data/pseudos_module/espresso/nninc/pbe/van/Ti.UPF
     MD5 check sum: 8e4df49b7f0d34bbd5052bf3f5ea0213
     Pseudo is Ultrasoft, Zval = 12.0
     Generated by new atomic code, or converted to UPF format
     Using radial grid of  851 points,  6 beta functions with:
                l(1) =   0
                l(2) =   0
                l(3) =   1
                l(4) =   1
                l(5) =   2
                l(6) =   2
     Q(r) pseudized with  8 coefficients,  rinner =    1.000   1.000   1.000
                                                       1.000   1.000

     PseudoPot. # 2 for O  read from file:
     /storage/coda1/p-amedford6/0/shared/rich_project_chbe-medford/medford-share/data/pseudos_module/espresso/nninc/pbe/van/O.UPF
     MD5 check sum: 78c19812648e8988a0fe644b0f25305e
     Pseudo is Ultrasoft, Zval =  6.0
     Generated by new atomic code, or converted to UPF format
     Using radial grid of  737 points,  4 beta functions with:
                l(1) =   0
                l(2) =   0
                l(3) =   1
                l(4) =   1
     Q(r) pseudized with  8 coefficients,  rinner =    0.800   0.800   0.800

     PseudoPot. # 3 for H  read from file:
     /storage/coda1/p-amedford6/0/shared/rich_project_chbe-medford/medford-share/data/pseudos_module/espresso/nninc/pbe/van/H.UPF
     MD5 check sum: b5ee9d7bfd3a09ee7748110bda690ff7
     Pseudo is Ultrasoft, Zval =  1.0
     Generated by new atomic code, or converted to UPF format
     Using radial grid of  615 points,  1 beta functions with:
                l(1) =   0
     Q(r) pseudized with  8 coefficients,  rinner =    0.800

     PseudoPot. # 4 for N  read from file:
     /storage/coda1/p-amedford6/0/shared/rich_project_chbe-medford/medford-share/data/pseudos_module/espresso/nninc/pbe/van/N.UPF
     MD5 check sum: 90d10febe142ad51ac9d5be1deb811c4
     Pseudo is Ultrasoft, Zval =  5.0
     Generated by new atomic code, or converted to UPF format
     Using radial grid of  729 points,  4 beta functions with:
                l(1) =   0
                l(2) =   0
                l(3) =   1
                l(4) =   1
     Q(r) pseudized with  8 coefficients,  rinner =    0.800   0.800   0.800

     PseudoPot. # 5 for C  read from file:
     /storage/coda1/p-amedford6/0/shared/rich_project_chbe-medford/medford-share/data/pseudos_module/espresso/nninc/pbe/van/C.UPF
     MD5 check sum: 1a69bf6b8db32088f5b2163dbdb77a27
     Pseudo is Ultrasoft, Zval =  4.0
     Generated by new atomic code, or converted to UPF format
     Using radial grid of  721 points,  4 beta functions with:
                l(1) =   0
                l(2) =   0
                l(3) =   1
                l(4) =   1
     Q(r) pseudized with  8 coefficients,  rinner =    0.800   0.800   0.800

     atomic species   valence    mass     pseudopotential
        Ti1           12.00    47.86700     Ti( 1.00)
        O1             6.00    15.99900     O ( 1.00)
        H1             1.00     1.00800     H ( 1.00)
        N1             5.00    14.00700     N ( 1.00)
        C1             4.00    12.01100     C ( 1.00)

     No symmetry found

   Cartesian axes

     site n.     atom                  positions (alat units)
         1           Ti1 tau(   1) = (   0.0004258   2.9801865   6.0000000  )
         2           Ti1 tau(   2) = (   3.2906075   1.4906267   6.0002472  )
         3           O1  tau(   3) = (   0.0006271   0.0005054   7.9858123  )
         4           O1  tau(   4) = (   3.2906025   0.0005020   7.3038282  )
         5           O1  tau(   5) = (   4.5942328   1.4918067   9.2879030  )
         6           O1  tau(   6) = (   1.9868534   1.4903216   9.2879459  )
         7           Ti1 tau(   7) = (   3.2907910   2.8959150   9.1758416  )
         8           Ti1 tau(   8) = (   0.0015273   1.4827037   9.2680791  )
         9           O1  tau(   9) = (   3.2960012   0.0062018  11.3595187  )
        10           O1  tau(  10) = (   0.0116148   5.9584955  10.6183126  )
        11           O1  tau(  11) = (   1.2731109   1.5057875  12.6314550  )
        12           O1  tau(  12) = (   5.2959999   1.4755877  12.6679080  )
        13           Ti1 tau(  13) = (   0.0553992   2.9538365  12.5526742  )
        14           Ti1 tau(  14) = (   3.3268292   1.5427496  12.5634199  )
        15           O1  tau(  15) = (   0.1371361   5.9015051  14.6217027  )
        16           O1  tau(  16) = (   3.1880369   0.0098958  13.9252199  )
        17           O1  tau(  17) = (   4.6462182   1.4014471  15.8552565  )
        18           O1  tau(  18) = (   2.0822703   1.5558083  16.1249119  )
        19           Ti1 tau(  19) = (   3.3548958   3.0525267  15.8597497  )
        20           Ti1 tau(  20) = (   0.0948755   1.3182250  15.7908873  )
        21           O1  tau(  21) = (   3.2904802   0.0005063   4.7018136  )
        22           O1  tau(  22) = (   0.0722171   0.0319689  17.1393915  )
        23           O1  tau(  23) = (   1.3043587   1.4918075   6.0039043  )
        24           O1  tau(  24) = (   5.2767064   1.4903225   6.0039473  )
        25           Ti1 tau(  25) = (   0.0000382   5.9609847   6.0000000  )
        26           Ti1 tau(  26) = (   3.2902200   4.4714249   6.0002472  )
        27           O1  tau(  27) = (   0.0002396   2.9813036   7.9858123  )
        28           O1  tau(  28) = (   3.2902150   2.9813002   7.3038282  )
        29           O1  tau(  29) = (   4.5938453   4.4726049   9.2879030  )
        30           O1  tau(  30) = (   1.9864658   4.4711199   9.2879459  )
        31           Ti1 tau(  31) = (   3.2891106   5.8743827   9.1763621  )
        32           Ti1 tau(  32) = (   0.0006254   4.4649316   9.2693709  )
        33           O1  tau(  33) = (   3.2982667   2.9897935  11.3544942  )
        34           O1  tau(  34) = (   0.0092240   2.9805883  10.6323155  )
        35           O1  tau(  35) = (   1.2737041   4.4504026  12.6113924  )
        36           O1  tau(  36) = (   5.2903739   4.4874249  12.6576873  )
        37           Ti1 tau(  37) = (   6.5697415   5.9260651  12.4959683  )
        38           Ti1 tau(  38) = (   3.3125242   4.5024033  12.5372123  )
        39           O1  tau(  39) = (   0.0674008   2.9793056  14.8363759  )
        40           O1  tau(  40) = (   3.2999477   2.9756493  13.9369993  )
        41           O1  tau(  41) = (   4.6108370   4.5787535  15.7719701  )
        42           O1  tau(  42) = (   2.0428421   4.3627697  16.1441833  )
        43           Ti1 tau(  43) = (   3.3552955   0.0804576  15.7648105  )
        44           Ti1 tau(  44) = (   6.5672415   4.5273692  15.9765751  )
        45           O1  tau(  45) = (   3.2900926   2.9813045   4.7018136  )
        46           O1  tau(  46) = (   1.3039711   4.4726057   6.0039043  )
        47           O1  tau(  47) = (   5.2763189   4.4711207   6.0039473  )
        48           H1  tau(  48) = (   4.1035413   2.4672077  18.5646977  )
        49           N1  tau(  49) = (   5.6961598   3.2907635  17.7856741  )
        50           C1  tau(  50) = (   6.4968133   2.7471819  18.6454045  )
        51           H1  tau(  51) = (   6.1325458   2.1374441  19.4677963  )
        52           H1  tau(  52) = (   0.9799315   2.9096255  18.5325614  )
        53           N1  tau(  53) = (   4.3409097   3.1788467  17.8642182  )
        54           O1  tau(  54) = (   3.3174094   5.8609012  18.0981057  )
        55           H1  tau(  55) = (   3.6736973   4.9388346  18.2201127  )
        56           H1  tau(  56) = (   2.3597147   5.7972335  18.2503650  )

     number of k points=    10  Fermi-Dirac smearing, width (Ry)=  0.0073
                       cart. coord. in units 2pi/alat
        k(    1) = (   0.0000000   0.0000000   0.0000000), wk =   0.1250000
        k(    2) = (   0.0000000   0.0419351   0.0000000), wk =   0.2500000
        k(    3) = (   0.0000000  -0.0838702   0.0000000), wk =   0.1250000
        k(    4) = (   0.0379955   0.0000049   0.0000000), wk =   0.2500000
        k(    5) = (   0.0379955   0.0419400   0.0000000), wk =   0.2500000
        k(    6) = (   0.0379955  -0.0838652   0.0000000), wk =   0.2500000
        k(    7) = (   0.0379955  -0.0419301   0.0000000), wk =   0.2500000
        k(    8) = (  -0.0759910  -0.0000099   0.0000000), wk =   0.1250000
        k(    9) = (  -0.0759910   0.0419252   0.0000000), wk =   0.2500000
        k(   10) = (  -0.0759910  -0.0838800   0.0000000), wk =   0.1250000

     Initial potential from superposition of free atoms

     starting charge  386.99914, renormalised to  403.00000

     negative rho (up, down):  1.703E-02 0.000E+00

     %%%%%%%%%%%%%%%%%%%%%%%%%%%%%%%%%%%%%%%%%%%%%%%%%%%%%%%%%%%%%%%%%%%%%%%%
     %                                                                      %
     % You are using vdW-DF, which was implemented by the Thonhauser group. %
     % Please cite the following two papers that made this development      %
     % possible and the two reviews that describe the various versions:     %
     %                                                                      %
     %   T. Thonhauser et al., PRL 115, 136402 (2015).                      %
     %   T. Thonhauser et al., PRB 76, 125112 (2007).                       %
     %   K. Berland et al., Rep. Prog. Phys. 78, 066501 (2015).             %
     %   D.C. Langreth et al., J. Phys.: Condens. Matter 21, 084203 (2009). %
     %                                                                      %
     %                                                                      %
     % If you are calculating the stress with vdW-DF, please also cite:     %
     %                                                                      %
     %   R. Sabatini et al., J. Phys.: Condens. Matter 24, 424209 (2012).   %
     %                                                                      %
     %%%%%%%%%%%%%%%%%%%%%%%%%%%%%%%%%%%%%%%%%%%%%%%%%%%%%%%%%%%%%%%%%%%%%%%%

     Adding external electric field

     Computed dipole along edir(3) :
        Dipole              -12.3729 Ry au,        -31.4487 Debye
        Dipole field         -0.0233 Ry au,

        Potential amp.        2.1644 Ry
        Total length         46.3494 bohr

     Starting wfcs are  305 atomic wfcs
  @ DRIVER MODE: Message from server: STATUS
  @ DRIVER MODE: Message from server: POSDATA
  @ DRIVER MODE: Reading and sharing cell
  @ DRIVER MODE: Reading and sharing positions
  @ DRIVER MODE: Received positions

     Self-consistent Calculation

     iteration #  1     ecut=    29.40 Ry     beta= 0.05
     Davidson diagonalization with overlap
     c_bands:  4 eigenvalues not converged
     c_bands:  3 eigenvalues not converged
     c_bands:  3 eigenvalues not converged
     c_bands:  1 eigenvalues not converged
     c_bands:  1 eigenvalues not converged
     c_bands:  4 eigenvalues not converged
     c_bands:  3 eigenvalues not converged
     ethr =  1.00E-05,  avg # of iterations = 27.4

[...]

     total energy              =   -2355.29016767 Ry
     estimated scf accuracy    <    7011.01962476 Ry

     iteration #  2     ecut=    29.40 Ry     beta= 0.05
     Davidson diagonalization with overlap
     ethr =  1.00E-02,  avg # of iterations = 24.1

[...]

     iteration # 47     ecut=    29.40 Ry     beta= 0.05
     Davidson diagonalization with overlap
     c_bands:  2 eigenvalues not converged
     c_bands:  1 eigenvalues not converged
     ethr =  1.16E-06,  avg # of iterations = 16.4

[...]

     total energy              =   -2973.97649989 Ry
     estimated scf accuracy    <       0.00000008 Ry

     iteration # 66     ecut=    29.40 Ry     beta= 0.05
     Davidson diagonalization with overlap
     ethr =  1.89E-11,  avg # of iterations = 15.0

     negative rho (up, down):  1.700E-02 0.000E+00

     Adding external electric field

     Computed dipole along edir(3) :
        Dipole                0.9044 Ry au,          2.2988 Debye
        Dipole field          0.0017 Ry au,

        Potential amp.       -0.1582 Ry
        Total length         46.3494 bohr

     End of self-consistent calculation

          k = 0.0000 0.0000 0.0000 ( 18029 PWs)   bands (ev):

   -55.6392 -55.6051 -55.5205 -55.4847 -55.4787 -55.4655 -55.4440 -55.4317
   -55.4268 -55.4093 -55.3927 -55.3917 -55.3581 -55.2414 -54.6252 -54.5911
   -32.1249 -32.0263 -31.9732 -31.9675 -31.9599 -31.9303 -31.9165 -31.8981
   -31.8848 -31.7918 -31.7854 -31.7796 -31.7520 -31.7467 -31.7415 -31.7070
   -31.6966 -31.6831 -31.6780 -31.6705 -31.6637 -31.6622 -31.6465 -31.6434
   -31.6372 -31.6274 -31.6251 -31.6210 -31.6154 -31.6096 -31.6047 -31.5952
   -31.5855 -31.5831 -31.5826 -31.5806 -31.5747 -31.5395 -31.5311 -31.5157
   -31.4422 -31.3698 -31.0321 -30.9437 -30.9213 -30.8491 -30.7626 -30.6513
   -18.4478 -17.7392 -16.3022 -16.1116 -15.8865 -15.7845 -15.7445 -15.5713
   -15.4407 -15.3978 -15.2713 -15.2059 -15.1821 -15.1633 -15.1494 -15.1169
   -15.0936 -15.0698 -15.0680 -15.0486 -15.0246 -15.0019 -14.9736 -14.9557
   -14.9131 -14.7879 -14.7800 -14.7681 -14.7304 -14.6930 -14.2944 -13.1256
   -13.0091 -12.3737  -7.9255  -6.2208  -5.4259  -4.8387  -3.6735  -3.5816
    -3.5491  -3.5261  -3.4470  -3.3274  -3.2317  -3.0372  -2.9280  -2.8981
    -2.8747  -2.7906  -2.7082  -2.6671  -2.5651  -2.5329  -2.5226  -2.4781
    -2.4231  -2.4087  -2.3779  -2.3646  -2.3286  -2.1960  -2.1773  -2.1383
    -2.0272  -2.0108  -2.0027  -1.9605  -1.9568  -1.9264  -1.9160  -1.8981
    -1.8812  -1.8693  -1.8026  -1.7199  -1.6878  -1.6387  -1.5841  -1.5802
    -1.2765  -1.2597  -1.1930  -1.1609  -1.0902  -1.0566  -1.0424  -1.0277
    -0.9958  -0.8958  -0.8064  -0.7875  -0.7244  -0.6633  -0.5646  -0.5495
    -0.4488  -0.3998  -0.3943  -0.3812  -0.3489  -0.2908  -0.2334  -0.1772
    -0.1269  -0.0444   0.0099   0.0188   0.0607   0.1045   0.1342   0.1925
     0.2548   0.2822   0.3153   0.3305   0.3718   0.4319   0.4535   0.4661
     0.5449   0.5849   0.6100   0.7079   0.7174   0.7560   0.8276   1.0125
     1.0577   1.1974   1.3360   1.3993   1.4653   1.5914   1.8686   1.9694
     2.0156   3.4509   3.5849   3.6058   3.6414   3.7132   3.7594   3.9326
     4.0284   4.0502   4.1114

[...]

          k = 0.0380-0.0419 0.0000 ( 17876 PWs)   bands (ev):

[...]

          k =-0.0760-0.0000 0.0000 ( 17886 PWs)   bands (ev):

[...]

          k =-0.0760-0.0839 0.0000 ( 17948 PWs)   bands (ev):

   -55.6221 -55.6220 -55.5057 -55.4991 -55.4634 -55.4594 -55.4486 -55.4481
   -55.4127 -55.4070 -55.4069 -55.3758 -55.3743 -55.2432 -54.6082 -54.6080
   -31.9401 -31.9401 -31.9158 -31.9157 -31.8858 -31.8495 -31.8207 -31.8024
   -31.7919 -31.7767 -31.7674 -31.7551 -31.7508 -31.7418 -31.7416 -31.7341
   -31.7336 -31.7215 -31.7186 -31.7122 -31.6860 -31.6835 -31.6783 -31.6726
   -31.6579 -31.6556 -31.6545 -31.6411 -31.6352 -31.6331 -31.6294 -31.6294
   -31.6255 -31.6226 -31.6222 -31.6176 -31.6161 -31.6049 -31.5894 -31.5385
   -31.4522 -31.4491 -30.9341 -30.9339 -30.8450 -30.8448 -30.8060 -30.8058
   -18.4405 -17.7396 -15.8530 -15.6092 -15.5955 -15.5588 -15.5400 -15.4208
   -15.3758 -15.3719 -15.3510 -15.2958 -15.2607 -15.2233 -15.1918 -15.1742
   -15.1507 -15.1394 -15.0983 -15.0947 -15.0876 -15.0657 -15.0245 -15.0136
   -14.9893 -14.9689 -14.9644 -14.9519 -14.9193 -14.7515 -14.6428 -13.1109
   -13.1107 -12.3896  -7.8854  -6.2057  -5.4844  -4.7606  -3.1466  -3.0668
    -3.0156  -2.8022  -2.7577  -2.7393  -2.7036  -2.6437  -2.5904  -2.5732
    -2.5546  -2.5264  -2.5167  -2.4644  -2.4385  -2.4125  -2.3879  -2.3722
    -2.3627  -2.3494  -2.3233  -2.3040  -2.2812  -2.2716  -2.2485  -2.2378
    -2.2158  -2.2074  -2.1934  -2.1714  -2.0830  -2.0005  -1.8990  -1.8397
    -1.7962  -1.7957  -1.7652  -1.7365  -1.7086  -1.7038  -1.6645  -1.6354
    -1.5639  -1.5047  -1.3210  -1.3073  -1.2627  -1.1784  -1.1772  -1.1300
    -1.1210  -1.0695  -1.0422  -0.9954  -0.9461  -0.9134  -0.8253  -0.6717
    -0.6231  -0.6032  -0.5974  -0.5820  -0.5412  -0.5268  -0.4749  -0.4574
    -0.4408  -0.3761  -0.3441  -0.3403  -0.2891  -0.2712  -0.1588  -0.0614
    -0.0337   0.0203   0.0598   0.1794   0.2916   0.3608   0.4618   0.4764
     0.4949   0.5483   0.6565   0.6664   0.7112   0.7735   0.8392   0.8451
     0.8753   0.9393   0.9514   0.9882   1.7622   1.7639   1.8174   1.8356
     1.8357   3.8596   3.9004   3.9509   3.9570   3.9808   4.0310   4.0383
     4.0689   4.1194   4.1354

     the Fermi energy is     3.4834 ev

!    total energy              =   -2973.97653705 Ry
     estimated scf accuracy    <       0.00000007 Ry
     smearing contrib. (-TS)   =      -0.01978190 Ry
     internal energy E=F+TS    =   -2973.95675516 Ry

     The total energy is F=E-TS. E is the sum of the following terms:
     one-electron contribution =  -24368.15390190 Ry
     hartree contribution      =   12278.60782125 Ry
     xc contribution           =    -494.13364068 Ry
     ewald contribution        =    9609.72142256 Ry
     electric field correction =       0.00154361 Ry

     convergence has been achieved in  66 iterations

     Forces acting on atoms (cartesian axes, Ry/au):

     atom    1 type  1   force =     0.00015729   -0.00031652    0.09440441
     atom    2 type  1   force =    -0.00007804   -0.00077117   -0.17587964
     atom    3 type  2   force =     0.00005808   -0.00018612   -0.02181923
     atom    4 type  2   force =     0.00003737   -0.00134250    0.05333150
     atom    5 type  2   force =    -0.00869703   -0.00018165    0.00366321
     atom    6 type  2   force =     0.01036345    0.00047066    0.00301729
     atom    7 type  1   force =    -0.00045219    0.00080748   -0.00104771
     atom    8 type  1   force =     0.00044690    0.00750866    0.00862343
     atom    9 type  2   force =     0.00046879    0.00015319    0.00007038
     atom   10 type  2   force =    -0.00262854    0.00132506   -0.01723225
     atom   11 type  2   force =    -0.00008313    0.00009310   -0.00040092
     atom   12 type  2   force =     0.00029989    0.00007535   -0.00007368
     atom   13 type  1   force =    -0.00040582   -0.00038119   -0.00021719
     atom   14 type  1   force =     0.00036263    0.00008080    0.00022882
     atom   15 type  2   force =     0.00013259   -0.00005577   -0.00026904
     atom   16 type  2   force =     0.00020259    0.00017908    0.00003544
     atom   17 type  2   force =    -0.00007468   -0.00006016    0.00004318
     atom   18 type  2   force =     0.00001877   -0.00012640   -0.00003571
     atom   19 type  1   force =    -0.00034993    0.00022886   -0.00067568
     atom   20 type  1   force =     0.00008485   -0.00009521    0.00002272
     atom   21 type  2   force =     0.00006686   -0.00000496    0.10325437
     atom   22 type  2   force =    -0.00018832   -0.00043433   -0.00004975
     atom   23 type  2   force =    -0.07155655   -0.00011563   -0.02734850
     atom   24 type  2   force =     0.07149313    0.00037277   -0.02736055
     atom   25 type  1   force =     0.00004356   -0.00020895    0.09440062
     atom   26 type  1   force =    -0.00013239   -0.00029805   -0.17599982
     atom   27 type  2   force =     0.00003598   -0.00019746   -0.02072001
     atom   28 type  2   force =     0.00009320   -0.00112715    0.05372180
     atom   29 type  2   force =    -0.00878565   -0.00002144    0.00342893
     atom   30 type  2   force =     0.01029867    0.00036612    0.00286131
     atom   31 type  1   force =    -0.00032378    0.00465834    0.00189397
     atom   32 type  1   force =     0.00042815   -0.00852224    0.00856717
     atom   33 type  2   force =    -0.00003720    0.00002685    0.00000225
     atom   34 type  2   force =    -0.00403269   -0.00113018   -0.01182794
     atom   35 type  2   force =     0.00014368    0.00007480    0.00034427
     atom   36 type  2   force =     0.00052819    0.00005759   -0.00021408
     atom   37 type  1   force =     0.00061735   -0.00020314   -0.00000783
     atom   38 type  1   force =     0.00022679   -0.00015869   -0.00009972
     atom   39 type  2   force =    -0.00012523   -0.00002558   -0.00019850
     atom   40 type  2   force =     0.00046044    0.00000477    0.00039717
     atom   41 type  2   force =    -0.00012733    0.00042035    0.00001537
     atom   42 type  2   force =     0.00012982    0.00029014   -0.00004760
     atom   43 type  1   force =     0.00006923   -0.00010726   -0.00031255
     atom   44 type  1   force =     0.00018421    0.00045409    0.00088250
     atom   45 type  2   force =     0.00005069   -0.00000103    0.10332379
     atom   46 type  2   force =    -0.07155055   -0.00004273   -0.02734192
     atom   47 type  2   force =     0.07149209    0.00035416   -0.02736509
     atom   48 type  3   force =     0.00042280   -0.00052555   -0.00067315
     atom   49 type  4   force =     0.00028453    0.00013927   -0.00044211
     atom   50 type  5   force =     0.00000009   -0.00159781   -0.00103432
     atom   51 type  3   force =    -0.00042375    0.00043436    0.00100422
     atom   52 type  3   force =    -0.00006255   -0.00025251    0.00004851
     atom   53 type  4   force =    -0.00008924    0.00016414    0.00094918
     atom   54 type  2   force =     0.00337290   -0.00017452   -0.00020760
     atom   55 type  3   force =    -0.00065264    0.00037022   -0.00048118
     atom   56 type  3   force =    -0.00221833   -0.00044433    0.00084746

     Total force =     0.363831     Total SCF correction =     0.000829
  @ DRIVER MODE: Message from server: STATUS
  @ DRIVER MODE: Message from server: GETFORCE
  @ DRIVER MODE: Returning v,forces,stress,ensemble

     Writing output data file ./calc.save/
  @ DRIVER MODE: Message from server: EXIT
  @ DRIVE MODE: Exiting

     General routines

     Parallel routines

   This run was terminated on:   8:32: 6  16Sep2021

   JOB DONE.