     Program PWSCF v.6.7GPU starts on 12Oct2021 at  9:24:16

     R & G space division:  proc/nbgrp/npool/nimage =       8
     Reading input from /storage/home/hcoda1/3/ntian30/research/carbon/ACS_vib/ads_slab/N2H/out_0002/pw.inp
Warning: card &CELL ignored
Warning: card   CELL_DYNAMICS='IPI', ignored
Warning: card / ignored

     Current dimensions of program PWSCF are:
     Max number of different atomic species (ntypx) = 10
     Max number of k-points (npk) =  40000
     Max angular momentum in pseudopotentials (lmaxx) =  3
     Presently no symmetry can be used with electric field

     Message from routine cell_base_init:
     DEPRECATED: use true lattice parameter, not A to a.u. conversion factor

     IMPORTANT: XC functional enforced from input :
     Exchange-correlation= BEEF-VDW
                           (   1   4  43  14   2   0   0)
     Any further DFT definition will be discarded
     Please, verify this is what you really want

  @ DRIVER MODE: Connecting to
 qe_1139763_3181314.sched-torque.pace.gatech.edu0xng1fxr_scratch
  using UNIX socket
  @ DRIVER MODE: Message from server: STATUS
  @ DRIVER MODE: Message from server: INIT
  @ DRIVER MODE: Receiving replica           0          -1
  @ DRIVER MODE: Receiving encoded integer          25
  @ DRIVER MODE:  SCF:  T  FORCE:  T  STRESS:  F  VC:  F  ENSEMBLE:  F
  @ DRIVER MODE:  SCF:  T  FORCE:  T  STRESS:  F  VC:  F  ENSEMBLE:  F

     Using Slab Decomposition

     bravais-lattice index     =            0
     lattice parameter (alat)  =       1.8897  a.u.
     unit-cell volume          =    6658.9804 (a.u.)^3
     number of atoms/cell      =           50
     number of atomic types    =            4
     number of electrons       =       389.00
     number of Kohn-Sham states=          204
     kinetic-energy cutoff     =      29.3995  Ry
     charge density cutoff     =     293.9946  Ry
     scf convergence threshold =      7.3E-08
     mixing beta               =       0.0500
     number of iterations used =            8  plain     mixing
     Exchange-correlation= BEEF-VDW
                           (   1   4  43  14   2   0   0)

     celldm(1)=   1.889726  celldm(2)=   0.000000  celldm(3)=   0.000000
     celldm(4)=   0.000000  celldm(5)=   0.000000  celldm(6)=   0.000000

     crystal axes: (cart. coord. in units of alat)
               a(1) = (   6.579727   0.000000   0.000000 )
               a(2) = (  -0.000775   5.961596   0.000000 )
               a(3) = (   0.000000   0.000000  25.155947 )

     reciprocal axes: (cart. coord. in units 2 pi/alat)
               b(1) = (  0.151982  0.000020  0.000000 )
               b(2) = (  0.000000  0.167740  0.000000 )
               b(3) = (  0.000000  0.000000  0.039752 )

     PseudoPot. # 1 for Ti read from file:
     /storage/coda1/p-amedford6/0/shared/rich_project_chbe-medford/medford-share/data/pseudos_module/espresso/nninc/pbe/van/Ti.UPF
     MD5 check sum: 8e4df49b7f0d34bbd5052bf3f5ea0213
     Pseudo is Ultrasoft, Zval = 12.0
     Generated by new atomic code, or converted to UPF format
     Using radial grid of  851 points,  6 beta functions with:
                l(1) =   0
                l(2) =   0
                l(3) =   1
                l(4) =   1
                l(5) =   2
                l(6) =   2
     Q(r) pseudized with  8 coefficients,  rinner =    1.000   1.000   1.000
                                                       1.000   1.000

     PseudoPot. # 2 for O  read from file:
     /storage/coda1/p-amedford6/0/shared/rich_project_chbe-medford/medford-share/data/pseudos_module/espresso/nninc/pbe/van/O.UPF
     MD5 check sum: 78c19812648e8988a0fe644b0f25305e
     Pseudo is Ultrasoft, Zval =  6.0
     Generated by new atomic code, or converted to UPF format
     Using radial grid of  737 points,  4 beta functions with:
                l(1) =   0
                l(2) =   0
                l(3) =   1
                l(4) =   1
     Q(r) pseudized with  8 coefficients,  rinner =    0.800   0.800   0.800

     PseudoPot. # 3 for N  read from file:
     /storage/coda1/p-amedford6/0/shared/rich_project_chbe-medford/medford-share/data/pseudos_module/espresso/nninc/pbe/van/N.UPF
     MD5 check sum: 90d10febe142ad51ac9d5be1deb811c4
     Pseudo is Ultrasoft, Zval =  5.0
     Generated by new atomic code, or converted to UPF format
     Using radial grid of  729 points,  4 beta functions with:
                l(1) =   0
                l(2) =   0
                l(3) =   1
                l(4) =   1
     Q(r) pseudized with  8 coefficients,  rinner =    0.800   0.800   0.800

     PseudoPot. # 4 for H  read from file:
     /storage/coda1/p-amedford6/0/shared/rich_project_chbe-medford/medford-share/data/pseudos_module/espresso/nninc/pbe/van/H.UPF
     MD5 check sum: b5ee9d7bfd3a09ee7748110bda690ff7
     Pseudo is Ultrasoft, Zval =  1.0
     Generated by new atomic code, or converted to UPF format
     Using radial grid of  615 points,  1 beta functions with:
                l(1) =   0
     Q(r) pseudized with  8 coefficients,  rinner =    0.800

     atomic species   valence    mass     pseudopotential
        Ti1           12.00    47.86700     Ti( 1.00)
        O1             6.00    15.99900     O ( 1.00)
        N1             5.00    14.00700     N ( 1.00)
        H1             1.00     1.00800     H ( 1.00)

     No symmetry found

   Cartesian axes

     site n.     atom                  positions (alat units)
         1           Ti1 tau(   1) = (   0.0004258   2.9801865   6.0000000  )
         2           Ti1 tau(   2) = (   3.2906075   1.4906267   6.0002472  )
         3           O1  tau(   3) = (   0.0006271   0.0005054   7.9858123  )
         4           O1  tau(   4) = (   3.2906025   0.0005020   7.3038282  )
         5           O1  tau(   5) = (   4.5942328   1.4918067   9.2879030  )
         6           O1  tau(   6) = (   1.9868534   1.4903216   9.2879459  )
         7           Ti1 tau(   7) = (   3.2913060   3.0378612   9.1552972  )
         8           Ti1 tau(   8) = (   0.0009381   1.5839581   9.3521326  )
         9           O1  tau(   9) = (   3.2925928   0.0151421  11.3436145  )
        10           O1  tau(  10) = (   0.0015930   0.0098544  10.5931849  )
        11           O1  tau(  11) = (   1.2954366   1.5088831  12.6205452  )
        12           O1  tau(  12) = (   5.2873992   1.5081763  12.6209847  )
        13           Ti1 tau(  13) = (   0.0062007   3.0223002  12.7522649  )
        14           Ti1 tau(  14) = (   3.2997597   1.5103467  12.4821987  )
        15           O1  tau(  15) = (   0.0040346   0.0184607  14.6317695  )
        16           O1  tau(  16) = (   3.2910281   0.0168284  13.9441510  )
        17           O1  tau(  17) = (   4.5375602   1.5179921  16.0890948  )
        18           O1  tau(  18) = (   2.0457139   1.5162684  16.0851288  )
        19           Ti1 tau(  19) = (   3.2874297   2.9968575  15.7108406  )
        20           Ti1 tau(  20) = (   6.5695515   1.3443907  16.0039228  )
        21           O1  tau(  21) = (   3.2904802   0.0005063   4.7018136  )
        22           O1  tau(  22) = (   0.0014600   0.0364584  17.1914435  )
        23           O1  tau(  23) = (   1.3043587   1.4918075   6.0039043  )
        24           O1  tau(  24) = (   5.2767064   1.4903225   6.0039473  )
        25           Ti1 tau(  25) = (   0.0000382   5.9609847   6.0000000  )
        26           Ti1 tau(  26) = (   3.2902200   4.4714249   6.0002472  )
        27           O1  tau(  27) = (   0.0002396   2.9813036   7.9858123  )
        28           O1  tau(  28) = (   3.2902150   2.9813002   7.3038282  )
        29           O1  tau(  29) = (   4.5938453   4.4726049   9.2879030  )
        30           O1  tau(  30) = (   1.9864658   4.4711199   9.2879459  )
        31           Ti1 tau(  31) = (   3.2910671   0.0593156   9.1538314  )
        32           Ti1 tau(  32) = (   0.0005551   4.5317022   9.3016378  )
        33           O1  tau(  33) = (   3.2922260   2.9941798  11.3385902  )
        34           O1  tau(  34) = (   0.0008704   2.9922752  10.5694424  )
        35           O1  tau(  35) = (   1.2972379   4.4863578  12.6167950  )
        36           O1  tau(  36) = (   5.2846861   4.4861696  12.6173214  )
        37           Ti1 tau(  37) = (   0.0087596   0.0398615  12.5729301  )
        38           Ti1 tau(  38) = (   3.2994502   4.4862820  12.4776038  )
        39           O1  tau(  39) = (   0.0007913   3.0275094  14.6627896  )
        40           O1  tau(  40) = (   3.2912693   2.9957722  13.9146565  )
        41           O1  tau(  41) = (   4.5447272   4.4665429  16.0834370  )
        42           O1  tau(  42) = (   2.0408322   4.4687941  16.0798044  )
        43           Ti1 tau(  43) = (   3.2813896   0.0196903  15.7368506  )
        44           Ti1 tau(  44) = (   6.5682818   4.5002177  15.9516634  )
        45           O1  tau(  45) = (   3.2900926   2.9813045   4.7018136  )
        46           O1  tau(  46) = (   1.3039711   4.4726057   6.0039043  )
        47           O1  tau(  47) = (   5.2763189   4.4711207   6.0039473  )
        48           N1  tau(  48) = (   0.0802777   2.9930733  18.6664031  )
        49           N1  tau(  49) = (   0.0230277   3.0528524  17.4426018  )
        50           H1  tau(  50) = (   0.0865168   1.9966355  18.9942200  )

     number of k points=    10  Fermi-Dirac smearing, width (Ry)=  0.0073
                       cart. coord. in units 2pi/alat
        k(    1) = (   0.0000000   0.0000000   0.0000000), wk =   0.1250000
        k(    2) = (   0.0000000   0.0419351   0.0000000), wk =   0.2500000
        k(    3) = (   0.0000000  -0.0838702   0.0000000), wk =   0.1250000
        k(    4) = (   0.0379955   0.0000049   0.0000000), wk =   0.2500000
        k(    5) = (   0.0379955   0.0419400   0.0000000), wk =   0.2500000
        k(    6) = (   0.0379955  -0.0838652   0.0000000), wk =   0.2500000
        k(    7) = (   0.0379955  -0.0419301   0.0000000), wk =   0.2500000
        k(    8) = (  -0.0759910  -0.0000099   0.0000000), wk =   0.1250000
        k(    9) = (  -0.0759910   0.0419252   0.0000000), wk =   0.2500000
        k(   10) = (  -0.0759910  -0.0838800   0.0000000), wk =   0.1250000

     Initial potential from superposition of free atoms

     starting charge  372.99922, renormalised to  389.00000

     negative rho (up, down):  2.003E-02 0.000E+00

     %%%%%%%%%%%%%%%%%%%%%%%%%%%%%%%%%%%%%%%%%%%%%%%%%%%%%%%%%%%%%%%%%%%%%%%%
     %                                                                      %
     % You are using vdW-DF, which was implemented by the Thonhauser group. %
     % Please cite the following two papers that made this development      %
     % possible and the two reviews that describe the various versions:     %
     %                                                                      %
     %   T. Thonhauser et al., PRL 115, 136402 (2015).                      %
     %   T. Thonhauser et al., PRB 76, 125112 (2007).                       %
     %   K. Berland et al., Rep. Prog. Phys. 78, 066501 (2015).             %
     %   D.C. Langreth et al., J. Phys.: Condens. Matter 21, 084203 (2009). %
     %                                                                      %
     %                                                                      %
     % If you are calculating the stress with vdW-DF, please also cite:     %
     %                                                                      %
     %   R. Sabatini et al., J. Phys.: Condens. Matter 24, 424209 (2012).   %
     %                                                                      %
     %%%%%%%%%%%%%%%%%%%%%%%%%%%%%%%%%%%%%%%%%%%%%%%%%%%%%%%%%%%%%%%%%%%%%%%%

     Adding external electric field

     Computed dipole along edir(3) :
        Dipole               -4.3819 Ry au,        -11.1376 Debye
        Dipole field         -0.0083 Ry au,

        Potential amp.        0.7665 Ry
        Total length         46.3494 bohr

     Starting wfcs are  293 atomic wfcs
  @ DRIVER MODE: Message from server: STATUS
  @ DRIVER MODE: Message from server: POSDATA
  @ DRIVER MODE: Reading and sharing cell
  @ DRIVER MODE: Reading and sharing positions
  @ DRIVER MODE: Received positions

     Self-consistent Calculation

     iteration #  1     ecut=    29.40 Ry     beta= 0.05
     Davidson diagonalization with overlap
     c_bands:  2 eigenvalues not converged
     c_bands:  3 eigenvalues not converged
     c_bands:  5 eigenvalues not converged
     c_bands:  1 eigenvalues not converged
     c_bands:  3 eigenvalues not converged
     c_bands:  4 eigenvalues not converged
     c_bands:  3 eigenvalues not converged
     c_bands:  1 eigenvalues not converged
     c_bands:  3 eigenvalues not converged
     c_bands:  2 eigenvalues not converged
     ethr =  1.00E-05,  avg # of iterations = 20.0

[...]

     total energy              =   -2891.78376238 Ry
     estimated scf accuracy    <     400.69089368 Ry

     iteration #  2     ecut=    29.40 Ry     beta= 0.05
     Davidson diagonalization with overlap
     ethr =  1.00E-02,  avg # of iterations = 13.7

[...]

     iteration # 44     ecut=    29.40 Ry     beta= 0.05
     Davidson diagonalization with overlap
     c_bands:  1 eigenvalues not converged
     ethr =  2.45E-10,  avg # of iterations = 12.7

[...]

     total energy              =   -2925.19956623 Ry
     estimated scf accuracy    <       0.00000010 Ry

     iteration # 50     ecut=    29.40 Ry     beta= 0.05
     Davidson diagonalization with overlap
     ethr =  2.54E-11,  avg # of iterations = 12.3

     negative rho (up, down):  1.932E-02 0.000E+00

     Adding external electric field

     Computed dipole along edir(3) :
        Dipole                0.3717 Ry au,          0.9447 Debye
        Dipole field          0.0007 Ry au,

        Potential amp.       -0.0650 Ry
        Total length         46.3494 bohr

     End of self-consistent calculation

          k = 0.0000 0.0000 0.0000 ( 18029 PWs)   bands (ev):

   -56.2560 -56.2207 -56.2205 -56.1842 -56.1342 -56.0910 -56.0472 -56.0252
   -55.9923 -55.9759 -55.9423 -55.9104 -55.7788 -55.6027 -55.2500 -55.2160
   -32.7863 -32.7180 -32.5676 -32.5597 -32.5410 -32.5395 -32.5165 -32.4672
   -32.4640 -32.4544 -32.4258 -32.4203 -32.4017 -32.3938 -32.3666 -32.3575
   -32.3513 -32.3408 -32.3257 -32.3004 -32.2955 -32.2790 -32.2596 -32.2333
   -32.2311 -32.2304 -32.2168 -32.2105 -32.2021 -32.1909 -32.1642 -32.1492
   -32.1197 -32.1168 -32.0902 -32.0874 -32.0732 -32.0394 -31.9404 -31.8472
   -31.8443 -31.8022 -31.6591 -31.5634 -31.5409 -31.4761 -31.3902 -31.2787
   -18.6935 -16.9605 -16.6635 -16.5077 -16.3688 -16.3394 -16.2296 -16.0128
   -15.9042 -15.8335 -15.8128 -15.7911 -15.7715 -15.7601 -15.7463 -15.7422
   -15.7166 -15.6796 -15.6436 -15.6385 -15.6318 -15.5908 -15.4955 -15.4462
   -15.4133 -15.3633 -15.3534 -15.2556 -15.2125 -15.0043 -13.7500 -13.6320
    -9.0901  -5.2977  -4.3227  -4.1528  -4.1241  -4.0493  -4.0224  -3.7747
    -3.7661  -3.4803  -3.4194  -3.3638  -3.3526  -3.3317  -3.2438  -3.2185
    -3.0906  -3.0631  -3.0401  -3.0061  -2.9978  -2.9807  -2.9682  -2.9536
    -2.9337  -2.8755  -2.7560  -2.6853  -2.6351  -2.6216  -2.5673  -2.5435
    -2.4964  -2.4716  -2.4671  -2.4503  -2.4401  -2.4154  -2.3677  -2.2495
    -2.1962  -2.1326  -2.0345  -2.0142  -1.9307  -1.7784  -1.7209  -1.6577
    -1.6395  -1.6218  -1.5576  -1.5472  -1.4422  -1.4092  -1.4040  -1.3309
    -1.2364  -1.2177  -1.1213  -1.0704  -0.9951  -0.9770  -0.9560  -0.9429
    -0.9178  -0.7244  -0.6913  -0.6674  -0.6292  -0.5954  -0.5241  -0.5054
    -0.4181  -0.4085  -0.3807  -0.3296  -0.3229  -0.2547  -0.2321  -0.2302
    -0.1687  -0.1433   0.0074   0.0277   0.0390   0.1375   0.1456   0.3232
     0.3409   0.4249   0.5367   0.6815   0.7748   0.8810   0.9468   1.3660
     1.4289   2.1956   2.9449   2.9656   2.9975   3.1037   3.1279   3.2195
     3.2656   3.3935   3.4082   3.4496

[...]

          k = 0.0380-0.0419 0.0000 ( 17876 PWs)   bands (ev):

[...]

          k =-0.0760-0.0000 0.0000 ( 17886 PWs)   bands (ev):

[...]

          k =-0.0760-0.0839 0.0000 ( 17948 PWs)   bands (ev):

   -56.2435 -56.2330 -56.2046 -56.2001 -56.1314 -56.0832 -56.0549 -56.0279
   -55.9880 -55.9612 -55.9574 -55.9142 -55.7771 -55.6042 -55.2332 -55.2326
   -32.5897 -32.5855 -32.5393 -32.5312 -32.5287 -32.5148 -32.5128 -32.4705
   -32.4263 -32.4238 -32.4176 -32.4042 -32.3747 -32.3743 -32.3670 -32.3413
   -32.3343 -32.3305 -32.3242 -32.3225 -32.2907 -32.2899 -32.2828 -32.2777
   -32.2639 -32.2613 -32.2361 -32.2306 -32.2160 -32.2143 -32.1927 -32.1918
   -32.1668 -32.1647 -32.1588 -32.1340 -32.1027 -32.0427 -31.9347 -31.9100
   -31.8475 -31.8376 -31.5539 -31.5532 -31.4724 -31.4719 -31.4334 -31.4329
   -18.6885 -16.4013 -16.3701 -16.1486 -16.1292 -16.1268 -16.0504 -15.9520
   -15.9494 -15.9460 -15.9417 -15.8813 -15.8528 -15.8394 -15.7989 -15.7439
   -15.7357 -15.7255 -15.7248 -15.6753 -15.6744 -15.6199 -15.5594 -15.5469
   -15.5446 -15.5427 -15.5292 -15.4491 -15.4162 -15.1589 -13.7341 -13.7325
    -9.0908  -5.2462  -3.6987  -3.6595  -3.3804  -3.3705  -3.3625  -3.3344
    -3.2487  -3.1567  -3.1335  -3.0996  -3.0705  -3.0641  -3.0620  -3.0247
    -3.0188  -2.9821  -2.9686  -2.9509  -2.9340  -2.8887  -2.8624  -2.8534
    -2.8420  -2.8324  -2.8240  -2.7927  -2.7800  -2.7669  -2.7465  -2.7430
    -2.5883  -2.5296  -2.4508  -2.4504  -2.3392  -2.3304  -2.3223  -2.3123
    -2.2852  -2.2775  -2.2448  -2.1076  -2.0430  -1.9419  -1.9294  -1.9219
    -1.8294  -1.7740  -1.6502  -1.6049  -1.5875  -1.5410  -1.4781  -1.4710
    -1.4406  -1.4337  -1.3252  -1.3018  -1.2752  -1.1994  -1.1911  -1.1852
    -1.0870  -1.0539  -1.0140  -0.9791  -0.9475  -0.9062  -0.8520  -0.8080
    -0.7826  -0.7469  -0.7391  -0.6566  -0.5842  -0.5281  -0.2643  -0.2088
    -0.1955  -0.1275  -0.0334   0.0311   0.0478   0.0967   0.1536   0.2121
     0.2627   0.3212   0.3238   0.3681   0.4146   1.1376   1.1386   1.2283
     1.2347   2.1430   3.0834   3.1914   3.2025   3.2510   3.3250   3.4171
     3.4275   3.4285   3.4312   3.6091

     the Fermi energy is     2.9019 ev

!    total energy              =   -2925.19966406 Ry
     estimated scf accuracy    <       0.00000004 Ry
     smearing contrib. (-TS)   =      -0.02326515 Ry
     internal energy E=F+TS    =   -2925.17639890 Ry

     The total energy is F=E-TS. E is the sum of the following terms:
     one-electron contribution =  -24764.13520337 Ry
     hartree contribution      =   12463.20361099 Ry
     xc contribution           =    -479.96307595 Ry
     ewald contribution        =    9855.71800877 Ry
     electric field correction =       0.00026067 Ry

     convergence has been achieved in  50 iterations

     Forces acting on atoms (cartesian axes, Ry/au):

     atom    1 type  1   force =     0.00007919   -0.00095884    0.11383712
     atom    2 type  1   force =    -0.00010323    0.00025377   -0.17942777
     atom    3 type  2   force =    -0.00000003   -0.00524162   -0.03557400
     atom    4 type  2   force =     0.00003981    0.00060763    0.04439751
     atom    5 type  2   force =    -0.02019656   -0.00082125    0.00349164
     atom    6 type  2   force =     0.02029204   -0.00039036    0.00350435
     atom    7 type  1   force =    -0.00021906    0.00017053    0.00018833
     atom    8 type  1   force =     0.00022840    0.00175948   -0.00007456
     atom    9 type  2   force =    -0.00005765    0.00027034   -0.00037135
     atom   10 type  2   force =    -0.00001243    0.00011330    0.00031549
     atom   11 type  2   force =    -0.00019501   -0.00002865    0.00027354
     atom   12 type  2   force =    -0.00007325   -0.00005740    0.00028613
     atom   13 type  1   force =     0.00033267    0.00055857    0.00081073
     atom   14 type  1   force =     0.00030707   -0.00005544    0.00119696
     atom   15 type  2   force =     0.00012320   -0.00028088   -0.00059978
     atom   16 type  2   force =     0.00001897   -0.00038931   -0.00103553
     atom   17 type  2   force =     0.00106728   -0.00029188   -0.00055550
     atom   18 type  2   force =    -0.00088228   -0.00026117   -0.00045082
     atom   19 type  1   force =    -0.00017520    0.00001220    0.00065039
     atom   20 type  1   force =    -0.00027590   -0.00009128    0.00050335
     atom   21 type  2   force =     0.00004322    0.00008126    0.10411824
     atom   22 type  2   force =    -0.00005536   -0.00018587    0.00057174
     atom   23 type  2   force =    -0.06903747    0.00033866   -0.03032739
     atom   24 type  2   force =     0.06891169    0.00077537   -0.03036702
     atom   25 type  1   force =     0.00016060    0.00086210    0.12106207
     atom   26 type  1   force =    -0.00010746    0.00040846   -0.17934925
     atom   27 type  2   force =     0.00002619    0.00096724   -0.03230655
     atom   28 type  2   force =     0.00004281    0.00070933    0.04484879
     atom   29 type  2   force =    -0.01922399    0.00046105    0.00324033
     atom   30 type  2   force =     0.01935561    0.00087457    0.00323720
     atom   31 type  1   force =    -0.00046889    0.00022266    0.00029966
     atom   32 type  1   force =     0.00023004    0.00065998   -0.00089542
     atom   33 type  2   force =    -0.00001438   -0.00009404   -0.00067763
     atom   34 type  2   force =    -0.00005451    0.00025913   -0.00020592
     atom   35 type  2   force =    -0.00035264    0.00017471   -0.00006855
     atom   36 type  2   force =     0.00004475    0.00014194   -0.00008092
     atom   37 type  1   force =     0.00044617    0.00016478   -0.00134312
     atom   38 type  1   force =     0.00035281    0.00038507    0.00128263
     atom   39 type  2   force =     0.00011841   -0.00005740    0.00015887
     atom   40 type  2   force =     0.00000609    0.00003468   -0.00038385
     atom   41 type  2   force =     0.00091311   -0.00033088    0.00015137
     atom   42 type  2   force =    -0.00019559   -0.00030127   -0.00008256
     atom   43 type  1   force =    -0.00059030   -0.00013675    0.00068763
     atom   44 type  1   force =    -0.00052629   -0.00020641    0.00103894
     atom   45 type  2   force =     0.00004559    0.00005864    0.10417527
     atom   46 type  2   force =    -0.06883507   -0.00102036   -0.03037670
     atom   47 type  2   force =     0.06871904   -0.00058231   -0.03041867
     atom   48 type  3   force =    -0.00124994   -0.00134850   -0.00064199
     atom   49 type  3   force =     0.00079834    0.00016689    0.00076457
     atom   50 type  4   force =     0.00019941    0.00163950    0.00052198

     Total force =     0.379868     Total SCF correction =     0.000448
  @ DRIVER MODE: Message from server: STATUS
  @ DRIVER MODE: Message from server: GETFORCE
  @ DRIVER MODE: Returning v,forces,stress,ensemble

     Writing output data file ./calc.save/
  @ DRIVER MODE: Message from server: EXIT
  @ DRIVE MODE: Exiting

     General routines

     Parallel routines

   This run was terminated on:   9:40:18  12Oct2021

   JOB DONE.