     Program PWSCF v.6.7GPU starts on 28Sep2021 at  1:34:20

     R & G space division:  proc/nbgrp/npool/nimage =       8
     Reading input from /storage/home/hcoda1/3/ntian30/research/carbon/CxH_vib/H2O_calc/ads_slab/CHOHO_b/out_0025/pw.inp
Warning: card &CELL ignored
Warning: card   CELL_DYNAMICS='IPI', ignored
Warning: card / ignored

     Current dimensions of program PWSCF are:
     Max number of different atomic species (ntypx) = 10
     Max number of k-points (npk) =  40000
     Max angular momentum in pseudopotentials (lmaxx) =  3
     Presently no symmetry can be used with electric field

     Message from routine cell_base_init:
     DEPRECATED: use true lattice parameter, not A to a.u. conversion factor

     IMPORTANT: XC functional enforced from input :
     Exchange-correlation= BEEF-VDW
                           (   1   4  43  14   2   0   0)
     Any further DFT definition will be discarded
     Please, verify this is what you really want

  @ DRIVER MODE: Connecting to
 qe_1139763_3000314.sched-torque.pace.gatech.eduwis988ff_scratch
  using UNIX socket
  @ DRIVER MODE: Message from server: STATUS
  @ DRIVER MODE: Message from server: INIT
  @ DRIVER MODE: Receiving replica           0          -1
  @ DRIVER MODE: Receiving encoded integer          25
  @ DRIVER MODE:  SCF:  T  FORCE:  T  STRESS:  F  VC:  F  ENSEMBLE:  F
  @ DRIVER MODE:  SCF:  T  FORCE:  T  STRESS:  F  VC:  F  ENSEMBLE:  F

     Using Slab Decomposition

     bravais-lattice index     =            0
     lattice parameter (alat)  =       1.8897  a.u.
     unit-cell volume          =    6658.9804 (a.u.)^3
     number of atoms/cell      =           52
     number of atomic types    =            4
     number of electrons       =       396.00
     number of Kohn-Sham states=          208
     kinetic-energy cutoff     =      29.3995  Ry
     charge density cutoff     =     293.9946  Ry
     scf convergence threshold =      7.3E-08
     mixing beta               =       0.0500
     number of iterations used =            8  plain     mixing
     Exchange-correlation= BEEF-VDW
                           (   1   4  43  14   2   0   0)

     celldm(1)=   1.889726  celldm(2)=   0.000000  celldm(3)=   0.000000
     celldm(4)=   0.000000  celldm(5)=   0.000000  celldm(6)=   0.000000

     crystal axes: (cart. coord. in units of alat)
               a(1) = (   6.579727   0.000000   0.000000 )
               a(2) = (  -0.000775   5.961596   0.000000 )
               a(3) = (   0.000000   0.000000  25.155947 )

     reciprocal axes: (cart. coord. in units 2 pi/alat)
               b(1) = (  0.151982  0.000020  0.000000 )
               b(2) = (  0.000000  0.167740  0.000000 )
               b(3) = (  0.000000  0.000000  0.039752 )

     PseudoPot. # 1 for C  read from file:
     /storage/coda1/p-amedford6/0/shared/rich_project_chbe-medford/medford-share/data/pseudos_module/espresso/nninc/pbe/van/C.UPF
     MD5 check sum: 1a69bf6b8db32088f5b2163dbdb77a27
     Pseudo is Ultrasoft, Zval =  4.0
     Generated by new atomic code, or converted to UPF format
     Using radial grid of  721 points,  4 beta functions with:
                l(1) =   0
                l(2) =   0
                l(3) =   1
                l(4) =   1
     Q(r) pseudized with  8 coefficients,  rinner =    0.800   0.800   0.800

     PseudoPot. # 2 for H  read from file:
     /storage/coda1/p-amedford6/0/shared/rich_project_chbe-medford/medford-share/data/pseudos_module/espresso/nninc/pbe/van/H.UPF
     MD5 check sum: b5ee9d7bfd3a09ee7748110bda690ff7
     Pseudo is Ultrasoft, Zval =  1.0
     Generated by new atomic code, or converted to UPF format
     Using radial grid of  615 points,  1 beta functions with:
                l(1) =   0
     Q(r) pseudized with  8 coefficients,  rinner =    0.800

     PseudoPot. # 3 for O  read from file:
     /storage/coda1/p-amedford6/0/shared/rich_project_chbe-medford/medford-share/data/pseudos_module/espresso/nninc/pbe/van/O.UPF
     MD5 check sum: 78c19812648e8988a0fe644b0f25305e
     Pseudo is Ultrasoft, Zval =  6.0
     Generated by new atomic code, or converted to UPF format
     Using radial grid of  737 points,  4 beta functions with:
                l(1) =   0
                l(2) =   0
                l(3) =   1
                l(4) =   1
     Q(r) pseudized with  8 coefficients,  rinner =    0.800   0.800   0.800

     PseudoPot. # 4 for Ti read from file:
     /storage/coda1/p-amedford6/0/shared/rich_project_chbe-medford/medford-share/data/pseudos_module/espresso/nninc/pbe/van/Ti.UPF
     MD5 check sum: 8e4df49b7f0d34bbd5052bf3f5ea0213
     Pseudo is Ultrasoft, Zval = 12.0
     Generated by new atomic code, or converted to UPF format
     Using radial grid of  851 points,  6 beta functions with:
                l(1) =   0
                l(2) =   0
                l(3) =   1
                l(4) =   1
                l(5) =   2
                l(6) =   2
     Q(r) pseudized with  8 coefficients,  rinner =    1.000   1.000   1.000
                                                       1.000   1.000

     atomic species   valence    mass     pseudopotential
        C1             4.00    12.01100     C ( 1.00)
        H1             1.00     1.00800     H ( 1.00)
        O1             6.00    15.99900     O ( 1.00)
        Ti1           12.00    47.86700     Ti( 1.00)

     No symmetry found

   Cartesian axes

     site n.     atom                  positions (alat units)
         1           C1  tau(   1) = (   6.4174581   3.0630250  18.7433229  )
         2           H1  tau(   2) = (   6.4111689   4.1212957  19.1161716  )
         3           O1  tau(   3) = (   3.2904802   0.0005063   4.7018136  )
         4           O1  tau(   4) = (   3.2900926   2.9813045   4.7018136  )
         5           O1  tau(   5) = (   1.3043587   1.4918075   6.0039043  )
         6           O1  tau(   6) = (   1.3039711   4.4726057   6.0039043  )
         7           O1  tau(   7) = (   5.2767064   1.4903225   6.0039473  )
         8           O1  tau(   8) = (   5.2763189   4.4711207   6.0039473  )
         9           O1  tau(   9) = (   3.2906025   0.0005020   7.3038282  )
        10           O1  tau(  10) = (   3.2902150   2.9813002   7.3038282  )
        11           O1  tau(  11) = (   0.0006271   0.0005054   7.9858123  )
        12           O1  tau(  12) = (   0.0002396   2.9813036   7.9858123  )
        13           O1  tau(  13) = (   4.5942328   1.4918067   9.2879030  )
        14           O1  tau(  14) = (   4.5938453   4.4726049   9.2879030  )
        15           O1  tau(  15) = (   1.9868534   1.4903216   9.2879459  )
        16           O1  tau(  16) = (   1.9864658   4.4711199   9.2879459  )
        17           O1  tau(  17) = (   0.0063547   0.0038039  10.5886533  )
        18           O1  tau(  18) = (   0.0036009   2.9935247  10.5534957  )
        19           O1  tau(  19) = (   3.2887833   2.9558164  11.3026950  )
        20           O1  tau(  20) = (   3.2889155   0.0180965  11.3284547  )
        21           O1  tau(  21) = (   1.2693144   4.4854729  12.6486175  )
        22           O1  tau(  22) = (   1.2682469   1.5082983  12.6349555  )
        23           O1  tau(  23) = (   5.3117200   4.4832310  12.6447022  )
        24           O1  tau(  24) = (   5.3022439   1.5078309  12.6340177  )
        25           O1  tau(  25) = (   3.2906411   2.9682164  13.9081918  )
        26           O1  tau(  26) = (   3.2897682   5.9313675  13.9192633  )
        27           O1  tau(  27) = (   0.0102991   0.0146890  14.6966064  )
        28           O1  tau(  28) = (   6.5585574   2.9631049  14.7216645  )
        29           O1  tau(  29) = (   4.5396285   4.4015509  16.0671556  )
        30           O1  tau(  30) = (   4.5390945   1.4941059  16.1279003  )
        31           O1  tau(  31) = (   2.0082845   1.5156796  16.1272261  )
        32           O1  tau(  32) = (   2.0064512   4.3952525  16.0627866  )
        33           O1  tau(  33) = (   6.5747792   5.9015977  17.1979186  )
        34           O1  tau(  34) = (   6.5364340   3.0300823  17.4955599  )
        35           Ti1 tau(  35) = (   0.0004258   2.9801865   6.0000000  )
        36           Ti1 tau(  36) = (   0.0000382   5.9609847   6.0000000  )
        37           Ti1 tau(  37) = (   3.2906075   1.4906267   6.0002472  )
        38           Ti1 tau(  38) = (   3.2902200   4.4714249   6.0002472  )
        39           Ti1 tau(  39) = (   3.3327010   0.0642822   9.1729847  )
        40           Ti1 tau(  40) = (   3.3370945   3.0443960   9.2119432  )
        41           Ti1 tau(  41) = (   0.0627859   4.5109727   9.2698030  )
        42           Ti1 tau(  42) = (   0.0576648   1.5917673   9.3593984  )
        43           Ti1 tau(  43) = (   0.0253163   5.9063241  12.4905130  )
        44           Ti1 tau(  44) = (   3.2927504   4.6587819  12.6908054  )
        45           Ti1 tau(  45) = (   3.2752962   1.5585801  12.4345831  )
        46           Ti1 tau(  46) = (   6.5429176   2.9239390  12.8034251  )
        47           Ti1 tau(  47) = (   3.2945171   2.9475426  15.6852994  )
        48           Ti1 tau(  48) = (   3.3539256   5.9263172  16.3551506  )
        49           Ti1 tau(  49) = (   0.0620310   4.5244698  15.8688857  )
        50           Ti1 tau(  50) = (   0.0504038   1.3137671  16.0740927  )
        51           O1  tau(  51) = (   3.3002437   5.8605330  18.1582223  )
        52           H1  tau(  52) = (   3.3728385   0.6075072  18.8126307  )

     number of k points=    10  Fermi-Dirac smearing, width (Ry)=  0.0073
                       cart. coord. in units 2pi/alat
        k(    1) = (   0.0000000   0.0000000   0.0000000), wk =   0.1250000
        k(    2) = (   0.0000000   0.0419351   0.0000000), wk =   0.2500000
        k(    3) = (   0.0000000  -0.0838702   0.0000000), wk =   0.1250000
        k(    4) = (   0.0379955   0.0000049   0.0000000), wk =   0.2500000
        k(    5) = (   0.0379955   0.0419400   0.0000000), wk =   0.2500000
        k(    6) = (   0.0379955  -0.0838652   0.0000000), wk =   0.2500000
        k(    7) = (   0.0379955  -0.0419301   0.0000000), wk =   0.2500000
        k(    8) = (  -0.0759910  -0.0000099   0.0000000), wk =   0.1250000
        k(    9) = (  -0.0759910   0.0419252   0.0000000), wk =   0.2500000
        k(   10) = (  -0.0759910  -0.0838800   0.0000000), wk =   0.1250000

     Initial potential from superposition of free atoms

     starting charge  379.99919, renormalised to  396.00000

     negative rho (up, down):  1.746E-02 0.000E+00

     %%%%%%%%%%%%%%%%%%%%%%%%%%%%%%%%%%%%%%%%%%%%%%%%%%%%%%%%%%%%%%%%%%%%%%%%
     %                                                                      %
     % You are using vdW-DF, which was implemented by the Thonhauser group. %
     % Please cite the following two papers that made this development      %
     % possible and the two reviews that describe the various versions:     %
     %                                                                      %
     %   T. Thonhauser et al., PRL 115, 136402 (2015).                      %
     %   T. Thonhauser et al., PRB 76, 125112 (2007).                       %
     %   K. Berland et al., Rep. Prog. Phys. 78, 066501 (2015).             %
     %   D.C. Langreth et al., J. Phys.: Condens. Matter 21, 084203 (2009). %
     %                                                                      %
     %                                                                      %
     % If you are calculating the stress with vdW-DF, please also cite:     %
     %                                                                      %
     %   R. Sabatini et al., J. Phys.: Condens. Matter 24, 424209 (2012).   %
     %                                                                      %
     %%%%%%%%%%%%%%%%%%%%%%%%%%%%%%%%%%%%%%%%%%%%%%%%%%%%%%%%%%%%%%%%%%%%%%%%

     Adding external electric field

     Computed dipole along edir(3) :
        Dipole               -7.6492 Ry au,        -19.4423 Debye
        Dipole field         -0.0144 Ry au,

        Potential amp.        1.3381 Ry
        Total length         46.3494 bohr

     Starting wfcs are  298 atomic wfcs
  @ DRIVER MODE: Message from server: STATUS
  @ DRIVER MODE: Message from server: POSDATA
  @ DRIVER MODE: Reading and sharing cell
  @ DRIVER MODE: Reading and sharing positions
  @ DRIVER MODE: Received positions

     Self-consistent Calculation

     iteration #  1     ecut=    29.40 Ry     beta= 0.05
     Davidson diagonalization with overlap
     c_bands:  1 eigenvalues not converged
     c_bands:  2 eigenvalues not converged
     c_bands:  1 eigenvalues not converged
     c_bands:  1 eigenvalues not converged
     c_bands:  3 eigenvalues not converged
     c_bands:  1 eigenvalues not converged
     c_bands:  3 eigenvalues not converged
     c_bands:  1 eigenvalues not converged
     c_bands:  2 eigenvalues not converged
     c_bands:  1 eigenvalues not converged
     ethr =  1.00E-05,  avg # of iterations = 20.0

[...]

     total energy              =   -2670.40952858 Ry
     estimated scf accuracy    <    3232.67664832 Ry

[...]

     iteration #  3     ecut=    29.40 Ry     beta= 0.05
     Davidson diagonalization with overlap
     ethr =  1.00E-02,  avg # of iterations = 14.5

[...]

     iteration # 52     ecut=    29.40 Ry     beta= 0.05
     Davidson diagonalization with overlap
     c_bands:  1 eigenvalues not converged
     c_bands:  1 eigenvalues not converged
     c_bands:  1 eigenvalues not converged
     ethr =  1.05E-06,  avg # of iterations = 14.4

[...]

     total energy              =   -2962.43526463 Ry
     estimated scf accuracy    <       0.00000011 Ry

     iteration # 74     ecut=    29.40 Ry     beta= 0.05
     Davidson diagonalization with overlap
     ethr =  2.87E-11,  avg # of iterations =  8.1

     negative rho (up, down):  1.660E-02 0.000E+00

     Adding external electric field

     Computed dipole along edir(3) :
        Dipole                0.3246 Ry au,          0.8251 Debye
        Dipole field          0.0006 Ry au,

        Potential amp.       -0.0568 Ry
        Total length         46.3494 bohr

     End of self-consistent calculation

          k = 0.0000 0.0000 0.0000 ( 18029 PWs)   bands (ev):

   -56.3712 -56.3256 -56.1732 -56.0686 -56.0374 -56.0255 -55.9682 -55.9439
   -55.9135 -55.9077 -55.8893 -55.8760 -55.7928 -55.6654 -55.1518 -55.1178
   -32.8106 -32.6610 -32.6114 -32.5590 -32.5342 -32.5325 -32.5270 -32.5131
   -32.4373 -32.4342 -32.4214 -32.3988 -32.3878 -32.3477 -32.3199 -32.3185
   -32.2738 -32.2593 -32.2558 -32.2480 -32.2177 -32.2034 -32.1977 -32.1617
   -32.1529 -32.1487 -32.1380 -32.1366 -32.1347 -32.1103 -32.1007 -32.0975
   -32.0810 -32.0734 -32.0696 -32.0494 -32.0440 -32.0209 -31.9945 -31.9201
   -31.8774 -31.8751 -31.5525 -31.4822 -31.4585 -31.3691 -31.2833 -31.1721
   -19.9952 -16.9847 -16.7673 -16.6059 -16.4144 -16.2990 -16.2186 -16.0259
   -15.9173 -15.8636 -15.7876 -15.7470 -15.6672 -15.6619 -15.6498 -15.6112
   -15.5972 -15.5952 -15.5417 -15.5401 -15.5039 -15.4914 -15.4303 -15.3814
   -15.3388 -15.3092 -15.2380 -15.2261 -15.1561 -15.1483 -14.8703 -13.6539
   -13.5415  -8.1635  -5.0470  -4.8284  -4.1671  -4.1031  -4.0114  -3.9308
    -3.8521  -3.6596  -3.5646  -3.4904  -3.4053  -3.3059  -3.2540  -3.2172
    -3.1185  -3.1066  -3.0529  -3.0108  -2.9768  -2.9472  -2.8994  -2.8651
    -2.8174  -2.7882  -2.7737  -2.7307  -2.6894  -2.6747  -2.5868  -2.5673
    -2.5595  -2.5155  -2.4848  -2.4391  -2.4198  -2.3771  -2.3520  -2.3402
    -2.2228  -2.1524  -2.1390  -2.0668  -1.9417  -1.7367  -1.7000  -1.6713
    -1.6647  -1.5462  -1.5093  -1.4923  -1.4633  -1.4309  -1.3930  -1.2870
    -1.2814  -1.2203  -1.1803  -1.1670  -1.0200  -1.0015  -0.9718  -0.8999
    -0.8755  -0.8155  -0.8014  -0.6862  -0.6380  -0.6061  -0.5061  -0.4626
    -0.4430  -0.4316  -0.3855  -0.3617  -0.3529  -0.3064  -0.2290  -0.2200
    -0.1841  -0.1603  -0.1441  -0.1084  -0.0317   0.0080   0.0741   0.1532
     0.1815   0.1978   0.2636   0.3265   0.4400   0.5379   0.6668   0.8676
     0.8680   0.9897   1.0948   1.4253   1.4706   2.6454   2.8746   2.9801
     3.1344   3.1914   3.2102   3.2956   3.3323   3.4162   3.6258   3.6629

[...]

          k = 0.0380-0.0419 0.0000 ( 17876 PWs)   bands (ev):

[...]

          k =-0.0760-0.0000 0.0000 ( 17886 PWs)   bands (ev):

[...]

          k =-0.0760-0.0839 0.0000 ( 17948 PWs)   bands (ev):

   -56.3637 -56.3330 -56.1724 -56.0610 -56.0350 -56.0328 -55.9643 -55.9447
   -55.9106 -55.9014 -55.8930 -55.8873 -55.7906 -55.6675 -55.1353 -55.1341
   -32.6562 -32.6397 -32.6129 -32.6124 -32.4947 -32.4788 -32.4746 -32.4715
   -32.4172 -32.3835 -32.3703 -32.3686 -32.3529 -32.3171 -32.3092 -32.2763
   -32.2578 -32.2560 -32.2499 -32.2424 -32.2408 -32.2324 -32.2264 -32.2101
   -32.1851 -32.1802 -32.1728 -32.1602 -32.1399 -32.1394 -32.1231 -32.1154
   -32.1105 -32.1050 -32.0989 -32.0900 -32.0860 -32.0414 -31.9986 -31.9925
   -31.9217 -31.8801 -31.4721 -31.4708 -31.3673 -31.3652 -31.3263 -31.3248
   -19.9889 -16.9729 -16.2109 -16.1793 -16.0839 -16.0262 -16.0128 -15.9506
   -15.9250 -15.8777 -15.8722 -15.7813 -15.7762 -15.7543 -15.7166 -15.6929
   -15.6847 -15.6517 -15.6263 -15.5919 -15.5803 -15.5601 -15.5303 -15.4980
   -15.4480 -15.4420 -15.3784 -15.3525 -15.3271 -15.2156 -15.0267 -13.6452
   -13.6435  -8.1644  -5.0259  -4.8367  -3.6192  -3.4799  -3.3990  -3.2982
    -3.2105  -3.1602  -3.1363  -3.0972  -3.0764  -3.0262  -3.0239  -2.9801
    -2.9690  -2.9273  -2.9109  -2.8737  -2.8405  -2.8255  -2.8201  -2.8122
    -2.8096  -2.7942  -2.7625  -2.7511  -2.7340  -2.7304  -2.6824  -2.6481
    -2.6300  -2.5317  -2.4796  -2.4449  -2.3906  -2.3400  -2.3082  -2.2911
    -2.2755  -2.2280  -2.2107  -2.1819  -2.0722  -2.0318  -1.8658  -1.8091
    -1.7691  -1.7221  -1.6878  -1.6462  -1.5951  -1.5769  -1.5536  -1.5025
    -1.4900  -1.3563  -1.3533  -1.2982  -1.2160  -1.1873  -1.1797  -1.1694
    -1.1030  -1.0456  -1.0305  -1.0258  -0.9864  -0.8912  -0.8855  -0.8387
    -0.8270  -0.7918  -0.7205  -0.6523  -0.5553  -0.5207  -0.4671  -0.4389
    -0.3085  -0.2702  -0.1286  -0.1137  -0.0250   0.0124   0.0408   0.1218
     0.1434   0.1779   0.2574   0.2842   0.3658   0.4148   0.4588   0.4688
     0.5319   1.2447   1.2604   1.2774   1.2891   2.5483   3.2696   3.3741
     3.3792   3.4070   3.4198   3.5210   3.5345   3.6048   3.6392   3.6839

     the Fermi energy is     2.7866 ev

!    total energy              =   -2962.43527891 Ry
     estimated scf accuracy    <       0.00000005 Ry
     smearing contrib. (-TS)   =      -0.01289927 Ry
     internal energy E=F+TS    =   -2962.42237964 Ry

     The total energy is F=E-TS. E is the sum of the following terms:
     one-electron contribution =  -24149.91048685 Ry
     hartree contribution      =   12160.89328099 Ry
     xc contribution           =    -488.27568119 Ry
     ewald contribution        =    9514.87030855 Ry
     electric field correction =       0.00019885 Ry

     convergence has been achieved in  74 iterations

     Forces acting on atoms (cartesian axes, Ry/au):

     atom    1 type  1   force =    -0.00016169   -0.00009544    0.00020620
     atom    2 type  2   force =     0.00007840   -0.00043252   -0.00031238
     atom    3 type  3   force =    -0.00000412    0.00008061    0.10095886
     atom    4 type  3   force =    -0.00000045    0.00014030    0.10052866
     atom    5 type  3   force =    -0.07611767    0.00087607   -0.03115715
     atom    6 type  3   force =    -0.07556589   -0.00154827   -0.03116230
     atom    7 type  3   force =     0.07594888    0.00141585   -0.03122214
     atom    8 type  3   force =     0.07555955   -0.00105046   -0.03118287
     atom    9 type  3   force =     0.00102142    0.00071309    0.04690409
     atom   10 type  3   force =     0.00093708    0.00023082    0.04951136
     atom   11 type  3   force =     0.00038122   -0.00605320   -0.04131220
     atom   12 type  3   force =     0.00101473    0.00275213   -0.03528141
     atom   13 type  3   force =    -0.01264253   -0.00287146    0.00044082
     atom   14 type  3   force =    -0.01411383    0.00448452    0.00143666
     atom   15 type  3   force =     0.01210064   -0.00536565    0.00103205
     atom   16 type  3   force =     0.01170140    0.00182449    0.00133325
     atom   17 type  3   force =     0.00007793    0.00034767    0.00074911
     atom   18 type  3   force =     0.00013140   -0.00027199    0.00017818
     atom   19 type  3   force =    -0.00012450   -0.00000991    0.00021779
     atom   20 type  3   force =    -0.00006382    0.00053146   -0.00043095
     atom   21 type  3   force =     0.00030933    0.00006609   -0.00006374
     atom   22 type  3   force =    -0.00002847    0.00000459    0.00001059
     atom   23 type  3   force =    -0.00013252    0.00004608    0.00001537
     atom   24 type  3   force =    -0.00001825    0.00000336   -0.00019053
     atom   25 type  3   force =    -0.00011460    0.00021115   -0.00034701
     atom   26 type  3   force =    -0.00006983    0.00061153    0.00041498
     atom   27 type  3   force =    -0.00007711   -0.00011134   -0.00054149
     atom   28 type  3   force =    -0.00003684    0.00006719   -0.00014954
     atom   29 type  3   force =    -0.00019513   -0.00017132   -0.00017870
     atom   30 type  3   force =    -0.00040097    0.00055479   -0.00054200
     atom   31 type  3   force =     0.00012802    0.00025146   -0.00023977
     atom   32 type  3   force =    -0.00033507   -0.00011189   -0.00016353
     atom   33 type  3   force =     0.00001564   -0.00011369    0.00080353
     atom   34 type  3   force =     0.00004864    0.00015509   -0.00011789
     atom   35 type  4   force =    -0.00008500   -0.00132672    0.10984415
     atom   36 type  4   force =    -0.00019584    0.00142374    0.12391983
     atom   37 type  4   force =    -0.00028889    0.00759351   -0.16582217
     atom   38 type  4   force =    -0.00000028   -0.00693831   -0.16567628
     atom   39 type  4   force =     0.00075737   -0.00132872   -0.00024205
     atom   40 type  4   force =     0.00082962    0.00162009   -0.00034746
     atom   41 type  4   force =    -0.00062666   -0.00000025   -0.00008969
     atom   42 type  4   force =    -0.00070605    0.00003452   -0.00031526
     atom   43 type  4   force =     0.00010741   -0.00015549    0.00004894
     atom   44 type  4   force =     0.00033330    0.00010858   -0.00029459
     atom   45 type  4   force =     0.00013458    0.00097849   -0.00019334
     atom   46 type  4   force =    -0.00000890   -0.00005380   -0.00041881
     atom   47 type  4   force =     0.00038749    0.00019183    0.00022860
     atom   48 type  4   force =     0.00032367   -0.00014894   -0.00001116
     atom   49 type  4   force =    -0.00033513    0.00079926    0.00003902
     atom   50 type  4   force =    -0.00058218   -0.00014180   -0.00052839
     atom   51 type  3   force =    -0.00008469   -0.00089690   -0.00077782
     atom   52 type  2   force =     0.00078919    0.00107970    0.00049064

     Total force =     0.371524     Total SCF correction =     0.000533
  @ DRIVER MODE: Message from server: STATUS
  @ DRIVER MODE: Message from server: GETFORCE
  @ DRIVER MODE: Returning v,forces,stress,ensemble

     Writing output data file ./calc.save/
  @ DRIVER MODE: Message from server: EXIT
  @ DRIVE MODE: Exiting

     General routines

     Parallel routines

   This run was terminated on:   1:57:52  28Sep2021

   JOB DONE.