     Program PWSCF v.6.7GPU starts on  9Sep2021 at  0:58:51

     R & G space division:  proc/nbgrp/npool/nimage =      10
     Reading input from /storage/home/hcoda1/3/ntian30/research/carbon/CxH_vib/CH_calc/ads_slab/CHN_a/out_0011/pw.inp
Warning: card &CELL ignored
Warning: card   CELL_DYNAMICS='IPI', ignored
Warning: card / ignored

     Current dimensions of program PWSCF are:
     Max number of different atomic species (ntypx) = 10
     Max number of k-points (npk) =  40000
     Max angular momentum in pseudopotentials (lmaxx) =  3
     Presently no symmetry can be used with electric field

     Message from routine cell_base_init:
     DEPRECATED: use true lattice parameter, not A to a.u. conversion factor

     IMPORTANT: XC functional enforced from input :
     Exchange-correlation= BEEF-VDW
                           (   1   4  43  14   2   0   0)
     Any further DFT definition will be discarded
     Please, verify this is what you really want

  @ DRIVER MODE: Connecting to
 qe_1139763_2767383.sched-torque.pace.gatech.edu4s7k245d_scratch
  using UNIX socket
  @ DRIVER MODE: Message from server: STATUS
  @ DRIVER MODE: Message from server: INIT
  @ DRIVER MODE: Receiving replica           0          -1
  @ DRIVER MODE: Receiving encoded integer          25
  @ DRIVER MODE:  SCF:  T  FORCE:  T  STRESS:  F  VC:  F  ENSEMBLE:  F
  @ DRIVER MODE:  SCF:  T  FORCE:  T  STRESS:  F  VC:  F  ENSEMBLE:  F

     Using Slab Decomposition

     bravais-lattice index     =            0
     lattice parameter (alat)  =       1.8897  a.u.
     unit-cell volume          =    6658.9804 (a.u.)^3
     number of atoms/cell      =           50
     number of atomic types    =            5
     number of electrons       =       388.00
     number of Kohn-Sham states=          204
     kinetic-energy cutoff     =      29.3995  Ry
     charge density cutoff     =     293.9946  Ry
     scf convergence threshold =      7.3E-08
     mixing beta               =       0.0500
     number of iterations used =            8  plain     mixing
     Exchange-correlation= BEEF-VDW
                           (   1   4  43  14   2   0   0)

     celldm(1)=   1.889726  celldm(2)=   0.000000  celldm(3)=   0.000000
     celldm(4)=   0.000000  celldm(5)=   0.000000  celldm(6)=   0.000000

     crystal axes: (cart. coord. in units of alat)
               a(1) = (   6.579727   0.000000   0.000000 )
               a(2) = (  -0.000775   5.961596   0.000000 )
               a(3) = (   0.000000   0.000000  25.155947 )

     reciprocal axes: (cart. coord. in units 2 pi/alat)
               b(1) = (  0.151982  0.000020  0.000000 )
               b(2) = (  0.000000  0.167740  0.000000 )
               b(3) = (  0.000000  0.000000  0.039752 )

     PseudoPot. # 1 for Ti read from file:
     /storage/coda1/p-amedford6/0/shared/rich_project_chbe-medford/medford-share/data/pseudos_module/espresso/nninc/pbe/van/Ti.UPF
     MD5 check sum: 8e4df49b7f0d34bbd5052bf3f5ea0213
     Pseudo is Ultrasoft, Zval = 12.0
     Generated by new atomic code, or converted to UPF format
     Using radial grid of  851 points,  6 beta functions with:
                l(1) =   0
                l(2) =   0
                l(3) =   1
                l(4) =   1
                l(5) =   2
                l(6) =   2
     Q(r) pseudized with  8 coefficients,  rinner =    1.000   1.000   1.000
                                                       1.000   1.000

     PseudoPot. # 2 for O  read from file:
     /storage/coda1/p-amedford6/0/shared/rich_project_chbe-medford/medford-share/data/pseudos_module/espresso/nninc/pbe/van/O.UPF
     MD5 check sum: 78c19812648e8988a0fe644b0f25305e
     Pseudo is Ultrasoft, Zval =  6.0
     Generated by new atomic code, or converted to UPF format
     Using radial grid of  737 points,  4 beta functions with:
                l(1) =   0
                l(2) =   0
                l(3) =   1
                l(4) =   1
     Q(r) pseudized with  8 coefficients,  rinner =    0.800   0.800   0.800

     PseudoPot. # 3 for N  read from file:
     /storage/coda1/p-amedford6/0/shared/rich_project_chbe-medford/medford-share/data/pseudos_module/espresso/nninc/pbe/van/N.UPF
     MD5 check sum: 90d10febe142ad51ac9d5be1deb811c4
     Pseudo is Ultrasoft, Zval =  5.0
     Generated by new atomic code, or converted to UPF format
     Using radial grid of  729 points,  4 beta functions with:
                l(1) =   0
                l(2) =   0
                l(3) =   1
                l(4) =   1
     Q(r) pseudized with  8 coefficients,  rinner =    0.800   0.800   0.800

     PseudoPot. # 4 for C  read from file:
     /storage/coda1/p-amedford6/0/shared/rich_project_chbe-medford/medford-share/data/pseudos_module/espresso/nninc/pbe/van/C.UPF
     MD5 check sum: 1a69bf6b8db32088f5b2163dbdb77a27
     Pseudo is Ultrasoft, Zval =  4.0
     Generated by new atomic code, or converted to UPF format
     Using radial grid of  721 points,  4 beta functions with:
                l(1) =   0
                l(2) =   0
                l(3) =   1
                l(4) =   1
     Q(r) pseudized with  8 coefficients,  rinner =    0.800   0.800   0.800

     PseudoPot. # 5 for H  read from file:
     /storage/coda1/p-amedford6/0/shared/rich_project_chbe-medford/medford-share/data/pseudos_module/espresso/nninc/pbe/van/H.UPF
     MD5 check sum: b5ee9d7bfd3a09ee7748110bda690ff7
     Pseudo is Ultrasoft, Zval =  1.0
     Generated by new atomic code, or converted to UPF format
     Using radial grid of  615 points,  1 beta functions with:
                l(1) =   0
     Q(r) pseudized with  8 coefficients,  rinner =    0.800

     atomic species   valence    mass     pseudopotential
        Ti1           12.00    47.86700     Ti( 1.00)
        O1             6.00    15.99900     O ( 1.00)
        N1             5.00    14.00700     N ( 1.00)
        C1             4.00    12.01100     C ( 1.00)
        H1             1.00     1.00800     H ( 1.00)

     No symmetry found

   Cartesian axes

     site n.     atom                  positions (alat units)
         1           Ti1 tau(   1) = (   0.0004258   2.9801865   6.0000000  )
         2           Ti1 tau(   2) = (   3.2906075   1.4906267   6.0002472  )
         3           O1  tau(   3) = (   0.0006271   0.0005054   7.9858123  )
         4           O1  tau(   4) = (   3.2906025   0.0005020   7.3038282  )
         5           O1  tau(   5) = (   4.5942328   1.4918067   9.2879030  )
         6           O1  tau(   6) = (   1.9868534   1.4903216   9.2879459  )
         7           Ti1 tau(   7) = (   3.2907910   2.8959150   9.1758416  )
         8           Ti1 tau(   8) = (   0.0015273   1.4827037   9.2680791  )
         9           O1  tau(   9) = (   3.3014052   0.0114069  11.3737528  )
        10           O1  tau(  10) = (   0.0116148   5.9584955  10.6183126  )
        11           O1  tau(  11) = (   1.3012034   1.4994444  12.6801950  )
        12           O1  tau(  12) = (   5.3042999   1.4981222  12.6788946  )
        13           Ti1 tau(  13) = (   0.0222102   2.9879630  12.5217794  )
        14           Ti1 tau(  14) = (   3.3166014   1.4969944  12.5290657  )
        15           O1  tau(  15) = (   0.0131148   5.9114811  14.6787674  )
        16           O1  tau(  16) = (   3.3052116   5.9585997  13.9918696  )
        17           O1  tau(  17) = (   4.5573354   1.5165695  16.1403462  )
        18           O1  tau(  18) = (   2.0429717   1.5180214  16.1331141  )
        19           Ti1 tau(  19) = (   3.3061463   3.0045039  15.7576854  )
        20           Ti1 tau(  20) = (   0.0190008   1.3629876  15.8180984  )
        21           O1  tau(  21) = (   3.2904802   0.0005063   4.7018136  )
        22           O1  tau(  22) = (   0.0120025   0.1123878  17.2186474  )
        23           O1  tau(  23) = (   1.3043587   1.4918075   6.0039043  )
        24           O1  tau(  24) = (   5.2767064   1.4903225   6.0039473  )
        25           Ti1 tau(  25) = (   0.0000382   5.9609847   6.0000000  )
        26           Ti1 tau(  26) = (   3.2902200   4.4714249   6.0002472  )
        27           O1  tau(  27) = (   0.0002396   2.9813036   7.9858123  )
        28           O1  tau(  28) = (   3.2902150   2.9813002   7.3038282  )
        29           O1  tau(  29) = (   4.5938453   4.4726049   9.2879030  )
        30           O1  tau(  30) = (   1.9864658   4.4711199   9.2879459  )
        31           Ti1 tau(  31) = (   3.2891106   5.8743827   9.1763621  )
        32           Ti1 tau(  32) = (   0.0006254   4.4649316   9.2693709  )
        33           O1  tau(  33) = (   3.3015003   2.9799855  11.3692792  )
        34           O1  tau(  34) = (   0.0092240   2.9805883  10.6323155  )
        35           O1  tau(  35) = (   1.3024855   4.4701597  12.6493271  )
        36           O1  tau(  36) = (   5.3029933   4.4710749  12.6473438  )
        37           Ti1 tau(  37) = (   0.0213219   5.9581237  12.5009821  )
        38           Ti1 tau(  38) = (   3.3165689   4.4756321  12.5216884  )
        39           O1  tau(  39) = (   0.0062450   3.0260372  14.9395602  )
        40           O1  tau(  40) = (   3.3068494   3.0035608  13.9656762  )
        41           O1  tau(  41) = (   4.5532872   4.4785133  16.2063021  )
        42           O1  tau(  42) = (   2.0453360   4.4758230  16.1992630  )
        43           Ti1 tau(  43) = (   3.3068391   0.0190840  15.7907057  )
        44           Ti1 tau(  44) = (   0.0173475   4.5946531  16.0781683  )
        45           O1  tau(  45) = (   3.2900926   2.9813045   4.7018136  )
        46           O1  tau(  46) = (   1.3039711   4.4726057   6.0039043  )
        47           O1  tau(  47) = (   5.2763189   4.4711207   6.0039473  )
        48           N1  tau(  48) = (   0.0050225   3.2246995  17.9653954  )
        49           C1  tau(  49) = (   6.5749124   2.4458835  18.8035322  )
        50           H1  tau(  50) = (   6.5624368   1.6931146  19.5645906  )

     number of k points=    10  Fermi-Dirac smearing, width (Ry)=  0.0073
                       cart. coord. in units 2pi/alat
        k(    1) = (   0.0000000   0.0000000   0.0000000), wk =   0.1250000
        k(    2) = (   0.0000000   0.0419351   0.0000000), wk =   0.2500000
        k(    3) = (   0.0000000  -0.0838702   0.0000000), wk =   0.1250000
        k(    4) = (   0.0379955   0.0000049   0.0000000), wk =   0.2500000
        k(    5) = (   0.0379955   0.0419400   0.0000000), wk =   0.2500000
        k(    6) = (   0.0379955  -0.0838652   0.0000000), wk =   0.2500000
        k(    7) = (   0.0379955  -0.0419301   0.0000000), wk =   0.2500000
        k(    8) = (  -0.0759910  -0.0000099   0.0000000), wk =   0.1250000
        k(    9) = (  -0.0759910   0.0419252   0.0000000), wk =   0.2500000
        k(   10) = (  -0.0759910  -0.0838800   0.0000000), wk =   0.1250000

     Initial potential from superposition of free atoms

     starting charge  371.99919, renormalised to  388.00000

     negative rho (up, down):  1.810E-02 0.000E+00

     %%%%%%%%%%%%%%%%%%%%%%%%%%%%%%%%%%%%%%%%%%%%%%%%%%%%%%%%%%%%%%%%%%%%%%%%
     %                                                                      %
     % You are using vdW-DF, which was implemented by the Thonhauser group. %
     % Please cite the following two papers that made this development      %
     % possible and the two reviews that describe the various versions:     %
     %                                                                      %
     %   T. Thonhauser et al., PRL 115, 136402 (2015).                      %
     %   T. Thonhauser et al., PRB 76, 125112 (2007).                       %
     %   K. Berland et al., Rep. Prog. Phys. 78, 066501 (2015).             %
     %   D.C. Langreth et al., J. Phys.: Condens. Matter 21, 084203 (2009). %
     %                                                                      %
     %                                                                      %
     % If you are calculating the stress with vdW-DF, please also cite:     %
     %                                                                      %
     %   R. Sabatini et al., J. Phys.: Condens. Matter 24, 424209 (2012).   %
     %                                                                      %
     %%%%%%%%%%%%%%%%%%%%%%%%%%%%%%%%%%%%%%%%%%%%%%%%%%%%%%%%%%%%%%%%%%%%%%%%

     Adding external electric field

     Computed dipole along edir(3) :
        Dipole               -4.8552 Ry au,        -12.3408 Debye
        Dipole field         -0.0092 Ry au,

        Potential amp.        0.8493 Ry
        Total length         46.3494 bohr

     Starting wfcs are  293 atomic wfcs
  @ DRIVER MODE: Message from server: STATUS
  @ DRIVER MODE: Message from server: POSDATA
  @ DRIVER MODE: Reading and sharing cell
  @ DRIVER MODE: Reading and sharing positions
  @ DRIVER MODE: Received positions

     Self-consistent Calculation

     iteration #  1     ecut=    29.40 Ry     beta= 0.05
     Davidson diagonalization with overlap
     c_bands:  5 eigenvalues not converged
     c_bands:  5 eigenvalues not converged
     c_bands:  5 eigenvalues not converged
     c_bands:  5 eigenvalues not converged
     c_bands:  3 eigenvalues not converged
     c_bands:  5 eigenvalues not converged
     c_bands:  4 eigenvalues not converged
     c_bands:  3 eigenvalues not converged
     c_bands:  1 eigenvalues not converged
     ethr =  1.00E-05,  avg # of iterations = 20.0

[...]

     total energy              =   -2846.17584581 Ry
     estimated scf accuracy    <     789.32444265 Ry

     iteration #  2     ecut=    29.40 Ry     beta= 0.05
     Davidson diagonalization with overlap
     ethr =  1.00E-02,  avg # of iterations = 15.5

[...]

     iteration # 81     ecut=    29.40 Ry     beta= 0.05
     Davidson diagonalization with overlap
     c_bands:  1 eigenvalues not converged
     ethr =  1.45E-10,  avg # of iterations = 11.3

[...]

     total energy              =   -2916.61449977 Ry
     estimated scf accuracy    <       0.00000010 Ry

     iteration # 83     ecut=    29.40 Ry     beta= 0.05
     Davidson diagonalization with overlap
     ethr =  2.61E-11,  avg # of iterations = 11.0

     negative rho (up, down):  1.835E-02 0.000E+00

     Adding external electric field

     Computed dipole along edir(3) :
        Dipole                1.5252 Ry au,          3.8768 Debye
        Dipole field          0.0029 Ry au,

        Potential amp.       -0.2668 Ry
        Total length         46.3494 bohr

     End of self-consistent calculation

          k = 0.0000 0.0000 0.0000 ( 18029 PWs)   bands (ev):

   -55.4372 -55.4012 -55.3938 -55.3597 -55.3165 -55.3127 -55.2768 -55.2560
   -55.2525 -55.2343 -55.2234 -55.2216 -55.1898 -55.1350 -54.4200 -54.3859
   -32.0037 -31.8858 -31.8447 -31.8014 -31.7470 -31.7453 -31.7405 -31.7280
   -31.6830 -31.6694 -31.6462 -31.6385 -31.6332 -31.6075 -31.5910 -31.5797
   -31.5741 -31.5611 -31.5542 -31.5460 -31.5292 -31.5201 -31.5072 -31.4920
   -31.4864 -31.4716 -31.4583 -31.4509 -31.4436 -31.4398 -31.4391 -31.4215
   -31.4159 -31.4073 -31.4050 -31.4042 -31.3699 -31.3551 -31.3518 -31.3409
   -31.3340 -31.2568 -30.8292 -30.7354 -30.7133 -30.6456 -30.5588 -30.4480
   -17.5037 -16.2553 -15.9869 -15.8361 -15.7305 -15.6326 -15.4993 -15.4803
   -15.3547 -15.2638 -15.1424 -15.0905 -15.0710 -15.0551 -15.0454 -15.0307
   -14.9789 -14.9742 -14.9439 -14.9317 -14.9093 -14.8715 -14.8662 -14.8327
   -14.8136 -14.7471 -14.6692 -14.5923 -14.5261 -14.2303 -12.9225 -12.8052
    -9.0077  -4.6860  -3.5981  -3.5504  -3.4499  -3.3504  -3.3320  -3.3046
    -3.2671  -3.1815  -3.0185  -2.8405  -2.7800  -2.7044  -2.6389  -2.6268
    -2.5979  -2.4393  -2.4013  -2.3535  -2.2981  -2.2734  -2.2442  -2.2212
    -2.1892  -2.1698  -2.1670  -2.1594  -2.0011  -1.9361  -1.8978  -1.8474
    -1.8294  -1.7779  -1.7554  -1.7228  -1.7193  -1.7141  -1.6621  -1.6494
    -1.6112  -1.5153  -1.4572  -1.3231  -1.2810  -1.1423  -1.0744  -1.0120
    -1.0002  -0.9205  -0.8859  -0.8786  -0.8183  -0.7925  -0.7745  -0.6508
    -0.5518  -0.5051  -0.4481  -0.4165  -0.3720  -0.3356  -0.2475  -0.2173
    -0.2011  -0.1916  -0.0493  -0.0206   0.0586   0.0863   0.1192   0.1203
     0.2247   0.2405   0.3158   0.3613   0.3919   0.4541   0.5049   0.5078
     0.5284   0.5540   0.5611   0.6556   0.6743   0.6844   0.7586   0.9028
     1.1304   1.1770   1.1864   1.5093   1.5213   1.6027   1.7870   2.1786
     2.2266   3.6606   3.7324   3.8024   3.8114   3.8475   3.8975   4.1296
     4.1416   4.1617   4.1681   4.2016

[...]

          k = 0.0380-0.0419 0.0000 ( 17876 PWs)   bands (ev):

[...]

          k =-0.0760-0.0000 0.0000 ( 17886 PWs)   bands (ev):

[...]

          k =-0.0760-0.0839 0.0000 ( 17948 PWs)   bands (ev):

   -55.4207 -55.4174 -55.3767 -55.3766 -55.3126 -55.3000 -55.2895 -55.2498
   -55.2400 -55.2380 -55.2372 -55.2070 -55.2064 -55.1376 -54.4031 -54.4026
   -31.8088 -31.8061 -31.7684 -31.7130 -31.7009 -31.7008 -31.6890 -31.6683
   -31.6682 -31.6454 -31.6361 -31.6330 -31.6236 -31.5814 -31.5731 -31.5695
   -31.5683 -31.5638 -31.5624 -31.5561 -31.5260 -31.5255 -31.5146 -31.5133
   -31.5073 -31.4963 -31.4963 -31.4955 -31.4823 -31.4771 -31.4729 -31.4700
   -31.4535 -31.4503 -31.4399 -31.4370 -31.4344 -31.4270 -31.3875 -31.3869
   -31.3463 -31.3456 -30.7262 -30.7258 -30.6419 -30.6416 -30.6024 -30.6020
   -17.4986 -15.7727 -15.6593 -15.6266 -15.4445 -15.4341 -15.3982 -15.3866
   -15.2434 -15.2017 -15.1932 -15.1839 -15.1353 -15.1339 -15.1310 -15.1087
   -15.0343 -15.0281 -15.0234 -15.0072 -14.9504 -14.9391 -14.9361 -14.9192
   -14.8878 -14.8838 -14.7897 -14.7865 -14.6835 -14.5876 -12.9068 -12.9065
    -9.0052  -4.6740  -3.4702  -3.3173  -2.9292  -2.8954  -2.8884  -2.6550
    -2.6279  -2.5956  -2.5528  -2.4811  -2.4322  -2.4113  -2.4078  -2.3393
    -2.2924  -2.2849  -2.2754  -2.2576  -2.2526  -2.2298  -2.1968  -2.1623
    -2.1525  -2.1261  -2.1119  -2.0900  -2.0711  -2.0363  -2.0222  -1.9981
    -1.9949  -1.8961  -1.8669  -1.7840  -1.7464  -1.7136  -1.6397  -1.6340
    -1.5321  -1.5284  -1.4751  -1.4637  -1.4258  -1.3200  -1.2347  -1.1831
    -1.1766  -1.1675  -1.0702  -0.9989  -0.9734  -0.9367  -0.9116  -0.8327
    -0.7738  -0.7526  -0.7122  -0.6277  -0.6238  -0.5606  -0.4573  -0.4162
    -0.3995  -0.3932  -0.3750  -0.3204  -0.3090  -0.2473  -0.2033  -0.1683
    -0.1574  -0.1134   0.0981   0.0993   0.1466   0.2602   0.2968   0.4476
     0.5252   0.5419   0.6189   0.6543   0.6804   0.7464   0.8537   0.8734
     0.8826   0.9571   0.9964   1.0210   1.0306   1.9598   1.9603   2.0466
     2.0467   3.7819   3.8978   3.9275   3.9775   4.0267   4.0761   4.1804
     4.2014   4.2438   4.2454   4.3232

     the Fermi energy is     3.7201 ev

!    total energy              =   -2916.61450680 Ry
     estimated scf accuracy    <       0.00000006 Ry
     smearing contrib. (-TS)   =      -0.03746329 Ry
     internal energy E=F+TS    =   -2916.57704351 Ry

     The total energy is F=E-TS. E is the sum of the following terms:
     one-electron contribution =  -24446.85676392 Ry
     hartree contribution      =   12310.96775923 Ry
     xc contribution           =    -478.38301994 Ry
     ewald contribution        =    9697.69059093 Ry
     electric field correction =       0.00439019 Ry

     convergence has been achieved in  83 iterations

     Forces acting on atoms (cartesian axes, Ry/au):

     atom    1 type  1   force =     0.00000489   -0.00029034    0.09340764
     atom    2 type  1   force =    -0.00018537   -0.00046714   -0.17792029
     atom    3 type  2   force =     0.00002122   -0.00034981   -0.02063243
     atom    4 type  2   force =    -0.00003585   -0.00187373    0.05840224
     atom    5 type  2   force =    -0.01035172   -0.00073492    0.00710700
     atom    6 type  2   force =     0.01201460   -0.00013499    0.00687784
     atom    7 type  1   force =    -0.00010987    0.00192220   -0.01365356
     atom    8 type  1   force =    -0.00009424    0.00175618   -0.00206354
     atom    9 type  2   force =    -0.00004776   -0.00044976   -0.00034332
     atom   10 type  2   force =    -0.00120100    0.00257687   -0.00295691
     atom   11 type  2   force =    -0.00066362   -0.00012356    0.00015403
     atom   12 type  2   force =     0.00050637   -0.00008235   -0.00004021
     atom   13 type  1   force =    -0.00007068   -0.00002791   -0.00004349
     atom   14 type  1   force =    -0.00002340   -0.00004032    0.00020546
     atom   15 type  2   force =    -0.00010600    0.00026244    0.00024271
     atom   16 type  2   force =    -0.00002897   -0.00011056   -0.00011010
     atom   17 type  2   force =     0.00083578    0.00007891    0.00002836
     atom   18 type  2   force =    -0.00037914    0.00005956    0.00040214
     atom   19 type  1   force =    -0.00027816    0.00038212   -0.00004322
     atom   20 type  1   force =    -0.00014270    0.00024161   -0.00023461
     atom   21 type  2   force =    -0.00002506   -0.00012424    0.10392467
     atom   22 type  2   force =    -0.00006944    0.00026652    0.00058450
     atom   23 type  2   force =    -0.07053424   -0.00020959   -0.02694899
     atom   24 type  2   force =     0.07031957    0.00022881   -0.02699846
     atom   25 type  1   force =     0.00001604   -0.00033534    0.09297913
     atom   26 type  1   force =    -0.00019534   -0.00053328   -0.17813462
     atom   27 type  2   force =     0.00005992   -0.00022992   -0.01964029
     atom   28 type  2   force =     0.00001315   -0.00163431    0.05787111
     atom   29 type  2   force =    -0.01085096   -0.00057601    0.00760353
     atom   30 type  2   force =     0.01237758   -0.00022917    0.00734742
     atom   31 type  1   force =    -0.00004024    0.00593095   -0.01473390
     atom   32 type  1   force =    -0.00011997   -0.00212764   -0.00201552
     atom   33 type  2   force =     0.00002147   -0.00005750   -0.00030554
     atom   34 type  2   force =    -0.00064579   -0.00099835   -0.00059909
     atom   35 type  2   force =    -0.00011577   -0.00007602    0.00014966
     atom   36 type  2   force =    -0.00007370   -0.00001638    0.00022700
     atom   37 type  1   force =     0.00022372   -0.00077702   -0.00002660
     atom   38 type  1   force =    -0.00006019   -0.00009902    0.00016279
     atom   39 type  2   force =     0.00011792   -0.00037314    0.00028845
     atom   40 type  2   force =    -0.00021816   -0.00011600   -0.00037746
     atom   41 type  2   force =     0.00056413   -0.00015751   -0.00031446
     atom   42 type  2   force =    -0.00013712    0.00006740    0.00009527
     atom   43 type  1   force =    -0.00016598   -0.00013618   -0.00006535
     atom   44 type  1   force =     0.00009133    0.00019017   -0.00022153
     atom   45 type  2   force =    -0.00002282   -0.00014639    0.10391320
     atom   46 type  2   force =    -0.07051535   -0.00018098   -0.02693867
     atom   47 type  2   force =     0.07030932    0.00024919   -0.02699180
     atom   48 type  3   force =     0.00056728    0.02381139   -0.02574436
     atom   49 type  4   force =    -0.00072727   -0.03032513    0.03443165
     atom   50 type  5   force =     0.00017159    0.00612021   -0.00830747

     Total force =     0.370590     Total SCF correction =     0.000861
  @ DRIVER MODE: Message from server: STATUS
  @ DRIVER MODE: Message from server: GETFORCE
  @ DRIVER MODE: Returning v,forces,stress,ensemble

     Writing output data file ./calc.save/
  @ DRIVER MODE: Message from server: EXIT
  @ DRIVE MODE: Exiting

     General routines

     Parallel routines

   This run was terminated on:   1:19:22   9Sep2021

   JOB DONE.