     Program PWSCF v.6.7GPU starts on  9Sep2021 at  7:21:45

     R & G space division:  proc/nbgrp/npool/nimage =      10
     Reading input from /storage/home/hcoda1/3/ntian30/research/carbon/CxH_vib/CH3_calc/ads_slab/CH3NHNH_a/out_0030/pw.inp
Warning: card &CELL ignored
Warning: card   CELL_DYNAMICS='IPI', ignored
Warning: card / ignored

     Current dimensions of program PWSCF are:
     Max number of different atomic species (ntypx) = 10
     Max number of k-points (npk) =  40000
     Max angular momentum in pseudopotentials (lmaxx) =  3
     Presently no symmetry can be used with electric field

     Message from routine cell_base_init:
     DEPRECATED: use true lattice parameter, not A to a.u. conversion factor

     IMPORTANT: XC functional enforced from input :
     Exchange-correlation= BEEF-VDW
                           (   1   4  43  14   2   0   0)
     Any further DFT definition will be discarded
     Please, verify this is what you really want

  @ DRIVER MODE: Connecting to
 qe_1139763_2767401.sched-torque.pace.gatech.edunginjgpv_scratch
  using UNIX socket
  @ DRIVER MODE: Message from server: STATUS
  @ DRIVER MODE: Message from server: INIT
  @ DRIVER MODE: Receiving replica           0          -1
  @ DRIVER MODE: Receiving encoded integer          25
  @ DRIVER MODE:  SCF:  T  FORCE:  T  STRESS:  F  VC:  F  ENSEMBLE:  F
  @ DRIVER MODE:  SCF:  T  FORCE:  T  STRESS:  F  VC:  F  ENSEMBLE:  F

     Using Slab Decomposition

     bravais-lattice index     =            0
     lattice parameter (alat)  =       1.8897  a.u.
     unit-cell volume          =    6658.9804 (a.u.)^3
     number of atoms/cell      =           55
     number of atomic types    =            5
     number of electrons       =       397.00
     number of Kohn-Sham states=          208
     kinetic-energy cutoff     =      29.3995  Ry
     charge density cutoff     =     293.9946  Ry
     scf convergence threshold =      7.3E-08
     mixing beta               =       0.0500
     number of iterations used =            8  plain     mixing
     Exchange-correlation= BEEF-VDW
                           (   1   4  43  14   2   0   0)

     celldm(1)=   1.889726  celldm(2)=   0.000000  celldm(3)=   0.000000
     celldm(4)=   0.000000  celldm(5)=   0.000000  celldm(6)=   0.000000

     crystal axes: (cart. coord. in units of alat)
               a(1) = (   6.579727   0.000000   0.000000 )
               a(2) = (  -0.000775   5.961596   0.000000 )
               a(3) = (   0.000000   0.000000  25.155947 )

     reciprocal axes: (cart. coord. in units 2 pi/alat)
               b(1) = (  0.151982  0.000020  0.000000 )
               b(2) = (  0.000000  0.167740  0.000000 )
               b(3) = (  0.000000  0.000000  0.039752 )

     PseudoPot. # 1 for Ti read from file:
     /storage/coda1/p-amedford6/0/shared/rich_project_chbe-medford/medford-share/data/pseudos_module/espresso/nninc/pbe/van/Ti.UPF
     MD5 check sum: 8e4df49b7f0d34bbd5052bf3f5ea0213
     Pseudo is Ultrasoft, Zval = 12.0
     Generated by new atomic code, or converted to UPF format
     Using radial grid of  851 points,  6 beta functions with:
                l(1) =   0
                l(2) =   0
                l(3) =   1
                l(4) =   1
                l(5) =   2
                l(6) =   2
     Q(r) pseudized with  8 coefficients,  rinner =    1.000   1.000   1.000
                                                       1.000   1.000

     PseudoPot. # 2 for O  read from file:
     /storage/coda1/p-amedford6/0/shared/rich_project_chbe-medford/medford-share/data/pseudos_module/espresso/nninc/pbe/van/O.UPF
     MD5 check sum: 78c19812648e8988a0fe644b0f25305e
     Pseudo is Ultrasoft, Zval =  6.0
     Generated by new atomic code, or converted to UPF format
     Using radial grid of  737 points,  4 beta functions with:
                l(1) =   0
                l(2) =   0
                l(3) =   1
                l(4) =   1
     Q(r) pseudized with  8 coefficients,  rinner =    0.800   0.800   0.800

     PseudoPot. # 3 for N  read from file:
     /storage/coda1/p-amedford6/0/shared/rich_project_chbe-medford/medford-share/data/pseudos_module/espresso/nninc/pbe/van/N.UPF
     MD5 check sum: 90d10febe142ad51ac9d5be1deb811c4
     Pseudo is Ultrasoft, Zval =  5.0
     Generated by new atomic code, or converted to UPF format
     Using radial grid of  729 points,  4 beta functions with:
                l(1) =   0
                l(2) =   0
                l(3) =   1
                l(4) =   1
     Q(r) pseudized with  8 coefficients,  rinner =    0.800   0.800   0.800

     PseudoPot. # 4 for C  read from file:
     /storage/coda1/p-amedford6/0/shared/rich_project_chbe-medford/medford-share/data/pseudos_module/espresso/nninc/pbe/van/C.UPF
     MD5 check sum: 1a69bf6b8db32088f5b2163dbdb77a27
     Pseudo is Ultrasoft, Zval =  4.0
     Generated by new atomic code, or converted to UPF format
     Using radial grid of  721 points,  4 beta functions with:
                l(1) =   0
                l(2) =   0
                l(3) =   1
                l(4) =   1
     Q(r) pseudized with  8 coefficients,  rinner =    0.800   0.800   0.800

     PseudoPot. # 5 for H  read from file:
     /storage/coda1/p-amedford6/0/shared/rich_project_chbe-medford/medford-share/data/pseudos_module/espresso/nninc/pbe/van/H.UPF
     MD5 check sum: b5ee9d7bfd3a09ee7748110bda690ff7
     Pseudo is Ultrasoft, Zval =  1.0
     Generated by new atomic code, or converted to UPF format
     Using radial grid of  615 points,  1 beta functions with:
                l(1) =   0
     Q(r) pseudized with  8 coefficients,  rinner =    0.800

     atomic species   valence    mass     pseudopotential
        Ti1           12.00    47.86700     Ti( 1.00)
        O1             6.00    15.99900     O ( 1.00)
        N1             5.00    14.00700     N ( 1.00)
        C1             4.00    12.01100     C ( 1.00)
        H1             1.00     1.00800     H ( 1.00)

     No symmetry found

   Cartesian axes

     site n.     atom                  positions (alat units)
         1           Ti1 tau(   1) = (   0.0004258   2.9801865   6.0000000  )
         2           Ti1 tau(   2) = (   3.2906075   1.4906267   6.0002472  )
         3           O1  tau(   3) = (   0.0006271   0.0005054   7.9858123  )
         4           O1  tau(   4) = (   3.2906025   0.0005020   7.3038282  )
         5           O1  tau(   5) = (   4.5942328   1.4918067   9.2879030  )
         6           O1  tau(   6) = (   1.9868534   1.4903216   9.2879459  )
         7           Ti1 tau(   7) = (   3.2907910   2.8959150   9.1758416  )
         8           Ti1 tau(   8) = (   0.0015273   1.4827037   9.2680791  )
         9           O1  tau(   9) = (   3.2830128   5.9597860  11.3344455  )
        10           O1  tau(  10) = (   0.0116148   5.9584955  10.6183126  )
        11           O1  tau(  11) = (   1.2885291   1.4855062  12.6376555  )
        12           O1  tau(  12) = (   5.2724004   1.4911608  12.5936499  )
        13           Ti1 tau(  13) = (   0.0410009   3.0319447  12.6084003  )
        14           Ti1 tau(  14) = (   3.3739341   1.4916561  12.4823474  )
        15           O1  tau(  15) = (   6.4862162   0.0153916  14.6455093  )
        16           O1  tau(  16) = (   3.3439542   5.9611638  13.9051029  )
        17           O1  tau(  17) = (   4.4933269   1.5483200  16.1231154  )
        18           O1  tau(  18) = (   1.9964937   1.4536654  15.9127221  )
        19           Ti1 tau(  19) = (   3.1412959   3.0017366  15.7441667  )
        20           Ti1 tau(  20) = (   6.4823597   1.5369342  15.8006069  )
        21           O1  tau(  21) = (   3.2904802   0.0005063   4.7018136  )
        22           O1  tau(  22) = (   6.5709111   0.0522475  17.2082838  )
        23           O1  tau(  23) = (   1.3043587   1.4918075   6.0039043  )
        24           O1  tau(  24) = (   5.2767064   1.4903225   6.0039473  )
        25           Ti1 tau(  25) = (   0.0000382   5.9609847   6.0000000  )
        26           Ti1 tau(  26) = (   3.2902200   4.4714249   6.0002472  )
        27           O1  tau(  27) = (   0.0002396   2.9813036   7.9858123  )
        28           O1  tau(  28) = (   3.2902150   2.9813002   7.3038282  )
        29           O1  tau(  29) = (   4.5938453   4.4726049   9.2879030  )
        30           O1  tau(  30) = (   1.9864658   4.4711199   9.2879459  )
        31           Ti1 tau(  31) = (   3.2891106   5.8743827   9.1763621  )
        32           Ti1 tau(  32) = (   0.0006254   4.4649316   9.2693709  )
        33           O1  tau(  33) = (   3.2833609   2.9822938  11.3349093  )
        34           O1  tau(  34) = (   0.0092240   2.9805883  10.6323155  )
        35           O1  tau(  35) = (   1.2838611   4.4860338  12.6468719  )
        36           O1  tau(  36) = (   5.2760156   4.4607002  12.6015494  )
        37           Ti1 tau(  37) = (   0.0673138   0.0440259  12.5461749  )
        38           Ti1 tau(  38) = (   3.3712377   4.4654930  12.4933830  )
        39           O1  tau(  39) = (   6.5217465   2.9589972  14.6412948  )
        40           O1  tau(  40) = (   3.2809526   2.9956502  13.9333893  )
        41           O1  tau(  41) = (   4.4911989   4.4583117  16.1637052  )
        42           O1  tau(  42) = (   1.9937212   4.5427850  15.9740970  )
        43           Ti1 tau(  43) = (   3.2955853   0.0167752  15.6963065  )
        44           Ti1 tau(  44) = (   6.5082246   4.6715011  16.1069148  )
        45           O1  tau(  45) = (   3.2900926   2.9813045   4.7018136  )
        46           O1  tau(  46) = (   1.3039711   4.4726057   6.0039043  )
        47           O1  tau(  47) = (   5.2763189   4.4711207   6.0039473  )
        48           N1  tau(  48) = (   1.3945086   2.8365607  18.1849301  )
        49           N1  tau(  49) = (   0.1777896   2.9650562  17.4211889  )
        50           C1  tau(  50) = (   1.4118813   3.7128676  19.3556819  )
        51           H1  tau(  51) = (   0.5171711   3.5996102  19.9880000  )
        52           H1  tau(  52) = (   2.2935099   3.4681107  19.9617681  )
        53           H1  tau(  53) = (   1.4703795   4.7520035  19.0319817  )
        54           H1  tau(  54) = (   1.4579882   1.8621926  18.4823179  )
        55           H1  tau(  55) = (   5.9558665   2.8747675  18.0551794  )

     number of k points=    10  Fermi-Dirac smearing, width (Ry)=  0.0073
                       cart. coord. in units 2pi/alat
        k(    1) = (   0.0000000   0.0000000   0.0000000), wk =   0.1250000
        k(    2) = (   0.0000000   0.0419351   0.0000000), wk =   0.2500000
        k(    3) = (   0.0000000  -0.0838702   0.0000000), wk =   0.1250000
        k(    4) = (   0.0379955   0.0000049   0.0000000), wk =   0.2500000
        k(    5) = (   0.0379955   0.0419400   0.0000000), wk =   0.2500000
        k(    6) = (   0.0379955  -0.0838652   0.0000000), wk =   0.2500000
        k(    7) = (   0.0379955  -0.0419301   0.0000000), wk =   0.2500000
        k(    8) = (  -0.0759910  -0.0000099   0.0000000), wk =   0.1250000
        k(    9) = (  -0.0759910   0.0419252   0.0000000), wk =   0.2500000
        k(   10) = (  -0.0759910  -0.0838800   0.0000000), wk =   0.1250000

     Initial potential from superposition of free atoms

     starting charge  380.99914, renormalised to  397.00000

     negative rho (up, down):  1.539E-02 0.000E+00

     %%%%%%%%%%%%%%%%%%%%%%%%%%%%%%%%%%%%%%%%%%%%%%%%%%%%%%%%%%%%%%%%%%%%%%%%
     %                                                                      %
     % You are using vdW-DF, which was implemented by the Thonhauser group. %
     % Please cite the following two papers that made this development      %
     % possible and the two reviews that describe the various versions:     %
     %                                                                      %
     %   T. Thonhauser et al., PRL 115, 136402 (2015).                      %
     %   T. Thonhauser et al., PRB 76, 125112 (2007).                       %
     %   K. Berland et al., Rep. Prog. Phys. 78, 066501 (2015).             %
     %   D.C. Langreth et al., J. Phys.: Condens. Matter 21, 084203 (2009). %
     %                                                                      %
     %                                                                      %
     % If you are calculating the stress with vdW-DF, please also cite:     %
     %                                                                      %
     %   R. Sabatini et al., J. Phys.: Condens. Matter 24, 424209 (2012).   %
     %                                                                      %
     %%%%%%%%%%%%%%%%%%%%%%%%%%%%%%%%%%%%%%%%%%%%%%%%%%%%%%%%%%%%%%%%%%%%%%%%

     Adding external electric field

     Computed dipole along edir(3) :
        Dipole               -9.6188 Ry au,        -24.4486 Debye
        Dipole field         -0.0182 Ry au,

        Potential amp.        1.6827 Ry
        Total length         46.3494 bohr

     Starting wfcs are  301 atomic wfcs
  @ DRIVER MODE: Message from server: STATUS
  @ DRIVER MODE: Message from server: POSDATA
  @ DRIVER MODE: Reading and sharing cell
  @ DRIVER MODE: Reading and sharing positions
  @ DRIVER MODE: Received positions

     Self-consistent Calculation

     iteration #  1     ecut=    29.40 Ry     beta= 0.05
     Davidson diagonalization with overlap
     c_bands:  1 eigenvalues not converged
     c_bands:  1 eigenvalues not converged
     c_bands:  1 eigenvalues not converged
     c_bands:  1 eigenvalues not converged
     c_bands:  1 eigenvalues not converged
     c_bands:  1 eigenvalues not converged
     c_bands:  2 eigenvalues not converged
     ethr =  1.00E-05,  avg # of iterations = 18.8

[...]

     total energy              =   -2533.38064138 Ry
     estimated scf accuracy    <    4541.51645995 Ry

     iteration #  2     ecut=    29.40 Ry     beta= 0.05
     Davidson diagonalization with overlap
     ethr =  1.00E-02,  avg # of iterations = 24.3

[...]

     iteration # 61     ecut=    29.40 Ry     beta= 0.05
     Davidson diagonalization with overlap
     c_bands:  1 eigenvalues not converged
     ethr =  1.29E-09,  avg # of iterations = 15.1

[...]

     total energy              =   -2941.66151779 Ry
     estimated scf accuracy    <       0.00000035 Ry

     iteration # 68     ecut=    29.40 Ry     beta= 0.05
     Davidson diagonalization with overlap
     ethr =  6.11E-11,  avg # of iterations =  9.0

     negative rho (up, down):  1.606E-02 0.000E+00

     Adding external electric field

     Computed dipole along edir(3) :
        Dipole                0.9427 Ry au,          2.3962 Debye
        Dipole field          0.0018 Ry au,

        Potential amp.       -0.1649 Ry
        Total length         46.3494 bohr

     End of self-consistent calculation

          k = 0.0000 0.0000 0.0000 ( 18029 PWs)   bands (ev):

   -55.6876 -55.6705 -55.6535 -55.6339 -55.5933 -55.5391 -55.5322 -55.5019
   -55.4962 -55.4679 -55.4658 -55.4317 -55.2598 -55.0356 -54.6677 -54.6337
   -32.2215 -32.1707 -32.0436 -32.0337 -32.0003 -31.9856 -31.9803 -31.9562
   -31.9315 -31.8997 -31.8974 -31.8911 -31.8480 -31.8398 -31.8260 -31.8242
   -31.8076 -31.7925 -31.7835 -31.7485 -31.7447 -31.7378 -31.7222 -31.7188
   -31.6955 -31.6911 -31.6887 -31.6809 -31.6664 -31.6646 -31.6569 -31.6478
   -31.6419 -31.6324 -31.6188 -31.6094 -31.5780 -31.5100 -31.4663 -31.3018
   -31.2924 -31.2382 -31.0749 -30.9864 -30.9640 -30.8917 -30.8052 -30.6941
   -16.7734 -16.4181 -16.1633 -15.9339 -15.8429 -15.8125 -15.6601 -15.5285
   -15.4191 -15.3374 -15.2525 -15.2334 -15.2261 -15.2154 -15.1893 -15.1837
   -15.1364 -15.1318 -15.1123 -15.0994 -15.0492 -15.0329 -15.0293 -14.9346
   -14.8707 -14.8353 -14.8206 -14.7859 -14.7485 -14.3346 -13.1703 -13.0539
   -11.8026  -8.9760  -5.4312  -4.3703  -3.8320  -3.7889  -3.6455  -3.5950
    -3.5345  -3.4927  -3.3179  -3.2158  -2.9430  -2.8859  -2.8564  -2.8474
    -2.7905  -2.7592  -2.6022  -2.5762  -2.5048  -2.4954  -2.4811  -2.4520
    -2.4423  -2.4350  -2.3945  -2.3762  -2.3484  -2.2440  -2.1039  -2.0943
    -2.0722  -2.0391  -2.0014  -1.9528  -1.9364  -1.9161  -1.8977  -1.8852
    -1.8725  -1.7376  -1.7026  -1.5863  -1.4968  -1.4496  -1.3698  -1.2994
    -1.2683  -1.1589  -1.1190  -1.1061  -1.0925  -1.0816  -0.9819  -0.8764
    -0.8591  -0.8212  -0.7660  -0.7103  -0.6397  -0.5948  -0.5439  -0.4916
    -0.4673  -0.4521  -0.4493  -0.4141  -0.3226  -0.1813  -0.1294  -0.0950
    -0.0728   0.0039   0.0390   0.0951   0.1195   0.1430   0.1788   0.2319
     0.2754   0.2819   0.2953   0.3099   0.3145   0.4889   0.5384   0.5802
     0.6133   0.6595   0.8207   0.8429   0.9645   1.0387   1.2004   1.2798
     1.3543   1.4324   1.5461   1.6210   1.9256   1.9713   3.4431   3.5307
     3.5754   3.5892   3.6846   3.7264   3.8958   3.9266   3.9409   4.0012

[...]

          k = 0.0380-0.0419 0.0000 ( 17876 PWs)   bands (ev):

[...]

          k =-0.0760-0.0000 0.0000 ( 17886 PWs)   bands (ev):

[...]

          k =-0.0760-0.0839 0.0000 ( 17948 PWs)   bands (ev):

   -55.6708 -55.6702 -55.6558 -55.6484 -55.5873 -55.5450 -55.5196 -55.5088
   -55.4854 -55.4839 -55.4517 -55.4460 -55.2586 -55.0366 -54.6507 -54.6506
   -32.0306 -32.0209 -31.9862 -31.9857 -31.9660 -31.9653 -31.9453 -31.9388
   -31.8859 -31.8853 -31.8751 -31.8698 -31.8529 -31.8350 -31.8104 -31.8055
   -31.8012 -31.7976 -31.7909 -31.7909 -31.7897 -31.7893 -31.7854 -31.7459
   -31.7376 -31.7262 -31.7179 -31.7066 -31.6858 -31.6848 -31.6827 -31.6760
   -31.6661 -31.6621 -31.6589 -31.6564 -31.6157 -31.5125 -31.4630 -31.3640
   -31.2945 -31.2642 -30.9768 -30.9767 -30.8877 -30.8876 -30.8485 -30.8485
   -16.7473 -15.8654 -15.8043 -15.6464 -15.6111 -15.5916 -15.5567 -15.4960
   -15.4128 -15.3855 -15.3809 -15.3339 -15.3081 -15.2753 -15.2372 -15.2229
   -15.2156 -15.1968 -15.1845 -15.1506 -15.1411 -15.1295 -15.1223 -15.0470
   -15.0091 -15.0047 -14.9995 -14.8958 -14.7694 -14.5023 -13.1557 -13.1556
   -11.8090  -8.9903  -5.4452  -4.3575  -3.7510  -3.1581  -3.0711  -2.8963
    -2.8407  -2.8120  -2.7959  -2.6298  -2.6190  -2.6043  -2.5572  -2.5366
    -2.5262  -2.5180  -2.5094  -2.4883  -2.4755  -2.4395  -2.4305  -2.3955
    -2.3814  -2.3636  -2.3468  -2.3296  -2.3099  -2.2955  -2.2775  -2.2382
    -2.2184  -2.2081  -2.1874  -2.1432  -1.9333  -1.8831  -1.8362  -1.8316
    -1.8227  -1.8029  -1.7481  -1.7433  -1.7094  -1.6578  -1.5796  -1.4348
    -1.3893  -1.3729  -1.2799  -1.2583  -1.2056  -1.1335  -1.0878  -1.0707
    -1.0356  -0.9717  -0.9353  -0.8982  -0.8317  -0.8071  -0.8013  -0.7075
    -0.6867  -0.6505  -0.6438  -0.5653  -0.5145  -0.4518  -0.4364  -0.4200
    -0.3884  -0.3549  -0.3369  -0.2689  -0.1769  -0.1758  -0.1533  -0.0437
     0.0470   0.2753   0.3381   0.3751   0.4200   0.5136   0.5819   0.6067
     0.6226   0.6442   0.6636   0.7118   0.8389   0.8489   0.8831   0.9960
     1.0992   1.6372   1.7178   1.7187   1.7911   1.7912   3.7448   3.7631
     3.7836   3.8301   3.9493   3.9562   3.9782   3.9803   4.1032   4.1165

     the Fermi energy is     3.4448 ev

!    total energy              =   -2941.66154403 Ry
     estimated scf accuracy    <       0.00000007 Ry
     smearing contrib. (-TS)   =      -0.02151757 Ry
     internal energy E=F+TS    =   -2941.64002646 Ry

     The total energy is F=E-TS. E is the sum of the following terms:
     one-electron contribution =  -24275.58094419 Ry
     hartree contribution      =   12228.23135447 Ry
     xc contribution           =    -486.86917924 Ry
     ewald contribution        =    9592.57706530 Ry
     electric field correction =       0.00167720 Ry

     convergence has been achieved in  68 iterations

     Forces acting on atoms (cartesian axes, Ry/au):

     atom    1 type  1   force =     0.00018185   -0.00011591    0.09637558
     atom    2 type  1   force =    -0.00021916   -0.00063052   -0.17548878
     atom    3 type  2   force =    -0.00004031   -0.00003363   -0.02417999
     atom    4 type  2   force =     0.00005104   -0.00143814    0.05290582
     atom    5 type  2   force =    -0.01181913   -0.00048923    0.00397055
     atom    6 type  2   force =     0.01313303    0.00023824    0.00230608
     atom    7 type  1   force =    -0.00140400    0.00080503   -0.01150999
     atom    8 type  1   force =     0.00053282    0.00920764    0.02520141
     atom    9 type  2   force =    -0.00010532    0.00017379    0.00042334
     atom   10 type  2   force =    -0.00086262    0.00148655   -0.01579360
     atom   11 type  2   force =    -0.00019726   -0.00049750    0.00038969
     atom   12 type  2   force =    -0.00014361   -0.00025643    0.00002418
     atom   13 type  1   force =     0.00055264   -0.00091308    0.00006150
     atom   14 type  1   force =    -0.00008907   -0.00040583    0.00023251
     atom   15 type  2   force =     0.00017664    0.00005948   -0.00028315
     atom   16 type  2   force =     0.00006873    0.00024670    0.00004144
     atom   17 type  2   force =    -0.00051256    0.00034943    0.00046221
     atom   18 type  2   force =     0.00012591    0.00011251    0.00026077
     atom   19 type  1   force =     0.00010056   -0.00055114    0.00028548
     atom   20 type  1   force =     0.00017006    0.00030426    0.00058930
     atom   21 type  2   force =     0.00007513   -0.00008164    0.10316992
     atom   22 type  2   force =    -0.00042465   -0.00027491    0.00018675
     atom   23 type  2   force =    -0.07145755   -0.00018206   -0.02769119
     atom   24 type  2   force =     0.07138053    0.00024910   -0.02769020
     atom   25 type  1   force =     0.00003186   -0.00026967    0.09583895
     atom   26 type  1   force =    -0.00014894   -0.00023110   -0.17566297
     atom   27 type  2   force =     0.00009284   -0.00012260   -0.02328199
     atom   28 type  2   force =     0.00007958   -0.00129534    0.05333104
     atom   29 type  2   force =    -0.01194801   -0.00005452    0.00376742
     atom   30 type  2   force =     0.01319988    0.00043274    0.00214494
     atom   31 type  1   force =    -0.00141801    0.00344668   -0.01083997
     atom   32 type  1   force =     0.00064424   -0.01009947    0.02560900
     atom   33 type  2   force =    -0.00038648    0.00005148    0.00008601
     atom   34 type  2   force =     0.00075086    0.00090331   -0.02306541
     atom   35 type  2   force =    -0.00011589    0.00028865   -0.00003104
     atom   36 type  2   force =    -0.00023378    0.00059088   -0.00029581
     atom   37 type  1   force =    -0.00081799   -0.00102174   -0.00016250
     atom   38 type  1   force =    -0.00003314   -0.00010152   -0.00004437
     atom   39 type  2   force =    -0.00034876    0.00001700    0.00058388
     atom   40 type  2   force =     0.00048608    0.00025171    0.00026410
     atom   41 type  2   force =     0.00004837    0.00050664    0.00023972
     atom   42 type  2   force =     0.00008515    0.00027995   -0.00020251
     atom   43 type  1   force =     0.00019626    0.00009090   -0.00017733
     atom   44 type  1   force =    -0.00025897   -0.00056703    0.00002985
     atom   45 type  2   force =     0.00007052   -0.00008793    0.10320072
     atom   46 type  2   force =    -0.07145844   -0.00016715   -0.02768797
     atom   47 type  2   force =     0.07138601    0.00030717   -0.02769950
     atom   48 type  3   force =     0.00021416   -0.00049105    0.00051458
     atom   49 type  3   force =     0.00048721   -0.00002605    0.00055492
     atom   50 type  4   force =     0.00447869   -0.00107934    0.00533015
     atom   51 type  5   force =     0.00062185    0.00053749   -0.00102085
     atom   52 type  5   force =    -0.00477530    0.00183380   -0.00563980
     atom   53 type  5   force =     0.00003366   -0.00173366    0.00071460
     atom   54 type  5   force =     0.00003370    0.00069863   -0.00049408
     atom   55 type  5   force =    -0.00027092   -0.00025157   -0.00015342

     Total force =     0.367411     Total SCF correction =     0.001098
  @ DRIVER MODE: Message from server: STATUS
  @ DRIVER MODE: Message from server: GETFORCE
  @ DRIVER MODE: Returning v,forces,stress,ensemble

     Writing output data file ./calc.save/
  @ DRIVER MODE: Message from server: EXIT
  @ DRIVE MODE: Exiting

     General routines

     Parallel routines

   This run was terminated on:   7:39:48   9Sep2021

   JOB DONE.