     Program PWSCF v.6.7GPU starts on 14Sep2021 at 15:13: 2

     R & G space division:  proc/nbgrp/npool/nimage =      10
     Reading input from /storage/home/hcoda1/3/ntian30/research/carbon/CxH_vib/CH_calc/ads_slab/CHON2_d/out_0005/pw.inp
Warning: card &CELL ignored
Warning: card   CELL_DYNAMICS='IPI', ignored
Warning: card / ignored

     Current dimensions of program PWSCF are:
     Max number of different atomic species (ntypx) = 10
     Max number of k-points (npk) =  40000
     Max angular momentum in pseudopotentials (lmaxx) =  3
     Presently no symmetry can be used with electric field

     Message from routine cell_base_init:
     DEPRECATED: use true lattice parameter, not A to a.u. conversion factor

     IMPORTANT: XC functional enforced from input :
     Exchange-correlation= BEEF-VDW
                           (   1   4  43  14   2   0   0)
     Any further DFT definition will be discarded
     Please, verify this is what you really want

  @ DRIVER MODE: Connecting to
 qe_1139763_2840438.sched-torque.pace.gatech.edu5775g5a__scratch
  using UNIX socket
  @ DRIVER MODE: Message from server: STATUS
  @ DRIVER MODE: Message from server: INIT
  @ DRIVER MODE: Receiving replica           0          -1
  @ DRIVER MODE: Receiving encoded integer          25
  @ DRIVER MODE:  SCF:  T  FORCE:  T  STRESS:  F  VC:  F  ENSEMBLE:  F
  @ DRIVER MODE:  SCF:  T  FORCE:  T  STRESS:  F  VC:  F  ENSEMBLE:  F

     Using Slab Decomposition

     bravais-lattice index     =            0
     lattice parameter (alat)  =       1.8897  a.u.
     unit-cell volume          =    6658.9804 (a.u.)^3
     number of atoms/cell      =           52
     number of atomic types    =            5
     number of electrons       =       399.00
     number of Kohn-Sham states=          209
     kinetic-energy cutoff     =      29.3995  Ry
     charge density cutoff     =     293.9946  Ry
     scf convergence threshold =      7.3E-08
     mixing beta               =       0.0500
     number of iterations used =            8  plain     mixing
     Exchange-correlation= BEEF-VDW
                           (   1   4  43  14   2   0   0)

     celldm(1)=   1.889726  celldm(2)=   0.000000  celldm(3)=   0.000000
     celldm(4)=   0.000000  celldm(5)=   0.000000  celldm(6)=   0.000000

     crystal axes: (cart. coord. in units of alat)
               a(1) = (   6.579727   0.000000   0.000000 )
               a(2) = (  -0.000775   5.961596   0.000000 )
               a(3) = (   0.000000   0.000000  25.155947 )

     reciprocal axes: (cart. coord. in units 2 pi/alat)
               b(1) = (  0.151982  0.000020  0.000000 )
               b(2) = (  0.000000  0.167740  0.000000 )
               b(3) = (  0.000000  0.000000  0.039752 )

     PseudoPot. # 1 for O  read from file:
     /storage/coda1/p-amedford6/0/shared/rich_project_chbe-medford/medford-share/data/pseudos_module/espresso/nninc/pbe/van/O.UPF
     MD5 check sum: 78c19812648e8988a0fe644b0f25305e
     Pseudo is Ultrasoft, Zval =  6.0
     Generated by new atomic code, or converted to UPF format
     Using radial grid of  737 points,  4 beta functions with:
                l(1) =   0
                l(2) =   0
                l(3) =   1
                l(4) =   1
     Q(r) pseudized with  8 coefficients,  rinner =    0.800   0.800   0.800

     PseudoPot. # 2 for Ti read from file:
     /storage/coda1/p-amedford6/0/shared/rich_project_chbe-medford/medford-share/data/pseudos_module/espresso/nninc/pbe/van/Ti.UPF
     MD5 check sum: 8e4df49b7f0d34bbd5052bf3f5ea0213
     Pseudo is Ultrasoft, Zval = 12.0
     Generated by new atomic code, or converted to UPF format
     Using radial grid of  851 points,  6 beta functions with:
                l(1) =   0
                l(2) =   0
                l(3) =   1
                l(4) =   1
                l(5) =   2
                l(6) =   2
     Q(r) pseudized with  8 coefficients,  rinner =    1.000   1.000   1.000
                                                       1.000   1.000

     PseudoPot. # 3 for C  read from file:
     /storage/coda1/p-amedford6/0/shared/rich_project_chbe-medford/medford-share/data/pseudos_module/espresso/nninc/pbe/van/C.UPF
     MD5 check sum: 1a69bf6b8db32088f5b2163dbdb77a27
     Pseudo is Ultrasoft, Zval =  4.0
     Generated by new atomic code, or converted to UPF format
     Using radial grid of  721 points,  4 beta functions with:
                l(1) =   0
                l(2) =   0
                l(3) =   1
                l(4) =   1
     Q(r) pseudized with  8 coefficients,  rinner =    0.800   0.800   0.800

     PseudoPot. # 4 for H  read from file:
     /storage/coda1/p-amedford6/0/shared/rich_project_chbe-medford/medford-share/data/pseudos_module/espresso/nninc/pbe/van/H.UPF
     MD5 check sum: b5ee9d7bfd3a09ee7748110bda690ff7
     Pseudo is Ultrasoft, Zval =  1.0
     Generated by new atomic code, or converted to UPF format
     Using radial grid of  615 points,  1 beta functions with:
                l(1) =   0
     Q(r) pseudized with  8 coefficients,  rinner =    0.800

     PseudoPot. # 5 for N  read from file:
     /storage/coda1/p-amedford6/0/shared/rich_project_chbe-medford/medford-share/data/pseudos_module/espresso/nninc/pbe/van/N.UPF
     MD5 check sum: 90d10febe142ad51ac9d5be1deb811c4
     Pseudo is Ultrasoft, Zval =  5.0
     Generated by new atomic code, or converted to UPF format
     Using radial grid of  729 points,  4 beta functions with:
                l(1) =   0
                l(2) =   0
                l(3) =   1
                l(4) =   1
     Q(r) pseudized with  8 coefficients,  rinner =    0.800   0.800   0.800

     atomic species   valence    mass     pseudopotential
        O1             6.00    15.99900     O ( 1.00)
        Ti1           12.00    47.86700     Ti( 1.00)
        C1             4.00    12.01100     C ( 1.00)
        H1             1.00     1.00800     H ( 1.00)
        N1             5.00    14.00700     N ( 1.00)

     No symmetry found

   Cartesian axes

     site n.     atom                  positions (alat units)
         1           O1  tau(   1) = (   3.2904802   0.0005063   4.7018136  )
         2           O1  tau(   2) = (   3.2900926   2.9813045   4.7018136  )
         3           Ti1 tau(   3) = (   0.0004258   2.9801865   6.0000000  )
         4           Ti1 tau(   4) = (   0.0000382   5.9609847   6.0000000  )
         5           Ti1 tau(   5) = (   3.2906075   1.4906267   6.0002472  )
         6           Ti1 tau(   6) = (   3.2902200   4.4714249   6.0002472  )
         7           O1  tau(   7) = (   1.3043587   1.4918075   6.0039043  )
         8           O1  tau(   8) = (   1.3039711   4.4726057   6.0039043  )
         9           O1  tau(   9) = (   5.2767064   1.4903225   6.0039473  )
        10           O1  tau(  10) = (   5.2763189   4.4711207   6.0039473  )
        11           O1  tau(  11) = (   3.2906025   0.0005020   7.3038282  )
        12           O1  tau(  12) = (   3.2902150   2.9813002   7.3038282  )
        13           O1  tau(  13) = (   0.0006271   0.0005054   7.9858123  )
        14           O1  tau(  14) = (   0.0002396   2.9813036   7.9858123  )
        15           Ti1 tau(  15) = (   3.2818399   0.0632074   9.1536190  )
        16           Ti1 tau(  16) = (   3.2594741   3.0397892   9.1577678  )
        17           Ti1 tau(  17) = (   6.5510804   4.5344316   9.2678866  )
        18           O1  tau(  18) = (   4.5942328   1.4918067   9.2879030  )
        19           O1  tau(  19) = (   4.5938453   4.4726049   9.2879030  )
        20           O1  tau(  20) = (   1.9868534   1.4903216   9.2879459  )
        21           O1  tau(  21) = (   1.9864658   4.4711199   9.2879459  )
        22           Ti1 tau(  22) = (   6.5572888   1.6134915   9.3644180  )
        23           O1  tau(  23) = (   0.0036999   2.9964159  10.5720758  )
        24           O1  tau(  24) = (   0.0032988   0.0129995  10.6087427  )
        25           O1  tau(  25) = (   3.3025789   3.0011443  11.3496891  )
        26           O1  tau(  26) = (   3.3069272   0.0203573  11.3499924  )
        27           Ti1 tau(  27) = (   3.3485197   1.5170776  12.4945998  )
        28           Ti1 tau(  28) = (   0.0476823   0.0282983  12.5166062  )
        29           Ti1 tau(  29) = (   3.3474104   4.4962924  12.4903914  )
        30           O1  tau(  30) = (   1.2998870   1.5091839  12.6411902  )
        31           O1  tau(  31) = (   5.2998363   1.5142331  12.6477699  )
        32           O1  tau(  32) = (   1.2995728   4.4957929  12.6443136  )
        33           O1  tau(  33) = (   5.3001588   4.4888893  12.6515721  )
        34           Ti1 tau(  34) = (   0.0405098   3.0100001  12.8178096  )
        35           O1  tau(  35) = (   3.3017622   3.0020563  13.9311684  )
        36           O1  tau(  36) = (   3.3043745   0.0240830  13.9418183  )
        37           O1  tau(  37) = (   0.0425158   3.0055145  14.7122960  )
        38           O1  tau(  38) = (   0.0212564   0.0294349  14.7090242  )
        39           Ti1 tau(  39) = (   3.3143756   3.0090542  15.7253892  )
        40           Ti1 tau(  40) = (   3.3278308   0.0282705  15.7347533  )
        41           Ti1 tau(  41) = (   0.0474550   4.6028283  15.9859659  )
        42           O1  tau(  42) = (   4.5544755   4.4960427  16.0754871  )
        43           O1  tau(  43) = (   2.0560418   4.4875074  16.0954883  )
        44           O1  tau(  44) = (   4.5513302   1.5206081  16.0934294  )
        45           O1  tau(  45) = (   2.0557237   1.5274495  16.1011513  )
        46           Ti1 tau(  46) = (   0.0476892   1.4302431  16.0559646  )
        47           O1  tau(  47) = (   0.0145416   0.0172736  17.2235231  )
        48           O1  tau(  48) = (   6.5187403   2.9994048  17.3770116  )
        49           C1  tau(  49) = (   5.9068627   3.1321688  18.5844627  )
        50           H1  tau(  50) = (   5.7866629   4.0998533  19.0461414  )
        51           N1  tau(  51) = (   5.4444810   2.0886009  19.2066540  )
        52           N1  tau(  52) = (   5.0309896   1.1542324  19.7398597  )

     number of k points=    10  Fermi-Dirac smearing, width (Ry)=  0.0073
                       cart. coord. in units 2pi/alat
        k(    1) = (   0.0000000   0.0000000   0.0000000), wk =   0.1250000
        k(    2) = (   0.0000000   0.0419351   0.0000000), wk =   0.2500000
        k(    3) = (   0.0000000  -0.0838702   0.0000000), wk =   0.1250000
        k(    4) = (   0.0379955   0.0000049   0.0000000), wk =   0.2500000
        k(    5) = (   0.0379955   0.0419400   0.0000000), wk =   0.2500000
        k(    6) = (   0.0379955  -0.0838652   0.0000000), wk =   0.2500000
        k(    7) = (   0.0379955  -0.0419301   0.0000000), wk =   0.2500000
        k(    8) = (  -0.0759910  -0.0000099   0.0000000), wk =   0.1250000
        k(    9) = (  -0.0759910   0.0419252   0.0000000), wk =   0.2500000
        k(   10) = (  -0.0759910  -0.0838800   0.0000000), wk =   0.1250000

     Initial potential from superposition of free atoms

     starting charge  382.99918, renormalised to  399.00000

     negative rho (up, down):  1.729E-02 0.000E+00

     %%%%%%%%%%%%%%%%%%%%%%%%%%%%%%%%%%%%%%%%%%%%%%%%%%%%%%%%%%%%%%%%%%%%%%%%
     %                                                                      %
     % You are using vdW-DF, which was implemented by the Thonhauser group. %
     % Please cite the following two papers that made this development      %
     % possible and the two reviews that describe the various versions:     %
     %                                                                      %
     %   T. Thonhauser et al., PRL 115, 136402 (2015).                      %
     %   T. Thonhauser et al., PRB 76, 125112 (2007).                       %
     %   K. Berland et al., Rep. Prog. Phys. 78, 066501 (2015).             %
     %   D.C. Langreth et al., J. Phys.: Condens. Matter 21, 084203 (2009). %
     %                                                                      %
     %                                                                      %
     % If you are calculating the stress with vdW-DF, please also cite:     %
     %                                                                      %
     %   R. Sabatini et al., J. Phys.: Condens. Matter 24, 424209 (2012).   %
     %                                                                      %
     %%%%%%%%%%%%%%%%%%%%%%%%%%%%%%%%%%%%%%%%%%%%%%%%%%%%%%%%%%%%%%%%%%%%%%%%

     Adding external electric field

     Computed dipole along edir(3) :
        Dipole              -10.9209 Ry au,        -27.7581 Debye
        Dipole field         -0.0206 Ry au,

        Potential amp.        1.9104 Ry
        Total length         46.3494 bohr

     Starting wfcs are  301 atomic wfcs
  @ DRIVER MODE: Message from server: STATUS
  @ DRIVER MODE: Message from server: POSDATA
  @ DRIVER MODE: Reading and sharing cell
  @ DRIVER MODE: Reading and sharing positions
  @ DRIVER MODE: Received positions

     Self-consistent Calculation

     iteration #  1     ecut=    29.40 Ry     beta= 0.05
     Davidson diagonalization with overlap
     c_bands:  1 eigenvalues not converged
     c_bands:  3 eigenvalues not converged
     c_bands:  1 eigenvalues not converged
     c_bands:  2 eigenvalues not converged
     c_bands:  3 eigenvalues not converged
     c_bands:  2 eigenvalues not converged
     c_bands:  2 eigenvalues not converged
     c_bands:  4 eigenvalues not converged
     c_bands:  3 eigenvalues not converged
     ethr =  1.00E-05,  avg # of iterations = 19.6

[...]

     total energy              =   -2496.11609863 Ry
     estimated scf accuracy    <    5311.37468088 Ry

     iteration #  2     ecut=    29.40 Ry     beta= 0.05
     Davidson diagonalization with overlap
     ethr =  1.00E-02,  avg # of iterations = 22.2

[...]

     iteration # 51     ecut=    29.40 Ry     beta= 0.05
     Davidson diagonalization with overlap
     c_bands:  1 eigenvalues not converged
     ethr =  4.21E-10,  avg # of iterations = 13.8

[...]

     total energy              =   -2969.03718723 Ry
     estimated scf accuracy    <       0.00000010 Ry

     iteration # 57     ecut=    29.40 Ry     beta= 0.05
     Davidson diagonalization with overlap
     ethr =  2.40E-11,  avg # of iterations = 10.0

     negative rho (up, down):  1.696E-02 0.000E+00

     Adding external electric field

     Computed dipole along edir(3) :
        Dipole                0.4455 Ry au,          1.1324 Debye
        Dipole field          0.0008 Ry au,

        Potential amp.       -0.0779 Ry
        Total length         46.3494 bohr

     End of self-consistent calculation

          k = 0.0000 0.0000 0.0000 ( 18029 PWs)   bands (ev):

   -55.9401 -55.9264 -55.9031 -55.8901 -55.8283 -55.8072 -55.7831 -55.7676
   -55.7629 -55.7169 -55.7153 -55.6962 -55.6623 -55.5931 -54.9544 -54.9204
   -32.4906 -32.4085 -32.3263 -32.2961 -32.2639 -32.2401 -32.2328 -32.2108
   -32.1767 -32.1678 -32.1493 -32.1431 -32.1386 -32.1070 -32.1000 -32.0708
   -32.0701 -32.0656 -32.0617 -32.0306 -32.0258 -32.0052 -32.0047 -31.9879
   -31.9819 -31.9647 -31.9491 -31.9434 -31.9338 -31.9313 -31.9261 -31.9200
   -31.9198 -31.9138 -31.8769 -31.8746 -31.8462 -31.8414 -31.8162 -31.8023
   -31.7835 -31.7805 -31.3643 -31.2672 -31.2448 -31.1809 -31.0949 -30.9837
   -20.5005 -18.5905 -16.6848 -16.3944 -16.2445 -16.1019 -16.0672 -15.9499
   -15.7813 -15.6594 -15.6251 -15.5596 -15.5103 -15.5064 -15.4889 -15.4774
   -15.4630 -15.4530 -15.4331 -15.3756 -15.3686 -15.3446 -15.3248 -15.2869
   -15.2244 -15.1500 -15.1005 -15.0599 -15.0132 -14.9466 -14.9279 -13.4664
   -13.4551 -13.3368  -6.9253  -5.8664  -4.5867  -4.0388  -3.8705  -3.8651
    -3.8309  -3.7514  -3.6228  -3.5080  -3.4945  -3.3114  -3.1870  -3.1193
    -3.0911  -3.0758  -3.0674  -2.8811  -2.8763  -2.8160  -2.7677  -2.7557
    -2.7529  -2.7250  -2.7074  -2.6836  -2.6601  -2.6517  -2.5937  -2.4786
    -2.3579  -2.3450  -2.3244  -2.2423  -2.2335  -2.2293  -2.2185  -2.1934
    -2.1637  -2.1525  -2.1432  -2.0583  -1.9801  -1.8871  -1.8550  -1.7638
    -1.7262  -1.6401  -1.4550  -1.4078  -1.3564  -1.3433  -1.3330  -1.2915
    -1.2572  -1.2076  -1.1602  -1.1361  -1.0590  -0.9606  -0.9421  -0.8535
    -0.7958  -0.7530  -0.6850  -0.6662  -0.6570  -0.6361  -0.5234  -0.4198
    -0.4071  -0.3816  -0.2815  -0.2322  -0.2224  -0.1691  -0.1553  -0.1190
    -0.0696  -0.0145   0.0177   0.0238   0.0568   0.0663   0.1089   0.2281
     0.2502   0.2554   0.3407   0.3686   0.5306   0.5719   0.7032   0.7916
     0.9731   1.0700   1.1353   1.2408   1.6585   1.7179   2.5782   3.2455
     3.2753   3.3072   3.3446   3.3997   3.5082   3.6545   3.6837   3.7026
     3.7268

[...]

          k = 0.0380-0.0419 0.0000 ( 17876 PWs)   bands (ev):

[...]

          k =-0.0760-0.0000 0.0000 ( 17886 PWs)   bands (ev):

[...]

          k =-0.0760-0.0839 0.0000 ( 17948 PWs)   bands (ev):

   -55.9288 -55.9142 -55.9094 -55.9068 -55.8215 -55.7969 -55.7899 -55.7775
   -55.7558 -55.7225 -55.7141 -55.6816 -55.6771 -55.5955 -54.9380 -54.9367
   -32.2939 -32.2909 -32.2325 -32.2276 -32.2213 -32.2170 -32.1982 -32.1966
   -32.1905 -32.1536 -32.1293 -32.1247 -32.1226 -32.0803 -32.0699 -32.0670
   -32.0586 -32.0547 -32.0513 -32.0452 -32.0380 -32.0220 -32.0177 -32.0095
   -32.0055 -31.9992 -31.9988 -31.9967 -31.9806 -31.9524 -31.9409 -31.9393
   -31.9335 -31.9328 -31.9327 -31.9130 -31.9053 -31.8967 -31.8878 -31.8772
   -31.8240 -31.7896 -31.2582 -31.2568 -31.1777 -31.1767 -31.1385 -31.1375
   -20.4991 -18.5754 -16.1162 -16.0977 -15.9024 -15.8582 -15.8524 -15.7986
   -15.7243 -15.7051 -15.6614 -15.6580 -15.6038 -15.5919 -15.5843 -15.5325
   -15.4914 -15.4620 -15.4529 -15.4473 -15.3918 -15.3875 -15.3862 -15.3326
   -15.3161 -15.3028 -15.2734 -15.2693 -15.2039 -15.1769 -15.1010 -13.4746
   -13.4393 -13.4369  -6.8961  -5.8737  -4.5856  -3.5979  -3.4066  -3.3838
    -3.2953  -3.1429  -3.0765  -3.0743  -2.9924  -2.9182  -2.8907  -2.8717
    -2.8359  -2.7873  -2.7801  -2.7747  -2.7593  -2.7464  -2.7245  -2.7099
    -2.6788  -2.6597  -2.6254  -2.6000  -2.5820  -2.5653  -2.5570  -2.5199
    -2.5007  -2.4879  -2.4781  -2.4725  -2.4070  -2.2440  -2.1928  -2.1127
    -2.0874  -2.0789  -2.0322  -2.0281  -2.0052  -1.9922  -1.9758  -1.8750
    -1.7730  -1.6980  -1.6779  -1.6601  -1.6399  -1.6013  -1.4856  -1.4586
    -1.3774  -1.3594  -1.3443  -1.2431  -1.2196  -1.1543  -1.1479  -1.0665
    -1.0226  -1.0107  -0.9482  -0.9075  -0.8930  -0.8355  -0.8094  -0.7433
    -0.6901  -0.6705  -0.6060  -0.5810  -0.5632  -0.5100  -0.4682  -0.4525
    -0.3846  -0.2942  -0.2469  -0.0579   0.0697   0.0875   0.1050   0.1778
     0.2587   0.2973   0.3204   0.3555   0.4421   0.5010   0.5749   0.5922
     0.6155   0.6808   1.4297   1.4313   1.5208   1.5316   2.4979   3.4544
     3.4764   3.5001   3.5514   3.7045   3.7090   3.7270   3.7367   3.8256
     3.8742

     the Fermi energy is     3.2142 ev

!    total energy              =   -2969.03728478 Ry
     estimated scf accuracy    <       0.00000005 Ry
     smearing contrib. (-TS)   =      -0.02334199 Ry
     internal energy E=F+TS    =   -2969.01394279 Ry

     The total energy is F=E-TS. E is the sum of the following terms:
     one-electron contribution =  -23807.33846215 Ry
     hartree contribution      =   11992.09753198 Ry
     xc contribution           =    -490.84389945 Ry
     ewald contribution        =    9337.07051225 Ry
     electric field correction =       0.00037458 Ry

     convergence has been achieved in  57 iterations

     Forces acting on atoms (cartesian axes, Ry/au):

     atom    1 type  1   force =     0.00009102    0.00006545    0.10420522
     atom    2 type  1   force =     0.00010840    0.00002802    0.10424134
     atom    3 type  2   force =     0.00027525   -0.00170274    0.10529725
     atom    4 type  2   force =     0.00011838    0.00146729    0.11700290
     atom    5 type  2   force =     0.00012473    0.00057432   -0.18002474
     atom    6 type  2   force =    -0.00003511   -0.00014181   -0.18011256
     atom    7 type  1   force =    -0.06884313    0.00078707   -0.02951296
     atom    8 type  1   force =    -0.06850546   -0.00143816   -0.02954835
     atom    9 type  1   force =     0.06894034    0.00107453   -0.02956442
     atom   10 type  1   force =     0.06849564   -0.00091475   -0.02962613
     atom   11 type  1   force =    -0.00025363    0.00067491    0.04562297
     atom   12 type  1   force =    -0.00061920    0.00092319    0.04728982
     atom   13 type  1   force =    -0.00011956   -0.00650992   -0.03342276
     atom   14 type  1   force =    -0.00030622    0.00406585   -0.02747112
     atom   15 type  2   force =    -0.00008347   -0.00038085   -0.00001165
     atom   16 type  2   force =    -0.00016940   -0.00040648    0.00003762
     atom   17 type  2   force =    -0.00017840    0.00002107   -0.00011269
     atom   18 type  1   force =    -0.01864040   -0.00141869    0.00431667
     atom   19 type  1   force =    -0.01733713    0.00092911    0.00348548
     atom   20 type  1   force =     0.01934590    0.00093973    0.00437239
     atom   21 type  1   force =     0.01781314    0.00242084    0.00371069
     atom   22 type  2   force =    -0.00021067   -0.00006832   -0.00012664
     atom   23 type  1   force =    -0.00013743    0.00000116    0.00009332
     atom   24 type  1   force =     0.00016272   -0.00001541    0.00018450
     atom   25 type  1   force =     0.00000704    0.00011018   -0.00007657
     atom   26 type  1   force =    -0.00012743   -0.00014998   -0.00006646
     atom   27 type  2   force =     0.00004706   -0.00000445   -0.00010882
     atom   28 type  2   force =    -0.00023119    0.00008295   -0.00006167
     atom   29 type  2   force =    -0.00000235    0.00005044   -0.00009325
     atom   30 type  1   force =    -0.00026223   -0.00018449   -0.00018181
     atom   31 type  1   force =     0.00034934   -0.00024046   -0.00020694
     atom   32 type  1   force =    -0.00004473   -0.00016677    0.00014786
     atom   33 type  1   force =    -0.00006917   -0.00004863   -0.00010189
     atom   34 type  2   force =    -0.00004961    0.00018583    0.00027372
     atom   35 type  1   force =     0.00008789   -0.00022239   -0.00020090
     atom   36 type  1   force =     0.00005191    0.00003120   -0.00008288
     atom   37 type  1   force =     0.00000500    0.00009576   -0.00094041
     atom   38 type  1   force =    -0.00010257    0.00028367   -0.00058437
     atom   39 type  2   force =     0.00005482    0.00013393    0.00026313
     atom   40 type  2   force =     0.00005947   -0.00031019   -0.00004863
     atom   41 type  2   force =    -0.00025798   -0.00027783   -0.00049468
     atom   42 type  1   force =    -0.00013991    0.00030103   -0.00006045
     atom   43 type  1   force =    -0.00003704    0.00037253   -0.00026178
     atom   44 type  1   force =    -0.00045840   -0.00017598   -0.00014853
     atom   45 type  1   force =     0.00011791   -0.00002376    0.00012513
     atom   46 type  2   force =     0.00009925   -0.00093406   -0.00046946
     atom   47 type  1   force =    -0.00000117    0.00022820   -0.00027497
     atom   48 type  1   force =    -0.00488641    0.00131914    0.01294306
     atom   49 type  3   force =     0.00334280   -0.00283173   -0.00732338
     atom   50 type  4   force =     0.00103266    0.00038257   -0.00077798
     atom   51 type  5   force =    -0.00043071    0.00012123   -0.00092897
     atom   52 type  5   force =     0.00180940    0.00089668   -0.00058428

     Total force =     0.376399     Total SCF correction =     0.000392
  @ DRIVER MODE: Message from server: STATUS
  @ DRIVER MODE: Message from server: GETFORCE
  @ DRIVER MODE: Returning v,forces,stress,ensemble

     Writing output data file ./calc.save/
  @ DRIVER MODE: Message from server: EXIT
  @ DRIVE MODE: Exiting

     General routines

     Parallel routines

   This run was terminated on:  15:29:33  14Sep2021

   JOB DONE.