     Program PWSCF v.6.7GPU starts on 10Sep2021 at  0:39:54

     R & G space division:  proc/nbgrp/npool/nimage =      10
     Reading input from /storage/home/hcoda1/3/ntian30/research/carbon/CxH_vib/CH3_calc/ads_slab/CH3N2H2O_g/out_0013/pw.inp
Warning: card &CELL ignored
Warning: card   CELL_DYNAMICS='IPI', ignored
Warning: card / ignored

     Current dimensions of program PWSCF are:
     Max number of different atomic species (ntypx) = 10
     Max number of k-points (npk) =  40000
     Max angular momentum in pseudopotentials (lmaxx) =  3
     Presently no symmetry can be used with electric field

     Message from routine cell_base_init:
     DEPRECATED: use true lattice parameter, not A to a.u. conversion factor

     IMPORTANT: XC functional enforced from input :
     Exchange-correlation= BEEF-VDW
                           (   1   4  43  14   2   0   0)
     Any further DFT definition will be discarded
     Please, verify this is what you really want

  @ DRIVER MODE: Connecting to
 qe_1139763_2779714.sched-torque.pace.gatech.edu0pr5ukqv_scratch
  using UNIX socket
  @ DRIVER MODE: Message from server: STATUS
  @ DRIVER MODE: Message from server: INIT
  @ DRIVER MODE: Receiving replica           0          -1
  @ DRIVER MODE: Receiving encoded integer          25
  @ DRIVER MODE:  SCF:  T  FORCE:  T  STRESS:  F  VC:  F  ENSEMBLE:  F
  @ DRIVER MODE:  SCF:  T  FORCE:  T  STRESS:  F  VC:  F  ENSEMBLE:  F

     Using Slab Decomposition

     bravais-lattice index     =            0
     lattice parameter (alat)  =       1.8897  a.u.
     unit-cell volume          =    6658.9804 (a.u.)^3
     number of atoms/cell      =           56
     number of atomic types    =            5
     number of electrons       =       403.00
     number of Kohn-Sham states=          211
     kinetic-energy cutoff     =      29.3995  Ry
     charge density cutoff     =     293.9946  Ry
     scf convergence threshold =      7.3E-08
     mixing beta               =       0.0500
     number of iterations used =            8  plain     mixing
     Exchange-correlation= BEEF-VDW
                           (   1   4  43  14   2   0   0)

     celldm(1)=   1.889726  celldm(2)=   0.000000  celldm(3)=   0.000000
     celldm(4)=   0.000000  celldm(5)=   0.000000  celldm(6)=   0.000000

     crystal axes: (cart. coord. in units of alat)
               a(1) = (   6.579727   0.000000   0.000000 )
               a(2) = (  -0.000775   5.961596   0.000000 )
               a(3) = (   0.000000   0.000000  25.155947 )

     reciprocal axes: (cart. coord. in units 2 pi/alat)
               b(1) = (  0.151982  0.000020  0.000000 )
               b(2) = (  0.000000  0.167740  0.000000 )
               b(3) = (  0.000000  0.000000  0.039752 )

     PseudoPot. # 1 for Ti read from file:
     /storage/coda1/p-amedford6/0/shared/rich_project_chbe-medford/medford-share/data/pseudos_module/espresso/nninc/pbe/van/Ti.UPF
     MD5 check sum: 8e4df49b7f0d34bbd5052bf3f5ea0213
     Pseudo is Ultrasoft, Zval = 12.0
     Generated by new atomic code, or converted to UPF format
     Using radial grid of  851 points,  6 beta functions with:
                l(1) =   0
                l(2) =   0
                l(3) =   1
                l(4) =   1
                l(5) =   2
                l(6) =   2
     Q(r) pseudized with  8 coefficients,  rinner =    1.000   1.000   1.000
                                                       1.000   1.000

     PseudoPot. # 2 for O  read from file:
     /storage/coda1/p-amedford6/0/shared/rich_project_chbe-medford/medford-share/data/pseudos_module/espresso/nninc/pbe/van/O.UPF
     MD5 check sum: 78c19812648e8988a0fe644b0f25305e
     Pseudo is Ultrasoft, Zval =  6.0
     Generated by new atomic code, or converted to UPF format
     Using radial grid of  737 points,  4 beta functions with:
                l(1) =   0
                l(2) =   0
                l(3) =   1
                l(4) =   1
     Q(r) pseudized with  8 coefficients,  rinner =    0.800   0.800   0.800

     PseudoPot. # 3 for N  read from file:
     /storage/coda1/p-amedford6/0/shared/rich_project_chbe-medford/medford-share/data/pseudos_module/espresso/nninc/pbe/van/N.UPF
     MD5 check sum: 90d10febe142ad51ac9d5be1deb811c4
     Pseudo is Ultrasoft, Zval =  5.0
     Generated by new atomic code, or converted to UPF format
     Using radial grid of  729 points,  4 beta functions with:
                l(1) =   0
                l(2) =   0
                l(3) =   1
                l(4) =   1
     Q(r) pseudized with  8 coefficients,  rinner =    0.800   0.800   0.800

     PseudoPot. # 4 for C  read from file:
     /storage/coda1/p-amedford6/0/shared/rich_project_chbe-medford/medford-share/data/pseudos_module/espresso/nninc/pbe/van/C.UPF
     MD5 check sum: 1a69bf6b8db32088f5b2163dbdb77a27
     Pseudo is Ultrasoft, Zval =  4.0
     Generated by new atomic code, or converted to UPF format
     Using radial grid of  721 points,  4 beta functions with:
                l(1) =   0
                l(2) =   0
                l(3) =   1
                l(4) =   1
     Q(r) pseudized with  8 coefficients,  rinner =    0.800   0.800   0.800

     PseudoPot. # 5 for H  read from file:
     /storage/coda1/p-amedford6/0/shared/rich_project_chbe-medford/medford-share/data/pseudos_module/espresso/nninc/pbe/van/H.UPF
     MD5 check sum: b5ee9d7bfd3a09ee7748110bda690ff7
     Pseudo is Ultrasoft, Zval =  1.0
     Generated by new atomic code, or converted to UPF format
     Using radial grid of  615 points,  1 beta functions with:
                l(1) =   0
     Q(r) pseudized with  8 coefficients,  rinner =    0.800

     atomic species   valence    mass     pseudopotential
        Ti1           12.00    47.86700     Ti( 1.00)
        O1             6.00    15.99900     O ( 1.00)
        N1             5.00    14.00700     N ( 1.00)
        C1             4.00    12.01100     C ( 1.00)
        H1             1.00     1.00800     H ( 1.00)

     No symmetry found

   Cartesian axes

     site n.     atom                  positions (alat units)
         1           Ti1 tau(   1) = (   0.0004258   2.9801865   6.0000000  )
         2           Ti1 tau(   2) = (   3.2906075   1.4906267   6.0002472  )
         3           O1  tau(   3) = (   0.0006271   0.0005054   7.9858123  )
         4           O1  tau(   4) = (   3.2906025   0.0005020   7.3038282  )
         5           O1  tau(   5) = (   4.5942328   1.4918067   9.2879030  )
         6           O1  tau(   6) = (   1.9868534   1.4903216   9.2879459  )
         7           Ti1 tau(   7) = (   3.2907910   2.8959150   9.1758416  )
         8           Ti1 tau(   8) = (   0.0015273   1.4827037   9.2680791  )
         9           O1  tau(   9) = (   3.3002115   5.9463602  11.3460011  )
        10           O1  tau(  10) = (   0.0116148   5.9584955  10.6183126  )
        11           O1  tau(  11) = (   1.3192008   1.4768417  12.6238339  )
        12           O1  tau(  12) = (   5.3062067   1.4698383  12.6193417  )
        13           Ti1 tau(  13) = (   6.5330844   2.9444840  12.6148558  )
        14           Ti1 tau(  14) = (   3.2222230   1.4676475  12.5013840  )
        15           O1  tau(  15) = (   0.0064324   5.9471174  14.6352917  )
        16           O1  tau(  16) = (   3.3028336   5.9445487  13.9678148  )
        17           O1  tau(  17) = (   4.5628415   1.5226527  16.0793330  )
        18           O1  tau(  18) = (   2.0474444   1.5206590  16.0184434  )
        19           Ti1 tau(  19) = (   3.3141275   2.9607752  15.6908890  )
        20           Ti1 tau(  20) = (   6.5660065   1.5097775  15.7997320  )
        21           O1  tau(  21) = (   3.2904802   0.0005063   4.7018136  )
        22           O1  tau(  22) = (   0.0269361   0.0086655  17.1987262  )
        23           O1  tau(  23) = (   1.3043587   1.4918075   6.0039043  )
        24           O1  tau(  24) = (   5.2767064   1.4903225   6.0039473  )
        25           Ti1 tau(  25) = (   0.0000382   5.9609847   6.0000000  )
        26           Ti1 tau(  26) = (   3.2902200   4.4714249   6.0002472  )
        27           O1  tau(  27) = (   0.0002396   2.9813036   7.9858123  )
        28           O1  tau(  28) = (   3.2902150   2.9813002   7.3038282  )
        29           O1  tau(  29) = (   4.5938453   4.4726049   9.2879030  )
        30           O1  tau(  30) = (   1.9864658   4.4711199   9.2879459  )
        31           Ti1 tau(  31) = (   3.2891106   5.8743827   9.1763621  )
        32           Ti1 tau(  32) = (   0.0006254   4.4649316   9.2693709  )
        33           O1  tau(  33) = (   3.2944391   2.9688829  11.3444728  )
        34           O1  tau(  34) = (   0.0092240   2.9805883  10.6323155  )
        35           O1  tau(  35) = (   1.3142520   4.4635248  12.6275686  )
        36           O1  tau(  36) = (   5.3078217   4.4601700  12.6226734  )
        37           Ti1 tau(  37) = (   6.5374036   5.9186568  12.5467527  )
        38           Ti1 tau(  38) = (   3.2213306   4.4595164  12.5065882  )
        39           O1  tau(  39) = (   6.5756885   2.9534048  14.6511233  )
        40           O1  tau(  40) = (   3.3206316   2.9687378  13.8980937  )
        41           O1  tau(  41) = (   4.5543359   4.4428353  16.0905846  )
        42           O1  tau(  42) = (   2.0427057   4.4323087  16.0570365  )
        43           Ti1 tau(  43) = (   3.2570595   5.9269474  15.8069103  )
        44           Ti1 tau(  44) = (   6.5609319   4.6488967  16.0725391  )
        45           O1  tau(  45) = (   3.2900926   2.9813045   4.7018136  )
        46           O1  tau(  46) = (   1.3039711   4.4726057   6.0039043  )
        47           O1  tau(  47) = (   5.2763189   4.4711207   6.0039473  )
        48           N1  tau(  48) = (   0.2492319   2.6641403  18.6309932  )
        49           N1  tau(  49) = (   0.0782707   2.8835230  17.4382120  )
        50           C1  tau(  50) = (   0.2522466   3.8234900  19.5663878  )
        51           H1  tau(  51) = (   6.1755609   4.6233469  19.2444151  )
        52           H1  tau(  52) = (   6.5754044   3.4477461  20.5519103  )
        53           H1  tau(  53) = (   1.2857956   4.2073973  19.6006198  )
        54           O1  tau(  54) = (   3.1761146   0.0362278  18.2233714  )
        55           H1  tau(  55) = (   3.9097821   0.6076051  18.5038283  )
        56           H1  tau(  56) = (   2.3516031   0.5117379  18.4309238  )

     number of k points=    10  Fermi-Dirac smearing, width (Ry)=  0.0073
                       cart. coord. in units 2pi/alat
        k(    1) = (   0.0000000   0.0000000   0.0000000), wk =   0.1250000
        k(    2) = (   0.0000000   0.0419351   0.0000000), wk =   0.2500000
        k(    3) = (   0.0000000  -0.0838702   0.0000000), wk =   0.1250000
        k(    4) = (   0.0379955   0.0000049   0.0000000), wk =   0.2500000
        k(    5) = (   0.0379955   0.0419400   0.0000000), wk =   0.2500000
        k(    6) = (   0.0379955  -0.0838652   0.0000000), wk =   0.2500000
        k(    7) = (   0.0379955  -0.0419301   0.0000000), wk =   0.2500000
        k(    8) = (  -0.0759910  -0.0000099   0.0000000), wk =   0.1250000
        k(    9) = (  -0.0759910   0.0419252   0.0000000), wk =   0.2500000
        k(   10) = (  -0.0759910  -0.0838800   0.0000000), wk =   0.1250000

     Initial potential from superposition of free atoms

     starting charge  386.99914, renormalised to  403.00000

     negative rho (up, down):  1.449E-02 0.000E+00

     %%%%%%%%%%%%%%%%%%%%%%%%%%%%%%%%%%%%%%%%%%%%%%%%%%%%%%%%%%%%%%%%%%%%%%%%
     %                                                                      %
     % You are using vdW-DF, which was implemented by the Thonhauser group. %
     % Please cite the following two papers that made this development      %
     % possible and the two reviews that describe the various versions:     %
     %                                                                      %
     %   T. Thonhauser et al., PRL 115, 136402 (2015).                      %
     %   T. Thonhauser et al., PRB 76, 125112 (2007).                       %
     %   K. Berland et al., Rep. Prog. Phys. 78, 066501 (2015).             %
     %   D.C. Langreth et al., J. Phys.: Condens. Matter 21, 084203 (2009). %
     %                                                                      %
     %                                                                      %
     % If you are calculating the stress with vdW-DF, please also cite:     %
     %                                                                      %
     %   R. Sabatini et al., J. Phys.: Condens. Matter 24, 424209 (2012).   %
     %                                                                      %
     %%%%%%%%%%%%%%%%%%%%%%%%%%%%%%%%%%%%%%%%%%%%%%%%%%%%%%%%%%%%%%%%%%%%%%%%

     Adding external electric field

     Computed dipole along edir(3) :
        Dipole              -13.2089 Ry au,        -33.5737 Debye
        Dipole field         -0.0249 Ry au,

        Potential amp.        2.3107 Ry
        Total length         46.3494 bohr

     Starting wfcs are  305 atomic wfcs
  @ DRIVER MODE: Message from server: STATUS
  @ DRIVER MODE: Message from server: POSDATA
  @ DRIVER MODE: Reading and sharing cell
  @ DRIVER MODE: Reading and sharing positions
  @ DRIVER MODE: Received positions

     Self-consistent Calculation

     iteration #  1     ecut=    29.40 Ry     beta= 0.05
     Davidson diagonalization with overlap
     c_bands:  4 eigenvalues not converged
     c_bands:  2 eigenvalues not converged
     c_bands:  2 eigenvalues not converged
     c_bands:  5 eigenvalues not converged
     c_bands:  1 eigenvalues not converged
     c_bands:  1 eigenvalues not converged
     c_bands:  4 eigenvalues not converged
     c_bands:  1 eigenvalues not converged
     c_bands:  1 eigenvalues not converged
     ethr =  1.00E-05,  avg # of iterations = 28.0

[...]

     total energy              =   -2367.57452844 Ry
     estimated scf accuracy    <    6916.04682514 Ry

     iteration #  2     ecut=    29.40 Ry     beta= 0.05
     Davidson diagonalization with overlap
     ethr =  1.00E-02,  avg # of iterations = 23.1

[...]

     iteration # 38     ecut=    29.40 Ry     beta= 0.05
     Davidson diagonalization with overlap
     c_bands:  1 eigenvalues not converged
     c_bands:  1 eigenvalues not converged
     ethr =  2.55E-06,  avg # of iterations = 12.3

[...]

     total energy              =   -2974.00255283 Ry
     estimated scf accuracy    <       0.00000008 Ry

     iteration # 68     ecut=    29.40 Ry     beta= 0.05
     Davidson diagonalization with overlap
     ethr =  1.92E-11,  avg # of iterations =  7.9

     negative rho (up, down):  1.476E-02 0.000E+00

     Adding external electric field

     Computed dipole along edir(3) :
        Dipole                0.8918 Ry au,          2.2668 Debye
        Dipole field          0.0017 Ry au,

        Potential amp.       -0.1560 Ry
        Total length         46.3494 bohr

     End of self-consistent calculation

          k = 0.0000 0.0000 0.0000 ( 18029 PWs)   bands (ev):

   -55.6185 -55.5845 -55.5769 -55.5601 -55.5402 -55.4472 -55.4288 -55.4080
   -55.3949 -55.3940 -55.3655 -55.3603 -55.0034 -54.8640 -54.5975 -54.5635
   -32.1191 -32.1009 -31.9616 -31.9446 -31.9275 -31.9114 -31.8836 -31.8777
   -31.8615 -31.8081 -31.8019 -31.7837 -31.7709 -31.7552 -31.7392 -31.7302
   -31.7228 -31.7103 -31.7044 -31.6758 -31.6673 -31.6499 -31.6213 -31.6171
   -31.6014 -31.5988 -31.5983 -31.5930 -31.5688 -31.5641 -31.5612 -31.5563
   -31.5467 -31.5419 -31.5354 -31.5095 -31.5057 -31.2734 -31.1993 -31.1242
   -31.1070 -31.0728 -31.0047 -30.9161 -30.8937 -30.8213 -30.7348 -30.6239
   -18.8635 -18.3072 -16.3107 -16.0822 -15.8526 -15.7649 -15.7163 -15.5167
   -15.4148 -15.3423 -15.2198 -15.1568 -15.1450 -15.1308 -15.1125 -15.1099
   -15.0576 -15.0507 -15.0466 -15.0387 -15.0055 -14.9651 -14.9502 -14.9399
   -14.8460 -14.7724 -14.7550 -14.7313 -14.6860 -14.6694 -14.1975 -13.0998
   -12.9834 -11.2552  -6.8741  -6.6380  -4.2060  -3.8239  -3.8102  -3.6835
    -3.5560  -3.5226  -3.4412  -3.3685  -3.2311  -3.1983  -3.0364  -2.8465
    -2.7856  -2.7596  -2.7066  -2.6401  -2.5264  -2.4679  -2.4224  -2.4156
    -2.3981  -2.3889  -2.3669  -2.3542  -2.2532  -2.2313  -2.1513  -2.1480
    -2.0981  -1.9802  -1.9654  -1.9307  -1.9190  -1.8956  -1.8719  -1.8524
    -1.8419  -1.8178  -1.7675  -1.6948  -1.6410  -1.5961  -1.5016  -1.4418
    -1.3958  -1.3486  -1.2287  -1.1361  -1.1017  -1.0602  -1.0531  -1.0398
    -1.0106  -0.9928  -0.8801  -0.7661  -0.7497  -0.6835  -0.6237  -0.5427
    -0.5166  -0.4365  -0.3825  -0.3640  -0.3604  -0.3148  -0.2844  -0.2262
    -0.0921  -0.0405  -0.0068   0.0020   0.0615   0.1050   0.1336   0.2206
     0.2271   0.2725   0.3107   0.3430   0.3564   0.3712   0.3899   0.4194
     0.4340   0.6256   0.6617   0.7002   0.7386   0.7810   0.9198   0.9438
     1.0424   1.1515   1.3509   1.4246   1.5294   1.6168   1.9962   2.0420
     2.7436   3.5165   3.6037   3.6486   3.6775   3.7612   3.7752   3.9714
     3.9873   4.0255   4.0952

[...]

          k = 0.0380-0.0419 0.0000 ( 17876 PWs)   bands (ev):

[...]

          k =-0.0760-0.0000 0.0000 ( 17886 PWs)   bands (ev):

[...]

          k =-0.0760-0.0839 0.0000 ( 17948 PWs)   bands (ev):

   -55.6019 -55.6010 -55.5627 -55.5585 -55.5542 -55.4368 -55.4185 -55.4125
   -55.4104 -55.3789 -55.3757 -55.3669 -55.0014 -54.8658 -54.5805 -54.5803
   -31.9327 -31.9165 -31.9164 -31.9158 -31.8973 -31.8964 -31.8471 -31.8410
   -31.8198 -31.7946 -31.7825 -31.7733 -31.7693 -31.7312 -31.7265 -31.7249
   -31.7216 -31.7206 -31.7183 -31.7158 -31.7133 -31.7074 -31.6712 -31.6540
   -31.6354 -31.6312 -31.6238 -31.6117 -31.6114 -31.6085 -31.6029 -31.5936
   -31.5901 -31.5792 -31.5783 -31.5698 -31.4206 -31.2752 -31.2156 -31.1626
   -31.1254 -31.0994 -30.9065 -30.9063 -30.8176 -30.8174 -30.7781 -30.7781
   -18.8624 -18.3035 -15.7692 -15.6588 -15.5682 -15.5339 -15.4765 -15.4076
   -15.3996 -15.3129 -15.2968 -15.2937 -15.2281 -15.2075 -15.1701 -15.1632
   -15.1405 -15.1247 -15.1182 -15.0686 -15.0567 -15.0538 -15.0469 -15.0421
   -14.9663 -14.9355 -14.9316 -14.9229 -14.7951 -14.6708 -14.3693 -13.0853
   -13.0851 -11.2528  -6.9013  -6.6152  -4.1329  -3.8495  -3.7810  -3.2148
    -3.0516  -2.8382  -2.8194  -2.7234  -2.7115  -2.6770  -2.5464  -2.5054
    -2.4649  -2.4484  -2.4290  -2.4277  -2.4104  -2.4048  -2.3822  -2.3546
    -2.3331  -2.3137  -2.2847  -2.2812  -2.2683  -2.2552  -2.2318  -2.2198
    -2.2035  -2.1728  -2.1469  -2.1310  -2.0644  -1.9935  -1.8318  -1.7933
    -1.7542  -1.7479  -1.7314  -1.7003  -1.6845  -1.6669  -1.6183  -1.5816
    -1.5116  -1.3542  -1.3371  -1.3131  -1.2919  -1.2817  -1.2101  -1.1017
    -1.0825  -1.0112  -1.0030  -0.8971  -0.8886  -0.8034  -0.7953  -0.7842
    -0.7098  -0.6830  -0.6685  -0.5791  -0.5773  -0.5548  -0.5039  -0.4778
    -0.4120  -0.3695  -0.3390  -0.3356  -0.2896  -0.2675  -0.2234  -0.1562
    -0.1034  -0.0673   0.0289   0.1333   0.2330   0.3492   0.4643   0.4781
     0.5602   0.5937   0.6785   0.6945   0.7028   0.7748   0.7796   0.8781
     0.9233   0.9378   0.9783   1.1009   1.7879   1.7893   1.8615   1.8618
     2.7672   3.7342   3.8538   3.8959   3.9138   3.9882   4.0309   4.0504
     4.0535   4.0871   4.1957

     the Fermi energy is     3.5153 ev

!    total energy              =   -2974.00257732 Ry
     estimated scf accuracy    <       0.00000005 Ry
     smearing contrib. (-TS)   =      -0.02182125 Ry
     internal energy E=F+TS    =   -2973.98075607 Ry

     The total energy is F=E-TS. E is the sum of the following terms:
     one-electron contribution =  -23848.00310359 Ry
     hartree contribution      =   12018.42776618 Ry
     xc contribution           =    -494.02885192 Ry
     ewald contribution        =    9349.62193229 Ry
     electric field correction =       0.00150097 Ry

     convergence has been achieved in  68 iterations

     Forces acting on atoms (cartesian axes, Ry/au):

     atom    1 type  1   force =     0.00003474   -0.00023470    0.09645822
     atom    2 type  1   force =     0.00005452   -0.00043652   -0.17544431
     atom    3 type  2   force =     0.00011480   -0.00009218   -0.02474548
     atom    4 type  2   force =     0.00004259   -0.00157440    0.05350735
     atom    5 type  2   force =    -0.01197664   -0.00100906    0.00308576
     atom    6 type  2   force =     0.01372074   -0.00065095    0.00292403
     atom    7 type  1   force =     0.00074450    0.00068881   -0.00682783
     atom    8 type  1   force =     0.00021717    0.00949520    0.02713326
     atom    9 type  2   force =    -0.00014432   -0.00005780   -0.00006128
     atom   10 type  2   force =    -0.00205089    0.00049063   -0.01818745
     atom   11 type  2   force =    -0.00057843    0.00032562    0.00013079
     atom   12 type  2   force =     0.00067378    0.00012942    0.00031444
     atom   13 type  1   force =    -0.00016179   -0.00008648   -0.00017207
     atom   14 type  1   force =    -0.00040200   -0.00014731    0.00025309
     atom   15 type  2   force =     0.00002577   -0.00063473    0.00074314
     atom   16 type  2   force =    -0.00025873   -0.00007346   -0.00037964
     atom   17 type  2   force =    -0.00018390    0.00016360   -0.00024586
     atom   18 type  2   force =     0.00010377    0.00015519   -0.00034465
     atom   19 type  1   force =    -0.00033502    0.00015476   -0.00001713
     atom   20 type  1   force =    -0.00036826    0.00012747    0.00038413
     atom   21 type  2   force =     0.00008420    0.00001744    0.10325781
     atom   22 type  2   force =     0.00014517    0.00038024    0.00012372
     atom   23 type  2   force =    -0.07143771   -0.00008570   -0.02774364
     atom   24 type  2   force =     0.07139475    0.00036982   -0.02781710
     atom   25 type  1   force =     0.00018396   -0.00033889    0.09613694
     atom   26 type  1   force =     0.00000726   -0.00037416   -0.17577558
     atom   27 type  2   force =     0.00021185   -0.00020791   -0.02374302
     atom   28 type  2   force =     0.00002426   -0.00128278    0.05297199
     atom   29 type  2   force =    -0.01221812    0.00023534    0.00291435
     atom   30 type  2   force =     0.01388274    0.00081685    0.00273284
     atom   31 type  1   force =     0.00041569    0.00343797   -0.00984944
     atom   32 type  1   force =     0.00036400   -0.01131930    0.02754827
     atom   33 type  2   force =     0.00010253    0.00014364   -0.00000263
     atom   34 type  2   force =    -0.00188110   -0.00045413   -0.02413021
     atom   35 type  2   force =     0.00041141    0.00002942   -0.00026636
     atom   36 type  2   force =    -0.00030246   -0.00006113    0.00008766
     atom   37 type  1   force =    -0.00030759   -0.00013709    0.00006644
     atom   38 type  1   force =    -0.00079259    0.00013624   -0.00048676
     atom   39 type  2   force =     0.00011632   -0.00031018   -0.00017552
     atom   40 type  2   force =     0.00019939    0.00034482    0.00044727
     atom   41 type  2   force =     0.00021337    0.00013441   -0.00035652
     atom   42 type  2   force =    -0.00051411   -0.00009464   -0.00029543
     atom   43 type  1   force =     0.00031170    0.00082351    0.00034892
     atom   44 type  1   force =    -0.00016299    0.00100606   -0.00077413
     atom   45 type  2   force =     0.00008409   -0.00002873    0.10324718
     atom   46 type  2   force =    -0.07143832   -0.00002876   -0.02775775
     atom   47 type  2   force =     0.07139557    0.00039814   -0.02781574
     atom   48 type  3   force =    -0.00189473    0.00066510   -0.00116485
     atom   49 type  3   force =    -0.00023362   -0.00059289    0.00092116
     atom   50 type  4   force =     0.01935969   -0.00054333    0.00024863
     atom   51 type  5   force =    -0.00439160    0.00383169   -0.00226136
     atom   52 type  5   force =    -0.00244457   -0.00067558    0.00203606
     atom   53 type  5   force =    -0.00985225   -0.00373047   -0.00001012
     atom   54 type  2   force =     0.00018692    0.00055928   -0.00082489
     atom   55 type  5   force =    -0.00010890   -0.00008273   -0.00004681
     atom   56 type  5   force =    -0.00038660    0.00028532   -0.00029992

     Total force =     0.368699     Total SCF correction =     0.000679
  @ DRIVER MODE: Message from server: STATUS
  @ DRIVER MODE: Message from server: GETFORCE
  @ DRIVER MODE: Returning v,forces,stress,ensemble

     Writing output data file ./calc.save/
  @ DRIVER MODE: Message from server: EXIT
  @ DRIVE MODE: Exiting

     General routines

     Parallel routines

   This run was terminated on:   0:58:46  10Sep2021

   JOB DONE.