     Program PWSCF v.6.7GPU starts on 23Sep2021 at  0:12: 0

     R & G space division:  proc/nbgrp/npool/nimage =       8
     Reading input from /storage/home/hcoda1/3/ntian30/research/carbon/CxH_vib/H2O_calc/ads_slab/CH2OHHO_a/out_0006/pw.inp
Warning: card &CELL ignored
Warning: card   CELL_DYNAMICS='IPI', ignored
Warning: card / ignored

     Current dimensions of program PWSCF are:
     Max number of different atomic species (ntypx) = 10
     Max number of k-points (npk) =  40000
     Max angular momentum in pseudopotentials (lmaxx) =  3
     Presently no symmetry can be used with electric field

     Message from routine cell_base_init:
     DEPRECATED: use true lattice parameter, not A to a.u. conversion factor

     IMPORTANT: XC functional enforced from input :
     Exchange-correlation= BEEF-VDW
                           (   1   4  43  14   2   0   0)
     Any further DFT definition will be discarded
     Please, verify this is what you really want

  @ DRIVER MODE: Connecting to
 qe_1139763_2941013.sched-torque.pace.gatech.eduxyr4ygy__scratch
  using UNIX socket
  @ DRIVER MODE: Message from server: STATUS
  @ DRIVER MODE: Message from server: INIT
  @ DRIVER MODE: Receiving replica           0          -1
  @ DRIVER MODE: Receiving encoded integer          25
  @ DRIVER MODE:  SCF:  T  FORCE:  T  STRESS:  F  VC:  F  ENSEMBLE:  F
  @ DRIVER MODE:  SCF:  T  FORCE:  T  STRESS:  F  VC:  F  ENSEMBLE:  F

     Using Slab Decomposition

     bravais-lattice index     =            0
     lattice parameter (alat)  =       1.8897  a.u.
     unit-cell volume          =    6658.9804 (a.u.)^3
     number of atoms/cell      =           54
     number of atomic types    =            4
     number of electrons       =       398.00
     number of Kohn-Sham states=          209
     kinetic-energy cutoff     =      29.3995  Ry
     charge density cutoff     =     293.9946  Ry
     scf convergence threshold =      7.3E-08
     mixing beta               =       0.0500
     number of iterations used =            8  plain     mixing
     Exchange-correlation= BEEF-VDW
                           (   1   4  43  14   2   0   0)

     celldm(1)=   1.889726  celldm(2)=   0.000000  celldm(3)=   0.000000
     celldm(4)=   0.000000  celldm(5)=   0.000000  celldm(6)=   0.000000

     crystal axes: (cart. coord. in units of alat)
               a(1) = (   6.579727   0.000000   0.000000 )
               a(2) = (  -0.000775   5.961596   0.000000 )
               a(3) = (   0.000000   0.000000  25.155947 )

     reciprocal axes: (cart. coord. in units 2 pi/alat)
               b(1) = (  0.151982  0.000020  0.000000 )
               b(2) = (  0.000000  0.167740  0.000000 )
               b(3) = (  0.000000  0.000000  0.039752 )

     PseudoPot. # 1 for Ti read from file:
     /storage/coda1/p-amedford6/0/shared/rich_project_chbe-medford/medford-share/data/pseudos_module/espresso/nninc/pbe/van/Ti.UPF
     MD5 check sum: 8e4df49b7f0d34bbd5052bf3f5ea0213
     Pseudo is Ultrasoft, Zval = 12.0
     Generated by new atomic code, or converted to UPF format
     Using radial grid of  851 points,  6 beta functions with:
                l(1) =   0
                l(2) =   0
                l(3) =   1
                l(4) =   1
                l(5) =   2
                l(6) =   2
     Q(r) pseudized with  8 coefficients,  rinner =    1.000   1.000   1.000
                                                       1.000   1.000

     PseudoPot. # 2 for O  read from file:
     /storage/coda1/p-amedford6/0/shared/rich_project_chbe-medford/medford-share/data/pseudos_module/espresso/nninc/pbe/van/O.UPF
     MD5 check sum: 78c19812648e8988a0fe644b0f25305e
     Pseudo is Ultrasoft, Zval =  6.0
     Generated by new atomic code, or converted to UPF format
     Using radial grid of  737 points,  4 beta functions with:
                l(1) =   0
                l(2) =   0
                l(3) =   1
                l(4) =   1
     Q(r) pseudized with  8 coefficients,  rinner =    0.800   0.800   0.800

     PseudoPot. # 3 for C  read from file:
     /storage/coda1/p-amedford6/0/shared/rich_project_chbe-medford/medford-share/data/pseudos_module/espresso/nninc/pbe/van/C.UPF
     MD5 check sum: 1a69bf6b8db32088f5b2163dbdb77a27
     Pseudo is Ultrasoft, Zval =  4.0
     Generated by new atomic code, or converted to UPF format
     Using radial grid of  721 points,  4 beta functions with:
                l(1) =   0
                l(2) =   0
                l(3) =   1
                l(4) =   1
     Q(r) pseudized with  8 coefficients,  rinner =    0.800   0.800   0.800

     PseudoPot. # 4 for H  read from file:
     /storage/coda1/p-amedford6/0/shared/rich_project_chbe-medford/medford-share/data/pseudos_module/espresso/nninc/pbe/van/H.UPF
     MD5 check sum: b5ee9d7bfd3a09ee7748110bda690ff7
     Pseudo is Ultrasoft, Zval =  1.0
     Generated by new atomic code, or converted to UPF format
     Using radial grid of  615 points,  1 beta functions with:
                l(1) =   0
     Q(r) pseudized with  8 coefficients,  rinner =    0.800

     atomic species   valence    mass     pseudopotential
        Ti1           12.00    47.86700     Ti( 1.00)
        O1             6.00    15.99900     O ( 1.00)
        C1             4.00    12.01100     C ( 1.00)
        H1             1.00     1.00800     H ( 1.00)

     No symmetry found

   Cartesian axes

     site n.     atom                  positions (alat units)
         1           Ti1 tau(   1) = (   0.0004258   2.9801865   6.0000000  )
         2           Ti1 tau(   2) = (   3.2906075   1.4906267   6.0002472  )
         3           O1  tau(   3) = (   0.0006271   0.0005054   7.9858123  )
         4           O1  tau(   4) = (   3.2906025   0.0005020   7.3038282  )
         5           O1  tau(   5) = (   4.5942328   1.4918067   9.2879030  )
         6           O1  tau(   6) = (   1.9868534   1.4903216   9.2879459  )
         7           Ti1 tau(   7) = (   3.2053781   3.0281819   9.2289109  )
         8           Ti1 tau(   8) = (   6.4789090   1.5422439   9.3246958  )
         9           O1  tau(   9) = (   3.3131828   0.0076525  11.3143355  )
        10           O1  tau(  10) = (   0.0036331   0.0073455  10.5537702  )
        11           O1  tau(  11) = (   1.2849538   1.5262321  12.5678262  )
        12           O1  tau(  12) = (   5.3289628   1.4687457  12.6164477  )
        13           Ti1 tau(  13) = (   0.0494698   3.0469090  12.7547230  )
        14           Ti1 tau(  14) = (   3.2845375   1.6334081  12.5308488  )
        15           O1  tau(  15) = (   0.1943872   0.0117586  14.6058021  )
        16           O1  tau(  16) = (   3.1943342   5.9422946  13.9142442  )
        17           O1  tau(  17) = (   4.6623408   1.4089460  15.7678261  )
        18           O1  tau(  18) = (   2.0428328   1.6351894  16.0888801  )
        19           Ti1 tau(  19) = (   3.4388860   2.9458104  15.8736401  )
        20           Ti1 tau(  20) = (   0.1295272   1.3814375  15.8666627  )
        21           O1  tau(  21) = (   3.2904802   0.0005063   4.7018136  )
        22           O1  tau(  22) = (   0.0846747   0.0144810  17.1090220  )
        23           O1  tau(  23) = (   1.3043587   1.4918075   6.0039043  )
        24           O1  tau(  24) = (   5.2767064   1.4903225   6.0039473  )
        25           Ti1 tau(  25) = (   0.0000382   5.9609847   6.0000000  )
        26           Ti1 tau(  26) = (   3.2902200   4.4714249   6.0002472  )
        27           O1  tau(  27) = (   0.0002396   2.9813036   7.9858123  )
        28           O1  tau(  28) = (   3.2902150   2.9813002   7.3038282  )
        29           O1  tau(  29) = (   4.5938453   4.4726049   9.2879030  )
        30           O1  tau(  30) = (   1.9864658   4.4711199   9.2879459  )
        31           Ti1 tau(  31) = (   3.2224821   0.0470802   9.2230333  )
        32           Ti1 tau(  32) = (   6.4759698   4.4664252   9.3127940  )
        33           O1  tau(  33) = (   3.3094535   2.9663607  11.2852029  )
        34           O1  tau(  34) = (   6.5591786   2.9896559  10.5312464  )
        35           O1  tau(  35) = (   1.2916819   4.4480478  12.5709280  )
        36           O1  tau(  36) = (   5.3369627   4.5124161  12.6303246  )
        37           Ti1 tau(  37) = (   6.5569224   0.0640291  12.4639877  )
        38           Ti1 tau(  38) = (   3.2972653   4.6387695  12.6472152  )
        39           O1  tau(  39) = (   0.0654804   2.9943531  14.6628162  )
        40           O1  tau(  40) = (   3.3673531   2.9793459  13.8791815  )
        41           O1  tau(  41) = (   4.6654837   4.5585741  15.7845026  )
        42           O1  tau(  42) = (   2.0434307   4.3527116  16.0649513  )
        43           Ti1 tau(  43) = (   3.4443475   5.9291804  16.0141943  )
        44           Ti1 tau(  44) = (   0.1552736   4.5966999  15.8683145  )
        45           O1  tau(  45) = (   3.2900926   2.9813045   4.7018136  )
        46           O1  tau(  46) = (   1.3039711   4.4726057   6.0039043  )
        47           O1  tau(  47) = (   5.2763189   4.4711207   6.0039473  )
        48           C1  tau(  48) = (   4.6056898   2.9812133  17.8328851  )
        49           O1  tau(  49) = (   6.0966523   2.9907575  17.4046881  )
        50           H1  tau(  50) = (   0.0599730   2.9907033  18.2108262  )
        51           H1  tau(  51) = (   4.4920754   2.0732530  18.4117920  )
        52           H1  tau(  52) = (   4.4771298   3.8877196  18.4106030  )
        53           O1  tau(  53) = (   3.3127961   5.9530928  17.8757943  )
        54           H1  tau(  54) = (   2.4287022   0.1083392  18.2542858  )

     number of k points=    10  Fermi-Dirac smearing, width (Ry)=  0.0073
                       cart. coord. in units 2pi/alat
        k(    1) = (   0.0000000   0.0000000   0.0000000), wk =   0.1250000
        k(    2) = (   0.0000000   0.0419351   0.0000000), wk =   0.2500000
        k(    3) = (   0.0000000  -0.0838702   0.0000000), wk =   0.1250000
        k(    4) = (   0.0379955   0.0000049   0.0000000), wk =   0.2500000
        k(    5) = (   0.0379955   0.0419400   0.0000000), wk =   0.2500000
        k(    6) = (   0.0379955  -0.0838652   0.0000000), wk =   0.2500000
        k(    7) = (   0.0379955  -0.0419301   0.0000000), wk =   0.2500000
        k(    8) = (  -0.0759910  -0.0000099   0.0000000), wk =   0.1250000
        k(    9) = (  -0.0759910   0.0419252   0.0000000), wk =   0.2500000
        k(   10) = (  -0.0759910  -0.0838800   0.0000000), wk =   0.1250000

     Initial potential from superposition of free atoms

     starting charge  381.99917, renormalised to  398.00000

     negative rho (up, down):  1.910E-02 0.000E+00

     %%%%%%%%%%%%%%%%%%%%%%%%%%%%%%%%%%%%%%%%%%%%%%%%%%%%%%%%%%%%%%%%%%%%%%%%
     %                                                                      %
     % You are using vdW-DF, which was implemented by the Thonhauser group. %
     % Please cite the following two papers that made this development      %
     % possible and the two reviews that describe the various versions:     %
     %                                                                      %
     %   T. Thonhauser et al., PRL 115, 136402 (2015).                      %
     %   T. Thonhauser et al., PRB 76, 125112 (2007).                       %
     %   K. Berland et al., Rep. Prog. Phys. 78, 066501 (2015).             %
     %   D.C. Langreth et al., J. Phys.: Condens. Matter 21, 084203 (2009). %
     %                                                                      %
     %                                                                      %
     % If you are calculating the stress with vdW-DF, please also cite:     %
     %                                                                      %
     %   R. Sabatini et al., J. Phys.: Condens. Matter 24, 424209 (2012).   %
     %                                                                      %
     %%%%%%%%%%%%%%%%%%%%%%%%%%%%%%%%%%%%%%%%%%%%%%%%%%%%%%%%%%%%%%%%%%%%%%%%

     Adding external electric field

     Computed dipole along edir(3) :
        Dipole               -7.9424 Ry au,        -20.1875 Debye
        Dipole field         -0.0150 Ry au,

        Potential amp.        1.3894 Ry
        Total length         46.3494 bohr

     Starting wfcs are  300 atomic wfcs
  @ DRIVER MODE: Message from server: STATUS
  @ DRIVER MODE: Message from server: POSDATA
  @ DRIVER MODE: Reading and sharing cell
  @ DRIVER MODE: Reading and sharing positions
  @ DRIVER MODE: Received positions

     Self-consistent Calculation

     iteration #  1     ecut=    29.40 Ry     beta= 0.05
     Davidson diagonalization with overlap
     c_bands:  1 eigenvalues not converged
     c_bands:  2 eigenvalues not converged
     c_bands:  2 eigenvalues not converged
     c_bands:  1 eigenvalues not converged
     c_bands:  1 eigenvalues not converged
     c_bands:  1 eigenvalues not converged
     ethr =  1.00E-05,  avg # of iterations = 18.8

[...]

     total energy              =   -2649.62280957 Ry
     estimated scf accuracy    <    3499.29114632 Ry

[...]

     iteration #  3     ecut=    29.40 Ry     beta= 0.05
     Davidson diagonalization with overlap
     ethr =  1.00E-02,  avg # of iterations = 13.8

[...]

     iteration # 33     ecut=    29.40 Ry     beta= 0.05
     Davidson diagonalization with overlap
     c_bands:  1 eigenvalues not converged
     ethr =  5.46E-07,  avg # of iterations =  6.7

[...]

     total energy              =   -2964.91865174 Ry
     estimated scf accuracy    <       0.00000012 Ry

     iteration # 55     ecut=    29.40 Ry     beta= 0.05
     Davidson diagonalization with overlap
     ethr =  2.53E-11,  avg # of iterations =  5.0

     negative rho (up, down):  1.875E-02 0.000E+00

     Adding external electric field

     Computed dipole along edir(3) :
        Dipole                0.6448 Ry au,          1.6390 Debye
        Dipole field          0.0012 Ry au,

        Potential amp.       -0.1128 Ry
        Total length         46.3494 bohr

     End of self-consistent calculation

          k = 0.0000 0.0000 0.0000 ( 18029 PWs)   bands (ev):

   -56.4305 -56.3658 -55.7978 -55.7968 -55.7499 -55.7462 -55.7430 -55.7023
   -55.6949 -55.6472 -55.4614 -55.4449 -55.3811 -55.3670 -54.9563 -54.9224
   -32.8329 -32.7062 -32.6295 -32.6015 -32.4996 -32.4577 -32.4121 -32.3224
   -32.2160 -32.1836 -32.1057 -32.0620 -32.0414 -32.0057 -32.0046 -31.9962
   -31.9767 -31.9617 -31.9566 -31.9469 -31.9424 -31.9372 -31.9249 -31.9066
   -31.8940 -31.8925 -31.8738 -31.8648 -31.8522 -31.8347 -31.8244 -31.7994
   -31.7624 -31.7058 -31.6648 -31.6485 -31.6254 -31.5943 -31.5917 -31.5639
   -31.5505 -31.4246 -31.3491 -31.3034 -31.2788 -31.1649 -31.0788 -30.9698
   -19.3089 -16.5890 -16.4384 -16.3084 -16.1721 -15.9577 -15.9285 -15.8256
   -15.7232 -15.6830 -15.6009 -15.5729 -15.4347 -15.3858 -15.3573 -15.3360
   -15.3151 -15.2973 -15.2819 -15.2444 -15.2291 -15.1958 -15.1422 -15.0760
   -15.0546 -15.0033 -14.9709 -14.9546 -14.8707 -14.8064 -14.7255 -13.4638
   -13.3579  -9.1639  -6.1852  -4.0866  -3.9895  -3.9343  -3.8844  -3.7863
    -3.7214  -3.6870  -3.6222  -3.3074  -3.1759  -3.0820  -3.0267  -3.0037
    -2.9277  -2.9267  -2.9133  -2.7951  -2.7362  -2.7103  -2.6486  -2.6318
    -2.5887  -2.5547  -2.5482  -2.5355  -2.4923  -2.4527  -2.4122  -2.3930
    -2.3472  -2.2647  -2.2466  -2.1688  -2.1345  -2.1136  -2.0254  -1.9600
    -1.9505  -1.9138  -1.8901  -1.7859  -1.6056  -1.5201  -1.4633  -1.4099
    -1.3863  -1.3201  -1.3106  -1.2592  -1.1995  -1.1703  -1.1668  -1.0499
    -0.9966  -0.9644  -0.9181  -0.8834  -0.8197  -0.7727  -0.7572  -0.7263
    -0.7127  -0.6050  -0.5175  -0.4980  -0.4663  -0.4357  -0.3153  -0.2769
    -0.2367  -0.2104  -0.1920  -0.1508  -0.1070  -0.0391   0.0061   0.0611
     0.1010   0.1713   0.1825   0.2204   0.2553   0.2911   0.3533   0.3693
     0.4739   0.5029   0.5596   0.5956   0.7408   0.7693   0.9269   0.9909
     1.0541   1.1484   1.2744   1.3368   1.5846   1.6240   1.8008   2.8845
     3.0473   3.3148   3.3591   3.4941   3.5630   3.6216   3.7635   3.7904
     3.8451

[...]

          k = 0.0380-0.0419 0.0000 ( 17876 PWs)   bands (ev):

[...]

          k =-0.0760-0.0000 0.0000 ( 17886 PWs)   bands (ev):

[...]

          k =-0.0760-0.0839 0.0000 ( 17948 PWs)   bands (ev):

   -56.4258 -56.3703 -55.7903 -55.7900 -55.7573 -55.7493 -55.7388 -55.7095
   -55.6876 -55.6544 -55.4583 -55.4401 -55.3858 -55.3700 -54.9395 -54.9391
   -32.7032 -32.6719 -32.6315 -32.6262 -32.5730 -32.5253 -32.3345 -32.1615
   -32.1075 -32.0746 -32.0541 -32.0360 -32.0354 -32.0230 -32.0151 -32.0132
   -31.9981 -31.9829 -31.9772 -31.9570 -31.9566 -31.9536 -31.9503 -31.9373
   -31.9251 -31.9041 -31.8939 -31.8843 -31.8679 -31.8388 -31.7894 -31.7687
   -31.7599 -31.7249 -31.7189 -31.6852 -31.6641 -31.6501 -31.6366 -31.6044
   -31.5975 -31.4255 -31.2920 -31.2918 -31.1628 -31.1624 -31.1221 -31.1218
   -19.3014 -16.2427 -16.1298 -15.9403 -15.9051 -15.8281 -15.8264 -15.7773
   -15.7383 -15.6410 -15.5864 -15.5679 -15.4960 -15.4717 -15.4543 -15.4281
   -15.3783 -15.3531 -15.3295 -15.3186 -15.2749 -15.2509 -15.2460 -15.1994
   -15.1465 -15.1198 -15.1018 -15.0516 -14.9950 -14.9361 -14.8837 -13.4652
   -13.4594  -9.1721  -6.1669  -4.0994  -3.6757  -3.6323  -3.3397  -3.1557
    -2.9767  -2.9647  -2.9508  -2.9432  -2.8749  -2.8679  -2.8204  -2.7791
    -2.7234  -2.7027  -2.6752  -2.6704  -2.6642  -2.6231  -2.6124  -2.5864
    -2.5596  -2.5543  -2.5118  -2.5044  -2.4847  -2.4377  -2.4233  -2.3911
    -2.3610  -2.3345  -2.2828  -2.2242  -2.2048  -2.1917  -2.0655  -1.9994
    -1.9916  -1.9163  -1.9022  -1.8736  -1.8344  -1.7578  -1.6970  -1.6575
    -1.5252  -1.5047  -1.4495  -1.4126  -1.3371  -1.3254  -1.2419  -1.2125
    -1.1768  -1.1395  -1.1136  -1.0868  -1.0649  -1.0613  -0.9361  -0.9072
    -0.8586  -0.8401  -0.8065  -0.7743  -0.7499  -0.6939  -0.6259  -0.6172
    -0.5681  -0.5235  -0.4538  -0.4163  -0.3351  -0.2803  -0.2372  -0.1708
    -0.0643   0.0573   0.0935   0.1994   0.2980   0.3049   0.3711   0.4201
     0.4470   0.4917   0.5746   0.5874   0.6555   0.6664   0.7004   0.7575
     0.8063   0.8768   1.4246   1.4406   1.4620   1.4649   1.7396   3.4280
     3.4546   3.4747   3.5173   3.6618   3.7566   3.7830   3.8498   3.8971
     3.9131

     the Fermi energy is     2.4145 ev

!    total energy              =   -2964.91872101 Ry
     estimated scf accuracy    <       0.00000003 Ry
     smearing contrib. (-TS)   =      -0.00046552 Ry
     internal energy E=F+TS    =   -2964.91825549 Ry

     The total energy is F=E-TS. E is the sum of the following terms:
     one-electron contribution =  -24898.49340001 Ry
     hartree contribution      =   12539.61164262 Ry
     xc contribution           =    -490.07087004 Ry
     ewald contribution        =    9884.03358726 Ry
     electric field correction =       0.00078468 Ry

     convergence has been achieved in  55 iterations

     Forces acting on atoms (cartesian axes, Ry/au):

     atom    1 type  1   force =     0.00009503   -0.00022913    0.12241871
     atom    2 type  1   force =     0.00010468    0.00184096   -0.15178717
     atom    3 type  2   force =    -0.00068358   -0.00092659   -0.05771785
     atom    4 type  2   force =    -0.00119366    0.00052229    0.04765240
     atom    5 type  2   force =    -0.01071785   -0.00519200   -0.00143524
     atom    6 type  2   force =     0.01360115    0.00025590   -0.00014654
     atom    7 type  1   force =    -0.00026669    0.00015041    0.00001269
     atom    8 type  1   force =     0.00040104   -0.00013412   -0.00045122
     atom    9 type  2   force =     0.00001023   -0.00024777    0.00046745
     atom   10 type  2   force =    -0.00012244   -0.00005497    0.00017766
     atom   11 type  2   force =    -0.00046308   -0.00026103    0.00027727
     atom   12 type  2   force =     0.00017541    0.00008550    0.00000510
     atom   13 type  1   force =     0.00041092   -0.00011202   -0.00005265
     atom   14 type  1   force =    -0.00011654   -0.00029910   -0.00007136
     atom   15 type  2   force =    -0.00029881   -0.00016568   -0.00022073
     atom   16 type  2   force =     0.00019844    0.00008636   -0.00004072
     atom   17 type  2   force =    -0.00034972    0.00030088    0.00039835
     atom   18 type  2   force =     0.00008578   -0.00016702    0.00003038
     atom   19 type  1   force =    -0.00000899   -0.00000574    0.00095680
     atom   20 type  1   force =    -0.00025952    0.00020129   -0.00029157
     atom   21 type  2   force =     0.00027211    0.00013009    0.09728742
     atom   22 type  2   force =    -0.00032522   -0.00032347   -0.00028932
     atom   23 type  2   force =    -0.08312280    0.00238608   -0.03357769
     atom   24 type  2   force =     0.08317176    0.00267382   -0.03364881
     atom   25 type  1   force =     0.00041206    0.00037759    0.13899212
     atom   26 type  1   force =     0.00006261   -0.00119938   -0.15161517
     atom   27 type  2   force =    -0.00070074    0.00143526   -0.05285489
     atom   28 type  2   force =    -0.00117949    0.00017676    0.04596341
     atom   29 type  2   force =    -0.01132822    0.00058477   -0.00073184
     atom   30 type  2   force =     0.01406721    0.00412589    0.00076917
     atom   31 type  1   force =    -0.00049418   -0.00017323    0.00009329
     atom   32 type  1   force =     0.00034877   -0.00005072   -0.00022330
     atom   33 type  2   force =    -0.00024664    0.00010603    0.00013656
     atom   34 type  2   force =     0.00014005    0.00008389    0.00014916
     atom   35 type  2   force =    -0.00019829    0.00053841    0.00035922
     atom   36 type  2   force =     0.00021838   -0.00001461   -0.00015686
     atom   37 type  1   force =    -0.00061482    0.00028553    0.00021214
     atom   38 type  1   force =    -0.00033352   -0.00039317   -0.00023427
     atom   39 type  2   force =     0.00006687   -0.00010881    0.00031349
     atom   40 type  2   force =    -0.00032654   -0.00007337    0.00044962
     atom   41 type  2   force =    -0.00024253   -0.00080407    0.00036762
     atom   42 type  2   force =    -0.00026106   -0.00022054    0.00023832
     atom   43 type  1   force =    -0.00016018   -0.00005580   -0.00027450
     atom   44 type  1   force =    -0.00027052   -0.00016315    0.00022231
     atom   45 type  2   force =     0.00023213    0.00013610    0.09736085
     atom   46 type  2   force =    -0.08304412   -0.00265152   -0.03359903
     atom   47 type  2   force =     0.08307970   -0.00230409   -0.03370275
     atom   48 type  3   force =     0.00100725   -0.00005137   -0.01285915
     atom   49 type  2   force =    -0.00125510    0.00000574    0.00210388
     atom   50 type  4   force =     0.00099043    0.00007010   -0.00060847
     atom   51 type  4   force =    -0.00008403   -0.00465490    0.00466443
     atom   52 type  4   force =    -0.00047557    0.00451978    0.00429225
     atom   53 type  2   force =    -0.00067245    0.00058118    0.00083485
     atom   54 type  4   force =     0.00066490   -0.00062326   -0.00061585

     Total force =     0.378036     Total SCF correction =     0.000705
  @ DRIVER MODE: Message from server: STATUS
  @ DRIVER MODE: Message from server: GETFORCE
  @ DRIVER MODE: Returning v,forces,stress,ensemble

     Writing output data file ./calc.save/
  @ DRIVER MODE: Message from server: EXIT
  @ DRIVE MODE: Exiting

     General routines

     Parallel routines

   This run was terminated on:   0:30:58  23Sep2021

   JOB DONE.