     Program PWSCF v.6.7GPU starts on 15Sep2021 at 17: 1:12

     R & G space division:  proc/nbgrp/npool/nimage =      10
     Reading input from /storage/home/hcoda1/3/ntian30/research/carbon/CxH_vib/H2O_calc/ads_slab/CH2NNHHHH2O_a/out_0004/pw.inp
Warning: card &CELL ignored
Warning: card   CELL_DYNAMICS='IPI', ignored
Warning: card / ignored

     Current dimensions of program PWSCF are:
     Max number of different atomic species (ntypx) = 10
     Max number of k-points (npk) =  40000
     Max angular momentum in pseudopotentials (lmaxx) =  3
     Presently no symmetry can be used with electric field

     Message from routine cell_base_init:
     DEPRECATED: use true lattice parameter, not A to a.u. conversion factor

     IMPORTANT: XC functional enforced from input :
     Exchange-correlation= BEEF-VDW
                           (   1   4  43  14   2   0   0)
     Any further DFT definition will be discarded
     Please, verify this is what you really want

  @ DRIVER MODE: Connecting to
 qe_1139763_2852612.sched-torque.pace.gatech.edu1xjo2akx_scratch
  using UNIX socket
  @ DRIVER MODE: Message from server: STATUS
  @ DRIVER MODE: Message from server: INIT
  @ DRIVER MODE: Receiving replica           0          -1
  @ DRIVER MODE: Receiving encoded integer          25
  @ DRIVER MODE:  SCF:  T  FORCE:  T  STRESS:  F  VC:  F  ENSEMBLE:  F
  @ DRIVER MODE:  SCF:  T  FORCE:  T  STRESS:  F  VC:  F  ENSEMBLE:  F

     Using Slab Decomposition

     bravais-lattice index     =            0
     lattice parameter (alat)  =       1.8897  a.u.
     unit-cell volume          =    6658.9804 (a.u.)^3
     number of atoms/cell      =           58
     number of atomic types    =            5
     number of electrons       =       405.00
     number of Kohn-Sham states=          212
     kinetic-energy cutoff     =      29.3995  Ry
     charge density cutoff     =     293.9946  Ry
     scf convergence threshold =      7.3E-08
     mixing beta               =       0.0500
     number of iterations used =            8  plain     mixing
     Exchange-correlation= BEEF-VDW
                           (   1   4  43  14   2   0   0)

     celldm(1)=   1.889726  celldm(2)=   0.000000  celldm(3)=   0.000000
     celldm(4)=   0.000000  celldm(5)=   0.000000  celldm(6)=   0.000000

     crystal axes: (cart. coord. in units of alat)
               a(1) = (   6.579727   0.000000   0.000000 )
               a(2) = (  -0.000775   5.961596   0.000000 )
               a(3) = (   0.000000   0.000000  25.155947 )

     reciprocal axes: (cart. coord. in units 2 pi/alat)
               b(1) = (  0.151982  0.000020  0.000000 )
               b(2) = (  0.000000  0.167740  0.000000 )
               b(3) = (  0.000000  0.000000  0.039752 )

     PseudoPot. # 1 for Ti read from file:
     /storage/coda1/p-amedford6/0/shared/rich_project_chbe-medford/medford-share/data/pseudos_module/espresso/nninc/pbe/van/Ti.UPF
     MD5 check sum: 8e4df49b7f0d34bbd5052bf3f5ea0213
     Pseudo is Ultrasoft, Zval = 12.0
     Generated by new atomic code, or converted to UPF format
     Using radial grid of  851 points,  6 beta functions with:
                l(1) =   0
                l(2) =   0
                l(3) =   1
                l(4) =   1
                l(5) =   2
                l(6) =   2
     Q(r) pseudized with  8 coefficients,  rinner =    1.000   1.000   1.000
                                                       1.000   1.000

     PseudoPot. # 2 for O  read from file:
     /storage/coda1/p-amedford6/0/shared/rich_project_chbe-medford/medford-share/data/pseudos_module/espresso/nninc/pbe/van/O.UPF
     MD5 check sum: 78c19812648e8988a0fe644b0f25305e
     Pseudo is Ultrasoft, Zval =  6.0
     Generated by new atomic code, or converted to UPF format
     Using radial grid of  737 points,  4 beta functions with:
                l(1) =   0
                l(2) =   0
                l(3) =   1
                l(4) =   1
     Q(r) pseudized with  8 coefficients,  rinner =    0.800   0.800   0.800

     PseudoPot. # 3 for N  read from file:
     /storage/coda1/p-amedford6/0/shared/rich_project_chbe-medford/medford-share/data/pseudos_module/espresso/nninc/pbe/van/N.UPF
     MD5 check sum: 90d10febe142ad51ac9d5be1deb811c4
     Pseudo is Ultrasoft, Zval =  5.0
     Generated by new atomic code, or converted to UPF format
     Using radial grid of  729 points,  4 beta functions with:
                l(1) =   0
                l(2) =   0
                l(3) =   1
                l(4) =   1
     Q(r) pseudized with  8 coefficients,  rinner =    0.800   0.800   0.800

     PseudoPot. # 4 for C  read from file:
     /storage/coda1/p-amedford6/0/shared/rich_project_chbe-medford/medford-share/data/pseudos_module/espresso/nninc/pbe/van/C.UPF
     MD5 check sum: 1a69bf6b8db32088f5b2163dbdb77a27
     Pseudo is Ultrasoft, Zval =  4.0
     Generated by new atomic code, or converted to UPF format
     Using radial grid of  721 points,  4 beta functions with:
                l(1) =   0
                l(2) =   0
                l(3) =   1
                l(4) =   1
     Q(r) pseudized with  8 coefficients,  rinner =    0.800   0.800   0.800

     PseudoPot. # 5 for H  read from file:
     /storage/coda1/p-amedford6/0/shared/rich_project_chbe-medford/medford-share/data/pseudos_module/espresso/nninc/pbe/van/H.UPF
     MD5 check sum: b5ee9d7bfd3a09ee7748110bda690ff7
     Pseudo is Ultrasoft, Zval =  1.0
     Generated by new atomic code, or converted to UPF format
     Using radial grid of  615 points,  1 beta functions with:
                l(1) =   0
     Q(r) pseudized with  8 coefficients,  rinner =    0.800

     atomic species   valence    mass     pseudopotential
        Ti1           12.00    47.86700     Ti( 1.00)
        O1             6.00    15.99900     O ( 1.00)
        N1             5.00    14.00700     N ( 1.00)
        C1             4.00    12.01100     C ( 1.00)
        H1             1.00     1.00800     H ( 1.00)

     No symmetry found

   Cartesian axes

     site n.     atom                  positions (alat units)
         1           Ti1 tau(   1) = (   0.0004258   2.9801865   6.0000000  )
         2           Ti1 tau(   2) = (   3.2906075   1.4906267   6.0002472  )
         3           O1  tau(   3) = (   0.0006271   0.0005054   7.9858123  )
         4           O1  tau(   4) = (   3.2906025   0.0005020   7.3038282  )
         5           O1  tau(   5) = (   4.5942328   1.4918067   9.2879030  )
         6           O1  tau(   6) = (   1.9868534   1.4903216   9.2879459  )
         7           Ti1 tau(   7) = (   3.2907910   2.8959150   9.1758416  )
         8           Ti1 tau(   8) = (   0.0015273   1.4827037   9.2680791  )
         9           O1  tau(   9) = (   3.2987819   5.9401718  11.3551833  )
        10           O1  tau(  10) = (   0.0116148   5.9584955  10.6183126  )
        11           O1  tau(  11) = (   1.3094369   1.4889762  12.6418845  )
        12           O1  tau(  12) = (   5.3041503   1.4933078  12.6143371  )
        13           Ti1 tau(  13) = (   0.0302489   2.9730182  12.5448133  )
        14           Ti1 tau(  14) = (   3.3273137   1.4751619  12.4920661  )
        15           O1  tau(  15) = (   6.5331299   0.0759724  14.6728253  )
        16           O1  tau(  16) = (   3.3443954   0.0128112  13.9985917  )
        17           O1  tau(  17) = (   4.5384157   1.5150964  16.2525342  )
        18           O1  tau(  18) = (   2.0107438   1.5096167  16.1239609  )
        19           Ti1 tau(  19) = (   3.2468703   2.9375149  15.6823127  )
        20           Ti1 tau(  20) = (   6.5402329   1.3810098  16.1103674  )
        21           O1  tau(  21) = (   3.2904802   0.0005063   4.7018136  )
        22           O1  tau(  22) = (   0.0855018   5.8309792  17.2460454  )
        23           O1  tau(  23) = (   1.3043587   1.4918075   6.0039043  )
        24           O1  tau(  24) = (   5.2767064   1.4903225   6.0039473  )
        25           Ti1 tau(  25) = (   0.0000382   5.9609847   6.0000000  )
        26           Ti1 tau(  26) = (   3.2902200   4.4714249   6.0002472  )
        27           O1  tau(  27) = (   0.0002396   2.9813036   7.9858123  )
        28           O1  tau(  28) = (   3.2902150   2.9813002   7.3038282  )
        29           O1  tau(  29) = (   4.5938453   4.4726049   9.2879030  )
        30           O1  tau(  30) = (   1.9864658   4.4711199   9.2879459  )
        31           Ti1 tau(  31) = (   3.2891106   5.8743827   9.1763621  )
        32           Ti1 tau(  32) = (   0.0006254   4.4649316   9.2693709  )
        33           O1  tau(  33) = (   3.2978634   2.9839445  11.3486163  )
        34           O1  tau(  34) = (   0.0092240   2.9805883  10.6323155  )
        35           O1  tau(  35) = (   1.3057425   4.4725738  12.6940039  )
        36           O1  tau(  36) = (   5.3035974   4.4670288  12.6562451  )
        37           Ti1 tau(  37) = (   0.0240142   0.0094741  12.5095027  )
        38           Ti1 tau(  38) = (   3.3290383   4.4615466  12.5202027  )
        39           O1  tau(  39) = (   6.5484913   2.9337383  14.8377676  )
        40           O1  tau(  40) = (   3.3243726   2.9440003  13.9069550  )
        41           O1  tau(  41) = (   4.5478640   4.3999133  16.1372545  )
        42           O1  tau(  42) = (   2.0209518   4.4226222  15.9786897  )
        43           Ti1 tau(  43) = (   3.3220059   5.9437776  15.8132296  )
        44           Ti1 tau(  44) = (   0.0730556   4.5544523  15.7304118  )
        45           O1  tau(  45) = (   3.2900926   2.9813045   4.7018136  )
        46           O1  tau(  46) = (   1.3039711   4.4726057   6.0039043  )
        47           O1  tau(  47) = (   5.2763189   4.4711207   6.0039473  )
        48           N1  tau(  48) = (   0.0453545   2.8888619  17.9090770  )
        49           C1  tau(  49) = (   1.0089482   2.8008358  18.8431878  )
        50           H1  tau(  50) = (   1.0080222   3.4413729  19.7168629  )
        51           H1  tau(  51) = (   1.8954070   2.2543435  18.5800802  )
        52           N1  tau(  52) = (   5.5320326   3.6725468  18.4365114  )
        53           H1  tau(  53) = (   5.8975581   4.6271042  18.6377988  )
        54           H1  tau(  54) = (   4.8553295   3.8628436  17.6443034  )
        55           H1  tau(  55) = (   5.1025442   3.2364756  19.2632064  )
        56           O1  tau(  56) = (   2.8928424   5.6518753  18.2681889  )
        57           H1  tau(  57) = (   3.0708471   0.5134993  18.7460362  )
        58           H1  tau(  58) = (   1.9180978   5.6479514  18.1114729  )

     number of k points=    10  Fermi-Dirac smearing, width (Ry)=  0.0073
                       cart. coord. in units 2pi/alat
        k(    1) = (   0.0000000   0.0000000   0.0000000), wk =   0.1250000
        k(    2) = (   0.0000000   0.0419351   0.0000000), wk =   0.2500000
        k(    3) = (   0.0000000  -0.0838702   0.0000000), wk =   0.1250000
        k(    4) = (   0.0379955   0.0000049   0.0000000), wk =   0.2500000
        k(    5) = (   0.0379955   0.0419400   0.0000000), wk =   0.2500000
        k(    6) = (   0.0379955  -0.0838652   0.0000000), wk =   0.2500000
        k(    7) = (   0.0379955  -0.0419301   0.0000000), wk =   0.2500000
        k(    8) = (  -0.0759910  -0.0000099   0.0000000), wk =   0.1250000
        k(    9) = (  -0.0759910   0.0419252   0.0000000), wk =   0.2500000
        k(   10) = (  -0.0759910  -0.0838800   0.0000000), wk =   0.1250000

     Initial potential from superposition of free atoms

     starting charge  388.99913, renormalised to  405.00000

     negative rho (up, down):  1.580E-02 0.000E+00

     %%%%%%%%%%%%%%%%%%%%%%%%%%%%%%%%%%%%%%%%%%%%%%%%%%%%%%%%%%%%%%%%%%%%%%%%
     %                                                                      %
     % You are using vdW-DF, which was implemented by the Thonhauser group. %
     % Please cite the following two papers that made this development      %
     % possible and the two reviews that describe the various versions:     %
     %                                                                      %
     %   T. Thonhauser et al., PRL 115, 136402 (2015).                      %
     %   T. Thonhauser et al., PRB 76, 125112 (2007).                       %
     %   K. Berland et al., Rep. Prog. Phys. 78, 066501 (2015).             %
     %   D.C. Langreth et al., J. Phys.: Condens. Matter 21, 084203 (2009). %
     %                                                                      %
     %                                                                      %
     % If you are calculating the stress with vdW-DF, please also cite:     %
     %                                                                      %
     %   R. Sabatini et al., J. Phys.: Condens. Matter 24, 424209 (2012).   %
     %                                                                      %
     %%%%%%%%%%%%%%%%%%%%%%%%%%%%%%%%%%%%%%%%%%%%%%%%%%%%%%%%%%%%%%%%%%%%%%%%

     Adding external electric field

     Computed dipole along edir(3) :
        Dipole              -14.4816 Ry au,        -36.8086 Debye
        Dipole field         -0.0273 Ry au,

        Potential amp.        2.5333 Ry
        Total length         46.3494 bohr

     Starting wfcs are  307 atomic wfcs
  @ DRIVER MODE: Message from server: STATUS
  @ DRIVER MODE: Message from server: POSDATA
  @ DRIVER MODE: Reading and sharing cell
  @ DRIVER MODE: Reading and sharing positions
  @ DRIVER MODE: Received positions

     Self-consistent Calculation

     iteration #  1     ecut=    29.40 Ry     beta= 0.05
     Davidson diagonalization with overlap
     c_bands:  2 eigenvalues not converged
     c_bands:  5 eigenvalues not converged
     c_bands:  1 eigenvalues not converged
     c_bands:  3 eigenvalues not converged
     c_bands:  3 eigenvalues not converged
     c_bands:  4 eigenvalues not converged
     ethr =  1.00E-05,  avg # of iterations = 27.0

[...]

     total energy              =   -2173.25221618 Ry
     estimated scf accuracy    <    9121.40235631 Ry

     iteration #  2     ecut=    29.40 Ry     beta= 0.05
     Davidson diagonalization with overlap
     ethr =  1.00E-02,  avg # of iterations = 26.8

[...]

     iteration # 72     ecut=    29.40 Ry     beta= 0.05
     Davidson diagonalization with overlap
     c_bands:  1 eigenvalues not converged
     ethr =  2.30E-11,  avg # of iterations = 14.2

[...]

     total energy              =   -2976.32715490 Ry
     estimated scf accuracy    <       0.00000009 Ry

     iteration # 73     ecut=    29.40 Ry     beta= 0.05
     Davidson diagonalization with overlap
     ethr =  2.15E-11,  avg # of iterations =  6.8

     negative rho (up, down):  1.318E-02 0.000E+00

     Adding external electric field

     Computed dipole along edir(3) :
        Dipole                1.3356 Ry au,          3.3948 Debye
        Dipole field          0.0025 Ry au,

        Potential amp.       -0.2336 Ry
        Total length         46.3494 bohr

     End of self-consistent calculation

          k = 0.0000 0.0000 0.0000 ( 18029 PWs)   bands (ev):

   -55.1735 -55.1443 -55.1325 -55.1102 -55.0941 -55.0509 -55.0099 -54.9833
   -54.9725 -54.9569 -54.9478 -54.9397 -54.8789 -54.7273 -54.1561 -54.1221
   -31.7402 -31.6340 -31.5383 -31.5044 -31.4831 -31.4757 -31.4724 -31.4340
   -31.4110 -31.3893 -31.3833 -31.3810 -31.3721 -31.3478 -31.3217 -31.3184
   -31.3085 -31.2970 -31.2915 -31.2865 -31.2556 -31.2388 -31.2321 -31.2125
   -31.2011 -31.1834 -31.1817 -31.1809 -31.1736 -31.1696 -31.1528 -31.1435
   -31.1334 -31.1332 -31.1101 -31.1027 -31.0986 -31.0810 -31.0583 -31.0209
   -31.0041 -30.8750 -30.5645 -30.4727 -30.4505 -30.3812 -30.2945 -30.1834
   -19.1268 -18.8003 -16.0106 -15.7529 -15.6256 -15.4484 -15.3682 -15.2146
   -15.1452 -15.0619 -15.0342 -14.9703 -14.9315 -14.9011 -14.7884 -14.7811
   -14.7080 -14.7076 -14.6992 -14.6667 -14.6631 -14.6586 -14.6030 -14.6002
   -14.5607 -14.5496 -14.5373 -14.3953 -14.3203 -14.2633 -14.0808 -13.9711
   -12.6584 -12.5413  -9.0193  -7.6938  -6.9579  -6.5495  -5.7563  -3.8084
    -3.3485  -3.2156  -3.1773  -3.1166  -3.0737  -2.9870  -2.8966  -2.7746
    -2.5568  -2.4787  -2.4393  -2.3901  -2.3817  -2.3349  -2.2461  -2.1618
    -2.1301  -2.0944  -2.0449  -2.0297  -1.9885  -1.9623  -1.9430  -1.9017
    -1.8930  -1.7453  -1.6845  -1.6267  -1.5795  -1.5617  -1.5526  -1.5023
    -1.4892  -1.4680  -1.4651  -1.4546  -1.4243  -1.3856  -1.3824  -1.3282
    -1.2905  -1.1661  -1.0906  -0.9747  -0.9123  -0.8851  -0.8021  -0.7337
    -0.7174  -0.6453  -0.5810  -0.5614  -0.5041  -0.4667  -0.3761  -0.3418
    -0.2923  -0.2663  -0.1579  -0.1450  -0.1290  -0.0582   0.0308   0.0399
     0.0638   0.1101   0.1937   0.2288   0.2819   0.3084   0.4083   0.4395
     0.4817   0.4998   0.5247   0.6059   0.6772   0.7140   0.7748   0.7842
     0.8189   0.8240   0.8472   0.9413   0.9720   0.9767   1.0248   1.1916
     1.2486   1.4483   1.4502   1.7807   1.8161   1.8669   2.0531   2.4406
     2.4879   3.9256   3.9917   4.0405   4.0573   4.0757   4.1350   4.1678
     4.3961   4.4188   4.4331   4.4468

[...]

          k = 0.0380-0.0419 0.0000 ( 17876 PWs)   bands (ev):

[...]

          k =-0.0760-0.0000 0.0000 ( 17886 PWs)   bands (ev):

[...]

          k =-0.0760-0.0839 0.0000 ( 17948 PWs)   bands (ev):

   -55.1628 -55.1430 -55.1273 -55.1270 -55.0919 -55.0417 -55.0191 -54.9678
   -54.9620 -54.9589 -54.9575 -54.9557 -54.8772 -54.7289 -54.1391 -54.1390
   -31.5513 -31.5363 -31.4494 -31.4490 -31.4490 -31.4393 -31.4196 -31.4193
   -31.3851 -31.3796 -31.3701 -31.3682 -31.3381 -31.3113 -31.3025 -31.3004
   -31.2978 -31.2942 -31.2918 -31.2870 -31.2793 -31.2640 -31.2501 -31.2465
   -31.2463 -31.2451 -31.2420 -31.2159 -31.2010 -31.1929 -31.1821 -31.1776
   -31.1770 -31.1764 -31.1610 -31.1564 -31.1374 -31.1350 -31.0750 -31.0148
   -31.0086 -30.9477 -30.4632 -30.4631 -30.3771 -30.3770 -30.3379 -30.3378
   -19.1199 -18.8028 -15.5122 -15.3768 -15.3375 -15.2467 -15.1653 -15.1494
   -15.1415 -15.1074 -15.0550 -14.9955 -14.9505 -14.9157 -14.8750 -14.8737
   -14.8607 -14.7603 -14.7493 -14.7419 -14.7249 -14.6767 -14.6670 -14.6502
   -14.6249 -14.6233 -14.5982 -14.5174 -14.5164 -14.4187 -14.3101 -14.0226
   -12.6429 -12.6428  -9.0064  -7.7097  -6.9151  -6.5390  -5.7706  -3.8898
    -3.0052  -2.7701  -2.5751  -2.5475  -2.4284  -2.3759  -2.3304  -2.3077
    -2.2231  -2.1826  -2.1661  -2.1603  -2.1403  -2.0830  -2.0621  -2.0226
    -2.0029  -1.9888  -1.9791  -1.9559  -1.9511  -1.9191  -1.9020  -1.8846
    -1.8787  -1.8420  -1.8033  -1.7921  -1.7546  -1.7334  -1.7257  -1.6681
    -1.5692  -1.5343  -1.4923  -1.4238  -1.3634  -1.3597  -1.2901  -1.2646
    -1.2461  -1.2330  -1.1976  -1.1849  -1.0644  -1.0163  -0.9113  -0.8983
    -0.8910  -0.7870  -0.7532  -0.7122  -0.6823  -0.6449  -0.5889  -0.5095
    -0.5034  -0.4274  -0.3903  -0.3791  -0.3607  -0.2202  -0.1887  -0.1558
    -0.1317  -0.1271  -0.0725  -0.0303   0.0000   0.0375   0.0645   0.0973
     0.1135   0.1893   0.3271   0.3583   0.3999   0.5325   0.5603   0.6753
     0.7016   0.8213   0.8950   0.9396   0.9600   1.0376   1.1147   1.1364
     1.1421   1.2529   1.3037   1.3057   1.3230   2.2256   2.2271   2.3079
     2.3081   3.7790   4.0711   4.1965   4.2132   4.2539   4.3776   4.4430
     4.4782   4.5001   4.5029   4.5900

     the Fermi energy is     3.9745 ev

!    total energy              =   -2976.32717316 Ry
     estimated scf accuracy    <       0.00000003 Ry
     smearing contrib. (-TS)   =      -0.04072137 Ry
     internal energy E=F+TS    =   -2976.28645179 Ry

     The total energy is F=E-TS. E is the sum of the following terms:
     one-electron contribution =  -23820.73071743 Ry
     hartree contribution      =   12009.18472950 Ry
     xc contribution           =    -495.76159705 Ry
     ewald contribution        =    9331.01776677 Ry
     electric field correction =       0.00336643 Ry

     convergence has been achieved in  73 iterations

     Forces acting on atoms (cartesian axes, Ry/au):

     atom    1 type  1   force =     0.00015340   -0.00019509    0.09426534
     atom    2 type  1   force =    -0.00011262   -0.00034763   -0.17723666
     atom    3 type  2   force =     0.00008388    0.00003631   -0.02132241
     atom    4 type  2   force =     0.00001928   -0.00174298    0.05667962
     atom    5 type  2   force =    -0.01043871   -0.00128134    0.00673424
     atom    6 type  2   force =     0.01219621   -0.00072743    0.00624840
     atom    7 type  1   force =    -0.00028281    0.00288810   -0.01265706
     atom    8 type  1   force =    -0.00014929    0.00439022    0.00451330
     atom    9 type  2   force =    -0.00036390    0.00009096    0.00076452
     atom   10 type  2   force =    -0.00008485   -0.00088899   -0.00638441
     atom   11 type  2   force =    -0.00042867   -0.00033082    0.00006885
     atom   12 type  2   force =    -0.00031186   -0.00042264    0.00015493
     atom   13 type  1   force =    -0.00034520   -0.00016822   -0.00036477
     atom   14 type  1   force =     0.00003026   -0.00043291   -0.00034471
     atom   15 type  2   force =    -0.00024868    0.00018466    0.00026218
     atom   16 type  2   force =    -0.00065323    0.00024741   -0.00033571
     atom   17 type  2   force =     0.00005398    0.00008981    0.00027169
     atom   18 type  2   force =     0.00023328   -0.00005283    0.00028628
     atom   19 type  1   force =     0.00020773   -0.00090246    0.00005260
     atom   20 type  1   force =     0.00040417   -0.00032648    0.00043573
     atom   21 type  2   force =     0.00004803    0.00001732    0.10365066
     atom   22 type  2   force =    -0.00044161    0.00109149    0.00046899
     atom   23 type  2   force =    -0.07082394   -0.00010303   -0.02715796
     atom   24 type  2   force =     0.07071889    0.00033462   -0.02718990
     atom   25 type  1   force =    -0.00006273   -0.00022878    0.09367193
     atom   26 type  1   force =    -0.00013404   -0.00041925   -0.17737823
     atom   27 type  2   force =     0.00014667   -0.00039001   -0.02028814
     atom   28 type  2   force =     0.00005262   -0.00138073    0.05583080
     atom   29 type  2   force =    -0.01030950   -0.00029662    0.00538644
     atom   30 type  2   force =     0.01197947    0.00010010    0.00502344
     atom   31 type  1   force =    -0.00017317    0.00358898   -0.01531773
     atom   32 type  1   force =    -0.00018069   -0.00484695    0.00437925
     atom   33 type  2   force =    -0.00006701   -0.00016964    0.00032359
     atom   34 type  2   force =     0.00120375    0.00259265   -0.00427605
     atom   35 type  2   force =    -0.00071772   -0.00015636    0.00018396
     atom   36 type  2   force =    -0.00000534   -0.00002541    0.00046270
     atom   37 type  1   force =     0.00039070    0.00042241   -0.00037454
     atom   38 type  1   force =     0.00000017    0.00052381   -0.00157901
     atom   39 type  2   force =     0.00028226   -0.00061204   -0.00016780
     atom   40 type  2   force =     0.00004950    0.00004491    0.00057894
     atom   41 type  2   force =    -0.00018418   -0.00026714   -0.00019330
     atom   42 type  2   force =     0.00051432   -0.00030926   -0.00005355
     atom   43 type  1   force =    -0.00069600    0.00059849    0.00067341
     atom   44 type  1   force =     0.00000354   -0.00043036    0.00051509
     atom   45 type  2   force =     0.00004086   -0.00002428    0.10364992
     atom   46 type  2   force =    -0.07085980   -0.00006700   -0.02715851
     atom   47 type  2   force =     0.07075852    0.00033405   -0.02718741
     atom   48 type  3   force =     0.00406135   -0.00626758   -0.00310583
     atom   49 type  4   force =    -0.00093762    0.00126104    0.00063043
     atom   50 type  5   force =     0.00157347   -0.00027284    0.00034445
     atom   51 type  5   force =    -0.00118602    0.00086954   -0.00095309
     atom   52 type  3   force =    -0.00034563    0.00347588    0.00126400
     atom   53 type  5   force =    -0.00255912    0.00069619    0.00101276
     atom   54 type  5   force =     0.00010212   -0.00021136    0.00060521
     atom   55 type  5   force =    -0.00058931   -0.00040609    0.00053226
     atom   56 type  2   force =    -0.00032044    0.00128061   -0.00061022
     atom   57 type  5   force =    -0.00025178   -0.00079554    0.00039288
     atom   58 type  5   force =    -0.00104296    0.00034052    0.00131820

     Total force =     0.365451     Total SCF correction =     0.000288
  @ DRIVER MODE: Message from server: STATUS
  @ DRIVER MODE: Message from server: GETFORCE
  @ DRIVER MODE: Returning v,forces,stress,ensemble

     Writing output data file ./calc.save/
  @ DRIVER MODE: Message from server: EXIT
  @ DRIVE MODE: Exiting

     General routines

     Parallel routines

   This run was terminated on:  17:21: 4  15Sep2021

   JOB DONE.