     Program PWSCF v.6.7GPU starts on 23Sep2021 at 18:53:17

     R & G space division:  proc/nbgrp/npool/nimage =       8
     Reading input from /storage/home/hcoda1/3/ntian30/research/carbon/CxH_vib/H2O_calc/ads_slab/CH3ON2HO_a/out_0017/pw.inp
Warning: card &CELL ignored
Warning: card   CELL_DYNAMICS='IPI', ignored
Warning: card / ignored

     Current dimensions of program PWSCF are:
     Max number of different atomic species (ntypx) = 10
     Max number of k-points (npk) =  40000
     Max angular momentum in pseudopotentials (lmaxx) =  3
     Presently no symmetry can be used with electric field

     Message from routine cell_base_init:
     DEPRECATED: use true lattice parameter, not A to a.u. conversion factor

     IMPORTANT: XC functional enforced from input :
     Exchange-correlation= BEEF-VDW
                           (   1   4  43  14   2   0   0)
     Any further DFT definition will be discarded
     Please, verify this is what you really want

  @ DRIVER MODE: Connecting to
 qe_1139763_2947306.sched-torque.pace.gatech.edudwuv182t_scratch
  using UNIX socket
  @ DRIVER MODE: Message from server: STATUS
  @ DRIVER MODE: Message from server: INIT
  @ DRIVER MODE: Receiving replica           0          -1
  @ DRIVER MODE: Receiving encoded integer          25
  @ DRIVER MODE:  SCF:  T  FORCE:  T  STRESS:  F  VC:  F  ENSEMBLE:  F
  @ DRIVER MODE:  SCF:  T  FORCE:  T  STRESS:  F  VC:  F  ENSEMBLE:  F

     Using Slab Decomposition

     bravais-lattice index     =            0
     lattice parameter (alat)  =       1.8897  a.u.
     unit-cell volume          =    6658.9804 (a.u.)^3
     number of atoms/cell      =           56
     number of atomic types    =            5
     number of electrons       =       408.00
     number of Kohn-Sham states=          214
     kinetic-energy cutoff     =      29.3995  Ry
     charge density cutoff     =     293.9946  Ry
     scf convergence threshold =      7.3E-08
     mixing beta               =       0.0500
     number of iterations used =            8  plain     mixing
     Exchange-correlation= BEEF-VDW
                           (   1   4  43  14   2   0   0)

     celldm(1)=   1.889726  celldm(2)=   0.000000  celldm(3)=   0.000000
     celldm(4)=   0.000000  celldm(5)=   0.000000  celldm(6)=   0.000000

     crystal axes: (cart. coord. in units of alat)
               a(1) = (   6.579727   0.000000   0.000000 )
               a(2) = (  -0.000775   5.961596   0.000000 )
               a(3) = (   0.000000   0.000000  25.155947 )

     reciprocal axes: (cart. coord. in units 2 pi/alat)
               b(1) = (  0.151982  0.000020  0.000000 )
               b(2) = (  0.000000  0.167740  0.000000 )
               b(3) = (  0.000000  0.000000  0.039752 )

     PseudoPot. # 1 for Ti read from file:
     /storage/coda1/p-amedford6/0/shared/rich_project_chbe-medford/medford-share/data/pseudos_module/espresso/nninc/pbe/van/Ti.UPF
     MD5 check sum: 8e4df49b7f0d34bbd5052bf3f5ea0213
     Pseudo is Ultrasoft, Zval = 12.0
     Generated by new atomic code, or converted to UPF format
     Using radial grid of  851 points,  6 beta functions with:
                l(1) =   0
                l(2) =   0
                l(3) =   1
                l(4) =   1
                l(5) =   2
                l(6) =   2
     Q(r) pseudized with  8 coefficients,  rinner =    1.000   1.000   1.000
                                                       1.000   1.000

     PseudoPot. # 2 for O  read from file:
     /storage/coda1/p-amedford6/0/shared/rich_project_chbe-medford/medford-share/data/pseudos_module/espresso/nninc/pbe/van/O.UPF
     MD5 check sum: 78c19812648e8988a0fe644b0f25305e
     Pseudo is Ultrasoft, Zval =  6.0
     Generated by new atomic code, or converted to UPF format
     Using radial grid of  737 points,  4 beta functions with:
                l(1) =   0
                l(2) =   0
                l(3) =   1
                l(4) =   1
     Q(r) pseudized with  8 coefficients,  rinner =    0.800   0.800   0.800

     PseudoPot. # 3 for C  read from file:
     /storage/coda1/p-amedford6/0/shared/rich_project_chbe-medford/medford-share/data/pseudos_module/espresso/nninc/pbe/van/C.UPF
     MD5 check sum: 1a69bf6b8db32088f5b2163dbdb77a27
     Pseudo is Ultrasoft, Zval =  4.0
     Generated by new atomic code, or converted to UPF format
     Using radial grid of  721 points,  4 beta functions with:
                l(1) =   0
                l(2) =   0
                l(3) =   1
                l(4) =   1
     Q(r) pseudized with  8 coefficients,  rinner =    0.800   0.800   0.800

     PseudoPot. # 4 for H  read from file:
     /storage/coda1/p-amedford6/0/shared/rich_project_chbe-medford/medford-share/data/pseudos_module/espresso/nninc/pbe/van/H.UPF
     MD5 check sum: b5ee9d7bfd3a09ee7748110bda690ff7
     Pseudo is Ultrasoft, Zval =  1.0
     Generated by new atomic code, or converted to UPF format
     Using radial grid of  615 points,  1 beta functions with:
                l(1) =   0
     Q(r) pseudized with  8 coefficients,  rinner =    0.800

     PseudoPot. # 5 for N  read from file:
     /storage/coda1/p-amedford6/0/shared/rich_project_chbe-medford/medford-share/data/pseudos_module/espresso/nninc/pbe/van/N.UPF
     MD5 check sum: 90d10febe142ad51ac9d5be1deb811c4
     Pseudo is Ultrasoft, Zval =  5.0
     Generated by new atomic code, or converted to UPF format
     Using radial grid of  729 points,  4 beta functions with:
                l(1) =   0
                l(2) =   0
                l(3) =   1
                l(4) =   1
     Q(r) pseudized with  8 coefficients,  rinner =    0.800   0.800   0.800

     atomic species   valence    mass     pseudopotential
        Ti1           12.00    47.86700     Ti( 1.00)
        O1             6.00    15.99900     O ( 1.00)
        C1             4.00    12.01100     C ( 1.00)
        H1             1.00     1.00800     H ( 1.00)
        N1             5.00    14.00700     N ( 1.00)

     No symmetry found

   Cartesian axes

     site n.     atom                  positions (alat units)
         1           Ti1 tau(   1) = (   0.0004258   2.9801865   6.0000000  )
         2           Ti1 tau(   2) = (   3.2906075   1.4906267   6.0002472  )
         3           O1  tau(   3) = (   0.0006271   0.0005054   7.9858123  )
         4           O1  tau(   4) = (   3.2906025   0.0005020   7.3038282  )
         5           O1  tau(   5) = (   4.5942328   1.4918067   9.2879030  )
         6           O1  tau(   6) = (   1.9868534   1.4903216   9.2879459  )
         7           Ti1 tau(   7) = (   3.3138730   3.1023225   9.2183157  )
         8           Ti1 tau(   8) = (   0.0392070   1.5780841   9.3433077  )
         9           O1  tau(   9) = (   3.2868017   0.0212601  11.3135411  )
        10           O1  tau(  10) = (   0.0022550   0.0140515  10.5858881  )
        11           O1  tau(  11) = (   1.2767464   1.5002397  12.6205121  )
        12           O1  tau(  12) = (   5.2993684   1.4943797  12.6172415  )
        13           Ti1 tau(  13) = (   0.0200588   3.0780815  12.7918821  )
        14           Ti1 tau(  14) = (   3.2574684   1.5637424  12.4212484  )
        15           O1  tau(  15) = (   6.5768379   0.0158506  14.6682411  )
        16           O1  tau(  16) = (   3.2886937   5.9311801  13.9109749  )
        17           O1  tau(  17) = (   4.5620935   1.5260772  16.0398494  )
        18           O1  tau(  18) = (   2.0292830   1.5431627  16.0187044  )
        19           Ti1 tau(  19) = (   3.3027642   2.9567202  15.6520962  )
        20           Ti1 tau(  20) = (   0.0552782   1.4362356  15.9688716  )
        21           O1  tau(  21) = (   3.2904802   0.0005063   4.7018136  )
        22           O1  tau(  22) = (   0.0488089   0.0211857  17.1900833  )
        23           O1  tau(  23) = (   1.3043587   1.4918075   6.0039043  )
        24           O1  tau(  24) = (   5.2767064   1.4903225   6.0039473  )
        25           Ti1 tau(  25) = (   0.0000382   5.9609847   6.0000000  )
        26           Ti1 tau(  26) = (   3.2902200   4.4714249   6.0002472  )
        27           O1  tau(  27) = (   0.0002396   2.9813036   7.9858123  )
        28           O1  tau(  28) = (   3.2902150   2.9813002   7.3038282  )
        29           O1  tau(  29) = (   4.5938453   4.4726049   9.2879030  )
        30           O1  tau(  30) = (   1.9864658   4.4711199   9.2879459  )
        31           Ti1 tau(  31) = (   3.3219941   0.1169887   9.1790125  )
        32           Ti1 tau(  32) = (   0.0373256   4.5280481   9.3594506  )
        33           O1  tau(  33) = (   3.2887547   2.9594671  11.2851190  )
        34           O1  tau(  34) = (   0.0046902   2.9985155  10.5475055  )
        35           O1  tau(  35) = (   1.2817606   4.4707209  12.6310527  )
        36           O1  tau(  36) = (   5.3098963   4.4869072  12.6241852  )
        37           Ti1 tau(  37) = (   6.5328698   0.0937101  12.6083326  )
        38           Ti1 tau(  38) = (   3.2790761   4.6595539  12.6693962  )
        39           O1  tau(  39) = (   0.0062896   2.9920245  14.6683812  )
        40           O1  tau(  40) = (   3.3079832   2.9813091  13.8732900  )
        41           O1  tau(  41) = (   4.5514670   4.4448635  16.0695425  )
        42           O1  tau(  42) = (   2.0242163   4.4286948  16.0089506  )
        43           Ti1 tau(  43) = (   3.3772342   5.9382356  16.2476532  )
        44           Ti1 tau(  44) = (   0.0845355   4.5653432  16.0322982  )
        45           O1  tau(  45) = (   3.2900926   2.9813045   4.7018136  )
        46           O1  tau(  46) = (   1.3039711   4.4726057   6.0039043  )
        47           O1  tau(  47) = (   5.2763189   4.4711207   6.0039473  )
        48           C1  tau(  48) = (   6.0101766   2.9784267  18.6088694  )
        49           O1  tau(  49) = (   6.5649008   2.9952511  17.2928482  )
        50           H1  tau(  50) = (   4.9185495   2.9407445  18.5575634  )
        51           H1  tau(  51) = (   6.3703738   2.0936667  19.1370987  )
        52           H1  tau(  52) = (   6.3118891   3.8824302  19.1399426  )
        53           N1  tau(  53) = (   6.0262039   3.1690275  22.5535725  )
        54           N1  tau(  54) = (   5.1417247   3.1052473  21.8962875  )
        55           O1  tau(  55) = (   3.2068502   5.9581871  18.0710493  )
        56           H1  tau(  56) = (   2.3500504   0.2277792  18.4614507  )

     number of k points=    10  Fermi-Dirac smearing, width (Ry)=  0.0073
                       cart. coord. in units 2pi/alat
        k(    1) = (   0.0000000   0.0000000   0.0000000), wk =   0.1250000
        k(    2) = (   0.0000000   0.0419351   0.0000000), wk =   0.2500000
        k(    3) = (   0.0000000  -0.0838702   0.0000000), wk =   0.1250000
        k(    4) = (   0.0379955   0.0000049   0.0000000), wk =   0.2500000
        k(    5) = (   0.0379955   0.0419400   0.0000000), wk =   0.2500000
        k(    6) = (   0.0379955  -0.0838652   0.0000000), wk =   0.2500000
        k(    7) = (   0.0379955  -0.0419301   0.0000000), wk =   0.2500000
        k(    8) = (  -0.0759910  -0.0000099   0.0000000), wk =   0.1250000
        k(    9) = (  -0.0759910   0.0419252   0.0000000), wk =   0.2500000
        k(   10) = (  -0.0759910  -0.0838800   0.0000000), wk =   0.1250000

     Initial potential from superposition of free atoms

     starting charge  391.99915, renormalised to  408.00000

     negative rho (up, down):  9.976E-03 0.000E+00

     %%%%%%%%%%%%%%%%%%%%%%%%%%%%%%%%%%%%%%%%%%%%%%%%%%%%%%%%%%%%%%%%%%%%%%%%
     %                                                                      %
     % You are using vdW-DF, which was implemented by the Thonhauser group. %
     % Please cite the following two papers that made this development      %
     % possible and the two reviews that describe the various versions:     %
     %                                                                      %
     %   T. Thonhauser et al., PRL 115, 136402 (2015).                      %
     %   T. Thonhauser et al., PRB 76, 125112 (2007).                       %
     %   K. Berland et al., Rep. Prog. Phys. 78, 066501 (2015).             %
     %   D.C. Langreth et al., J. Phys.: Condens. Matter 21, 084203 (2009). %
     %                                                                      %
     %                                                                      %
     % If you are calculating the stress with vdW-DF, please also cite:     %
     %                                                                      %
     %   R. Sabatini et al., J. Phys.: Condens. Matter 24, 424209 (2012).   %
     %                                                                      %
     %%%%%%%%%%%%%%%%%%%%%%%%%%%%%%%%%%%%%%%%%%%%%%%%%%%%%%%%%%%%%%%%%%%%%%%%

     Adding external electric field

     Computed dipole along edir(3) :
        Dipole              -16.8144 Ry au,        -42.7380 Debye
        Dipole field         -0.0317 Ry au,

        Potential amp.        2.9414 Ry
        Total length         46.3494 bohr

     Starting wfcs are  308 atomic wfcs
  @ DRIVER MODE: Message from server: STATUS
  @ DRIVER MODE: Message from server: POSDATA
  @ DRIVER MODE: Reading and sharing cell
  @ DRIVER MODE: Reading and sharing positions
  @ DRIVER MODE: Received positions

     Self-consistent Calculation

     iteration #  1     ecut=    29.40 Ry     beta= 0.05
     Davidson diagonalization with overlap
     c_bands:  4 eigenvalues not converged
     c_bands:  1 eigenvalues not converged
     c_bands:  5 eigenvalues not converged
     c_bands:  1 eigenvalues not converged
     c_bands:  2 eigenvalues not converged
     c_bands:  2 eigenvalues not converged
     c_bands:  1 eigenvalues not converged
     c_bands:  5 eigenvalues not converged
     ethr =  1.00E-05,  avg # of iterations = 27.4

[...]

     total energy              =   -2248.47239254 Ry
     estimated scf accuracy    <    8688.92350384 Ry

     iteration #  2     ecut=    29.40 Ry     beta= 0.05
     Davidson diagonalization with overlap
     ethr =  1.00E-02,  avg # of iterations = 30.7

[...]

     iteration # 54     ecut=    29.40 Ry     beta= 0.05
     Davidson diagonalization with overlap
     c_bands:  1 eigenvalues not converged
     c_bands:  2 eigenvalues not converged
     c_bands:  1 eigenvalues not converged
     c_bands:  1 eigenvalues not converged
     c_bands:  1 eigenvalues not converged
     c_bands:  1 eigenvalues not converged
     c_bands:  1 eigenvalues not converged
     ethr =  9.10E-07,  avg # of iterations = 19.1

[...]

     total energy              =   -3005.28916859 Ry
     estimated scf accuracy    <       0.00000039 Ry

     iteration # 79     ecut=    29.40 Ry     beta= 0.05
     Davidson diagonalization with overlap
     ethr =  5.16E-11,  avg # of iterations =  5.8

     negative rho (up, down):  1.141E-02 0.000E+00

     Adding external electric field

     Computed dipole along edir(3) :
        Dipole                0.5480 Ry au,          1.3929 Debye
        Dipole field          0.0010 Ry au,

        Potential amp.       -0.0959 Ry
        Total length         46.3494 bohr

     End of self-consistent calculation

          k = 0.0000 0.0000 0.0000 ( 18029 PWs)   bands (ev):

   -56.1297 -56.0822 -55.5718 -55.5522 -55.5387 -55.5145 -55.4805 -55.4572
   -55.4228 -55.3972 -55.3627 -55.3212 -55.3200 -55.1842 -54.7423 -54.7084
   -32.5426 -32.3939 -32.3435 -32.3092 -32.2145 -32.1690 -32.0749 -32.0189
   -32.0105 -31.9045 -31.8602 -31.8431 -31.8376 -31.8153 -31.8131 -31.7751
   -31.7726 -31.7592 -31.7384 -31.7315 -31.7276 -31.6860 -31.6766 -31.6619
   -31.6587 -31.6409 -31.6379 -31.6281 -31.6208 -31.6113 -31.6043 -31.5874
   -31.5722 -31.5671 -31.5610 -31.5258 -31.5172 -31.5139 -31.4835 -31.4389
   -31.4009 -31.3893 -31.1367 -31.0825 -31.0581 -30.9536 -30.8687 -30.7578
   -20.8573 -17.3367 -16.3424 -16.2865 -16.1453 -15.9087 -15.7642 -15.6868
   -15.4572 -15.4468 -15.3320 -15.3250 -15.2901 -15.1590 -15.1415 -15.1341
   -15.0829 -15.0683 -15.0452 -15.0432 -15.0395 -15.0310 -14.9735 -14.9543
   -14.9148 -14.8558 -14.7797 -14.7595 -14.7104 -14.6995 -14.6577 -14.4321
   -13.2438 -13.1352  -9.0833  -6.0176  -4.1038  -3.9925  -3.9810  -3.9278
    -3.8131  -3.7634  -3.5879  -3.4895  -3.4715  -3.3933  -3.2911  -3.1862
    -2.9718  -2.8204  -2.7573  -2.7191  -2.7162  -2.6763  -2.6351  -2.5733
    -2.5187  -2.4765  -2.4429  -2.4087  -2.3486  -2.3367  -2.3204  -2.2898
    -2.2702  -2.2492  -2.2136  -2.1996  -2.0702  -2.0336  -2.0041  -1.9923
    -1.9392  -1.9205  -1.9017  -1.8917  -1.8471  -1.7508  -1.6526  -1.6388
    -1.5947  -1.4087  -1.3330  -1.2872  -1.2085  -1.1430  -1.0660  -1.0452
    -1.0354  -0.9806  -0.9426  -0.8414  -0.8072  -0.7681  -0.7005  -0.6954
    -0.6560  -0.5964  -0.5712  -0.5096  -0.4818  -0.4484  -0.3098  -0.2739
    -0.2564  -0.1942  -0.1936  -0.1018  -0.0422   0.0108   0.0297   0.0853
     0.1253   0.1476   0.1986   0.2292   0.2431   0.3265   0.3757   0.3826
     0.4170   0.4561   0.4748   0.5066   0.5951   0.6432   0.6695   0.6952
     0.8393   0.8533   0.9078   1.0142   1.0253   1.2056   1.2751   1.3108
     1.4973   1.5355   1.8267   1.8725   3.1706   3.3338   3.6131   3.7255
     3.7696   3.8095   3.8850   3.9121   4.0665   4.0930

[...]

          k = 0.0380-0.0419 0.0000 ( 17876 PWs)   bands (ev):

[...]

          k =-0.0760-0.0000 0.0000 ( 17886 PWs)   bands (ev):

[...]

          k =-0.0760-0.0839 0.0000 ( 17948 PWs)   bands (ev):

   -56.1227 -56.0890 -55.5698 -55.5473 -55.5376 -55.5085 -55.4850 -55.4630
   -55.4246 -55.3985 -55.3542 -55.3291 -55.3185 -55.1862 -54.7254 -54.7251
   -32.3894 -32.3738 -32.3475 -32.3451 -32.2747 -32.2461 -31.9634 -31.8836
   -31.8549 -31.8378 -31.8147 -31.8054 -31.7917 -31.7861 -31.7768 -31.7618
   -31.7566 -31.7467 -31.7464 -31.7385 -31.7292 -31.7205 -31.7076 -31.7052
   -31.7038 -31.6866 -31.6817 -31.6569 -31.6484 -31.6471 -31.6297 -31.6233
   -31.6010 -31.5938 -31.5781 -31.5663 -31.5634 -31.5363 -31.5213 -31.5032
   -31.4394 -31.3929 -31.0712 -31.0711 -30.9523 -30.9506 -30.9108 -30.9100
   -20.8571 -17.2992 -16.3164 -15.6932 -15.6033 -15.5941 -15.5867 -15.5538
   -15.5179 -15.4532 -15.4386 -15.3705 -15.2985 -15.2678 -15.2271 -15.2022
   -15.1861 -15.1493 -15.1448 -15.0828 -15.0391 -15.0302 -15.0156 -15.0019
   -14.9573 -14.9493 -14.9405 -14.9243 -14.9154 -14.8544 -14.7547 -14.5768
   -13.2395 -13.2384  -9.0834  -6.0192  -4.0442  -3.9970  -3.9746  -3.8504
    -3.7035  -3.4748  -2.9261  -2.8457  -2.7670  -2.7648  -2.7028  -2.6761
    -2.6282  -2.6051  -2.5689  -2.5535  -2.5314  -2.4659  -2.4412  -2.4268
    -2.4232  -2.4145  -2.3984  -2.3795  -2.3372  -2.3279  -2.3154  -2.3057
    -2.2866  -2.2823  -2.2696  -2.2491  -2.2081  -2.1460  -2.0890  -1.9482
    -1.9400  -1.9139  -1.8948  -1.8706  -1.8456  -1.7946  -1.7130  -1.6929
    -1.6743  -1.5987  -1.5398  -1.3351  -1.3141  -1.2961  -1.2263  -1.1579
    -1.0914  -1.0738  -1.0391  -1.0047  -0.9816  -0.9415  -0.8850  -0.8508
    -0.8076  -0.7948  -0.7566  -0.7192  -0.6726  -0.6089  -0.6007  -0.5678
    -0.5179  -0.4938  -0.4040  -0.3958  -0.3717  -0.3542  -0.3206  -0.2292
    -0.1766  -0.1309  -0.0420  -0.0025   0.0378   0.1707   0.2370   0.2729
     0.3456   0.3875   0.4936   0.5156   0.5948   0.6164   0.6459   0.6710
     0.7371   0.8072   0.8588   0.9080   0.9485   0.9632   1.0143   1.0648
     1.6686   1.6711   1.6786   1.6850   3.7135   3.7397   3.7475   3.7808
     3.9852   4.0151   4.0880   4.1049   4.1262   4.1853

     the Fermi energy is     2.5788 ev

!    total energy              =   -3005.28917887 Ry
     estimated scf accuracy    <       0.00000006 Ry
     smearing contrib. (-TS)   =      -0.00015445 Ry
     internal energy E=F+TS    =   -3005.28902443 Ry

     The total energy is F=E-TS. E is the sum of the following terms:
     one-electron contribution =  -22582.34785302 Ry
     hartree contribution      =   11387.47272143 Ry
     xc contribution           =    -500.24119940 Ry
     ewald contribution        =    8689.82673981 Ry
     electric field correction =       0.00056675 Ry

     convergence has been achieved in  79 iterations

     Forces acting on atoms (cartesian axes, Ry/au):

     atom    1 type  1   force =     0.00012447    0.00010529    0.13281925
     atom    2 type  1   force =    -0.00011163    0.00820678   -0.15823853
     atom    3 type  2   force =     0.00029915   -0.00361927   -0.05307702
     atom    4 type  2   force =     0.00059154    0.00104887    0.04010166
     atom    5 type  2   force =    -0.00786668   -0.00195310   -0.00033866
     atom    6 type  2   force =     0.00846547   -0.00490539   -0.00004483
     atom    7 type  1   force =    -0.00017390   -0.00031880   -0.00009001
     atom    8 type  1   force =    -0.00000608   -0.00026629    0.00019399
     atom    9 type  2   force =     0.00013309    0.00009965    0.00001166
     atom   10 type  2   force =    -0.00003226    0.00020225    0.00007643
     atom   11 type  2   force =    -0.00004279    0.00012785   -0.00000828
     atom   12 type  2   force =     0.00036723   -0.00011204   -0.00005320
     atom   13 type  1   force =    -0.00017839    0.00002571    0.00016972
     atom   14 type  1   force =     0.00011819    0.00056714    0.00008553
     atom   15 type  2   force =    -0.00009827    0.00012481   -0.00004007
     atom   16 type  2   force =     0.00002692    0.00005463   -0.00042324
     atom   17 type  2   force =     0.00014735   -0.00044556    0.00024043
     atom   18 type  2   force =    -0.00004598   -0.00057600    0.00011055
     atom   19 type  1   force =    -0.00045314    0.00032193   -0.00011729
     atom   20 type  1   force =     0.00045454    0.00013217   -0.00003349
     atom   21 type  2   force =    -0.00006538    0.00009435    0.09916963
     atom   22 type  2   force =    -0.00024221    0.00014338    0.00006998
     atom   23 type  2   force =    -0.08059374    0.00058320   -0.03415548
     atom   24 type  2   force =     0.08036709    0.00110447   -0.03419577
     atom   25 type  1   force =    -0.00021698   -0.00017715    0.14172439
     atom   26 type  1   force =    -0.00019312   -0.00686193   -0.15774947
     atom   27 type  2   force =     0.00043866    0.00018382   -0.05211923
     atom   28 type  2   force =     0.00043905    0.00035912    0.04188416
     atom   29 type  2   force =    -0.00940573    0.00597935    0.00165160
     atom   30 type  2   force =     0.00931554    0.00235227    0.00176013
     atom   31 type  1   force =    -0.00003049    0.00010760    0.00010183
     atom   32 type  1   force =     0.00001858   -0.00013403   -0.00012727
     atom   33 type  2   force =    -0.00006487   -0.00032364    0.00026623
     atom   34 type  2   force =    -0.00009800   -0.00005642    0.00001430
     atom   35 type  2   force =     0.00062002    0.00026533   -0.00007061
     atom   36 type  2   force =    -0.00018917    0.00015822    0.00005273
     atom   37 type  1   force =    -0.00038870    0.00046957   -0.00061630
     atom   38 type  1   force =     0.00024326   -0.00032835   -0.00011622
     atom   39 type  2   force =    -0.00004143   -0.00000281    0.00029195
     atom   40 type  2   force =     0.00013119   -0.00008962   -0.00032379
     atom   41 type  2   force =     0.00074699    0.00013620    0.00020437
     atom   42 type  2   force =    -0.00034270    0.00038204    0.00000093
     atom   43 type  1   force =    -0.00061962   -0.00034508   -0.00000924
     atom   44 type  1   force =     0.00004191   -0.00048625   -0.00037163
     atom   45 type  2   force =    -0.00007777    0.00018415    0.09874094
     atom   46 type  2   force =    -0.08055585   -0.00156701   -0.03411079
     atom   47 type  2   force =     0.08036001   -0.00103424   -0.03419377
     atom   48 type  3   force =    -0.00075885   -0.00013111   -0.00135177
     atom   49 type  2   force =     0.00124497   -0.00025841   -0.00001265
     atom   50 type  4   force =     0.00020837    0.00018816    0.00189452
     atom   51 type  4   force =    -0.00065879   -0.00013964    0.00013073
     atom   52 type  4   force =    -0.00033753    0.00035514   -0.00027644
     atom   53 type  5   force =     0.00097593    0.00010936    0.00072963
     atom   54 type  5   force =    -0.00129929   -0.00000126   -0.00082680
     atom   55 type  2   force =    -0.00109830    0.00082556    0.00030394
     atom   56 type  4   force =     0.00040812   -0.00086494    0.00029063

     Total force =     0.383721     Total SCF correction =     0.000697
  @ DRIVER MODE: Message from server: STATUS
  @ DRIVER MODE: Message from server: GETFORCE
  @ DRIVER MODE: Returning v,forces,stress,ensemble

     Writing output data file ./calc.save/
  @ DRIVER MODE: Message from server: EXIT
  @ DRIVE MODE: Exiting

     General routines

     Parallel routines

   This run was terminated on:  19:21: 3  23Sep2021

   JOB DONE.