     Program PWSCF v.6.7GPU starts on 23Sep2021 at 15:30:22

     R & G space division:  proc/nbgrp/npool/nimage =       8
     Reading input from /storage/home/hcoda1/3/ntian30/research/carbon/CxH_vib/H2O_calc/ads_slab/CH3N2HHO_a/out_0043/pw.inp
Warning: card &CELL ignored
Warning: card   CELL_DYNAMICS='IPI', ignored
Warning: card / ignored

     Current dimensions of program PWSCF are:
     Max number of different atomic species (ntypx) = 10
     Max number of k-points (npk) =  40000
     Max angular momentum in pseudopotentials (lmaxx) =  3
     Presently no symmetry can be used with electric field

     Message from routine cell_base_init:
     DEPRECATED: use true lattice parameter, not A to a.u. conversion factor

     IMPORTANT: XC functional enforced from input :
     Exchange-correlation= BEEF-VDW
                           (   1   4  43  14   2   0   0)
     Any further DFT definition will be discarded
     Please, verify this is what you really want

  @ DRIVER MODE: Connecting to
 qe_1139763_2941009.sched-torque.pace.gatech.edup6h2oqsg_scratch
  using UNIX socket
  @ DRIVER MODE: Message from server: STATUS
  @ DRIVER MODE: Message from server: INIT
  @ DRIVER MODE: Receiving replica           0          -1
  @ DRIVER MODE: Receiving encoded integer          25
  @ DRIVER MODE:  SCF:  T  FORCE:  T  STRESS:  F  VC:  F  ENSEMBLE:  F
  @ DRIVER MODE:  SCF:  T  FORCE:  T  STRESS:  F  VC:  F  ENSEMBLE:  F

     Using Slab Decomposition

     bravais-lattice index     =            0
     lattice parameter (alat)  =       1.8897  a.u.
     unit-cell volume          =    6658.9804 (a.u.)^3
     number of atoms/cell      =           56
     number of atomic types    =            5
     number of electrons       =       403.00
     number of Kohn-Sham states=          211
     kinetic-energy cutoff     =      29.3995  Ry
     charge density cutoff     =     293.9946  Ry
     scf convergence threshold =      7.3E-08
     mixing beta               =       0.0500
     number of iterations used =            8  plain     mixing
     Exchange-correlation= BEEF-VDW
                           (   1   4  43  14   2   0   0)

     celldm(1)=   1.889726  celldm(2)=   0.000000  celldm(3)=   0.000000
     celldm(4)=   0.000000  celldm(5)=   0.000000  celldm(6)=   0.000000

     crystal axes: (cart. coord. in units of alat)
               a(1) = (   6.579727   0.000000   0.000000 )
               a(2) = (  -0.000775   5.961596   0.000000 )
               a(3) = (   0.000000   0.000000  25.155947 )

     reciprocal axes: (cart. coord. in units 2 pi/alat)
               b(1) = (  0.151982  0.000020  0.000000 )
               b(2) = (  0.000000  0.167740  0.000000 )
               b(3) = (  0.000000  0.000000  0.039752 )

     PseudoPot. # 1 for Ti read from file:
     /storage/coda1/p-amedford6/0/shared/rich_project_chbe-medford/medford-share/data/pseudos_module/espresso/nninc/pbe/van/Ti.UPF
     MD5 check sum: 8e4df49b7f0d34bbd5052bf3f5ea0213
     Pseudo is Ultrasoft, Zval = 12.0
     Generated by new atomic code, or converted to UPF format
     Using radial grid of  851 points,  6 beta functions with:
                l(1) =   0
                l(2) =   0
                l(3) =   1
                l(4) =   1
                l(5) =   2
                l(6) =   2
     Q(r) pseudized with  8 coefficients,  rinner =    1.000   1.000   1.000
                                                       1.000   1.000

     PseudoPot. # 2 for O  read from file:
     /storage/coda1/p-amedford6/0/shared/rich_project_chbe-medford/medford-share/data/pseudos_module/espresso/nninc/pbe/van/O.UPF
     MD5 check sum: 78c19812648e8988a0fe644b0f25305e
     Pseudo is Ultrasoft, Zval =  6.0
     Generated by new atomic code, or converted to UPF format
     Using radial grid of  737 points,  4 beta functions with:
                l(1) =   0
                l(2) =   0
                l(3) =   1
                l(4) =   1
     Q(r) pseudized with  8 coefficients,  rinner =    0.800   0.800   0.800

     PseudoPot. # 3 for N  read from file:
     /storage/coda1/p-amedford6/0/shared/rich_project_chbe-medford/medford-share/data/pseudos_module/espresso/nninc/pbe/van/N.UPF
     MD5 check sum: 90d10febe142ad51ac9d5be1deb811c4
     Pseudo is Ultrasoft, Zval =  5.0
     Generated by new atomic code, or converted to UPF format
     Using radial grid of  729 points,  4 beta functions with:
                l(1) =   0
                l(2) =   0
                l(3) =   1
                l(4) =   1
     Q(r) pseudized with  8 coefficients,  rinner =    0.800   0.800   0.800

     PseudoPot. # 4 for C  read from file:
     /storage/coda1/p-amedford6/0/shared/rich_project_chbe-medford/medford-share/data/pseudos_module/espresso/nninc/pbe/van/C.UPF
     MD5 check sum: 1a69bf6b8db32088f5b2163dbdb77a27
     Pseudo is Ultrasoft, Zval =  4.0
     Generated by new atomic code, or converted to UPF format
     Using radial grid of  721 points,  4 beta functions with:
                l(1) =   0
                l(2) =   0
                l(3) =   1
                l(4) =   1
     Q(r) pseudized with  8 coefficients,  rinner =    0.800   0.800   0.800

     PseudoPot. # 5 for H  read from file:
     /storage/coda1/p-amedford6/0/shared/rich_project_chbe-medford/medford-share/data/pseudos_module/espresso/nninc/pbe/van/H.UPF
     MD5 check sum: b5ee9d7bfd3a09ee7748110bda690ff7
     Pseudo is Ultrasoft, Zval =  1.0
     Generated by new atomic code, or converted to UPF format
     Using radial grid of  615 points,  1 beta functions with:
                l(1) =   0
     Q(r) pseudized with  8 coefficients,  rinner =    0.800

     atomic species   valence    mass     pseudopotential
        Ti1           12.00    47.86700     Ti( 1.00)
        O1             6.00    15.99900     O ( 1.00)
        N1             5.00    14.00700     N ( 1.00)
        C1             4.00    12.01100     C ( 1.00)
        H1             1.00     1.00800     H ( 1.00)

     No symmetry found

   Cartesian axes

     site n.     atom                  positions (alat units)
         1           Ti1 tau(   1) = (   0.0004258   2.9801865   6.0000000  )
         2           Ti1 tau(   2) = (   3.2906075   1.4906267   6.0002472  )
         3           O1  tau(   3) = (   0.0006271   0.0005054   7.9858123  )
         4           O1  tau(   4) = (   3.2906025   0.0005020   7.3038282  )
         5           O1  tau(   5) = (   4.5942328   1.4918067   9.2879030  )
         6           O1  tau(   6) = (   1.9868534   1.4903216   9.2879459  )
         7           Ti1 tau(   7) = (   3.2907910   2.8959150   9.1758416  )
         8           Ti1 tau(   8) = (   0.0015273   1.4827037   9.2680791  )
         9           O1  tau(   9) = (   3.2827749   5.9542966  11.3123607  )
        10           O1  tau(  10) = (   0.0116148   5.9584955  10.6183126  )
        11           O1  tau(  11) = (   1.2790800   1.4852124  12.6463597  )
        12           O1  tau(  12) = (   5.2943908   1.4901875  12.6352807  )
        13           Ti1 tau(  13) = (   6.5507123   3.1127926  12.6266869  )
        14           Ti1 tau(  14) = (   3.2873181   1.3120036  12.6863921  )
        15           O1  tau(  15) = (   6.5656690   0.0172326  14.6855350  )
        16           O1  tau(  16) = (   3.2842416   0.0515509  13.9244022  )
        17           O1  tau(  17) = (   4.5437539   1.5966601  16.0680646  )
        18           O1  tau(  18) = (   2.0303991   1.5956099  16.0781401  )
        19           Ti1 tau(  19) = (   3.2961159   3.0594788  15.6697774  )
        20           Ti1 tau(  20) = (   6.5318457   1.5630605  15.7780207  )
        21           O1  tau(  21) = (   3.2904802   0.0005063   4.7018136  )
        22           O1  tau(  22) = (   6.5726385   0.0820865  17.2550913  )
        23           O1  tau(  23) = (   1.3043587   1.4918075   6.0039043  )
        24           O1  tau(  24) = (   5.2767064   1.4903225   6.0039473  )
        25           Ti1 tau(  25) = (   0.0000382   5.9609847   6.0000000  )
        26           Ti1 tau(  26) = (   3.2902200   4.4714249   6.0002472  )
        27           O1  tau(  27) = (   0.0002396   2.9813036   7.9858123  )
        28           O1  tau(  28) = (   3.2902150   2.9813002   7.3038282  )
        29           O1  tau(  29) = (   4.5938453   4.4726049   9.2879030  )
        30           O1  tau(  30) = (   1.9864658   4.4711199   9.2879459  )
        31           Ti1 tau(  31) = (   3.2891106   5.8743827   9.1763621  )
        32           Ti1 tau(  32) = (   0.0006254   4.4649316   9.2693709  )
        33           O1  tau(  33) = (   3.2807365   3.0201584  11.2787527  )
        34           O1  tau(  34) = (   0.0092240   2.9805883  10.6323155  )
        35           O1  tau(  35) = (   1.2751182   4.4744369  12.6357194  )
        36           O1  tau(  36) = (   5.2842299   4.4734050  12.6250694  )
        37           Ti1 tau(  37) = (   0.0094520   0.1224552  12.5707632  )
        38           Ti1 tau(  38) = (   3.2670701   4.4034752  12.4162930  )
        39           O1  tau(  39) = (   6.5622168   3.0106679  14.6773207  )
        40           O1  tau(  40) = (   3.2891587   3.0115246  13.8909557  )
        41           O1  tau(  41) = (   4.5321968   4.4927823  16.1577793  )
        42           O1  tau(  42) = (   2.0250423   4.4919485  16.1304878  )
        43           Ti1 tau(  43) = (   3.2250977   0.0853664  16.3312049  )
        44           Ti1 tau(  44) = (   6.5532039   4.7053171  16.1332850  )
        45           O1  tau(  45) = (   3.2900926   2.9813045   4.7018136  )
        46           O1  tau(  46) = (   1.3039711   4.4726057   6.0039043  )
        47           O1  tau(  47) = (   5.2763189   4.4711207   6.0039473  )
        48           N1  tau(  48) = (   0.0650423   2.5931692  18.6004617  )
        49           N1  tau(  49) = (   0.0051179   2.9528117  17.3995676  )
        50           C1  tau(  50) = (   0.1360749   3.5155665  19.7334966  )
        51           H1  tau(  51) = (   6.1082608   4.3937080  19.5213757  )
        52           H1  tau(  52) = (   6.3628389   3.0028702  20.6266755  )
        53           H1  tau(  53) = (   1.1699357   3.8405576  19.8861820  )
        54           H1  tau(  54) = (   0.1060244   1.5775976  18.7788705  )
        55           O1  tau(  55) = (   3.2296048   0.1449850  18.2004881  )
        56           H1  tau(  56) = (   3.4111690   5.2654565  18.6466900  )

     number of k points=    10  Fermi-Dirac smearing, width (Ry)=  0.0073
                       cart. coord. in units 2pi/alat
        k(    1) = (   0.0000000   0.0000000   0.0000000), wk =   0.1250000
        k(    2) = (   0.0000000   0.0419351   0.0000000), wk =   0.2500000
        k(    3) = (   0.0000000  -0.0838702   0.0000000), wk =   0.1250000
        k(    4) = (   0.0379955   0.0000049   0.0000000), wk =   0.2500000
        k(    5) = (   0.0379955   0.0419400   0.0000000), wk =   0.2500000
        k(    6) = (   0.0379955  -0.0838652   0.0000000), wk =   0.2500000
        k(    7) = (   0.0379955  -0.0419301   0.0000000), wk =   0.2500000
        k(    8) = (  -0.0759910  -0.0000099   0.0000000), wk =   0.1250000
        k(    9) = (  -0.0759910   0.0419252   0.0000000), wk =   0.2500000
        k(   10) = (  -0.0759910  -0.0838800   0.0000000), wk =   0.1250000

     Initial potential from superposition of free atoms

     starting charge  386.99914, renormalised to  403.00000

     negative rho (up, down):  1.429E-02 0.000E+00

     %%%%%%%%%%%%%%%%%%%%%%%%%%%%%%%%%%%%%%%%%%%%%%%%%%%%%%%%%%%%%%%%%%%%%%%%
     %                                                                      %
     % You are using vdW-DF, which was implemented by the Thonhauser group. %
     % Please cite the following two papers that made this development      %
     % possible and the two reviews that describe the various versions:     %
     %                                                                      %
     %   T. Thonhauser et al., PRL 115, 136402 (2015).                      %
     %   T. Thonhauser et al., PRB 76, 125112 (2007).                       %
     %   K. Berland et al., Rep. Prog. Phys. 78, 066501 (2015).             %
     %   D.C. Langreth et al., J. Phys.: Condens. Matter 21, 084203 (2009). %
     %                                                                      %
     %                                                                      %
     % If you are calculating the stress with vdW-DF, please also cite:     %
     %                                                                      %
     %   R. Sabatini et al., J. Phys.: Condens. Matter 24, 424209 (2012).   %
     %                                                                      %
     %%%%%%%%%%%%%%%%%%%%%%%%%%%%%%%%%%%%%%%%%%%%%%%%%%%%%%%%%%%%%%%%%%%%%%%%

     Adding external electric field

     Computed dipole along edir(3) :
        Dipole              -12.7219 Ry au,        -32.3358 Debye
        Dipole field         -0.0240 Ry au,

        Potential amp.        2.2255 Ry
        Total length         46.3494 bohr

     Starting wfcs are  305 atomic wfcs
  @ DRIVER MODE: Message from server: STATUS
  @ DRIVER MODE: Message from server: POSDATA
  @ DRIVER MODE: Reading and sharing cell
  @ DRIVER MODE: Reading and sharing positions
  @ DRIVER MODE: Received positions

     Self-consistent Calculation

     iteration #  1     ecut=    29.40 Ry     beta= 0.05
     Davidson diagonalization with overlap
     c_bands:  5 eigenvalues not converged
     c_bands:  4 eigenvalues not converged
     c_bands:  3 eigenvalues not converged
     c_bands:  4 eigenvalues not converged
     c_bands:  5 eigenvalues not converged
     c_bands:  4 eigenvalues not converged
     c_bands:  1 eigenvalues not converged
     c_bands:  4 eigenvalues not converged
     ethr =  1.00E-05,  avg # of iterations = 25.4

[...]

     total energy              =   -2361.22498386 Ry
     estimated scf accuracy    <    6936.04177574 Ry

     iteration #  2     ecut=    29.40 Ry     beta= 0.05
     Davidson diagonalization with overlap
     ethr =  1.00E-02,  avg # of iterations = 24.6

[...]

     iteration # 44     ecut=    29.40 Ry     beta= 0.05
     Davidson diagonalization with overlap
     c_bands:  1 eigenvalues not converged
     ethr =  4.63E-07,  avg # of iterations =  6.8

[...]

     total energy              =   -2973.99530122 Ry
     estimated scf accuracy    <       0.00000013 Ry

     iteration # 89     ecut=    29.40 Ry     beta= 0.05
     Davidson diagonalization with overlap
     ethr =  3.29E-11,  avg # of iterations =  6.0

     negative rho (up, down):  1.502E-02 0.000E+00

     Adding external electric field

     Computed dipole along edir(3) :
        Dipole                1.1930 Ry au,          3.0323 Debye
        Dipole field          0.0023 Ry au,

        Potential amp.       -0.2087 Ry
        Total length         46.3494 bohr

     End of self-consistent calculation

          k = 0.0000 0.0000 0.0000 ( 18029 PWs)   bands (ev):

   -55.7005 -55.6666 -55.3863 -55.3523 -55.2772 -55.1694 -55.1143 -55.0363
   -54.9904 -54.9585 -54.8297 -54.7363 -54.6950 -54.6247 -54.5277 -54.4937
   -32.1604 -31.9948 -31.9709 -31.8619 -31.8556 -31.7839 -31.7623 -31.6516
   -31.6064 -31.6045 -31.5934 -31.5396 -31.5370 -31.5180 -31.4969 -31.4924
   -31.4881 -31.3950 -31.3866 -31.3707 -31.3351 -31.3160 -31.3054 -31.2946
   -31.2747 -31.2713 -31.2373 -31.1996 -31.1762 -31.1746 -31.1653 -31.1470
   -31.0967 -31.0298 -30.9917 -30.9525 -30.9500 -30.9270 -30.9202 -30.9060
   -30.8959 -30.8574 -30.8386 -30.8348 -30.8341 -30.7453 -30.6601 -30.5482
   -19.0752 -16.2201 -16.0570 -15.7656 -15.5947 -15.3877 -15.3590 -15.2640
   -15.1611 -15.1442 -15.0405 -14.9755 -14.8906 -14.8216 -14.8022 -14.7535
   -14.7237 -14.6954 -14.6810 -14.6712 -14.6342 -14.6015 -14.5846 -14.5087
   -14.4638 -14.4455 -14.4181 -14.3534 -14.2569 -13.9916 -13.9281 -13.0251
   -12.9117 -12.5776  -9.3441  -6.2109  -4.7722  -4.7208  -3.7717  -3.5360
    -3.4426  -3.3306  -3.1220  -3.0726  -2.8943  -2.7737  -2.7533  -2.5329
    -2.5053  -2.3935  -2.3784  -2.3320  -2.3256  -2.2915  -2.2250  -2.1967
    -2.1249  -2.0646  -2.0375  -2.0038  -1.9509  -1.8957  -1.8907  -1.8768
    -1.8197  -1.7516  -1.7235  -1.7144  -1.6704  -1.6066  -1.5981  -1.5818
    -1.5626  -1.5412  -1.3982  -1.2920  -1.2307  -1.1926  -1.1430  -1.0861
    -1.0336  -1.0203  -0.9197  -0.8400  -0.7984  -0.6811  -0.6535  -0.6127
    -0.5282  -0.5041  -0.4611  -0.4426  -0.4009  -0.3938  -0.2889  -0.2715
    -0.2373  -0.1945  -0.0761  -0.0276  -0.0194   0.0619   0.1212   0.2014
     0.2428   0.2577   0.2831   0.3687   0.3965   0.4147   0.4221   0.4949
     0.5133   0.5623   0.6161   0.6980   0.7118   0.7507   0.7852   0.7982
     0.9275   0.9363   1.0264   1.0500   1.0611   1.1252   1.2193   1.2792
     1.3905   1.4048   1.4973   1.4979   1.5183   1.7169   1.8910   2.0500
     2.0903   3.5009   3.6201   3.6823   3.7199   3.9307   3.9423   4.2046
     4.2803   4.2835   4.3735

[...]

          k = 0.0380-0.0419 0.0000 ( 17876 PWs)   bands (ev):

[...]

          k =-0.0760-0.0000 0.0000 ( 17886 PWs)   bands (ev):

[...]

          k =-0.0760-0.0839 0.0000 ( 17948 PWs)   bands (ev):

   -55.6837 -55.6833 -55.3718 -55.3665 -55.2766 -55.1636 -55.1201 -55.0285
   -54.9980 -54.9589 -54.8277 -54.7340 -54.6969 -54.6269 -54.5112 -54.5101
   -31.9807 -31.9803 -31.9759 -31.9758 -31.8073 -31.8068 -31.6901 -31.6845
   -31.5700 -31.5659 -31.5645 -31.5583 -31.5534 -31.4930 -31.4825 -31.4676
   -31.4347 -31.3855 -31.3838 -31.3610 -31.3464 -31.3461 -31.3341 -31.3340
   -31.2574 -31.2441 -31.2370 -31.2331 -31.2053 -31.1942 -31.1651 -31.1560
   -31.0888 -31.0395 -31.0350 -30.9921 -30.9590 -30.9536 -30.9530 -30.9109
   -30.8733 -30.8473 -30.8465 -30.8378 -30.7416 -30.7403 -30.7032 -30.7024
   -19.0719 -16.2128 -15.4718 -15.4615 -15.3174 -15.3080 -15.2303 -15.1408
   -15.1226 -15.0938 -15.0452 -15.0229 -14.9416 -14.8851 -14.8659 -14.8402
   -14.8216 -14.8072 -14.7497 -14.7469 -14.7311 -14.7180 -14.6513 -14.6133
   -14.5827 -14.5764 -14.4681 -14.3889 -14.3042 -14.1557 -14.0647 -13.0147
   -13.0141 -12.5780  -9.3507  -6.2037  -4.7620  -4.7214  -3.7648  -3.4143
    -2.6504  -2.6072  -2.5161  -2.4379  -2.4322  -2.3840  -2.3834  -2.3018
    -2.2492  -2.1912  -2.1671  -2.1588  -2.1584  -2.1272  -2.1183  -2.0639
    -2.0589  -2.0413  -2.0385  -1.9820  -1.9571  -1.9428  -1.8911  -1.8356
    -1.7849  -1.7485  -1.7266  -1.6867  -1.6674  -1.6644  -1.5794  -1.5651
    -1.5377  -1.5101  -1.4653  -1.4351  -1.3800  -1.3578  -1.3015  -1.1744
    -1.1027  -1.0172  -0.9118  -0.8904  -0.8576  -0.8244  -0.8115  -0.7889
    -0.7566  -0.6409  -0.6304  -0.5807  -0.5489  -0.5208  -0.5038  -0.4760
    -0.4531  -0.3519  -0.3104  -0.2797  -0.2404  -0.2062  -0.1782  -0.1450
    -0.0942  -0.0541  -0.0438  -0.0131   0.0210   0.0354   0.1886   0.2678
     0.4009   0.4292   0.5192   0.5660   0.5981   0.6266   0.6563   0.7747
     0.8223   0.8447   0.8812   0.9029   1.0018   1.0979   1.1188   1.1866
     1.2213   1.3265   1.3575   1.4451   1.4963   1.8798   1.8876   1.9085
     1.9090   3.3784   4.0460   4.0488   4.0604   4.0737   4.2389   4.2417
     4.3426   4.3665   4.4841

     the Fermi energy is     3.4573 ev

!    total energy              =   -2973.99530551 Ry
     estimated scf accuracy    <       0.00000006 Ry
     smearing contrib. (-TS)   =      -0.01689282 Ry
     internal energy E=F+TS    =   -2973.97841270 Ry

     The total energy is F=E-TS. E is the sum of the following terms:
     one-electron contribution =  -23437.85932347 Ry
     hartree contribution      =   11816.38532848 Ry
     xc contribution           =    -493.95416159 Ry
     ewald contribution        =    9141.44705810 Ry
     electric field correction =       0.00268578 Ry

     convergence has been achieved in  89 iterations

     Forces acting on atoms (cartesian axes, Ry/au):

     atom    1 type  1   force =     0.00011902   -0.00024172    0.10266344
     atom    2 type  1   force =    -0.00012002    0.00008755   -0.16809776
     atom    3 type  2   force =    -0.00000995    0.00045740   -0.03241134
     atom    4 type  2   force =     0.00002656   -0.00097368    0.04010374
     atom    5 type  2   force =    -0.00542146   -0.00191666   -0.00433161
     atom    6 type  2   force =     0.00665530   -0.00136148   -0.00593085
     atom    7 type  1   force =    -0.00053842   -0.00531266    0.03004805
     atom    8 type  1   force =     0.00069433    0.00860928    0.04852229
     atom    9 type  2   force =     0.00012329   -0.00131933   -0.00107795
     atom   10 type  2   force =    -0.00253597    0.00301243   -0.03414797
     atom   11 type  2   force =    -0.00038643   -0.00008935   -0.00024068
     atom   12 type  2   force =     0.00048331   -0.00037095   -0.00012363
     atom   13 type  1   force =     0.00023605   -0.00161725    0.00018648
     atom   14 type  1   force =     0.00017623   -0.00080211    0.00070388
     atom   15 type  2   force =     0.00007953    0.00003894   -0.00029990
     atom   16 type  2   force =    -0.00013616    0.00003158    0.00170809
     atom   17 type  2   force =    -0.00097947   -0.00065174    0.00054684
     atom   18 type  2   force =     0.00069524   -0.00110718    0.00038843
     atom   19 type  1   force =     0.00039938   -0.00095518   -0.00072534
     atom   20 type  1   force =    -0.00073094   -0.00039037   -0.00020571
     atom   21 type  2   force =     0.00004952    0.00012415    0.10118651
     atom   22 type  2   force =    -0.00029355    0.00054915    0.00034516
     atom   23 type  2   force =    -0.07543593   -0.00012091   -0.02930424
     atom   24 type  2   force =     0.07534773    0.00030115   -0.02932125
     atom   25 type  1   force =     0.00013918   -0.00023024    0.10280116
     atom   26 type  1   force =    -0.00004266   -0.00130250   -0.16850091
     atom   27 type  2   force =     0.00011794    0.00017307   -0.03118344
     atom   28 type  2   force =    -0.00001010    0.00072149    0.03582235
     atom   29 type  2   force =    -0.00424839    0.00378157   -0.00626119
     atom   30 type  2   force =     0.00527093    0.00441934   -0.00778530
     atom   31 type  1   force =    -0.00053948    0.00494705    0.01593973
     atom   32 type  1   force =     0.00077076   -0.01041273    0.04920798
     atom   33 type  2   force =     0.00002641   -0.00090940   -0.00138361
     atom   34 type  2   force =    -0.00240629    0.00222307   -0.04431559
     atom   35 type  2   force =     0.00056133    0.00020202   -0.00015281
     atom   36 type  2   force =    -0.00019546    0.00023561   -0.00007714
     atom   37 type  1   force =     0.00027474    0.00038175   -0.00046147
     atom   38 type  1   force =     0.00041581    0.00141956    0.00104851
     atom   39 type  2   force =     0.00033630    0.00046620    0.00008771
     atom   40 type  2   force =     0.00007081    0.00015282    0.00047231
     atom   41 type  2   force =    -0.00100207    0.00001916    0.00038075
     atom   42 type  2   force =     0.00034569   -0.00002354    0.00001298
     atom   43 type  1   force =    -0.00026264    0.00030061   -0.00161064
     atom   44 type  1   force =    -0.00041683   -0.00017479   -0.00091028
     atom   45 type  2   force =     0.00007109   -0.00002059    0.10098992
     atom   46 type  2   force =    -0.07549247   -0.00005143   -0.02932032
     atom   47 type  2   force =     0.07540403    0.00038296   -0.02931662
     atom   48 type  3   force =    -0.00069232   -0.00005405    0.00078355
     atom   49 type  3   force =     0.00034673   -0.00064049   -0.00126109
     atom   50 type  4   force =     0.00122803    0.00121005    0.00054889
     atom   51 type  5   force =     0.00015209   -0.00075976   -0.00134156
     atom   52 type  5   force =    -0.00020021   -0.00055137   -0.00047816
     atom   53 type  5   force =    -0.00014448   -0.00052889   -0.00101289
     atom   54 type  5   force =     0.00000153   -0.00064369   -0.00135696
     atom   55 type  2   force =     0.00106140   -0.00261829    0.00070536
     atom   56 type  5   force =     0.00056141    0.00190434   -0.00225594

     Total force =     0.372830     Total SCF correction =     0.000782
  @ DRIVER MODE: Message from server: STATUS
  @ DRIVER MODE: Message from server: GETFORCE
  @ DRIVER MODE: Returning v,forces,stress,ensemble

     Writing output data file ./calc.save/
  @ DRIVER MODE: Message from server: EXIT
  @ DRIVE MODE: Exiting

     General routines

     Parallel routines

   This run was terminated on:  15:59:12  23Sep2021

   JOB DONE.