     Program PWSCF v.6.7GPU starts on  9Sep2021 at  3:43:38

     R & G space division:  proc/nbgrp/npool/nimage =      10
     Reading input from /storage/home/hcoda1/3/ntian30/research/carbon/CxH_vib/CH3_calc/ads_slab/CH3NHNH2_a/out_0018/pw.inp
Warning: card &CELL ignored
Warning: card   CELL_DYNAMICS='IPI', ignored
Warning: card / ignored

     Current dimensions of program PWSCF are:
     Max number of different atomic species (ntypx) = 10
     Max number of k-points (npk) =  40000
     Max angular momentum in pseudopotentials (lmaxx) =  3
     Presently no symmetry can be used with electric field

     Message from routine cell_base_init:
     DEPRECATED: use true lattice parameter, not A to a.u. conversion factor

     IMPORTANT: XC functional enforced from input :
     Exchange-correlation= BEEF-VDW
                           (   1   4  43  14   2   0   0)
     Any further DFT definition will be discarded
     Please, verify this is what you really want

  @ DRIVER MODE: Connecting to
 qe_1139763_2767398.sched-torque.pace.gatech.eduqe_feacb_scratch
  using UNIX socket
  @ DRIVER MODE: Message from server: STATUS
  @ DRIVER MODE: Message from server: INIT
  @ DRIVER MODE: Receiving replica           0          -1
  @ DRIVER MODE: Receiving encoded integer          25
  @ DRIVER MODE:  SCF:  T  FORCE:  T  STRESS:  F  VC:  F  ENSEMBLE:  F
  @ DRIVER MODE:  SCF:  T  FORCE:  T  STRESS:  F  VC:  F  ENSEMBLE:  F

     Using Slab Decomposition

     bravais-lattice index     =            0
     lattice parameter (alat)  =       1.8897  a.u.
     unit-cell volume          =    6658.9804 (a.u.)^3
     number of atoms/cell      =           56
     number of atomic types    =            5
     number of electrons       =       398.00
     number of Kohn-Sham states=          209
     kinetic-energy cutoff     =      29.3995  Ry
     charge density cutoff     =     293.9946  Ry
     scf convergence threshold =      7.3E-08
     mixing beta               =       0.0500
     number of iterations used =            8  plain     mixing
     Exchange-correlation= BEEF-VDW
                           (   1   4  43  14   2   0   0)

     celldm(1)=   1.889726  celldm(2)=   0.000000  celldm(3)=   0.000000
     celldm(4)=   0.000000  celldm(5)=   0.000000  celldm(6)=   0.000000

     crystal axes: (cart. coord. in units of alat)
               a(1) = (   6.579727   0.000000   0.000000 )
               a(2) = (  -0.000775   5.961596   0.000000 )
               a(3) = (   0.000000   0.000000  25.155947 )

     reciprocal axes: (cart. coord. in units 2 pi/alat)
               b(1) = (  0.151982  0.000020  0.000000 )
               b(2) = (  0.000000  0.167740  0.000000 )
               b(3) = (  0.000000  0.000000  0.039752 )

     PseudoPot. # 1 for Ti read from file:
     /storage/coda1/p-amedford6/0/shared/rich_project_chbe-medford/medford-share/data/pseudos_module/espresso/nninc/pbe/van/Ti.UPF
     MD5 check sum: 8e4df49b7f0d34bbd5052bf3f5ea0213
     Pseudo is Ultrasoft, Zval = 12.0
     Generated by new atomic code, or converted to UPF format
     Using radial grid of  851 points,  6 beta functions with:
                l(1) =   0
                l(2) =   0
                l(3) =   1
                l(4) =   1
                l(5) =   2
                l(6) =   2
     Q(r) pseudized with  8 coefficients,  rinner =    1.000   1.000   1.000
                                                       1.000   1.000

     PseudoPot. # 2 for O  read from file:
     /storage/coda1/p-amedford6/0/shared/rich_project_chbe-medford/medford-share/data/pseudos_module/espresso/nninc/pbe/van/O.UPF
     MD5 check sum: 78c19812648e8988a0fe644b0f25305e
     Pseudo is Ultrasoft, Zval =  6.0
     Generated by new atomic code, or converted to UPF format
     Using radial grid of  737 points,  4 beta functions with:
                l(1) =   0
                l(2) =   0
                l(3) =   1
                l(4) =   1
     Q(r) pseudized with  8 coefficients,  rinner =    0.800   0.800   0.800

     PseudoPot. # 3 for N  read from file:
     /storage/coda1/p-amedford6/0/shared/rich_project_chbe-medford/medford-share/data/pseudos_module/espresso/nninc/pbe/van/N.UPF
     MD5 check sum: 90d10febe142ad51ac9d5be1deb811c4
     Pseudo is Ultrasoft, Zval =  5.0
     Generated by new atomic code, or converted to UPF format
     Using radial grid of  729 points,  4 beta functions with:
                l(1) =   0
                l(2) =   0
                l(3) =   1
                l(4) =   1
     Q(r) pseudized with  8 coefficients,  rinner =    0.800   0.800   0.800

     PseudoPot. # 4 for C  read from file:
     /storage/coda1/p-amedford6/0/shared/rich_project_chbe-medford/medford-share/data/pseudos_module/espresso/nninc/pbe/van/C.UPF
     MD5 check sum: 1a69bf6b8db32088f5b2163dbdb77a27
     Pseudo is Ultrasoft, Zval =  4.0
     Generated by new atomic code, or converted to UPF format
     Using radial grid of  721 points,  4 beta functions with:
                l(1) =   0
                l(2) =   0
                l(3) =   1
                l(4) =   1
     Q(r) pseudized with  8 coefficients,  rinner =    0.800   0.800   0.800

     PseudoPot. # 5 for H  read from file:
     /storage/coda1/p-amedford6/0/shared/rich_project_chbe-medford/medford-share/data/pseudos_module/espresso/nninc/pbe/van/H.UPF
     MD5 check sum: b5ee9d7bfd3a09ee7748110bda690ff7
     Pseudo is Ultrasoft, Zval =  1.0
     Generated by new atomic code, or converted to UPF format
     Using radial grid of  615 points,  1 beta functions with:
                l(1) =   0
     Q(r) pseudized with  8 coefficients,  rinner =    0.800

     atomic species   valence    mass     pseudopotential
        Ti1           12.00    47.86700     Ti( 1.00)
        O1             6.00    15.99900     O ( 1.00)
        N1             5.00    14.00700     N ( 1.00)
        C1             4.00    12.01100     C ( 1.00)
        H1             1.00     1.00800     H ( 1.00)

     No symmetry found

   Cartesian axes

     site n.     atom                  positions (alat units)
         1           Ti1 tau(   1) = (   0.0004258   2.9801865   6.0000000  )
         2           Ti1 tau(   2) = (   3.2906075   1.4906267   6.0002472  )
         3           O1  tau(   3) = (   0.0006271   0.0005054   7.9858123  )
         4           O1  tau(   4) = (   3.2906025   0.0005020   7.3038282  )
         5           O1  tau(   5) = (   4.5942328   1.4918067   9.2879030  )
         6           O1  tau(   6) = (   1.9868534   1.4903216   9.2879459  )
         7           Ti1 tau(   7) = (   3.2907910   2.8959150   9.1758416  )
         8           Ti1 tau(   8) = (   0.0015273   1.4827037   9.2680791  )
         9           O1  tau(   9) = (   3.2714441   0.0289406  11.3813764  )
        10           O1  tau(  10) = (   0.0116148   5.9584955  10.6183126  )
        11           O1  tau(  11) = (   1.2692032   1.5162281  12.7122965  )
        12           O1  tau(  12) = (   5.2779133   1.5159715  12.6811497  )
        13           Ti1 tau(  13) = (   6.5579218   3.0031650  12.5037829  )
        14           Ti1 tau(  14) = (   3.2791490   1.5128154  12.5375672  )
        15           O1  tau(  15) = (   6.5208524   5.8954130  14.6845636  )
        16           O1  tau(  16) = (   3.2849572   0.0099931  14.0031570  )
        17           O1  tau(  17) = (   4.4884262   1.5607690  16.1641467  )
        18           O1  tau(  18) = (   1.9729656   1.5430890  16.0903287  )
        19           Ti1 tau(  19) = (   3.2372663   3.0309179  15.7728032  )
        20           Ti1 tau(  20) = (   6.5553692   1.3539605  15.8053163  )
        21           O1  tau(  21) = (   3.2904802   0.0005063   4.7018136  )
        22           O1  tau(  22) = (   6.5123495   0.2165906  17.2215032  )
        23           O1  tau(  23) = (   1.3043587   1.4918075   6.0039043  )
        24           O1  tau(  24) = (   5.2767064   1.4903225   6.0039473  )
        25           Ti1 tau(  25) = (   0.0000382   5.9609847   6.0000000  )
        26           Ti1 tau(  26) = (   3.2902200   4.4714249   6.0002472  )
        27           O1  tau(  27) = (   0.0002396   2.9813036   7.9858123  )
        28           O1  tau(  28) = (   3.2902150   2.9813002   7.3038282  )
        29           O1  tau(  29) = (   4.5938453   4.4726049   9.2879030  )
        30           O1  tau(  30) = (   1.9864658   4.4711199   9.2879459  )
        31           Ti1 tau(  31) = (   3.2891106   5.8743827   9.1763621  )
        32           Ti1 tau(  32) = (   0.0006254   4.4649316   9.2693709  )
        33           O1  tau(  33) = (   3.2699379   2.9911670  11.3762017  )
        34           O1  tau(  34) = (   0.0092240   2.9805883  10.6323155  )
        35           O1  tau(  35) = (   1.2730946   4.4825978  12.6662957  )
        36           O1  tau(  36) = (   5.2742290   4.4829497  12.6320226  )
        37           Ti1 tau(  37) = (   6.5783117   0.0079037  12.5026730  )
        38           Ti1 tau(  38) = (   3.2784283   4.4905194  12.5286134  )
        39           O1  tau(  39) = (   6.5033290   3.0824797  14.9867588  )
        40           O1  tau(  40) = (   3.2824109   3.0350539  13.9807796  )
        41           O1  tau(  41) = (   4.4804250   4.5097483  16.2808085  )
        42           O1  tau(  42) = (   1.9642025   4.5165872  16.2225063  )
        43           Ti1 tau(  43) = (   3.2609991   0.0502580  15.7998297  )
        44           Ti1 tau(  44) = (   6.5501253   4.5826093  16.0954727  )
        45           O1  tau(  45) = (   3.2900926   2.9813045   4.7018136  )
        46           O1  tau(  46) = (   1.3039711   4.4726057   6.0039043  )
        47           O1  tau(  47) = (   5.2763189   4.4711207   6.0039473  )
        48           N1  tau(  48) = (   0.8845045   3.2634721  19.1145209  )
        49           N1  tau(  49) = (   6.3504243   3.3997271  18.1887592  )
        50           C1  tau(  50) = (   1.2927081   4.5631590  19.6529350  )
        51           H1  tau(  51) = (   0.4658632   5.1229972  20.1056819  )
        52           H1  tau(  52) = (   2.0600825   4.3818216  20.3958833  )
        53           H1  tau(  53) = (   1.7018904   5.1738364  18.8453250  )
        54           H1  tau(  54) = (   0.5628611   2.6866381  19.8888112  )
        55           H1  tau(  55) = (   5.6051421   3.9827062  18.5884547  )
        56           H1  tau(  56) = (   5.9567982   2.4624696  18.0937858  )

     number of k points=    10  Fermi-Dirac smearing, width (Ry)=  0.0073
                       cart. coord. in units 2pi/alat
        k(    1) = (   0.0000000   0.0000000   0.0000000), wk =   0.1250000
        k(    2) = (   0.0000000   0.0419351   0.0000000), wk =   0.2500000
        k(    3) = (   0.0000000  -0.0838702   0.0000000), wk =   0.1250000
        k(    4) = (   0.0379955   0.0000049   0.0000000), wk =   0.2500000
        k(    5) = (   0.0379955   0.0419400   0.0000000), wk =   0.2500000
        k(    6) = (   0.0379955  -0.0838652   0.0000000), wk =   0.2500000
        k(    7) = (   0.0379955  -0.0419301   0.0000000), wk =   0.2500000
        k(    8) = (  -0.0759910  -0.0000099   0.0000000), wk =   0.1250000
        k(    9) = (  -0.0759910   0.0419252   0.0000000), wk =   0.2500000
        k(   10) = (  -0.0759910  -0.0838800   0.0000000), wk =   0.1250000

     Initial potential from superposition of free atoms

     starting charge  381.99914, renormalised to  398.00000

     negative rho (up, down):  1.415E-02 0.000E+00

     %%%%%%%%%%%%%%%%%%%%%%%%%%%%%%%%%%%%%%%%%%%%%%%%%%%%%%%%%%%%%%%%%%%%%%%%
     %                                                                      %
     % You are using vdW-DF, which was implemented by the Thonhauser group. %
     % Please cite the following two papers that made this development      %
     % possible and the two reviews that describe the various versions:     %
     %                                                                      %
     %   T. Thonhauser et al., PRL 115, 136402 (2015).                      %
     %   T. Thonhauser et al., PRB 76, 125112 (2007).                       %
     %   K. Berland et al., Rep. Prog. Phys. 78, 066501 (2015).             %
     %   D.C. Langreth et al., J. Phys.: Condens. Matter 21, 084203 (2009). %
     %                                                                      %
     %                                                                      %
     % If you are calculating the stress with vdW-DF, please also cite:     %
     %                                                                      %
     %   R. Sabatini et al., J. Phys.: Condens. Matter 24, 424209 (2012).   %
     %                                                                      %
     %%%%%%%%%%%%%%%%%%%%%%%%%%%%%%%%%%%%%%%%%%%%%%%%%%%%%%%%%%%%%%%%%%%%%%%%

     Adding external electric field

     Computed dipole along edir(3) :
        Dipole              -11.7202 Ry au,        -29.7898 Debye
        Dipole field         -0.0221 Ry au,

        Potential amp.        2.0503 Ry
        Total length         46.3494 bohr

     Starting wfcs are  302 atomic wfcs
  @ DRIVER MODE: Message from server: STATUS
  @ DRIVER MODE: Message from server: POSDATA
  @ DRIVER MODE: Reading and sharing cell
  @ DRIVER MODE: Reading and sharing positions
  @ DRIVER MODE: Received positions

     Self-consistent Calculation

     iteration #  1     ecut=    29.40 Ry     beta= 0.05
     Davidson diagonalization with overlap
     c_bands:  3 eigenvalues not converged
     c_bands:  1 eigenvalues not converged
     c_bands:  1 eigenvalues not converged
     c_bands:  4 eigenvalues not converged
     c_bands:  1 eigenvalues not converged
     c_bands:  4 eigenvalues not converged
     c_bands:  5 eigenvalues not converged
     c_bands:  2 eigenvalues not converged
     ethr =  1.00E-05,  avg # of iterations = 21.9

[...]

     total energy              =   -2424.52607041 Ry
     estimated scf accuracy    <    5830.75778189 Ry

     iteration #  2     ecut=    29.40 Ry     beta= 0.05
     Davidson diagonalization with overlap
     ethr =  1.00E-02,  avg # of iterations = 22.1

[...]

     iteration # 78     ecut=    29.40 Ry     beta= 0.05
     Davidson diagonalization with overlap
     c_bands:  1 eigenvalues not converged
     ethr =  2.22E-11,  avg # of iterations = 13.7

[...]

     total energy              =   -2942.84373324 Ry
     estimated scf accuracy    <       0.00000009 Ry

     iteration # 79     ecut=    29.40 Ry     beta= 0.05
     Davidson diagonalization with overlap
     ethr =  2.21E-11,  avg # of iterations = 11.7

     negative rho (up, down):  1.513E-02 0.000E+00

     Adding external electric field

     Computed dipole along edir(3) :
        Dipole                1.4983 Ry au,          3.8082 Debye
        Dipole field          0.0028 Ry au,

        Potential amp.       -0.2621 Ry
        Total length         46.3494 bohr

     End of self-consistent calculation

          k = 0.0000 0.0000 0.0000 ( 18029 PWs)   bands (ev):

   -55.2004 -55.1633 -55.1525 -55.1238 -55.1184 -55.0817 -55.0786 -55.0437
   -55.0244 -55.0115 -54.9901 -54.9852 -54.9516 -54.8550 -54.1850 -54.1510
   -31.7667 -31.6506 -31.6454 -31.5667 -31.5137 -31.5127 -31.5099 -31.4913
   -31.4415 -31.4379 -31.4100 -31.4078 -31.3975 -31.3807 -31.3676 -31.3620
   -31.3549 -31.3451 -31.3378 -31.3209 -31.3052 -31.3024 -31.2706 -31.2668
   -31.2562 -31.2552 -31.2368 -31.2271 -31.2098 -31.2090 -31.2047 -31.1841
   -31.1839 -31.1806 -31.1737 -31.1712 -31.1379 -31.1282 -31.1136 -31.0967
   -31.0682 -31.0489 -30.5946 -30.5000 -30.4779 -30.4109 -30.3241 -30.2132
   -17.9487 -16.0339 -15.7716 -15.6262 -15.5141 -15.4028 -15.2833 -15.2524
   -15.1327 -15.0566 -14.9228 -14.8964 -14.8737 -14.8504 -14.8385 -14.8259
   -14.7502 -14.7437 -14.7276 -14.6994 -14.6975 -14.6523 -14.6425 -14.6032
   -14.5782 -14.5568 -14.4522 -14.3641 -14.2901 -14.0736 -13.4316 -12.6877
   -12.5701  -9.7125  -6.5915  -6.0821  -4.5883  -3.3724  -3.2829  -3.2243
    -3.1385  -3.1027  -3.0949  -2.9839  -2.9406  -2.7906  -2.6475  -2.6226
    -2.4917  -2.4167  -2.4002  -2.3758  -2.2462  -2.2111  -2.1597  -2.1208
    -2.0614  -2.0313  -2.0074  -1.9917  -1.9605  -1.9514  -1.9263  -1.8370
    -1.7779  -1.6852  -1.6679  -1.6000  -1.5925  -1.5593  -1.5383  -1.4931
    -1.4828  -1.4334  -1.4258  -1.4132  -1.3933  -1.2654  -1.2219  -1.1118
    -1.0507  -0.9631  -0.8424  -0.8023  -0.7882  -0.6974  -0.6885  -0.6567
    -0.5803  -0.5774  -0.5464  -0.4382  -0.3732  -0.3096  -0.2507  -0.2243
    -0.1912  -0.1137  -0.0230   0.0132   0.0299   0.0529   0.1533   0.1883
     0.2439   0.3108   0.3223   0.3355   0.4146   0.4563   0.5316   0.5680
     0.5857   0.6745   0.7007   0.7287   0.7293   0.7671   0.7813   0.8210
     0.8697   0.8965   0.9830   1.0453   1.1041   1.3487   1.4012   1.4073
     1.7334   1.7412   1.8376   2.0211   2.4142   2.4626   3.8960   3.9649
     4.0406   4.0456   4.0680   4.1318   4.3697   4.3928   4.4018   4.4040
     4.4306

[...]

          k = 0.0380-0.0419 0.0000 ( 17876 PWs)   bands (ev):

[...]

          k =-0.0760-0.0000 0.0000 ( 17886 PWs)   bands (ev):

[...]

          k =-0.0760-0.0839 0.0000 ( 17948 PWs)   bands (ev):

   -55.1866 -55.1768 -55.1356 -55.1351 -55.1225 -55.0774 -55.0642 -55.0581
   -55.0158 -55.0086 -55.0055 -54.9687 -54.9683 -54.8561 -54.1682 -54.1677
   -31.5749 -31.5740 -31.5671 -31.4823 -31.4607 -31.4604 -31.4574 -31.4268
   -31.4266 -31.4113 -31.4004 -31.3989 -31.3901 -31.3645 -31.3552 -31.3421
   -31.3411 -31.3373 -31.3341 -31.3285 -31.3266 -31.3206 -31.2816 -31.2783
   -31.2781 -31.2767 -31.2590 -31.2575 -31.2554 -31.2549 -31.2501 -31.2416
   -31.2387 -31.2217 -31.2184 -31.2025 -31.2017 -31.1989 -31.1494 -31.1491
   -31.1248 -31.0727 -30.4908 -30.4904 -30.4072 -30.4069 -30.3676 -30.3674
   -17.9454 -15.5590 -15.4290 -15.3999 -15.2434 -15.2073 -15.1739 -15.1606
   -15.0397 -15.0024 -14.9776 -14.9684 -14.9507 -14.9103 -14.9048 -14.8978
   -14.8273 -14.8081 -14.8038 -14.7815 -14.7233 -14.7144 -14.7105 -14.7029
   -14.6524 -14.6487 -14.5682 -14.5580 -14.5548 -14.3751 -13.4349 -12.6716
   -12.6716  -9.7284  -6.5761  -6.0825  -4.5673  -3.2614  -2.9241  -2.6914
    -2.6857  -2.6584  -2.4574  -2.3947  -2.3640  -2.3583  -2.2612  -2.2246
    -2.2001  -2.1965  -2.1313  -2.1166  -2.0858  -2.0558  -2.0395  -2.0256
    -2.0101  -1.9958  -1.9703  -1.9329  -1.9248  -1.9165  -1.8842  -1.8631
    -1.8401  -1.8178  -1.8042  -1.7858  -1.7599  -1.7374  -1.6007  -1.5689
    -1.4986  -1.4561  -1.4122  -1.4079  -1.3362  -1.2998  -1.2496  -1.2374
    -1.2204  -1.0807  -1.0220  -0.9714  -0.9514  -0.9404  -0.8114  -0.7973
    -0.7244  -0.7065  -0.6903  -0.6166  -0.5646  -0.5264  -0.5128  -0.4195
    -0.4042  -0.3376  -0.2356  -0.2128  -0.1989  -0.1584  -0.1553  -0.1081
    -0.1010  -0.0169   0.0273   0.0624   0.0732   0.1090   0.3017   0.3179
     0.3279   0.4808   0.4963   0.6384   0.6819   0.7484   0.8073   0.8463
     0.9078   0.9451   1.0549   1.0878   1.1029   1.1108   1.1726   1.1845
     1.2473   1.2580   2.1937   2.1944   2.2824   2.2827   4.0421   4.1494
     4.1570   4.1987   4.3186   4.3486   4.4111   4.4383   4.4800   4.4831
     4.5427

     the Fermi energy is     3.9594 ev

!    total energy              =   -2942.84374111 Ry
     estimated scf accuracy    <       0.00000002 Ry
     smearing contrib. (-TS)   =      -0.03707772 Ry
     internal energy E=F+TS    =   -2942.80666339 Ry

     The total energy is F=E-TS. E is the sum of the following terms:
     one-electron contribution =  -23365.03935873 Ry
     hartree contribution      =   11776.70968207 Ry
     xc contribution           =    -487.74021680 Ry
     ewald contribution        =    9133.25899375 Ry
     electric field correction =       0.00423631 Ry

     convergence has been achieved in  79 iterations

     Forces acting on atoms (cartesian axes, Ry/au):

     atom    1 type  1   force =     0.00017449   -0.00032816    0.09328238
     atom    2 type  1   force =    -0.00006133   -0.00042376   -0.17824318
     atom    3 type  2   force =     0.00002706   -0.00032479   -0.02004625
     atom    4 type  2   force =     0.00002111   -0.00183488    0.05924243
     atom    5 type  2   force =    -0.01046889   -0.00026563    0.00864394
     atom    6 type  2   force =     0.01148438    0.00040651    0.00645671
     atom    7 type  1   force =    -0.00099788    0.00213224   -0.01397043
     atom    8 type  1   force =     0.00081713   -0.00094669   -0.00572715
     atom    9 type  2   force =    -0.00010022    0.00012585   -0.00001389
     atom   10 type  2   force =    -0.00185272    0.00411140    0.00027120
     atom   11 type  2   force =    -0.00006677   -0.00064462    0.00028685
     atom   12 type  2   force =    -0.00001190   -0.00041504    0.00054239
     atom   13 type  1   force =     0.00004282    0.00009779    0.00032431
     atom   14 type  1   force =    -0.00037472    0.00000393    0.00007457
     atom   15 type  2   force =     0.00051815    0.00023750   -0.00033584
     atom   16 type  2   force =     0.00032341   -0.00035132   -0.00007024
     atom   17 type  2   force =    -0.00056961   -0.00001075   -0.00001136
     atom   18 type  2   force =     0.00054219   -0.00019268   -0.00000718
     atom   19 type  1   force =    -0.00005174   -0.00052673    0.00024658
     atom   20 type  1   force =     0.00071637    0.00011744    0.00088082
     atom   21 type  2   force =     0.00012434   -0.00012855    0.10402201
     atom   22 type  2   force =    -0.00040916    0.00020707   -0.00019690
     atom   23 type  2   force =    -0.07027385   -0.00022144   -0.02686327
     atom   24 type  2   force =     0.07026482    0.00021705   -0.02688847
     atom   25 type  1   force =     0.00008045   -0.00032065    0.09259972
     atom   26 type  1   force =    -0.00003307   -0.00059216   -0.17836180
     atom   27 type  2   force =     0.00012994   -0.00016510   -0.01909627
     atom   28 type  2   force =     0.00005127   -0.00163221    0.05860226
     atom   29 type  2   force =    -0.01106812   -0.00055998    0.00932457
     atom   30 type  2   force =     0.01198798   -0.00002063    0.00721309
     atom   31 type  1   force =    -0.00093277    0.00646719   -0.01503822
     atom   32 type  1   force =     0.00086080    0.00102021   -0.00586417
     atom   33 type  2   force =     0.00017604   -0.00057294   -0.00004801
     atom   34 type  2   force =    -0.00185760   -0.00052032   -0.00048730
     atom   35 type  2   force =    -0.00045186    0.00006547   -0.00043206
     atom   36 type  2   force =     0.00035253   -0.00011576    0.00018340
     atom   37 type  1   force =    -0.00051024   -0.00025622    0.00018799
     atom   38 type  1   force =    -0.00004428   -0.00015057   -0.00008168
     atom   39 type  2   force =     0.00029464   -0.00060461    0.00000049
     atom   40 type  2   force =    -0.00060096   -0.00051198    0.00024402
     atom   41 type  2   force =    -0.00022623   -0.00073773   -0.00069523
     atom   42 type  2   force =     0.00047029   -0.00008300   -0.00012914
     atom   43 type  1   force =     0.00019883   -0.00021304   -0.00016695
     atom   44 type  1   force =     0.00057984    0.00004036    0.00084253
     atom   45 type  2   force =     0.00013346   -0.00014175    0.10397912
     atom   46 type  2   force =    -0.07027397   -0.00016395   -0.02683390
     atom   47 type  2   force =     0.07024431    0.00025995   -0.02689235
     atom   48 type  3   force =     0.00221008    0.00248975    0.00319834
     atom   49 type  3   force =     0.00011531    0.00015027    0.00054842
     atom   50 type  4   force =    -0.00006535    0.00085003   -0.02088085
     atom   51 type  5   force =    -0.00345278    0.00309572    0.00390100
     atom   52 type  5   force =     0.00510112   -0.00169872    0.00613863
     atom   53 type  5   force =    -0.00186888   -0.00336543    0.00621936
     atom   54 type  5   force =    -0.00048362   -0.00269644    0.00037377
     atom   55 type  5   force =     0.00000618   -0.00060895   -0.00031834
     atom   56 type  5   force =    -0.00094081    0.00025146   -0.00013046

     Total force =     0.367162     Total SCF correction =     0.000428
  @ DRIVER MODE: Message from server: STATUS
  @ DRIVER MODE: Message from server: GETFORCE
  @ DRIVER MODE: Returning v,forces,stress,ensemble

     Writing output data file ./calc.save/
  @ DRIVER MODE: Message from server: EXIT
  @ DRIVE MODE: Exiting

     General routines

     Parallel routines

   This run was terminated on:   4: 3:56   9Sep2021

   JOB DONE.