     Program PWSCF v.6.7GPU starts on 22Jul2021 at 20:38:53

     R & G space division:  proc/nbgrp/npool/nimage =      16
     Reading input from /storage/home/hcoda1/3/ntian30/research/carbon/1Jul_vib/slab/rutile_O_br_vacant/out_0012/pw.inp
Warning: card &CELL ignored
Warning: card   CELL_DYNAMICS='IPI', ignored
Warning: card / ignored

     Current dimensions of program PWSCF are:
     Max number of different atomic species (ntypx) = 10
     Max number of k-points (npk) =  40000
     Max angular momentum in pseudopotentials (lmaxx) =  3
     Presently no symmetry can be used with electric field

     Message from routine cell_base_init:
     DEPRECATED: use true lattice parameter, not A to a.u. conversion factor

     IMPORTANT: XC functional enforced from input :
     Exchange-correlation= BEEF-VDW
                           (   1   4  43  14   2   0   0)
     Any further DFT definition will be discarded
     Please, verify this is what you really want

  @ DRIVER MODE: Connecting to
 qe_1139763_2402406.sched-torque.pace.gatech.edu2rrv08gk_scratch
  using UNIX socket
  @ DRIVER MODE: Message from server: STATUS
  @ DRIVER MODE: Message from server: INIT
  @ DRIVER MODE: Receiving replica           0          -1
  @ DRIVER MODE: Receiving encoded integer          25
  @ DRIVER MODE:  SCF:  T  FORCE:  T  STRESS:  F  VC:  F  ENSEMBLE:  F
  @ DRIVER MODE:  SCF:  T  FORCE:  T  STRESS:  F  VC:  F  ENSEMBLE:  F

     Using Slab Decomposition

     bravais-lattice index     =            0
     lattice parameter (alat)  =       1.8897  a.u.
     unit-cell volume          =    6658.9804 (a.u.)^3
     number of atoms/cell      =           47
     number of atomic types    =            2
     number of electrons       =       378.00
     number of Kohn-Sham states=          199
     kinetic-energy cutoff     =      29.3995  Ry
     charge density cutoff     =     293.9946  Ry
     scf convergence threshold =      7.3E-08
     mixing beta               =       0.0500
     number of iterations used =            8  plain     mixing
     Exchange-correlation= BEEF-VDW
                           (   1   4  43  14   2   0   0)

     celldm(1)=   1.889726  celldm(2)=   0.000000  celldm(3)=   0.000000
     celldm(4)=   0.000000  celldm(5)=   0.000000  celldm(6)=   0.000000

     crystal axes: (cart. coord. in units of alat)
               a(1) = (   6.579727   0.000000   0.000000 )
               a(2) = (  -0.000775   5.961596   0.000000 )
               a(3) = (   0.000000   0.000000  25.155947 )

     reciprocal axes: (cart. coord. in units 2 pi/alat)
               b(1) = (  0.151982  0.000020  0.000000 )
               b(2) = (  0.000000  0.167740  0.000000 )
               b(3) = (  0.000000  0.000000  0.039752 )

     PseudoPot. # 1 for Ti read from file:
     /storage/coda1/p-amedford6/0/shared/rich_project_chbe-medford/medford-share/data/pseudos_module/espresso/nninc/pbe/van/Ti.UPF
     MD5 check sum: 8e4df49b7f0d34bbd5052bf3f5ea0213
     Pseudo is Ultrasoft, Zval = 12.0
     Generated by new atomic code, or converted to UPF format
     Using radial grid of  851 points,  6 beta functions with:
                l(1) =   0
                l(2) =   0
                l(3) =   1
                l(4) =   1
                l(5) =   2
                l(6) =   2
     Q(r) pseudized with  8 coefficients,  rinner =    1.000   1.000   1.000
                                                       1.000   1.000

     PseudoPot. # 2 for O  read from file:
     /storage/coda1/p-amedford6/0/shared/rich_project_chbe-medford/medford-share/data/pseudos_module/espresso/nninc/pbe/van/O.UPF
     MD5 check sum: 78c19812648e8988a0fe644b0f25305e
     Pseudo is Ultrasoft, Zval =  6.0
     Generated by new atomic code, or converted to UPF format
     Using radial grid of  737 points,  4 beta functions with:
                l(1) =   0
                l(2) =   0
                l(3) =   1
                l(4) =   1
     Q(r) pseudized with  8 coefficients,  rinner =    0.800   0.800   0.800

     atomic species   valence    mass     pseudopotential
        Ti1           12.00    47.86700     Ti( 1.00)
        O1             6.00    15.99900     O ( 1.00)

     Starting magnetic structure
     atomic species   magnetization
        Ti1          0.000
        O1           0.000

     No symmetry found

   Cartesian axes

     site n.     atom                  positions (alat units)
         1           Ti1 tau(   1) = (   0.0004258   2.9801865   6.0000000  )
         2           Ti1 tau(   2) = (   3.2906075   1.4906267   6.0002472  )
         3           O1  tau(   3) = (   0.0006271   0.0005054   7.9858123  )
         4           O1  tau(   4) = (   3.2906025   0.0005020   7.3038282  )
         5           O1  tau(   5) = (   4.5942328   1.4918067   9.2879030  )
         6           O1  tau(   6) = (   1.9868534   1.4903216   9.2879459  )
         7           Ti1 tau(   7) = (   3.2895655   2.9803496   9.1561551  )
         8           Ti1 tau(   8) = (   6.5792279   1.4901203   9.2542590  )
         9           O1  tau(   9) = (   3.2908496   0.0003861  11.3974292  )
        10           O1  tau(  10) = (   0.0009741   0.0005107  10.6121890  )
        11           O1  tau(  11) = (   1.2851668   1.4970119  12.6717501  )
        12           O1  tau(  12) = (   5.2960956   1.4969944  12.6716611  )
        13           Ti1 tau(  13) = (   0.0014209   2.9817635  12.4865077  )
        14           Ti1 tau(  14) = (   3.2920103   1.4923710  12.5431595  )
        15           O1  tau(  15) = (   0.0005111   0.0003601  14.6908606  )
        16           O1  tau(  16) = (   3.2907661   0.0003422  14.0280135  )
        17           O1  tau(  17) = (   4.5563287   1.5043111  16.1972802  )
        18           O1  tau(  18) = (   2.0238984   1.5042417  16.1969189  )
        19           Ti1 tau(  19) = (   3.2900530   2.9812534  15.7923096  )
        20           Ti1 tau(  20) = (   0.0002900   1.3462356  15.9516996  )
        21           O1  tau(  21) = (   3.2904802   0.0005063   4.7018136  )
        22           O1  tau(  22) = (   0.0005067   0.0002908  17.2230471  )
        23           O1  tau(  23) = (   1.3043587   1.4918075   6.0039043  )
        24           O1  tau(  24) = (   5.2767064   1.4903225   6.0039473  )
        25           Ti1 tau(  25) = (   0.0000382   5.9609847   6.0000000  )
        26           Ti1 tau(  26) = (   3.2902200   4.4714249   6.0002472  )
        27           O1  tau(  27) = (   0.0002396   2.9813036   7.9858123  )
        28           O1  tau(  28) = (   3.2902150   2.9813002   7.3038282  )
        29           O1  tau(  29) = (   4.5938453   4.4726049   9.2879030  )
        30           O1  tau(  30) = (   1.9864658   4.4711199   9.2879459  )
        31           Ti1 tau(  31) = (   3.2890184   5.9611387   9.1545655  )
        32           Ti1 tau(  32) = (   6.5788211   4.4731772   9.2541010  )
        33           O1  tau(  33) = (   3.2904314   2.9811918  11.3932170  )
        34           O1  tau(  34) = (   0.0006808   2.9813391  10.6259032  )
        35           O1  tau(  35) = (   1.2847872   4.4655815  12.6717948  )
        36           O1  tau(  36) = (   5.2956760   4.4653813  12.6716352  )
        37           Ti1 tau(  37) = (   0.0020938   0.0010105  12.4782417  )
        38           Ti1 tau(  38) = (   3.2917349   4.4701355  12.5431901  )
        39           O1  tau(  39) = (   0.0000992   2.9811129  15.0245885  )
        40           O1  tau(  40) = (   3.2903432   2.9811263  13.9978513  )
        41           O1  tau(  41) = (   4.5559250   4.4580163  16.1971803  )
        42           O1  tau(  42) = (   2.0234811   4.4579909  16.1969720  )
        43           Ti1 tau(  43) = (   3.2904469   0.0004528  15.8418627  )
        44           Ti1 tau(  44) = (   0.0000435   4.6159127  15.9515978  )
        45           O1  tau(  45) = (   3.2900926   2.9813045   4.7018136  )
        46           O1  tau(  46) = (   1.3039711   4.4726057   6.0039043  )
        47           O1  tau(  47) = (   5.2763189   4.4711207   6.0039473  )

     number of k points=    10  Fermi-Dirac smearing, width (Ry)=  0.0073
                       cart. coord. in units 2pi/alat
        k(    1) = (   0.0000000   0.0000000   0.0000000), wk =   0.0625000
        k(    2) = (   0.0000000   0.0419351   0.0000000), wk =   0.1250000
        k(    3) = (   0.0000000  -0.0838702   0.0000000), wk =   0.0625000
        k(    4) = (   0.0379955   0.0000049   0.0000000), wk =   0.1250000
        k(    5) = (   0.0379955   0.0419400   0.0000000), wk =   0.1250000
        k(    6) = (   0.0379955  -0.0838652   0.0000000), wk =   0.1250000
        k(    7) = (   0.0379955  -0.0419301   0.0000000), wk =   0.1250000
        k(    8) = (  -0.0759910  -0.0000099   0.0000000), wk =   0.0625000
        k(    9) = (  -0.0759910   0.0419252   0.0000000), wk =   0.1250000
        k(   10) = (  -0.0759910  -0.0838800   0.0000000), wk =   0.0625000

     Initial potential from superposition of free atoms

     starting charge  361.99925, renormalised to  378.00000

     negative rho (up, down):  1.183E-02 1.183E-02

     %%%%%%%%%%%%%%%%%%%%%%%%%%%%%%%%%%%%%%%%%%%%%%%%%%%%%%%%%%%%%%%%%%%%%%%%
     %                                                                      %
     % You are using vdW-DF, which was implemented by the Thonhauser group. %
     % Please cite the following two papers that made this development      %
     % possible and the two reviews that describe the various versions:     %
     %                                                                      %
     %   T. Thonhauser et al., PRL 115, 136402 (2015).                      %
     %   T. Thonhauser et al., PRB 76, 125112 (2007).                       %
     %   K. Berland et al., Rep. Prog. Phys. 78, 066501 (2015).             %
     %   D.C. Langreth et al., J. Phys.: Condens. Matter 21, 084203 (2009). %
     %                                                                      %
     %                                                                      %
     % If you are calculating the stress with vdW-DF, please also cite:     %
     %                                                                      %
     %   R. Sabatini et al., J. Phys.: Condens. Matter 24, 424209 (2012).   %
     %                                                                      %
     %%%%%%%%%%%%%%%%%%%%%%%%%%%%%%%%%%%%%%%%%%%%%%%%%%%%%%%%%%%%%%%%%%%%%%%%

     Adding external electric field

     Computed dipole along edir(3) :
        Dipole                1.1513 Ry au,          2.9262 Debye
        Dipole field          0.0022 Ry au,

        Potential amp.       -0.2014 Ry
        Total length         46.3494 bohr

[...]

     Starting wfcs are  284 atomic wfcs
  @ DRIVER MODE: Message from server: STATUS
  @ DRIVER MODE: Message from server: POSDATA
  @ DRIVER MODE: Reading and sharing cell
  @ DRIVER MODE: Reading and sharing positions
  @ DRIVER MODE: Received positions

     Self-consistent Calculation

     iteration #  1     ecut=    29.40 Ry     beta= 0.05
     Davidson diagonalization with overlap
     c_bands:  2 eigenvalues not converged
     c_bands:  3 eigenvalues not converged
     c_bands:  2 eigenvalues not converged
     c_bands:  4 eigenvalues not converged
     c_bands:  1 eigenvalues not converged
     c_bands:  2 eigenvalues not converged
     c_bands:  1 eigenvalues not converged
     c_bands:  1 eigenvalues not converged
     c_bands:  3 eigenvalues not converged
     c_bands:  2 eigenvalues not converged
     c_bands:  2 eigenvalues not converged
     c_bands:  3 eigenvalues not converged
     c_bands:  2 eigenvalues not converged
     c_bands:  4 eigenvalues not converged
     c_bands:  1 eigenvalues not converged
     c_bands:  2 eigenvalues not converged
     c_bands:  1 eigenvalues not converged
     c_bands:  1 eigenvalues not converged
     c_bands:  3 eigenvalues not converged
     c_bands:  2 eigenvalues not converged
     ethr =  1.00E-05,  avg # of iterations = 20.0

[...]

     total energy              =   -2885.09843829 Ry
     estimated scf accuracy    <      12.50546467 Ry

     total magnetization       =    -0.00 Bohr mag/cell
     absolute magnetization    =     0.00 Bohr mag/cell

     iteration #  2     ecut=    29.40 Ry     beta= 0.05
     Davidson diagonalization with overlap
     ethr =  3.31E-03,  avg # of iterations =  1.0

[...]

     iteration # 54     ecut=    29.40 Ry     beta= 0.05
     Davidson diagonalization with overlap
     c_bands:  1 eigenvalues not converged
     c_bands:  1 eigenvalues not converged
     ethr =  1.50E-10,  avg # of iterations = 14.8

[...]

     total energy              =   -2883.85318171 Ry
     estimated scf accuracy    <       0.00000012 Ry

[...]

     iteration # 58     ecut=    29.40 Ry     beta= 0.05
     Davidson diagonalization with overlap
     ethr =  3.08E-11,  avg # of iterations =  5.0

     negative rho (up, down):  1.070E-02 1.070E-02

[...]

     Adding external electric field

     Computed dipole along edir(3) :
        Dipole                0.5655 Ry au,          1.4375 Debye
        Dipole field          0.0011 Ry au,

        Potential amp.       -0.0989 Ry
        Total length         46.3494 bohr

     Magnetic moment per site  (integrated on atomic sphere of radius R)
     atom   1 (R=0.740)  charge=  8.0666  magn= -0.0000
     atom   2 (R=0.740)  charge=  8.0461  magn= -0.0000
     atom   3 (R=0.740)  charge=  5.0351  magn=  0.0000
     atom   4 (R=0.740)  charge=  5.0740  magn=  0.0000
     atom   5 (R=0.740)  charge=  5.0337  magn= -0.0000
     atom   6 (R=0.740)  charge=  5.0338  magn= -0.0000
     atom   7 (R=0.740)  charge=  8.0460  magn= -0.0000
     atom   8 (R=0.740)  charge=  8.0493  magn=  0.0000
     atom   9 (R=0.740)  charge=  5.0395  magn= -0.0000
     atom  10 (R=0.740)  charge=  5.0477  magn= -0.0000
     atom  11 (R=0.740)  charge=  5.0325  magn=  0.0000
     atom  12 (R=0.740)  charge=  5.0325  magn=  0.0000
     atom  13 (R=0.740)  charge=  8.0560  magn=  0.0000
     atom  14 (R=0.740)  charge=  8.0495  magn= -0.0000
     atom  15 (R=0.740)  charge=  5.0482  magn=  0.0000
     atom  16 (R=0.740)  charge=  5.0294  magn= -0.0000
     atom  17 (R=0.740)  charge=  5.0156  magn=  0.0000
     atom  18 (R=0.740)  charge=  5.0155  magn= -0.0000
     atom  19 (R=0.740)  charge=  8.0779  magn= -0.0000
     atom  20 (R=0.740)  charge=  8.0904  magn=  0.0000
     atom  21 (R=0.740)  charge=  4.9132  magn=  0.0000
     atom  22 (R=0.740)  charge=  4.9958  magn=  0.0000
     atom  23 (R=0.740)  charge=  5.0274  magn=  0.0000
     atom  24 (R=0.740)  charge=  5.0275  magn=  0.0000
     atom  25 (R=0.740)  charge=  8.0666  magn= -0.0000
     atom  26 (R=0.740)  charge=  8.0461  magn= -0.0000
     atom  27 (R=0.740)  charge=  5.0345  magn= -0.0000
     atom  28 (R=0.740)  charge=  5.0735  magn= -0.0000
     atom  29 (R=0.740)  charge=  5.0337  magn=  0.0000
     atom  30 (R=0.740)  charge=  5.0338  magn= -0.0000
     atom  31 (R=0.740)  charge=  8.0464  magn=  0.0000
     atom  32 (R=0.740)  charge=  8.0493  magn=  0.0000
     atom  33 (R=0.740)  charge=  5.0396  magn= -0.0000
     atom  34 (R=0.740)  charge=  5.0426  magn= -0.0000
     atom  35 (R=0.740)  charge=  5.0324  magn=  0.0000
     atom  36 (R=0.740)  charge=  5.0325  magn= -0.0000
     atom  37 (R=0.740)  charge=  8.0518  magn=  0.0000
     atom  38 (R=0.740)  charge=  8.0495  magn=  0.0000
     atom  39 (R=0.740)  charge=  5.0311  magn= -0.0000
     atom  40 (R=0.740)  charge=  5.0466  magn=  0.0000
     atom  41 (R=0.740)  charge=  5.0156  magn= -0.0000
     atom  42 (R=0.740)  charge=  5.0156  magn= -0.0000
     atom  43 (R=0.740)  charge=  8.0755  magn= -0.0000
     atom  44 (R=0.740)  charge=  8.0904  magn=  0.0000
     atom  45 (R=0.740)  charge=  4.9132  magn=  0.0000
     atom  46 (R=0.740)  charge=  5.0274  magn=  0.0000
     atom  47 (R=0.740)  charge=  5.0275  magn=  0.0000

     End of self-consistent calculation

 ------ SPIN UP ------------

          k = 0.0000 0.0000 0.0000 ( 18029 PWs)   bands (ev):

   -56.2686 -56.2327 -56.2194 -56.1851 -56.1582 -56.1374 -56.1081 -56.1027
   -56.0849 -56.0766 -56.0739 -56.0480 -56.0209 -56.0140 -55.3334 -55.2993
   -32.8296 -32.7870 -32.7216 -32.6222 -32.5817 -32.5805 -32.5698 -32.5626
   -32.5095 -32.4947 -32.4747 -32.4699 -32.4644 -32.4399 -32.4385 -32.4172
   -32.4078 -32.4052 -32.3998 -32.3838 -32.3717 -32.3710 -32.3674 -32.3660
   -32.3420 -32.3394 -32.3174 -32.2744 -32.2678 -32.2619 -32.2580 -32.2520
   -32.2455 -32.2365 -32.2358 -32.2312 -32.2265 -32.2052 -32.2003 -32.1808
   -32.1634 -32.1041 -31.7462 -31.6415 -31.6202 -31.5621 -31.4757 -31.3649
   -17.0981 -16.8792 -16.7322 -16.6048 -16.4985 -16.3935 -16.2622 -16.2119
   -16.1670 -16.0233 -15.9548 -15.9350 -15.8968 -15.8721 -15.8605 -15.8560
   -15.8262 -15.8071 -15.7882 -15.7794 -15.7650 -15.7636 -15.7163 -15.6639
   -15.5779 -15.5013 -15.4323 -15.3751 -15.0541 -13.8344 -13.7146  -4.4185
    -4.2857  -4.2101  -4.1967  -4.1549  -4.0331  -3.8062  -3.7910  -3.7227
    -3.5653  -3.5182  -3.4629  -3.3939  -3.3334  -3.2785  -3.2674  -3.1642
    -3.1392  -3.1385  -3.1298  -3.0499  -3.0445  -3.0341  -2.9994  -2.9500
    -2.8654  -2.7458  -2.6969  -2.6689  -2.6463  -2.6387  -2.6165  -2.5884
    -2.5553  -2.5205  -2.5189  -2.4850  -2.4601  -2.3195  -2.1708  -2.1141
    -2.0584  -1.9705  -1.8949  -1.8289  -1.7852  -1.7551  -1.7269  -1.6778
    -1.6505  -1.6130  -1.5369  -1.4509  -1.4061  -1.3004  -1.2704  -1.2248
    -1.1836  -1.0883  -1.0667  -1.0650  -1.0218  -0.9347  -0.9052  -0.7725
    -0.7580  -0.7486  -0.7360  -0.7274  -0.6150  -0.5108  -0.4834  -0.4799
    -0.4737  -0.3867  -0.3351  -0.3326  -0.3159  -0.3072  -0.2576  -0.1861
    -0.1416  -0.0890   0.0492   0.2743   0.2778   0.3426   0.5759   0.6475
     0.6926   0.8496   1.2784   1.3319   2.8278   2.8940   2.9251   2.9580
     2.9838   3.0341   3.3244   3.3406   3.3657   3.3917   3.4076

[...]

          k =-0.0760-0.0000 0.0000 ( 17886 PWs)   bands (ev):

[...]

 ------ SPIN DOWN ----------

[...]

          k = 0.0380-0.0419 0.0000 ( 17876 PWs)   bands (ev):

[...]

          k =-0.0760-0.0839 0.0000 ( 17948 PWs)   bands (ev):

   -56.2508 -56.2503 -56.2024 -56.2019 -56.1544 -56.1225 -56.1175 -56.0915
   -56.0901 -56.0803 -56.0783 -56.0312 -56.0308 -56.0273 -55.3163 -55.3163
   -32.7103 -32.6353 -32.6326 -32.5366 -32.5361 -32.5322 -32.5208 -32.4948
   -32.4948 -32.4676 -32.4635 -32.4618 -32.4592 -32.4212 -32.4130 -32.4118
   -32.4063 -32.4055 -32.3911 -32.3854 -32.3845 -32.3818 -32.3706 -32.3539
   -32.3514 -32.3504 -32.3481 -32.3466 -32.3202 -32.3198 -32.3150 -32.3100
   -32.2874 -32.2862 -32.2611 -32.2610 -32.2609 -32.2597 -32.2304 -32.2167
   -32.2165 -32.2088 -31.6327 -31.6327 -31.5588 -31.5587 -31.5189 -31.5189
   -16.8074 -16.4523 -16.4010 -16.3300 -16.3226 -16.2225 -16.1913 -16.1148
   -16.0729 -16.0504 -16.0497 -16.0027 -15.9795 -15.9598 -15.9540 -15.8906
   -15.8732 -15.8415 -15.8392 -15.7880 -15.7855 -15.7846 -15.7835 -15.7475
   -15.7445 -15.7058 -15.7026 -15.6046 -15.4390 -13.8156 -13.8155  -3.8247
    -3.7215  -3.6462  -3.5532  -3.4777  -3.4411  -3.3923  -3.3870  -3.3130
    -3.2697  -3.2661  -3.1833  -3.1722  -3.1713  -3.1515  -3.0954  -3.0816
    -3.0564  -3.0363  -3.0100  -2.9767  -2.9662  -2.9649  -2.9446  -2.9355
    -2.9150  -2.9115  -2.8882  -2.8694  -2.8297  -2.8237  -2.6595  -2.6559
    -2.5733  -2.5113  -2.5099  -2.4300  -2.4221  -2.3793  -2.3444  -2.2903
    -2.2407  -2.0983  -2.0706  -2.0681  -1.9873  -1.9806  -1.9071  -1.8524
    -1.8353  -1.7847  -1.7304  -1.6123  -1.5963  -1.5563  -1.4649  -1.4600
    -1.3883  -1.3134  -1.2696  -1.2639  -1.2601  -1.2315  -1.2239  -1.2221
    -1.1147  -1.0609  -1.0153  -1.0080  -0.9947  -0.7942  -0.7302  -0.7202
    -0.6049  -0.5529  -0.3697  -0.3651  -0.3214  -0.2073  -0.2062  -0.1850
    -0.1527  -0.0279  -0.0158   0.0465   0.0939   0.1087   0.1471   0.1485
     1.0411   1.0422   1.1498   1.1502   2.9922   3.0825   3.0882   3.1370
     3.2784   3.3274   3.3330   3.3798   3.3820   3.3836   3.4619

     the Fermi energy is     2.8932 ev

!    total energy              =   -2883.85322417 Ry
     estimated scf accuracy    <       0.00000006 Ry
     smearing contrib. (-TS)   =      -0.03657478 Ry
     internal energy E=F+TS    =   -2883.81664939 Ry

     The total energy is F=E-TS. E is the sum of the following terms:
     one-electron contribution =  -24909.25505237 Ry
     hartree contribution      =   12529.53693374 Ry
     xc contribution           =    -468.94132370 Ry
     ewald contribution        =    9964.84218938 Ry
     electric field correction =       0.00060356 Ry

     total magnetization       =    -0.00 Bohr mag/cell
     absolute magnetization    =     0.00 Bohr mag/cell

     convergence has been achieved in  58 iterations

     Forces acting on atoms (cartesian axes, Ry/au):

     atom    1 type  1   force =     0.00010772    0.00000027    0.08985138
     atom    2 type  1   force =    -0.00003849    0.00031126   -0.18454623
     atom    3 type  2   force =     0.00003070   -0.00000527   -0.02424288
     atom    4 type  2   force =    -0.00000878   -0.00002125    0.05190317
     atom    5 type  2   force =    -0.01335544   -0.00027677    0.00581436
     atom    6 type  2   force =     0.01333032    0.00020568    0.00578369
     atom    7 type  1   force =    -0.00003265    0.00002079    0.00054371
     atom    8 type  1   force =     0.00001266    0.00043330    0.00041606
     atom    9 type  2   force =     0.00001462    0.00001638    0.00061015
     atom   10 type  2   force =    -0.00000330    0.00000712   -0.00047373
     atom   11 type  2   force =    -0.00008899   -0.00012395    0.00036307
     atom   12 type  2   force =     0.00006357   -0.00013991    0.00036321
     atom   13 type  1   force =    -0.00000199   -0.00000691   -0.00083083
     atom   14 type  1   force =     0.00003691   -0.00218582    0.00173445
     atom   15 type  2   force =    -0.00000260   -0.00001351   -0.00048368
     atom   16 type  2   force =     0.00001752    0.00001218    0.00524140
     atom   17 type  2   force =     0.00019560    0.00039250    0.00091899
     atom   18 type  2   force =    -0.00017995    0.00039024    0.00092689
     atom   19 type  1   force =    -0.00002394   -0.00001025   -0.00190112
     atom   20 type  1   force =     0.00002073    0.00021199   -0.00048019
     atom   21 type  2   force =     0.00005912    0.00007547    0.10525522
     atom   22 type  2   force =    -0.00001688   -0.00000391    0.00078253
     atom   23 type  2   force =    -0.06757576   -0.00028932   -0.02600644
     atom   24 type  2   force =     0.06748064    0.00014753   -0.02604266
     atom   25 type  1   force =     0.00010454    0.00000901    0.08888372
     atom   26 type  1   force =    -0.00007176   -0.00039844   -0.18455388
     atom   27 type  2   force =     0.00003196   -0.00002096   -0.02318174
     atom   28 type  2   force =    -0.00000619   -0.00002084    0.05195736
     atom   29 type  2   force =    -0.01336488   -0.00026718    0.00581371
     atom   30 type  2   force =     0.01333246    0.00023122    0.00578069
     atom   31 type  1   force =    -0.00003327    0.00001688    0.00081709
     atom   32 type  1   force =     0.00000911   -0.00043186    0.00043777
     atom   33 type  2   force =     0.00001415    0.00001143   -0.00048284
     atom   34 type  2   force =    -0.00001486    0.00000396    0.00001919
     atom   35 type  2   force =    -0.00009671    0.00014601    0.00036404
     atom   36 type  2   force =     0.00006935    0.00014209    0.00036657
     atom   37 type  1   force =     0.00000516   -0.00002147    0.00089016
     atom   38 type  1   force =     0.00002440    0.00220606    0.00173547
     atom   39 type  2   force =    -0.00001619    0.00000059   -0.00032138
     atom   40 type  2   force =     0.00001495    0.00001323   -0.00013680
     atom   41 type  2   force =     0.00019807   -0.00038160    0.00091776
     atom   42 type  2   force =    -0.00017485   -0.00038873    0.00092225
     atom   43 type  1   force =    -0.00001268   -0.00000059   -0.00841518
     atom   44 type  1   force =    -0.00001981   -0.00020222   -0.00048016
     atom   45 type  2   force =     0.00005839    0.00007572    0.10521362
     atom   46 type  2   force =    -0.06757401   -0.00015308   -0.02600326
     atom   47 type  2   force =     0.06748132    0.00028291   -0.02604470

     Total force =     0.366992     Total SCF correction =     0.000624
  @ DRIVER MODE: Message from server: STATUS
  @ DRIVER MODE: Message from server: GETFORCE
  @ DRIVER MODE: Returning v,forces,stress,ensemble

     Writing output data file ./calc.save/
  @ DRIVER MODE: Message from server: EXIT
  @ DRIVE MODE: Exiting

     General routines

     Parallel routines

   This run was terminated on:  21: 1:21  22Jul2021

   JOB DONE.