     Program PWSCF v.6.7GPU starts on 26Sep2021 at  3:53:11

     R & G space division:  proc/nbgrp/npool/nimage =       8
     Reading input from /storage/home/hcoda1/3/ntian30/research/carbon/CxH_vib/H2O_calc/ads_slab/CH3OHN2HO_a/out_0024/pw.inp
Warning: card &CELL ignored
Warning: card   CELL_DYNAMICS='IPI', ignored
Warning: card / ignored

     Current dimensions of program PWSCF are:
     Max number of different atomic species (ntypx) = 10
     Max number of k-points (npk) =  40000
     Max angular momentum in pseudopotentials (lmaxx) =  3
     Presently no symmetry can be used with electric field

     Message from routine cell_base_init:
     DEPRECATED: use true lattice parameter, not A to a.u. conversion factor

     IMPORTANT: XC functional enforced from input :
     Exchange-correlation= BEEF-VDW
                           (   1   4  43  14   2   0   0)
     Any further DFT definition will be discarded
     Please, verify this is what you really want

  @ DRIVER MODE: Connecting to
 qe_1139763_2971668.sched-torque.pace.gatech.edupqldqppz_scratch
  using UNIX socket
  @ DRIVER MODE: Message from server: STATUS
  @ DRIVER MODE: Message from server: INIT
  @ DRIVER MODE: Receiving replica           0          -1
  @ DRIVER MODE: Receiving encoded integer          25
  @ DRIVER MODE:  SCF:  T  FORCE:  T  STRESS:  F  VC:  F  ENSEMBLE:  F
  @ DRIVER MODE:  SCF:  T  FORCE:  T  STRESS:  F  VC:  F  ENSEMBLE:  F

     Using Slab Decomposition

     bravais-lattice index     =            0
     lattice parameter (alat)  =       1.8897  a.u.
     unit-cell volume          =    6658.9804 (a.u.)^3
     number of atoms/cell      =           57
     number of atomic types    =            5
     number of electrons       =       409.00
     number of Kohn-Sham states=          214
     kinetic-energy cutoff     =      29.3995  Ry
     charge density cutoff     =     293.9946  Ry
     scf convergence threshold =      7.3E-08
     mixing beta               =       0.0500
     number of iterations used =            8  plain     mixing
     Exchange-correlation= BEEF-VDW
                           (   1   4  43  14   2   0   0)

     celldm(1)=   1.889726  celldm(2)=   0.000000  celldm(3)=   0.000000
     celldm(4)=   0.000000  celldm(5)=   0.000000  celldm(6)=   0.000000

     crystal axes: (cart. coord. in units of alat)
               a(1) = (   6.579727   0.000000   0.000000 )
               a(2) = (  -0.000775   5.961596   0.000000 )
               a(3) = (   0.000000   0.000000  25.155947 )

     reciprocal axes: (cart. coord. in units 2 pi/alat)
               b(1) = (  0.151982  0.000020  0.000000 )
               b(2) = (  0.000000  0.167740  0.000000 )
               b(3) = (  0.000000  0.000000  0.039752 )

     PseudoPot. # 1 for Ti read from file:
     /storage/coda1/p-amedford6/0/shared/rich_project_chbe-medford/medford-share/data/pseudos_module/espresso/nninc/pbe/van/Ti.UPF
     MD5 check sum: 8e4df49b7f0d34bbd5052bf3f5ea0213
     Pseudo is Ultrasoft, Zval = 12.0
     Generated by new atomic code, or converted to UPF format
     Using radial grid of  851 points,  6 beta functions with:
                l(1) =   0
                l(2) =   0
                l(3) =   1
                l(4) =   1
                l(5) =   2
                l(6) =   2
     Q(r) pseudized with  8 coefficients,  rinner =    1.000   1.000   1.000
                                                       1.000   1.000

     PseudoPot. # 2 for O  read from file:
     /storage/coda1/p-amedford6/0/shared/rich_project_chbe-medford/medford-share/data/pseudos_module/espresso/nninc/pbe/van/O.UPF
     MD5 check sum: 78c19812648e8988a0fe644b0f25305e
     Pseudo is Ultrasoft, Zval =  6.0
     Generated by new atomic code, or converted to UPF format
     Using radial grid of  737 points,  4 beta functions with:
                l(1) =   0
                l(2) =   0
                l(3) =   1
                l(4) =   1
     Q(r) pseudized with  8 coefficients,  rinner =    0.800   0.800   0.800

     PseudoPot. # 3 for C  read from file:
     /storage/coda1/p-amedford6/0/shared/rich_project_chbe-medford/medford-share/data/pseudos_module/espresso/nninc/pbe/van/C.UPF
     MD5 check sum: 1a69bf6b8db32088f5b2163dbdb77a27
     Pseudo is Ultrasoft, Zval =  4.0
     Generated by new atomic code, or converted to UPF format
     Using radial grid of  721 points,  4 beta functions with:
                l(1) =   0
                l(2) =   0
                l(3) =   1
                l(4) =   1
     Q(r) pseudized with  8 coefficients,  rinner =    0.800   0.800   0.800

     PseudoPot. # 4 for H  read from file:
     /storage/coda1/p-amedford6/0/shared/rich_project_chbe-medford/medford-share/data/pseudos_module/espresso/nninc/pbe/van/H.UPF
     MD5 check sum: b5ee9d7bfd3a09ee7748110bda690ff7
     Pseudo is Ultrasoft, Zval =  1.0
     Generated by new atomic code, or converted to UPF format
     Using radial grid of  615 points,  1 beta functions with:
                l(1) =   0
     Q(r) pseudized with  8 coefficients,  rinner =    0.800

     PseudoPot. # 5 for N  read from file:
     /storage/coda1/p-amedford6/0/shared/rich_project_chbe-medford/medford-share/data/pseudos_module/espresso/nninc/pbe/van/N.UPF
     MD5 check sum: 90d10febe142ad51ac9d5be1deb811c4
     Pseudo is Ultrasoft, Zval =  5.0
     Generated by new atomic code, or converted to UPF format
     Using radial grid of  729 points,  4 beta functions with:
                l(1) =   0
                l(2) =   0
                l(3) =   1
                l(4) =   1
     Q(r) pseudized with  8 coefficients,  rinner =    0.800   0.800   0.800

     atomic species   valence    mass     pseudopotential
        Ti1           12.00    47.86700     Ti( 1.00)
        O1             6.00    15.99900     O ( 1.00)
        C1             4.00    12.01100     C ( 1.00)
        H1             1.00     1.00800     H ( 1.00)
        N1             5.00    14.00700     N ( 1.00)

     No symmetry found

   Cartesian axes

     site n.     atom                  positions (alat units)
         1           Ti1 tau(   1) = (   0.0004258   2.9801865   6.0000000  )
         2           Ti1 tau(   2) = (   3.2906075   1.4906267   6.0002472  )
         3           O1  tau(   3) = (   0.0006271   0.0005054   7.9858123  )
         4           O1  tau(   4) = (   3.2906025   0.0005020   7.3038282  )
         5           O1  tau(   5) = (   4.5942328   1.4918067   9.2879030  )
         6           O1  tau(   6) = (   1.9868534   1.4903216   9.2879459  )
         7           Ti1 tau(   7) = (   3.3371032   3.0268772   9.1887580  )
         8           Ti1 tau(   8) = (   0.0611061   1.5258697   9.2809523  )
         9           O1  tau(   9) = (   3.3143856   0.0188946  11.3581724  )
        10           O1  tau(  10) = (   0.0164151   0.0031400  10.5895864  )
        11           O1  tau(  11) = (   1.3088961   1.4994640  12.6347600  )
        12           O1  tau(  12) = (   5.3347766   1.4946156  12.6347356  )
        13           Ti1 tau(  13) = (   0.0202478   3.0292801  12.5720800  )
        14           Ti1 tau(  14) = (   3.3188568   1.5851219  12.4260843  )
        15           O1  tau(  15) = (   0.0445434   5.9450813  14.6510506  )
        16           O1  tau(  16) = (   3.3207065   5.8849141  14.0104376  )
        17           O1  tau(  17) = (   4.6249962   1.5116716  16.1313945  )
        18           O1  tau(  18) = (   2.0639035   1.5439872  16.0680944  )
        19           Ti1 tau(  19) = (   3.3360141   2.9454253  15.6763505  )
        20           Ti1 tau(  20) = (   0.0686920   1.3314864  15.9334539  )
        21           O1  tau(  21) = (   3.2904802   0.0005063   4.7018136  )
        22           O1  tau(  22) = (   0.0979609   0.0039778  17.1657837  )
        23           O1  tau(  23) = (   1.3043587   1.4918075   6.0039043  )
        24           O1  tau(  24) = (   5.2767064   1.4903225   6.0039473  )
        25           Ti1 tau(  25) = (   0.0000382   5.9609847   6.0000000  )
        26           Ti1 tau(  26) = (   3.2902200   4.4714249   6.0002472  )
        27           O1  tau(  27) = (   0.0002396   2.9813036   7.9858123  )
        28           O1  tau(  28) = (   3.2902150   2.9813002   7.3038282  )
        29           O1  tau(  29) = (   4.5938453   4.4726049   9.2879030  )
        30           O1  tau(  30) = (   1.9864658   4.4711199   9.2879459  )
        31           Ti1 tau(  31) = (   3.3368545   0.0404040   9.1664313  )
        32           Ti1 tau(  32) = (   0.0604674   4.4799263   9.2696248  )
        33           O1  tau(  33) = (   3.3137611   2.9662427  11.3084074  )
        34           O1  tau(  34) = (   0.0134136   2.9850836  10.6046154  )
        35           O1  tau(  35) = (   1.3054726   4.4719986  12.6384794  )
        36           O1  tau(  36) = (   5.3362180   4.4781181  12.6390536  )
        37           Ti1 tau(  37) = (   0.0365240   0.0487139  12.4702884  )
        38           Ti1 tau(  38) = (   3.3180881   4.6653017  12.7087268  )
        39           O1  tau(  39) = (   0.0228105   2.9918545  14.7761892  )
        40           O1  tau(  40) = (   3.3431522   2.9700269  13.9040455  )
        41           O1  tau(  41) = (   4.6265974   4.4152401  16.1544535  )
        42           O1  tau(  42) = (   2.0571238   4.3592187  16.1146037  )
        43           Ti1 tau(  43) = (   3.3848590   5.9294639  16.2700006  )
        44           Ti1 tau(  44) = (   0.0517009   4.5268197  15.8466567  )
        45           O1  tau(  45) = (   3.2900926   2.9813045   4.7018136  )
        46           O1  tau(  46) = (   1.3039711   4.4726057   6.0039043  )
        47           O1  tau(  47) = (   5.2763189   4.4711207   6.0039473  )
        48           C1  tau(  48) = (   5.9450987   3.0517216  18.8599509  )
        49           O1  tau(  49) = (   0.1802289   3.0084098  17.6484507  )
        50           H1  tau(  50) = (   4.9625852   2.6832861  18.5889656  )
        51           H1  tau(  51) = (   1.1163247   3.1442434  17.8858057  )
        52           H1  tau(  52) = (   6.3899442   2.3914015  19.6026461  )
        53           H1  tau(  53) = (   5.8846647   4.0795385  19.2151274  )
        54           N1  tau(  54) = (   5.7598779   3.1323611  22.9045362  )
        55           N1  tau(  55) = (   4.9845974   3.1850264  22.1203839  )
        56           O1  tau(  56) = (   3.1467188   0.0118795  18.1166202  )
        57           H1  tau(  57) = (   2.2164505   0.0865285  18.3868412  )

     number of k points=    10  Fermi-Dirac smearing, width (Ry)=  0.0073
                       cart. coord. in units 2pi/alat
        k(    1) = (   0.0000000   0.0000000   0.0000000), wk =   0.1250000
        k(    2) = (   0.0000000   0.0419351   0.0000000), wk =   0.2500000
        k(    3) = (   0.0000000  -0.0838702   0.0000000), wk =   0.1250000
        k(    4) = (   0.0379955   0.0000049   0.0000000), wk =   0.2500000
        k(    5) = (   0.0379955   0.0419400   0.0000000), wk =   0.2500000
        k(    6) = (   0.0379955  -0.0838652   0.0000000), wk =   0.2500000
        k(    7) = (   0.0379955  -0.0419301   0.0000000), wk =   0.2500000
        k(    8) = (  -0.0759910  -0.0000099   0.0000000), wk =   0.1250000
        k(    9) = (  -0.0759910   0.0419252   0.0000000), wk =   0.2500000
        k(   10) = (  -0.0759910  -0.0838800   0.0000000), wk =   0.1250000

     Initial potential from superposition of free atoms

     starting charge  392.99914, renormalised to  409.00000

     negative rho (up, down):  9.138E-03 0.000E+00

     %%%%%%%%%%%%%%%%%%%%%%%%%%%%%%%%%%%%%%%%%%%%%%%%%%%%%%%%%%%%%%%%%%%%%%%%
     %                                                                      %
     % You are using vdW-DF, which was implemented by the Thonhauser group. %
     % Please cite the following two papers that made this development      %
     % possible and the two reviews that describe the various versions:     %
     %                                                                      %
     %   T. Thonhauser et al., PRL 115, 136402 (2015).                      %
     %   T. Thonhauser et al., PRB 76, 125112 (2007).                       %
     %   K. Berland et al., Rep. Prog. Phys. 78, 066501 (2015).             %
     %   D.C. Langreth et al., J. Phys.: Condens. Matter 21, 084203 (2009). %
     %                                                                      %
     %                                                                      %
     % If you are calculating the stress with vdW-DF, please also cite:     %
     %                                                                      %
     %   R. Sabatini et al., J. Phys.: Condens. Matter 24, 424209 (2012).   %
     %                                                                      %
     %%%%%%%%%%%%%%%%%%%%%%%%%%%%%%%%%%%%%%%%%%%%%%%%%%%%%%%%%%%%%%%%%%%%%%%%

     Adding external electric field

     Computed dipole along edir(3) :
        Dipole              -18.8694 Ry au,        -47.9613 Debye
        Dipole field         -0.0356 Ry au,

        Potential amp.        3.3009 Ry
        Total length         46.3494 bohr

     Starting wfcs are  309 atomic wfcs
  @ DRIVER MODE: Message from server: STATUS
  @ DRIVER MODE: Message from server: POSDATA
  @ DRIVER MODE: Reading and sharing cell
  @ DRIVER MODE: Reading and sharing positions
  @ DRIVER MODE: Received positions

     Self-consistent Calculation

     iteration #  1     ecut=    29.40 Ry     beta= 0.05
     Davidson diagonalization with overlap
     c_bands:  5 eigenvalues not converged
     c_bands:  5 eigenvalues not converged
     c_bands:  1 eigenvalues not converged
     c_bands:  4 eigenvalues not converged
     c_bands:  1 eigenvalues not converged
     c_bands:  3 eigenvalues not converged
     ethr =  1.00E-05,  avg # of iterations = 27.3

[...]

     total energy              =   -2113.20328804 Ry
     estimated scf accuracy    <   10331.13110523 Ry

     iteration #  2     ecut=    29.40 Ry     beta= 0.05
     Davidson diagonalization with overlap
     ethr =  1.00E-02,  avg # of iterations = 30.5

[...]

     iteration # 68     ecut=    29.40 Ry     beta= 0.05
     Davidson diagonalization with overlap
     c_bands:  1 eigenvalues not converged
     ethr =  2.20E-07,  avg # of iterations = 12.6

[...]

     total energy              =   -3006.45830352 Ry
     estimated scf accuracy    <       0.00000015 Ry

     iteration # 87     ecut=    29.40 Ry     beta= 0.05
     Davidson diagonalization with overlap
     ethr =  3.07E-11,  avg # of iterations =  7.9

     negative rho (up, down):  1.064E-02 0.000E+00

     Adding external electric field

     Computed dipole along edir(3) :
        Dipole                1.0522 Ry au,          2.6745 Debye
        Dipole field          0.0020 Ry au,

        Potential amp.       -0.1841 Ry
        Total length         46.3494 bohr

     End of self-consistent calculation

          k = 0.0000 0.0000 0.0000 ( 18029 PWs)   bands (ev):

   -55.3273 -55.2514 -55.2162 -55.1419 -55.1200 -55.0852 -55.0493 -55.0446
   -55.0425 -55.0237 -55.0138 -54.9838 -54.8968 -54.8210 -54.2111 -54.1771
   -31.7294 -31.7207 -31.6333 -31.6215 -31.5807 -31.5670 -31.5427 -31.5406
   -31.5057 -31.4943 -31.4825 -31.4180 -31.4051 -31.4048 -31.3781 -31.3598
   -31.3516 -31.3344 -31.3334 -31.3218 -31.3148 -31.3102 -31.2641 -31.2619
   -31.2601 -31.2535 -31.2503 -31.2377 -31.2312 -31.2122 -31.2058 -31.1953
   -31.1937 -31.1737 -31.1690 -31.1612 -31.1599 -31.1259 -31.0856 -31.0664
   -31.0351 -31.0249 -30.6173 -30.5310 -30.5084 -30.4343 -30.3480 -30.2364
   -21.5097 -19.7080 -16.1350 -15.9034 -15.7241 -15.5220 -15.4652 -15.3989
   -15.2116 -15.1382 -14.9824 -14.8572 -14.8427 -14.7858 -14.7832 -14.7747
   -14.7455 -14.7208 -14.6754 -14.6641 -14.6587 -14.6551 -14.5935 -14.5510
   -14.5477 -14.5213 -14.5006 -14.3736 -14.3265 -14.2720 -14.1016 -14.0801
   -12.7107 -12.5945 -10.5587  -6.6888  -6.4066  -4.6716  -4.6334  -4.5920
    -4.4107  -3.6514  -3.3736  -3.2526  -3.1522  -3.1335  -3.0683  -3.0180
    -2.8030  -2.6987  -2.6338  -2.5211  -2.3940  -2.3582  -2.3102  -2.2758
    -2.1839  -2.1659  -2.1339  -2.1049  -2.0483  -2.0207  -2.0130  -2.0011
    -1.9248  -1.9181  -1.7882  -1.7833  -1.7270  -1.6350  -1.6170  -1.5942
    -1.5870  -1.5529  -1.5504  -1.5080  -1.4842  -1.4603  -1.4318  -1.3568
    -1.3373  -1.2741  -1.2370  -1.0047  -0.8503  -0.8256  -0.7453  -0.7290
    -0.6982  -0.6690  -0.6491  -0.6382  -0.6008  -0.5854  -0.4817  -0.3787
    -0.3702  -0.3103  -0.2726  -0.2678  -0.1320  -0.0874  -0.0130   0.0098
     0.0420   0.0630   0.1476   0.1962   0.2179   0.2848   0.3159   0.4215
     0.4588   0.4780   0.5195   0.5745   0.6352   0.6691   0.7084   0.7118
     0.7445   0.7938   0.8231   0.8578   0.8802   0.9271   1.0301   1.0674
     1.0779   1.2183   1.2297   1.3119   1.4365   1.4885   1.7614   1.8139
     1.8607   2.0062   2.3827   2.4296   3.8725   3.9753   3.9962   4.0174
     4.0852   4.1670   4.3323   4.3556   4.4199   4.5218

[...]

          k = 0.0380-0.0419 0.0000 ( 17876 PWs)   bands (ev):

[...]

          k =-0.0760-0.0000 0.0000 ( 17886 PWs)   bands (ev):

[...]

          k =-0.0760-0.0839 0.0000 ( 17948 PWs)   bands (ev):

   -55.3265 -55.2383 -55.2292 -55.1359 -55.1156 -55.0909 -55.0486 -55.0434
   -55.0354 -55.0271 -55.0147 -54.9930 -54.8931 -54.8247 -54.1943 -54.1938
   -31.6403 -31.5768 -31.5670 -31.5493 -31.5405 -31.5405 -31.5344 -31.5186
   -31.4562 -31.4512 -31.4126 -31.3913 -31.3798 -31.3746 -31.3583 -31.3557
   -31.3525 -31.3506 -31.3438 -31.3378 -31.3329 -31.3309 -31.3155 -31.3134
   -31.2943 -31.2837 -31.2544 -31.2480 -31.2452 -31.2411 -31.2332 -31.2315
   -31.2253 -31.2205 -31.2166 -31.2122 -31.2097 -31.1713 -31.1527 -31.0896
   -31.0724 -31.0288 -30.5213 -30.5210 -30.4311 -30.4295 -30.3913 -30.3904
   -21.5096 -19.7042 -16.1116 -15.5333 -15.3765 -15.2059 -15.1921 -15.1126
   -15.0211 -15.0032 -14.9728 -14.9593 -14.9422 -14.9179 -14.9095 -14.8731
   -14.8117 -14.7698 -14.7466 -14.7384 -14.6913 -14.6862 -14.6827 -14.6199
   -14.6126 -14.5944 -14.5699 -14.5100 -14.5008 -14.4004 -14.3857 -14.2127
   -12.6968 -12.6960 -10.5607  -6.6891  -6.4086  -4.6672  -4.6403  -4.5795
    -4.4030  -3.6168  -3.3641  -2.6817  -2.5975  -2.5404  -2.4297  -2.3512
    -2.2982  -2.2481  -2.2269  -2.1819  -2.1608  -2.0913  -2.0565  -2.0477
    -2.0285  -2.0263  -1.9955  -1.9801  -1.9672  -1.9460  -1.9181  -1.9008
    -1.8902  -1.8692  -1.8494  -1.8238  -1.8114  -1.8016  -1.7867  -1.7710
    -1.6597  -1.6430  -1.6102  -1.4479  -1.4365  -1.3672  -1.3356  -1.3091
    -1.3055  -1.2752  -1.2600  -1.2182  -1.1124  -1.0848  -1.0353  -0.9952
    -0.9016  -0.8851  -0.8342  -0.7832  -0.7374  -0.7089  -0.6783  -0.6631
    -0.6097  -0.4710  -0.4503  -0.4053  -0.2860  -0.2127  -0.1971  -0.1846
    -0.1627  -0.1397  -0.0931  -0.0850  -0.0231  -0.0105   0.0603   0.0642
     0.0933   0.1149   0.2175   0.3395   0.4180   0.4621   0.5069   0.5562
     0.5896   0.6722   0.7490   0.8350   0.9110   0.9405   0.9543   1.0719
     1.1044   1.1570   1.2029   1.2233   1.2814   1.3171   1.3574   1.3905
     2.1750   2.1887   2.2449   2.2506   4.0532   4.3034   4.3633   4.3803
     4.3900   4.4224   4.4434   4.4950   4.5123   4.5380

     the Fermi energy is     3.8827 ev

!    total energy              =   -3006.45830818 Ry
     estimated scf accuracy    <       0.00000007 Ry
     smearing contrib. (-TS)   =      -0.02082522 Ry
     internal energy E=F+TS    =   -3006.43748296 Ry

     The total energy is F=E-TS. E is the sum of the following terms:
     one-electron contribution =  -22317.31137391 Ry
     hartree contribution      =   11258.19542267 Ry
     xc contribution           =    -501.14378890 Ry
     ewald contribution        =    8553.82016775 Ry
     electric field correction =       0.00208943 Ry

     convergence has been achieved in  87 iterations

     Forces acting on atoms (cartesian axes, Ry/au):

     atom    1 type  1   force =    -0.00037585   -0.00017207    0.09498013
     atom    2 type  1   force =    -0.00035342    0.00513000   -0.17481450
     atom    3 type  2   force =     0.00070897    0.00013221   -0.02674528
     atom    4 type  2   force =     0.00128853    0.00083270    0.05205834
     atom    5 type  2   force =    -0.01096363   -0.00256110    0.00078225
     atom    6 type  2   force =     0.01193404   -0.00381091    0.00179215
     atom    7 type  1   force =    -0.00021903    0.00039100    0.00068167
     atom    8 type  1   force =     0.00013421    0.00022795    0.00017157
     atom    9 type  2   force =     0.00024959    0.00076416   -0.00066074
     atom   10 type  2   force =    -0.00039059    0.00016421    0.00015576
     atom   11 type  2   force =     0.00043448   -0.00015988    0.00010900
     atom   12 type  2   force =    -0.00084347   -0.00015949    0.00036229
     atom   13 type  1   force =     0.00043660    0.00034810   -0.00023415
     atom   14 type  1   force =    -0.00034015   -0.00070404    0.00095124
     atom   15 type  2   force =    -0.00015222   -0.00052435   -0.00096620
     atom   16 type  2   force =    -0.00026438    0.00000069   -0.00024464
     atom   17 type  2   force =    -0.00092717    0.00033112    0.00003158
     atom   18 type  2   force =     0.00054641    0.00060171   -0.00011699
     atom   19 type  1   force =     0.00004026   -0.00078170    0.00026479
     atom   20 type  1   force =    -0.00006905    0.00007795    0.00032636
     atom   21 type  2   force =    -0.00000398    0.00007447    0.10301656
     atom   22 type  2   force =    -0.00003510   -0.00013336    0.00105684
     atom   23 type  2   force =    -0.07196512    0.00013870   -0.02803883
     atom   24 type  2   force =     0.07180215    0.00063664   -0.02814240
     atom   25 type  1   force =    -0.00036255    0.00026048    0.10243394
     atom   26 type  1   force =    -0.00010795   -0.00475320   -0.17505748
     atom   27 type  2   force =     0.00084841    0.00116878   -0.02486488
     atom   28 type  2   force =     0.00119582    0.00025372    0.05168888
     atom   29 type  2   force =    -0.01192347    0.00381401    0.00172590
     atom   30 type  2   force =     0.01376193    0.00146423    0.00245656
     atom   31 type  1   force =    -0.00028942   -0.00016022    0.00081886
     atom   32 type  1   force =     0.00027912    0.00028722    0.00060457
     atom   33 type  2   force =     0.00000685    0.00019667    0.00008684
     atom   34 type  2   force =    -0.00027241   -0.00032484   -0.00055550
     atom   35 type  2   force =    -0.00024337    0.00005376   -0.00047455
     atom   36 type  2   force =    -0.00036792    0.00010007   -0.00009126
     atom   37 type  1   force =    -0.00005242   -0.00033920    0.00003252
     atom   38 type  1   force =    -0.00056942    0.00029271    0.00002328
     atom   39 type  2   force =    -0.00028227   -0.00025367    0.00081764
     atom   40 type  2   force =    -0.00019416    0.00010238    0.00027460
     atom   41 type  2   force =    -0.00135088   -0.00028251   -0.00000816
     atom   42 type  2   force =     0.00120112    0.00000264   -0.00061195
     atom   43 type  1   force =    -0.00030879    0.00050192    0.00004456
     atom   44 type  1   force =     0.00020304    0.00007005    0.00015667
     atom   45 type  2   force =     0.00000246    0.00014060    0.10260848
     atom   46 type  2   force =    -0.07186015   -0.00062788   -0.02798485
     atom   47 type  2   force =     0.07171651   -0.00013578   -0.02805955
     atom   48 type  3   force =    -0.00164929   -0.00032979   -0.00014262
     atom   49 type  2   force =     0.00378342    0.00009253    0.00317121
     atom   50 type  4   force =    -0.00016969   -0.00042231   -0.00001912
     atom   51 type  4   force =    -0.00355646   -0.00031542   -0.00372326
     atom   52 type  4   force =    -0.00021412    0.00005650   -0.00048841
     atom   53 type  4   force =    -0.00003324   -0.00038524   -0.00106622
     atom   54 type  5   force =     0.00013653   -0.00007822    0.00034311
     atom   55 type  5   force =    -0.00050330    0.00006370   -0.00032201
     atom   56 type  2   force =     0.00078993   -0.00055849    0.00064144
     atom   57 type  4   force =    -0.00028595   -0.00079990   -0.00123605

     Total force =     0.364890     Total SCF correction =     0.000727
  @ DRIVER MODE: Message from server: STATUS
  @ DRIVER MODE: Message from server: GETFORCE
  @ DRIVER MODE: Returning v,forces,stress,ensemble

     Writing output data file ./calc.save/
  @ DRIVER MODE: Message from server: EXIT
  @ DRIVE MODE: Exiting

     General routines

     Parallel routines

   This run was terminated on:   4:31:17  26Sep2021

   JOB DONE.