     Program PWSCF v.6.7GPU starts on  8Sep2021 at 21:51:40

     R & G space division:  proc/nbgrp/npool/nimage =      10
     Reading input from /storage/home/hcoda1/3/ntian30/research/carbon/CxH_vib/CH2_calc/ads_slab/CH2OH_a/out_0000/pw.inp
Warning: card &CELL ignored
Warning: card   CELL_DYNAMICS='IPI', ignored
Warning: card / ignored

     Current dimensions of program PWSCF are:
     Max number of different atomic species (ntypx) = 10
     Max number of k-points (npk) =  40000
     Max angular momentum in pseudopotentials (lmaxx) =  3
     Presently no symmetry can be used with electric field

     Message from routine cell_base_init:
     DEPRECATED: use true lattice parameter, not A to a.u. conversion factor

     IMPORTANT: XC functional enforced from input :
     Exchange-correlation= BEEF-VDW
                           (   1   4  43  14   2   0   0)
     Any further DFT definition will be discarded
     Please, verify this is what you really want

  @ DRIVER MODE: Connecting to
 qe_1139763_2767393.sched-torque.pace.gatech.eduftga19jq_scratch
  using UNIX socket
  @ DRIVER MODE: Message from server: STATUS
  @ DRIVER MODE: Message from server: INIT
  @ DRIVER MODE: Receiving replica           0          -1
  @ DRIVER MODE: Receiving encoded integer          25
  @ DRIVER MODE:  SCF:  T  FORCE:  T  STRESS:  F  VC:  F  ENSEMBLE:  F
  @ DRIVER MODE:  SCF:  T  FORCE:  T  STRESS:  F  VC:  F  ENSEMBLE:  F

     Using Slab Decomposition

     bravais-lattice index     =            0
     lattice parameter (alat)  =       1.8897  a.u.
     unit-cell volume          =    6658.9804 (a.u.)^3
     number of atoms/cell      =           52
     number of atomic types    =            4
     number of electrons       =       391.00
     number of Kohn-Sham states=          205
     kinetic-energy cutoff     =      29.3995  Ry
     charge density cutoff     =     293.9946  Ry
     scf convergence threshold =      7.3E-08
     mixing beta               =       0.0500
     number of iterations used =            8  plain     mixing
     Exchange-correlation= BEEF-VDW
                           (   1   4  43  14   2   0   0)

     celldm(1)=   1.889726  celldm(2)=   0.000000  celldm(3)=   0.000000
     celldm(4)=   0.000000  celldm(5)=   0.000000  celldm(6)=   0.000000

     crystal axes: (cart. coord. in units of alat)
               a(1) = (   6.579727   0.000000   0.000000 )
               a(2) = (  -0.000775   5.961596   0.000000 )
               a(3) = (   0.000000   0.000000  25.155947 )

     reciprocal axes: (cart. coord. in units 2 pi/alat)
               b(1) = (  0.151982  0.000020  0.000000 )
               b(2) = (  0.000000  0.167740  0.000000 )
               b(3) = (  0.000000  0.000000  0.039752 )

     PseudoPot. # 1 for Ti read from file:
     /storage/coda1/p-amedford6/0/shared/rich_project_chbe-medford/medford-share/data/pseudos_module/espresso/nninc/pbe/van/Ti.UPF
     MD5 check sum: 8e4df49b7f0d34bbd5052bf3f5ea0213
     Pseudo is Ultrasoft, Zval = 12.0
     Generated by new atomic code, or converted to UPF format
     Using radial grid of  851 points,  6 beta functions with:
                l(1) =   0
                l(2) =   0
                l(3) =   1
                l(4) =   1
                l(5) =   2
                l(6) =   2
     Q(r) pseudized with  8 coefficients,  rinner =    1.000   1.000   1.000
                                                       1.000   1.000

     PseudoPot. # 2 for O  read from file:
     /storage/coda1/p-amedford6/0/shared/rich_project_chbe-medford/medford-share/data/pseudos_module/espresso/nninc/pbe/van/O.UPF
     MD5 check sum: 78c19812648e8988a0fe644b0f25305e
     Pseudo is Ultrasoft, Zval =  6.0
     Generated by new atomic code, or converted to UPF format
     Using radial grid of  737 points,  4 beta functions with:
                l(1) =   0
                l(2) =   0
                l(3) =   1
                l(4) =   1
     Q(r) pseudized with  8 coefficients,  rinner =    0.800   0.800   0.800

     PseudoPot. # 3 for C  read from file:
     /storage/coda1/p-amedford6/0/shared/rich_project_chbe-medford/medford-share/data/pseudos_module/espresso/nninc/pbe/van/C.UPF
     MD5 check sum: 1a69bf6b8db32088f5b2163dbdb77a27
     Pseudo is Ultrasoft, Zval =  4.0
     Generated by new atomic code, or converted to UPF format
     Using radial grid of  721 points,  4 beta functions with:
                l(1) =   0
                l(2) =   0
                l(3) =   1
                l(4) =   1
     Q(r) pseudized with  8 coefficients,  rinner =    0.800   0.800   0.800

     PseudoPot. # 4 for H  read from file:
     /storage/coda1/p-amedford6/0/shared/rich_project_chbe-medford/medford-share/data/pseudos_module/espresso/nninc/pbe/van/H.UPF
     MD5 check sum: b5ee9d7bfd3a09ee7748110bda690ff7
     Pseudo is Ultrasoft, Zval =  1.0
     Generated by new atomic code, or converted to UPF format
     Using radial grid of  615 points,  1 beta functions with:
                l(1) =   0
     Q(r) pseudized with  8 coefficients,  rinner =    0.800

     atomic species   valence    mass     pseudopotential
        Ti1           12.00    47.86700     Ti( 1.00)
        O1             6.00    15.99900     O ( 1.00)
        C1             4.00    12.01100     C ( 1.00)
        H1             1.00     1.00800     H ( 1.00)

     No symmetry found

   Cartesian axes

     site n.     atom                  positions (alat units)
         1           Ti1 tau(   1) = (   0.0004258   2.9801865   6.0000000  )
         2           Ti1 tau(   2) = (   3.2906075   1.4906267   6.0002472  )
         3           O1  tau(   3) = (   0.0006271   0.0005054   7.9858123  )
         4           O1  tau(   4) = (   3.2906025   0.0005020   7.3038282  )
         5           O1  tau(   5) = (   4.5942328   1.4918067   9.2879030  )
         6           O1  tau(   6) = (   1.9868534   1.4903216   9.2879459  )
         7           Ti1 tau(   7) = (   3.2719207   3.0347534   9.1624208  )
         8           Ti1 tau(   8) = (   6.5479847   1.5485315   9.3114282  )
         9           O1  tau(   9) = (   3.3130468   5.9588651  11.3322545  )
        10           O1  tau(  10) = (   6.5779921   5.9597862  10.5854321  )
        11           O1  tau(  11) = (   1.2828316   1.4981946  12.5939292  )
        12           O1  tau(  12) = (   5.3076696   1.4616608  12.6584921  )
        13           Ti1 tau(  13) = (   0.0652608   2.9737989  12.6898254  )
        14           Ti1 tau(  14) = (   3.3390979   1.6191063  12.6104043  )
        15           O1  tau(  15) = (   0.1579450   5.9294946  14.6423442  )
        16           O1  tau(  16) = (   3.1680681   5.9402194  13.8972025  )
        17           O1  tau(  17) = (   4.6139792   1.3367142  15.8434034  )
        18           O1  tau(  18) = (   2.0781381   1.4994250  16.2203239  )
        19           Ti1 tau(  19) = (   3.3500823   2.9415657  15.9644494  )
        20           Ti1 tau(  20) = (   0.0003135   1.3236462  15.9137460  )
        21           O1  tau(  21) = (   3.2904802   0.0005063   4.7018136  )
        22           O1  tau(  22) = (   6.5745372   5.9170875  17.1494514  )
        23           O1  tau(  23) = (   1.3043587   1.4918075   6.0039043  )
        24           O1  tau(  24) = (   5.2767064   1.4903225   6.0039473  )
        25           Ti1 tau(  25) = (   0.0000382   5.9609847   6.0000000  )
        26           Ti1 tau(  26) = (   3.2902200   4.4714249   6.0002472  )
        27           O1  tau(  27) = (   0.0002396   2.9813036   7.9858123  )
        28           O1  tau(  28) = (   3.2902150   2.9813002   7.3038282  )
        29           O1  tau(  29) = (   4.5938453   4.4726049   9.2879030  )
        30           O1  tau(  30) = (   1.9864658   4.4711199   9.2879459  )
        31           Ti1 tau(  31) = (   3.2621523   0.0587977   9.1770015  )
        32           Ti1 tau(  32) = (   6.5480547   4.4734411   9.2675299  )
        33           O1  tau(  33) = (   3.3121001   2.9882390  11.3403144  )
        34           O1  tau(  34) = (   6.5676672   2.9758547  10.5865552  )
        35           O1  tau(  35) = (   1.2831373   4.4454538  12.5925867  )
        36           O1  tau(  36) = (   5.3039272   4.4828346  12.6569239  )
        37           Ti1 tau(  37) = (   0.0139245   5.9553196  12.4525254  )
        38           Ti1 tau(  38) = (   3.3396594   4.5312311  12.4471015  )
        39           O1  tau(  39) = (   0.0911754   2.9492527  14.7447760  )
        40           O1  tau(  40) = (   3.3148107   2.9226094  13.9462488  )
        41           O1  tau(  41) = (   4.6112453   4.5441982  15.8230962  )
        42           O1  tau(  42) = (   2.0803191   4.3866676  16.2083192  )
        43           Ti1 tau(  43) = (   3.2736722   5.9210238  15.6733724  )
        44           Ti1 tau(  44) = (   6.5729336   4.5444060  15.8763539  )
        45           O1  tau(  45) = (   3.2900926   2.9813045   4.7018136  )
        46           O1  tau(  46) = (   1.3039711   4.4726057   6.0039043  )
        47           O1  tau(  47) = (   5.2763189   4.4711207   6.0039473  )
        48           C1  tau(  48) = (   4.5191185   2.9521590  17.9045005  )
        49           O1  tau(  49) = (   5.9932199   2.9473452  17.4910416  )
        50           H1  tau(  50) = (   6.5492410   2.9805908  18.2871345  )
        51           H1  tau(  51) = (   4.3954453   2.0589761  18.5217578  )
        52           H1  tau(  52) = (   4.3955607   3.8562994  18.5052511  )

     number of k points=    10  Fermi-Dirac smearing, width (Ry)=  0.0073
                       cart. coord. in units 2pi/alat
        k(    1) = (   0.0000000   0.0000000   0.0000000), wk =   0.1250000
        k(    2) = (   0.0000000   0.0419351   0.0000000), wk =   0.2500000
        k(    3) = (   0.0000000  -0.0838702   0.0000000), wk =   0.1250000
        k(    4) = (   0.0379955   0.0000049   0.0000000), wk =   0.2500000
        k(    5) = (   0.0379955   0.0419400   0.0000000), wk =   0.2500000
        k(    6) = (   0.0379955  -0.0838652   0.0000000), wk =   0.2500000
        k(    7) = (   0.0379955  -0.0419301   0.0000000), wk =   0.2500000
        k(    8) = (  -0.0759910  -0.0000099   0.0000000), wk =   0.1250000
        k(    9) = (  -0.0759910   0.0419252   0.0000000), wk =   0.2500000
        k(   10) = (  -0.0759910  -0.0838800   0.0000000), wk =   0.1250000

     Initial potential from superposition of free atoms

     starting charge  374.99918, renormalised to  391.00000

     negative rho (up, down):  1.948E-02 0.000E+00

     %%%%%%%%%%%%%%%%%%%%%%%%%%%%%%%%%%%%%%%%%%%%%%%%%%%%%%%%%%%%%%%%%%%%%%%%
     %                                                                      %
     % You are using vdW-DF, which was implemented by the Thonhauser group. %
     % Please cite the following two papers that made this development      %
     % possible and the two reviews that describe the various versions:     %
     %                                                                      %
     %   T. Thonhauser et al., PRL 115, 136402 (2015).                      %
     %   T. Thonhauser et al., PRB 76, 125112 (2007).                       %
     %   K. Berland et al., Rep. Prog. Phys. 78, 066501 (2015).             %
     %   D.C. Langreth et al., J. Phys.: Condens. Matter 21, 084203 (2009). %
     %                                                                      %
     %                                                                      %
     % If you are calculating the stress with vdW-DF, please also cite:     %
     %                                                                      %
     %   R. Sabatini et al., J. Phys.: Condens. Matter 24, 424209 (2012).   %
     %                                                                      %
     %%%%%%%%%%%%%%%%%%%%%%%%%%%%%%%%%%%%%%%%%%%%%%%%%%%%%%%%%%%%%%%%%%%%%%%%

     Adding external electric field

     Computed dipole along edir(3) :
        Dipole               -5.2229 Ry au,        -13.2753 Debye
        Dipole field         -0.0099 Ry au,

        Potential amp.        0.9137 Ry
        Total length         46.3494 bohr

     Starting wfcs are  295 atomic wfcs
  @ DRIVER MODE: Message from server: STATUS
  @ DRIVER MODE: Message from server: POSDATA
  @ DRIVER MODE: Reading and sharing cell
  @ DRIVER MODE: Reading and sharing positions
  @ DRIVER MODE: Received positions

     Self-consistent Calculation

     iteration #  1     ecut=    29.40 Ry     beta= 0.05
     Davidson diagonalization with overlap
     ethr =  1.00E-02,  avg # of iterations =  2.1

[...]

     total energy              =   -2805.72146966 Ry
     estimated scf accuracy    <    1378.90611369 Ry

[...]

     iteration # 12     ecut=    29.40 Ry     beta= 0.05
     Davidson diagonalization with overlap
     c_bands:  2 eigenvalues not converged
     c_bands:  1 eigenvalues not converged
     c_bands:  1 eigenvalues not converged
     c_bands:  1 eigenvalues not converged
     ethr =  2.17E-03,  avg # of iterations = 17.7

[...]

     iteration # 56     ecut=    29.40 Ry     beta= 0.05
     Davidson diagonalization with overlap
     c_bands:  2 eigenvalues not converged
     c_bands:  1 eigenvalues not converged
     c_bands:  1 eigenvalues not converged
     c_bands:  1 eigenvalues not converged
     ethr =  1.40E-10,  avg # of iterations = 16.6

[...]

     total energy              =   -2931.33000322 Ry
     estimated scf accuracy    <       0.00000009 Ry

     iteration # 60     ecut=    29.40 Ry     beta= 0.05
     Davidson diagonalization with overlap
     ethr =  2.27E-11,  avg # of iterations =  6.2

     negative rho (up, down):  1.893E-02 0.000E+00

     Adding external electric field

     Computed dipole along edir(3) :
        Dipole                0.9591 Ry au,          2.4378 Debye
        Dipole field          0.0018 Ry au,

        Potential amp.       -0.1678 Ry
        Total length         46.3494 bohr

     End of self-consistent calculation

          k = 0.0000 0.0000 0.0000 ( 18029 PWs)   bands (ev):

   -55.8485 -55.8094 -55.7661 -55.7516 -55.6971 -55.6876 -55.6784 -55.6680
   -55.6297 -55.6183 -55.5967 -55.5862 -55.5593 -55.5515 -54.8194 -54.7853
   -32.3695 -32.3204 -32.2353 -32.2135 -32.1576 -32.1303 -32.1177 -32.0851
   -32.0774 -32.0632 -32.0424 -32.0165 -32.0035 -31.9951 -31.9666 -31.9600
   -31.9424 -31.9407 -31.9221 -31.9094 -31.9079 -31.9018 -31.8769 -31.8571
   -31.8541 -31.8515 -31.8462 -31.8414 -31.8282 -31.8137 -31.8026 -31.8020
   -31.8003 -31.7938 -31.7843 -31.7838 -31.7607 -31.7433 -31.7412 -31.7283
   -31.6994 -31.6341 -31.2265 -31.1371 -31.1146 -31.0435 -30.9573 -30.8457
   -19.5692 -16.5535 -16.3317 -16.1535 -16.0563 -15.9940 -15.8302 -15.7486
   -15.5607 -15.4845 -15.4776 -15.4524 -15.3898 -15.3759 -15.3647 -15.3444
   -15.3435 -15.3127 -15.2494 -15.2366 -15.2299 -15.2007 -15.1306 -15.1204
   -14.9762 -14.9591 -14.9588 -14.9466 -14.8479 -14.7790 -13.3190 -13.2021
    -9.6174  -6.4678  -4.2167  -4.0143  -3.8653  -3.7624  -3.7552  -3.7198
    -3.5662  -3.4896  -3.2753  -3.1347  -3.0886  -3.0206  -2.9770  -2.9154
    -2.8341  -2.7668  -2.7207  -2.6745  -2.6613  -2.6360  -2.6246  -2.5758
    -2.5399  -2.5126  -2.4035  -2.3989  -2.3492  -2.2915  -2.2546  -2.2015
    -2.1631  -2.1447  -2.1219  -2.0923  -2.0624  -2.0435  -2.0233  -1.9689
    -1.9177  -1.8386  -1.8241  -1.5543  -1.4646  -1.3921  -1.3662  -1.2883
    -1.2626  -1.2413  -1.2108  -1.2078  -1.1833  -1.1044  -1.0989  -1.0063
    -0.9715  -0.8876  -0.8342  -0.7458  -0.7058  -0.6344  -0.6147  -0.5792
    -0.5608  -0.5449  -0.3997  -0.3806  -0.3552  -0.2360  -0.2171  -0.1612
    -0.1337  -0.0750  -0.0498   0.0151   0.0459   0.0928   0.1210   0.1405
     0.1618   0.1771   0.2225   0.3084   0.3848   0.4005   0.4254   0.4917
     0.6770   0.7067   0.8352   0.9007   1.1333   1.2059   1.2498   1.2970
     1.3917   1.7801   1.8355   3.3040   3.3590   3.4191   3.4240   3.4612
     3.5536   3.7349   3.7541   3.8085   3.8672

[...]

          k = 0.0380-0.0419 0.0000 ( 17876 PWs)   bands (ev):

[...]

          k =-0.0760-0.0000 0.0000 ( 17886 PWs)   bands (ev):

[...]

          k =-0.0760-0.0839 0.0000 ( 17948 PWs)   bands (ev):

   -55.8385 -55.8192 -55.7622 -55.7452 -55.7033 -55.6910 -55.6730 -55.6659
   -55.6236 -55.6209 -55.5947 -55.5863 -55.5698 -55.5538 -54.8024 -54.8022
   -32.2930 -32.1452 -32.1361 -32.1269 -32.1029 -32.0894 -32.0833 -32.0596
   -32.0216 -32.0097 -31.9966 -31.9912 -31.9777 -31.9711 -31.9676 -31.9641
   -31.9603 -31.9575 -31.9465 -31.9419 -31.9143 -31.9113 -31.8999 -31.8971
   -31.8915 -31.8857 -31.8828 -31.8726 -31.8654 -31.8634 -31.8547 -31.8344
   -31.8241 -31.8198 -31.8110 -31.8097 -31.7957 -31.7931 -31.7903 -31.7868
   -31.7791 -31.6356 -31.1275 -31.1271 -31.0401 -31.0390 -31.0005 -30.9999
   -19.5632 -16.1435 -15.9637 -15.8083 -15.7803 -15.7793 -15.6450 -15.6271
   -15.6056 -15.5720 -15.5335 -15.5052 -15.4799 -15.4736 -15.4300 -15.3747
   -15.3681 -15.3555 -15.3294 -15.2713 -15.2593 -15.2569 -15.2154 -15.1607
   -15.1381 -15.1284 -15.1205 -15.1066 -15.0769 -15.0548 -13.3061 -13.3015
    -9.6177  -6.4510  -4.2226  -3.8829  -3.2853  -3.2140  -3.0121  -3.0086
    -2.9258  -2.8865  -2.8752  -2.8335  -2.7671  -2.7610  -2.7427  -2.6747
    -2.6497  -2.6469  -2.6076  -2.5990  -2.5779  -2.5695  -2.5482  -2.5228
    -2.4882  -2.4488  -2.4318  -2.4222  -2.4036  -2.3948  -2.3886  -2.3458
    -2.3250  -2.2150  -2.1349  -2.0238  -2.0190  -1.9724  -1.9574  -1.9354
    -1.8998  -1.8854  -1.8794  -1.8440  -1.7630  -1.6192  -1.5197  -1.5009
    -1.4606  -1.4345  -1.4018  -1.3804  -1.2837  -1.2696  -1.2176  -1.1901
    -1.1850  -1.0691  -1.0601  -0.9626  -0.9266  -0.8177  -0.8088  -0.7826
    -0.7604  -0.7252  -0.7005  -0.6315  -0.6116  -0.5705  -0.5529  -0.4873
    -0.4491  -0.4324  -0.3554  -0.3165  -0.2546  -0.2059  -0.1717  -0.0214
     0.1590   0.1770   0.2084   0.3191   0.3574   0.4303   0.4864   0.5015
     0.5713   0.6050   0.6735   0.7045   0.7666   0.8061   1.2624   1.5668
     1.5773   1.6401   1.6537   3.5967   3.6447   3.7695   3.7858   3.8178
     3.8229   3.8336   3.8555   3.9179   3.9526

     the Fermi energy is     3.2943 ev

!    total energy              =   -2931.33004585 Ry
     estimated scf accuracy    <       0.00000005 Ry
     smearing contrib. (-TS)   =      -0.02177098 Ry
     internal energy E=F+TS    =   -2931.30827487 Ry

     The total energy is F=E-TS. E is the sum of the following terms:
     one-electron contribution =  -24940.47287931 Ry
     hartree contribution      =   12556.67965933 Ry
     xc contribution           =    -482.04573594 Ry
     ewald contribution        =    9934.52894517 Ry
     electric field correction =       0.00173589 Ry

     convergence has been achieved in  60 iterations

     Forces acting on atoms (cartesian axes, Ry/au):

     atom    1 type  1   force =     0.00041433   -0.00074855    0.09647825
     atom    2 type  1   force =     0.00022550   -0.00292747   -0.17613758
     atom    3 type  2   force =    -0.00037780   -0.00272615   -0.03079778
     atom    4 type  2   force =    -0.00049067    0.00065457    0.04967797
     atom    5 type  2   force =    -0.01530239   -0.00088302    0.00150711
     atom    6 type  2   force =     0.01484395    0.00155633    0.00315023
     atom    7 type  1   force =    -0.00060244   -0.00031543   -0.00010554
     atom    8 type  1   force =    -0.00056515    0.00059784    0.00063507
     atom    9 type  2   force =    -0.00018512    0.00026509    0.00046236
     atom   10 type  2   force =     0.00000115    0.00008399   -0.00067182
     atom   11 type  2   force =     0.00023548    0.00030372    0.00017121
     atom   12 type  2   force =    -0.00017656    0.00013199   -0.00021227
     atom   13 type  1   force =     0.00016158   -0.00018069    0.00051262
     atom   14 type  1   force =     0.00032401   -0.00057472    0.00041300
     atom   15 type  2   force =     0.00003510    0.00061316   -0.00029742
     atom   16 type  2   force =    -0.00015516   -0.00011729    0.00021385
     atom   17 type  2   force =     0.00003787    0.00008702    0.00016613
     atom   18 type  2   force =    -0.00006472    0.00015156    0.00015402
     atom   19 type  1   force =     0.00034658   -0.00037415    0.00115919
     atom   20 type  1   force =     0.00013397    0.00020283    0.00027579
     atom   21 type  2   force =     0.00016297    0.00023087    0.10301839
     atom   22 type  2   force =     0.00024172    0.00042576   -0.00012875
     atom   23 type  2   force =    -0.07095997    0.00144303   -0.02885920
     atom   24 type  2   force =     0.07108382    0.00185520   -0.02887545
     atom   25 type  1   force =     0.00034310    0.00079116    0.11232006
     atom   26 type  1   force =    -0.00012695    0.00363243   -0.17642639
     atom   27 type  2   force =    -0.00014833    0.00020144   -0.02745857
     atom   28 type  2   force =    -0.00030920    0.00087259    0.04913632
     atom   29 type  2   force =    -0.01336022   -0.00249928    0.00128335
     atom   30 type  2   force =     0.01439088   -0.00067955    0.00298577
     atom   31 type  1   force =     0.00019808   -0.00032424    0.00021864
     atom   32 type  1   force =    -0.00074616    0.00067236   -0.00046374
     atom   33 type  2   force =    -0.00025661   -0.00028790   -0.00025415
     atom   34 type  2   force =     0.00012221    0.00017148    0.00002134
     atom   35 type  2   force =    -0.00014722   -0.00006912    0.00030022
     atom   36 type  2   force =     0.00021687   -0.00009295    0.00030345
     atom   37 type  1   force =    -0.00025709   -0.00020099    0.00034358
     atom   38 type  1   force =     0.00028342    0.00034087    0.00030799
     atom   39 type  2   force =     0.00018454    0.00019276   -0.00023819
     atom   40 type  2   force =    -0.00010194   -0.00054979   -0.00085581
     atom   41 type  2   force =    -0.00024367   -0.00006349    0.00029373
     atom   42 type  2   force =     0.00005492   -0.00005044    0.00031663
     atom   43 type  1   force =     0.00032037    0.00032906    0.00014292
     atom   44 type  1   force =     0.00055316    0.00040391   -0.00023695
     atom   45 type  2   force =     0.00015578    0.00016474    0.10344006
     atom   46 type  2   force =    -0.07077246   -0.00174633   -0.02884668
     atom   47 type  2   force =     0.07088588   -0.00133634   -0.02887114
     atom   48 type  3   force =    -0.00033129   -0.00011614    0.00049375
     atom   49 type  2   force =    -0.00008025    0.00049187   -0.00001834
     atom   50 type  4   force =     0.00039474   -0.00032371   -0.00006855
     atom   51 type  4   force =    -0.00047612    0.00000954   -0.00019781
     atom   52 type  4   force =    -0.00011449    0.00031059    0.00011912

     Total force =     0.369261     Total SCF correction =     0.000665
  @ DRIVER MODE: Message from server: STATUS
  @ DRIVER MODE: Message from server: GETFORCE
  @ DRIVER MODE: Returning v,forces,stress,ensemble

     Writing output data file ./calc.save/
  @ DRIVER MODE: Message from server: EXIT
  @ DRIVE MODE: Exiting

     General routines

     Parallel routines

   This run was terminated on:  22: 8:18   8Sep2021

   JOB DONE.