     Program PWSCF v.6.7GPU starts on 15Sep2021 at 18:20:26

     R & G space division:  proc/nbgrp/npool/nimage =      10
     Reading input from /storage/home/hcoda1/3/ntian30/research/carbon/CxH_vib/H2O_calc/ads_slab/CH2N2H2O_b/out_0009/pw.inp
Warning: card &CELL ignored
Warning: card   CELL_DYNAMICS='IPI', ignored
Warning: card / ignored

     Current dimensions of program PWSCF are:
     Max number of different atomic species (ntypx) = 10
     Max number of k-points (npk) =  40000
     Max angular momentum in pseudopotentials (lmaxx) =  3
     Presently no symmetry can be used with electric field

     Message from routine cell_base_init:
     DEPRECATED: use true lattice parameter, not A to a.u. conversion factor

     IMPORTANT: XC functional enforced from input :
     Exchange-correlation= BEEF-VDW
                           (   1   4  43  14   2   0   0)
     Any further DFT definition will be discarded
     Please, verify this is what you really want

  @ DRIVER MODE: Connecting to
 qe_1139763_2852605.sched-torque.pace.gatech.eduqzp_as3j_scratch
  using UNIX socket
  @ DRIVER MODE: Message from server: STATUS
  @ DRIVER MODE: Message from server: INIT
  @ DRIVER MODE: Receiving replica           0          -1
  @ DRIVER MODE: Receiving encoded integer          25
  @ DRIVER MODE:  SCF:  T  FORCE:  T  STRESS:  F  VC:  F  ENSEMBLE:  F
  @ DRIVER MODE:  SCF:  T  FORCE:  T  STRESS:  F  VC:  F  ENSEMBLE:  F

     Using Slab Decomposition

     bravais-lattice index     =            0
     lattice parameter (alat)  =       1.8897  a.u.
     unit-cell volume          =    6658.9804 (a.u.)^3
     number of atoms/cell      =           55
     number of atomic types    =            5
     number of electrons       =       402.00
     number of Kohn-Sham states=          211
     kinetic-energy cutoff     =      29.3995  Ry
     charge density cutoff     =     293.9946  Ry
     scf convergence threshold =      7.3E-08
     mixing beta               =       0.0500
     number of iterations used =            8  plain     mixing
     Exchange-correlation= BEEF-VDW
                           (   1   4  43  14   2   0   0)

     celldm(1)=   1.889726  celldm(2)=   0.000000  celldm(3)=   0.000000
     celldm(4)=   0.000000  celldm(5)=   0.000000  celldm(6)=   0.000000

     crystal axes: (cart. coord. in units of alat)
               a(1) = (   6.579727   0.000000   0.000000 )
               a(2) = (  -0.000775   5.961596   0.000000 )
               a(3) = (   0.000000   0.000000  25.155947 )

     reciprocal axes: (cart. coord. in units 2 pi/alat)
               b(1) = (  0.151982  0.000020  0.000000 )
               b(2) = (  0.000000  0.167740  0.000000 )
               b(3) = (  0.000000  0.000000  0.039752 )

     PseudoPot. # 1 for Ti read from file:
     /storage/coda1/p-amedford6/0/shared/rich_project_chbe-medford/medford-share/data/pseudos_module/espresso/nninc/pbe/van/Ti.UPF
     MD5 check sum: 8e4df49b7f0d34bbd5052bf3f5ea0213
     Pseudo is Ultrasoft, Zval = 12.0
     Generated by new atomic code, or converted to UPF format
     Using radial grid of  851 points,  6 beta functions with:
                l(1) =   0
                l(2) =   0
                l(3) =   1
                l(4) =   1
                l(5) =   2
                l(6) =   2
     Q(r) pseudized with  8 coefficients,  rinner =    1.000   1.000   1.000
                                                       1.000   1.000

     PseudoPot. # 2 for O  read from file:
     /storage/coda1/p-amedford6/0/shared/rich_project_chbe-medford/medford-share/data/pseudos_module/espresso/nninc/pbe/van/O.UPF
     MD5 check sum: 78c19812648e8988a0fe644b0f25305e
     Pseudo is Ultrasoft, Zval =  6.0
     Generated by new atomic code, or converted to UPF format
     Using radial grid of  737 points,  4 beta functions with:
                l(1) =   0
                l(2) =   0
                l(3) =   1
                l(4) =   1
     Q(r) pseudized with  8 coefficients,  rinner =    0.800   0.800   0.800

     PseudoPot. # 3 for N  read from file:
     /storage/coda1/p-amedford6/0/shared/rich_project_chbe-medford/medford-share/data/pseudos_module/espresso/nninc/pbe/van/N.UPF
     MD5 check sum: 90d10febe142ad51ac9d5be1deb811c4
     Pseudo is Ultrasoft, Zval =  5.0
     Generated by new atomic code, or converted to UPF format
     Using radial grid of  729 points,  4 beta functions with:
                l(1) =   0
                l(2) =   0
                l(3) =   1
                l(4) =   1
     Q(r) pseudized with  8 coefficients,  rinner =    0.800   0.800   0.800

     PseudoPot. # 4 for C  read from file:
     /storage/coda1/p-amedford6/0/shared/rich_project_chbe-medford/medford-share/data/pseudos_module/espresso/nninc/pbe/van/C.UPF
     MD5 check sum: 1a69bf6b8db32088f5b2163dbdb77a27
     Pseudo is Ultrasoft, Zval =  4.0
     Generated by new atomic code, or converted to UPF format
     Using radial grid of  721 points,  4 beta functions with:
                l(1) =   0
                l(2) =   0
                l(3) =   1
                l(4) =   1
     Q(r) pseudized with  8 coefficients,  rinner =    0.800   0.800   0.800

     PseudoPot. # 5 for H  read from file:
     /storage/coda1/p-amedford6/0/shared/rich_project_chbe-medford/medford-share/data/pseudos_module/espresso/nninc/pbe/van/H.UPF
     MD5 check sum: b5ee9d7bfd3a09ee7748110bda690ff7
     Pseudo is Ultrasoft, Zval =  1.0
     Generated by new atomic code, or converted to UPF format
     Using radial grid of  615 points,  1 beta functions with:
                l(1) =   0
     Q(r) pseudized with  8 coefficients,  rinner =    0.800

     atomic species   valence    mass     pseudopotential
        Ti1           12.00    47.86700     Ti( 1.00)
        O1             6.00    15.99900     O ( 1.00)
        N1             5.00    14.00700     N ( 1.00)
        C1             4.00    12.01100     C ( 1.00)
        H1             1.00     1.00800     H ( 1.00)

     No symmetry found

   Cartesian axes

     site n.     atom                  positions (alat units)
         1           Ti1 tau(   1) = (   0.0004258   2.9801865   6.0000000  )
         2           Ti1 tau(   2) = (   3.2906075   1.4906267   6.0002472  )
         3           O1  tau(   3) = (   0.0006271   0.0005054   7.9858123  )
         4           O1  tau(   4) = (   3.2906025   0.0005020   7.3038282  )
         5           O1  tau(   5) = (   4.5942328   1.4918067   9.2879030  )
         6           O1  tau(   6) = (   1.9868534   1.4903216   9.2879459  )
         7           Ti1 tau(   7) = (   3.2907910   2.8959150   9.1758416  )
         8           Ti1 tau(   8) = (   0.0015273   1.4827037   9.2680791  )
         9           O1  tau(   9) = (   3.2934429   5.9466490  11.3040654  )
        10           O1  tau(  10) = (   0.0116148   5.9584955  10.6183126  )
        11           O1  tau(  11) = (   1.2867109   1.4782735  12.6190062  )
        12           O1  tau(  12) = (   5.2776945   1.4764076  12.5976694  )
        13           Ti1 tau(  13) = (   0.0846880   2.9559742  12.7004455  )
        14           Ti1 tau(  14) = (   3.4192946   1.4610250  12.4797112  )
        15           O1  tau(  15) = (   0.0040618   5.9510889  14.6015872  )
        16           O1  tau(  16) = (   3.2972055   5.9566395  13.8969661  )
        17           O1  tau(  17) = (   4.5327346   1.5242580  16.0225792  )
        18           O1  tau(  18) = (   2.0474321   1.5095568  15.9818283  )
        19           Ti1 tau(  19) = (   3.2830006   2.9631064  15.6531525  )
        20           Ti1 tau(  20) = (   6.5418150   1.5417905  15.9635021  )
        21           O1  tau(  21) = (   3.2904802   0.0005063   4.7018136  )
        22           O1  tau(  22) = (   0.0063621   0.0138944  17.1794403  )
        23           O1  tau(  23) = (   1.3043587   1.4918075   6.0039043  )
        24           O1  tau(  24) = (   5.2767064   1.4903225   6.0039473  )
        25           Ti1 tau(  25) = (   0.0000382   5.9609847   6.0000000  )
        26           Ti1 tau(  26) = (   3.2902200   4.4714249   6.0002472  )
        27           O1  tau(  27) = (   0.0002396   2.9813036   7.9858123  )
        28           O1  tau(  28) = (   3.2902150   2.9813002   7.3038282  )
        29           O1  tau(  29) = (   4.5938453   4.4726049   9.2879030  )
        30           O1  tau(  30) = (   1.9864658   4.4711199   9.2879459  )
        31           Ti1 tau(  31) = (   3.2891106   5.8743827   9.1763621  )
        32           Ti1 tau(  32) = (   0.0006254   4.4649316   9.2693709  )
        33           O1  tau(  33) = (   3.2987291   2.9703105  11.3060640  )
        34           O1  tau(  34) = (   0.0092240   2.9805883  10.6323155  )
        35           O1  tau(  35) = (   1.2872851   4.4534926  12.6272766  )
        36           O1  tau(  36) = (   5.2800973   4.4624318  12.6062822  )
        37           Ti1 tau(  37) = (   0.1009857   5.9355968  12.6779778  )
        38           Ti1 tau(  38) = (   3.4194502   4.4581092  12.4739500  )
        39           O1  tau(  39) = (   6.5579784   2.9468049  14.6267102  )
        40           O1  tau(  40) = (   3.2950467   2.9662764  13.8528306  )
        41           O1  tau(  41) = (   4.5369278   4.4531499  15.9976687  )
        42           O1  tau(  42) = (   2.0426393   4.4597293  15.9709435  )
        43           Ti1 tau(  43) = (   3.2485613   5.9322867  15.7552632  )
        44           Ti1 tau(  44) = (   6.5504849   4.5932964  16.0494500  )
        45           O1  tau(  45) = (   3.2900926   2.9813045   4.7018136  )
        46           O1  tau(  46) = (   1.3039711   4.4726057   6.0039043  )
        47           O1  tau(  47) = (   5.2763189   4.4711207   6.0039473  )
        48           N1  tau(  48) = (   0.6156314   2.9572148  18.5116157  )
        49           N1  tau(  49) = (   0.0870375   2.9560652  17.3203775  )
        50           C1  tau(  50) = (   6.5561155   3.1780822  19.6039678  )
        51           H1  tau(  51) = (   5.4868456   3.3930584  19.6151425  )
        52           H1  tau(  52) = (   0.5344647   3.1546629  20.5288580  )
        53           O1  tau(  53) = (   3.2552377   5.9566958  18.1335742  )
        54           H1  tau(  54) = (   4.0211122   0.5273114  18.4085372  )
        55           H1  tau(  55) = (   2.4596908   0.4732500  18.4230009  )

     number of k points=    10  Fermi-Dirac smearing, width (Ry)=  0.0073
                       cart. coord. in units 2pi/alat
        k(    1) = (   0.0000000   0.0000000   0.0000000), wk =   0.1250000
        k(    2) = (   0.0000000   0.0419351   0.0000000), wk =   0.2500000
        k(    3) = (   0.0000000  -0.0838702   0.0000000), wk =   0.1250000
        k(    4) = (   0.0379955   0.0000049   0.0000000), wk =   0.2500000
        k(    5) = (   0.0379955   0.0419400   0.0000000), wk =   0.2500000
        k(    6) = (   0.0379955  -0.0838652   0.0000000), wk =   0.2500000
        k(    7) = (   0.0379955  -0.0419301   0.0000000), wk =   0.2500000
        k(    8) = (  -0.0759910  -0.0000099   0.0000000), wk =   0.1250000
        k(    9) = (  -0.0759910   0.0419252   0.0000000), wk =   0.2500000
        k(   10) = (  -0.0759910  -0.0838800   0.0000000), wk =   0.1250000

     Initial potential from superposition of free atoms

     starting charge  385.99915, renormalised to  402.00000

     negative rho (up, down):  1.463E-02 0.000E+00

     %%%%%%%%%%%%%%%%%%%%%%%%%%%%%%%%%%%%%%%%%%%%%%%%%%%%%%%%%%%%%%%%%%%%%%%%
     %                                                                      %
     % You are using vdW-DF, which was implemented by the Thonhauser group. %
     % Please cite the following two papers that made this development      %
     % possible and the two reviews that describe the various versions:     %
     %                                                                      %
     %   T. Thonhauser et al., PRL 115, 136402 (2015).                      %
     %   T. Thonhauser et al., PRB 76, 125112 (2007).                       %
     %   K. Berland et al., Rep. Prog. Phys. 78, 066501 (2015).             %
     %   D.C. Langreth et al., J. Phys.: Condens. Matter 21, 084203 (2009). %
     %                                                                      %
     %                                                                      %
     % If you are calculating the stress with vdW-DF, please also cite:     %
     %                                                                      %
     %   R. Sabatini et al., J. Phys.: Condens. Matter 24, 424209 (2012).   %
     %                                                                      %
     %%%%%%%%%%%%%%%%%%%%%%%%%%%%%%%%%%%%%%%%%%%%%%%%%%%%%%%%%%%%%%%%%%%%%%%%

     Adding external electric field

     Computed dipole along edir(3) :
        Dipole              -11.9608 Ry au,        -30.4013 Debye
        Dipole field         -0.0226 Ry au,

        Potential amp.        2.0924 Ry
        Total length         46.3494 bohr

     Starting wfcs are  304 atomic wfcs
  @ DRIVER MODE: Message from server: STATUS
  @ DRIVER MODE: Message from server: POSDATA
  @ DRIVER MODE: Reading and sharing cell
  @ DRIVER MODE: Reading and sharing positions
  @ DRIVER MODE: Received positions

     Self-consistent Calculation

     iteration #  1     ecut=    29.40 Ry     beta= 0.05
     Davidson diagonalization with overlap
     c_bands:  3 eigenvalues not converged
     c_bands:  1 eigenvalues not converged
     c_bands:  5 eigenvalues not converged
     c_bands:  3 eigenvalues not converged
     c_bands:  3 eigenvalues not converged
     c_bands:  2 eigenvalues not converged
     c_bands:  4 eigenvalues not converged
     c_bands:  4 eigenvalues not converged
     c_bands:  3 eigenvalues not converged
     ethr =  1.00E-05,  avg # of iterations = 21.6

[...]

     total energy              =   -2415.33262817 Ry
     estimated scf accuracy    <    6284.07576976 Ry

     iteration #  2     ecut=    29.40 Ry     beta= 0.05
     Davidson diagonalization with overlap
     ethr =  1.00E-02,  avg # of iterations = 23.6

[...]

     iteration # 60     ecut=    29.40 Ry     beta= 0.05
     Davidson diagonalization with overlap
     c_bands:  1 eigenvalues not converged
     ethr =  8.42E-07,  avg # of iterations =  5.6

[...]

     total energy              =   -2972.73819965 Ry
     estimated scf accuracy    <       0.00000009 Ry

     iteration # 86     ecut=    29.40 Ry     beta= 0.05
     Davidson diagonalization with overlap
     ethr =  2.27E-11,  avg # of iterations =  5.0

     negative rho (up, down):  1.528E-02 0.000E+00

     Adding external electric field

     Computed dipole along edir(3) :
        Dipole                0.6737 Ry au,          1.7125 Debye
        Dipole field          0.0013 Ry au,

        Potential amp.       -0.1179 Ry
        Total length         46.3494 bohr

     End of self-consistent calculation

          k = 0.0000 0.0000 0.0000 ( 18029 PWs)   bands (ev):

   -56.1191 -56.0853 -55.6562 -55.6224 -55.5638 -55.5385 -55.5294 -55.5030
   -55.4180 -55.3689 -55.3289 -55.2595 -54.9355 -54.9015 -54.8568 -54.8186
   -32.5709 -32.4103 -32.3827 -32.2793 -32.1948 -32.1864 -32.1235 -32.0714
   -32.0501 -31.8994 -31.8756 -31.8722 -31.8393 -31.8382 -31.8206 -31.7867
   -31.7763 -31.7727 -31.7597 -31.7583 -31.7531 -31.7180 -31.7169 -31.7088
   -31.6754 -31.6725 -31.6590 -31.6479 -31.6279 -31.5969 -31.5391 -31.5369
   -31.5078 -31.4809 -31.4522 -31.4198 -31.3886 -31.3355 -31.2646 -31.2412
   -31.1531 -31.1111 -31.0693 -31.0678 -31.0535 -31.0276 -30.9566 -30.9430
   -18.6824 -17.4862 -16.4396 -16.2199 -15.9849 -15.7461 -15.6943 -15.5792
   -15.5659 -15.5572 -15.4451 -15.4268 -15.3708 -15.2643 -15.1945 -15.1586
   -15.1042 -15.0963 -15.0718 -14.9780 -14.9640 -14.9477 -14.9362 -14.8609
   -14.8190 -14.7982 -14.6913 -14.6244 -14.5578 -14.5299 -14.2337 -13.4356
   -13.3223 -11.6676  -6.5491  -6.4436  -4.4144  -3.9409  -3.9334  -3.7200
    -3.5582  -3.4565  -3.3281  -3.3110  -3.1833  -3.0754  -2.9441  -2.8847
    -2.8781  -2.8059  -2.7821  -2.7740  -2.6386  -2.5998  -2.5572  -2.5341
    -2.5035  -2.4266  -2.4142  -2.3588  -2.3175  -2.2840  -2.1784  -2.1399
    -2.0995  -2.0852  -2.0606  -2.0150  -1.9798  -1.9581  -1.9473  -1.9340
    -1.8958  -1.8030  -1.7533  -1.6552  -1.5986  -1.4992  -1.4539  -1.4397
    -1.3721  -1.2821  -1.1632  -1.1506  -1.0806  -1.0392  -0.9928  -0.9651
    -0.8917  -0.8833  -0.8126  -0.7726  -0.6993  -0.6481  -0.6162  -0.5931
    -0.5697  -0.4740  -0.4239  -0.3460  -0.2876  -0.2318  -0.2112  -0.1178
    -0.0885  -0.0566  -0.0319   0.0250   0.0679   0.0855   0.1061   0.1308
     0.1645   0.1888   0.3080   0.3614   0.3747   0.4085   0.4332   0.5431
     0.6038   0.6787   0.7378   0.7800   0.8814   0.8979   0.9420   1.0674
     1.0805   1.0867   1.1462   1.3046   1.6201   1.6448   1.6858   1.7746
     2.9514   3.1095   3.2260   3.4480   3.5460   3.5812   3.8469   3.9540
     3.9909   4.0171   4.0273

[...]

          k = 0.0380-0.0419 0.0000 ( 17876 PWs)   bands (ev):

[...]

          k =-0.0760-0.0000 0.0000 ( 17886 PWs)   bands (ev):

[...]

          k =-0.0760-0.0839 0.0000 ( 17948 PWs)   bands (ev):

   -56.1022 -56.1021 -55.6414 -55.6369 -55.5496 -55.5436 -55.5221 -55.5192
   -55.4160 -55.3588 -55.3390 -55.2614 -54.9185 -54.9183 -54.8462 -54.8290
   -32.3960 -32.3956 -32.3869 -32.3867 -32.2311 -32.2309 -31.9482 -31.9428
   -31.8932 -31.8914 -31.8890 -31.8679 -31.8318 -31.8269 -31.8082 -31.8069
   -31.7903 -31.7868 -31.7644 -31.7587 -31.7550 -31.7494 -31.7489 -31.7431
   -31.7093 -31.6701 -31.6649 -31.6583 -31.6326 -31.6208 -31.5853 -31.5720
   -31.5635 -31.5275 -31.5142 -31.4605 -31.2694 -31.2541 -31.2539 -31.1553
   -31.1496 -31.1493 -31.1105 -31.1105 -31.0717 -31.0578 -31.0386 -31.0122
   -18.6814 -17.4806 -15.8147 -15.8093 -15.7423 -15.7386 -15.6689 -15.6065
   -15.5069 -15.5031 -15.4595 -15.3716 -15.2939 -15.2747 -15.2053 -15.1987
   -15.1964 -15.1876 -15.1197 -15.1089 -15.0745 -15.0487 -15.0258 -15.0219
   -14.9917 -14.9700 -14.7573 -14.6988 -14.6347 -14.5580 -14.4093 -13.4251
   -13.4250 -11.6726  -6.5356  -6.4469  -4.3691  -3.9254  -3.1323  -3.0162
    -2.9353  -2.9238  -2.8981  -2.8035  -2.7841  -2.7358  -2.7095  -2.6886
    -2.6143  -2.6023  -2.5507  -2.5449  -2.5113  -2.4943  -2.4405  -2.4303
    -2.4203  -2.4152  -2.3663  -2.3309  -2.3268  -2.3163  -2.2945  -2.2245
    -2.1617  -2.1257  -2.0860  -2.0725  -2.0700  -2.0123  -1.9855  -1.9521
    -1.9012  -1.8972  -1.8629  -1.8122  -1.6825  -1.6718  -1.5408  -1.4696
    -1.4510  -1.3712  -1.3219  -1.2888  -1.2165  -1.1653  -1.1360  -1.0280
    -1.0062  -0.9754  -0.9612  -0.9264  -0.9217  -0.8812  -0.7735  -0.7528
    -0.7145  -0.7108  -0.6325  -0.6022  -0.5491  -0.5287  -0.5168  -0.4736
    -0.4549  -0.3729  -0.3493  -0.2936  -0.2388  -0.1962  -0.1453  -0.0939
    -0.0111   0.0556   0.1093   0.2002   0.2046   0.2155   0.4206   0.4262
     0.5262   0.6091   0.7352   0.7608   0.7759   0.8803   0.9196   0.9435
     0.9699   1.1343   1.1765   1.4707   1.4723   1.5021   1.5025   1.7258
     2.8917   3.6431   3.6433   3.6793   3.6806   3.9134   3.9176   3.9664
     3.9723   4.0281   4.0521

     the Fermi energy is     3.0510 ev

!    total energy              =   -2972.73820434 Ry
     estimated scf accuracy    <       0.00000004 Ry
     smearing contrib. (-TS)   =      -0.01266692 Ry
     internal energy E=F+TS    =   -2972.72553742 Ry

     The total energy is F=E-TS. E is the sum of the following terms:
     one-electron contribution =  -24071.36879062 Ry
     hartree contribution      =   12129.30103241 Ry
     xc contribution           =    -493.17788085 Ry
     ewald contribution        =    9462.51924503 Ry
     electric field correction =       0.00085662 Ry

     convergence has been achieved in  86 iterations

     Forces acting on atoms (cartesian axes, Ry/au):

     atom    1 type  1   force =     0.00013309   -0.00029624    0.10881005
     atom    2 type  1   force =    -0.00010470   -0.00041272   -0.16774796
     atom    3 type  2   force =    -0.00015648   -0.00000680   -0.04389970
     atom    4 type  2   force =     0.00004997   -0.00074770    0.03932846
     atom    5 type  2   force =    -0.01328914    0.00016791   -0.00458538
     atom    6 type  2   force =     0.01488613    0.00103953   -0.00541038
     atom    7 type  1   force =    -0.00093351   -0.00252151    0.01170998
     atom    8 type  1   force =     0.00125085    0.00155801    0.07748638
     atom    9 type  2   force =    -0.00005850   -0.00013922   -0.00026394
     atom   10 type  2   force =    -0.00114808    0.00038547   -0.05117765
     atom   11 type  2   force =    -0.00007345    0.00030468    0.00009162
     atom   12 type  2   force =    -0.00000887    0.00021632    0.00005340
     atom   13 type  1   force =     0.00043457   -0.00000038    0.00029050
     atom   14 type  1   force =    -0.00024400   -0.00005958    0.00019116
     atom   15 type  2   force =    -0.00020161   -0.00128998    0.00078285
     atom   16 type  2   force =     0.00013202   -0.00002995   -0.00008499
     atom   17 type  2   force =    -0.00142689    0.00020971   -0.00037714
     atom   18 type  2   force =     0.00090381    0.00012729   -0.00031056
     atom   19 type  1   force =     0.00040173   -0.00087257    0.00014150
     atom   20 type  1   force =    -0.00030493    0.00035233   -0.00087368
     atom   21 type  2   force =     0.00007973    0.00005650    0.10123559
     atom   22 type  2   force =    -0.00012662   -0.00171203    0.00008123
     atom   23 type  2   force =    -0.07509069   -0.00002533   -0.03015935
     atom   24 type  2   force =     0.07506439    0.00043174   -0.03015650
     atom   25 type  1   force =     0.00020800   -0.00028203    0.10848256
     atom   26 type  1   force =    -0.00009778   -0.00044265   -0.16777212
     atom   27 type  2   force =    -0.00002028   -0.00025380   -0.04290146
     atom   28 type  2   force =     0.00011466   -0.00047128    0.03869113
     atom   29 type  2   force =    -0.01360831    0.00094802   -0.00481668
     atom   30 type  2   force =     0.01513905    0.00121156   -0.00569059
     atom   31 type  1   force =    -0.00125002    0.00050199    0.00741457
     atom   32 type  1   force =     0.00132927   -0.00409421    0.07793506
     atom   33 type  2   force =    -0.00006113    0.00011227   -0.00029111
     atom   34 type  2   force =    -0.00138046    0.00034832   -0.05729538
     atom   35 type  2   force =    -0.00001478   -0.00045863   -0.00006418
     atom   36 type  2   force =    -0.00035785   -0.00020075   -0.00016444
     atom   37 type  1   force =    -0.00004258   -0.00005329   -0.00033489
     atom   38 type  1   force =    -0.00020174    0.00020704   -0.00007576
     atom   39 type  2   force =     0.00004513    0.00034995   -0.00086171
     atom   40 type  2   force =    -0.00001541    0.00032265    0.00015874
     atom   41 type  2   force =     0.00050301   -0.00018066    0.00030245
     atom   42 type  2   force =    -0.00085527   -0.00009749    0.00019539
     atom   43 type  1   force =     0.00031262    0.00145347    0.00015323
     atom   44 type  1   force =     0.00003379    0.00030389    0.00002371
     atom   45 type  2   force =     0.00006656    0.00003839    0.10118232
     atom   46 type  2   force =    -0.07507945    0.00004518   -0.03012065
     atom   47 type  2   force =     0.07505622    0.00047759   -0.03013419
     atom   48 type  3   force =     0.00020857   -0.00138842    0.00043183
     atom   49 type  3   force =     0.00032628    0.00422290    0.00105305
     atom   50 type  4   force =    -0.00025680    0.00029381   -0.00039738
     atom   51 type  5   force =     0.00009026    0.00017631   -0.00017285
     atom   52 type  5   force =    -0.00010498    0.00030673   -0.00001852
     atom   53 type  2   force =     0.00041626    0.00052247    0.00039744
     atom   54 type  5   force =    -0.00083343   -0.00087724   -0.00021073
     atom   55 type  5   force =     0.00016177    0.00022244   -0.00025427

     Total force =     0.390566     Total SCF correction =     0.000687
  @ DRIVER MODE: Message from server: STATUS
  @ DRIVER MODE: Message from server: GETFORCE
  @ DRIVER MODE: Returning v,forces,stress,ensemble

     Writing output data file ./calc.save/
  @ DRIVER MODE: Message from server: EXIT
  @ DRIVE MODE: Exiting

     General routines

     Parallel routines

   This run was terminated on:  18:41:46  15Sep2021

   JOB DONE.