     Program PWSCF v.6.7GPU starts on 19Oct2021 at  2:39:22

     R & G space division:  proc/nbgrp/npool/nimage =       8
     Reading input from /storage/home/hcoda1/3/ntian30/research/carbon/CxH_vib/Thiel_calc/ads_slab/NH2HNH_perslab/out_0032/pw.inp
Warning: card &CELL ignored
Warning: card   CELL_DYNAMICS='IPI', ignored
Warning: card / ignored

     Current dimensions of program PWSCF are:
     Max number of different atomic species (ntypx) = 10
     Max number of k-points (npk) =  40000
     Max angular momentum in pseudopotentials (lmaxx) =  3
     Presently no symmetry can be used with electric field

     Message from routine cell_base_init:
     DEPRECATED: use true lattice parameter, not A to a.u. conversion factor

     IMPORTANT: XC functional enforced from input :
     Exchange-correlation= BEEF-VDW
                           (   1   4  43  14   2   0   0)
     Any further DFT definition will be discarded
     Please, verify this is what you really want

  @ DRIVER MODE: Connecting to
 qe_1139763_3255135.sched-torque.pace.gatech.edu6l7b7ser_scratch
  using UNIX socket
  @ DRIVER MODE: Message from server: STATUS
  @ DRIVER MODE: Message from server: INIT
  @ DRIVER MODE: Receiving replica           0          -1
  @ DRIVER MODE: Receiving encoded integer          25
  @ DRIVER MODE:  SCF:  T  FORCE:  T  STRESS:  F  VC:  F  ENSEMBLE:  F
  @ DRIVER MODE:  SCF:  T  FORCE:  T  STRESS:  F  VC:  F  ENSEMBLE:  F

     Using Slab Decomposition

     bravais-lattice index     =            0
     lattice parameter (alat)  =       1.8897  a.u.
     unit-cell volume          =    9988.4706 (a.u.)^3
     number of atoms/cell      =           59
     number of atomic types    =            4
     number of electrons       =       440.00
     number of Kohn-Sham states=          230
     kinetic-energy cutoff     =      29.3995  Ry
     charge density cutoff     =     293.9946  Ry
     scf convergence threshold =      7.3E-08
     mixing beta               =       0.0500
     number of iterations used =            8  plain     mixing
     Exchange-correlation= BEEF-VDW
                           (   1   4  43  14   2   0   0)

     celldm(1)=   1.889726  celldm(2)=   0.000000  celldm(3)=   0.000000
     celldm(4)=   0.000000  celldm(5)=   0.000000  celldm(6)=   0.000000

     crystal axes: (cart. coord. in units of alat)
               a(1) = (   6.579727   0.000000   0.000000 )
               a(2) = (  -0.001163   8.942395   0.000000 )
               a(3) = (   0.000000   0.000000  25.155947 )

     reciprocal axes: (cart. coord. in units 2 pi/alat)
               b(1) = (  0.151982  0.000020  0.000000 )
               b(2) = (  0.000000  0.111827  0.000000 )
               b(3) = (  0.000000  0.000000  0.039752 )

     PseudoPot. # 1 for O  read from file:
     /storage/coda1/p-amedford6/0/shared/rich_project_chbe-medford/medford-share/data/pseudos_module/espresso/nninc/pbe/van/O.UPF
     MD5 check sum: 78c19812648e8988a0fe644b0f25305e
     Pseudo is Ultrasoft, Zval =  6.0
     Generated by new atomic code, or converted to UPF format
     Using radial grid of  737 points,  4 beta functions with:
                l(1) =   0
                l(2) =   0
                l(3) =   1
                l(4) =   1
     Q(r) pseudized with  8 coefficients,  rinner =    0.800   0.800   0.800

     PseudoPot. # 2 for Ti read from file:
     /storage/coda1/p-amedford6/0/shared/rich_project_chbe-medford/medford-share/data/pseudos_module/espresso/nninc/pbe/van/Ti.UPF
     MD5 check sum: 8e4df49b7f0d34bbd5052bf3f5ea0213
     Pseudo is Ultrasoft, Zval = 12.0
     Generated by new atomic code, or converted to UPF format
     Using radial grid of  851 points,  6 beta functions with:
                l(1) =   0
                l(2) =   0
                l(3) =   1
                l(4) =   1
                l(5) =   2
                l(6) =   2
     Q(r) pseudized with  8 coefficients,  rinner =    1.000   1.000   1.000
                                                       1.000   1.000

     PseudoPot. # 3 for H  read from file:
     /storage/coda1/p-amedford6/0/shared/rich_project_chbe-medford/medford-share/data/pseudos_module/espresso/nninc/pbe/van/H.UPF
     MD5 check sum: b5ee9d7bfd3a09ee7748110bda690ff7
     Pseudo is Ultrasoft, Zval =  1.0
     Generated by new atomic code, or converted to UPF format
     Using radial grid of  615 points,  1 beta functions with:
                l(1) =   0
     Q(r) pseudized with  8 coefficients,  rinner =    0.800

     PseudoPot. # 4 for N  read from file:
     /storage/coda1/p-amedford6/0/shared/rich_project_chbe-medford/medford-share/data/pseudos_module/espresso/nninc/pbe/van/N.UPF
     MD5 check sum: 90d10febe142ad51ac9d5be1deb811c4
     Pseudo is Ultrasoft, Zval =  5.0
     Generated by new atomic code, or converted to UPF format
     Using radial grid of  729 points,  4 beta functions with:
                l(1) =   0
                l(2) =   0
                l(3) =   1
                l(4) =   1
     Q(r) pseudized with  8 coefficients,  rinner =    0.800   0.800   0.800

     atomic species   valence    mass     pseudopotential
        O1             6.00    15.99900     O ( 1.00)
        Ti1           12.00    47.86700     Ti( 1.00)
        H1             1.00     1.00800     H ( 1.00)
        N1             5.00    14.00700     N ( 1.00)

     No symmetry found

   Cartesian axes

     site n.     atom                  positions (alat units)
         1           O1  tau(   1) = (   0.0007354   0.0005023  10.5931620  )
         2           O1  tau(   2) = (   3.2891522   8.9193323  13.7813865  )
         3           O1  tau(   3) = (  -0.0003195   8.9357148  17.1597790  )
         4           O1  tau(   4) = (   0.0006271   0.0005054   7.9858123  )
         5           O1  tau(   5) = (   3.2896276   8.9330874  11.1456747  )
         6           O1  tau(   6) = (   0.0000757   8.8957392  14.5326415  )
         7           O1  tau(   7) = (   1.9868534   1.4903216   9.2879459  )
         8           O1  tau(   8) = (   5.2085136   1.5567490  12.5272226  )
         9           O1  tau(   9) = (   2.0368910   1.4086519  15.9478609  )
        10           Ti1 tau(  10) = (   0.0007404   1.4906270   9.2895810  )
        11           Ti1 tau(  11) = (   3.2920048   1.2896434  12.4335303  )
        12           Ti1 tau(  12) = (   0.0003947   1.7483972  15.9485354  )
        13           O1  tau(  13) = (   4.5942328   1.4918067   9.2879030  )
        14           O1  tau(  14) = (   1.3734151   1.5562871  12.5269411  )
        15           O1  tau(  15) = (   4.5446063   1.4075665  15.9467422  )
        16           Ti1 tau(  16) = (   3.2902859   2.9801868   9.2893338  )
        17           Ti1 tau(  17) = (   0.0022843   2.7629733  12.5422407  )
        18           Ti1 tau(  18) = (   3.2887740   3.1097933  15.6402895  )
        19           O1  tau(  19) = (   0.0003479   2.9813005  10.5931620  )
        20           O1  tau(  20) = (   3.2903674   2.9527630  13.7969158  )
        21           O1  tau(  21) = (   0.0002396   2.9813036   7.9858123  )
        22           O1  tau(  22) = (   3.2906228   2.9775883  11.1663003  )
        23           O1  tau(  23) = (   0.0006598   2.9368866  14.5305733  )
        24           O1  tau(  24) = (   1.9864658   4.4711199   9.2879459  )
        25           O1  tau(  25) = (   5.2231876   4.5386380  12.5467233  )
        26           O1  tau(  26) = (   2.0248981   4.3679406  15.9930346  )
        27           Ti1 tau(  27) = (   0.0003529   4.4714252   9.2895810  )
        28           Ti1 tau(  28) = (   3.2918124   4.3135021  12.5344809  )
        29           Ti1 tau(  29) = (   6.5788423   4.6929592  16.0739603  )
        30           O1  tau(  30) = (   4.5938453   4.4726049   9.2879030  )
        31           O1  tau(  31) = (   1.3570704   4.5373869  12.5465102  )
        32           O1  tau(  32) = (   4.5538814   4.3671241  15.9936543  )
        33           Ti1 tau(  33) = (   3.2898983   5.9609850   9.2893338  )
        34           Ti1 tau(  34) = (   0.0013264   5.7428985  12.5110789  )
        35           Ti1 tau(  35) = (   3.2898306   6.0937744  16.2866611  )
        36           O1  tau(  36) = (  -0.0000397   5.9620987  10.5931620  )
        37           O1  tau(  37) = (   3.2897329   5.8964334  13.7986068  )
        38           O1  tau(  38) = (  -0.0007474   6.0119579  17.1634496  )
        39           O1  tau(  39) = (  -0.0001480   5.9621018   7.9858123  )
        40           O1  tau(  40) = (   3.2898370   5.9388437  11.1687384  )
        41           O1  tau(  41) = (  -0.0001539   5.9931028  14.5676369  )
        42           O1  tau(  42) = (   1.9860782   7.4519181   9.2879459  )
        43           O1  tau(  43) = (   5.2258842   7.5046952  12.5406166  )
        44           O1  tau(  44) = (   2.0242945   7.4351242  16.0034066  )
        45           Ti1 tau(  45) = (  -0.0000347   7.4522234   9.2895810  )
        46           Ti1 tau(  46) = (   3.2896699   7.1866417  12.6007890  )
        47           Ti1 tau(  47) = (   0.0000787   7.5542351  15.7482610  )
        48           O1  tau(  48) = (   4.5934577   7.4534031   9.2879030  )
        49           O1  tau(  49) = (   1.3527639   7.5038087  12.5404143  )
        50           O1  tau(  50) = (   4.5545665   7.4356877  16.0029592  )
        51           Ti1 tau(  51) = (   3.2895107   8.9417832   9.2893338  )
        52           Ti1 tau(  52) = (  -0.0005703   8.7121504  12.4856418  )
        53           Ti1 tau(  53) = (   3.2909615   0.1005107  15.6284087  )
        54           H1  tau(  54) = (   6.5785809   3.1351568  18.2688824  )
        55           H1  tau(  55) = (   6.5783155   8.7923607  18.1116139  )
        56           N1  tau(  56) = (  -0.0001347   2.9716693  17.2674093  )
        57           N1  tau(  57) = (   3.2897564   5.9921341  18.1800631  )
        58           H1  tau(  58) = (   3.2887465   5.1266479  18.7045293  )
        59           H1  tau(  59) = (   3.2992443   6.7858760  18.8071070  )

     number of k points=    10  Fermi-Dirac smearing, width (Ry)=  0.0073
                       cart. coord. in units 2pi/alat
        k(    1) = (   0.0000000   0.0000000   0.0000000), wk =   0.1250000
        k(    2) = (   0.0000000   0.0279567   0.0000000), wk =   0.2500000
        k(    3) = (   0.0000000  -0.0559134   0.0000000), wk =   0.1250000
        k(    4) = (   0.0379955   0.0000049   0.0000000), wk =   0.2500000
        k(    5) = (   0.0379955   0.0279617   0.0000000), wk =   0.2500000
        k(    6) = (   0.0379955  -0.0559085   0.0000000), wk =   0.2500000
        k(    7) = (   0.0379955  -0.0279518   0.0000000), wk =   0.2500000
        k(    8) = (  -0.0759910  -0.0000099   0.0000000), wk =   0.1250000
        k(    9) = (  -0.0759910   0.0279468   0.0000000), wk =   0.2500000
        k(   10) = (  -0.0759910  -0.0559233   0.0000000), wk =   0.1250000

     Initial potential from superposition of free atoms

     starting charge  421.99910, renormalised to  440.00000

     negative rho (up, down):  3.702E-02 0.000E+00

     %%%%%%%%%%%%%%%%%%%%%%%%%%%%%%%%%%%%%%%%%%%%%%%%%%%%%%%%%%%%%%%%%%%%%%%%
     %                                                                      %
     % You are using vdW-DF, which was implemented by the Thonhauser group. %
     % Please cite the following two papers that made this development      %
     % possible and the two reviews that describe the various versions:     %
     %                                                                      %
     %   T. Thonhauser et al., PRL 115, 136402 (2015).                      %
     %   T. Thonhauser et al., PRB 76, 125112 (2007).                       %
     %   K. Berland et al., Rep. Prog. Phys. 78, 066501 (2015).             %
     %   D.C. Langreth et al., J. Phys.: Condens. Matter 21, 084203 (2009). %
     %                                                                      %
     %                                                                      %
     % If you are calculating the stress with vdW-DF, please also cite:     %
     %                                                                      %
     %   R. Sabatini et al., J. Phys.: Condens. Matter 24, 424209 (2012).   %
     %                                                                      %
     %%%%%%%%%%%%%%%%%%%%%%%%%%%%%%%%%%%%%%%%%%%%%%%%%%%%%%%%%%%%%%%%%%%%%%%%

     Adding external electric field

     Computed dipole along edir(3) :
        Dipole               -3.9424 Ry au,        -10.0206 Debye
        Dipole field         -0.0050 Ry au,

        Potential amp.        0.4598 Ry
        Total length         46.3494 bohr

     Starting wfcs are  332 atomic wfcs
  @ DRIVER MODE: Message from server: STATUS
  @ DRIVER MODE: Message from server: POSDATA
  @ DRIVER MODE: Reading and sharing cell
  @ DRIVER MODE: Reading and sharing positions
  @ DRIVER MODE: Received positions

     Self-consistent Calculation

     iteration #  1     ecut=    29.40 Ry     beta= 0.05
     Davidson diagonalization with overlap
     c_bands:  1 eigenvalues not converged
     c_bands:  2 eigenvalues not converged
     c_bands:  4 eigenvalues not converged
     c_bands:  2 eigenvalues not converged
     c_bands:  2 eigenvalues not converged
     c_bands:  2 eigenvalues not converged
     c_bands:  4 eigenvalues not converged
     c_bands:  3 eigenvalues not converged
     c_bands:  2 eigenvalues not converged
     ethr =  1.00E-05,  avg # of iterations = 19.2

[...]

     total energy              =   -3294.67560307 Ry
     estimated scf accuracy    <      19.62355178 Ry

     iteration #  2     ecut=    29.40 Ry     beta= 0.05
     Davidson diagonalization with overlap
     ethr =  4.46E-03,  avg # of iterations =  1.0

[...]

     iteration # 34     ecut=    29.40 Ry     beta= 0.05
     Davidson diagonalization with overlap
     c_bands:  1 eigenvalues not converged
     ethr =  1.96E-06,  avg # of iterations = 15.3

[...]

     total energy              =   -3293.29237606 Ry
     estimated scf accuracy    <       0.00000021 Ry

     iteration # 74     ecut=    29.40 Ry     beta= 0.05
     Davidson diagonalization with overlap
     ethr =  4.78E-11,  avg # of iterations =  5.0

     negative rho (up, down):  3.602E-02 0.000E+00

     Adding external electric field

     Computed dipole along edir(3) :
        Dipole                1.2932 Ry au,          3.2869 Debye
        Dipole field          0.0016 Ry au,

        Potential amp.       -0.1508 Ry
        Total length         46.3494 bohr

     End of self-consistent calculation

          k = 0.0000 0.0000 0.0000 ( 26871 PWs)   bands (ev):

   -58.2969 -58.2730 -58.2692 -58.2097 -58.1614 -57.7934 -57.7732 -57.7571
   -57.6217 -57.5917 -57.5712 -57.5131 -57.4889 -56.8990 -56.8773 -56.8514
   -56.8423 -56.8364 -34.6880 -34.6610 -34.6308 -34.6190 -34.6135 -34.6084
   -34.5456 -34.4822 -34.4721 -34.4095 -34.4054 -34.4025 -34.3887 -34.3584
   -34.3335 -34.1959 -34.1498 -34.1448 -34.1246 -34.0960 -34.0826 -34.0780
   -34.0576 -34.0205 -34.0087 -33.9630 -33.9187 -33.8741 -33.8598 -33.8503
   -33.8349 -33.8268 -33.7800 -33.7570 -33.7490 -33.7430 -33.6966 -33.6908
   -33.6778 -33.3605 -33.2220 -33.2121 -33.2020 -33.1876 -33.1808 -33.1743
   -33.1626 -33.1173 -33.0850 -33.0795 -33.0265 -33.0252 -33.0081 -32.8850
   -18.9128 -18.8267 -18.3714 -18.2959 -18.1744 -18.1192 -18.1129 -18.0476
   -17.9447 -17.7236 -17.6832 -17.6744 -17.6463 -17.5386 -17.5305 -17.5272
   -17.4932 -17.4861 -17.4737 -17.3859 -17.3270 -17.3145 -17.3086 -17.3083
   -17.1995 -17.1750 -17.1231 -17.0572 -17.0448 -16.9490 -16.7644 -16.4314
   -15.3532 -15.3125 -15.3028 -15.1566 -13.6003  -6.9788  -6.6266  -6.1789
    -5.9852  -5.7752  -5.6370  -5.5221  -5.4691  -5.3767  -5.3106  -5.2857
    -5.2683  -5.2283  -5.1944  -5.1677  -5.0648  -5.0549  -4.9738  -4.9194
    -4.8738  -4.8278  -4.7854  -4.7389  -4.7367  -4.6974  -4.6283  -4.6176
    -4.5829  -4.5355  -4.5067  -4.4984  -4.4431  -4.4147  -4.3936  -4.2739
    -4.2594  -4.1918  -4.1803  -4.1729  -4.0679  -4.0610  -4.0176  -3.9868
    -3.9808  -3.9613  -3.9108  -3.8312  -3.8029  -3.6438  -3.6211  -3.6116
    -3.5196  -3.3809  -3.3671  -3.3230  -3.2034  -3.1363  -3.1123  -3.0770
    -3.0569  -3.0395  -3.0165  -3.0048  -2.9714  -2.8769  -2.8760  -2.8148
    -2.8125  -2.7976  -2.7757  -2.7703  -2.7309  -2.6583  -2.5991  -2.5865
    -2.5653  -2.5476  -2.4611  -2.4469  -2.3560  -2.3407  -2.2845  -2.2422
    -2.2363  -2.1706  -2.0958  -2.0881  -2.0241  -1.9996  -1.8259  -1.8008
    -1.7230  -1.7175  -1.6511  -1.6243  -1.6014  -1.5491  -1.4245  -1.3934
    -1.2979  -1.1861  -1.0219  -0.7820  -0.5917  -0.5700  -0.5609  -0.5287
    -0.4352  -0.3821  -0.3662  -0.2711   0.9813   1.1273   1.2803   1.3020
     1.4956   1.6052   1.6178   1.6730   1.7518   1.8501

[...]

          k = 0.0380-0.0280 0.0000 ( 26873 PWs)   bands (ev):

[...]

          k =-0.0760-0.0000 0.0000 ( 26902 PWs)   bands (ev):

[...]

          k =-0.0760-0.0559 0.0000 ( 26868 PWs)   bands (ev):

   -58.2902 -58.2862 -58.2625 -58.2096 -58.1615 -57.7933 -57.7727 -57.7575
   -57.6201 -57.5951 -57.5694 -57.5130 -57.4889 -56.8991 -56.8744 -56.8573
   -56.8422 -56.8334 -34.7134 -34.7095 -34.6632 -34.6387 -34.6057 -34.4975
   -34.4827 -34.4486 -34.4455 -34.4329 -34.4264 -34.4066 -34.3845 -34.3811
   -34.3604 -34.2312 -34.1724 -34.1671 -34.1391 -34.1217 -34.0784 -34.0024
   -33.9985 -33.9984 -33.9644 -33.9272 -33.9204 -33.9063 -33.8983 -33.8749
   -33.8657 -33.8497 -33.7750 -33.7664 -33.7390 -33.7134 -33.7129 -33.6947
   -33.6890 -33.3362 -33.2636 -33.2230 -33.2183 -33.2077 -33.1846 -33.1765
   -33.1242 -33.0804 -33.0719 -33.0530 -33.0305 -32.9960 -32.9895 -32.9725
   -18.8912 -18.6216 -18.4742 -18.2382 -18.1380 -17.9742 -17.8913 -17.8786
   -17.8607 -17.8597 -17.7607 -17.7496 -17.6988 -17.6739 -17.6308 -17.6212
   -17.6090 -17.5721 -17.5658 -17.4524 -17.3619 -17.3528 -17.2574 -17.2423
   -17.2151 -17.1535 -17.1355 -17.0457 -17.0265 -16.9538 -16.7724 -16.4161
   -15.3642 -15.3525 -15.2421 -15.1573 -13.5973  -6.9509  -6.6277  -5.9496
    -5.7548  -5.7204  -5.6698  -5.3494  -5.3119  -5.2274  -5.2019  -5.1629
    -5.1377  -5.1235  -5.0934  -5.0821  -5.0069  -4.9700  -4.9610  -4.9572
    -4.9141  -4.8952  -4.8468  -4.8256  -4.7758  -4.7551  -4.7469  -4.7127
    -4.6687  -4.6502  -4.5756  -4.5702  -4.4972  -4.4575  -4.3185  -4.2349
    -4.2096  -4.1800  -4.0834  -4.0697  -4.0368  -3.9410  -3.9251  -3.9045
    -3.7768  -3.7420  -3.6327  -3.6169  -3.5676  -3.5445  -3.5169  -3.4893
    -3.4249  -3.3827  -3.3666  -3.3616  -3.3275  -3.2591  -3.2289  -3.2124
    -3.1807  -3.1626  -3.1523  -3.1416  -3.0754  -3.0587  -3.0289  -2.9894
    -2.9282  -2.9040  -2.8486  -2.8478  -2.7866  -2.7471  -2.6926  -2.6866
    -2.6145  -2.5924  -2.5862  -2.5783  -2.4775  -2.4518  -2.4439  -2.3026
    -2.1640  -2.1127  -2.0697  -1.9664  -1.9085  -1.9048  -1.8808  -1.8128
    -1.7881  -1.7048  -1.6501  -1.6265  -1.6192  -1.5937  -1.3748  -1.3448
    -1.3331  -1.2900  -1.2259  -1.1315  -0.8122  -0.5925  -0.5795  -0.4993
    -0.4763  -0.4233  -0.4020  -0.3875   1.0305   1.2054   1.2770   1.3702
     1.3709   1.4035   1.4532   1.6191   1.6525   1.7063

     the Fermi energy is     0.3882 ev

!    total energy              =   -3293.29238515 Ry
     estimated scf accuracy    <       0.00000006 Ry
     smearing contrib. (-TS)   =      -0.00047755 Ry
     internal energy E=F+TS    =   -3293.29190760 Ry

     The total energy is F=E-TS. E is the sum of the following terms:
     one-electron contribution =  -34638.96503128 Ry
     hartree contribution      =   17383.77559833 Ry
     xc contribution           =    -542.08665118 Ry
     ewald contribution        =   14503.98207268 Ry
     electric field correction =       0.00210385 Ry

     convergence has been achieved in  74 iterations

     Forces acting on atoms (cartesian axes, Ry/au):

     atom    1 type  1   force =     0.00000862    0.00245315    0.04674476
     atom    2 type  1   force =     0.00001726   -0.00342095   -0.00288118
     atom    3 type  1   force =    -0.00005367    0.00325967   -0.00098726
     atom    4 type  1   force =     0.00005096   -0.00098071    0.10172415
     atom    5 type  1   force =    -0.00000912   -0.00072593    0.00563235
     atom    6 type  1   force =    -0.00002765    0.00367986    0.00080945
     atom    7 type  1   force =     0.07819557    0.00086233   -0.03540006
     atom    8 type  1   force =     0.00833498   -0.02588951    0.00018274
     atom    9 type  1   force =     0.00849267    0.02068577    0.00126992
     atom   10 type  2   force =    -0.00006156    0.00867737   -0.15836757
     atom   11 type  2   force =    -0.00003798    0.02309560   -0.00230584
     atom   12 type  2   force =     0.00005682   -0.02561262   -0.00431284
     atom   13 type  1   force =    -0.07828826    0.00040554   -0.03538906
     atom   14 type  1   force =    -0.00838156   -0.02580274    0.00018984
     atom   15 type  1   force =    -0.00842873    0.02080488    0.00131265
     atom   16 type  2   force =     0.00012851    0.00087000    0.07317889
     atom   17 type  2   force =     0.00006105    0.03072568    0.00239436
     atom   18 type  2   force =     0.00002228   -0.02689691    0.00067004
     atom   19 type  1   force =     0.00004084    0.00299920    0.05012431
     atom   20 type  1   force =    -0.00002382   -0.00127285   -0.00144534
     atom   21 type  1   force =     0.00005109   -0.00064562    0.10020780
     atom   22 type  1   force =    -0.00001610   -0.00180145    0.00545929
     atom   23 type  1   force =    -0.00001726    0.00237761    0.00380807
     atom   24 type  1   force =     0.07914650    0.00064879   -0.03605525
     atom   25 type  1   force =     0.00924491   -0.02949658    0.00062197
     atom   26 type  1   force =     0.00849122    0.02165450    0.00329177
     atom   27 type  2   force =    -0.00006837   -0.00813805   -0.15491996
     atom   28 type  2   force =    -0.00000702    0.02628251   -0.00224050
     atom   29 type  2   force =     0.00000426   -0.02439866   -0.00336923
     atom   30 type  1   force =    -0.07923602    0.00023981   -0.03604986
     atom   31 type  1   force =    -0.00925015   -0.02942640    0.00063005
     atom   32 type  1   force =    -0.00841689    0.02156380    0.00318101
     atom   33 type  2   force =     0.00013224   -0.00256295    0.07886367
     atom   34 type  2   force =     0.00004765    0.03584819    0.00273687
     atom   35 type  2   force =    -0.00004083   -0.02922015    0.00300216
     atom   36 type  1   force =     0.00004202    0.00307339    0.05240988
     atom   37 type  1   force =     0.00000364   -0.00188238   -0.00282836
     atom   38 type  1   force =    -0.00005391    0.00201906    0.00084826
     atom   39 type  1   force =     0.00004695    0.00287318    0.10112818
     atom   40 type  1   force =    -0.00000953   -0.00170438    0.00619441
     atom   41 type  1   force =    -0.00003819    0.00299868    0.00387707
     atom   42 type  1   force =     0.07825818    0.00076373   -0.03487594
     atom   43 type  1   force =     0.00660523   -0.02305116   -0.00020210
     atom   44 type  1   force =     0.01103759    0.02227553   -0.00728032
     atom   45 type  2   force =    -0.00006220   -0.00550533   -0.16464152
     atom   46 type  2   force =    -0.00008512    0.01958206    0.00099015
     atom   47 type  2   force =     0.00020482   -0.01855343    0.00736421
     atom   48 type  1   force =    -0.07835435    0.00031369   -0.03485835
     atom   49 type  1   force =    -0.00664886   -0.02301605   -0.00020183
     atom   50 type  1   force =    -0.01121962    0.02198143   -0.00700694
     atom   51 type  2   force =     0.00012611   -0.00436355    0.06096475
     atom   52 type  2   force =     0.00012689    0.02964797    0.00358195
     atom   53 type  2   force =    -0.00019381   -0.02500111    0.00092673
     atom   54 type  3   force =    -0.00000585    0.00077204   -0.00012672
     atom   55 type  3   force =     0.00001700   -0.00009711    0.00014264
     atom   56 type  4   force =    -0.00001854    0.00701088    0.00057366
     atom   57 type  4   force =     0.00015237   -0.00040902    0.00056133
     atom   58 type  3   force =    -0.00006586   -0.00012301   -0.00004379
     atom   59 type  3   force =    -0.00002739   -0.00044729    0.00019047

     Total force =     0.437310     Total SCF correction =     0.000587
  @ DRIVER MODE: Message from server: STATUS
  @ DRIVER MODE: Message from server: GETFORCE
  @ DRIVER MODE: Returning v,forces,stress,ensemble

     Writing output data file ./calc.save/
  @ DRIVER MODE: Message from server: EXIT
  @ DRIVE MODE: Exiting

     General routines

     Parallel routines

   This run was terminated on:   3:13:48  19Oct2021

   JOB DONE.