     Program PWSCF v.6.7GPU starts on 23Sep2021 at 13:50:49

     R & G space division:  proc/nbgrp/npool/nimage =       8
     Reading input from /storage/home/hcoda1/3/ntian30/research/carbon/CxH_vib/H2O_calc/ads_slab/CH3NHHHO_a/out_0008/pw.inp
Warning: card &CELL ignored
Warning: card   CELL_DYNAMICS='IPI', ignored
Warning: card / ignored

     Current dimensions of program PWSCF are:
     Max number of different atomic species (ntypx) = 10
     Max number of k-points (npk) =  40000
     Max angular momentum in pseudopotentials (lmaxx) =  3
     Presently no symmetry can be used with electric field

     Message from routine cell_base_init:
     DEPRECATED: use true lattice parameter, not A to a.u. conversion factor

     IMPORTANT: XC functional enforced from input :
     Exchange-correlation= BEEF-VDW
                           (   1   4  43  14   2   0   0)
     Any further DFT definition will be discarded
     Please, verify this is what you really want

  @ DRIVER MODE: Connecting to
 qe_1139763_2947311.sched-torque.pace.gatech.edurayge6co_scratch
  using UNIX socket
  @ DRIVER MODE: Message from server: STATUS
  @ DRIVER MODE: Message from server: INIT
  @ DRIVER MODE: Receiving replica           0          -1
  @ DRIVER MODE: Receiving encoded integer          25
  @ DRIVER MODE:  SCF:  T  FORCE:  T  STRESS:  F  VC:  F  ENSEMBLE:  F
  @ DRIVER MODE:  SCF:  T  FORCE:  T  STRESS:  F  VC:  F  ENSEMBLE:  F

     Using Slab Decomposition

     bravais-lattice index     =            0
     lattice parameter (alat)  =       1.8897  a.u.
     unit-cell volume          =    6658.9804 (a.u.)^3
     number of atoms/cell      =           56
     number of atomic types    =            5
     number of electrons       =       399.00
     number of Kohn-Sham states=          209
     kinetic-energy cutoff     =      29.3995  Ry
     charge density cutoff     =     293.9946  Ry
     scf convergence threshold =      7.3E-08
     mixing beta               =       0.0500
     number of iterations used =            8  plain     mixing
     Exchange-correlation= BEEF-VDW
                           (   1   4  43  14   2   0   0)

     celldm(1)=   1.889726  celldm(2)=   0.000000  celldm(3)=   0.000000
     celldm(4)=   0.000000  celldm(5)=   0.000000  celldm(6)=   0.000000

     crystal axes: (cart. coord. in units of alat)
               a(1) = (   6.579727   0.000000   0.000000 )
               a(2) = (  -0.000775   5.961596   0.000000 )
               a(3) = (   0.000000   0.000000  25.155947 )

     reciprocal axes: (cart. coord. in units 2 pi/alat)
               b(1) = (  0.151982  0.000020  0.000000 )
               b(2) = (  0.000000  0.167740  0.000000 )
               b(3) = (  0.000000  0.000000  0.039752 )

     PseudoPot. # 1 for Ti read from file:
     /storage/coda1/p-amedford6/0/shared/rich_project_chbe-medford/medford-share/data/pseudos_module/espresso/nninc/pbe/van/Ti.UPF
     MD5 check sum: 8e4df49b7f0d34bbd5052bf3f5ea0213
     Pseudo is Ultrasoft, Zval = 12.0
     Generated by new atomic code, or converted to UPF format
     Using radial grid of  851 points,  6 beta functions with:
                l(1) =   0
                l(2) =   0
                l(3) =   1
                l(4) =   1
                l(5) =   2
                l(6) =   2
     Q(r) pseudized with  8 coefficients,  rinner =    1.000   1.000   1.000
                                                       1.000   1.000

     PseudoPot. # 2 for O  read from file:
     /storage/coda1/p-amedford6/0/shared/rich_project_chbe-medford/medford-share/data/pseudos_module/espresso/nninc/pbe/van/O.UPF
     MD5 check sum: 78c19812648e8988a0fe644b0f25305e
     Pseudo is Ultrasoft, Zval =  6.0
     Generated by new atomic code, or converted to UPF format
     Using radial grid of  737 points,  4 beta functions with:
                l(1) =   0
                l(2) =   0
                l(3) =   1
                l(4) =   1
     Q(r) pseudized with  8 coefficients,  rinner =    0.800   0.800   0.800

     PseudoPot. # 3 for N  read from file:
     /storage/coda1/p-amedford6/0/shared/rich_project_chbe-medford/medford-share/data/pseudos_module/espresso/nninc/pbe/van/N.UPF
     MD5 check sum: 90d10febe142ad51ac9d5be1deb811c4
     Pseudo is Ultrasoft, Zval =  5.0
     Generated by new atomic code, or converted to UPF format
     Using radial grid of  729 points,  4 beta functions with:
                l(1) =   0
                l(2) =   0
                l(3) =   1
                l(4) =   1
     Q(r) pseudized with  8 coefficients,  rinner =    0.800   0.800   0.800

     PseudoPot. # 4 for C  read from file:
     /storage/coda1/p-amedford6/0/shared/rich_project_chbe-medford/medford-share/data/pseudos_module/espresso/nninc/pbe/van/C.UPF
     MD5 check sum: 1a69bf6b8db32088f5b2163dbdb77a27
     Pseudo is Ultrasoft, Zval =  4.0
     Generated by new atomic code, or converted to UPF format
     Using radial grid of  721 points,  4 beta functions with:
                l(1) =   0
                l(2) =   0
                l(3) =   1
                l(4) =   1
     Q(r) pseudized with  8 coefficients,  rinner =    0.800   0.800   0.800

     PseudoPot. # 5 for H  read from file:
     /storage/coda1/p-amedford6/0/shared/rich_project_chbe-medford/medford-share/data/pseudos_module/espresso/nninc/pbe/van/H.UPF
     MD5 check sum: b5ee9d7bfd3a09ee7748110bda690ff7
     Pseudo is Ultrasoft, Zval =  1.0
     Generated by new atomic code, or converted to UPF format
     Using radial grid of  615 points,  1 beta functions with:
                l(1) =   0
     Q(r) pseudized with  8 coefficients,  rinner =    0.800

     atomic species   valence    mass     pseudopotential
        Ti1           12.00    47.86700     Ti( 1.00)
        O1             6.00    15.99900     O ( 1.00)
        N1             5.00    14.00700     N ( 1.00)
        C1             4.00    12.01100     C ( 1.00)
        H1             1.00     1.00800     H ( 1.00)

     No symmetry found

   Cartesian axes

     site n.     atom                  positions (alat units)
         1           Ti1 tau(   1) = (   0.0004258   2.9801865   6.0000000  )
         2           Ti1 tau(   2) = (   3.2906075   1.4906267   6.0002472  )
         3           O1  tau(   3) = (   0.0006271   0.0005054   7.9858123  )
         4           O1  tau(   4) = (   3.2906025   0.0005020   7.3038282  )
         5           O1  tau(   5) = (   4.5942328   1.4918067   9.2879030  )
         6           O1  tau(   6) = (   1.9868534   1.4903216   9.2879459  )
         7           Ti1 tau(   7) = (   3.2907910   2.8959150   9.1758416  )
         8           Ti1 tau(   8) = (   0.0015273   1.4827037   9.2680791  )
         9           O1  tau(   9) = (   3.2949530   5.9481847  11.3666340  )
        10           O1  tau(  10) = (   0.0116148   5.9584955  10.6183126  )
        11           O1  tau(  11) = (   1.2732546   1.4916747  12.6876809  )
        12           O1  tau(  12) = (   5.3119445   1.4892451  12.6851550  )
        13           Ti1 tau(  13) = (   6.5688325   2.9465269  12.5174317  )
        14           Ti1 tau(  14) = (   3.2996026   1.2975375  12.7241829  )
        15           O1  tau(  15) = (   0.0172205   5.8793003  14.6619373  )
        16           O1  tau(  16) = (   3.2917661   0.0702926  14.0149596  )
        17           O1  tau(  17) = (   4.5643074   1.5920826  16.1346482  )
        18           O1  tau(  18) = (   2.0131957   1.5841813  16.0575481  )
        19           Ti1 tau(  19) = (   3.2662748   3.0407108  15.6947786  )
        20           Ti1 tau(  20) = (   0.0618610   1.3206105  15.7998127  )
        21           O1  tau(  21) = (   3.2904802   0.0005063   4.7018136  )
        22           O1  tau(  22) = (   0.0233933   0.1570098  17.1842078  )
        23           O1  tau(  23) = (   1.3043587   1.4918075   6.0039043  )
        24           O1  tau(  24) = (   5.2767064   1.4903225   6.0039473  )
        25           Ti1 tau(  25) = (   0.0000382   5.9609847   6.0000000  )
        26           Ti1 tau(  26) = (   3.2902200   4.4714249   6.0002472  )
        27           O1  tau(  27) = (   0.0002396   2.9813036   7.9858123  )
        28           O1  tau(  28) = (   3.2902150   2.9813002   7.3038282  )
        29           O1  tau(  29) = (   4.5938453   4.4726049   9.2879030  )
        30           O1  tau(  30) = (   1.9864658   4.4711199   9.2879459  )
        31           Ti1 tau(  31) = (   3.2891106   5.8743827   9.1763621  )
        32           Ti1 tau(  32) = (   0.0006254   4.4649316   9.2693709  )
        33           O1  tau(  33) = (   3.2948289   2.9949798  11.3176834  )
        34           O1  tau(  34) = (   0.0092240   2.9805883  10.6323155  )
        35           O1  tau(  35) = (   1.2828652   4.4571597  12.6432593  )
        36           O1  tau(  36) = (   5.3079144   4.4605214  12.6419564  )
        37           Ti1 tau(  37) = (   0.0266940   5.9154698  12.5044250  )
        38           Ti1 tau(  38) = (   3.3008436   4.3760658  12.4353554  )
        39           O1  tau(  39) = (   6.5507285   3.0461080  14.9005035  )
        40           O1  tau(  40) = (   3.2938476   3.0131494  13.9233183  )
        41           O1  tau(  41) = (   4.5350990   4.4864192  16.1518712  )
        42           O1  tau(  42) = (   1.9883536   4.4285065  16.1690201  )
        43           Ti1 tau(  43) = (   3.3916644   0.0784854  16.2809578  )
        44           Ti1 tau(  44) = (   0.0590441   4.5159846  16.0209683  )
        45           O1  tau(  45) = (   3.2900926   2.9813045   4.7018136  )
        46           O1  tau(  46) = (   1.3039711   4.4726057   6.0039043  )
        47           O1  tau(  47) = (   5.2763189   4.4711207   6.0039473  )
        48           N1  tau(  48) = (   6.2706434   3.3837210  18.0754458  )
        49           C1  tau(  49) = (   0.7742246   3.1223808  19.0622891  )
        50           H1  tau(  50) = (   1.3158356   4.0410886  19.2409436  )
        51           H1  tau(  51) = (   0.3597117   2.7583523  20.0089400  )
        52           H1  tau(  52) = (   1.4517744   2.3810259  18.6668870  )
        53           H1  tau(  53) = (   5.6745199   4.1349376  18.4206214  )
        54           H1  tau(  54) = (   5.6587021   2.5696541  18.0151127  )
        55           O1  tau(  55) = (   3.1972372   0.0910451  18.1323504  )
        56           H1  tau(  56) = (   2.2767176   0.1080423  18.4377142  )

     number of k points=    10  Fermi-Dirac smearing, width (Ry)=  0.0073
                       cart. coord. in units 2pi/alat
        k(    1) = (   0.0000000   0.0000000   0.0000000), wk =   0.1250000
        k(    2) = (   0.0000000   0.0419351   0.0000000), wk =   0.2500000
        k(    3) = (   0.0000000  -0.0838702   0.0000000), wk =   0.1250000
        k(    4) = (   0.0379955   0.0000049   0.0000000), wk =   0.2500000
        k(    5) = (   0.0379955   0.0419400   0.0000000), wk =   0.2500000
        k(    6) = (   0.0379955  -0.0838652   0.0000000), wk =   0.2500000
        k(    7) = (   0.0379955  -0.0419301   0.0000000), wk =   0.2500000
        k(    8) = (  -0.0759910  -0.0000099   0.0000000), wk =   0.1250000
        k(    9) = (  -0.0759910   0.0419252   0.0000000), wk =   0.2500000
        k(   10) = (  -0.0759910  -0.0838800   0.0000000), wk =   0.1250000

     Initial potential from superposition of free atoms

     starting charge  382.99914, renormalised to  399.00000

     negative rho (up, down):  1.588E-02 0.000E+00

     %%%%%%%%%%%%%%%%%%%%%%%%%%%%%%%%%%%%%%%%%%%%%%%%%%%%%%%%%%%%%%%%%%%%%%%%
     %                                                                      %
     % You are using vdW-DF, which was implemented by the Thonhauser group. %
     % Please cite the following two papers that made this development      %
     % possible and the two reviews that describe the various versions:     %
     %                                                                      %
     %   T. Thonhauser et al., PRL 115, 136402 (2015).                      %
     %   T. Thonhauser et al., PRB 76, 125112 (2007).                       %
     %   K. Berland et al., Rep. Prog. Phys. 78, 066501 (2015).             %
     %   D.C. Langreth et al., J. Phys.: Condens. Matter 21, 084203 (2009). %
     %                                                                      %
     %                                                                      %
     % If you are calculating the stress with vdW-DF, please also cite:     %
     %                                                                      %
     %   R. Sabatini et al., J. Phys.: Condens. Matter 24, 424209 (2012).   %
     %                                                                      %
     %%%%%%%%%%%%%%%%%%%%%%%%%%%%%%%%%%%%%%%%%%%%%%%%%%%%%%%%%%%%%%%%%%%%%%%%

     Adding external electric field

     Computed dipole along edir(3) :
        Dipole              -10.6962 Ry au,        -27.1870 Debye
        Dipole field         -0.0202 Ry au,

        Potential amp.        1.8711 Ry
        Total length         46.3494 bohr

     Starting wfcs are  302 atomic wfcs
  @ DRIVER MODE: Message from server: STATUS
  @ DRIVER MODE: Message from server: POSDATA
  @ DRIVER MODE: Reading and sharing cell
  @ DRIVER MODE: Reading and sharing positions
  @ DRIVER MODE: Received positions

     Self-consistent Calculation

     iteration #  1     ecut=    29.40 Ry     beta= 0.05
     Davidson diagonalization with overlap
     c_bands:  3 eigenvalues not converged
     c_bands:  2 eigenvalues not converged
     c_bands:  2 eigenvalues not converged
     c_bands:  5 eigenvalues not converged
     c_bands:  2 eigenvalues not converged
     c_bands:  5 eigenvalues not converged
     c_bands:  4 eigenvalues not converged
     c_bands:  3 eigenvalues not converged
     ethr =  1.00E-05,  avg # of iterations = 21.6

[...]

     total energy              =   -2438.24336159 Ry
     estimated scf accuracy    <    5770.48731035 Ry

     iteration #  2     ecut=    29.40 Ry     beta= 0.05
     Davidson diagonalization with overlap
     ethr =  1.00E-02,  avg # of iterations = 23.3

[...]

     iteration # 76     ecut=    29.40 Ry     beta= 0.05
     Davidson diagonalization with overlap
     c_bands:  2 eigenvalues not converged
     ethr =  4.15E-10,  avg # of iterations = 15.6

[...]

     total energy              =   -2955.26277417 Ry
     estimated scf accuracy    <       0.00000029 Ry

     iteration # 82     ecut=    29.40 Ry     beta= 0.05
     Davidson diagonalization with overlap
     ethr =  6.87E-11,  avg # of iterations =  9.6

     negative rho (up, down):  1.646E-02 0.000E+00

     Adding external electric field

     Computed dipole along edir(3) :
        Dipole                0.9764 Ry au,          2.4817 Debye
        Dipole field          0.0018 Ry au,

        Potential amp.       -0.1708 Ry
        Total length         46.3494 bohr

     End of self-consistent calculation

          k = 0.0000 0.0000 0.0000 ( 18029 PWs)   bands (ev):

   -55.6824 -55.6357 -55.6017 -55.5104 -55.5011 -55.4654 -55.4647 -55.4628
   -55.4306 -55.4173 -55.3666 -55.2719 -55.2252 -55.2117 -54.6111 -54.5771
   -32.1212 -32.0190 -32.0101 -31.9872 -31.9675 -31.9557 -31.9265 -31.9005
   -31.8938 -31.8818 -31.8816 -31.7891 -31.7884 -31.7731 -31.7480 -31.7440
   -31.7431 -31.7416 -31.7403 -31.7047 -31.6933 -31.6637 -31.6610 -31.6548
   -31.6491 -31.6432 -31.6352 -31.6048 -31.6023 -31.5971 -31.5917 -31.5887
   -31.5775 -31.5625 -31.5482 -31.5227 -31.4633 -31.4545 -31.4443 -31.4208
   -31.4183 -31.4135 -31.0172 -30.9308 -30.9083 -30.8348 -30.7484 -30.6365
   -16.5122 -16.2948 -16.1452 -15.9662 -15.8342 -15.8033 -15.7514 -15.5976
   -15.5050 -15.4413 -15.2407 -15.2200 -15.1743 -15.1631 -15.1576 -15.1348
   -15.1250 -15.0800 -15.0617 -15.0582 -15.0483 -15.0308 -14.9942 -14.9519
   -14.9088 -14.8879 -14.7753 -14.7189 -14.6782 -14.4672 -14.3985 -13.1099
   -12.9935 -10.0104  -6.0061  -4.5425  -4.0623  -3.7587  -3.6433  -3.5457
    -3.5344  -3.4146  -3.4055  -3.1648  -3.0416  -2.9829  -2.9039  -2.7852
    -2.7574  -2.7057  -2.6514  -2.5897  -2.5680  -2.5341  -2.4952  -2.4477
    -2.4222  -2.3951  -2.3628  -2.3054  -2.2939  -2.1948  -2.1807  -2.1584
    -2.0526  -2.0115  -1.9712  -1.9531  -1.9482  -1.9292  -1.8904  -1.8841
    -1.8645  -1.7863  -1.7172  -1.6713  -1.6363  -1.6081  -1.3307  -1.2453
    -1.2018  -1.1877  -1.0832  -1.0595  -1.0312  -1.0183  -0.9807  -0.9645
    -0.8527  -0.8358  -0.7680  -0.7177  -0.7039  -0.6657  -0.5460  -0.5089
    -0.4595  -0.4187  -0.3691  -0.3515  -0.3462  -0.2520  -0.2253  -0.1903
    -0.0822  -0.0648  -0.0029   0.0824   0.0921   0.1434   0.1668   0.2272
     0.2321   0.2862   0.3160   0.3382   0.3915   0.4240   0.4606   0.4934
     0.5105   0.6128   0.6879   0.7008   0.7968   0.8723   0.9260   1.0299
     1.0976   1.3616   1.4152   1.4389   1.6071   1.9824   2.0278   3.4460
     3.5951   3.6106   3.6852   3.6978   3.7749   3.9355   3.9604   4.0955
     4.1339

[...]

          k = 0.0380-0.0419 0.0000 ( 17876 PWs)   bands (ev):

[...]

          k =-0.0760-0.0000 0.0000 ( 17886 PWs)   bands (ev):

[...]

          k =-0.0760-0.0839 0.0000 ( 17948 PWs)   bands (ev):

   -55.6815 -55.6189 -55.6184 -55.5092 -55.4898 -55.4740 -55.4662 -55.4483
   -55.4465 -55.4109 -55.3731 -55.2671 -55.2262 -55.2163 -54.5945 -54.5936
   -31.9521 -31.9441 -31.9367 -31.9363 -31.9285 -31.9122 -31.9117 -31.8962
   -31.8513 -31.8100 -31.7920 -31.7791 -31.7750 -31.7734 -31.7518 -31.7416
   -31.7388 -31.7381 -31.7277 -31.7237 -31.7159 -31.7152 -31.7007 -31.6769
   -31.6707 -31.6661 -31.6567 -31.6463 -31.6308 -31.6303 -31.6281 -31.6225
   -31.6208 -31.5958 -31.5952 -31.5544 -31.5298 -31.4938 -31.4676 -31.4626
   -31.4467 -31.4175 -30.9214 -30.9206 -30.8307 -30.8295 -30.7920 -30.7912
   -16.4828 -15.9097 -15.8444 -15.7432 -15.6204 -15.6071 -15.4961 -15.4127
   -15.4094 -15.3791 -15.3482 -15.3206 -15.3106 -15.2933 -15.2470 -15.2036
   -15.1683 -15.1406 -15.1386 -15.0928 -15.0857 -15.0743 -15.0616 -15.0394
   -15.0057 -14.9559 -14.9415 -14.9023 -14.7650 -14.6886 -14.5894 -13.0956
   -13.0950 -10.0124  -5.9861  -4.5399  -4.0284  -3.7143  -3.0549  -2.9589
    -2.8474  -2.7651  -2.7193  -2.7046  -2.6412  -2.6119  -2.5848  -2.5431
    -2.4860  -2.4733  -2.4460  -2.4291  -2.4083  -2.3894  -2.3808  -2.3757
    -2.3391  -2.3212  -2.3130  -2.2718  -2.2642  -2.2518  -2.2289  -2.2103
    -2.1800  -2.1762  -2.1460  -2.0944  -2.0451  -1.9711  -1.8781  -1.7968
    -1.7856  -1.7672  -1.7177  -1.7111  -1.6656  -1.6578  -1.6331  -1.5473
    -1.4355  -1.3856  -1.2744  -1.2546  -1.2277  -1.1887  -1.1352  -1.1212
    -1.0755  -1.0455  -0.9857  -0.8840  -0.8542  -0.7991  -0.6856  -0.6474
    -0.6094  -0.5894  -0.5774  -0.5520  -0.5358  -0.4959  -0.4678  -0.4174
    -0.3806  -0.3461  -0.3192  -0.2937  -0.2463  -0.1453  -0.0507  -0.0134
     0.0878   0.1342   0.1759   0.2080   0.2699   0.4052   0.4320   0.5276
     0.5424   0.5716   0.6730   0.6832   0.7840   0.8082   0.8466   0.8876
     0.9123   0.9334   0.9531   1.7768   1.7853   1.8482   1.8483   3.7394
     3.9314   3.9465   3.9628   4.0075   4.0147   4.0420   4.0474   4.1140
     4.1266

     the Fermi energy is     3.4850 ev

!    total energy              =   -2955.26278267 Ry
     estimated scf accuracy    <       0.00000004 Ry
     smearing contrib. (-TS)   =      -0.01952827 Ry
     internal energy E=F+TS    =   -2955.24325440 Ry

     The total energy is F=E-TS. E is the sum of the following terms:
     one-electron contribution =  -23741.50639961 Ry
     hartree contribution      =   11962.88045087 Ry
     xc contribution           =    -489.73686267 Ry
     ewald contribution        =    9313.11775805 Ry
     electric field correction =       0.00179896 Ry

     convergence has been achieved in  82 iterations

     Forces acting on atoms (cartesian axes, Ry/au):

     atom    1 type  1   force =     0.00009722   -0.00029357    0.09413737
     atom    2 type  1   force =    -0.00004073    0.00043230   -0.17542139
     atom    3 type  2   force =     0.00004001   -0.00033396   -0.02111222
     atom    4 type  2   force =     0.00002358   -0.00197540    0.05460341
     atom    5 type  2   force =    -0.00673836   -0.00245246    0.00300351
     atom    6 type  2   force =     0.00834355   -0.00187652    0.00242413
     atom    7 type  1   force =    -0.00017476   -0.00405367    0.00896752
     atom    8 type  1   force =     0.00031792    0.00082842    0.00313571
     atom    9 type  2   force =    -0.00058107    0.00059485   -0.00019659
     atom   10 type  2   force =    -0.00139157    0.00173407   -0.00928329
     atom   11 type  2   force =     0.00005150   -0.00016237    0.00038469
     atom   12 type  2   force =    -0.00006737   -0.00011593   -0.00029983
     atom   13 type  1   force =    -0.00048827   -0.00025677    0.00006396
     atom   14 type  1   force =     0.00000937   -0.00034183   -0.00004950
     atom   15 type  2   force =    -0.00033213    0.00005618   -0.00018355
     atom   16 type  2   force =     0.00032439   -0.00054521   -0.00036411
     atom   17 type  2   force =     0.00041431   -0.00017544   -0.00077222
     atom   18 type  2   force =    -0.00046914    0.00015443   -0.00007649
     atom   19 type  1   force =     0.00051489   -0.00059436    0.00064888
     atom   20 type  1   force =     0.00045673    0.00036088    0.00040870
     atom   21 type  2   force =     0.00007634    0.00004691    0.10325561
     atom   22 type  2   force =    -0.00043033    0.00044111    0.00030397
     atom   23 type  2   force =    -0.07190032   -0.00018520   -0.02720221
     atom   24 type  2   force =     0.07183040    0.00025431   -0.02724316
     atom   25 type  1   force =     0.00002816   -0.00023774    0.09380561
     atom   26 type  1   force =    -0.00006478   -0.00132682   -0.17560118
     atom   27 type  2   force =     0.00015617   -0.00011548   -0.01987928
     atom   28 type  2   force =     0.00006941   -0.00032392    0.04987936
     atom   29 type  2   force =    -0.00613021    0.00232072    0.00250742
     atom   30 type  2   force =     0.00762267    0.00268604    0.00195753
     atom   31 type  1   force =     0.00002604    0.00839463   -0.00276434
     atom   32 type  1   force =     0.00012004   -0.00235152    0.00260549
     atom   33 type  2   force =     0.00005120   -0.00002518   -0.00007136
     atom   34 type  2   force =    -0.00211560   -0.00248949   -0.01006048
     atom   35 type  2   force =    -0.00013689   -0.00001652    0.00053781
     atom   36 type  2   force =    -0.00008007    0.00007450   -0.00007247
     atom   37 type  1   force =     0.00016373   -0.00008696   -0.00022246
     atom   38 type  1   force =     0.00005835   -0.00016613    0.00025231
     atom   39 type  2   force =    -0.00012508    0.00007629   -0.00032220
     atom   40 type  2   force =     0.00017150   -0.00025877   -0.00006967
     atom   41 type  2   force =    -0.00045081   -0.00069204    0.00062656
     atom   42 type  2   force =     0.00055580    0.00005232   -0.00016759
     atom   43 type  1   force =    -0.00073476   -0.00063611    0.00010859
     atom   44 type  1   force =     0.00032507    0.00020079   -0.00005761
     atom   45 type  2   force =     0.00006745   -0.00007041    0.10306336
     atom   46 type  2   force =    -0.07191976   -0.00004567   -0.02723305
     atom   47 type  2   force =     0.07188396    0.00039143   -0.02728402
     atom   48 type  3   force =     0.00479702   -0.00003750    0.00156383
     atom   49 type  4   force =    -0.01863326   -0.00011564    0.00287904
     atom   50 type  5   force =     0.00464338    0.00523133    0.00047160
     atom   51 type  5   force =     0.00332529    0.00193249   -0.00308033
     atom   52 type  5   force =     0.00593447   -0.00457966   -0.00333042
     atom   53 type  5   force =     0.00032180    0.00043831    0.00000463
     atom   54 type  5   force =     0.00096197   -0.00023099    0.00068053
     atom   55 type  2   force =    -0.00053836    0.00039435    0.00062087
     atom   56 type  5   force =    -0.00024007    0.00007259   -0.00048100

     Total force =     0.362904     Total SCF correction =     0.000629
  @ DRIVER MODE: Message from server: STATUS
  @ DRIVER MODE: Message from server: GETFORCE
  @ DRIVER MODE: Returning v,forces,stress,ensemble

     Writing output data file ./calc.save/
  @ DRIVER MODE: Message from server: EXIT
  @ DRIVE MODE: Exiting

     General routines

     Parallel routines

   This run was terminated on:  14:18:47  23Sep2021

   JOB DONE.