     Program PWSCF v.6.7GPU starts on 24Sep2021 at  4:15:59

     R & G space division:  proc/nbgrp/npool/nimage =       8
     Reading input from /storage/home/hcoda1/3/ntian30/research/carbon/CxH_vib/H2O_calc/ads_slab/CH3ON2HO_a/out_0035/pw.inp
Warning: card &CELL ignored
Warning: card   CELL_DYNAMICS='IPI', ignored
Warning: card / ignored

     Current dimensions of program PWSCF are:
     Max number of different atomic species (ntypx) = 10
     Max number of k-points (npk) =  40000
     Max angular momentum in pseudopotentials (lmaxx) =  3
     Presently no symmetry can be used with electric field

     Message from routine cell_base_init:
     DEPRECATED: use true lattice parameter, not A to a.u. conversion factor

     IMPORTANT: XC functional enforced from input :
     Exchange-correlation= BEEF-VDW
                           (   1   4  43  14   2   0   0)
     Any further DFT definition will be discarded
     Please, verify this is what you really want

  @ DRIVER MODE: Connecting to
 qe_1139763_2947306.sched-torque.pace.gatech.edumw9nbjr4_scratch
  using UNIX socket
  @ DRIVER MODE: Message from server: STATUS
  @ DRIVER MODE: Message from server: INIT
  @ DRIVER MODE: Receiving replica           0          -1
  @ DRIVER MODE: Receiving encoded integer          25
  @ DRIVER MODE:  SCF:  T  FORCE:  T  STRESS:  F  VC:  F  ENSEMBLE:  F
  @ DRIVER MODE:  SCF:  T  FORCE:  T  STRESS:  F  VC:  F  ENSEMBLE:  F

     Using Slab Decomposition

     bravais-lattice index     =            0
     lattice parameter (alat)  =       1.8897  a.u.
     unit-cell volume          =    6658.9804 (a.u.)^3
     number of atoms/cell      =           56
     number of atomic types    =            5
     number of electrons       =       408.00
     number of Kohn-Sham states=          214
     kinetic-energy cutoff     =      29.3995  Ry
     charge density cutoff     =     293.9946  Ry
     scf convergence threshold =      7.3E-08
     mixing beta               =       0.0500
     number of iterations used =            8  plain     mixing
     Exchange-correlation= BEEF-VDW
                           (   1   4  43  14   2   0   0)

     celldm(1)=   1.889726  celldm(2)=   0.000000  celldm(3)=   0.000000
     celldm(4)=   0.000000  celldm(5)=   0.000000  celldm(6)=   0.000000

     crystal axes: (cart. coord. in units of alat)
               a(1) = (   6.579727   0.000000   0.000000 )
               a(2) = (  -0.000775   5.961596   0.000000 )
               a(3) = (   0.000000   0.000000  25.155947 )

     reciprocal axes: (cart. coord. in units 2 pi/alat)
               b(1) = (  0.151982  0.000020  0.000000 )
               b(2) = (  0.000000  0.167740  0.000000 )
               b(3) = (  0.000000  0.000000  0.039752 )

     PseudoPot. # 1 for Ti read from file:
     /storage/coda1/p-amedford6/0/shared/rich_project_chbe-medford/medford-share/data/pseudos_module/espresso/nninc/pbe/van/Ti.UPF
     MD5 check sum: 8e4df49b7f0d34bbd5052bf3f5ea0213
     Pseudo is Ultrasoft, Zval = 12.0
     Generated by new atomic code, or converted to UPF format
     Using radial grid of  851 points,  6 beta functions with:
                l(1) =   0
                l(2) =   0
                l(3) =   1
                l(4) =   1
                l(5) =   2
                l(6) =   2
     Q(r) pseudized with  8 coefficients,  rinner =    1.000   1.000   1.000
                                                       1.000   1.000

     PseudoPot. # 2 for O  read from file:
     /storage/coda1/p-amedford6/0/shared/rich_project_chbe-medford/medford-share/data/pseudos_module/espresso/nninc/pbe/van/O.UPF
     MD5 check sum: 78c19812648e8988a0fe644b0f25305e
     Pseudo is Ultrasoft, Zval =  6.0
     Generated by new atomic code, or converted to UPF format
     Using radial grid of  737 points,  4 beta functions with:
                l(1) =   0
                l(2) =   0
                l(3) =   1
                l(4) =   1
     Q(r) pseudized with  8 coefficients,  rinner =    0.800   0.800   0.800

     PseudoPot. # 3 for C  read from file:
     /storage/coda1/p-amedford6/0/shared/rich_project_chbe-medford/medford-share/data/pseudos_module/espresso/nninc/pbe/van/C.UPF
     MD5 check sum: 1a69bf6b8db32088f5b2163dbdb77a27
     Pseudo is Ultrasoft, Zval =  4.0
     Generated by new atomic code, or converted to UPF format
     Using radial grid of  721 points,  4 beta functions with:
                l(1) =   0
                l(2) =   0
                l(3) =   1
                l(4) =   1
     Q(r) pseudized with  8 coefficients,  rinner =    0.800   0.800   0.800

     PseudoPot. # 4 for H  read from file:
     /storage/coda1/p-amedford6/0/shared/rich_project_chbe-medford/medford-share/data/pseudos_module/espresso/nninc/pbe/van/H.UPF
     MD5 check sum: b5ee9d7bfd3a09ee7748110bda690ff7
     Pseudo is Ultrasoft, Zval =  1.0
     Generated by new atomic code, or converted to UPF format
     Using radial grid of  615 points,  1 beta functions with:
                l(1) =   0
     Q(r) pseudized with  8 coefficients,  rinner =    0.800

     PseudoPot. # 5 for N  read from file:
     /storage/coda1/p-amedford6/0/shared/rich_project_chbe-medford/medford-share/data/pseudos_module/espresso/nninc/pbe/van/N.UPF
     MD5 check sum: 90d10febe142ad51ac9d5be1deb811c4
     Pseudo is Ultrasoft, Zval =  5.0
     Generated by new atomic code, or converted to UPF format
     Using radial grid of  729 points,  4 beta functions with:
                l(1) =   0
                l(2) =   0
                l(3) =   1
                l(4) =   1
     Q(r) pseudized with  8 coefficients,  rinner =    0.800   0.800   0.800

     atomic species   valence    mass     pseudopotential
        Ti1           12.00    47.86700     Ti( 1.00)
        O1             6.00    15.99900     O ( 1.00)
        C1             4.00    12.01100     C ( 1.00)
        H1             1.00     1.00800     H ( 1.00)
        N1             5.00    14.00700     N ( 1.00)

     No symmetry found

   Cartesian axes

     site n.     atom                  positions (alat units)
         1           Ti1 tau(   1) = (   0.0004258   2.9801865   6.0000000  )
         2           Ti1 tau(   2) = (   3.2906075   1.4906267   6.0002472  )
         3           O1  tau(   3) = (   0.0006271   0.0005054   7.9858123  )
         4           O1  tau(   4) = (   3.2906025   0.0005020   7.3038282  )
         5           O1  tau(   5) = (   4.5942328   1.4918067   9.2879030  )
         6           O1  tau(   6) = (   1.9868534   1.4903216   9.2879459  )
         7           Ti1 tau(   7) = (   3.3138730   3.1023225   9.2183157  )
         8           Ti1 tau(   8) = (   0.0392070   1.5780841   9.3433077  )
         9           O1  tau(   9) = (   3.2868017   0.0212601  11.3135411  )
        10           O1  tau(  10) = (   0.0022550   0.0140515  10.5858881  )
        11           O1  tau(  11) = (   1.2767464   1.5002397  12.6205121  )
        12           O1  tau(  12) = (   5.2993684   1.4943797  12.6172415  )
        13           Ti1 tau(  13) = (   0.0200588   3.0780815  12.7918821  )
        14           Ti1 tau(  14) = (   3.2574684   1.5637424  12.4212484  )
        15           O1  tau(  15) = (   6.5768379   0.0158506  14.6682411  )
        16           O1  tau(  16) = (   3.2886937   5.9311801  13.9109749  )
        17           O1  tau(  17) = (   4.5620935   1.5260772  16.0398494  )
        18           O1  tau(  18) = (   2.0292830   1.5431627  16.0187044  )
        19           Ti1 tau(  19) = (   3.3027642   2.9567202  15.6520962  )
        20           Ti1 tau(  20) = (   0.0552782   1.4362356  15.9688716  )
        21           O1  tau(  21) = (   3.2904802   0.0005063   4.7018136  )
        22           O1  tau(  22) = (   0.0488089   0.0211857  17.1900833  )
        23           O1  tau(  23) = (   1.3043587   1.4918075   6.0039043  )
        24           O1  tau(  24) = (   5.2767064   1.4903225   6.0039473  )
        25           Ti1 tau(  25) = (   0.0000382   5.9609847   6.0000000  )
        26           Ti1 tau(  26) = (   3.2902200   4.4714249   6.0002472  )
        27           O1  tau(  27) = (   0.0002396   2.9813036   7.9858123  )
        28           O1  tau(  28) = (   3.2902150   2.9813002   7.3038282  )
        29           O1  tau(  29) = (   4.5938453   4.4726049   9.2879030  )
        30           O1  tau(  30) = (   1.9864658   4.4711199   9.2879459  )
        31           Ti1 tau(  31) = (   3.3219941   0.1169887   9.1790125  )
        32           Ti1 tau(  32) = (   0.0373256   4.5280481   9.3594506  )
        33           O1  tau(  33) = (   3.2887547   2.9594671  11.2851190  )
        34           O1  tau(  34) = (   0.0046902   2.9985155  10.5475055  )
        35           O1  tau(  35) = (   1.2817606   4.4707209  12.6310527  )
        36           O1  tau(  36) = (   5.3098963   4.4869072  12.6241852  )
        37           Ti1 tau(  37) = (   6.5328698   0.0937101  12.6083326  )
        38           Ti1 tau(  38) = (   3.2790761   4.6595539  12.6693962  )
        39           O1  tau(  39) = (   0.0062896   2.9920245  14.6683812  )
        40           O1  tau(  40) = (   3.3079832   2.9813091  13.8732900  )
        41           O1  tau(  41) = (   4.5514670   4.4448635  16.0695425  )
        42           O1  tau(  42) = (   2.0242163   4.4286948  16.0089506  )
        43           Ti1 tau(  43) = (   3.3772342   5.9382356  16.2476532  )
        44           Ti1 tau(  44) = (   0.0845355   4.5653432  16.0322982  )
        45           O1  tau(  45) = (   3.2900926   2.9813045   4.7018136  )
        46           O1  tau(  46) = (   1.3039711   4.4726057   6.0039043  )
        47           O1  tau(  47) = (   5.2763189   4.4711207   6.0039473  )
        48           C1  tau(  48) = (   6.0101766   2.9784267  18.6088694  )
        49           O1  tau(  49) = (   6.5649008   2.9952511  17.2928482  )
        50           H1  tau(  50) = (   4.9185495   2.9407445  18.5675634  )
        51           H1  tau(  51) = (   6.3703738   2.0936667  19.1370987  )
        52           H1  tau(  52) = (   6.3118891   3.8824302  19.1399426  )
        53           N1  tau(  53) = (   6.0262039   3.1690275  22.5435725  )
        54           N1  tau(  54) = (   5.1417247   3.1052473  21.8962875  )
        55           O1  tau(  55) = (   3.2068502   5.9581871  18.0710493  )
        56           H1  tau(  56) = (   2.3500504   0.2277792  18.4614507  )

     number of k points=    10  Fermi-Dirac smearing, width (Ry)=  0.0073
                       cart. coord. in units 2pi/alat
        k(    1) = (   0.0000000   0.0000000   0.0000000), wk =   0.1250000
        k(    2) = (   0.0000000   0.0419351   0.0000000), wk =   0.2500000
        k(    3) = (   0.0000000  -0.0838702   0.0000000), wk =   0.1250000
        k(    4) = (   0.0379955   0.0000049   0.0000000), wk =   0.2500000
        k(    5) = (   0.0379955   0.0419400   0.0000000), wk =   0.2500000
        k(    6) = (   0.0379955  -0.0838652   0.0000000), wk =   0.2500000
        k(    7) = (   0.0379955  -0.0419301   0.0000000), wk =   0.2500000
        k(    8) = (  -0.0759910  -0.0000099   0.0000000), wk =   0.1250000
        k(    9) = (  -0.0759910   0.0419252   0.0000000), wk =   0.2500000
        k(   10) = (  -0.0759910  -0.0838800   0.0000000), wk =   0.1250000

     Initial potential from superposition of free atoms

     starting charge  391.99915, renormalised to  408.00000

     negative rho (up, down):  9.991E-03 0.000E+00

     %%%%%%%%%%%%%%%%%%%%%%%%%%%%%%%%%%%%%%%%%%%%%%%%%%%%%%%%%%%%%%%%%%%%%%%%
     %                                                                      %
     % You are using vdW-DF, which was implemented by the Thonhauser group. %
     % Please cite the following two papers that made this development      %
     % possible and the two reviews that describe the various versions:     %
     %                                                                      %
     %   T. Thonhauser et al., PRL 115, 136402 (2015).                      %
     %   T. Thonhauser et al., PRB 76, 125112 (2007).                       %
     %   K. Berland et al., Rep. Prog. Phys. 78, 066501 (2015).             %
     %   D.C. Langreth et al., J. Phys.: Condens. Matter 21, 084203 (2009). %
     %                                                                      %
     %                                                                      %
     % If you are calculating the stress with vdW-DF, please also cite:     %
     %                                                                      %
     %   R. Sabatini et al., J. Phys.: Condens. Matter 24, 424209 (2012).   %
     %                                                                      %
     %%%%%%%%%%%%%%%%%%%%%%%%%%%%%%%%%%%%%%%%%%%%%%%%%%%%%%%%%%%%%%%%%%%%%%%%

     Adding external electric field

     Computed dipole along edir(3) :
        Dipole              -16.8113 Ry au,        -42.7300 Debye
        Dipole field         -0.0317 Ry au,

        Potential amp.        2.9409 Ry
        Total length         46.3494 bohr

     Starting wfcs are  308 atomic wfcs
  @ DRIVER MODE: Message from server: STATUS
  @ DRIVER MODE: Message from server: POSDATA
  @ DRIVER MODE: Reading and sharing cell
  @ DRIVER MODE: Reading and sharing positions
  @ DRIVER MODE: Received positions

     Self-consistent Calculation

     iteration #  1     ecut=    29.40 Ry     beta= 0.05
     Davidson diagonalization with overlap
     c_bands:  4 eigenvalues not converged
     c_bands:  1 eigenvalues not converged
     c_bands:  5 eigenvalues not converged
     c_bands:  1 eigenvalues not converged
     c_bands:  2 eigenvalues not converged
     c_bands:  2 eigenvalues not converged
     c_bands:  1 eigenvalues not converged
     c_bands:  5 eigenvalues not converged
     ethr =  1.00E-05,  avg # of iterations = 27.4

[...]

     total energy              =   -2248.34388943 Ry
     estimated scf accuracy    <    8689.71944860 Ry

     iteration #  2     ecut=    29.40 Ry     beta= 0.05
     Davidson diagonalization with overlap
     ethr =  1.00E-02,  avg # of iterations = 28.6

[...]

     iteration # 47     ecut=    29.40 Ry     beta= 0.05
     Davidson diagonalization with overlap
     c_bands:  2 eigenvalues not converged
     c_bands:  1 eigenvalues not converged
     c_bands:  1 eigenvalues not converged
     c_bands:  1 eigenvalues not converged
     c_bands:  1 eigenvalues not converged
     c_bands:  1 eigenvalues not converged
     ethr =  1.34E-06,  avg # of iterations = 19.9

[...]

     total energy              =   -3005.28896775 Ry
     estimated scf accuracy    <       0.00000015 Ry

     iteration # 79     ecut=    29.40 Ry     beta= 0.05
     Davidson diagonalization with overlap
     ethr =  3.59E-11,  avg # of iterations =  4.3

     negative rho (up, down):  1.145E-02 0.000E+00

     Adding external electric field

     Computed dipole along edir(3) :
        Dipole                0.5477 Ry au,          1.3921 Debye
        Dipole field          0.0010 Ry au,

        Potential amp.       -0.0958 Ry
        Total length         46.3494 bohr

     End of self-consistent calculation

          k = 0.0000 0.0000 0.0000 ( 18029 PWs)   bands (ev):

   -56.1305 -56.0830 -55.5728 -55.5534 -55.5392 -55.5155 -55.4819 -55.4582
   -55.4235 -55.3974 -55.3635 -55.3219 -55.3208 -55.1846 -54.7433 -54.7094
   -32.5435 -32.3947 -32.3443 -32.3100 -32.2153 -32.1699 -32.0761 -32.0199
   -32.0114 -31.9049 -31.8610 -31.8435 -31.8382 -31.8164 -31.8141 -31.7759
   -31.7732 -31.7596 -31.7394 -31.7325 -31.7286 -31.6872 -31.6779 -31.6628
   -31.6596 -31.6417 -31.6387 -31.6293 -31.6218 -31.6120 -31.6051 -31.5877
   -31.5730 -31.5677 -31.5615 -31.5266 -31.5179 -31.5148 -31.4844 -31.4393
   -31.4013 -31.3897 -31.1378 -31.0834 -31.0591 -30.9546 -30.8697 -30.7589
   -20.9504 -17.3373 -16.3427 -16.2874 -16.1462 -15.9095 -15.7650 -15.6877
   -15.4581 -15.4478 -15.3328 -15.3260 -15.2910 -15.1601 -15.1426 -15.1351
   -15.0835 -15.0693 -15.0462 -15.0439 -15.0404 -15.0319 -14.9744 -14.9552
   -14.9157 -14.8568 -14.7806 -14.7602 -14.7113 -14.7003 -14.6587 -14.4330
   -13.2449 -13.1362  -9.0883  -5.9755  -4.1284  -4.0299  -4.0018  -3.9505
    -3.8141  -3.7643  -3.5891  -3.4903  -3.4649  -3.3882  -3.2923  -3.1870
    -2.9727  -2.8213  -2.7582  -2.7224  -2.7188  -2.6773  -2.6360  -2.5743
    -2.5196  -2.4775  -2.4437  -2.4097  -2.3494  -2.3370  -2.3211  -2.2907
    -2.2712  -2.2501  -2.2141  -2.2023  -2.0711  -2.0344  -2.0047  -1.9933
    -1.9401  -1.9215  -1.9026  -1.8927  -1.8480  -1.7516  -1.6535  -1.6395
    -1.5956  -1.4097  -1.3340  -1.2880  -1.2095  -1.1440  -1.0666  -1.0461
    -1.0362  -0.9814  -0.9435  -0.8420  -0.8082  -0.7690  -0.7014  -0.6962
    -0.6569  -0.5972  -0.5721  -0.5105  -0.4828  -0.4494  -0.3106  -0.2747
    -0.2573  -0.1951  -0.1945  -0.1024  -0.0431   0.0098   0.0289   0.0844
     0.1244   0.1466   0.1976   0.2283   0.2422   0.3256   0.3747   0.3817
     0.4159   0.4552   0.4739   0.5057   0.5940   0.6423   0.6685   0.6941
     0.8383   0.8527   0.9068   1.0133   1.0232   1.2046   1.2741   1.3098
     1.4963   1.5345   1.8257   1.8715   3.1697   3.3329   3.6122   3.7247
     3.7687   3.8086   3.8841   3.9111   4.0653   4.0885

[...]

          k = 0.0380-0.0419 0.0000 ( 17876 PWs)   bands (ev):

[...]

          k =-0.0760-0.0000 0.0000 ( 17886 PWs)   bands (ev):

[...]

          k =-0.0760-0.0839 0.0000 ( 17948 PWs)   bands (ev):

   -56.1235 -56.0898 -55.5708 -55.5485 -55.5381 -55.5095 -55.4863 -55.4640
   -55.4253 -55.3987 -55.3549 -55.3300 -55.3191 -55.1865 -54.7265 -54.7261
   -32.3901 -32.3747 -32.3483 -32.3460 -32.2755 -32.2469 -31.9646 -31.8847
   -31.8558 -31.8382 -31.8157 -31.8059 -31.7927 -31.7872 -31.7773 -31.7627
   -31.7573 -31.7475 -31.7473 -31.7394 -31.7302 -31.7214 -31.7081 -31.7065
   -31.7046 -31.6877 -31.6827 -31.6575 -31.6493 -31.6479 -31.6304 -31.6242
   -31.6012 -31.5945 -31.5788 -31.5671 -31.5643 -31.5368 -31.5220 -31.5039
   -31.4398 -31.3933 -31.0722 -31.0720 -30.9534 -30.9516 -30.9119 -30.9110
   -20.9503 -17.2998 -16.3166 -15.6939 -15.6043 -15.5951 -15.5877 -15.5548
   -15.5189 -15.4542 -15.4395 -15.3714 -15.2993 -15.2687 -15.2278 -15.2029
   -15.1870 -15.1501 -15.1457 -15.0838 -15.0401 -15.0312 -15.0166 -15.0028
   -14.9580 -14.9503 -14.9414 -14.9252 -14.9161 -14.8554 -14.7556 -14.5777
   -13.2405 -13.2393  -9.0884  -5.9771  -4.0840  -4.0382  -3.9821  -3.8694
    -3.7041  -3.4619  -2.9269  -2.8467  -2.7679  -2.7659  -2.7076  -2.6770
    -2.6291  -2.6061  -2.5697  -2.5544  -2.5324  -2.4668  -2.4421  -2.4278
    -2.4242  -2.4154  -2.3994  -2.3805  -2.3381  -2.3288  -2.3159  -2.3064
    -2.2875  -2.2830  -2.2705  -2.2494  -2.2089  -2.1469  -2.0894  -1.9491
    -1.9409  -1.9149  -1.8957  -1.8713  -1.8463  -1.7955  -1.7139  -1.6938
    -1.6752  -1.5996  -1.5406  -1.3357  -1.3147  -1.2970  -1.2272  -1.1588
    -1.0923  -1.0747  -1.0400  -1.0058  -0.9825  -0.9424  -0.8857  -0.8516
    -0.8085  -0.7957  -0.7576  -0.7199  -0.6734  -0.6097  -0.6016  -0.5686
    -0.5187  -0.4949  -0.4049  -0.3967  -0.3726  -0.3550  -0.3215  -0.2300
    -0.1775  -0.1317  -0.0429  -0.0034   0.0369   0.1698   0.2360   0.2719
     0.3446   0.3864   0.4928   0.5147   0.5937   0.6155   0.6447   0.6701
     0.7357   0.8063   0.8578   0.9069   0.9475   0.9623   1.0133   1.0634
     1.6676   1.6700   1.6776   1.6840   3.7126   3.7388   3.7466   3.7799
     3.9840   4.0140   4.0871   4.1038   4.1243   4.1835

     the Fermi energy is     2.5779 ev

!    total energy              =   -3005.28898141 Ry
     estimated scf accuracy    <       0.00000007 Ry
     smearing contrib. (-TS)   =      -0.00015435 Ry
     internal energy E=F+TS    =   -3005.28882705 Ry

     The total energy is F=E-TS. E is the sum of the following terms:
     one-electron contribution =  -22582.77449525 Ry
     hartree contribution      =   11387.67384600 Ry
     xc contribution           =    -500.25504211 Ry
     ewald contribution        =    8690.06629821 Ry
     electric field correction =       0.00056609 Ry

     convergence has been achieved in  79 iterations

     Forces acting on atoms (cartesian axes, Ry/au):

     atom    1 type  1   force =     0.00012108    0.00010713    0.13280105
     atom    2 type  1   force =    -0.00010657    0.00820884   -0.15824781
     atom    3 type  2   force =     0.00030067   -0.00362281   -0.05308895
     atom    4 type  2   force =     0.00059203    0.00104832    0.04010891
     atom    5 type  2   force =    -0.00786258   -0.00194794   -0.00033488
     atom    6 type  2   force =     0.00846826   -0.00490240   -0.00004183
     atom    7 type  1   force =    -0.00017233   -0.00031228   -0.00006832
     atom    8 type  1   force =    -0.00000376   -0.00026151    0.00021758
     atom    9 type  2   force =     0.00013299    0.00009817    0.00002297
     atom   10 type  2   force =    -0.00003116    0.00020574    0.00009939
     atom   11 type  2   force =    -0.00003801    0.00013184   -0.00000993
     atom   12 type  2   force =     0.00036326   -0.00010442   -0.00005858
     atom   13 type  1   force =    -0.00018223    0.00002427    0.00017639
     atom   14 type  1   force =     0.00011591    0.00057491    0.00009435
     atom   15 type  2   force =    -0.00010570    0.00012468   -0.00004841
     atom   16 type  2   force =     0.00002502    0.00006430   -0.00042786
     atom   17 type  2   force =     0.00014056   -0.00045067    0.00020838
     atom   18 type  2   force =    -0.00009346   -0.00055434    0.00010415
     atom   19 type  1   force =    -0.00038106    0.00031454   -0.00005013
     atom   20 type  1   force =     0.00043435    0.00004252   -0.00006986
     atom   21 type  2   force =    -0.00006477    0.00009386    0.09917483
     atom   22 type  2   force =    -0.00023719    0.00013998    0.00002912
     atom   23 type  2   force =    -0.08057858    0.00058224   -0.03414544
     atom   24 type  2   force =     0.08035321    0.00110416   -0.03418821
     atom   25 type  1   force =    -0.00021645   -0.00016930    0.14169604
     atom   26 type  1   force =    -0.00019296   -0.00687225   -0.15775485
     atom   27 type  2   force =     0.00044138    0.00018054   -0.05213289
     atom   28 type  2   force =     0.00043978    0.00035634    0.04188724
     atom   29 type  2   force =    -0.00940441    0.00598453    0.00165442
     atom   30 type  2   force =     0.00932165    0.00235746    0.00176318
     atom   31 type  1   force =    -0.00002641    0.00010144    0.00013759
     atom   32 type  1   force =     0.00001873   -0.00013346   -0.00011882
     atom   33 type  2   force =    -0.00006520   -0.00032614    0.00028396
     atom   34 type  2   force =    -0.00009610   -0.00005370    0.00004325
     atom   35 type  2   force =     0.00063163    0.00026198   -0.00007489
     atom   36 type  2   force =    -0.00019729    0.00015218    0.00005101
     atom   37 type  1   force =    -0.00039013    0.00046293   -0.00062873
     atom   38 type  1   force =     0.00024324   -0.00034165   -0.00010544
     atom   39 type  2   force =    -0.00002800   -0.00000405    0.00027154
     atom   40 type  2   force =     0.00013027   -0.00008209   -0.00036176
     atom   41 type  2   force =     0.00074038    0.00013782    0.00017139
     atom   42 type  2   force =    -0.00039359    0.00035192   -0.00000299
     atom   43 type  1   force =    -0.00059305   -0.00033605    0.00004973
     atom   44 type  1   force =     0.00002847   -0.00038285   -0.00042843
     atom   45 type  2   force =    -0.00007582    0.00018407    0.09875462
     atom   46 type  2   force =    -0.08054342   -0.00156787   -0.03409817
     atom   47 type  2   force =     0.08035010   -0.00103393   -0.03418622
     atom   48 type  3   force =     0.00028822   -0.00008966    0.00037330
     atom   49 type  2   force =    -0.00019629   -0.00032120    0.00057039
     atom   50 type  4   force =    -0.00040906    0.00016822   -0.00031954
     atom   51 type  4   force =    -0.00012690   -0.00009247    0.00010408
     atom   52 type  4   force =     0.00019566    0.00033714   -0.00030791
     atom   53 type  5   force =     0.02971933    0.00216932    0.02174984
     atom   54 type  5   force =    -0.03008154   -0.00207315   -0.02186946
     atom   55 type  2   force =    -0.00110771    0.00082908    0.00027464
     atom   56 type  4   force =     0.00040556   -0.00086429    0.00029695

     Total force =     0.387256     Total SCF correction =     0.000570
  @ DRIVER MODE: Message from server: STATUS
  @ DRIVER MODE: Message from server: GETFORCE
  @ DRIVER MODE: Returning v,forces,stress,ensemble

     Writing output data file ./calc.save/
  @ DRIVER MODE: Message from server: EXIT
  @ DRIVE MODE: Exiting

     General routines

     Parallel routines

   This run was terminated on:   4:44: 9  24Sep2021

   JOB DONE.