     Program PWSCF v.6.7GPU starts on 18Oct2021 at 16: 2:45

     R & G space division:  proc/nbgrp/npool/nimage =       8
     Reading input from /storage/home/hcoda1/3/ntian30/research/carbon/CxH_vib/Thiel_calc/ads_slab/H3N_perslab/out_0009/pw.inp
Warning: card &CELL ignored
Warning: card   CELL_DYNAMICS='IPI', ignored
Warning: card / ignored

     Current dimensions of program PWSCF are:
     Max number of different atomic species (ntypx) = 10
     Max number of k-points (npk) =  40000
     Max angular momentum in pseudopotentials (lmaxx) =  3
     Presently no symmetry can be used with electric field

     Message from routine cell_base_init:
     DEPRECATED: use true lattice parameter, not A to a.u. conversion factor

     IMPORTANT: XC functional enforced from input :
     Exchange-correlation= BEEF-VDW
                           (   1   4  43  14   2   0   0)
     Any further DFT definition will be discarded
     Please, verify this is what you really want

  @ DRIVER MODE: Connecting to
 qe_1139763_3255141.sched-torque.pace.gatech.edude6fp65f_scratch
  using UNIX socket
  @ DRIVER MODE: Message from server: STATUS
  @ DRIVER MODE: Message from server: INIT
  @ DRIVER MODE: Receiving replica           0          -1
  @ DRIVER MODE: Receiving encoded integer          25
  @ DRIVER MODE:  SCF:  T  FORCE:  T  STRESS:  F  VC:  F  ENSEMBLE:  F
  @ DRIVER MODE:  SCF:  T  FORCE:  T  STRESS:  F  VC:  F  ENSEMBLE:  F

     Using Slab Decomposition

     bravais-lattice index     =            0
     lattice parameter (alat)  =       1.8897  a.u.
     unit-cell volume          =    9988.4706 (a.u.)^3
     number of atoms/cell      =           57
     number of atomic types    =            4
     number of electrons       =       434.00
     number of Kohn-Sham states=          227
     kinetic-energy cutoff     =      29.3995  Ry
     charge density cutoff     =     293.9946  Ry
     scf convergence threshold =      7.3E-08
     mixing beta               =       0.0500
     number of iterations used =            8  plain     mixing
     Exchange-correlation= BEEF-VDW
                           (   1   4  43  14   2   0   0)

     celldm(1)=   1.889726  celldm(2)=   0.000000  celldm(3)=   0.000000
     celldm(4)=   0.000000  celldm(5)=   0.000000  celldm(6)=   0.000000

     crystal axes: (cart. coord. in units of alat)
               a(1) = (   6.579727   0.000000   0.000000 )
               a(2) = (  -0.001163   8.942395   0.000000 )
               a(3) = (   0.000000   0.000000  25.155947 )

     reciprocal axes: (cart. coord. in units 2 pi/alat)
               b(1) = (  0.151982  0.000020  0.000000 )
               b(2) = (  0.000000  0.111827  0.000000 )
               b(3) = (  0.000000  0.000000  0.039752 )

     PseudoPot. # 1 for O  read from file:
     /storage/coda1/p-amedford6/0/shared/rich_project_chbe-medford/medford-share/data/pseudos_module/espresso/nninc/pbe/van/O.UPF
     MD5 check sum: 78c19812648e8988a0fe644b0f25305e
     Pseudo is Ultrasoft, Zval =  6.0
     Generated by new atomic code, or converted to UPF format
     Using radial grid of  737 points,  4 beta functions with:
                l(1) =   0
                l(2) =   0
                l(3) =   1
                l(4) =   1
     Q(r) pseudized with  8 coefficients,  rinner =    0.800   0.800   0.800

     PseudoPot. # 2 for Ti read from file:
     /storage/coda1/p-amedford6/0/shared/rich_project_chbe-medford/medford-share/data/pseudos_module/espresso/nninc/pbe/van/Ti.UPF
     MD5 check sum: 8e4df49b7f0d34bbd5052bf3f5ea0213
     Pseudo is Ultrasoft, Zval = 12.0
     Generated by new atomic code, or converted to UPF format
     Using radial grid of  851 points,  6 beta functions with:
                l(1) =   0
                l(2) =   0
                l(3) =   1
                l(4) =   1
                l(5) =   2
                l(6) =   2
     Q(r) pseudized with  8 coefficients,  rinner =    1.000   1.000   1.000
                                                       1.000   1.000

     PseudoPot. # 3 for N  read from file:
     /storage/coda1/p-amedford6/0/shared/rich_project_chbe-medford/medford-share/data/pseudos_module/espresso/nninc/pbe/van/N.UPF
     MD5 check sum: 90d10febe142ad51ac9d5be1deb811c4
     Pseudo is Ultrasoft, Zval =  5.0
     Generated by new atomic code, or converted to UPF format
     Using radial grid of  729 points,  4 beta functions with:
                l(1) =   0
                l(2) =   0
                l(3) =   1
                l(4) =   1
     Q(r) pseudized with  8 coefficients,  rinner =    0.800   0.800   0.800

     PseudoPot. # 4 for H  read from file:
     /storage/coda1/p-amedford6/0/shared/rich_project_chbe-medford/medford-share/data/pseudos_module/espresso/nninc/pbe/van/H.UPF
     MD5 check sum: b5ee9d7bfd3a09ee7748110bda690ff7
     Pseudo is Ultrasoft, Zval =  1.0
     Generated by new atomic code, or converted to UPF format
     Using radial grid of  615 points,  1 beta functions with:
                l(1) =   0
     Q(r) pseudized with  8 coefficients,  rinner =    0.800

     atomic species   valence    mass     pseudopotential
        O1             6.00    15.99900     O ( 1.00)
        Ti1           12.00    47.86700     Ti( 1.00)
        N1             5.00    14.00700     N ( 1.00)
        H1             1.00     1.00800     H ( 1.00)

     No symmetry found

   Cartesian axes

     site n.     atom                  positions (alat units)
         1           O1  tau(   1) = (   0.0007354   0.0005023  10.5931620  )
         2           O1  tau(   2) = (   3.2892737   8.9266665  13.9077113  )
         3           O1  tau(   3) = (   0.0003737   0.0634608  17.2091987  )
         4           O1  tau(   4) = (   0.0006271   0.0005054   7.9858123  )
         5           O1  tau(   5) = (   3.2894549   8.9236348  11.1922400  )
         6           O1  tau(   6) = (   0.0007594   0.0424130  14.5914122  )
         7           O1  tau(   7) = (   1.9868534   1.4903216   9.2879459  )
         8           O1  tau(   8) = (   5.2335215   1.6100056  12.5826540  )
         9           O1  tau(   9) = (   2.0120305   1.5790738  16.0735584  )
        10           Ti1 tau(  10) = (   0.0007404   1.4906270   9.2895810  )
        11           Ti1 tau(  11) = (   3.2904007   1.3515224  12.5049090  )
        12           Ti1 tau(  12) = (   0.0008134   1.3014534  15.8121839  )
        13           O1  tau(  13) = (   4.5942328   1.4918067   9.2879030  )
        14           O1  tau(  14) = (   1.3469525   1.6100319  12.5826758  )
        15           O1  tau(  15) = (   4.5681566   1.5786403  16.0735304  )
        16           Ti1 tau(  16) = (   3.2902859   2.9801868   9.2893338  )
        17           Ti1 tau(  17) = (   0.0004417   2.8262804  12.4730395  )
        18           Ti1 tau(  18) = (   3.2905157   2.9388596  15.7158142  )
        19           O1  tau(  19) = (   0.0003479   2.9813005  10.5931620  )
        20           O1  tau(  20) = (   3.2902015   2.9695883  13.9046685  )
        21           O1  tau(  21) = (   0.0002396   2.9813036   7.9858123  )
        22           O1  tau(  22) = (   3.2902718   2.9641339  11.1914307  )
        23           O1  tau(  23) = (  -0.0000899   3.0294973  14.7210216  )
        24           O1  tau(  24) = (   1.9864658   4.4711199   9.2879459  )
        25           O1  tau(  25) = (   5.2357187   4.5858611  12.5822034  )
        26           O1  tau(  26) = (   2.0270018   4.4833747  16.1008177  )
        27           Ti1 tau(  27) = (   0.0003529   4.4714252   9.2895810  )
        28           Ti1 tau(  28) = (   3.2904530   4.3245040  12.5108242  )
        29           Ti1 tau(  29) = (   0.0003810   4.5948835  15.7280669  )
        30           O1  tau(  30) = (   4.5938453   4.4726049   9.2879030  )
        31           O1  tau(  31) = (   1.3445752   4.5857260  12.5820564  )
        32           O1  tau(  32) = (   4.5522270   4.4834529  16.1006533  )
        33           Ti1 tau(  33) = (   3.2898983   5.9609850   9.2893338  )
        34           Ti1 tau(  34) = (   0.0007043   5.8101956  12.4536477  )
        35           Ti1 tau(  35) = (   3.2895928   5.9233606  15.7233983  )
        36           O1  tau(  36) = (  -0.0000397   5.9620987  10.5931620  )
        37           O1  tau(  37) = (   3.2897410   5.9500339  13.9181164  )
        38           O1  tau(  38) = (  -0.0004871   5.9201338  17.2318970  )
        39           O1  tau(  39) = (  -0.0001480   5.9621018   7.9858123  )
        40           O1  tau(  40) = (   3.2899950   5.9414595  11.1912600  )
        41           O1  tau(  41) = (   0.0000049   5.9985156  14.6402937  )
        42           O1  tau(  42) = (   1.9860782   7.4519181   9.2879459  )
        43           O1  tau(  43) = (   5.2353497   7.5549275  12.5688660  )
        44           O1  tau(  44) = (   2.0314850   7.4951575  16.0543809  )
        45           Ti1 tau(  45) = (  -0.0000347   7.4522234   9.2895810  )
        46           Ti1 tau(  46) = (   3.2900928   7.3055020  12.5043323  )
        47           Ti1 tau(  47) = (  -0.0004111   7.4010535  16.2820301  )
        48           O1  tau(  48) = (   4.5934577   7.4534031   9.2879030  )
        49           O1  tau(  49) = (   1.3438456   7.5546912  12.5687420  )
        50           O1  tau(  50) = (   4.5473438   7.4951267  16.0540408  )
        51           Ti1 tau(  51) = (   3.2895107   8.9417832   9.2893338  )
        52           Ti1 tau(  52) = (   0.0000527   8.7739242  12.4740011  )
        53           Ti1 tau(  53) = (   3.2894619   8.8771818  15.7086625  )
        54           N1  tau(  54) = (   6.5792827   2.9851808  17.9254469  )
        55           H1  tau(  55) = (   6.5791554   2.0383488  18.3259764  )
        56           H1  tau(  56) = (   5.7637502   3.4703839  18.2861980  )
        57           H1  tau(  57) = (   0.8147632   3.4704782  18.2867735  )

     number of k points=    10  Fermi-Dirac smearing, width (Ry)=  0.0073
                       cart. coord. in units 2pi/alat
        k(    1) = (   0.0000000   0.0000000   0.0000000), wk =   0.1250000
        k(    2) = (   0.0000000   0.0279567   0.0000000), wk =   0.2500000
        k(    3) = (   0.0000000  -0.0559134   0.0000000), wk =   0.1250000
        k(    4) = (   0.0379955   0.0000049   0.0000000), wk =   0.2500000
        k(    5) = (   0.0379955   0.0279617   0.0000000), wk =   0.2500000
        k(    6) = (   0.0379955  -0.0559085   0.0000000), wk =   0.2500000
        k(    7) = (   0.0379955  -0.0279518   0.0000000), wk =   0.2500000
        k(    8) = (  -0.0759910  -0.0000099   0.0000000), wk =   0.1250000
        k(    9) = (  -0.0759910   0.0279468   0.0000000), wk =   0.2500000
        k(   10) = (  -0.0759910  -0.0559233   0.0000000), wk =   0.1250000

     Initial potential from superposition of free atoms

     starting charge  415.99912, renormalised to  434.00000

     negative rho (up, down):  3.931E-02 0.000E+00

     %%%%%%%%%%%%%%%%%%%%%%%%%%%%%%%%%%%%%%%%%%%%%%%%%%%%%%%%%%%%%%%%%%%%%%%%
     %                                                                      %
     % You are using vdW-DF, which was implemented by the Thonhauser group. %
     % Please cite the following two papers that made this development      %
     % possible and the two reviews that describe the various versions:     %
     %                                                                      %
     %   T. Thonhauser et al., PRL 115, 136402 (2015).                      %
     %   T. Thonhauser et al., PRB 76, 125112 (2007).                       %
     %   K. Berland et al., Rep. Prog. Phys. 78, 066501 (2015).             %
     %   D.C. Langreth et al., J. Phys.: Condens. Matter 21, 084203 (2009). %
     %                                                                      %
     %                                                                      %
     % If you are calculating the stress with vdW-DF, please also cite:     %
     %                                                                      %
     %   R. Sabatini et al., J. Phys.: Condens. Matter 24, 424209 (2012).   %
     %                                                                      %
     %%%%%%%%%%%%%%%%%%%%%%%%%%%%%%%%%%%%%%%%%%%%%%%%%%%%%%%%%%%%%%%%%%%%%%%%

     Adding external electric field

     Computed dipole along edir(3) :
        Dipole               -2.8168 Ry au,         -7.1597 Debye
        Dipole field         -0.0035 Ry au,

        Potential amp.        0.3285 Ry
        Total length         46.3494 bohr

     Starting wfcs are  327 atomic wfcs
  @ DRIVER MODE: Message from server: STATUS
  @ DRIVER MODE: Message from server: POSDATA
  @ DRIVER MODE: Reading and sharing cell
  @ DRIVER MODE: Reading and sharing positions
  @ DRIVER MODE: Received positions

     Self-consistent Calculation

     iteration #  1     ecut=    29.40 Ry     beta= 0.05
     Davidson diagonalization with overlap
     c_bands:  2 eigenvalues not converged
     c_bands:  2 eigenvalues not converged
     c_bands:  2 eigenvalues not converged
     c_bands:  2 eigenvalues not converged
     c_bands:  5 eigenvalues not converged
     c_bands:  2 eigenvalues not converged
     c_bands:  1 eigenvalues not converged
     c_bands:  1 eigenvalues not converged
     c_bands:  2 eigenvalues not converged
     ethr =  1.00E-05,  avg # of iterations = 20.0

[...]

     total energy              =   -3273.63555297 Ry
     estimated scf accuracy    <      14.13897843 Ry

     iteration #  2     ecut=    29.40 Ry     beta= 0.05
     Davidson diagonalization with overlap
     ethr =  3.26E-03,  avg # of iterations =  1.0

[...]

     iteration # 34     ecut=    29.40 Ry     beta= 0.05
     Davidson diagonalization with overlap
     c_bands:  1 eigenvalues not converged
     c_bands:  1 eigenvalues not converged
     c_bands:  1 eigenvalues not converged
     ethr =  2.62E-06,  avg # of iterations =  8.4

[...]

     total energy              =   -3272.09268761 Ry
     estimated scf accuracy    <       0.00000008 Ry

     iteration # 62     ecut=    29.40 Ry     beta= 0.05
     Davidson diagonalization with overlap
     ethr =  1.76E-11,  avg # of iterations =  5.0

     negative rho (up, down):  3.696E-02 0.000E+00

     Adding external electric field

     Computed dipole along edir(3) :
        Dipole                1.2547 Ry au,          3.1892 Debye
        Dipole field          0.0016 Ry au,

        Potential amp.       -0.1463 Ry
        Total length         46.3494 bohr

     End of self-consistent calculation

          k = 0.0000 0.0000 0.0000 ( 26871 PWs)   bands (ev):

   -58.0033 -58.0007 -57.9782 -57.9778 -57.9774 -57.8745 -57.8248 -57.8002
   -57.7988 -57.7768 -57.7564 -57.7342 -57.6262 -57.5631 -57.4339 -57.0017
   -56.9786 -56.9709 -34.4049 -34.3825 -34.3821 -34.3718 -34.3681 -34.3367
   -34.3187 -34.3157 -34.3032 -34.2718 -34.2448 -34.2311 -34.2196 -34.1961
   -34.1955 -34.1857 -34.1704 -34.1593 -34.1273 -34.1235 -34.0999 -34.0995
   -34.0942 -34.0869 -34.0795 -34.0485 -34.0335 -34.0316 -34.0242 -34.0042
   -34.0010 -33.9933 -33.9820 -33.9803 -33.9768 -33.9710 -33.9478 -33.9408
   -33.9196 -33.8666 -33.8334 -33.7748 -33.7117 -33.7088 -33.6142 -33.3183
   -33.3169 -33.3087 -33.3030 -33.2960 -33.2267 -33.1657 -33.1572 -33.0259
   -18.8526 -18.4292 -18.2696 -18.2505 -18.2294 -18.2034 -18.0950 -18.0893
   -17.8493 -17.8186 -17.7898 -17.7826 -17.7200 -17.6823 -17.6725 -17.6626
   -17.6344 -17.6293 -17.6210 -17.5734 -17.5283 -17.4842 -17.4606 -17.4400
   -17.4237 -17.4217 -17.3706 -17.3229 -17.3142 -17.2570 -17.1166 -16.9560
   -16.8503 -15.4678 -15.4120 -15.4077  -7.5302  -7.4428  -6.1797  -5.9206
    -5.9083  -5.8298  -5.4574  -5.4465  -5.3568  -5.3509  -5.3353  -5.2665
    -5.2547  -5.2451  -5.2263  -5.1965  -5.1348  -5.1150  -5.0827  -4.9483
    -4.9469  -4.9196  -4.9019  -4.8455  -4.8073  -4.8020  -4.7787  -4.7581
    -4.7282  -4.6747  -4.6596  -4.6225  -4.6151  -4.5056  -4.4416  -4.3128
    -4.2956  -4.2914  -4.2724  -4.2254  -4.1871  -4.1594  -4.1324  -4.0802
    -4.0480  -3.9901  -3.9570  -3.9147  -3.8130  -3.7472  -3.7235  -3.6631
    -3.5680  -3.5301  -3.4210  -3.3979  -3.3327  -3.3161  -3.2531  -3.2389
    -3.1678  -3.1555  -3.1141  -3.0903  -3.0365  -2.9857  -2.9680  -2.9289
    -2.8871  -2.7708  -2.7590  -2.7507  -2.7269  -2.6941  -2.6692  -2.6389
    -2.6293  -2.5889  -2.5358  -2.4874  -2.4615  -2.4191  -2.4090  -2.3588
    -2.3096  -2.2995  -2.2256  -2.2055  -2.1824  -2.1595  -2.0712  -2.0162
    -1.8570  -1.8275  -1.8220  -1.7870  -1.7413  -1.6913  -1.6440  -1.4738
    -1.2342  -1.0319  -0.7450  -0.7045  -0.7031  -0.4456  -0.4397  -0.3132
     0.9715   1.2296   1.2629   1.4457   1.4502   1.5394   1.5880   1.5882
     1.6541   1.6846   1.7411

[...]

          k = 0.0380-0.0280 0.0000 ( 26873 PWs)   bands (ev):

[...]

          k =-0.0760-0.0000 0.0000 ( 26902 PWs)   bands (ev):

[...]

          k =-0.0760-0.0559 0.0000 ( 26868 PWs)   bands (ev):

   -57.9997 -57.9949 -57.9944 -57.9793 -57.9691 -57.8743 -57.8172 -57.8151
   -57.7912 -57.7737 -57.7618 -57.7322 -57.6261 -57.5633 -57.4338 -56.9960
   -56.9895 -56.9657 -34.4757 -34.4461 -34.3878 -34.3790 -34.3350 -34.3338
   -34.3294 -34.3287 -34.2798 -34.2426 -34.2069 -34.1913 -34.1910 -34.1746
   -34.1664 -34.1441 -34.1440 -34.1364 -34.1329 -34.1245 -34.1197 -34.0864
   -34.0763 -34.0715 -34.0685 -34.0625 -34.0560 -34.0399 -34.0317 -34.0273
   -34.0214 -34.0131 -34.0127 -33.9950 -33.9904 -33.9755 -33.9629 -33.9475
   -33.9185 -33.8379 -33.8213 -33.7788 -33.7126 -33.7099 -33.6443 -33.4045
   -33.3191 -33.3133 -33.2905 -33.2091 -33.2011 -33.1399 -33.1265 -33.1189
   -18.5342 -18.5184 -18.2100 -18.1245 -18.1088 -18.0844 -18.0713 -18.0216
   -17.9403 -17.8822 -17.8780 -17.8196 -17.7805 -17.7707 -17.7303 -17.7276
   -17.7112 -17.6996 -17.6684 -17.6400 -17.6382 -17.5382 -17.4534 -17.4221
   -17.4078 -17.3722 -17.3529 -17.3280 -17.2969 -17.2367 -17.1506 -17.0657
   -16.7454 -15.4678 -15.4627 -15.3475  -7.5390  -7.4574  -5.7898  -5.7797
    -5.7693  -5.7037  -5.3820  -5.3034  -5.2720  -5.2575  -5.1732  -5.1667
    -5.1647  -5.1510  -5.1480  -5.1247  -5.0962  -5.0835  -5.0304  -5.0216
    -5.0186  -4.9550  -4.9148  -4.9058  -4.8868  -4.8610  -4.7464  -4.7391
    -4.6348  -4.6061  -4.5462  -4.5121  -4.4997  -4.4696  -4.3930  -4.3885
    -4.3518  -4.3175  -4.1623  -4.1531  -4.1365  -4.1325  -4.0606  -4.0011
    -3.9756  -3.9423  -3.7104  -3.6520  -3.6422  -3.6322  -3.6185  -3.6109
    -3.5921  -3.5547  -3.5199  -3.4852  -3.4628  -3.4419  -3.4393  -3.3455
    -3.3070  -3.2662  -3.1648  -3.1423  -3.1345  -3.1059  -3.1014  -3.0754
    -3.0707  -3.0509  -3.0341  -2.9554  -2.9202  -2.9014  -2.8503  -2.7822
    -2.7651  -2.7609  -2.5879  -2.5376  -2.5277  -2.5082  -2.4733  -2.3790
    -2.3782  -2.2430  -2.2164  -2.1741  -2.1006  -2.0711  -2.0228  -2.0031
    -1.9900  -1.9694  -1.7782  -1.7609  -1.6877  -1.6277  -1.5765  -1.5555
    -1.5456  -1.3296  -0.9177  -0.6353  -0.6167  -0.5977  -0.4459  -0.4433
     1.1468   1.2036   1.2179   1.3203   1.3240   1.3366   1.3930   1.4528
     1.4831   1.5625   1.7065

     the Fermi energy is     1.0770 ev

!    total energy              =   -3272.09272013 Ry
     estimated scf accuracy    <       0.00000003 Ry
     smearing contrib. (-TS)   =      -0.03207420 Ry
     internal energy E=F+TS    =   -3272.06064593 Ry

     The total energy is F=E-TS. E is the sum of the following terms:
     one-electron contribution =  -34296.30406196 Ry
     hartree contribution      =   17208.13080191 Ry
     xc contribution           =    -536.10775192 Ry
     ewald contribution        =   14352.21838534 Ry
     electric field correction =       0.00198070 Ry

     convergence has been achieved in  62 iterations

     Forces acting on atoms (cartesian axes, Ry/au):

     atom    1 type  1   force =     0.00003286    0.00588778    0.05805084
     atom    2 type  1   force =    -0.00001531    0.00194889   -0.00322168
     atom    3 type  1   force =     0.00000761   -0.00329563   -0.00011625
     atom    4 type  1   force =     0.00005280   -0.00049619    0.10641192
     atom    5 type  1   force =    -0.00002213   -0.00000567    0.00972156
     atom    6 type  1   force =     0.00000802   -0.00099370    0.00084445
     atom    7 type  1   force =     0.06847428   -0.00032493   -0.02942295
     atom    8 type  1   force =     0.00473012   -0.02819315    0.00237739
     atom    9 type  1   force =     0.01003536   -0.02083122    0.00042957
     atom   10 type  2   force =    -0.00006556   -0.00346540   -0.18018342
     atom   11 type  2   force =     0.00008512    0.01996653   -0.00725378
     atom   12 type  2   force =    -0.00002881    0.02120739   -0.00340097
     atom   13 type  1   force =    -0.06857017   -0.00077686   -0.02939958
     atom   14 type  1   force =    -0.00464887   -0.02830229    0.00238611
     atom   15 type  1   force =    -0.01000242   -0.02081170    0.00045367
     atom   16 type  2   force =     0.00013519   -0.00169488    0.06499864
     atom   17 type  2   force =    -0.00016362    0.03518186    0.00380948
     atom   18 type  2   force =    -0.00002843    0.00997316   -0.00292074
     atom   19 type  1   force =     0.00001430    0.00479318    0.06364040
     atom   20 type  1   force =    -0.00000996    0.00174605   -0.00597521
     atom   21 type  1   force =     0.00005500    0.00136184    0.10698224
     atom   22 type  1   force =    -0.00001744   -0.00018058    0.00917626
     atom   23 type  1   force =     0.00001711   -0.00453989    0.00168314
     atom   24 type  1   force =     0.06775276   -0.00033897   -0.02933992
     atom   25 type  1   force =     0.00462233   -0.02913633    0.00294006
     atom   26 type  1   force =     0.00812575    0.00327479   -0.00412322
     atom   27 type  2   force =    -0.00008506   -0.00409886   -0.18529943
     atom   28 type  2   force =     0.00008946    0.02022149   -0.00747974
     atom   29 type  2   force =    -0.00004746   -0.00045617    0.01353230
     atom   30 type  1   force =    -0.06784347   -0.00079711   -0.02931818
     atom   31 type  1   force =    -0.00456077   -0.02921740    0.00295950
     atom   32 type  1   force =    -0.00807009    0.00326388   -0.00407174
     atom   33 type  2   force =     0.00011284   -0.00147326    0.06547022
     atom   34 type  2   force =    -0.00014985    0.03609762    0.00380681
     atom   35 type  2   force =    -0.00000833   -0.00250797    0.00357504
     atom   36 type  1   force =     0.00003804    0.00368169    0.05586619
     atom   37 type  1   force =    -0.00001863    0.00000195   -0.00178343
     atom   38 type  1   force =    -0.00000038   -0.00317365   -0.00048285
     atom   39 type  1   force =     0.00005325   -0.00022687    0.10721472
     atom   40 type  1   force =    -0.00002283    0.00005204    0.00943648
     atom   41 type  1   force =     0.00001043    0.00229877    0.00077741
     atom   42 type  1   force =     0.06797016   -0.00085026   -0.02927771
     atom   43 type  1   force =     0.00402470   -0.02908059    0.00271641
     atom   44 type  1   force =     0.01150146   -0.01066455    0.00420735
     atom   45 type  2   force =    -0.00008999    0.00395788   -0.18332965
     atom   46 type  2   force =     0.00007148    0.02027275   -0.00792933
     atom   47 type  2   force =    -0.00000059    0.00980880   -0.01348312
     atom   48 type  1   force =    -0.06806774   -0.00129728   -0.02925877
     atom   49 type  1   force =    -0.00392715   -0.02917128    0.00272048
     atom   50 type  1   force =    -0.01149717   -0.01066721    0.00421454
     atom   51 type  2   force =     0.00011389   -0.00123651    0.06590475
     atom   52 type  2   force =    -0.00015011    0.03607109    0.00354596
     atom   53 type  2   force =     0.00000044    0.02506922    0.00683323
     atom   54 type  3   force =    -0.00002212   -0.01181688    0.00417475
     atom   55 type  4   force =     0.00000017    0.01368157   -0.00490704
     atom   56 type  4   force =    -0.00039251    0.00015237    0.00054979
     atom   57 type  4   force =     0.00039206    0.00015065    0.00056702

     Total force =     0.453742     Total SCF correction =     0.000506
  @ DRIVER MODE: Message from server: STATUS
  @ DRIVER MODE: Message from server: GETFORCE
  @ DRIVER MODE: Returning v,forces,stress,ensemble

     Writing output data file ./calc.save/
  @ DRIVER MODE: Message from server: EXIT
  @ DRIVE MODE: Exiting

     General routines

     Parallel routines

   This run was terminated on:  16:33:26  18Oct2021

   JOB DONE.