     Program PWSCF v.6.7GPU starts on 28Sep2021 at  9:11:37

     R & G space division:  proc/nbgrp/npool/nimage =       8
     Reading input from /storage/home/hcoda1/3/ntian30/research/carbon/CxH_vib/H2O_calc/ads_slab/CHNHO_a/out_0029/pw.inp
Warning: card &CELL ignored
Warning: card   CELL_DYNAMICS='IPI', ignored
Warning: card / ignored

     Current dimensions of program PWSCF are:
     Max number of different atomic species (ntypx) = 10
     Max number of k-points (npk) =  40000
     Max angular momentum in pseudopotentials (lmaxx) =  3
     Presently no symmetry can be used with electric field

     Message from routine cell_base_init:
     DEPRECATED: use true lattice parameter, not A to a.u. conversion factor

     IMPORTANT: XC functional enforced from input :
     Exchange-correlation= BEEF-VDW
                           (   1   4  43  14   2   0   0)
     Any further DFT definition will be discarded
     Please, verify this is what you really want

  @ DRIVER MODE: Connecting to
 qe_1139763_3003541.sched-torque.pace.gatech.edu8ir3e595_scratch
  using UNIX socket
  @ DRIVER MODE: Message from server: STATUS
  @ DRIVER MODE: Message from server: INIT
  @ DRIVER MODE: Receiving replica           0          -1
  @ DRIVER MODE: Receiving encoded integer          25
  @ DRIVER MODE:  SCF:  T  FORCE:  T  STRESS:  F  VC:  F  ENSEMBLE:  F
  @ DRIVER MODE:  SCF:  T  FORCE:  T  STRESS:  F  VC:  F  ENSEMBLE:  F

     Using Slab Decomposition

     bravais-lattice index     =            0
     lattice parameter (alat)  =       1.8897  a.u.
     unit-cell volume          =    6658.9804 (a.u.)^3
     number of atoms/cell      =           52
     number of atomic types    =            5
     number of electrons       =       395.00
     number of Kohn-Sham states=          207
     kinetic-energy cutoff     =      29.3995  Ry
     charge density cutoff     =     293.9946  Ry
     scf convergence threshold =      7.3E-08
     mixing beta               =       0.0500
     number of iterations used =            8  plain     mixing
     Exchange-correlation= BEEF-VDW
                           (   1   4  43  14   2   0   0)

     celldm(1)=   1.889726  celldm(2)=   0.000000  celldm(3)=   0.000000
     celldm(4)=   0.000000  celldm(5)=   0.000000  celldm(6)=   0.000000

     crystal axes: (cart. coord. in units of alat)
               a(1) = (   6.579727   0.000000   0.000000 )
               a(2) = (  -0.000775   5.961596   0.000000 )
               a(3) = (   0.000000   0.000000  25.155947 )

     reciprocal axes: (cart. coord. in units 2 pi/alat)
               b(1) = (  0.151982  0.000020  0.000000 )
               b(2) = (  0.000000  0.167740  0.000000 )
               b(3) = (  0.000000  0.000000  0.039752 )

     PseudoPot. # 1 for Ti read from file:
     /storage/coda1/p-amedford6/0/shared/rich_project_chbe-medford/medford-share/data/pseudos_module/espresso/nninc/pbe/van/Ti.UPF
     MD5 check sum: 8e4df49b7f0d34bbd5052bf3f5ea0213
     Pseudo is Ultrasoft, Zval = 12.0
     Generated by new atomic code, or converted to UPF format
     Using radial grid of  851 points,  6 beta functions with:
                l(1) =   0
                l(2) =   0
                l(3) =   1
                l(4) =   1
                l(5) =   2
                l(6) =   2
     Q(r) pseudized with  8 coefficients,  rinner =    1.000   1.000   1.000
                                                       1.000   1.000

     PseudoPot. # 2 for O  read from file:
     /storage/coda1/p-amedford6/0/shared/rich_project_chbe-medford/medford-share/data/pseudos_module/espresso/nninc/pbe/van/O.UPF
     MD5 check sum: 78c19812648e8988a0fe644b0f25305e
     Pseudo is Ultrasoft, Zval =  6.0
     Generated by new atomic code, or converted to UPF format
     Using radial grid of  737 points,  4 beta functions with:
                l(1) =   0
                l(2) =   0
                l(3) =   1
                l(4) =   1
     Q(r) pseudized with  8 coefficients,  rinner =    0.800   0.800   0.800

     PseudoPot. # 3 for N  read from file:
     /storage/coda1/p-amedford6/0/shared/rich_project_chbe-medford/medford-share/data/pseudos_module/espresso/nninc/pbe/van/N.UPF
     MD5 check sum: 90d10febe142ad51ac9d5be1deb811c4
     Pseudo is Ultrasoft, Zval =  5.0
     Generated by new atomic code, or converted to UPF format
     Using radial grid of  729 points,  4 beta functions with:
                l(1) =   0
                l(2) =   0
                l(3) =   1
                l(4) =   1
     Q(r) pseudized with  8 coefficients,  rinner =    0.800   0.800   0.800

     PseudoPot. # 4 for C  read from file:
     /storage/coda1/p-amedford6/0/shared/rich_project_chbe-medford/medford-share/data/pseudos_module/espresso/nninc/pbe/van/C.UPF
     MD5 check sum: 1a69bf6b8db32088f5b2163dbdb77a27
     Pseudo is Ultrasoft, Zval =  4.0
     Generated by new atomic code, or converted to UPF format
     Using radial grid of  721 points,  4 beta functions with:
                l(1) =   0
                l(2) =   0
                l(3) =   1
                l(4) =   1
     Q(r) pseudized with  8 coefficients,  rinner =    0.800   0.800   0.800

     PseudoPot. # 5 for H  read from file:
     /storage/coda1/p-amedford6/0/shared/rich_project_chbe-medford/medford-share/data/pseudos_module/espresso/nninc/pbe/van/H.UPF
     MD5 check sum: b5ee9d7bfd3a09ee7748110bda690ff7
     Pseudo is Ultrasoft, Zval =  1.0
     Generated by new atomic code, or converted to UPF format
     Using radial grid of  615 points,  1 beta functions with:
                l(1) =   0
     Q(r) pseudized with  8 coefficients,  rinner =    0.800

     atomic species   valence    mass     pseudopotential
        Ti1           12.00    47.86700     Ti( 1.00)
        O1             6.00    15.99900     O ( 1.00)
        N1             5.00    14.00700     N ( 1.00)
        C1             4.00    12.01100     C ( 1.00)
        H1             1.00     1.00800     H ( 1.00)

     No symmetry found

   Cartesian axes

     site n.     atom                  positions (alat units)
         1           Ti1 tau(   1) = (   0.0004258   2.9801865   6.0000000  )
         2           Ti1 tau(   2) = (   3.2906075   1.4906267   6.0002472  )
         3           O1  tau(   3) = (   0.0006271   0.0005054   7.9858123  )
         4           O1  tau(   4) = (   3.2906025   0.0005020   7.3038282  )
         5           O1  tau(   5) = (   4.5942328   1.4918067   9.2879030  )
         6           O1  tau(   6) = (   1.9868534   1.4903216   9.2879459  )
         7           Ti1 tau(   7) = (   3.2907910   2.8959150   9.1758416  )
         8           Ti1 tau(   8) = (   0.0015273   1.4827037   9.2680791  )
         9           O1  tau(   9) = (   3.2959632   0.0395795  11.3506057  )
        10           O1  tau(  10) = (   0.0116148   5.9584955  10.6183126  )
        11           O1  tau(  11) = (   1.2788542   1.5152540  12.6826201  )
        12           O1  tau(  12) = (   5.3118026   1.5181145  12.6771052  )
        13           Ti1 tau(  13) = (   6.5565567   2.9614743  12.5245697  )
        14           Ti1 tau(  14) = (   3.2956814   1.5864178  12.4516600  )
        15           O1  tau(  15) = (   0.0252471   5.9065102  14.6673769  )
        16           O1  tau(  16) = (   3.3061784   5.9134112  13.9760755  )
        17           O1  tau(  17) = (   4.5493393   1.5513651  16.1111979  )
        18           O1  tau(  18) = (   2.0154464   1.5530992  16.0877549  )
        19           Ti1 tau(  19) = (   3.2773477   2.9896638  15.7021987  )
        20           Ti1 tau(  20) = (   0.0480268   1.3694702  15.7882682  )
        21           O1  tau(  21) = (   3.2904802   0.0005063   4.7018136  )
        22           O1  tau(  22) = (   6.5727385   0.1062933  17.1740559  )
        23           O1  tau(  23) = (   1.3043587   1.4918075   6.0039043  )
        24           O1  tau(  24) = (   5.2767064   1.4903225   6.0039473  )
        25           Ti1 tau(  25) = (   0.0000382   5.9609847   6.0000000  )
        26           Ti1 tau(  26) = (   3.2902200   4.4714249   6.0002472  )
        27           O1  tau(  27) = (   0.0002396   2.9813036   7.9858123  )
        28           O1  tau(  28) = (   3.2902150   2.9813002   7.3038282  )
        29           O1  tau(  29) = (   4.5938453   4.4726049   9.2879030  )
        30           O1  tau(  30) = (   1.9864658   4.4711199   9.2879459  )
        31           Ti1 tau(  31) = (   3.2891106   5.8743827   9.1763621  )
        32           Ti1 tau(  32) = (   0.0006254   4.4649316   9.2693709  )
        33           O1  tau(  33) = (   3.2965180   2.9598593  11.3174316  )
        34           O1  tau(  34) = (   0.0092240   2.9805883  10.6323155  )
        35           O1  tau(  35) = (   1.2824442   4.4846720  12.6503842  )
        36           O1  tau(  36) = (   5.3188658   4.4853930  12.6478368  )
        37           Ti1 tau(  37) = (   0.0485215   5.9261111  12.5025588  )
        38           Ti1 tau(  38) = (   3.3111372   4.6778342  12.7091208  )
        39           O1  tau(  39) = (   6.5585416   3.0335453  14.9077256  )
        40           O1  tau(  40) = (   3.2962521   3.0064119  13.9315977  )
        41           O1  tau(  41) = (   4.5433468   4.4479239  16.1972702  )
        42           O1  tau(  42) = (   2.0131479   4.4365031  16.1967174  )
        43           Ti1 tau(  43) = (   3.3705753   0.0290894  16.3529554  )
        44           Ti1 tau(  44) = (   0.0540424   4.5922997  16.0496824  )
        45           O1  tau(  45) = (   3.2900926   2.9813045   4.7018136  )
        46           O1  tau(  46) = (   1.3039711   4.4726057   6.0039043  )
        47           O1  tau(  47) = (   5.2763189   4.4711207   6.0039473  )
        48           N1  tau(  48) = (   6.5754701   3.2032128  17.9785674  )
        49           C1  tau(  49) = (   6.5468619   2.3444050  18.7439128  )
        50           H1  tau(  50) = (   6.5191205   1.5204410  19.4189644  )
        51           O1  tau(  51) = (   3.3183073   0.1146119  18.2142577  )
        52           H1  tau(  52) = (   3.2686675   5.2273609  18.6655658  )

     number of k points=    10  Fermi-Dirac smearing, width (Ry)=  0.0073
                       cart. coord. in units 2pi/alat
        k(    1) = (   0.0000000   0.0000000   0.0000000), wk =   0.1250000
        k(    2) = (   0.0000000   0.0419351   0.0000000), wk =   0.2500000
        k(    3) = (   0.0000000  -0.0838702   0.0000000), wk =   0.1250000
        k(    4) = (   0.0379955   0.0000049   0.0000000), wk =   0.2500000
        k(    5) = (   0.0379955   0.0419400   0.0000000), wk =   0.2500000
        k(    6) = (   0.0379955  -0.0838652   0.0000000), wk =   0.2500000
        k(    7) = (   0.0379955  -0.0419301   0.0000000), wk =   0.2500000
        k(    8) = (  -0.0759910  -0.0000099   0.0000000), wk =   0.1250000
        k(    9) = (  -0.0759910   0.0419252   0.0000000), wk =   0.2500000
        k(   10) = (  -0.0759910  -0.0838800   0.0000000), wk =   0.1250000

     Initial potential from superposition of free atoms

     starting charge  378.99918, renormalised to  395.00000

     negative rho (up, down):  1.719E-02 0.000E+00

     %%%%%%%%%%%%%%%%%%%%%%%%%%%%%%%%%%%%%%%%%%%%%%%%%%%%%%%%%%%%%%%%%%%%%%%%
     %                                                                      %
     % You are using vdW-DF, which was implemented by the Thonhauser group. %
     % Please cite the following two papers that made this development      %
     % possible and the two reviews that describe the various versions:     %
     %                                                                      %
     %   T. Thonhauser et al., PRL 115, 136402 (2015).                      %
     %   T. Thonhauser et al., PRB 76, 125112 (2007).                       %
     %   K. Berland et al., Rep. Prog. Phys. 78, 066501 (2015).             %
     %   D.C. Langreth et al., J. Phys.: Condens. Matter 21, 084203 (2009). %
     %                                                                      %
     %                                                                      %
     % If you are calculating the stress with vdW-DF, please also cite:     %
     %                                                                      %
     %   R. Sabatini et al., J. Phys.: Condens. Matter 24, 424209 (2012).   %
     %                                                                      %
     %%%%%%%%%%%%%%%%%%%%%%%%%%%%%%%%%%%%%%%%%%%%%%%%%%%%%%%%%%%%%%%%%%%%%%%%

     Adding external electric field

     Computed dipole along edir(3) :
        Dipole               -8.1488 Ry au,        -20.7122 Debye
        Dipole field         -0.0154 Ry au,

        Potential amp.        1.4255 Ry
        Total length         46.3494 bohr

     Starting wfcs are  298 atomic wfcs
  @ DRIVER MODE: Message from server: STATUS
  @ DRIVER MODE: Message from server: POSDATA
  @ DRIVER MODE: Reading and sharing cell
  @ DRIVER MODE: Reading and sharing positions
  @ DRIVER MODE: Received positions

     Self-consistent Calculation

     iteration #  1     ecut=    29.40 Ry     beta= 0.05
     Davidson diagonalization with overlap
     c_bands:  1 eigenvalues not converged
     c_bands:  2 eigenvalues not converged
     c_bands:  2 eigenvalues not converged
     c_bands:  3 eigenvalues not converged
     c_bands:  3 eigenvalues not converged
     c_bands:  1 eigenvalues not converged
     c_bands:  1 eigenvalues not converged
     ethr =  1.00E-05,  avg # of iterations = 19.3

[...]

     total energy              =   -2615.11277762 Ry
     estimated scf accuracy    <    3704.49863814 Ry

     iteration #  2     ecut=    29.40 Ry     beta= 0.05
     Davidson diagonalization with overlap
     ethr =  1.00E-02,  avg # of iterations = 22.9

[...]

     iteration # 66     ecut=    29.40 Ry     beta= 0.05
     Davidson diagonalization with overlap
     c_bands:  1 eigenvalues not converged
     c_bands:  1 eigenvalues not converged
     ethr =  6.88E-07,  avg # of iterations = 13.6

[...]

     total energy              =   -2950.24117498 Ry
     estimated scf accuracy    <       0.00000013 Ry

     iteration # 87     ecut=    29.40 Ry     beta= 0.05
     Davidson diagonalization with overlap
     ethr =  3.17E-11,  avg # of iterations =  8.8

     negative rho (up, down):  1.737E-02 0.000E+00

     Adding external electric field

     Computed dipole along edir(3) :
        Dipole                1.2323 Ry au,          3.1322 Debye
        Dipole field          0.0023 Ry au,

        Potential amp.       -0.2156 Ry
        Total length         46.3494 bohr

     End of self-consistent calculation

          k = 0.0000 0.0000 0.0000 ( 18029 PWs)   bands (ev):

   -55.6701 -55.6193 -55.5852 -55.4482 -55.4443 -55.4433 -55.4116 -55.4114
   -55.4105 -55.3701 -55.3269 -55.2904 -55.2081 -55.0993 -54.5825 -54.5485
   -32.1029 -32.0193 -32.0151 -31.9475 -31.9357 -31.9103 -31.8929 -31.8832
   -31.8650 -31.8568 -31.8219 -31.7718 -31.7317 -31.7250 -31.7162 -31.7102
   -31.6999 -31.6933 -31.6769 -31.6558 -31.6522 -31.6431 -31.6396 -31.6231
   -31.6206 -31.5930 -31.5921 -31.5889 -31.5719 -31.5672 -31.5597 -31.5449
   -31.5436 -31.5230 -31.4923 -31.4805 -31.4778 -31.4219 -31.4017 -31.3508
   -31.3187 -31.3099 -30.9879 -30.9031 -30.8806 -30.8056 -30.7193 -30.6074
   -17.2623 -16.6288 -16.2449 -16.0819 -15.8629 -15.7825 -15.7508 -15.5642
   -15.4525 -15.4040 -15.1937 -15.1507 -15.1344 -15.1162 -15.0928 -15.0890
   -15.0735 -15.0341 -15.0337 -15.0169 -14.9975 -14.9632 -14.9463 -14.8975
   -14.8193 -14.8110 -14.7489 -14.6742 -14.6281 -14.3568 -14.3347 -13.0806
   -12.9644  -8.7384  -4.4764  -4.1584  -3.6000  -3.5169  -3.4885  -3.4424
    -3.3698  -3.2721  -3.1011  -3.0912  -2.9805  -2.9238  -2.8165  -2.7176
    -2.6472  -2.6009  -2.5432  -2.5103  -2.4735  -2.4300  -2.3936  -2.3539
    -2.3275  -2.3180  -2.2592  -2.2303  -2.1328  -2.1263  -2.0888  -1.9955
    -1.9787  -1.9310  -1.9234  -1.9197  -1.8659  -1.8508  -1.8341  -1.8000
    -1.6795  -1.6552  -1.6493  -1.5899  -1.5260  -1.2149  -1.2052  -1.1460
    -1.0702  -1.0386  -1.0125  -0.9942  -0.9341  -0.8954  -0.8821  -0.8656
    -0.7899  -0.6950  -0.6624  -0.6142  -0.4610  -0.4540  -0.4001  -0.3806
    -0.3538  -0.3147  -0.2635  -0.1930  -0.1659  -0.1427  -0.0124   0.0075
     0.0568   0.0699   0.1153   0.1644   0.1984   0.2651   0.3158   0.3373
     0.3547   0.3658   0.3980   0.4183   0.5103   0.5428   0.5923   0.6566
     0.7165   0.7338   0.7866   0.9441   1.0397   1.0679   1.1782   1.3974
     1.4442   1.4966   1.6403   2.0099   2.0547   3.4698   3.6190   3.6362
     3.7255   3.7372   3.8226   3.9572   4.0509   4.1610   4.1740

[...]

          k = 0.0380-0.0419 0.0000 ( 17876 PWs)   bands (ev):

[...]

          k =-0.0760-0.0000 0.0000 ( 17886 PWs)   bands (ev):

[...]

          k =-0.0760-0.0839 0.0000 ( 17948 PWs)   bands (ev):

   -55.6694 -55.6023 -55.6021 -55.4422 -55.4334 -55.4284 -55.4268 -55.4245
   -55.4121 -55.3620 -55.3350 -55.2923 -55.2055 -55.1018 -54.5655 -54.5654
   -31.9579 -31.9461 -31.9183 -31.9182 -31.8959 -31.8957 -31.8954 -31.8714
   -31.8020 -31.7592 -31.7574 -31.7497 -31.7371 -31.7222 -31.7219 -31.7095
   -31.7049 -31.7020 -31.6955 -31.6734 -31.6728 -31.6600 -31.6454 -31.6307
   -31.6285 -31.6256 -31.6170 -31.6081 -31.6074 -31.6001 -31.5972 -31.5817
   -31.5752 -31.5581 -31.5513 -31.5091 -31.4967 -31.4704 -31.4392 -31.4056
   -31.3566 -31.3143 -30.8933 -30.8933 -30.8010 -30.8006 -30.7626 -30.7623
   -17.2550 -16.6208 -15.8726 -15.6525 -15.5823 -15.5771 -15.4421 -15.3720
   -15.3497 -15.3203 -15.3046 -15.2681 -15.2443 -15.2280 -15.1852 -15.1611
   -15.1276 -15.1094 -15.0945 -15.0554 -15.0449 -15.0195 -15.0102 -14.9938
   -14.9368 -14.9149 -14.9059 -14.7736 -14.7390 -14.6663 -14.4748 -13.0664
   -13.0663  -8.7362  -4.4568  -4.1715  -3.3024  -3.1075  -3.0236  -2.8643
    -2.7978  -2.6760  -2.6513  -2.6152  -2.5486  -2.5318  -2.5013  -2.4562
    -2.3961  -2.3746  -2.3692  -2.3445  -2.3342  -2.3033  -2.2881  -2.2778
    -2.2726  -2.2473  -2.2319  -2.2199  -2.1943  -2.1640  -2.1615  -2.1451
    -2.1290  -2.0553  -1.9911  -1.9430  -1.8183  -1.7640  -1.7531  -1.7387
    -1.7236  -1.6861  -1.6795  -1.6409  -1.6154  -1.5043  -1.4240  -1.3810
    -1.3091  -1.1990  -1.1798  -1.1708  -1.1082  -1.0760  -1.0418  -1.0398
    -0.9351  -0.9046  -0.8188  -0.7647  -0.7307  -0.6664  -0.5734  -0.5581
    -0.5484  -0.5277  -0.5058  -0.4903  -0.4639  -0.4261  -0.3445  -0.3074
    -0.3027  -0.3023  -0.2505  -0.1763  -0.1128   0.0737   0.1619   0.1696
     0.2175   0.2553   0.4486   0.4834   0.5118   0.5262   0.5744   0.6266
     0.6904   0.7069   0.7544   0.8196   0.9102   0.9362   0.9689   0.9797
     1.0264   1.8085   1.8162   1.8751   1.8752   3.6395   3.9459   3.9847
     4.0031   4.0112   4.0497   4.0534   4.0729   4.1508   4.1607

     the Fermi energy is     3.5036 ev

!    total energy              =   -2950.24118150 Ry
     estimated scf accuracy    <       0.00000004 Ry
     smearing contrib. (-TS)   =      -0.01957422 Ry
     internal energy E=F+TS    =   -2950.22160728 Ry

     The total energy is F=E-TS. E is the sum of the following terms:
     one-electron contribution =  -23961.26372310 Ry
     hartree contribution      =   12071.58362803 Ry
     xc contribution           =    -486.33083673 Ry
     ewald contribution        =    9425.78645877 Ry
     electric field correction =       0.00286575 Ry

     convergence has been achieved in  87 iterations

     Forces acting on atoms (cartesian axes, Ry/au):

     atom    1 type  1   force =     0.00007134   -0.00023037    0.09443827
     atom    2 type  1   force =     0.00000992    0.00017765   -0.17484332
     atom    3 type  2   force =     0.00002744   -0.00043862   -0.02144264
     atom    4 type  2   force =     0.00004215   -0.00080459    0.05274813
     atom    5 type  2   force =    -0.00430960   -0.00229277    0.00044049
     atom    6 type  2   force =     0.00597230   -0.00164179    0.00007441
     atom    7 type  1   force =    -0.00011988    0.00325366    0.01150116
     atom    8 type  1   force =     0.00013665    0.00254200    0.00477161
     atom    9 type  2   force =    -0.00017497    0.00027574   -0.00023794
     atom   10 type  2   force =    -0.00077656    0.00345046   -0.01162197
     atom   11 type  2   force =     0.00052981   -0.00039484    0.00028482
     atom   12 type  2   force =    -0.00002916   -0.00023879    0.00012476
     atom   13 type  1   force =    -0.00103512   -0.00039776    0.00001775
     atom   14 type  1   force =     0.00080585    0.00049617   -0.00017696
     atom   15 type  2   force =     0.00021437   -0.00011803   -0.00063013
     atom   16 type  2   force =    -0.00033504   -0.00072972    0.00079967
     atom   17 type  2   force =     0.00071267    0.00007395   -0.00058016
     atom   18 type  2   force =    -0.00039237   -0.00015421    0.00016469
     atom   19 type  1   force =     0.00054012    0.00075791    0.00019315
     atom   20 type  1   force =     0.00011098   -0.00023823   -0.00020079
     atom   21 type  2   force =     0.00008853    0.00000546    0.10304201
     atom   22 type  2   force =     0.00007904    0.00078995   -0.00022444
     atom   23 type  2   force =    -0.07228032   -0.00017101   -0.02735887
     atom   24 type  2   force =     0.07225653    0.00023990   -0.02740680
     atom   25 type  1   force =     0.00013957   -0.00024706    0.09436985
     atom   26 type  1   force =    -0.00008415   -0.00124988   -0.17482901
     atom   27 type  2   force =     0.00020426   -0.00006371   -0.02023058
     atom   28 type  2   force =     0.00009581   -0.00096219    0.04854359
     atom   29 type  2   force =    -0.00684494    0.00193500    0.00269861
     atom   30 type  2   force =     0.00839435    0.00227037    0.00216153
     atom   31 type  1   force =     0.00004823    0.00103607    0.00137679
     atom   32 type  1   force =     0.00009643   -0.00336423    0.00512073
     atom   33 type  2   force =    -0.00015857   -0.00022596    0.00012337
     atom   34 type  2   force =    -0.00192665   -0.00084142   -0.01108543
     atom   35 type  2   force =     0.00067033   -0.00020076    0.00002266
     atom   36 type  2   force =    -0.00004505    0.00010631    0.00002013
     atom   37 type  1   force =    -0.00123810   -0.00012064   -0.00039185
     atom   38 type  1   force =     0.00067728    0.00017834    0.00067806
     atom   39 type  2   force =     0.00025605   -0.00077692    0.00006593
     atom   40 type  2   force =    -0.00035809   -0.00014890    0.00024742
     atom   41 type  2   force =    -0.00089547   -0.00049414    0.00028192
     atom   42 type  2   force =     0.00045799   -0.00051337   -0.00011880
     atom   43 type  1   force =     0.00030931    0.00035349   -0.00051233
     atom   44 type  1   force =    -0.00087934   -0.00037435    0.00002425
     atom   45 type  2   force =     0.00008070    0.00003694    0.10288641
     atom   46 type  2   force =    -0.07221717   -0.00009051   -0.02729219
     atom   47 type  2   force =     0.07221518    0.00037311   -0.02734416
     atom   48 type  3   force =     0.00002104    0.00032801   -0.00090013
     atom   49 type  4   force =    -0.00008153   -0.00062139    0.00051694
     atom   50 type  5   force =    -0.00029471    0.00025885    0.00005053
     atom   51 type  2   force =     0.00023438    0.00883942   -0.00615000
     atom   52 type  5   force =    -0.00102180   -0.00963261    0.00578883

     Total force =     0.361926     Total SCF correction =     0.000696
  @ DRIVER MODE: Message from server: STATUS
  @ DRIVER MODE: Message from server: GETFORCE
  @ DRIVER MODE: Returning v,forces,stress,ensemble

     Writing output data file ./calc.save/
  @ DRIVER MODE: Message from server: EXIT
  @ DRIVE MODE: Exiting

     General routines

     Parallel routines

   This run was terminated on:   9:37: 8  28Sep2021

   JOB DONE.