     Program PWSCF v.6.7GPU starts on 18Oct2021 at 22:16:51

     R & G space division:  proc/nbgrp/npool/nimage =       8
     Reading input from /storage/home/hcoda1/3/ntian30/research/carbon/CxH_vib/Thiel_calc/ads_slab/NNH2HH_perslab/out_0022/pw.inp
Warning: card &CELL ignored
Warning: card   CELL_DYNAMICS='IPI', ignored
Warning: card / ignored

     Current dimensions of program PWSCF are:
     Max number of different atomic species (ntypx) = 10
     Max number of k-points (npk) =  40000
     Max angular momentum in pseudopotentials (lmaxx) =  3
     Presently no symmetry can be used with electric field

     Message from routine cell_base_init:
     DEPRECATED: use true lattice parameter, not A to a.u. conversion factor

     IMPORTANT: XC functional enforced from input :
     Exchange-correlation= BEEF-VDW
                           (   1   4  43  14   2   0   0)
     Any further DFT definition will be discarded
     Please, verify this is what you really want

  @ DRIVER MODE: Connecting to
 qe_1139763_3255133.sched-torque.pace.gatech.edua7dr2h8q_scratch
  using UNIX socket
  @ DRIVER MODE: Message from server: STATUS
  @ DRIVER MODE: Message from server: INIT
  @ DRIVER MODE: Receiving replica           0          -1
  @ DRIVER MODE: Receiving encoded integer          25
  @ DRIVER MODE:  SCF:  T  FORCE:  T  STRESS:  F  VC:  F  ENSEMBLE:  F
  @ DRIVER MODE:  SCF:  T  FORCE:  T  STRESS:  F  VC:  F  ENSEMBLE:  F

     Using Slab Decomposition

     bravais-lattice index     =            0
     lattice parameter (alat)  =       1.8897  a.u.
     unit-cell volume          =    9988.4706 (a.u.)^3
     number of atoms/cell      =           59
     number of atomic types    =            4
     number of electrons       =       440.00
     number of Kohn-Sham states=          230
     kinetic-energy cutoff     =      29.3995  Ry
     charge density cutoff     =     293.9946  Ry
     scf convergence threshold =      7.3E-08
     mixing beta               =       0.0500
     number of iterations used =            8  plain     mixing
     Exchange-correlation= BEEF-VDW
                           (   1   4  43  14   2   0   0)

     celldm(1)=   1.889726  celldm(2)=   0.000000  celldm(3)=   0.000000
     celldm(4)=   0.000000  celldm(5)=   0.000000  celldm(6)=   0.000000

     crystal axes: (cart. coord. in units of alat)
               a(1) = (   6.579727   0.000000   0.000000 )
               a(2) = (  -0.001163   8.942395   0.000000 )
               a(3) = (   0.000000   0.000000  25.155947 )

     reciprocal axes: (cart. coord. in units 2 pi/alat)
               b(1) = (  0.151982  0.000020  0.000000 )
               b(2) = (  0.000000  0.111827  0.000000 )
               b(3) = (  0.000000  0.000000  0.039752 )

     PseudoPot. # 1 for O  read from file:
     /storage/coda1/p-amedford6/0/shared/rich_project_chbe-medford/medford-share/data/pseudos_module/espresso/nninc/pbe/van/O.UPF
     MD5 check sum: 78c19812648e8988a0fe644b0f25305e
     Pseudo is Ultrasoft, Zval =  6.0
     Generated by new atomic code, or converted to UPF format
     Using radial grid of  737 points,  4 beta functions with:
                l(1) =   0
                l(2) =   0
                l(3) =   1
                l(4) =   1
     Q(r) pseudized with  8 coefficients,  rinner =    0.800   0.800   0.800

     PseudoPot. # 2 for Ti read from file:
     /storage/coda1/p-amedford6/0/shared/rich_project_chbe-medford/medford-share/data/pseudos_module/espresso/nninc/pbe/van/Ti.UPF
     MD5 check sum: 8e4df49b7f0d34bbd5052bf3f5ea0213
     Pseudo is Ultrasoft, Zval = 12.0
     Generated by new atomic code, or converted to UPF format
     Using radial grid of  851 points,  6 beta functions with:
                l(1) =   0
                l(2) =   0
                l(3) =   1
                l(4) =   1
                l(5) =   2
                l(6) =   2
     Q(r) pseudized with  8 coefficients,  rinner =    1.000   1.000   1.000
                                                       1.000   1.000

     PseudoPot. # 3 for H  read from file:
     /storage/coda1/p-amedford6/0/shared/rich_project_chbe-medford/medford-share/data/pseudos_module/espresso/nninc/pbe/van/H.UPF
     MD5 check sum: b5ee9d7bfd3a09ee7748110bda690ff7
     Pseudo is Ultrasoft, Zval =  1.0
     Generated by new atomic code, or converted to UPF format
     Using radial grid of  615 points,  1 beta functions with:
                l(1) =   0
     Q(r) pseudized with  8 coefficients,  rinner =    0.800

     PseudoPot. # 4 for N  read from file:
     /storage/coda1/p-amedford6/0/shared/rich_project_chbe-medford/medford-share/data/pseudos_module/espresso/nninc/pbe/van/N.UPF
     MD5 check sum: 90d10febe142ad51ac9d5be1deb811c4
     Pseudo is Ultrasoft, Zval =  5.0
     Generated by new atomic code, or converted to UPF format
     Using radial grid of  729 points,  4 beta functions with:
                l(1) =   0
                l(2) =   0
                l(3) =   1
                l(4) =   1
     Q(r) pseudized with  8 coefficients,  rinner =    0.800   0.800   0.800

     atomic species   valence    mass     pseudopotential
        O1             6.00    15.99900     O ( 1.00)
        Ti1           12.00    47.86700     Ti( 1.00)
        H1             1.00     1.00800     H ( 1.00)
        N1             5.00    14.00700     N ( 1.00)

     No symmetry found

   Cartesian axes

     site n.     atom                  positions (alat units)
         1           O1  tau(   1) = (   0.0007354   0.0005023  10.5931620  )
         2           O1  tau(   2) = (   3.3122003   8.9411730  13.9078397  )
         3           O1  tau(   3) = (   0.0119464   0.1585559  17.3480684  )
         4           O1  tau(   4) = (   0.0006271   0.0005054   7.9858123  )
         5           O1  tau(   5) = (   3.2844644   8.9346379  11.1901754  )
         6           O1  tau(   6) = (   6.5618141   0.0157575  14.6617184  )
         7           O1  tau(   7) = (   1.9868534   1.4903216   9.2879459  )
         8           O1  tau(   8) = (   5.2413352   1.5994427  12.5710249  )
         9           O1  tau(   9) = (   2.0249271   1.5994163  16.0383581  )
        10           Ti1 tau(  10) = (   0.0007404   1.4906270   9.2895810  )
        11           Ti1 tau(  11) = (   3.2875257   1.3541315  12.5031546  )
        12           Ti1 tau(  12) = (   0.1037617   1.4803996  15.8781706  )
        13           O1  tau(  13) = (   4.5942328   1.4918067   9.2879030  )
        14           O1  tau(  14) = (   1.3445879   1.6225681  12.6047105  )
        15           O1  tau(  15) = (   4.5270247   1.5277052  16.0690704  )
        16           Ti1 tau(  16) = (   3.2902859   2.9801868   9.2893338  )
        17           Ti1 tau(  17) = (   6.5717848   2.8351652  12.4611715  )
        18           Ti1 tau(  18) = (   3.3615503   2.9380122  15.7113248  )
        19           O1  tau(  19) = (   0.0003479   2.9813005  10.5931620  )
        20           O1  tau(  20) = (   3.3257229   2.9884659  13.9122956  )
        21           O1  tau(  21) = (   0.0002396   2.9813036   7.9858123  )
        22           O1  tau(  22) = (   3.2846765   2.9682620  11.1924388  )
        23           O1  tau(  23) = (   6.5193973   3.0012958  14.6893217  )
        24           O1  tau(  24) = (   1.9864658   4.4711199   9.2879459  )
        25           O1  tau(  25) = (   5.2358842   4.5821056  12.5715879  )
        26           O1  tau(  26) = (   1.9668816   4.5963109  15.9958849  )
        27           Ti1 tau(  27) = (   0.0003529   4.4714252   9.2895810  )
        28           Ti1 tau(  28) = (   3.2817300   4.3379106  12.5030846  )
        29           Ti1 tau(  29) = (   6.5286400   4.3105241  16.0387364  )
        30           O1  tau(  30) = (   4.5938453   4.4726049   9.2879030  )
        31           O1  tau(  31) = (   1.3350840   4.5883300  12.6034823  )
        32           O1  tau(  32) = (   4.4768606   4.5746599  16.1328061  )
        33           Ti1 tau(  33) = (   3.2898983   5.9609850   9.2893338  )
        34           Ti1 tau(  34) = (   6.5687693   5.8095266  12.4696282  )
        35           Ti1 tau(  35) = (   3.1936624   5.9077503  15.7132784  )
        36           O1  tau(  36) = (  -0.0000397   5.9620987  10.5931620  )
        37           O1  tau(  37) = (   3.2950800   5.9615338  13.9080848  )
        38           O1  tau(  38) = (   6.5705097   6.0321180  17.3127682  )
        39           O1  tau(  39) = (  -0.0001480   5.9621018   7.9858123  )
        40           O1  tau(  40) = (   3.2829949   5.9473389  11.1919414  )
        41           O1  tau(  41) = (   6.5313079   6.0695169  14.6234680  )
        42           O1  tau(  42) = (   1.9860782   7.4519181   9.2879459  )
        43           O1  tau(  43) = (   5.2305909   7.5696458  12.5615615  )
        44           O1  tau(  44) = (   1.9930026   7.5537276  16.0441964  )
        45           Ti1 tau(  45) = (  -0.0000347   7.4522234   9.2895810  )
        46           Ti1 tau(  46) = (   3.2809715   7.3153274  12.5063831  )
        47           Ti1 tau(  47) = (  -0.0000777   7.3827053  15.8005402  )
        48           O1  tau(  48) = (   4.5934577   7.4534031   9.2879030  )
        49           O1  tau(  49) = (   1.3440923   7.5800077  12.5804573  )
        50           O1  tau(  50) = (   4.5564015   7.5743432  16.1458831  )
        51           Ti1 tau(  51) = (   3.2895107   8.9417832   9.2893338  )
        52           Ti1 tau(  52) = (   6.5681474   8.7932977  12.4619754  )
        53           Ti1 tau(  53) = (   3.3227810   8.9003220  15.7121742  )
        54           H1  tau(  54) = (   5.8375475   6.1301351  17.9339333  )
        55           H1  tau(  55) = (   5.7673184   0.1799947  17.8523786  )
        56           H1  tau(  56) = (   0.0490247   3.6154164  19.2291769  )
        57           N1  tau(  57) = (   6.4107751   2.8016545  18.6713363  )
        58           N1  tau(  58) = (   6.5444414   3.0434393  17.3342366  )
        59           H1  tau(  59) = (   0.3957958   1.9971216  18.9670883  )

     number of k points=    10  Fermi-Dirac smearing, width (Ry)=  0.0073
                       cart. coord. in units 2pi/alat
        k(    1) = (   0.0000000   0.0000000   0.0000000), wk =   0.1250000
        k(    2) = (   0.0000000   0.0279567   0.0000000), wk =   0.2500000
        k(    3) = (   0.0000000  -0.0559134   0.0000000), wk =   0.1250000
        k(    4) = (   0.0379955   0.0000049   0.0000000), wk =   0.2500000
        k(    5) = (   0.0379955   0.0279617   0.0000000), wk =   0.2500000
        k(    6) = (   0.0379955  -0.0559085   0.0000000), wk =   0.2500000
        k(    7) = (   0.0379955  -0.0279518   0.0000000), wk =   0.2500000
        k(    8) = (  -0.0759910  -0.0000099   0.0000000), wk =   0.1250000
        k(    9) = (  -0.0759910   0.0279468   0.0000000), wk =   0.2500000
        k(   10) = (  -0.0759910  -0.0559233   0.0000000), wk =   0.1250000

     Initial potential from superposition of free atoms

     starting charge  421.99910, renormalised to  440.00000

     negative rho (up, down):  3.724E-02 0.000E+00

     %%%%%%%%%%%%%%%%%%%%%%%%%%%%%%%%%%%%%%%%%%%%%%%%%%%%%%%%%%%%%%%%%%%%%%%%
     %                                                                      %
     % You are using vdW-DF, which was implemented by the Thonhauser group. %
     % Please cite the following two papers that made this development      %
     % possible and the two reviews that describe the various versions:     %
     %                                                                      %
     %   T. Thonhauser et al., PRL 115, 136402 (2015).                      %
     %   T. Thonhauser et al., PRB 76, 125112 (2007).                       %
     %   K. Berland et al., Rep. Prog. Phys. 78, 066501 (2015).             %
     %   D.C. Langreth et al., J. Phys.: Condens. Matter 21, 084203 (2009). %
     %                                                                      %
     %                                                                      %
     % If you are calculating the stress with vdW-DF, please also cite:     %
     %                                                                      %
     %   R. Sabatini et al., J. Phys.: Condens. Matter 24, 424209 (2012).   %
     %                                                                      %
     %%%%%%%%%%%%%%%%%%%%%%%%%%%%%%%%%%%%%%%%%%%%%%%%%%%%%%%%%%%%%%%%%%%%%%%%

     Adding external electric field

     Computed dipole along edir(3) :
        Dipole               -5.7841 Ry au,        -14.7017 Debye
        Dipole field         -0.0073 Ry au,

        Potential amp.        0.6746 Ry
        Total length         46.3494 bohr

     Starting wfcs are  332 atomic wfcs
  @ DRIVER MODE: Message from server: STATUS
  @ DRIVER MODE: Message from server: POSDATA
  @ DRIVER MODE: Reading and sharing cell
  @ DRIVER MODE: Reading and sharing positions
  @ DRIVER MODE: Received positions

     Self-consistent Calculation

     iteration #  1     ecut=    29.40 Ry     beta= 0.05
     Davidson diagonalization with overlap
     c_bands:  1 eigenvalues not converged
     c_bands:  2 eigenvalues not converged
     c_bands:  4 eigenvalues not converged
     c_bands:  1 eigenvalues not converged
     c_bands:  1 eigenvalues not converged
     c_bands:  5 eigenvalues not converged
     c_bands:  1 eigenvalues not converged
     c_bands:  4 eigenvalues not converged
     c_bands:  4 eigenvalues not converged
     c_bands:  4 eigenvalues not converged
     ethr =  1.00E-05,  avg # of iterations = 20.0

[...]

     total energy              =   -3276.43919577 Ry
     estimated scf accuracy    <     229.18670652 Ry

[...]

     iteration #  3     ecut=    29.40 Ry     beta= 0.05
     Davidson diagonalization with overlap
     ethr =  1.00E-02,  avg # of iterations = 12.6

[...]

     iteration # 51     ecut=    29.40 Ry     beta= 0.05
     Davidson diagonalization with overlap
     c_bands:  1 eigenvalues not converged
     ethr =  7.15E-11,  avg # of iterations = 15.4

[...]

     total energy              =   -3293.24417248 Ry
     estimated scf accuracy    <       0.00000008 Ry

     iteration # 53     ecut=    29.40 Ry     beta= 0.05
     Davidson diagonalization with overlap
     ethr =  1.91E-11,  avg # of iterations = 10.3

     negative rho (up, down):  3.573E-02 0.000E+00

     Adding external electric field

     Computed dipole along edir(3) :
        Dipole                1.5638 Ry au,          3.9747 Debye
        Dipole field          0.0020 Ry au,

        Potential amp.       -0.1824 Ry
        Total length         46.3494 bohr

     End of self-consistent calculation

          k = 0.0000 0.0000 0.0000 ( 26871 PWs)   bands (ev):

   -57.7032 -57.6960 -57.6783 -57.6765 -57.6528 -57.6113 -57.5643 -57.5260
   -57.5021 -57.4984 -57.4981 -57.4936 -57.4652 -57.4551 -56.7817 -56.7243
   -56.7002 -56.6966 -34.1002 -34.0857 -34.0838 -34.0820 -34.0580 -34.0398
   -34.0342 -34.0200 -34.0152 -33.9965 -33.9637 -33.9604 -33.9503 -33.9447
   -33.8997 -33.8969 -33.8905 -33.8834 -33.8703 -33.8476 -33.8412 -33.8294
   -33.8258 -33.8203 -33.7998 -33.7985 -33.7963 -33.7795 -33.7641 -33.7418
   -33.7378 -33.7335 -33.7221 -33.7144 -33.7058 -33.6912 -33.6866 -33.6853
   -33.6822 -33.6767 -33.6705 -33.6421 -33.2393 -33.0390 -33.0389 -33.0347
   -33.0232 -33.0199 -32.9906 -32.9760 -32.9505 -32.8878 -32.8837 -32.7501
   -19.1808 -19.0186 -18.8677 -18.5616 -18.1585 -17.9910 -17.9684 -17.9505
   -17.9105 -17.8110 -17.8098 -17.6307 -17.5725 -17.5397 -17.5103 -17.5043
   -17.4333 -17.3954 -17.3799 -17.3618 -17.3556 -17.3493 -17.3322 -17.2883
   -17.2519 -17.1968 -17.1820 -17.1464 -17.1350 -17.1334 -17.1321 -17.0629
   -16.8282 -15.1909 -15.1332 -15.1316 -12.1203  -7.9012  -6.7950  -6.5423
    -6.3458  -5.8902  -5.6735  -5.6210  -5.5397  -5.1835  -5.1695  -5.1015
    -5.0896  -5.0629  -4.9962  -4.9821  -4.9783  -4.9634  -4.8818  -4.8458
    -4.8337  -4.7859  -4.7678  -4.7110  -4.6448  -4.6349  -4.5750  -4.5387
    -4.5032  -4.4977  -4.4924  -4.4838  -4.4677  -4.4338  -4.3598  -4.3096
    -4.1749  -4.1685  -4.1165  -4.0505  -4.0228  -4.0145  -3.9539  -3.8789
    -3.8367  -3.8287  -3.7872  -3.7579  -3.7221  -3.7012  -3.6758  -3.5849
    -3.4942  -3.4573  -3.4524  -3.4121  -3.3981  -3.3451  -3.2299  -3.1763
    -3.1097  -3.0479  -2.9859  -2.9625  -2.9217  -2.8676  -2.8453  -2.7946
    -2.7741  -2.7212  -2.6771  -2.6253  -2.5334  -2.4752  -2.4699  -2.4580
    -2.4019  -2.3860  -2.3718  -2.3491  -2.3237  -2.2698  -2.2365  -2.2053
    -2.1717  -2.1409  -2.0959  -2.0607  -2.0497  -1.9415  -1.9077  -1.8795
    -1.7542  -1.7284  -1.6840  -1.6531  -1.5599  -1.5448  -1.5438  -1.4289
    -1.4132  -1.0959  -0.9996  -0.7453  -0.4741  -0.4288  -0.4280  -0.1642
    -0.1615  -0.0321   0.5325   1.2680   1.5232   1.6693   1.7277   1.7450
     1.7920   1.8767   1.8933   1.9232   1.9419   1.9770

[...]

          k = 0.0380-0.0280 0.0000 ( 26873 PWs)   bands (ev):

[...]

          k =-0.0760-0.0000 0.0000 ( 26902 PWs)   bands (ev):

[...]

          k =-0.0760-0.0559 0.0000 ( 26868 PWs)   bands (ev):

   -57.6954 -57.6952 -57.6937 -57.6689 -57.6541 -57.6106 -57.5643 -57.5194
   -57.5147 -57.4982 -57.4917 -57.4916 -57.4715 -57.4514 -56.7817 -56.7173
   -56.7139 -56.6898 -34.1783 -34.1707 -34.0853 -34.0591 -34.0499 -34.0349
   -34.0295 -34.0274 -33.9960 -33.9858 -33.9523 -33.9291 -33.9023 -33.8944
   -33.8923 -33.8788 -33.8723 -33.8444 -33.8435 -33.8393 -33.8353 -33.8335
   -33.8221 -33.8115 -33.7873 -33.7858 -33.7774 -33.7757 -33.7729 -33.7638
   -33.7545 -33.7478 -33.7333 -33.7317 -33.7196 -33.7172 -33.7141 -33.7086
   -33.6918 -33.6743 -33.6677 -33.6661 -33.2457 -33.1285 -33.0391 -33.0360
   -33.0129 -32.9917 -32.9772 -32.9311 -32.9269 -32.8642 -32.8489 -32.8450
   -19.1008 -19.0941 -18.8538 -18.2553 -18.2383 -17.9251 -17.8830 -17.8344
   -17.8302 -17.8060 -17.7357 -17.7191 -17.6855 -17.6216 -17.5382 -17.5091
   -17.4822 -17.4498 -17.4359 -17.4289 -17.4191 -17.3965 -17.3550 -17.3514
   -17.3010 -17.2543 -17.2192 -17.1691 -17.1386 -17.0886 -17.0631 -17.0358
   -16.8619 -15.1891 -15.1869 -15.0702 -12.1188  -7.9044  -6.7878  -6.5663
    -6.3028  -5.5032  -5.4940  -5.4860  -5.4374  -5.1479  -5.0383  -4.9909
    -4.9865  -4.9601  -4.9025  -4.8877  -4.8749  -4.8592  -4.8479  -4.8119
    -4.8071  -4.7631  -4.7511  -4.7374  -4.6875  -4.6296  -4.6241  -4.5997
    -4.5906  -4.5167  -4.5090  -4.4585  -4.3643  -4.3207  -4.3013  -4.2961
    -4.2581  -4.2250  -4.2172  -4.1457  -3.8985  -3.8888  -3.8659  -3.8480
    -3.8120  -3.7624  -3.7336  -3.7125  -3.6541  -3.5501  -3.4257  -3.3921
    -3.3790  -3.3623  -3.3371  -3.2978  -3.2858  -3.2765  -3.2312  -3.1998
    -3.1975  -3.1545  -3.1122  -3.0228  -2.9882  -2.9319  -2.8864  -2.8442
    -2.8317  -2.8199  -2.8134  -2.7966  -2.7672  -2.7527  -2.7385  -2.7005
    -2.6836  -2.6186  -2.5667  -2.5047  -2.4828  -2.4275  -2.3569  -2.2755
    -2.2521  -2.1897  -2.0967  -2.0400  -1.9998  -1.9668  -1.9478  -1.9270
    -1.8471  -1.8226  -1.7953  -1.7812  -1.5184  -1.5152  -1.3702  -1.3367
    -1.2860  -1.2778  -1.2112  -1.0512  -0.6404  -0.3548  -0.3478  -0.3195
    -0.1639  -0.1636   0.4827   1.4393   1.5041   1.5167   1.6080   1.6149
     1.6294   1.7263   1.7674   1.7709   1.9063   1.9774

     the Fermi energy is     1.3780 ev

!    total energy              =   -3293.24425532 Ry
     estimated scf accuracy    <       0.00000003 Ry
     smearing contrib. (-TS)   =      -0.03195063 Ry
     internal energy E=F+TS    =   -3293.21230469 Ry

     The total energy is F=E-TS. E is the sum of the following terms:
     one-electron contribution =  -34435.04288454 Ry
     hartree contribution      =   17282.69456383 Ry
     xc contribution           =    -542.29649968 Ry
     ewald contribution        =   14401.42943914 Ry
     electric field correction =       0.00307655 Ry

     convergence has been achieved in  53 iterations

     Forces acting on atoms (cartesian axes, Ry/au):

     atom    1 type  1   force =     0.00085016    0.00631788    0.05754529
     atom    2 type  1   force =    -0.00003756   -0.00070856   -0.00477310
     atom    3 type  1   force =    -0.00001083   -0.00162462   -0.00112175
     atom    4 type  1   force =     0.00006830    0.00076708    0.10713087
     atom    5 type  1   force =    -0.00015493   -0.00058627    0.00931931
     atom    6 type  1   force =     0.00137594   -0.00274692    0.00355880
     atom    7 type  1   force =     0.06706835   -0.00000026   -0.02953947
     atom    8 type  1   force =     0.00334222   -0.02853123    0.00244833
     atom    9 type  1   force =     0.01231845   -0.01754139    0.00143220
     atom   10 type  2   force =     0.00007623   -0.00241946   -0.18533182
     atom   11 type  2   force =     0.00014881    0.02112171   -0.00707920
     atom   12 type  2   force =    -0.00559298    0.01503479   -0.00276887
     atom   13 type  1   force =    -0.06728480   -0.00039033   -0.02893781
     atom   14 type  1   force =    -0.00360747   -0.02912168    0.00250313
     atom   15 type  1   force =    -0.00691459   -0.01134878    0.00264809
     atom   16 type  2   force =    -0.00021459   -0.00127445    0.06489543
     atom   17 type  2   force =     0.00030031    0.03526908    0.00389369
     atom   18 type  2   force =    -0.00265353    0.02262227    0.00147652
     atom   19 type  1   force =     0.00074819    0.00408443    0.06082292
     atom   20 type  1   force =     0.00002554   -0.00007588   -0.00398115
     atom   21 type  1   force =     0.00005811   -0.00004430    0.10731298
     atom   22 type  1   force =     0.00002787   -0.00084692    0.00936960
     atom   23 type  1   force =    -0.00004357   -0.00349684    0.00474902
     atom   24 type  1   force =     0.06734511   -0.00051578   -0.02945508
     atom   25 type  1   force =     0.00347708   -0.02947755    0.00311784
     atom   26 type  1   force =     0.00655936   -0.02212725    0.00392097
     atom   27 type  2   force =    -0.00000849    0.00172216   -0.18402127
     atom   28 type  2   force =    -0.00039880    0.02140225   -0.00706689
     atom   29 type  2   force =    -0.00113158    0.02386011   -0.00422337
     atom   30 type  1   force =    -0.06754524   -0.00097639   -0.02876456
     atom   31 type  1   force =    -0.00416192   -0.02931549    0.00227895
     atom   32 type  1   force =    -0.00647586   -0.01864225   -0.00032255
     atom   33 type  2   force =    -0.00033373   -0.00092744    0.06451687
     atom   34 type  2   force =     0.00044167    0.03629694    0.00381611
     atom   35 type  2   force =     0.00231299    0.02408536    0.00259725
     atom   36 type  1   force =     0.00068372    0.00483432    0.05917044
     atom   37 type  1   force =    -0.00015342    0.00147476   -0.00767082
     atom   38 type  1   force =    -0.00037890   -0.00313348    0.00080393
     atom   39 type  1   force =     0.00010851   -0.00015889    0.10690220
     atom   40 type  1   force =     0.00007803   -0.00088825    0.00974922
     atom   41 type  1   force =     0.00078341   -0.00195847    0.00138888
     atom   42 type  1   force =     0.06758759   -0.00029291   -0.02940812
     atom   43 type  1   force =     0.00369968   -0.02888233    0.00186036
     atom   44 type  1   force =     0.00874756   -0.01706610    0.00064841
     atom   45 type  2   force =     0.00023958   -0.00246817   -0.18291437
     atom   46 type  2   force =     0.00023626    0.01985979   -0.00664782
     atom   47 type  2   force =    -0.00011918    0.02227004    0.00162058
     atom   48 type  1   force =    -0.06773784   -0.00078952   -0.02866609
     atom   49 type  1   force =    -0.00360936   -0.02860277    0.00242525
     atom   50 type  1   force =    -0.00821976   -0.01838640   -0.00138104
     atom   51 type  2   force =    -0.00036071   -0.00110645    0.06450598
     atom   52 type  2   force =    -0.00016468    0.03594290    0.00436276
     atom   53 type  2   force =    -0.00168376    0.01464574   -0.00205900
     atom   54 type  3   force =    -0.00070152   -0.00020050    0.00051377
     atom   55 type  3   force =    -0.00089709   -0.00083306    0.00171673
     atom   56 type  3   force =     0.00435531    0.00999834    0.00513052
     atom   57 type  4   force =     0.00478733   -0.02230562   -0.00078069
     atom   58 type  4   force =     0.00021483   -0.00065541   -0.00171793
     atom   59 type  3   force =    -0.00746984    0.00885845   -0.00152042

     Total force =     0.456534     Total SCF correction =     0.000401
  @ DRIVER MODE: Message from server: STATUS
  @ DRIVER MODE: Message from server: GETFORCE
  @ DRIVER MODE: Returning v,forces,stress,ensemble

     Writing output data file ./calc.save/
  @ DRIVER MODE: Message from server: EXIT
  @ DRIVE MODE: Exiting

     General routines

     Parallel routines

   This run was terminated on:  22:44:36  18Oct2021

   JOB DONE.