     Program PWSCF v.6.7GPU starts on 24Sep2021 at  9: 7: 1

     R & G space division:  proc/nbgrp/npool/nimage =       8
     Reading input from /storage/home/hcoda1/3/ntian30/research/carbon/CxH_vib/H2O_calc/ads_slab/CH3NNHHHHO_a/out_0054/pw.inp
Warning: card &CELL ignored
Warning: card   CELL_DYNAMICS='IPI', ignored
Warning: card / ignored

     Current dimensions of program PWSCF are:
     Max number of different atomic species (ntypx) = 10
     Max number of k-points (npk) =  40000
     Max angular momentum in pseudopotentials (lmaxx) =  3
     Presently no symmetry can be used with electric field

     Message from routine cell_base_init:
     DEPRECATED: use true lattice parameter, not A to a.u. conversion factor

     IMPORTANT: XC functional enforced from input :
     Exchange-correlation= BEEF-VDW
                           (   1   4  43  14   2   0   0)
     Any further DFT definition will be discarded
     Please, verify this is what you really want

  @ DRIVER MODE: Connecting to
 qe_1139763_2947308.sched-torque.pace.gatech.eduhgwiojjc_scratch
  using UNIX socket
  @ DRIVER MODE: Message from server: STATUS
  @ DRIVER MODE: Message from server: INIT
  @ DRIVER MODE: Receiving replica           0          -1
  @ DRIVER MODE: Receiving encoded integer          25
  @ DRIVER MODE:  SCF:  T  FORCE:  T  STRESS:  F  VC:  F  ENSEMBLE:  F
  @ DRIVER MODE:  SCF:  T  FORCE:  T  STRESS:  F  VC:  F  ENSEMBLE:  F

     Using Slab Decomposition

     bravais-lattice index     =            0
     lattice parameter (alat)  =       1.8897  a.u.
     unit-cell volume          =    6658.9804 (a.u.)^3
     number of atoms/cell      =           58
     number of atomic types    =            5
     number of electrons       =       405.00
     number of Kohn-Sham states=          212
     kinetic-energy cutoff     =      29.3995  Ry
     charge density cutoff     =     293.9946  Ry
     scf convergence threshold =      7.3E-08
     mixing beta               =       0.0500
     number of iterations used =            8  plain     mixing
     Exchange-correlation= BEEF-VDW
                           (   1   4  43  14   2   0   0)

     celldm(1)=   1.889726  celldm(2)=   0.000000  celldm(3)=   0.000000
     celldm(4)=   0.000000  celldm(5)=   0.000000  celldm(6)=   0.000000

     crystal axes: (cart. coord. in units of alat)
               a(1) = (   6.579727   0.000000   0.000000 )
               a(2) = (  -0.000775   5.961596   0.000000 )
               a(3) = (   0.000000   0.000000  25.155947 )

     reciprocal axes: (cart. coord. in units 2 pi/alat)
               b(1) = (  0.151982  0.000020  0.000000 )
               b(2) = (  0.000000  0.167740  0.000000 )
               b(3) = (  0.000000  0.000000  0.039752 )

     PseudoPot. # 1 for Ti read from file:
     /storage/coda1/p-amedford6/0/shared/rich_project_chbe-medford/medford-share/data/pseudos_module/espresso/nninc/pbe/van/Ti.UPF
     MD5 check sum: 8e4df49b7f0d34bbd5052bf3f5ea0213
     Pseudo is Ultrasoft, Zval = 12.0
     Generated by new atomic code, or converted to UPF format
     Using radial grid of  851 points,  6 beta functions with:
                l(1) =   0
                l(2) =   0
                l(3) =   1
                l(4) =   1
                l(5) =   2
                l(6) =   2
     Q(r) pseudized with  8 coefficients,  rinner =    1.000   1.000   1.000
                                                       1.000   1.000

     PseudoPot. # 2 for O  read from file:
     /storage/coda1/p-amedford6/0/shared/rich_project_chbe-medford/medford-share/data/pseudos_module/espresso/nninc/pbe/van/O.UPF
     MD5 check sum: 78c19812648e8988a0fe644b0f25305e
     Pseudo is Ultrasoft, Zval =  6.0
     Generated by new atomic code, or converted to UPF format
     Using radial grid of  737 points,  4 beta functions with:
                l(1) =   0
                l(2) =   0
                l(3) =   1
                l(4) =   1
     Q(r) pseudized with  8 coefficients,  rinner =    0.800   0.800   0.800

     PseudoPot. # 3 for N  read from file:
     /storage/coda1/p-amedford6/0/shared/rich_project_chbe-medford/medford-share/data/pseudos_module/espresso/nninc/pbe/van/N.UPF
     MD5 check sum: 90d10febe142ad51ac9d5be1deb811c4
     Pseudo is Ultrasoft, Zval =  5.0
     Generated by new atomic code, or converted to UPF format
     Using radial grid of  729 points,  4 beta functions with:
                l(1) =   0
                l(2) =   0
                l(3) =   1
                l(4) =   1
     Q(r) pseudized with  8 coefficients,  rinner =    0.800   0.800   0.800

     PseudoPot. # 4 for C  read from file:
     /storage/coda1/p-amedford6/0/shared/rich_project_chbe-medford/medford-share/data/pseudos_module/espresso/nninc/pbe/van/C.UPF
     MD5 check sum: 1a69bf6b8db32088f5b2163dbdb77a27
     Pseudo is Ultrasoft, Zval =  4.0
     Generated by new atomic code, or converted to UPF format
     Using radial grid of  721 points,  4 beta functions with:
                l(1) =   0
                l(2) =   0
                l(3) =   1
                l(4) =   1
     Q(r) pseudized with  8 coefficients,  rinner =    0.800   0.800   0.800

     PseudoPot. # 5 for H  read from file:
     /storage/coda1/p-amedford6/0/shared/rich_project_chbe-medford/medford-share/data/pseudos_module/espresso/nninc/pbe/van/H.UPF
     MD5 check sum: b5ee9d7bfd3a09ee7748110bda690ff7
     Pseudo is Ultrasoft, Zval =  1.0
     Generated by new atomic code, or converted to UPF format
     Using radial grid of  615 points,  1 beta functions with:
                l(1) =   0
     Q(r) pseudized with  8 coefficients,  rinner =    0.800

     atomic species   valence    mass     pseudopotential
        Ti1           12.00    47.86700     Ti( 1.00)
        O1             6.00    15.99900     O ( 1.00)
        N1             5.00    14.00700     N ( 1.00)
        C1             4.00    12.01100     C ( 1.00)
        H1             1.00     1.00800     H ( 1.00)

     No symmetry found

   Cartesian axes

     site n.     atom                  positions (alat units)
         1           Ti1 tau(   1) = (   0.0004258   2.9801865   6.0000000  )
         2           Ti1 tau(   2) = (   3.2906075   1.4906267   6.0002472  )
         3           O1  tau(   3) = (   0.0006271   0.0005054   7.9858123  )
         4           O1  tau(   4) = (   3.2906025   0.0005020   7.3038282  )
         5           O1  tau(   5) = (   4.5942328   1.4918067   9.2879030  )
         6           O1  tau(   6) = (   1.9868534   1.4903216   9.2879459  )
         7           Ti1 tau(   7) = (   3.2907910   2.8959150   9.1758416  )
         8           Ti1 tau(   8) = (   0.0015273   1.4827037   9.2680791  )
         9           O1  tau(   9) = (   3.3066316   0.0080679  11.3583267  )
        10           O1  tau(  10) = (   0.0116148   5.9584955  10.6183126  )
        11           O1  tau(  11) = (   1.3000076   1.5005770  12.6434233  )
        12           O1  tau(  12) = (   5.3281586   1.4930334  12.6431679  )
        13           Ti1 tau(  13) = (   0.0126194   3.0144704  12.5166071  )
        14           Ti1 tau(  14) = (   3.3185830   1.5708444  12.4374219  )
        15           O1  tau(  15) = (   0.0449490   0.0685618  14.6579901  )
        16           O1  tau(  16) = (   3.3164028   5.8986079  13.9921319  )
        17           O1  tau(  17) = (   4.5763498   1.4919541  16.1892649  )
        18           O1  tau(  18) = (   2.0390356   1.5007807  16.1677599  )
        19           Ti1 tau(  19) = (   3.3152479   2.9236451  15.6986563  )
        20           Ti1 tau(  20) = (   0.0808212   1.4292116  16.0039943  )
        21           O1  tau(  21) = (   3.2904802   0.0005063   4.7018136  )
        22           O1  tau(  22) = (   0.0303022   5.8046116  17.1736243  )
        23           O1  tau(  23) = (   1.3043587   1.4918075   6.0039043  )
        24           O1  tau(  24) = (   5.2767064   1.4903225   6.0039473  )
        25           Ti1 tau(  25) = (   0.0000382   5.9609847   6.0000000  )
        26           Ti1 tau(  26) = (   3.2902200   4.4714249   6.0002472  )
        27           O1  tau(  27) = (   0.0002396   2.9813036   7.9858123  )
        28           O1  tau(  28) = (   3.2902150   2.9813002   7.3038282  )
        29           O1  tau(  29) = (   4.5938453   4.4726049   9.2879030  )
        30           O1  tau(  30) = (   1.9864658   4.4711199   9.2879459  )
        31           Ti1 tau(  31) = (   3.2891106   5.8743827   9.1763621  )
        32           Ti1 tau(  32) = (   0.0006254   4.4649316   9.2693709  )
        33           O1  tau(  33) = (   3.3101163   2.9547251  11.3177968  )
        34           O1  tau(  34) = (   0.0092240   2.9805883  10.6323155  )
        35           O1  tau(  35) = (   1.2917786   4.4638488  12.6831265  )
        36           O1  tau(  36) = (   5.3332004   4.4701953  12.6833355  )
        37           Ti1 tau(  37) = (   0.0360484   0.0435164  12.5022323  )
        38           Ti1 tau(  38) = (   3.3166134   4.6596848  12.7231989  )
        39           O1  tau(  39) = (   6.5734590   2.9070644  14.8960501  )
        40           O1  tau(  40) = (   3.3256711   2.9499323  13.9293234  )
        41           O1  tau(  41) = (   4.5718193   4.3849529  16.1598725  )
        42           O1  tau(  42) = (   2.0293811   4.3548050  16.0908550  )
        43           Ti1 tau(  43) = (   3.3839698   5.9011270  16.3477160  )
        44           Ti1 tau(  44) = (   0.0762916   4.6312412  15.8077656  )
        45           O1  tau(  45) = (   3.2900926   2.9813045   4.7018136  )
        46           O1  tau(  46) = (   1.3039711   4.4726057   6.0039043  )
        47           O1  tau(  47) = (   5.2763189   4.4711207   6.0039473  )
        48           N1  tau(  48) = (   1.0338470   3.0145746  18.8549854  )
        49           N1  tau(  49) = (   6.4614719   2.5758313  18.0922931  )
        50           C1  tau(  50) = (   0.6385090   3.7489381  20.0602371  )
        51           H1  tau(  51) = (   6.5128770   4.5633600  19.8465500  )
        52           H1  tau(  52) = (   0.1876125   3.0656416  20.7809517  )
        53           H1  tau(  53) = (   1.5398112   4.1767214  20.4987412  )
        54           H1  tau(  54) = (   5.7034478   3.2665398  18.1448723  )
        55           H1  tau(  55) = (   6.1095767   1.7263867  18.5341855  )
        56           H1  tau(  56) = (   1.5400177   3.6533120  18.2566354  )
        57           O1  tau(  57) = (   3.2295176   5.8880611  18.1942677  )
        58           H1  tau(  58) = (   2.6769533   0.6239085  18.5854980  )

     number of k points=    10  Fermi-Dirac smearing, width (Ry)=  0.0073
                       cart. coord. in units 2pi/alat
        k(    1) = (   0.0000000   0.0000000   0.0000000), wk =   0.1250000
        k(    2) = (   0.0000000   0.0419351   0.0000000), wk =   0.2500000
        k(    3) = (   0.0000000  -0.0838702   0.0000000), wk =   0.1250000
        k(    4) = (   0.0379955   0.0000049   0.0000000), wk =   0.2500000
        k(    5) = (   0.0379955   0.0419400   0.0000000), wk =   0.2500000
        k(    6) = (   0.0379955  -0.0838652   0.0000000), wk =   0.2500000
        k(    7) = (   0.0379955  -0.0419301   0.0000000), wk =   0.2500000
        k(    8) = (  -0.0759910  -0.0000099   0.0000000), wk =   0.1250000
        k(    9) = (  -0.0759910   0.0419252   0.0000000), wk =   0.2500000
        k(   10) = (  -0.0759910  -0.0838800   0.0000000), wk =   0.1250000

     Initial potential from superposition of free atoms

     starting charge  388.99913, renormalised to  405.00000

     negative rho (up, down):  1.325E-02 0.000E+00

     %%%%%%%%%%%%%%%%%%%%%%%%%%%%%%%%%%%%%%%%%%%%%%%%%%%%%%%%%%%%%%%%%%%%%%%%
     %                                                                      %
     % You are using vdW-DF, which was implemented by the Thonhauser group. %
     % Please cite the following two papers that made this development      %
     % possible and the two reviews that describe the various versions:     %
     %                                                                      %
     %   T. Thonhauser et al., PRL 115, 136402 (2015).                      %
     %   T. Thonhauser et al., PRB 76, 125112 (2007).                       %
     %   K. Berland et al., Rep. Prog. Phys. 78, 066501 (2015).             %
     %   D.C. Langreth et al., J. Phys.: Condens. Matter 21, 084203 (2009). %
     %                                                                      %
     %                                                                      %
     % If you are calculating the stress with vdW-DF, please also cite:     %
     %                                                                      %
     %   R. Sabatini et al., J. Phys.: Condens. Matter 24, 424209 (2012).   %
     %                                                                      %
     %%%%%%%%%%%%%%%%%%%%%%%%%%%%%%%%%%%%%%%%%%%%%%%%%%%%%%%%%%%%%%%%%%%%%%%%

     Adding external electric field

     Computed dipole along edir(3) :
        Dipole              -14.7659 Ry au,        -37.5312 Debye
        Dipole field         -0.0279 Ry au,

        Potential amp.        2.5831 Ry
        Total length         46.3494 bohr

     Starting wfcs are  307 atomic wfcs
  @ DRIVER MODE: Message from server: STATUS
  @ DRIVER MODE: Message from server: POSDATA
  @ DRIVER MODE: Reading and sharing cell
  @ DRIVER MODE: Reading and sharing positions
  @ DRIVER MODE: Received positions

     Self-consistent Calculation

     iteration #  1     ecut=    29.40 Ry     beta= 0.05
     Davidson diagonalization with overlap
     c_bands:  3 eigenvalues not converged
     c_bands:  4 eigenvalues not converged
     c_bands:  2 eigenvalues not converged
     c_bands:  3 eigenvalues not converged
     c_bands:  3 eigenvalues not converged
     c_bands:  3 eigenvalues not converged
     ethr =  1.00E-05,  avg # of iterations = 23.2

[...]

     total energy              =   -2204.21433106 Ry
     estimated scf accuracy    <    8785.98393358 Ry

[...]

     iteration #  3     ecut=    29.40 Ry     beta= 0.05
     Davidson diagonalization with overlap
     ethr =  1.00E-02,  avg # of iterations = 16.4

[...]

     iteration # 68     ecut=    29.40 Ry     beta= 0.05
     Davidson diagonalization with overlap
     c_bands:  1 eigenvalues not converged
     ethr =  8.59E-11,  avg # of iterations = 13.1

[...]

     total energy              =   -2976.49818692 Ry
     estimated scf accuracy    <       0.00000010 Ry

     iteration # 71     ecut=    29.40 Ry     beta= 0.05
     Davidson diagonalization with overlap
     ethr =  2.49E-11,  avg # of iterations =  8.7

     negative rho (up, down):  1.443E-02 0.000E+00

     Adding external electric field

     Computed dipole along edir(3) :
        Dipole                0.9935 Ry au,          2.5252 Debye
        Dipole field          0.0019 Ry au,

        Potential amp.       -0.1738 Ry
        Total length         46.3494 bohr

     End of self-consistent calculation

          k = 0.0000 0.0000 0.0000 ( 18029 PWs)   bands (ev):

   -55.5812 -55.4975 -55.4634 -55.3629 -55.3413 -55.3255 -55.3111 -55.3048
   -55.2917 -55.2623 -55.2185 -55.0958 -55.0849 -55.0078 -54.4665 -54.4324
   -31.9820 -31.9175 -31.8765 -31.8290 -31.8273 -31.8086 -31.7981 -31.7884
   -31.7487 -31.7435 -31.7249 -31.6501 -31.6264 -31.6055 -31.6040 -31.6022
   -31.5964 -31.5843 -31.5820 -31.5551 -31.5488 -31.5234 -31.5230 -31.5113
   -31.4957 -31.4851 -31.4771 -31.4598 -31.4558 -31.4528 -31.4431 -31.4373
   -31.4333 -31.4142 -31.3722 -31.3700 -31.2993 -31.2924 -31.2784 -31.2575
   -31.2206 -31.2132 -30.8721 -30.7866 -30.7641 -30.6898 -30.6034 -30.4915
   -17.5922 -16.4011 -16.1383 -15.9757 -15.7598 -15.6743 -15.6460 -15.4535
   -15.3480 -15.2952 -15.1090 -15.0627 -15.0322 -15.0200 -15.0058 -14.9831
   -14.9632 -14.9252 -14.9166 -14.9063 -14.9007 -14.8621 -14.8399 -14.7891
   -14.7658 -14.7038 -14.6317 -14.5641 -14.5166 -14.2558 -14.2377 -12.9875
   -12.9649 -12.8486  -9.4710  -6.1620  -5.2283  -4.6343  -3.9627  -3.5031
    -3.4021  -3.3863  -3.3316  -3.2677  -3.1712  -2.9944  -2.8858  -2.8322
    -2.7313  -2.6239  -2.5690  -2.5062  -2.4836  -2.4296  -2.3960  -2.3849
    -2.3779  -2.2814  -2.2732  -2.2457  -2.2106  -2.1543  -2.1386  -2.0608
    -2.0244  -2.0159  -1.8912  -1.8789  -1.8132  -1.8088  -1.8025  -1.7689
    -1.7479  -1.7331  -1.7039  -1.6202  -1.5671  -1.4969  -1.4742  -1.4444
    -1.1851  -1.0930  -1.0553  -1.0271  -0.9299  -0.9155  -0.9009  -0.8965
    -0.8826  -0.8331  -0.7871  -0.7021  -0.5934  -0.5739  -0.5640  -0.5189
    -0.4536  -0.3716  -0.2986  -0.2689  -0.2317  -0.2184  -0.1526  -0.0749
    -0.0588  -0.0465   0.0627   0.0765   0.1589   0.2173   0.2315   0.2766
     0.3172   0.3499   0.4067   0.4430   0.4735   0.4794   0.5127   0.5573
     0.6128   0.6433   0.6712   0.7534   0.8090   0.8544   0.8822   1.0533
     1.0821   1.1350   1.1797   1.2668   1.5097   1.5600   1.5993   1.7544
     2.1264   2.1715   3.5872   3.7383   3.7534   3.8230   3.8480   3.9392
     4.0765   4.1441   4.2764   4.2843

[...]

          k = 0.0380-0.0419 0.0000 ( 17876 PWs)   bands (ev):

[...]

          k =-0.0760-0.0000 0.0000 ( 17886 PWs)   bands (ev):

[...]

          k =-0.0760-0.0839 0.0000 ( 17948 PWs)   bands (ev):

   -55.5805 -55.4805 -55.4802 -55.3617 -55.3282 -55.3178 -55.3117 -55.3086
   -55.3082 -55.2543 -55.2265 -55.0926 -55.0860 -55.0108 -54.4495 -54.4492
   -31.8649 -31.8073 -31.8021 -31.7974 -31.7972 -31.7829 -31.7740 -31.7737
   -31.7045 -31.6487 -31.6408 -31.6334 -31.6285 -31.6151 -31.6006 -31.6005
   -31.5984 -31.5980 -31.5838 -31.5732 -31.5656 -31.5571 -31.5360 -31.5178
   -31.5147 -31.5113 -31.5040 -31.5008 -31.4885 -31.4813 -31.4786 -31.4732
   -31.4679 -31.4494 -31.4435 -31.3659 -31.3542 -31.3399 -31.3012 -31.2964
   -31.2627 -31.2166 -30.7769 -30.7767 -30.6852 -30.6848 -30.6468 -30.6465
   -17.5863 -16.3871 -15.7463 -15.5680 -15.4722 -15.4658 -15.3349 -15.2692
   -15.2603 -15.2256 -15.2071 -15.1920 -15.1591 -15.1417 -15.1011 -15.0494
   -15.0160 -14.9934 -14.9818 -14.9448 -14.9323 -14.9102 -14.9031 -14.8945
   -14.8360 -14.8041 -14.7950 -14.7638 -14.5687 -14.5470 -14.3702 -12.9890
   -12.9506 -12.9504  -9.4685  -6.1474  -5.2297  -4.6443  -3.9589  -3.1734
    -2.9207  -2.7771  -2.7012  -2.5671  -2.5571  -2.4994  -2.4960  -2.4470
    -2.4384  -2.3970  -2.3431  -2.3270  -2.2840  -2.2793  -2.2483  -2.2357
    -2.2251  -2.2159  -2.1909  -2.1713  -2.1625  -2.1216  -2.1170  -2.1011
    -2.0820  -2.0651  -2.0376  -2.0267  -1.9863  -1.9471  -1.8813  -1.8079
    -1.7222  -1.6394  -1.6290  -1.6182  -1.5717  -1.5652  -1.5185  -1.5071
    -1.4598  -1.4084  -1.2939  -1.1707  -1.1320  -1.1051  -1.0729  -1.0415
    -0.9864  -0.9635  -0.9284  -0.8802  -0.8485  -0.7245  -0.7134  -0.6480
    -0.5645  -0.5304  -0.4543  -0.4411  -0.4266  -0.4104  -0.3886  -0.3720
    -0.3426  -0.3267  -0.2220  -0.1981  -0.1949  -0.1723  -0.1219  -0.0184
     0.0552   0.1382   0.2411   0.2907   0.3186   0.3524   0.4521   0.5703
     0.5956   0.6583   0.6906   0.7336   0.8006   0.8213   0.8692   0.9544
     1.0077   1.0401   1.0663   1.0713   1.1255   1.1494   1.9230   1.9315
     1.9918   1.9920   3.8008   4.0771   4.1027   4.1186   4.1559   4.1601
     4.1820   4.1965   4.2623   4.2778

     the Fermi energy is     3.6241 ev

!    total energy              =   -2976.49820807 Ry
     estimated scf accuracy    <       0.00000006 Ry
     smearing contrib. (-TS)   =      -0.01952666 Ry
     internal energy E=F+TS    =   -2976.47868141 Ry

     The total energy is F=E-TS. E is the sum of the following terms:
     one-electron contribution =  -23034.06658111 Ry
     hartree contribution      =   11613.39688657 Ry
     xc contribution           =    -495.71408454 Ry
     ewald contribution        =    8939.90323508 Ry
     electric field correction =       0.00186260 Ry

     convergence has been achieved in  71 iterations

     Forces acting on atoms (cartesian axes, Ry/au):

     atom    1 type  1   force =     0.00000940   -0.00022303    0.09405901
     atom    2 type  1   force =    -0.00016039    0.00025456   -0.17515320
     atom    3 type  2   force =     0.00007414   -0.00016162   -0.02114820
     atom    4 type  2   force =     0.00000315   -0.00104271    0.05355711
     atom    5 type  2   force =    -0.00455242   -0.00322717    0.00114880
     atom    6 type  2   force =     0.00660878   -0.00242635    0.00161295
     atom    7 type  1   force =     0.00037429    0.00457040    0.01036918
     atom    8 type  1   force =    -0.00056016    0.00199398    0.00312111
     atom    9 type  2   force =     0.00010337   -0.00050119   -0.00046937
     atom   10 type  2   force =    -0.00031144   -0.00004353   -0.01130372
     atom   11 type  2   force =    -0.00024148    0.00046116    0.00004397
     atom   12 type  2   force =    -0.00026506    0.00067725    0.00008045
     atom   13 type  1   force =     0.00061817   -0.00064320    0.00024753
     atom   14 type  1   force =    -0.00035522    0.00017289    0.00020733
     atom   15 type  2   force =    -0.00017874    0.00013300    0.00052869
     atom   16 type  2   force =     0.00005547   -0.00002494    0.00039883
     atom   17 type  2   force =    -0.00035166    0.00022759    0.00010680
     atom   18 type  2   force =     0.00003718    0.00006339    0.00023675
     atom   19 type  1   force =    -0.00023615    0.00064669   -0.00025491
     atom   20 type  1   force =     0.00003436   -0.00014740   -0.00022273
     atom   21 type  2   force =     0.00002870   -0.00001240    0.10314418
     atom   22 type  2   force =    -0.00008663   -0.00011592   -0.00028994
     atom   23 type  2   force =    -0.07213335   -0.00021042   -0.02724925
     atom   24 type  2   force =     0.07203600    0.00023246   -0.02732662
     atom   25 type  1   force =     0.00006969   -0.00034895    0.09404096
     atom   26 type  1   force =    -0.00000350   -0.00128615   -0.17518415
     atom   27 type  2   force =     0.00015285   -0.00021262   -0.01992759
     atom   28 type  2   force =     0.00008648   -0.00111108    0.04907653
     atom   29 type  2   force =    -0.00668741    0.00152524    0.00212744
     atom   30 type  2   force =     0.00855558    0.00170363    0.00249725
     atom   31 type  1   force =     0.00049845   -0.00019942    0.00052818
     atom   32 type  1   force =    -0.00020369   -0.00145179    0.00351113
     atom   33 type  2   force =    -0.00007852   -0.00000007   -0.00001116
     atom   34 type  2   force =    -0.00088869    0.00246603   -0.01151474
     atom   35 type  2   force =     0.00002547   -0.00043414    0.00048701
     atom   36 type  2   force =    -0.00052519   -0.00041300    0.00034440
     atom   37 type  1   force =     0.00037307    0.00028709    0.00004030
     atom   38 type  1   force =    -0.00038454    0.00020158    0.00030885
     atom   39 type  2   force =    -0.00052011    0.00041026    0.00048175
     atom   40 type  2   force =    -0.00001738   -0.00007424   -0.00008009
     atom   41 type  2   force =    -0.00036173   -0.00027040    0.00027116
     atom   42 type  2   force =    -0.00016063   -0.00019708   -0.00036962
     atom   43 type  1   force =    -0.00011619   -0.00046556    0.00056999
     atom   44 type  1   force =    -0.00001364    0.00011205    0.00013770
     atom   45 type  2   force =     0.00002144   -0.00001638    0.10300233
     atom   46 type  2   force =    -0.07213851   -0.00008557   -0.02724674
     atom   47 type  2   force =     0.07199157    0.00035283   -0.02728911
     atom   48 type  3   force =    -0.00403237   -0.00563985    0.00679379
     atom   49 type  3   force =     0.00008541    0.00085875   -0.00030649
     atom   50 type  4   force =    -0.00021647   -0.00099480    0.00107830
     atom   51 type  5   force =    -0.00029133    0.00022720   -0.00002339
     atom   52 type  5   force =    -0.00013989   -0.00064242    0.00015950
     atom   53 type  5   force =     0.00021703   -0.00053443    0.00001004
     atom   54 type  5   force =     0.00021287    0.00023795   -0.00055898
     atom   55 type  5   force =     0.00003317    0.00035400    0.00045691
     atom   56 type  5   force =     0.00437840    0.00510409   -0.00806645
     atom   57 type  2   force =    -0.00024170    0.00050427   -0.00057410
     atom   58 type  5   force =    -0.00023029   -0.00062051   -0.00021569

     Total force =     0.362007     Total SCF correction =     0.000809
  @ DRIVER MODE: Message from server: STATUS
  @ DRIVER MODE: Message from server: GETFORCE
  @ DRIVER MODE: Returning v,forces,stress,ensemble

     Writing output data file ./calc.save/
  @ DRIVER MODE: Message from server: EXIT
  @ DRIVE MODE: Exiting

     General routines

     Parallel routines

   This run was terminated on:   9:32: 9  24Sep2021

   JOB DONE.