     Program PWSCF v.6.7GPU starts on 23Sep2021 at  0:33:16

     R & G space division:  proc/nbgrp/npool/nimage =      10
     Reading input from /storage/home/hcoda1/3/ntian30/research/carbon/CxH_vib/H2O_calc/ads_slab/CH3NHHH2O_a/out_0027/pw.inp
Warning: card &CELL ignored
Warning: card   CELL_DYNAMICS='IPI', ignored
Warning: card / ignored

     Current dimensions of program PWSCF are:
     Max number of different atomic species (ntypx) = 10
     Max number of k-points (npk) =  40000
     Max angular momentum in pseudopotentials (lmaxx) =  3
     Presently no symmetry can be used with electric field

     Message from routine cell_base_init:
     DEPRECATED: use true lattice parameter, not A to a.u. conversion factor

     IMPORTANT: XC functional enforced from input :
     Exchange-correlation= BEEF-VDW
                           (   1   4  43  14   2   0   0)
     Any further DFT definition will be discarded
     Please, verify this is what you really want

  @ DRIVER MODE: Connecting to
 qe_1139763_2937309.sched-torque.pace.gatech.educqsw889q_scratch
  using UNIX socket
  @ DRIVER MODE: Message from server: STATUS
  @ DRIVER MODE: Message from server: INIT
  @ DRIVER MODE: Receiving replica           0          -1
  @ DRIVER MODE: Receiving encoded integer          25
  @ DRIVER MODE:  SCF:  T  FORCE:  T  STRESS:  F  VC:  F  ENSEMBLE:  F
  @ DRIVER MODE:  SCF:  T  FORCE:  T  STRESS:  F  VC:  F  ENSEMBLE:  F

     Using Slab Decomposition

     bravais-lattice index     =            0
     lattice parameter (alat)  =       1.8897  a.u.
     unit-cell volume          =    6658.9804 (a.u.)^3
     number of atoms/cell      =           57
     number of atomic types    =            5
     number of electrons       =       400.00
     number of Kohn-Sham states=          210
     kinetic-energy cutoff     =      29.3995  Ry
     charge density cutoff     =     293.9946  Ry
     scf convergence threshold =      7.3E-08
     mixing beta               =       0.0500
     number of iterations used =            8  plain     mixing
     Exchange-correlation= BEEF-VDW
                           (   1   4  43  14   2   0   0)

     celldm(1)=   1.889726  celldm(2)=   0.000000  celldm(3)=   0.000000
     celldm(4)=   0.000000  celldm(5)=   0.000000  celldm(6)=   0.000000

     crystal axes: (cart. coord. in units of alat)
               a(1) = (   6.579727   0.000000   0.000000 )
               a(2) = (  -0.000775   5.961596   0.000000 )
               a(3) = (   0.000000   0.000000  25.155947 )

     reciprocal axes: (cart. coord. in units 2 pi/alat)
               b(1) = (  0.151982  0.000020  0.000000 )
               b(2) = (  0.000000  0.167740  0.000000 )
               b(3) = (  0.000000  0.000000  0.039752 )

     PseudoPot. # 1 for Ti read from file:
     /storage/coda1/p-amedford6/0/shared/rich_project_chbe-medford/medford-share/data/pseudos_module/espresso/nninc/pbe/van/Ti.UPF
     MD5 check sum: 8e4df49b7f0d34bbd5052bf3f5ea0213
     Pseudo is Ultrasoft, Zval = 12.0
     Generated by new atomic code, or converted to UPF format
     Using radial grid of  851 points,  6 beta functions with:
                l(1) =   0
                l(2) =   0
                l(3) =   1
                l(4) =   1
                l(5) =   2
                l(6) =   2
     Q(r) pseudized with  8 coefficients,  rinner =    1.000   1.000   1.000
                                                       1.000   1.000

     PseudoPot. # 2 for O  read from file:
     /storage/coda1/p-amedford6/0/shared/rich_project_chbe-medford/medford-share/data/pseudos_module/espresso/nninc/pbe/van/O.UPF
     MD5 check sum: 78c19812648e8988a0fe644b0f25305e
     Pseudo is Ultrasoft, Zval =  6.0
     Generated by new atomic code, or converted to UPF format
     Using radial grid of  737 points,  4 beta functions with:
                l(1) =   0
                l(2) =   0
                l(3) =   1
                l(4) =   1
     Q(r) pseudized with  8 coefficients,  rinner =    0.800   0.800   0.800

     PseudoPot. # 3 for N  read from file:
     /storage/coda1/p-amedford6/0/shared/rich_project_chbe-medford/medford-share/data/pseudos_module/espresso/nninc/pbe/van/N.UPF
     MD5 check sum: 90d10febe142ad51ac9d5be1deb811c4
     Pseudo is Ultrasoft, Zval =  5.0
     Generated by new atomic code, or converted to UPF format
     Using radial grid of  729 points,  4 beta functions with:
                l(1) =   0
                l(2) =   0
                l(3) =   1
                l(4) =   1
     Q(r) pseudized with  8 coefficients,  rinner =    0.800   0.800   0.800

     PseudoPot. # 4 for C  read from file:
     /storage/coda1/p-amedford6/0/shared/rich_project_chbe-medford/medford-share/data/pseudos_module/espresso/nninc/pbe/van/C.UPF
     MD5 check sum: 1a69bf6b8db32088f5b2163dbdb77a27
     Pseudo is Ultrasoft, Zval =  4.0
     Generated by new atomic code, or converted to UPF format
     Using radial grid of  721 points,  4 beta functions with:
                l(1) =   0
                l(2) =   0
                l(3) =   1
                l(4) =   1
     Q(r) pseudized with  8 coefficients,  rinner =    0.800   0.800   0.800

     PseudoPot. # 5 for H  read from file:
     /storage/coda1/p-amedford6/0/shared/rich_project_chbe-medford/medford-share/data/pseudos_module/espresso/nninc/pbe/van/H.UPF
     MD5 check sum: b5ee9d7bfd3a09ee7748110bda690ff7
     Pseudo is Ultrasoft, Zval =  1.0
     Generated by new atomic code, or converted to UPF format
     Using radial grid of  615 points,  1 beta functions with:
                l(1) =   0
     Q(r) pseudized with  8 coefficients,  rinner =    0.800

     atomic species   valence    mass     pseudopotential
        Ti1           12.00    47.86700     Ti( 1.00)
        O1             6.00    15.99900     O ( 1.00)
        N1             5.00    14.00700     N ( 1.00)
        C1             4.00    12.01100     C ( 1.00)
        H1             1.00     1.00800     H ( 1.00)

     No symmetry found

   Cartesian axes

     site n.     atom                  positions (alat units)
         1           Ti1 tau(   1) = (   0.0004258   2.9801865   6.0000000  )
         2           Ti1 tau(   2) = (   3.2906075   1.4906267   6.0002472  )
         3           O1  tau(   3) = (   0.0006271   0.0005054   7.9858123  )
         4           O1  tau(   4) = (   3.2906025   0.0005020   7.3038282  )
         5           O1  tau(   5) = (   4.5942328   1.4918067   9.2879030  )
         6           O1  tau(   6) = (   1.9868534   1.4903216   9.2879459  )
         7           Ti1 tau(   7) = (   3.2907910   2.8959150   9.1758416  )
         8           Ti1 tau(   8) = (   0.0015273   1.4827037   9.2680791  )
         9           O1  tau(   9) = (   3.2912042   0.0294118  11.3810798  )
        10           O1  tau(  10) = (   0.0116148   5.9584955  10.6183126  )
        11           O1  tau(  11) = (   1.2906363   1.5151137  12.6946382  )
        12           O1  tau(  12) = (   5.2977377   1.5118052  12.6897239  )
        13           Ti1 tau(  13) = (   0.0154927   3.0055723  12.5114375  )
        14           Ti1 tau(  14) = (   3.3120461   1.5076926  12.5412499  )
        15           O1  tau(  15) = (   0.0087391   5.9056098  14.6936070  )
        16           O1  tau(  16) = (   3.3000944   0.0090435  14.0218108  )
        17           O1  tau(  17) = (   4.5606481   1.5918460  16.0876707  )
        18           O1  tau(  18) = (   2.0070218   1.5857768  16.0794533  )
        19           Ti1 tau(  19) = (   3.2835068   3.0412122  15.7371975  )
        20           Ti1 tau(  20) = (   0.0166266   1.3536260  15.8406240  )
        21           O1  tau(  21) = (   3.2904802   0.0005063   4.7018136  )
        22           O1  tau(  22) = (   6.5628702   0.1917167  17.2472498  )
        23           O1  tau(  23) = (   1.3043587   1.4918075   6.0039043  )
        24           O1  tau(  24) = (   5.2767064   1.4903225   6.0039473  )
        25           Ti1 tau(  25) = (   0.0000382   5.9609847   6.0000000  )
        26           Ti1 tau(  26) = (   3.2902200   4.4714249   6.0002472  )
        27           O1  tau(  27) = (   0.0002396   2.9813036   7.9858123  )
        28           O1  tau(  28) = (   3.2902150   2.9813002   7.3038282  )
        29           O1  tau(  29) = (   4.5938453   4.4726049   9.2879030  )
        30           O1  tau(  30) = (   1.9864658   4.4711199   9.2879459  )
        31           Ti1 tau(  31) = (   3.2891106   5.8743827   9.1763621  )
        32           Ti1 tau(  32) = (   0.0006254   4.4649316   9.2693709  )
        33           O1  tau(  33) = (   3.2975917   2.9887808  11.3748511  )
        34           O1  tau(  34) = (   0.0092240   2.9805883  10.6323155  )
        35           O1  tau(  35) = (   1.2927870   4.4849180  12.6503915  )
        36           O1  tau(  36) = (   5.2959677   4.4879952  12.6460094  )
        37           Ti1 tau(  37) = (   0.0189062   0.0134437  12.4995343  )
        38           Ti1 tau(  38) = (   3.3131396   4.4925875  12.5257625  )
        39           O1  tau(  39) = (   6.5658147   3.0796170  14.9398047  )
        40           O1  tau(  40) = (   3.2912769   3.0351834  13.9531456  )
        41           O1  tau(  41) = (   4.5372935   4.5058929  16.2491503  )
        42           O1  tau(  42) = (   2.0060561   4.4992570  16.2466123  )
        43           Ti1 tau(  43) = (   3.3106529   0.0781036  15.8389635  )
        44           Ti1 tau(  44) = (   0.0259428   4.5566345  16.0434284  )
        45           O1  tau(  45) = (   3.2900926   2.9813045   4.7018136  )
        46           O1  tau(  46) = (   1.3039711   4.4726057   6.0039043  )
        47           O1  tau(  47) = (   5.2763189   4.4711207   6.0039473  )
        48           N1  tau(  48) = (   6.3514164   3.3085518  18.1544664  )
        49           C1  tau(  49) = (   0.8695967   3.1501053  19.1301808  )
        50           H1  tau(  50) = (   1.3785670   4.1052268  19.2416751  )
        51           H1  tau(  51) = (   0.5086663   2.8389580  20.1145987  )
        52           H1  tau(  52) = (   1.5779067   2.4019510  18.7640910  )
        53           H1  tau(  53) = (   5.7211048   4.0382881  18.4729098  )
        54           H1  tau(  54) = (   5.7931489   2.4557210  18.1309407  )
        55           O1  tau(  55) = (   3.2817172   0.3149129  18.3340421  )
        56           H1  tau(  56) = (   4.0380937   5.6864266  18.4726034  )
        57           H1  tau(  57) = (   2.4816286   5.7371253  18.4434621  )

     number of k points=    10  Fermi-Dirac smearing, width (Ry)=  0.0073
                       cart. coord. in units 2pi/alat
        k(    1) = (   0.0000000   0.0000000   0.0000000), wk =   0.1250000
        k(    2) = (   0.0000000   0.0419351   0.0000000), wk =   0.2500000
        k(    3) = (   0.0000000  -0.0838702   0.0000000), wk =   0.1250000
        k(    4) = (   0.0379955   0.0000049   0.0000000), wk =   0.2500000
        k(    5) = (   0.0379955   0.0419400   0.0000000), wk =   0.2500000
        k(    6) = (   0.0379955  -0.0838652   0.0000000), wk =   0.2500000
        k(    7) = (   0.0379955  -0.0419301   0.0000000), wk =   0.2500000
        k(    8) = (  -0.0759910  -0.0000099   0.0000000), wk =   0.1250000
        k(    9) = (  -0.0759910   0.0419252   0.0000000), wk =   0.2500000
        k(   10) = (  -0.0759910  -0.0838800   0.0000000), wk =   0.1250000

     Initial potential from superposition of free atoms

     starting charge  383.99913, renormalised to  400.00000

     negative rho (up, down):  1.554E-02 0.000E+00

     %%%%%%%%%%%%%%%%%%%%%%%%%%%%%%%%%%%%%%%%%%%%%%%%%%%%%%%%%%%%%%%%%%%%%%%%
     %                                                                      %
     % You are using vdW-DF, which was implemented by the Thonhauser group. %
     % Please cite the following two papers that made this development      %
     % possible and the two reviews that describe the various versions:     %
     %                                                                      %
     %   T. Thonhauser et al., PRL 115, 136402 (2015).                      %
     %   T. Thonhauser et al., PRB 76, 125112 (2007).                       %
     %   K. Berland et al., Rep. Prog. Phys. 78, 066501 (2015).             %
     %   D.C. Langreth et al., J. Phys.: Condens. Matter 21, 084203 (2009). %
     %                                                                      %
     %                                                                      %
     % If you are calculating the stress with vdW-DF, please also cite:     %
     %                                                                      %
     %   R. Sabatini et al., J. Phys.: Condens. Matter 24, 424209 (2012).   %
     %                                                                      %
     %%%%%%%%%%%%%%%%%%%%%%%%%%%%%%%%%%%%%%%%%%%%%%%%%%%%%%%%%%%%%%%%%%%%%%%%

     Adding external electric field

     Computed dipole along edir(3) :
        Dipole              -12.0858 Ry au,        -30.7189 Debye
        Dipole field         -0.0228 Ry au,

        Potential amp.        2.1142 Ry
        Total length         46.3494 bohr

     Starting wfcs are  303 atomic wfcs
  @ DRIVER MODE: Message from server: STATUS
  @ DRIVER MODE: Message from server: POSDATA
  @ DRIVER MODE: Reading and sharing cell
  @ DRIVER MODE: Reading and sharing positions
  @ DRIVER MODE: Received positions

     Self-consistent Calculation

     iteration #  1     ecut=    29.40 Ry     beta= 0.05
     Davidson diagonalization with overlap
     c_bands:  2 eigenvalues not converged
     c_bands:  2 eigenvalues not converged
     c_bands:  3 eigenvalues not converged
     c_bands:  4 eigenvalues not converged
     c_bands:  2 eigenvalues not converged
     c_bands:  1 eigenvalues not converged
     c_bands:  4 eigenvalues not converged
     c_bands:  4 eigenvalues not converged
     c_bands:  5 eigenvalues not converged
     ethr =  1.00E-05,  avg # of iterations = 22.0

[...]

     total energy              =   -2384.79833618 Ry
     estimated scf accuracy    <    6450.91045684 Ry

     iteration #  2     ecut=    29.40 Ry     beta= 0.05
     Davidson diagonalization with overlap
     ethr =  1.00E-02,  avg # of iterations = 25.2

[...]

     iteration # 75     ecut=    29.40 Ry     beta= 0.05
     Davidson diagonalization with overlap
     c_bands:  3 eigenvalues not converged
     ethr =  8.61E-11,  avg # of iterations = 15.3

[...]

     total energy              =   -2956.45481610 Ry
     estimated scf accuracy    <       0.00000021 Ry

     iteration # 77     ecut=    29.40 Ry     beta= 0.05
     Davidson diagonalization with overlap
     ethr =  5.25E-11,  avg # of iterations =  8.1

     negative rho (up, down):  1.589E-02 0.000E+00

     Adding external electric field

     Computed dipole along edir(3) :
        Dipole                1.4025 Ry au,          3.5649 Debye
        Dipole field          0.0026 Ry au,

        Potential amp.       -0.2454 Ry
        Total length         46.3494 bohr

     End of self-consistent calculation

          k = 0.0000 0.0000 0.0000 ( 18029 PWs)   bands (ev):

   -55.2159 -55.1786 -55.1731 -55.1473 -55.1390 -55.1188 -55.0972 -55.0622
   -55.0419 -55.0071 -55.0038 -54.9947 -54.9702 -54.9349 -54.2033 -54.1692
   -31.7792 -31.6896 -31.6656 -31.5859 -31.5307 -31.5256 -31.5170 -31.5093
   -31.4620 -31.4387 -31.4269 -31.4179 -31.4136 -31.4117 -31.3878 -31.3847
   -31.3623 -31.3612 -31.3537 -31.3384 -31.3257 -31.3179 -31.3025 -31.2934
   -31.2870 -31.2745 -31.2720 -31.2431 -31.2303 -31.2280 -31.2227 -31.2025
   -31.1998 -31.1921 -31.1880 -31.1710 -31.1551 -31.1408 -31.1332 -31.1319
   -31.1149 -31.1128 -30.6126 -30.5184 -30.4964 -30.4291 -30.3423 -30.2313
   -19.2351 -16.1554 -16.0246 -15.7760 -15.6342 -15.5397 -15.4197 -15.3042
   -15.2396 -15.1257 -15.0675 -14.9323 -14.9169 -14.9050 -14.8803 -14.8470
   -14.8084 -14.7606 -14.7594 -14.7357 -14.7152 -14.7065 -14.6647 -14.6574
   -14.6177 -14.5964 -14.5953 -14.4600 -14.3788 -14.3085 -14.1233 -12.7058
   -12.5883 -10.2592  -7.0295  -6.2725  -4.8288  -3.9221  -3.4022  -3.3428
    -3.2377  -3.1480  -3.1261  -3.1135  -2.9764  -2.8804  -2.7468  -2.6669
    -2.6344  -2.4981  -2.4247  -2.4136  -2.3808  -2.2657  -2.2134  -2.1867
    -2.1538  -2.0826  -2.0342  -2.0237  -2.0058  -1.9750  -1.9599  -1.9258
    -1.8722  -1.7871  -1.7562  -1.6530  -1.6152  -1.5855  -1.5756  -1.5509
    -1.5338  -1.5093  -1.5030  -1.4424  -1.4389  -1.4092  -1.3628  -1.2482
    -1.0856  -1.0222  -0.9507  -0.8581  -0.8101  -0.7965  -0.7265  -0.7161
    -0.7032  -0.5995  -0.5650  -0.5539  -0.4569  -0.4253  -0.3869  -0.3144
    -0.2431  -0.2150  -0.2021  -0.0867  -0.0217  -0.0036   0.0162   0.0232
     0.1130   0.1861   0.2338   0.2854   0.3262   0.3334   0.3990   0.4314
     0.4992   0.5511   0.5689   0.6562   0.7011   0.7137   0.7199   0.7532
     0.7651   0.8268   0.8632   0.8875   0.9741   1.0893   1.2414   1.3832
     1.3911   1.7242   1.7250   1.8196   2.0033   2.3958   2.4441   3.8772
     3.9499   4.0090   4.0225   4.0279   4.1131   4.3596   4.3817   4.3874
     4.3976   4.4261

[...]

          k = 0.0380-0.0419 0.0000 ( 17876 PWs)   bands (ev):

[...]

          k =-0.0760-0.0000 0.0000 ( 17886 PWs)   bands (ev):

[...]

          k =-0.0760-0.0839 0.0000 ( 17948 PWs)   bands (ev):

   -55.2023 -55.1919 -55.1560 -55.1559 -55.1456 -55.1165 -55.0830 -55.0763
   -55.0273 -55.0213 -54.9969 -54.9873 -54.9869 -54.9363 -54.1864 -54.1860
   -31.6082 -31.5881 -31.5792 -31.4807 -31.4807 -31.4769 -31.4693 -31.4473
   -31.4473 -31.4276 -31.4198 -31.4131 -31.4057 -31.3913 -31.3738 -31.3589
   -31.3562 -31.3538 -31.3518 -31.3498 -31.3423 -31.3399 -31.3228 -31.3168
   -31.2961 -31.2957 -31.2772 -31.2758 -31.2757 -31.2736 -31.2685 -31.2603
   -31.2528 -31.2402 -31.2344 -31.2199 -31.2169 -31.1991 -31.1723 -31.1679
   -31.1670 -31.1464 -30.5091 -30.5089 -30.4252 -30.4249 -30.3858 -30.3856
   -19.2343 -16.1093 -15.5983 -15.4842 -15.3584 -15.2487 -15.2279 -15.1813
   -15.1326 -15.0823 -15.0303 -15.0019 -14.9810 -14.9721 -14.9292 -14.9189
   -14.8997 -14.8342 -14.8187 -14.8076 -14.7838 -14.7365 -14.7281 -14.7205
   -14.7165 -14.6706 -14.6665 -14.6186 -14.5751 -14.5713 -14.3921 -12.6899
   -12.6897 -10.2608  -7.0560  -6.2055  -4.8293  -3.9391  -3.2392  -2.9794
    -2.7497  -2.6978  -2.6095  -2.4659  -2.4219  -2.3771  -2.3460  -2.2845
    -2.2338  -2.2188  -2.2070  -2.1306  -2.1038  -2.0958  -2.0629  -2.0512
    -2.0411  -2.0030  -1.9822  -1.9569  -1.9486  -1.9378  -1.9352  -1.9257
    -1.8670  -1.8548  -1.8443  -1.8406  -1.7819  -1.7701  -1.7557  -1.7414
    -1.5971  -1.5788  -1.4280  -1.4246  -1.4024  -1.3496  -1.3381  -1.2972
    -1.2542  -1.2447  -1.2181  -0.9740  -0.9649  -0.9617  -0.9293  -0.8964
    -0.8584  -0.7968  -0.7677  -0.6979  -0.6898  -0.5736  -0.5576  -0.4420
    -0.4338  -0.4213  -0.3374  -0.2893  -0.2409  -0.2018  -0.1850  -0.1745
    -0.1577  -0.1213  -0.1189  -0.0216   0.0145   0.0452   0.0586   0.0982
     0.2749   0.3036   0.3193   0.4634   0.4709   0.6305   0.6813   0.7094
     0.7999   0.8601   0.8947   0.9385   1.0743   1.0876   1.1050   1.1598
     1.1829   1.2321   1.2453   2.1757   2.1770   2.2640   2.2641   4.0223
     4.1316   4.1408   4.1986   4.3099   4.3185   4.3923   4.4234   4.4609
     4.4651   4.5290

     the Fermi energy is     3.9395 ev

!    total energy              =   -2956.45482465 Ry
     estimated scf accuracy    <       0.00000007 Ry
     smearing contrib. (-TS)   =      -0.03685418 Ry
     internal energy E=F+TS    =   -2956.41797048 Ry

     The total energy is F=E-TS. E is the sum of the following terms:
     one-electron contribution =  -23693.57396860 Ry
     hartree contribution      =   11942.28885953 Ry
     xc contribution           =    -490.60853201 Ry
     ewald contribution        =    9285.47195839 Ry
     electric field correction =       0.00371222 Ry

     convergence has been achieved in  77 iterations

     Forces acting on atoms (cartesian axes, Ry/au):

     atom    1 type  1   force =    -0.00000078   -0.00027241    0.09333461
     atom    2 type  1   force =    -0.00007300   -0.00035459   -0.17817358
     atom    3 type  2   force =     0.00004449   -0.00030470   -0.02034028
     atom    4 type  2   force =    -0.00003573   -0.00185286    0.05915297
     atom    5 type  2   force =    -0.01020975   -0.00060730    0.00751046
     atom    6 type  2   force =     0.01173555    0.00022213    0.00683971
     atom    7 type  1   force =    -0.00030863    0.00187338   -0.01238162
     atom    8 type  1   force =     0.00016263    0.00084367   -0.00449863
     atom    9 type  2   force =     0.00038520   -0.00015381   -0.00080814
     atom   10 type  2   force =    -0.00141759    0.00414920   -0.00109549
     atom   11 type  2   force =    -0.00085609   -0.00030882    0.00018354
     atom   12 type  2   force =     0.00086742   -0.00006111    0.00004377
     atom   13 type  1   force =    -0.00012363   -0.00021743    0.00009811
     atom   14 type  1   force =    -0.00005105   -0.00010255    0.00003172
     atom   15 type  2   force =    -0.00067003   -0.00002718   -0.00007674
     atom   16 type  2   force =    -0.00010754    0.00022786   -0.00043219
     atom   17 type  2   force =     0.00031981   -0.00071645    0.00001487
     atom   18 type  2   force =     0.00077462   -0.00065855   -0.00027327
     atom   19 type  1   force =    -0.00081822    0.00016017    0.00153265
     atom   20 type  1   force =     0.00076940   -0.00071048    0.00035819
     atom   21 type  2   force =     0.00002035   -0.00011153    0.10399599
     atom   22 type  2   force =     0.00009371   -0.00063964    0.00040126
     atom   23 type  2   force =    -0.07041465   -0.00020421   -0.02691150
     atom   24 type  2   force =     0.07025019    0.00023516   -0.02696492
     atom   25 type  1   force =    -0.00004801   -0.00021058    0.09285331
     atom   26 type  1   force =    -0.00020255   -0.00053181   -0.17843779
     atom   27 type  2   force =     0.00007025   -0.00014061   -0.01932481
     atom   28 type  2   force =     0.00005416   -0.00157606    0.05816462
     atom   29 type  2   force =    -0.01091187   -0.00007190    0.00843238
     atom   30 type  2   force =     0.01231669    0.00011657    0.00771705
     atom   31 type  1   force =    -0.00029482    0.00668226   -0.01504957
     atom   32 type  1   force =     0.00011132   -0.00074605   -0.00469929
     atom   33 type  2   force =    -0.00022122    0.00035011   -0.00052593
     atom   34 type  2   force =    -0.00111190   -0.00023436   -0.00040469
     atom   35 type  2   force =    -0.00018719   -0.00011735   -0.00016539
     atom   36 type  2   force =     0.00026612   -0.00036209   -0.00026457
     atom   37 type  1   force =     0.00023838   -0.00018495    0.00021130
     atom   38 type  1   force =    -0.00011862    0.00068152    0.00063691
     atom   39 type  2   force =     0.00013053   -0.00112527    0.00101057
     atom   40 type  2   force =     0.00026392    0.00099700   -0.00063829
     atom   41 type  2   force =    -0.00018961    0.00020299   -0.00025418
     atom   42 type  2   force =     0.00116808    0.00021390   -0.00048076
     atom   43 type  1   force =    -0.00114268    0.00002114    0.00035759
     atom   44 type  1   force =     0.00037797   -0.00121759    0.00105569
     atom   45 type  2   force =     0.00001397   -0.00011393    0.10395930
     atom   46 type  2   force =    -0.07039011   -0.00013185   -0.02688122
     atom   47 type  2   force =     0.07024457    0.00028015   -0.02694844
     atom   48 type  3   force =     0.00082989    0.00006326   -0.00052159
     atom   49 type  4   force =     0.00426637   -0.00655042   -0.00228106
     atom   50 type  5   force =     0.00049801   -0.00138340   -0.00022600
     atom   51 type  5   force =    -0.00033078   -0.00027204   -0.00045514
     atom   52 type  5   force =    -0.00474635    0.00687921    0.00205600
     atom   53 type  5   force =    -0.00000141    0.00018620   -0.00061540
     atom   54 type  5   force =     0.00004998   -0.00017789   -0.00065057
     atom   55 type  2   force =     0.00035278   -0.00082855    0.00059922
     atom   56 type  5   force =    -0.00074986   -0.00018060    0.00015995
     atom   57 type  5   force =    -0.00094269   -0.00092493    0.00006932

     Total force =     0.366484     Total SCF correction =     0.000830
  @ DRIVER MODE: Message from server: STATUS
  @ DRIVER MODE: Message from server: GETFORCE
  @ DRIVER MODE: Returning v,forces,stress,ensemble

     Writing output data file ./calc.save/
  @ DRIVER MODE: Message from server: EXIT
  @ DRIVE MODE: Exiting

     General routines

     Parallel routines

   This run was terminated on:   0:54:44  23Sep2021

   JOB DONE.