     Program PWSCF v.6.7GPU starts on 18Aug2021 at 19:57:18

     R & G space division:  proc/nbgrp/npool/nimage =       6
     Reading input from /storage/home/hcoda1/3/ntian30/research/carbon/CH3_vib_side_on/ads_slab/CH3N2_c/out_0017/pw.inp
Warning: card &CELL ignored
Warning: card   CELL_DYNAMICS='IPI', ignored
Warning: card / ignored

     Current dimensions of program PWSCF are:
     Max number of different atomic species (ntypx) = 10
     Max number of k-points (npk) =  40000
     Max angular momentum in pseudopotentials (lmaxx) =  3
     Presently no symmetry can be used with electric field

     Message from routine cell_base_init:
     DEPRECATED: use true lattice parameter, not A to a.u. conversion factor

     IMPORTANT: XC functional enforced from input :
     Exchange-correlation= BEEF-VDW
                           (   1   4  43  14   2   0   0)
     Any further DFT definition will be discarded
     Please, verify this is what you really want

  @ DRIVER MODE: Connecting to
 qe_1139763_2594174.sched-torque.pace.gatech.edukzd89fn4_scratch
  using UNIX socket
  @ DRIVER MODE: Message from server: STATUS
  @ DRIVER MODE: Message from server: INIT
  @ DRIVER MODE: Receiving replica           0          -1
  @ DRIVER MODE: Receiving encoded integer          25
  @ DRIVER MODE:  SCF:  T  FORCE:  T  STRESS:  F  VC:  F  ENSEMBLE:  F
  @ DRIVER MODE:  SCF:  T  FORCE:  T  STRESS:  F  VC:  F  ENSEMBLE:  F

     Using Slab Decomposition

     bravais-lattice index     =            0
     lattice parameter (alat)  =       1.8897  a.u.
     unit-cell volume          =    6658.9804 (a.u.)^3
     number of atoms/cell      =           53
     number of atomic types    =            5
     number of electrons       =       395.00
     number of Kohn-Sham states=          207
     kinetic-energy cutoff     =      29.3995  Ry
     charge density cutoff     =     293.9946  Ry
     scf convergence threshold =      7.3E-08
     mixing beta               =       0.0500
     number of iterations used =            8  plain     mixing
     Exchange-correlation= BEEF-VDW
                           (   1   4  43  14   2   0   0)

     celldm(1)=   1.889726  celldm(2)=   0.000000  celldm(3)=   0.000000
     celldm(4)=   0.000000  celldm(5)=   0.000000  celldm(6)=   0.000000

     crystal axes: (cart. coord. in units of alat)
               a(1) = (   6.579727   0.000000   0.000000 )
               a(2) = (  -0.000775   5.961596   0.000000 )
               a(3) = (   0.000000   0.000000  25.155947 )

     reciprocal axes: (cart. coord. in units 2 pi/alat)
               b(1) = (  0.151982  0.000020  0.000000 )
               b(2) = (  0.000000  0.167740  0.000000 )
               b(3) = (  0.000000  0.000000  0.039752 )

     PseudoPot. # 1 for Ti read from file:
     /storage/coda1/p-amedford6/0/shared/rich_project_chbe-medford/medford-share/data/pseudos_module/espresso/nninc/pbe/van/Ti.UPF
     MD5 check sum: 8e4df49b7f0d34bbd5052bf3f5ea0213
     Pseudo is Ultrasoft, Zval = 12.0
     Generated by new atomic code, or converted to UPF format
     Using radial grid of  851 points,  6 beta functions with:
                l(1) =   0
                l(2) =   0
                l(3) =   1
                l(4) =   1
                l(5) =   2
                l(6) =   2
     Q(r) pseudized with  8 coefficients,  rinner =    1.000   1.000   1.000
                                                       1.000   1.000

     PseudoPot. # 2 for O  read from file:
     /storage/coda1/p-amedford6/0/shared/rich_project_chbe-medford/medford-share/data/pseudos_module/espresso/nninc/pbe/van/O.UPF
     MD5 check sum: 78c19812648e8988a0fe644b0f25305e
     Pseudo is Ultrasoft, Zval =  6.0
     Generated by new atomic code, or converted to UPF format
     Using radial grid of  737 points,  4 beta functions with:
                l(1) =   0
                l(2) =   0
                l(3) =   1
                l(4) =   1
     Q(r) pseudized with  8 coefficients,  rinner =    0.800   0.800   0.800

     PseudoPot. # 3 for N  read from file:
     /storage/coda1/p-amedford6/0/shared/rich_project_chbe-medford/medford-share/data/pseudos_module/espresso/nninc/pbe/van/N.UPF
     MD5 check sum: 90d10febe142ad51ac9d5be1deb811c4
     Pseudo is Ultrasoft, Zval =  5.0
     Generated by new atomic code, or converted to UPF format
     Using radial grid of  729 points,  4 beta functions with:
                l(1) =   0
                l(2) =   0
                l(3) =   1
                l(4) =   1
     Q(r) pseudized with  8 coefficients,  rinner =    0.800   0.800   0.800

     PseudoPot. # 4 for C  read from file:
     /storage/coda1/p-amedford6/0/shared/rich_project_chbe-medford/medford-share/data/pseudos_module/espresso/nninc/pbe/van/C.UPF
     MD5 check sum: 1a69bf6b8db32088f5b2163dbdb77a27
     Pseudo is Ultrasoft, Zval =  4.0
     Generated by new atomic code, or converted to UPF format
     Using radial grid of  721 points,  4 beta functions with:
                l(1) =   0
                l(2) =   0
                l(3) =   1
                l(4) =   1
     Q(r) pseudized with  8 coefficients,  rinner =    0.800   0.800   0.800

     PseudoPot. # 5 for H  read from file:
     /storage/coda1/p-amedford6/0/shared/rich_project_chbe-medford/medford-share/data/pseudos_module/espresso/nninc/pbe/van/H.UPF
     MD5 check sum: b5ee9d7bfd3a09ee7748110bda690ff7
     Pseudo is Ultrasoft, Zval =  1.0
     Generated by new atomic code, or converted to UPF format
     Using radial grid of  615 points,  1 beta functions with:
                l(1) =   0
     Q(r) pseudized with  8 coefficients,  rinner =    0.800

     atomic species   valence    mass     pseudopotential
        Ti1           12.00    47.86700     Ti( 1.00)
        O1             6.00    15.99900     O ( 1.00)
        N1             5.00    14.00700     N ( 1.00)
        C1             4.00    12.01100     C ( 1.00)
        H1             1.00     1.00800     H ( 1.00)

     No symmetry found

   Cartesian axes

     site n.     atom                  positions (alat units)
         1           Ti1 tau(   1) = (   0.0004258   2.9801865   6.0000000  )
         2           Ti1 tau(   2) = (   3.2906075   1.4906267   6.0002472  )
         3           O1  tau(   3) = (   0.0006271   0.0005054   7.9858123  )
         4           O1  tau(   4) = (   3.2906025   0.0005020   7.3038282  )
         5           O1  tau(   5) = (   4.5942328   1.4918067   9.2879030  )
         6           O1  tau(   6) = (   1.9868534   1.4903216   9.2879459  )
         7           Ti1 tau(   7) = (   3.2907910   2.8959150   9.1758416  )
         8           Ti1 tau(   8) = (   0.0015273   1.4827037   9.2680791  )
         9           O1  tau(   9) = (   3.2868105   5.9447858  11.3346005  )
        10           O1  tau(  10) = (   0.0116148   5.9584955  10.6183126  )
        11           O1  tau(  11) = (   1.2897616   1.4699164  12.6258314  )
        12           O1  tau(  12) = (   5.2713851   1.4716199  12.6109895  )
        13           Ti1 tau(  13) = (   0.0629619   2.9460495  12.6207869  )
        14           Ti1 tau(  14) = (   3.3778125   1.4702366  12.4807322  )
        15           O1  tau(  15) = (   6.5741670   5.9392046  14.6271830  )
        16           O1  tau(  16) = (   3.2925211   5.9405975  13.9303826  )
        17           O1  tau(  17) = (   4.5331425   1.4971777  16.0590535  )
        18           O1  tau(  18) = (   2.0416154   1.4974824  16.0477615  )
        19           Ti1 tau(  19) = (   3.2901388   2.9722967  15.7036181  )
        20           Ti1 tau(  20) = (   6.5714728   1.5019933  15.8140906  )
        21           O1  tau(  21) = (   3.2904802   0.0005063   4.7018136  )
        22           O1  tau(  22) = (   6.5775371   0.0159386  17.1814867  )
        23           O1  tau(  23) = (   1.3043587   1.4918075   6.0039043  )
        24           O1  tau(  24) = (   5.2767064   1.4903225   6.0039473  )
        25           Ti1 tau(  25) = (   0.0000382   5.9609847   6.0000000  )
        26           Ti1 tau(  26) = (   3.2902200   4.4714249   6.0002472  )
        27           O1  tau(  27) = (   0.0002396   2.9813036   7.9858123  )
        28           O1  tau(  28) = (   3.2902150   2.9813002   7.3038282  )
        29           O1  tau(  29) = (   4.5938453   4.4726049   9.2879030  )
        30           O1  tau(  30) = (   1.9864658   4.4711199   9.2879459  )
        31           Ti1 tau(  31) = (   3.2891106   5.8743827   9.1763621  )
        32           Ti1 tau(  32) = (   0.0006254   4.4649316   9.2693709  )
        33           O1  tau(  33) = (   3.2909631   2.9655588  11.3316111  )
        34           O1  tau(  34) = (   0.0092240   2.9805883  10.6323155  )
        35           O1  tau(  35) = (   1.2884032   4.4536117  12.6269208  )
        36           O1  tau(  36) = (   5.2752684   4.4605011  12.6109535  )
        37           Ti1 tau(  37) = (   0.0626277   5.9200555  12.5524633  )
        38           Ti1 tau(  38) = (   3.3797810   4.4486816  12.4846537  )
        39           O1  tau(  39) = (   6.5720240   2.9440667  14.6479771  )
        40           O1  tau(  40) = (   3.2941106   2.9728877  13.9057494  )
        41           O1  tau(  41) = (   4.5311790   4.4530262  16.1020043  )
        42           O1  tau(  42) = (   2.0427069   4.4534008  16.0946336  )
        43           Ti1 tau(  43) = (   3.2818950   5.9508925  15.7274921  )
        44           Ti1 tau(  44) = (   6.5750914   4.6476268  16.0792144  )
        45           O1  tau(  45) = (   3.2900926   2.9813045   4.7018136  )
        46           O1  tau(  46) = (   1.3039711   4.4726057   6.0039043  )
        47           O1  tau(  47) = (   5.2763189   4.4711207   6.0039473  )
        48           N1  tau(  48) = (   0.0795740   2.6614725  18.6386781  )
        49           N1  tau(  49) = (   0.0132033   2.8794178  17.4383708  )
        50           C1  tau(  50) = (   0.1510961   3.8031638  19.5708395  )
        51           H1  tau(  51) = (   6.4701351   4.7592986  19.1328852  )
        52           H1  tau(  52) = (   6.0910372   3.5604803  20.4266230  )
        53           H1  tau(  53) = (   1.1812797   3.8285794  19.9476819  )

     number of k points=    10  Fermi-Dirac smearing, width (Ry)=  0.0073
                       cart. coord. in units 2pi/alat
        k(    1) = (   0.0000000   0.0000000   0.0000000), wk =   0.1250000
        k(    2) = (   0.0000000   0.0419351   0.0000000), wk =   0.2500000
        k(    3) = (   0.0000000  -0.0838702   0.0000000), wk =   0.1250000
        k(    4) = (   0.0379955   0.0000049   0.0000000), wk =   0.2500000
        k(    5) = (   0.0379955   0.0419400   0.0000000), wk =   0.2500000
        k(    6) = (   0.0379955  -0.0838652   0.0000000), wk =   0.2500000
        k(    7) = (   0.0379955  -0.0419301   0.0000000), wk =   0.2500000
        k(    8) = (  -0.0759910  -0.0000099   0.0000000), wk =   0.1250000
        k(    9) = (  -0.0759910   0.0419252   0.0000000), wk =   0.2500000
        k(   10) = (  -0.0759910  -0.0838800   0.0000000), wk =   0.1250000

     Initial potential from superposition of free atoms

     starting charge  378.99916, renormalised to  395.00000

     negative rho (up, down):  1.507E-02 0.000E+00

     %%%%%%%%%%%%%%%%%%%%%%%%%%%%%%%%%%%%%%%%%%%%%%%%%%%%%%%%%%%%%%%%%%%%%%%%
     %                                                                      %
     % You are using vdW-DF, which was implemented by the Thonhauser group. %
     % Please cite the following two papers that made this development      %
     % possible and the two reviews that describe the various versions:     %
     %                                                                      %
     %   T. Thonhauser et al., PRL 115, 136402 (2015).                      %
     %   T. Thonhauser et al., PRB 76, 125112 (2007).                       %
     %   K. Berland et al., Rep. Prog. Phys. 78, 066501 (2015).             %
     %   D.C. Langreth et al., J. Phys.: Condens. Matter 21, 084203 (2009). %
     %                                                                      %
     %                                                                      %
     % If you are calculating the stress with vdW-DF, please also cite:     %
     %                                                                      %
     %   R. Sabatini et al., J. Phys.: Condens. Matter 24, 424209 (2012).   %
     %                                                                      %
     %%%%%%%%%%%%%%%%%%%%%%%%%%%%%%%%%%%%%%%%%%%%%%%%%%%%%%%%%%%%%%%%%%%%%%%%

     Adding external electric field

     Computed dipole along edir(3) :
        Dipole               -8.8463 Ry au,        -22.4850 Debye
        Dipole field         -0.0167 Ry au,

        Potential amp.        1.5475 Ry
        Total length         46.3494 bohr

     Starting wfcs are  299 atomic wfcs
  @ DRIVER MODE: Message from server: STATUS
  @ DRIVER MODE: Message from server: POSDATA
  @ DRIVER MODE: Reading and sharing cell
  @ DRIVER MODE: Reading and sharing positions
  @ DRIVER MODE: Received positions

     Self-consistent Calculation

     iteration #  1     ecut=    29.40 Ry     beta= 0.05
     Davidson diagonalization with overlap
     c_bands:  1 eigenvalues not converged
     c_bands:  2 eigenvalues not converged
     c_bands:  1 eigenvalues not converged
     c_bands:  3 eigenvalues not converged
     c_bands:  3 eigenvalues not converged
     c_bands:  1 eigenvalues not converged
     ethr =  1.00E-05,  avg # of iterations = 19.1

[...]

     total energy              =   -2605.77368555 Ry
     estimated scf accuracy    <    3698.06583897 Ry

     iteration #  2     ecut=    29.40 Ry     beta= 0.05
     Davidson diagonalization with overlap
     ethr =  1.00E-02,  avg # of iterations = 22.1

[...]

     iteration # 71     ecut=    29.40 Ry     beta= 0.05
     Davidson diagonalization with overlap
     c_bands:  1 eigenvalues not converged
     ethr =  2.09E-10,  avg # of iterations = 13.2

[...]

     total energy              =   -2939.15461883 Ry
     estimated scf accuracy    <       0.00000009 Ry

     iteration # 77     ecut=    29.40 Ry     beta= 0.05
     Davidson diagonalization with overlap
     ethr =  2.16E-11,  avg # of iterations =  8.2

     negative rho (up, down):  1.565E-02 0.000E+00

     Adding external electric field

     Computed dipole along edir(3) :
        Dipole                0.7061 Ry au,          1.7947 Debye
        Dipole field          0.0013 Ry au,

        Potential amp.       -0.1235 Ry
        Total length         46.3494 bohr

     End of self-consistent calculation

          k = 0.0000 0.0000 0.0000 ( 18029 PWs)   bands (ev):

   -55.8962 -55.8815 -55.8622 -55.8455 -55.7965 -55.7314 -55.7052 -55.7046
   -55.6948 -55.6706 -55.6698 -55.6362 -55.2864 -55.0959 -54.8735 -54.8394
   -32.4357 -32.3785 -32.2313 -32.2286 -32.2033 -32.2001 -32.1893 -32.1604
   -32.1387 -32.1253 -32.1037 -32.0676 -32.0621 -32.0485 -32.0347 -32.0212
   -32.0185 -32.0003 -31.9860 -31.9535 -31.9453 -31.9409 -31.9000 -31.8947
   -31.8924 -31.8892 -31.8810 -31.8762 -31.8720 -31.8452 -31.8445 -31.8355
   -31.8342 -31.8227 -31.8111 -31.7820 -31.7783 -31.5666 -31.4597 -31.3580
   -31.3561 -31.3115 -31.2807 -31.1922 -31.1698 -31.0974 -31.0109 -30.8998
   -18.4670 -16.6340 -16.3691 -16.1400 -16.0464 -16.0144 -15.8963 -15.7339
   -15.6164 -15.5616 -15.4641 -15.4446 -15.4315 -15.3997 -15.3809 -15.3756
   -15.3418 -15.3379 -15.3193 -15.3041 -15.2561 -15.2322 -15.2103 -15.1109
   -15.0649 -15.0309 -15.0155 -14.9527 -14.9475 -14.4423 -13.3761 -13.2597
   -11.3739  -6.9340  -4.3667  -4.0039  -3.9005  -3.8510  -3.8485  -3.8016
    -3.7450  -3.6263  -3.5003  -3.4379  -3.1272  -3.0792  -3.0633  -3.0461
    -3.0084  -2.8009  -2.7495  -2.7095  -2.6842  -2.6775  -2.6665  -2.6588
    -2.6473  -2.6088  -2.5064  -2.4371  -2.4260  -2.3450  -2.2947  -2.2712
    -2.2081  -2.1881  -2.1661  -2.1429  -2.1319  -2.1106  -2.0910  -2.0797
    -1.9726  -1.8839  -1.7479  -1.6954  -1.6713  -1.6414  -1.6379  -1.5039
    -1.3704  -1.3387  -1.3279  -1.3205  -1.2876  -1.2753  -1.1930  -1.0632
    -1.0530  -1.0118  -0.9605  -0.9027  -0.8780  -0.7760  -0.7393  -0.6623
    -0.6573  -0.6403  -0.5868  -0.5325  -0.3774  -0.3355  -0.3091  -0.2875
    -0.2626  -0.1921  -0.1706  -0.0536  -0.0366  -0.0192   0.0410   0.0641
     0.0773   0.0870   0.1049   0.1228   0.1404   0.3076   0.3800   0.4331
     0.4559   0.5138   0.6387   0.7081   0.7625   0.8632   1.0741   1.1483
     1.2410   1.3404   1.7198   1.7654   2.6405   3.2431   3.3239   3.3729
     3.3875   3.4846   3.5185   3.6949   3.6962   3.7244   3.7944

[...]

          k = 0.0380-0.0419 0.0000 ( 17876 PWs)   bands (ev):

[...]

          k =-0.0760-0.0000 0.0000 ( 17886 PWs)   bands (ev):

[...]

          k =-0.0760-0.0839 0.0000 ( 17948 PWs)   bands (ev):

   -55.8796 -55.8786 -55.8636 -55.8632 -55.7931 -55.7193 -55.7085 -55.7068
   -55.6885 -55.6862 -55.6538 -55.6525 -55.2850 -55.0972 -54.8565 -54.8563
   -32.2402 -32.2384 -32.1941 -32.1934 -32.1751 -32.1742 -32.1705 -32.1353
   -32.0897 -32.0867 -32.0805 -32.0802 -32.0433 -32.0140 -32.0063 -32.0056
   -31.9992 -31.9992 -31.9985 -31.9982 -31.9940 -31.9925 -31.9901 -31.9390
   -31.9252 -31.9130 -31.9120 -31.9008 -31.8876 -31.8872 -31.8848 -31.8838
   -31.8682 -31.8675 -31.8583 -31.8556 -31.6950 -31.5683 -31.4681 -31.4150
   -31.3580 -31.3370 -31.1826 -31.1824 -31.0935 -31.0933 -31.0542 -31.0541
   -18.4628 -16.0698 -16.0438 -15.8438 -15.8107 -15.8066 -15.7921 -15.6832
   -15.5985 -15.5914 -15.5886 -15.5218 -15.4919 -15.4761 -15.4356 -15.4231
   -15.4156 -15.4042 -15.3936 -15.3568 -15.3494 -15.3322 -15.3247 -15.2404
   -15.2128 -15.2087 -15.1826 -15.0649 -14.9334 -14.6183 -13.3616 -13.3614
   -11.3716  -6.9459  -4.2779  -3.9011  -3.8327  -3.3592  -3.3304  -3.0899
    -3.0514  -3.0377  -2.9844  -2.8226  -2.7925  -2.7667  -2.7552  -2.7235
    -2.7182  -2.7061  -2.7010  -2.6810  -2.6394  -2.6161  -2.5981  -2.5829
    -2.5636  -2.5497  -2.5328  -2.5166  -2.5074  -2.4680  -2.4446  -2.4329
    -2.4141  -2.4024  -2.2460  -2.1232  -2.0888  -2.0343  -2.0241  -2.0022
    -1.9623  -1.9584  -1.9469  -1.8826  -1.8038  -1.6516  -1.6010  -1.5942
    -1.5727  -1.5546  -1.5012  -1.4603  -1.3741  -1.2984  -1.2760  -1.2712
    -1.2025  -1.1159  -1.1064  -1.0602  -1.0172  -1.0073  -0.9538  -0.8890
    -0.8585  -0.8542  -0.8003  -0.7312  -0.7143  -0.6645  -0.6576  -0.6132
    -0.5578  -0.5476  -0.5283  -0.4881  -0.4061  -0.3825  -0.2442  -0.1642
    -0.0422   0.0728   0.1669   0.1813   0.2613   0.3133   0.3971   0.4146
     0.4250   0.4339   0.4774   0.5610   0.6360   0.6507   0.6966   0.8176
     1.5120   1.5128   1.5850   1.5853   2.6959   3.4906   3.5350   3.5770
     3.6092   3.7161   3.7481   3.7717   3.7728   3.8015   3.9130

     the Fermi energy is     3.2383 ev

!    total energy              =   -2939.15464175 Ry
     estimated scf accuracy    <       0.00000007 Ry
     smearing contrib. (-TS)   =      -0.02241760 Ry
     internal energy E=F+TS    =   -2939.13222415 Ry

     The total energy is F=E-TS. E is the sum of the following terms:
     one-electron contribution =  -24177.89410190 Ry
     hartree contribution      =   12176.18386588 Ry
     xc contribution           =    -485.18457721 Ry
     ewald contribution        =    9547.76164820 Ry
     electric field correction =       0.00094088 Ry

     convergence has been achieved in  77 iterations

     Forces acting on atoms (cartesian axes, Ry/au):

     atom    1 type  1   force =     0.00011951   -0.00025088    0.09665033
     atom    2 type  1   force =    -0.00013137   -0.00050466   -0.17524940
     atom    3 type  2   force =     0.00000106   -0.00010296   -0.02499254
     atom    4 type  2   force =     0.00005157   -0.00150059    0.05299402
     atom    5 type  2   force =    -0.01215384   -0.00108790    0.00360474
     atom    6 type  2   force =     0.01370305   -0.00028210    0.00228138
     atom    7 type  1   force =    -0.00116713    0.00036569   -0.01149988
     atom    8 type  1   force =     0.00056037    0.00941325    0.02852724
     atom    9 type  2   force =     0.00019943    0.00053293   -0.00015633
     atom   10 type  2   force =    -0.00114865    0.00028182   -0.01822821
     atom   11 type  2   force =    -0.00011015   -0.00000145   -0.00013380
     atom   12 type  2   force =     0.00013439    0.00021424    0.00018449
     atom   13 type  1   force =     0.00008879   -0.00029587    0.00016775
     atom   14 type  1   force =     0.00021558    0.00016860    0.00021652
     atom   15 type  2   force =     0.00021965   -0.00012403   -0.00015710
     atom   16 type  2   force =    -0.00032882    0.00033902    0.00035085
     atom   17 type  2   force =    -0.00019548    0.00039724   -0.00017005
     atom   18 type  2   force =     0.00015552    0.00014812    0.00021473
     atom   19 type  1   force =    -0.00007703    0.00013733    0.00009654
     atom   20 type  1   force =    -0.00060117   -0.00003949    0.00045267
     atom   21 type  2   force =     0.00008590    0.00001312    0.10324120
     atom   22 type  2   force =    -0.00019913    0.00029036    0.00068934
     atom   23 type  2   force =    -0.07145894   -0.00007377   -0.02769500
     atom   24 type  2   force =     0.07142712    0.00034732   -0.02770613
     atom   25 type  1   force =     0.00006758   -0.00021971    0.09638529
     atom   26 type  1   force =    -0.00022760   -0.00026117   -0.17564289
     atom   27 type  2   force =     0.00006938   -0.00024838   -0.02399502
     atom   28 type  2   force =     0.00009524   -0.00126025    0.05286308
     atom   29 type  2   force =    -0.01239522    0.00003925    0.00351854
     atom   30 type  2   force =     0.01385987    0.00032870    0.00216334
     atom   31 type  1   force =    -0.00112880    0.00333144   -0.01191609
     atom   32 type  1   force =     0.00065133   -0.01118229    0.02912110
     atom   33 type  2   force =     0.00011046   -0.00020395   -0.00040936
     atom   34 type  2   force =    -0.00089524   -0.00093213   -0.02481602
     atom   35 type  2   force =    -0.00037966    0.00027266    0.00002081
     atom   36 type  2   force =     0.00072155    0.00029245    0.00034079
     atom   37 type  1   force =    -0.00001050   -0.00022960    0.00007205
     atom   38 type  1   force =    -0.00002083    0.00010788    0.00000744
     atom   39 type  2   force =     0.00032694    0.00034029   -0.00045607
     atom   40 type  2   force =    -0.00030260    0.00010129    0.00013936
     atom   41 type  2   force =    -0.00045140    0.00053872    0.00012445
     atom   42 type  2   force =     0.00004209    0.00046241    0.00041619
     atom   43 type  1   force =    -0.00004615    0.00039431    0.00041304
     atom   44 type  1   force =    -0.00042366    0.00009556    0.00083730
     atom   45 type  2   force =     0.00008179   -0.00002718    0.10324348
     atom   46 type  2   force =    -0.07148755   -0.00003338   -0.02770972
     atom   47 type  2   force =     0.07145424    0.00039153   -0.02773816
     atom   48 type  3   force =     0.00059743   -0.00126726   -0.00236681
     atom   49 type  3   force =     0.00027365   -0.00090826   -0.00339289
     atom   50 type  4   force =     0.00130989   -0.00364553    0.01796560
     atom   51 type  5   force =    -0.00081135    0.00437949   -0.00424590
     atom   52 type  5   force =     0.00325693    0.00112126   -0.00620459
     atom   53 type  5   force =    -0.00372807   -0.00016349   -0.00242171

     Total force =     0.368947     Total SCF correction =     0.000571
  @ DRIVER MODE: Message from server: STATUS
  @ DRIVER MODE: Message from server: GETFORCE
  @ DRIVER MODE: Returning v,forces,stress,ensemble

     Writing output data file ./calc.save/
  @ DRIVER MODE: Message from server: EXIT
  @ DRIVE MODE: Exiting

     General routines

     Parallel routines

   This run was terminated on:  20:33:12  18Aug2021

   JOB DONE.