     Program PWSCF v.6.7GPU starts on 19Oct2021 at  3:47:56

     R & G space division:  proc/nbgrp/npool/nimage =       8
     Reading input from /storage/home/hcoda1/3/ntian30/research/carbon/CxH_vib/Thiel_calc/ads_slab/NH2HNH_perslab/out_0034/pw.inp
Warning: card &CELL ignored
Warning: card   CELL_DYNAMICS='IPI', ignored
Warning: card / ignored

     Current dimensions of program PWSCF are:
     Max number of different atomic species (ntypx) = 10
     Max number of k-points (npk) =  40000
     Max angular momentum in pseudopotentials (lmaxx) =  3
     Presently no symmetry can be used with electric field

     Message from routine cell_base_init:
     DEPRECATED: use true lattice parameter, not A to a.u. conversion factor

     IMPORTANT: XC functional enforced from input :
     Exchange-correlation= BEEF-VDW
                           (   1   4  43  14   2   0   0)
     Any further DFT definition will be discarded
     Please, verify this is what you really want

  @ DRIVER MODE: Connecting to
 qe_1139763_3255135.sched-torque.pace.gatech.edulozdcjlp_scratch
  using UNIX socket
  @ DRIVER MODE: Message from server: STATUS
  @ DRIVER MODE: Message from server: INIT
  @ DRIVER MODE: Receiving replica           0          -1
  @ DRIVER MODE: Receiving encoded integer          25
  @ DRIVER MODE:  SCF:  T  FORCE:  T  STRESS:  F  VC:  F  ENSEMBLE:  F
  @ DRIVER MODE:  SCF:  T  FORCE:  T  STRESS:  F  VC:  F  ENSEMBLE:  F

     Using Slab Decomposition

     bravais-lattice index     =            0
     lattice parameter (alat)  =       1.8897  a.u.
     unit-cell volume          =    9988.4706 (a.u.)^3
     number of atoms/cell      =           59
     number of atomic types    =            4
     number of electrons       =       440.00
     number of Kohn-Sham states=          230
     kinetic-energy cutoff     =      29.3995  Ry
     charge density cutoff     =     293.9946  Ry
     scf convergence threshold =      7.3E-08
     mixing beta               =       0.0500
     number of iterations used =            8  plain     mixing
     Exchange-correlation= BEEF-VDW
                           (   1   4  43  14   2   0   0)

     celldm(1)=   1.889726  celldm(2)=   0.000000  celldm(3)=   0.000000
     celldm(4)=   0.000000  celldm(5)=   0.000000  celldm(6)=   0.000000

     crystal axes: (cart. coord. in units of alat)
               a(1) = (   6.579727   0.000000   0.000000 )
               a(2) = (  -0.001163   8.942395   0.000000 )
               a(3) = (   0.000000   0.000000  25.155947 )

     reciprocal axes: (cart. coord. in units 2 pi/alat)
               b(1) = (  0.151982  0.000020  0.000000 )
               b(2) = (  0.000000  0.111827  0.000000 )
               b(3) = (  0.000000  0.000000  0.039752 )

     PseudoPot. # 1 for O  read from file:
     /storage/coda1/p-amedford6/0/shared/rich_project_chbe-medford/medford-share/data/pseudos_module/espresso/nninc/pbe/van/O.UPF
     MD5 check sum: 78c19812648e8988a0fe644b0f25305e
     Pseudo is Ultrasoft, Zval =  6.0
     Generated by new atomic code, or converted to UPF format
     Using radial grid of  737 points,  4 beta functions with:
                l(1) =   0
                l(2) =   0
                l(3) =   1
                l(4) =   1
     Q(r) pseudized with  8 coefficients,  rinner =    0.800   0.800   0.800

     PseudoPot. # 2 for Ti read from file:
     /storage/coda1/p-amedford6/0/shared/rich_project_chbe-medford/medford-share/data/pseudos_module/espresso/nninc/pbe/van/Ti.UPF
     MD5 check sum: 8e4df49b7f0d34bbd5052bf3f5ea0213
     Pseudo is Ultrasoft, Zval = 12.0
     Generated by new atomic code, or converted to UPF format
     Using radial grid of  851 points,  6 beta functions with:
                l(1) =   0
                l(2) =   0
                l(3) =   1
                l(4) =   1
                l(5) =   2
                l(6) =   2
     Q(r) pseudized with  8 coefficients,  rinner =    1.000   1.000   1.000
                                                       1.000   1.000

     PseudoPot. # 3 for H  read from file:
     /storage/coda1/p-amedford6/0/shared/rich_project_chbe-medford/medford-share/data/pseudos_module/espresso/nninc/pbe/van/H.UPF
     MD5 check sum: b5ee9d7bfd3a09ee7748110bda690ff7
     Pseudo is Ultrasoft, Zval =  1.0
     Generated by new atomic code, or converted to UPF format
     Using radial grid of  615 points,  1 beta functions with:
                l(1) =   0
     Q(r) pseudized with  8 coefficients,  rinner =    0.800

     PseudoPot. # 4 for N  read from file:
     /storage/coda1/p-amedford6/0/shared/rich_project_chbe-medford/medford-share/data/pseudos_module/espresso/nninc/pbe/van/N.UPF
     MD5 check sum: 90d10febe142ad51ac9d5be1deb811c4
     Pseudo is Ultrasoft, Zval =  5.0
     Generated by new atomic code, or converted to UPF format
     Using radial grid of  729 points,  4 beta functions with:
                l(1) =   0
                l(2) =   0
                l(3) =   1
                l(4) =   1
     Q(r) pseudized with  8 coefficients,  rinner =    0.800   0.800   0.800

     atomic species   valence    mass     pseudopotential
        O1             6.00    15.99900     O ( 1.00)
        Ti1           12.00    47.86700     Ti( 1.00)
        H1             1.00     1.00800     H ( 1.00)
        N1             5.00    14.00700     N ( 1.00)

     No symmetry found

   Cartesian axes

     site n.     atom                  positions (alat units)
         1           O1  tau(   1) = (   0.0007354   0.0005023  10.5931620  )
         2           O1  tau(   2) = (   3.2891522   8.9193323  13.7813865  )
         3           O1  tau(   3) = (  -0.0003195   8.9357148  17.1597790  )
         4           O1  tau(   4) = (   0.0006271   0.0005054   7.9858123  )
         5           O1  tau(   5) = (   3.2896276   8.9330874  11.1456747  )
         6           O1  tau(   6) = (   0.0000757   8.8957392  14.5326415  )
         7           O1  tau(   7) = (   1.9868534   1.4903216   9.2879459  )
         8           O1  tau(   8) = (   5.2085136   1.5567490  12.5272226  )
         9           O1  tau(   9) = (   2.0368910   1.4086519  15.9478609  )
        10           Ti1 tau(  10) = (   0.0007404   1.4906270   9.2895810  )
        11           Ti1 tau(  11) = (   3.2920048   1.2896434  12.4335303  )
        12           Ti1 tau(  12) = (   0.0003947   1.7483972  15.9485354  )
        13           O1  tau(  13) = (   4.5942328   1.4918067   9.2879030  )
        14           O1  tau(  14) = (   1.3734151   1.5562871  12.5269411  )
        15           O1  tau(  15) = (   4.5446063   1.4075665  15.9467422  )
        16           Ti1 tau(  16) = (   3.2902859   2.9801868   9.2893338  )
        17           Ti1 tau(  17) = (   0.0022843   2.7629733  12.5422407  )
        18           Ti1 tau(  18) = (   3.2887740   3.1097933  15.6402895  )
        19           O1  tau(  19) = (   0.0003479   2.9813005  10.5931620  )
        20           O1  tau(  20) = (   3.2903674   2.9527630  13.7969158  )
        21           O1  tau(  21) = (   0.0002396   2.9813036   7.9858123  )
        22           O1  tau(  22) = (   3.2906228   2.9775883  11.1663003  )
        23           O1  tau(  23) = (   0.0006598   2.9368866  14.5305733  )
        24           O1  tau(  24) = (   1.9864658   4.4711199   9.2879459  )
        25           O1  tau(  25) = (   5.2231876   4.5386380  12.5467233  )
        26           O1  tau(  26) = (   2.0248981   4.3679406  15.9930346  )
        27           Ti1 tau(  27) = (   0.0003529   4.4714252   9.2895810  )
        28           Ti1 tau(  28) = (   3.2918124   4.3135021  12.5344809  )
        29           Ti1 tau(  29) = (   6.5788423   4.6929592  16.0739603  )
        30           O1  tau(  30) = (   4.5938453   4.4726049   9.2879030  )
        31           O1  tau(  31) = (   1.3570704   4.5373869  12.5465102  )
        32           O1  tau(  32) = (   4.5538814   4.3671241  15.9936543  )
        33           Ti1 tau(  33) = (   3.2898983   5.9609850   9.2893338  )
        34           Ti1 tau(  34) = (   0.0013264   5.7428985  12.5110789  )
        35           Ti1 tau(  35) = (   3.2898306   6.0937744  16.2866611  )
        36           O1  tau(  36) = (  -0.0000397   5.9620987  10.5931620  )
        37           O1  tau(  37) = (   3.2897329   5.8964334  13.7986068  )
        38           O1  tau(  38) = (  -0.0007474   6.0119579  17.1634496  )
        39           O1  tau(  39) = (  -0.0001480   5.9621018   7.9858123  )
        40           O1  tau(  40) = (   3.2898370   5.9388437  11.1687384  )
        41           O1  tau(  41) = (  -0.0001539   5.9931028  14.5676369  )
        42           O1  tau(  42) = (   1.9860782   7.4519181   9.2879459  )
        43           O1  tau(  43) = (   5.2258842   7.5046952  12.5406166  )
        44           O1  tau(  44) = (   2.0242945   7.4351242  16.0034066  )
        45           Ti1 tau(  45) = (  -0.0000347   7.4522234   9.2895810  )
        46           Ti1 tau(  46) = (   3.2896699   7.1866417  12.6007890  )
        47           Ti1 tau(  47) = (   0.0000787   7.5542351  15.7482610  )
        48           O1  tau(  48) = (   4.5934577   7.4534031   9.2879030  )
        49           O1  tau(  49) = (   1.3527639   7.5038087  12.5404143  )
        50           O1  tau(  50) = (   4.5545665   7.4356877  16.0029592  )
        51           Ti1 tau(  51) = (   3.2895107   8.9417832   9.2893338  )
        52           Ti1 tau(  52) = (  -0.0005703   8.7121504  12.4856418  )
        53           Ti1 tau(  53) = (   3.2909615   0.1005107  15.6284087  )
        54           H1  tau(  54) = (   6.5785809   3.1351568  18.2688824  )
        55           H1  tau(  55) = (   6.5783155   8.7923607  18.1116139  )
        56           N1  tau(  56) = (  -0.0001347   2.9716693  17.2674093  )
        57           N1  tau(  57) = (   3.2897564   5.9921341  18.1800631  )
        58           H1  tau(  58) = (   3.2887465   5.1266479  18.7045293  )
        59           H1  tau(  59) = (   3.2892443   6.7958760  18.8071070  )

     number of k points=    10  Fermi-Dirac smearing, width (Ry)=  0.0073
                       cart. coord. in units 2pi/alat
        k(    1) = (   0.0000000   0.0000000   0.0000000), wk =   0.1250000
        k(    2) = (   0.0000000   0.0279567   0.0000000), wk =   0.2500000
        k(    3) = (   0.0000000  -0.0559134   0.0000000), wk =   0.1250000
        k(    4) = (   0.0379955   0.0000049   0.0000000), wk =   0.2500000
        k(    5) = (   0.0379955   0.0279617   0.0000000), wk =   0.2500000
        k(    6) = (   0.0379955  -0.0559085   0.0000000), wk =   0.2500000
        k(    7) = (   0.0379955  -0.0279518   0.0000000), wk =   0.2500000
        k(    8) = (  -0.0759910  -0.0000099   0.0000000), wk =   0.1250000
        k(    9) = (  -0.0759910   0.0279468   0.0000000), wk =   0.2500000
        k(   10) = (  -0.0759910  -0.0559233   0.0000000), wk =   0.1250000

     Initial potential from superposition of free atoms

     starting charge  421.99910, renormalised to  440.00000

     negative rho (up, down):  3.701E-02 0.000E+00

     %%%%%%%%%%%%%%%%%%%%%%%%%%%%%%%%%%%%%%%%%%%%%%%%%%%%%%%%%%%%%%%%%%%%%%%%
     %                                                                      %
     % You are using vdW-DF, which was implemented by the Thonhauser group. %
     % Please cite the following two papers that made this development      %
     % possible and the two reviews that describe the various versions:     %
     %                                                                      %
     %   T. Thonhauser et al., PRL 115, 136402 (2015).                      %
     %   T. Thonhauser et al., PRB 76, 125112 (2007).                       %
     %   K. Berland et al., Rep. Prog. Phys. 78, 066501 (2015).             %
     %   D.C. Langreth et al., J. Phys.: Condens. Matter 21, 084203 (2009). %
     %                                                                      %
     %                                                                      %
     % If you are calculating the stress with vdW-DF, please also cite:     %
     %                                                                      %
     %   R. Sabatini et al., J. Phys.: Condens. Matter 24, 424209 (2012).   %
     %                                                                      %
     %%%%%%%%%%%%%%%%%%%%%%%%%%%%%%%%%%%%%%%%%%%%%%%%%%%%%%%%%%%%%%%%%%%%%%%%

     Adding external electric field

     Computed dipole along edir(3) :
        Dipole               -3.9424 Ry au,        -10.0206 Debye
        Dipole field         -0.0050 Ry au,

        Potential amp.        0.4598 Ry
        Total length         46.3494 bohr

     Starting wfcs are  332 atomic wfcs
  @ DRIVER MODE: Message from server: STATUS
  @ DRIVER MODE: Message from server: POSDATA
  @ DRIVER MODE: Reading and sharing cell
  @ DRIVER MODE: Reading and sharing positions
  @ DRIVER MODE: Received positions

     Self-consistent Calculation

     iteration #  1     ecut=    29.40 Ry     beta= 0.05
     Davidson diagonalization with overlap
     c_bands:  1 eigenvalues not converged
     c_bands:  2 eigenvalues not converged
     c_bands:  4 eigenvalues not converged
     c_bands:  3 eigenvalues not converged
     c_bands:  1 eigenvalues not converged
     c_bands:  3 eigenvalues not converged
     c_bands:  5 eigenvalues not converged
     c_bands:  3 eigenvalues not converged
     c_bands:  3 eigenvalues not converged
     ethr =  1.00E-05,  avg # of iterations = 19.2

[...]

     total energy              =   -3294.67667833 Ry
     estimated scf accuracy    <      19.62881590 Ry

     iteration #  2     ecut=    29.40 Ry     beta= 0.05
     Davidson diagonalization with overlap
     ethr =  4.46E-03,  avg # of iterations =  1.0

[...]

     iteration # 31     ecut=    29.40 Ry     beta= 0.05
     Davidson diagonalization with overlap
     c_bands:  1 eigenvalues not converged
     c_bands:  2 eigenvalues not converged
     ethr =  7.41E-07,  avg # of iterations = 14.8

[...]

     total energy              =   -3293.29224954 Ry
     estimated scf accuracy    <       0.00000016 Ry

     iteration # 65     ecut=    29.40 Ry     beta= 0.05
     Davidson diagonalization with overlap
     ethr =  3.66E-11,  avg # of iterations =  5.0

     negative rho (up, down):  3.601E-02 0.000E+00

     Adding external electric field

     Computed dipole along edir(3) :
        Dipole                1.2942 Ry au,          3.2895 Debye
        Dipole field          0.0016 Ry au,

        Potential amp.       -0.1509 Ry
        Total length         46.3494 bohr

     End of self-consistent calculation

          k = 0.0000 0.0000 0.0000 ( 26871 PWs)   bands (ev):

   -58.2967 -58.2727 -58.2690 -58.2098 -58.1613 -57.7932 -57.7728 -57.7567
   -57.6216 -57.5915 -57.5710 -57.5109 -57.4880 -56.8987 -56.8771 -56.8512
   -56.8418 -56.8362 -34.6880 -34.6608 -34.6307 -34.6188 -34.6133 -34.6083
   -34.5455 -34.4822 -34.4719 -34.4095 -34.4052 -34.4023 -34.3887 -34.3584
   -34.3334 -34.1955 -34.1495 -34.1446 -34.1242 -34.0959 -34.0824 -34.0779
   -34.0570 -34.0203 -34.0083 -33.9626 -33.9186 -33.8739 -33.8591 -33.8501
   -33.8336 -33.8267 -33.7798 -33.7569 -33.7475 -33.7427 -33.6959 -33.6887
   -33.6764 -33.3602 -33.2218 -33.2117 -33.2018 -33.1874 -33.1807 -33.1740
   -33.1624 -33.1170 -33.0848 -33.0790 -33.0262 -33.0250 -33.0079 -32.8848
   -18.9127 -18.8267 -18.3715 -18.2960 -18.1745 -18.1192 -18.1130 -18.0473
   -17.9447 -17.7236 -17.6832 -17.6745 -17.6462 -17.5386 -17.5305 -17.5267
   -17.4929 -17.4861 -17.4737 -17.3856 -17.3268 -17.3140 -17.3085 -17.3083
   -17.1995 -17.1750 -17.1230 -17.0567 -17.0449 -16.9490 -16.7645 -16.4309
   -15.3531 -15.3125 -15.3028 -15.1233 -13.6001  -6.9787  -6.6174  -6.1789
    -5.9853  -5.7751  -5.6367  -5.5221  -5.4691  -5.3767  -5.3106  -5.2857
    -5.2683  -5.2281  -5.1943  -5.1676  -5.0648  -5.0548  -4.9737  -4.9193
    -4.8738  -4.8274  -4.7853  -4.7389  -4.7365  -4.6971  -4.6281  -4.6175
    -4.5829  -4.5354  -4.5064  -4.4983  -4.4431  -4.4144  -4.3929  -4.2735
    -4.2591  -4.1916  -4.1798  -4.1725  -4.0678  -4.0610  -4.0175  -3.9808
    -3.9793  -3.9612  -3.9090  -3.8310  -3.8024  -3.6437  -3.6192  -3.6116
    -3.5177  -3.3807  -3.3670  -3.3227  -3.2033  -3.1362  -3.1122  -3.0768
    -3.0568  -3.0394  -3.0162  -3.0047  -2.9712  -2.8766  -2.8758  -2.8146
    -2.8122  -2.7976  -2.7754  -2.7702  -2.7306  -2.6582  -2.5990  -2.5863
    -2.5651  -2.5475  -2.4610  -2.4465  -2.3559  -2.3403  -2.2845  -2.2422
    -2.2362  -2.1706  -2.0956  -2.0879  -2.0239  -1.9996  -1.8256  -1.8005
    -1.7229  -1.7174  -1.6510  -1.6242  -1.6013  -1.5491  -1.4244  -1.3932
    -1.2975  -1.1860  -1.0218  -0.7820  -0.5905  -0.5699  -0.5608  -0.5286
    -0.4350  -0.3821  -0.3662  -0.2711   0.9814   1.1273   1.2804   1.3020
     1.4958   1.6053   1.6178   1.6731   1.7519   1.8502

[...]

          k = 0.0380-0.0280 0.0000 ( 26873 PWs)   bands (ev):

[...]

          k =-0.0760-0.0000 0.0000 ( 26902 PWs)   bands (ev):

[...]

          k =-0.0760-0.0559 0.0000 ( 26868 PWs)   bands (ev):

   -58.2900 -58.2860 -58.2623 -58.2096 -58.1615 -57.7932 -57.7724 -57.7571
   -57.6200 -57.5949 -57.5692 -57.5108 -57.4881 -56.8987 -56.8742 -56.8571
   -56.8418 -56.8332 -34.7133 -34.7093 -34.6630 -34.6385 -34.6056 -34.4975
   -34.4827 -34.4484 -34.4453 -34.4327 -34.4262 -34.4066 -34.3845 -34.3809
   -34.3604 -34.2306 -34.1722 -34.1670 -34.1388 -34.1214 -34.0783 -34.0021
   -33.9983 -33.9981 -33.9640 -33.9271 -33.9202 -33.9061 -33.8981 -33.8733
   -33.8650 -33.8496 -33.7747 -33.7663 -33.7388 -33.7120 -33.7115 -33.6939
   -33.6869 -33.3358 -33.2634 -33.2228 -33.2180 -33.2075 -33.1844 -33.1761
   -33.1239 -33.0800 -33.0717 -33.0528 -33.0301 -32.9958 -32.9893 -32.9723
   -18.8911 -18.6217 -18.4742 -18.2382 -18.1380 -17.9743 -17.8913 -17.8786
   -17.8607 -17.8598 -17.7607 -17.7497 -17.6983 -17.6737 -17.6308 -17.6213
   -17.6090 -17.5716 -17.5657 -17.4520 -17.3616 -17.3525 -17.2574 -17.2424
   -17.2151 -17.1535 -17.1350 -17.0458 -17.0264 -16.9537 -16.7724 -16.4157
   -15.3642 -15.3525 -15.2420 -15.1240 -13.5971  -6.9508  -6.6185  -5.9496
    -5.7547  -5.7204  -5.6698  -5.3494  -5.3119  -5.2272  -5.2018  -5.1629
    -5.1373  -5.1235  -5.0934  -5.0820  -5.0068  -4.9700  -4.9608  -4.9570
    -4.9141  -4.8951  -4.8468  -4.8253  -4.7758  -4.7550  -4.7469  -4.7126
    -4.6685  -4.6496  -4.5755  -4.5702  -4.4968  -4.4574  -4.3184  -4.2344
    -4.2095  -4.1800  -4.0833  -4.0655  -4.0367  -3.9345  -3.9250  -3.9045
    -3.7766  -3.7395  -3.6326  -3.6164  -3.5676  -3.5445  -3.5167  -3.4891
    -3.4246  -3.3826  -3.3665  -3.3612  -3.3274  -3.2588  -3.2288  -3.2121
    -3.1804  -3.1626  -3.1523  -3.1415  -3.0753  -3.0584  -3.0289  -2.9893
    -2.9280  -2.9038  -2.8482  -2.8473  -2.7863  -2.7469  -2.6925  -2.6866
    -2.6142  -2.5922  -2.5860  -2.5783  -2.4773  -2.4516  -2.4439  -2.3024
    -2.1639  -2.1125  -2.0695  -1.9661  -1.9083  -1.9045  -1.8808  -1.8126
    -1.7878  -1.7046  -1.6501  -1.6264  -1.6192  -1.5934  -1.3747  -1.3447
    -1.3330  -1.2900  -1.2258  -1.1313  -0.8121  -0.5913  -0.5792  -0.4993
    -0.4762  -0.4232  -0.4020  -0.3875   1.0305   1.2054   1.2770   1.3703
     1.3710   1.4036   1.4533   1.6195   1.6527   1.7063

     the Fermi energy is     0.3883 ev

!    total energy              =   -3293.29227215 Ry
     estimated scf accuracy    <       0.00000006 Ry
     smearing contrib. (-TS)   =      -0.00047762 Ry
     internal energy E=F+TS    =   -3293.29179453 Ry

     The total energy is F=E-TS. E is the sum of the following terms:
     one-electron contribution =  -34638.89778817 Ry
     hartree contribution      =   17383.74762254 Ry
     xc contribution           =    -542.07985947 Ry
     ewald contribution        =   14503.93612342 Ry
     electric field correction =       0.00210716 Ry

     convergence has been achieved in  65 iterations

     Forces acting on atoms (cartesian axes, Ry/au):

     atom    1 type  1   force =     0.00000878    0.00245205    0.04673393
     atom    2 type  1   force =     0.00000790   -0.00341081   -0.00286799
     atom    3 type  1   force =    -0.00001004    0.00325846   -0.00092853
     atom    4 type  1   force =     0.00005116   -0.00098058    0.10169673
     atom    5 type  1   force =    -0.00000962   -0.00072073    0.00562291
     atom    6 type  1   force =    -0.00001332    0.00367848    0.00082223
     atom    7 type  1   force =     0.07819404    0.00086074   -0.03541810
     atom    8 type  1   force =     0.00833739   -0.02588279    0.00018307
     atom    9 type  1   force =     0.00848510    0.02068498    0.00129981
     atom   10 type  2   force =    -0.00006275    0.00867476   -0.15838093
     atom   11 type  2   force =    -0.00003717    0.02307790   -0.00230057
     atom   12 type  2   force =     0.00005270   -0.02562722   -0.00429308
     atom   13 type  1   force =    -0.07828732    0.00040389   -0.03540644
     atom   14 type  1   force =    -0.00838357   -0.02579602    0.00019098
     atom   15 type  1   force =    -0.00843665    0.02079447    0.00133236
     atom   16 type  2   force =     0.00012963    0.00086780    0.07315390
     atom   17 type  2   force =     0.00006082    0.03072801    0.00240966
     atom   18 type  2   force =    -0.00006097   -0.02689704    0.00068207
     atom   19 type  1   force =     0.00004056    0.00299864    0.05011456
     atom   20 type  1   force =    -0.00002119   -0.00126725   -0.00142645
     atom   21 type  1   force =     0.00005149   -0.00064652    0.10017534
     atom   22 type  1   force =    -0.00001609   -0.00179922    0.00544866
     atom   23 type  1   force =    -0.00002091    0.00236818    0.00382100
     atom   24 type  1   force =     0.07914458    0.00064642   -0.03607136
     atom   25 type  1   force =     0.00924453   -0.02948639    0.00062395
     atom   26 type  1   force =     0.00849286    0.02155482    0.00324475
     atom   27 type  2   force =    -0.00006799   -0.00813904   -0.15493306
     atom   28 type  2   force =    -0.00000764    0.02630568   -0.00222349
     atom   29 type  2   force =     0.00004305   -0.02436947   -0.00334318
     atom   30 type  1   force =    -0.07923411    0.00023711   -0.03606716
     atom   31 type  1   force =    -0.00925116   -0.02941713    0.00062967
     atom   32 type  1   force =    -0.00844804    0.02163141    0.00327255
     atom   33 type  2   force =     0.00013251   -0.00255491    0.07884624
     atom   34 type  2   force =     0.00004848    0.03585959    0.00275279
     atom   35 type  2   force =    -0.00006913   -0.02927567    0.00301201
     atom   36 type  1   force =     0.00004182    0.00307326    0.05240246
     atom   37 type  1   force =    -0.00000356   -0.00187575   -0.00284797
     atom   38 type  1   force =    -0.00002116    0.00199942    0.00081650
     atom   39 type  1   force =     0.00004704    0.00287125    0.10109941
     atom   40 type  1   force =    -0.00000918   -0.00169601    0.00618574
     atom   41 type  1   force =    -0.00002749    0.00299658    0.00388654
     atom   42 type  1   force =     0.07825747    0.00076494   -0.03489027
     atom   43 type  1   force =     0.00661097   -0.02304466   -0.00020441
     atom   44 type  1   force =     0.01110587    0.02220016   -0.00716473
     atom   45 type  2   force =    -0.00006120   -0.00550633   -0.16465471
     atom   46 type  2   force =    -0.00007742    0.01958215    0.00102483
     atom   47 type  2   force =     0.00002696   -0.01857173    0.00739066
     atom   48 type  1   force =    -0.07835350    0.00031554   -0.03487254
     atom   49 type  1   force =    -0.00665189   -0.02301125   -0.00020074
     atom   50 type  1   force =    -0.01107438    0.02218387   -0.00712065
     atom   51 type  2   force =     0.00012601   -0.00436750    0.06095171
     atom   52 type  2   force =     0.00012355    0.02964590    0.00360595
     atom   53 type  2   force =    -0.00007389   -0.02505019    0.00090893
     atom   54 type  3   force =    -0.00000657    0.00077451   -0.00013147
     atom   55 type  3   force =    -0.00001716   -0.00009786    0.00013280
     atom   56 type  4   force =    -0.00002312    0.00700859    0.00058431
     atom   57 type  4   force =    -0.00001090    0.00983869    0.00669568
     atom   58 type  3   force =    -0.00000636    0.00069232    0.00086877
     atom   59 type  3   force =    -0.00000982   -0.01153850   -0.00687564

     Total force =     0.437675     Total SCF correction =     0.000558
  @ DRIVER MODE: Message from server: STATUS
  @ DRIVER MODE: Message from server: GETFORCE
  @ DRIVER MODE: Returning v,forces,stress,ensemble

     Writing output data file ./calc.save/
  @ DRIVER MODE: Message from server: EXIT
  @ DRIVE MODE: Exiting

     General routines

     Parallel routines

   This run was terminated on:   4:18:21  19Oct2021

   JOB DONE.