     Program PWSCF v.6.7GPU starts on 12Oct2021 at 22:20:45

     R & G space division:  proc/nbgrp/npool/nimage =       8
     Reading input from /storage/home/hcoda1/3/ntian30/research/carbon/ACS_vib/ads_slab/N2H6/out_0032/pw.inp
Warning: card &CELL ignored
Warning: card   CELL_DYNAMICS='IPI', ignored
Warning: card / ignored

     Current dimensions of program PWSCF are:
     Max number of different atomic species (ntypx) = 10
     Max number of k-points (npk) =  40000
     Max angular momentum in pseudopotentials (lmaxx) =  3
     Presently no symmetry can be used with electric field

     Message from routine cell_base_init:
     DEPRECATED: use true lattice parameter, not A to a.u. conversion factor

     IMPORTANT: XC functional enforced from input :
     Exchange-correlation= BEEF-VDW
                           (   1   4  43  14   2   0   0)
     Any further DFT definition will be discarded
     Please, verify this is what you really want

  @ DRIVER MODE: Connecting to
 qe_1139763_3181315.sched-torque.pace.gatech.edu8actvs5g_scratch
  using UNIX socket
  @ DRIVER MODE: Message from server: STATUS
  @ DRIVER MODE: Message from server: INIT
  @ DRIVER MODE: Receiving replica           0          -1
  @ DRIVER MODE: Receiving encoded integer          25
  @ DRIVER MODE:  SCF:  T  FORCE:  T  STRESS:  F  VC:  F  ENSEMBLE:  F
  @ DRIVER MODE:  SCF:  T  FORCE:  T  STRESS:  F  VC:  F  ENSEMBLE:  F

     Using Slab Decomposition

     bravais-lattice index     =            0
     lattice parameter (alat)  =       1.8897  a.u.
     unit-cell volume          =    6658.9804 (a.u.)^3
     number of atoms/cell      =           55
     number of atomic types    =            4
     number of electrons       =       394.00
     number of Kohn-Sham states=          207
     kinetic-energy cutoff     =      29.3995  Ry
     charge density cutoff     =     293.9946  Ry
     scf convergence threshold =      7.3E-08
     mixing beta               =       0.0500
     number of iterations used =            8  plain     mixing
     Exchange-correlation= BEEF-VDW
                           (   1   4  43  14   2   0   0)

     celldm(1)=   1.889726  celldm(2)=   0.000000  celldm(3)=   0.000000
     celldm(4)=   0.000000  celldm(5)=   0.000000  celldm(6)=   0.000000

     crystal axes: (cart. coord. in units of alat)
               a(1) = (   6.579727   0.000000   0.000000 )
               a(2) = (  -0.000775   5.961596   0.000000 )
               a(3) = (   0.000000   0.000000  25.155947 )

     reciprocal axes: (cart. coord. in units 2 pi/alat)
               b(1) = (  0.151982  0.000020  0.000000 )
               b(2) = (  0.000000  0.167740  0.000000 )
               b(3) = (  0.000000  0.000000  0.039752 )

     PseudoPot. # 1 for Ti read from file:
     /storage/coda1/p-amedford6/0/shared/rich_project_chbe-medford/medford-share/data/pseudos_module/espresso/nninc/pbe/van/Ti.UPF
     MD5 check sum: 8e4df49b7f0d34bbd5052bf3f5ea0213
     Pseudo is Ultrasoft, Zval = 12.0
     Generated by new atomic code, or converted to UPF format
     Using radial grid of  851 points,  6 beta functions with:
                l(1) =   0
                l(2) =   0
                l(3) =   1
                l(4) =   1
                l(5) =   2
                l(6) =   2
     Q(r) pseudized with  8 coefficients,  rinner =    1.000   1.000   1.000
                                                       1.000   1.000

     PseudoPot. # 2 for O  read from file:
     /storage/coda1/p-amedford6/0/shared/rich_project_chbe-medford/medford-share/data/pseudos_module/espresso/nninc/pbe/van/O.UPF
     MD5 check sum: 78c19812648e8988a0fe644b0f25305e
     Pseudo is Ultrasoft, Zval =  6.0
     Generated by new atomic code, or converted to UPF format
     Using radial grid of  737 points,  4 beta functions with:
                l(1) =   0
                l(2) =   0
                l(3) =   1
                l(4) =   1
     Q(r) pseudized with  8 coefficients,  rinner =    0.800   0.800   0.800

     PseudoPot. # 3 for N  read from file:
     /storage/coda1/p-amedford6/0/shared/rich_project_chbe-medford/medford-share/data/pseudos_module/espresso/nninc/pbe/van/N.UPF
     MD5 check sum: 90d10febe142ad51ac9d5be1deb811c4
     Pseudo is Ultrasoft, Zval =  5.0
     Generated by new atomic code, or converted to UPF format
     Using radial grid of  729 points,  4 beta functions with:
                l(1) =   0
                l(2) =   0
                l(3) =   1
                l(4) =   1
     Q(r) pseudized with  8 coefficients,  rinner =    0.800   0.800   0.800

     PseudoPot. # 4 for H  read from file:
     /storage/coda1/p-amedford6/0/shared/rich_project_chbe-medford/medford-share/data/pseudos_module/espresso/nninc/pbe/van/H.UPF
     MD5 check sum: b5ee9d7bfd3a09ee7748110bda690ff7
     Pseudo is Ultrasoft, Zval =  1.0
     Generated by new atomic code, or converted to UPF format
     Using radial grid of  615 points,  1 beta functions with:
                l(1) =   0
     Q(r) pseudized with  8 coefficients,  rinner =    0.800

     atomic species   valence    mass     pseudopotential
        Ti1           12.00    47.86700     Ti( 1.00)
        O1             6.00    15.99900     O ( 1.00)
        N1             5.00    14.00700     N ( 1.00)
        H1             1.00     1.00800     H ( 1.00)

     No symmetry found

   Cartesian axes

     site n.     atom                  positions (alat units)
         1           Ti1 tau(   1) = (   0.0004258   2.9801865   6.0000000  )
         2           Ti1 tau(   2) = (   3.2906075   1.4906267   6.0002472  )
         3           O1  tau(   3) = (   0.0006271   0.0005054   7.9858123  )
         4           O1  tau(   4) = (   3.2906025   0.0005020   7.3038282  )
         5           O1  tau(   5) = (   4.5942328   1.4918067   9.2879030  )
         6           O1  tau(   6) = (   1.9868534   1.4903216   9.2879459  )
         7           Ti1 tau(   7) = (   3.2905188   2.9817269   9.1608671  )
         8           Ti1 tau(   8) = (   0.0008727   1.4903491   9.2579811  )
         9           O1  tau(   9) = (   3.2897677   5.9391746  11.3820438  )
        10           O1  tau(  10) = (  -0.0000005   5.9544960  10.6146985  )
        11           O1  tau(  11) = (   1.2884133   1.4789655  12.6516217  )
        12           O1  tau(  12) = (   5.2921206   1.4788385  12.6515509  )
        13           Ti1 tau(  13) = (   0.0005720   2.9629092  12.4975245  )
        14           Ti1 tau(  14) = (   3.2903801   1.4745319  12.5205501  )
        15           O1  tau(  15) = (   0.0004407   0.0388239  14.7059933  )
        16           O1  tau(  16) = (   3.2897445   5.9465346  14.0037610  )
        17           O1  tau(  17) = (   4.5472543   1.4569283  16.2215039  )
        18           O1  tau(  18) = (   2.0329396   1.4568822  16.2213506  )
        19           Ti1 tau(  19) = (   3.2899346   2.9358424  15.7577366  )
        20           Ti1 tau(  20) = (   0.0004932   1.4309995  16.0137732  )
        21           O1  tau(  21) = (   3.2904802   0.0005063   4.7018136  )
        22           O1  tau(  22) = (  -0.0003511   5.7889056  17.2622344  )
        23           O1  tau(  23) = (   1.3043587   1.4918075   6.0039043  )
        24           O1  tau(  24) = (   5.2767064   1.4903225   6.0039473  )
        25           Ti1 tau(  25) = (   0.0000382   5.9609847   6.0000000  )
        26           Ti1 tau(  26) = (   3.2902200   4.4714249   6.0002472  )
        27           O1  tau(  27) = (   0.0002396   2.9813036   7.9858123  )
        28           O1  tau(  28) = (   3.2902150   2.9813002   7.3038282  )
        29           O1  tau(  29) = (   4.5938453   4.4726049   9.2879030  )
        30           O1  tau(  30) = (   1.9864658   4.4711199   9.2879459  )
        31           Ti1 tau(  31) = (   3.2908958   0.0009406   9.1591437  )
        32           Ti1 tau(  32) = (   0.0004876   4.4725358   9.2579169  )
        33           O1  tau(  33) = (   3.2901541   2.9707129  11.3740276  )
        34           O1  tau(  34) = (   0.0003862   2.9798045  10.6274311  )
        35           O1  tau(  35) = (   1.2860740   4.4511954  12.6821393  )
        36           O1  tau(  36) = (   5.2936768   4.4510845  12.6820400  )
        37           Ti1 tau(  37) = (   0.0001324   5.9497034  12.4914426  )
        38           Ti1 tau(  38) = (   3.2900283   4.4525324  12.5305491  )
        39           O1  tau(  39) = (   0.0000299   2.9046373  14.9484161  )
        40           O1  tau(  40) = (   3.2901113   2.9423191  13.9685580  )
        41           O1  tau(  41) = (   4.5465916   4.4073028  16.1601725  )
        42           O1  tau(  42) = (   2.0329218   4.4072560  16.1600144  )
        43           Ti1 tau(  43) = (   3.2897320   5.9176933  15.7983882  )
        44           Ti1 tau(  44) = (   0.0000796   4.6311109  15.9036278  )
        45           O1  tau(  45) = (   3.2900926   2.9813045   4.7018136  )
        46           O1  tau(  46) = (   1.3039711   4.4726057   6.0039043  )
        47           O1  tau(  47) = (   5.2763189   4.4711207   6.0039473  )
        48           N1  tau(  48) = (   6.5791966   2.5420708  18.0661808  )
        49           H1  tau(  49) = (   6.5785613   1.6509345  18.5577087  )
        50           H1  tau(  50) = (   0.8131443   3.0604954  18.3807411  )
        51           H1  tau(  51) = (   5.7641953   3.0602838  18.3787844  )
        52           N1  tau(  52) = (  -0.0000615   4.8677125  20.5088556  )
        53           H1  tau(  53) = (   0.0077184   5.1124690  21.4935560  )
        54           H1  tau(  54) = (   0.8078797   5.3121143  20.0844266  )
        55           H1  tau(  55) = (   5.7710899   5.3082688  20.0816402  )

     number of k points=    10  Fermi-Dirac smearing, width (Ry)=  0.0073
                       cart. coord. in units 2pi/alat
        k(    1) = (   0.0000000   0.0000000   0.0000000), wk =   0.1250000
        k(    2) = (   0.0000000   0.0419351   0.0000000), wk =   0.2500000
        k(    3) = (   0.0000000  -0.0838702   0.0000000), wk =   0.1250000
        k(    4) = (   0.0379955   0.0000049   0.0000000), wk =   0.2500000
        k(    5) = (   0.0379955   0.0419400   0.0000000), wk =   0.2500000
        k(    6) = (   0.0379955  -0.0838652   0.0000000), wk =   0.2500000
        k(    7) = (   0.0379955  -0.0419301   0.0000000), wk =   0.2500000
        k(    8) = (  -0.0759910  -0.0000099   0.0000000), wk =   0.1250000
        k(    9) = (  -0.0759910   0.0419252   0.0000000), wk =   0.2500000
        k(   10) = (  -0.0759910  -0.0838800   0.0000000), wk =   0.1250000

     Initial potential from superposition of free atoms

     starting charge  377.99918, renormalised to  394.00000

     negative rho (up, down):  1.302E-02 0.000E+00

     %%%%%%%%%%%%%%%%%%%%%%%%%%%%%%%%%%%%%%%%%%%%%%%%%%%%%%%%%%%%%%%%%%%%%%%%
     %                                                                      %
     % You are using vdW-DF, which was implemented by the Thonhauser group. %
     % Please cite the following two papers that made this development      %
     % possible and the two reviews that describe the various versions:     %
     %                                                                      %
     %   T. Thonhauser et al., PRL 115, 136402 (2015).                      %
     %   T. Thonhauser et al., PRB 76, 125112 (2007).                       %
     %   K. Berland et al., Rep. Prog. Phys. 78, 066501 (2015).             %
     %   D.C. Langreth et al., J. Phys.: Condens. Matter 21, 084203 (2009). %
     %                                                                      %
     %                                                                      %
     % If you are calculating the stress with vdW-DF, please also cite:     %
     %                                                                      %
     %   R. Sabatini et al., J. Phys.: Condens. Matter 24, 424209 (2012).   %
     %                                                                      %
     %%%%%%%%%%%%%%%%%%%%%%%%%%%%%%%%%%%%%%%%%%%%%%%%%%%%%%%%%%%%%%%%%%%%%%%%

     Adding external electric field

     Computed dipole along edir(3) :
        Dipole               -9.7176 Ry au,        -24.6996 Debye
        Dipole field         -0.0183 Ry au,

        Potential amp.        1.6999 Ry
        Total length         46.3494 bohr

     Starting wfcs are  298 atomic wfcs
  @ DRIVER MODE: Message from server: STATUS
  @ DRIVER MODE: Message from server: POSDATA
  @ DRIVER MODE: Reading and sharing cell
  @ DRIVER MODE: Reading and sharing positions
  @ DRIVER MODE: Received positions

     Self-consistent Calculation

     iteration #  1     ecut=    29.40 Ry     beta= 0.05
     Davidson diagonalization with overlap
     c_bands:  1 eigenvalues not converged
     c_bands:  1 eigenvalues not converged
     c_bands:  1 eigenvalues not converged
     c_bands:  1 eigenvalues not converged
     ethr =  1.00E-05,  avg # of iterations = 18.0

[...]

     total energy              =   -2597.72700657 Ry
     estimated scf accuracy    <    3724.97217949 Ry

     iteration #  2     ecut=    29.40 Ry     beta= 0.05
     Davidson diagonalization with overlap
     ethr =  1.00E-02,  avg # of iterations = 22.5

[...]

     iteration # 77     ecut=    29.40 Ry     beta= 0.05
     Davidson diagonalization with overlap
     ethr =  5.14E-11,  avg # of iterations =  6.2

[...]

     total energy              =   -2931.48030791 Ry
     estimated scf accuracy    <       0.00000011 Ry

     iteration # 78     ecut=    29.40 Ry     beta= 0.05
     Davidson diagonalization with overlap
     c_bands:  1 eigenvalues not converged
     ethr =  2.72E-11,  avg # of iterations = 13.7

     negative rho (up, down):  1.427E-02 0.000E+00

     Adding external electric field

     Computed dipole along edir(3) :
        Dipole                1.3635 Ry au,          3.4656 Debye
        Dipole field          0.0026 Ry au,

        Potential amp.       -0.2385 Ry
        Total length         46.3494 bohr

     End of self-consistent calculation

          k = 0.0000 0.0000 0.0000 ( 18029 PWs)   bands (ev):

   -55.2819 -55.2454 -55.2336 -55.2032 -55.1994 -55.1673 -55.1532 -55.1188
   -55.1114 -55.0830 -55.0771 -55.0601 -55.0260 -54.9509 -54.3237 -54.2896
   -31.8500 -31.7366 -31.7328 -31.6395 -31.5997 -31.5888 -31.5854 -31.5719
   -31.5262 -31.5236 -31.4886 -31.4884 -31.4785 -31.4739 -31.4546 -31.4399
   -31.4349 -31.4218 -31.4176 -31.3907 -31.3850 -31.3760 -31.3653 -31.3534
   -31.3508 -31.3370 -31.3325 -31.3195 -31.2894 -31.2843 -31.2674 -31.2631
   -31.2576 -31.2543 -31.2504 -31.2433 -31.2100 -31.2059 -31.1923 -31.1742
   -31.1540 -31.1530 -30.7357 -30.6339 -30.6124 -30.5518 -30.4653 -30.3545
   -16.1134 -15.8760 -15.7462 -15.5878 -15.4975 -15.4577 -15.3580 -15.3329
   -15.2240 -15.1482 -15.0155 -14.9816 -14.9401 -14.9329 -14.9249 -14.9053
   -14.8995 -14.8283 -14.8092 -14.7987 -14.7904 -14.7678 -14.7663 -14.7471
   -14.7178 -14.6645 -14.6449 -14.5156 -14.4339 -14.3759 -14.1267 -12.8255
   -12.7063  -5.6494  -5.5099  -4.9597  -4.8011  -3.4443  -3.2903  -3.2557
    -3.2048  -3.1936  -3.0401  -2.8796  -2.7303  -2.7108  -2.5613  -2.5322
    -2.4803  -2.4585  -2.3071  -2.2814  -2.2371  -2.2110  -2.1616  -2.1510
    -2.1439  -2.1320  -2.0533  -2.0420  -2.0267  -1.8906  -1.8708  -1.7596
    -1.7192  -1.6635  -1.6497  -1.6446  -1.6108  -1.5927  -1.5523  -1.5415
    -1.5245  -1.4996  -1.4899  -1.3250  -1.2988  -1.2002  -1.1394  -1.0488
    -1.0321  -0.8880  -0.8529  -0.7641  -0.7454  -0.7275  -0.7134  -0.6803
    -0.6321  -0.5243  -0.4349  -0.4134  -0.3526  -0.3283  -0.2895  -0.2020
    -0.0981  -0.0695  -0.0369  -0.0342   0.0821   0.1068   0.1517   0.2183
     0.2382   0.2394   0.2626   0.3528   0.3669   0.4650   0.4886   0.4958
     0.5447   0.6335   0.6378   0.6520   0.6618   0.6883   0.7591   0.7654
     0.8655   0.8881   1.0047   1.2156   1.2873   1.3133   1.5922   1.6525
     1.7012   1.8640   2.2844   2.3367   3.8167   3.8832   3.9164   3.9492
     3.9855   4.0265   4.3138   4.3216   4.3342   4.3386   4.3754

[...]

          k = 0.0380-0.0419 0.0000 ( 17876 PWs)   bands (ev):

[...]

          k =-0.0760-0.0000 0.0000 ( 17886 PWs)   bands (ev):

[...]

          k =-0.0760-0.0839 0.0000 ( 17948 PWs)   bands (ev):

   -55.2665 -55.2606 -55.2165 -55.2164 -55.2017 -55.1638 -55.1369 -55.1351
   -55.0956 -55.0926 -55.0864 -55.0454 -55.0408 -54.9522 -54.3067 -54.3066
   -31.6553 -31.6510 -31.6507 -31.5709 -31.5476 -31.5475 -31.5412 -31.5090
   -31.5088 -31.4829 -31.4829 -31.4792 -31.4756 -31.4569 -31.4366 -31.4169
   -31.4118 -31.4103 -31.4099 -31.4044 -31.4030 -31.4002 -31.3614 -31.3602
   -31.3565 -31.3533 -31.3510 -31.3500 -31.3474 -31.3348 -31.3347 -31.3302
   -31.3277 -31.2930 -31.2908 -31.2758 -31.2725 -31.2671 -31.2307 -31.2295
   -31.2253 -31.1577 -30.6250 -30.6249 -30.5484 -30.5482 -30.5086 -30.5085
   -15.6331 -15.5204 -15.5122 -15.4747 -15.3212 -15.3002 -15.2630 -15.2483
   -15.1298 -15.0940 -15.0747 -15.0585 -15.0263 -15.0221 -15.0151 -14.9786
   -14.8946 -14.8749 -14.8694 -14.8573 -14.8135 -14.7929 -14.7875 -14.7809
   -14.7800 -14.7447 -14.7412 -14.6997 -14.6961 -14.6907 -14.3757 -12.8073
   -12.8073  -5.6287  -5.5128  -4.9272  -4.8084  -2.7934  -2.7371  -2.7369
    -2.5461  -2.4753  -2.4581  -2.4412  -2.3582  -2.3185  -2.2893  -2.2658
    -2.2348  -2.1929  -2.1893  -2.1677  -2.1592  -2.1436  -2.0980  -2.0796
    -2.0541  -2.0005  -1.9756  -1.9673  -1.9555  -1.9464  -1.9418  -1.9186
    -1.9164  -1.8904  -1.8790  -1.8235  -1.6721  -1.6565  -1.5783  -1.5096
    -1.5045  -1.5027  -1.4196  -1.3994  -1.3448  -1.3360  -1.3296  -1.0867
    -1.0646  -1.0643  -1.0590  -1.0271  -0.9127  -0.9032  -0.8307  -0.8014
    -0.7827  -0.6761  -0.6654  -0.6054  -0.6017  -0.4945  -0.4925  -0.4341
    -0.3055  -0.2993  -0.2858  -0.2610  -0.2592  -0.2175  -0.2134  -0.1062
    -0.0701  -0.0191  -0.0077   0.0244   0.1831   0.2296   0.2466   0.2718
     0.4054   0.4256   0.5600   0.5675   0.6223   0.7320   0.7620   0.8012
     0.8293   0.9783   0.9892   1.0104   1.1021   1.1161   1.1540   1.1605
     2.0520   2.0535   2.1549   2.1552   3.9770   4.0586   4.0841   4.1237
     4.2288   4.3271   4.3421   4.3431   4.3771   4.3800   4.4815

     the Fermi energy is     3.8801 ev

!    total energy              =   -2931.48032440 Ry
     estimated scf accuracy    <       0.00000006 Ry
     smearing contrib. (-TS)   =      -0.03684602 Ry
     internal energy E=F+TS    =   -2931.44347838 Ry

     The total energy is F=E-TS. E is the sum of the following terms:
     one-electron contribution =  -23481.07881161 Ry
     hartree contribution      =   11831.22668627 Ry
     xc contribution           =    -484.16805280 Ry
     ewald contribution        =    9202.57319146 Ry
     electric field correction =       0.00350830 Ry

     convergence has been achieved in  78 iterations

     Forces acting on atoms (cartesian axes, Ry/au):

     atom    1 type  1   force =     0.00008310   -0.00009224    0.09071693
     atom    2 type  1   force =    -0.00005232    0.00053154   -0.18275592
     atom    3 type  2   force =     0.00005459   -0.00002412   -0.02343299
     atom    4 type  2   force =     0.00001902   -0.00005917    0.05278698
     atom    5 type  2   force =    -0.01301887   -0.00097097    0.00605932
     atom    6 type  2   force =     0.01296539   -0.00047872    0.00604870
     atom    7 type  1   force =    -0.00000155    0.00067674   -0.00329986
     atom    8 type  1   force =     0.00001843   -0.00014412    0.00138316
     atom    9 type  2   force =    -0.00003252   -0.00017343   -0.00049559
     atom   10 type  2   force =     0.00001861   -0.00005186   -0.00023942
     atom   11 type  2   force =     0.00016211    0.00017267    0.00016967
     atom   12 type  2   force =    -0.00008101    0.00017188    0.00014594
     atom   13 type  1   force =    -0.00020002   -0.00020185    0.00001187
     atom   14 type  1   force =     0.00014694    0.00043550   -0.00096657
     atom   15 type  2   force =     0.00002315   -0.00058708    0.00012687
     atom   16 type  2   force =    -0.00002779    0.00001384    0.00045552
     atom   17 type  2   force =     0.00043855    0.00001346    0.00048250
     atom   18 type  2   force =    -0.00047084    0.00000611    0.00048026
     atom   19 type  1   force =     0.00005959    0.00004137    0.00030708
     atom   20 type  1   force =    -0.00003198   -0.00082961    0.00027155
     atom   21 type  2   force =     0.00005652    0.00012333    0.10487453
     atom   22 type  2   force =    -0.00000943    0.00016042    0.00107199
     atom   23 type  2   force =    -0.06827035   -0.00022325   -0.02624894
     atom   24 type  2   force =     0.06817965    0.00021438   -0.02629096
     atom   25 type  1   force =     0.00009699    0.00004169    0.09037196
     atom   26 type  1   force =    -0.00005509   -0.00044405   -0.18291696
     atom   27 type  2   force =     0.00005112   -0.00094296   -0.02254152
     atom   28 type  2   force =     0.00002016   -0.00006687    0.05256094
     atom   29 type  2   force =    -0.01332510   -0.00073240    0.00528400
     atom   30 type  2   force =     0.01326117   -0.00024092    0.00526981
     atom   31 type  1   force =     0.00001074   -0.00072092   -0.00309931
     atom   32 type  1   force =     0.00001422   -0.00007400    0.00151085
     atom   33 type  2   force =    -0.00002692   -0.00014327    0.00020443
     atom   34 type  2   force =     0.00002069    0.00006686   -0.00048950
     atom   35 type  2   force =     0.00013075   -0.00013883    0.00023539
     atom   36 type  2   force =    -0.00005247   -0.00015263    0.00021382
     atom   37 type  1   force =    -0.00019217    0.00004949    0.00092186
     atom   38 type  1   force =     0.00014155   -0.00027566   -0.00097116
     atom   39 type  2   force =     0.00001277    0.00024727   -0.00012247
     atom   40 type  2   force =    -0.00003034   -0.00001658    0.00108795
     atom   41 type  2   force =     0.00058345   -0.00017114    0.00024450
     atom   42 type  2   force =    -0.00062706   -0.00017013    0.00025024
     atom   43 type  1   force =     0.00006656    0.00009118    0.00065118
     atom   44 type  1   force =    -0.00003337    0.00101828   -0.00110797
     atom   45 type  2   force =     0.00005485    0.00014314    0.10484585
     atom   46 type  2   force =    -0.06827115   -0.00009110   -0.02628350
     atom   47 type  2   force =     0.06817972    0.00034659   -0.02632876
     atom   48 type  3   force =    -0.00049497   -0.00000825   -0.00026889
     atom   49 type  4   force =     0.00002142   -0.00006638    0.00078063
     atom   50 type  4   force =     0.00094903    0.00100255    0.00005134
     atom   51 type  4   force =    -0.00049696    0.00071269   -0.00015538
     atom   52 type  3   force =     0.00224748    0.00076399    0.00047496
     atom   53 type  4   force =    -0.00218709    0.00122685   -0.00146197
     atom   54 type  4   force =     0.00006620   -0.00036140   -0.00170321
     atom   55 type  4   force =    -0.00016514    0.00038209    0.00082830

     Total force =     0.366223     Total SCF correction =     0.000679
  @ DRIVER MODE: Message from server: STATUS
  @ DRIVER MODE: Message from server: GETFORCE
  @ DRIVER MODE: Returning v,forces,stress,ensemble

     Writing output data file ./calc.save/
  @ DRIVER MODE: Message from server: EXIT
  @ DRIVE MODE: Exiting

     General routines

     Parallel routines

   This run was terminated on:  22:47: 1  12Oct2021

   JOB DONE.