     Program PWSCF v.6.7GPU starts on 15Sep2021 at 17:34:21

     R & G space division:  proc/nbgrp/npool/nimage =      10
     Reading input from /storage/home/hcoda1/3/ntian30/research/carbon/CxH_vib/H2O_calc/ads_slab/CH2OH2O_a/out_0006/pw.inp
Warning: card &CELL ignored
Warning: card   CELL_DYNAMICS='IPI', ignored
Warning: card / ignored

     Current dimensions of program PWSCF are:
     Max number of different atomic species (ntypx) = 10
     Max number of k-points (npk) =  40000
     Max angular momentum in pseudopotentials (lmaxx) =  3
     Presently no symmetry can be used with electric field

     Message from routine cell_base_init:
     DEPRECATED: use true lattice parameter, not A to a.u. conversion factor

     IMPORTANT: XC functional enforced from input :
     Exchange-correlation= BEEF-VDW
                           (   1   4  43  14   2   0   0)
     Any further DFT definition will be discarded
     Please, verify this is what you really want

  @ DRIVER MODE: Connecting to
 qe_1139763_2852613.sched-torque.pace.gatech.edupkzy53vn_scratch
  using UNIX socket
  @ DRIVER MODE: Message from server: STATUS
  @ DRIVER MODE: Message from server: INIT
  @ DRIVER MODE: Receiving replica           0          -1
  @ DRIVER MODE: Receiving encoded integer          25
  @ DRIVER MODE:  SCF:  T  FORCE:  T  STRESS:  F  VC:  F  ENSEMBLE:  F
  @ DRIVER MODE:  SCF:  T  FORCE:  T  STRESS:  F  VC:  F  ENSEMBLE:  F

     Using Slab Decomposition

     bravais-lattice index     =            0
     lattice parameter (alat)  =       1.8897  a.u.
     unit-cell volume          =    6658.9804 (a.u.)^3
     number of atoms/cell      =           54
     number of atomic types    =            4
     number of electrons       =       398.00
     number of Kohn-Sham states=          209
     kinetic-energy cutoff     =      29.3995  Ry
     charge density cutoff     =     293.9946  Ry
     scf convergence threshold =      7.3E-08
     mixing beta               =       0.0500
     number of iterations used =            8  plain     mixing
     Exchange-correlation= BEEF-VDW
                           (   1   4  43  14   2   0   0)

     celldm(1)=   1.889726  celldm(2)=   0.000000  celldm(3)=   0.000000
     celldm(4)=   0.000000  celldm(5)=   0.000000  celldm(6)=   0.000000

     crystal axes: (cart. coord. in units of alat)
               a(1) = (   6.579727   0.000000   0.000000 )
               a(2) = (  -0.000775   5.961596   0.000000 )
               a(3) = (   0.000000   0.000000  25.155947 )

     reciprocal axes: (cart. coord. in units 2 pi/alat)
               b(1) = (  0.151982  0.000020  0.000000 )
               b(2) = (  0.000000  0.167740  0.000000 )
               b(3) = (  0.000000  0.000000  0.039752 )

     PseudoPot. # 1 for O  read from file:
     /storage/coda1/p-amedford6/0/shared/rich_project_chbe-medford/medford-share/data/pseudos_module/espresso/nninc/pbe/van/O.UPF
     MD5 check sum: 78c19812648e8988a0fe644b0f25305e
     Pseudo is Ultrasoft, Zval =  6.0
     Generated by new atomic code, or converted to UPF format
     Using radial grid of  737 points,  4 beta functions with:
                l(1) =   0
                l(2) =   0
                l(3) =   1
                l(4) =   1
     Q(r) pseudized with  8 coefficients,  rinner =    0.800   0.800   0.800

     PseudoPot. # 2 for Ti read from file:
     /storage/coda1/p-amedford6/0/shared/rich_project_chbe-medford/medford-share/data/pseudos_module/espresso/nninc/pbe/van/Ti.UPF
     MD5 check sum: 8e4df49b7f0d34bbd5052bf3f5ea0213
     Pseudo is Ultrasoft, Zval = 12.0
     Generated by new atomic code, or converted to UPF format
     Using radial grid of  851 points,  6 beta functions with:
                l(1) =   0
                l(2) =   0
                l(3) =   1
                l(4) =   1
                l(5) =   2
                l(6) =   2
     Q(r) pseudized with  8 coefficients,  rinner =    1.000   1.000   1.000
                                                       1.000   1.000

     PseudoPot. # 3 for C  read from file:
     /storage/coda1/p-amedford6/0/shared/rich_project_chbe-medford/medford-share/data/pseudos_module/espresso/nninc/pbe/van/C.UPF
     MD5 check sum: 1a69bf6b8db32088f5b2163dbdb77a27
     Pseudo is Ultrasoft, Zval =  4.0
     Generated by new atomic code, or converted to UPF format
     Using radial grid of  721 points,  4 beta functions with:
                l(1) =   0
                l(2) =   0
                l(3) =   1
                l(4) =   1
     Q(r) pseudized with  8 coefficients,  rinner =    0.800   0.800   0.800

     PseudoPot. # 4 for H  read from file:
     /storage/coda1/p-amedford6/0/shared/rich_project_chbe-medford/medford-share/data/pseudos_module/espresso/nninc/pbe/van/H.UPF
     MD5 check sum: b5ee9d7bfd3a09ee7748110bda690ff7
     Pseudo is Ultrasoft, Zval =  1.0
     Generated by new atomic code, or converted to UPF format
     Using radial grid of  615 points,  1 beta functions with:
                l(1) =   0
     Q(r) pseudized with  8 coefficients,  rinner =    0.800

     atomic species   valence    mass     pseudopotential
        O1             6.00    15.99900     O ( 1.00)
        Ti1           12.00    47.86700     Ti( 1.00)
        C1             4.00    12.01100     C ( 1.00)
        H1             1.00     1.00800     H ( 1.00)

     No symmetry found

   Cartesian axes

     site n.     atom                  positions (alat units)
         1           O1  tau(   1) = (   3.2904802   0.0005063   4.7018136  )
         2           O1  tau(   2) = (   3.2900926   2.9813045   4.7018136  )
         3           Ti1 tau(   3) = (   0.0004258   2.9801865   6.0000000  )
         4           Ti1 tau(   4) = (   0.0000382   5.9609847   6.0000000  )
         5           Ti1 tau(   5) = (   3.2906075   1.4906267   6.0002472  )
         6           Ti1 tau(   6) = (   3.2902200   4.4714249   6.0002472  )
         7           O1  tau(   7) = (   1.3043587   1.4918075   6.0039043  )
         8           O1  tau(   8) = (   1.3039711   4.4726057   6.0039043  )
         9           O1  tau(   9) = (   5.2767064   1.4903225   6.0039473  )
        10           O1  tau(  10) = (   5.2763189   4.4711207   6.0039473  )
        11           O1  tau(  11) = (   3.2906025   0.0005020   7.3038282  )
        12           O1  tau(  12) = (   3.2902150   2.9813002   7.3038282  )
        13           O1  tau(  13) = (   0.0006271   0.0005054   7.9858123  )
        14           O1  tau(  14) = (   0.0002396   2.9813036   7.9858123  )
        15           Ti1 tau(  15) = (   3.3036605   0.0548493   9.1550340  )
        16           Ti1 tau(  16) = (   3.3179312   3.0323762   9.1622521  )
        17           Ti1 tau(  17) = (   0.0293130   4.5303424   9.2586280  )
        18           Ti1 tau(  18) = (   0.0255512   1.6071936   9.3606264  )
        19           O1  tau(  19) = (   4.5942328   1.4918067   9.2879030  )
        20           O1  tau(  20) = (   4.5938453   4.4726049   9.2879030  )
        21           O1  tau(  21) = (   1.9868534   1.4903216   9.2879459  )
        22           O1  tau(  22) = (   1.9864658   4.4711199   9.2879459  )
        23           O1  tau(  23) = (   0.0067149   0.0090568  10.6008527  )
        24           O1  tau(  24) = (   0.0066098   2.9904127  10.5810825  )
        25           O1  tau(  25) = (   3.3023248   2.9935247  11.3558429  )
        26           O1  tau(  26) = (   3.3019398   0.0103095  11.3581380  )
        27           Ti1 tau(  27) = (   0.0322082   0.0188897  12.5014682  )
        28           Ti1 tau(  28) = (   3.3323403   4.4947089  12.5096490  )
        29           Ti1 tau(  29) = (   3.3327227   1.5059056  12.5040540  )
        30           Ti1 tau(  30) = (   0.0321551   3.0004163  12.7750784  )
        31           O1  tau(  31) = (   1.2963378   4.4834263  12.6382484  )
        32           O1  tau(  32) = (   1.2968596   1.4996660  12.6342602  )
        33           O1  tau(  33) = (   5.3004736   4.4821179  12.6410582  )
        34           O1  tau(  34) = (   5.3007909   1.4998706  12.6367838  )
        35           O1  tau(  35) = (   3.3017874   2.9879694  13.9086975  )
        36           O1  tau(  36) = (   3.3040514   0.0100701  13.9766235  )
        37           O1  tau(  37) = (   0.0177811   0.0165449  14.6846256  )
        38           O1  tau(  38) = (   0.0218693   2.9952767  14.7100221  )
        39           Ti1 tau(  39) = (   3.3083447   2.9915206  15.7010863  )
        40           Ti1 tau(  40) = (   3.3165693   0.0114089  15.8055842  )
        41           Ti1 tau(  41) = (   0.0300915   4.5703342  15.9344200  )
        42           Ti1 tau(  42) = (   0.0294271   1.3911826  15.9958598  )
        43           O1  tau(  43) = (   4.5666857   4.4545776  16.0545193  )
        44           O1  tau(  44) = (   4.5654216   1.5273373  16.0688375  )
        45           O1  tau(  45) = (   2.0398213   1.5345912  16.0698912  )
        46           O1  tau(  46) = (   2.0372649   4.4468515  16.0554978  )
        47           O1  tau(  47) = (   0.0160947   0.0056016  17.2166677  )
        48           O1  tau(  48) = (   6.5639191   3.0028441  17.4281802  )
        49           C1  tau(  49) = (   6.3909186   3.0704891  18.6902598  )
        50           H1  tau(  50) = (   6.3116585   4.0479728  19.1570877  )
        51           H1  tau(  51) = (   6.3127454   2.1532251  19.2664540  )
        52           O1  tau(  52) = (   3.2659488   5.9319982  18.2141537  )
        53           H1  tau(  53) = (   4.0486762   5.9278262  18.7801078  )
        54           H1  tau(  54) = (   2.4667005   5.9275743  18.7583984  )

     number of k points=    10  Fermi-Dirac smearing, width (Ry)=  0.0073
                       cart. coord. in units 2pi/alat
        k(    1) = (   0.0000000   0.0000000   0.0000000), wk =   0.1250000
        k(    2) = (   0.0000000   0.0419351   0.0000000), wk =   0.2500000
        k(    3) = (   0.0000000  -0.0838702   0.0000000), wk =   0.1250000
        k(    4) = (   0.0379955   0.0000049   0.0000000), wk =   0.2500000
        k(    5) = (   0.0379955   0.0419400   0.0000000), wk =   0.2500000
        k(    6) = (   0.0379955  -0.0838652   0.0000000), wk =   0.2500000
        k(    7) = (   0.0379955  -0.0419301   0.0000000), wk =   0.2500000
        k(    8) = (  -0.0759910  -0.0000099   0.0000000), wk =   0.1250000
        k(    9) = (  -0.0759910   0.0419252   0.0000000), wk =   0.2500000
        k(   10) = (  -0.0759910  -0.0838800   0.0000000), wk =   0.1250000

     Initial potential from superposition of free atoms

     starting charge  381.99917, renormalised to  398.00000

     negative rho (up, down):  1.686E-02 0.000E+00

     %%%%%%%%%%%%%%%%%%%%%%%%%%%%%%%%%%%%%%%%%%%%%%%%%%%%%%%%%%%%%%%%%%%%%%%%
     %                                                                      %
     % You are using vdW-DF, which was implemented by the Thonhauser group. %
     % Please cite the following two papers that made this development      %
     % possible and the two reviews that describe the various versions:     %
     %                                                                      %
     %   T. Thonhauser et al., PRL 115, 136402 (2015).                      %
     %   T. Thonhauser et al., PRB 76, 125112 (2007).                       %
     %   K. Berland et al., Rep. Prog. Phys. 78, 066501 (2015).             %
     %   D.C. Langreth et al., J. Phys.: Condens. Matter 21, 084203 (2009). %
     %                                                                      %
     %                                                                      %
     % If you are calculating the stress with vdW-DF, please also cite:     %
     %                                                                      %
     %   R. Sabatini et al., J. Phys.: Condens. Matter 24, 424209 (2012).   %
     %                                                                      %
     %%%%%%%%%%%%%%%%%%%%%%%%%%%%%%%%%%%%%%%%%%%%%%%%%%%%%%%%%%%%%%%%%%%%%%%%

     Adding external electric field

     Computed dipole along edir(3) :
        Dipole               -9.6420 Ry au,        -24.5075 Debye
        Dipole field         -0.0182 Ry au,

        Potential amp.        1.6867 Ry
        Total length         46.3494 bohr

     Starting wfcs are  300 atomic wfcs
  @ DRIVER MODE: Message from server: STATUS
  @ DRIVER MODE: Message from server: POSDATA
  @ DRIVER MODE: Reading and sharing cell
  @ DRIVER MODE: Reading and sharing positions
  @ DRIVER MODE: Received positions

     Self-consistent Calculation

     iteration #  1     ecut=    29.40 Ry     beta= 0.05
     Davidson diagonalization with overlap
     c_bands:  1 eigenvalues not converged
     c_bands:  3 eigenvalues not converged
     c_bands:  2 eigenvalues not converged
     c_bands:  2 eigenvalues not converged
     c_bands:  2 eigenvalues not converged
     c_bands:  1 eigenvalues not converged
     c_bands:  2 eigenvalues not converged
     c_bands:  1 eigenvalues not converged
     c_bands:  2 eigenvalues not converged
     ethr =  1.00E-05,  avg # of iterations = 19.6

[...]

     total energy              =   -2526.82148413 Ry
     estimated scf accuracy    <    4873.87445977 Ry

     iteration #  2     ecut=    29.40 Ry     beta= 0.05
     Davidson diagonalization with overlap
     ethr =  1.00E-02,  avg # of iterations = 26.4

[...]

     iteration # 83     ecut=    29.40 Ry     beta= 0.05
     Davidson diagonalization with overlap
     c_bands:  1 eigenvalues not converged
     ethr =  3.67E-11,  avg # of iterations = 11.1

[...]

     total energy              =   -2964.99520754 Ry
     estimated scf accuracy    <       0.00000010 Ry

     iteration # 84     ecut=    29.40 Ry     beta= 0.05
     Davidson diagonalization with overlap
     ethr =  2.58E-11,  avg # of iterations =  8.8

     negative rho (up, down):  1.526E-02 0.000E+00

     Adding external electric field

     Computed dipole along edir(3) :
        Dipole                1.2333 Ry au,          3.1348 Debye
        Dipole field          0.0023 Ry au,

        Potential amp.       -0.2158 Ry
        Total length         46.3494 bohr

     End of self-consistent calculation

          k = 0.0000 0.0000 0.0000 ( 18029 PWs)   bands (ev):

   -55.5296 -55.4929 -55.4928 -55.4567 -55.4545 -55.4094 -55.3726 -55.3048
   -55.2924 -55.2758 -55.2590 -55.2519 -55.2148 -55.1996 -54.5408 -54.5067
   -32.0488 -31.9999 -31.8871 -31.8507 -31.8436 -31.8237 -31.8034 -31.7961
   -31.7714 -31.7594 -31.7275 -31.7166 -31.6885 -31.6781 -31.6742 -31.6424
   -31.6377 -31.6306 -31.6258 -31.6219 -31.5932 -31.5894 -31.5810 -31.5760
   -31.5536 -31.5448 -31.5410 -31.5208 -31.5141 -31.5117 -31.4690 -31.4660
   -31.4455 -31.4372 -31.4260 -31.4180 -31.4171 -31.3982 -31.3908 -31.3865
   -31.3818 -31.3730 -30.9503 -30.8541 -30.8318 -30.7669 -30.6808 -30.5697
   -19.5058 -19.1461 -16.2473 -15.9838 -15.8171 -15.7012 -15.6542 -15.4518
   -15.3597 -15.2838 -15.2193 -15.1383 -15.1199 -15.0846 -15.0555 -15.0504
   -15.0498 -15.0031 -14.9881 -14.9492 -14.9356 -14.9346 -14.9153 -14.8969
   -14.8147 -14.7190 -14.6717 -14.6508 -14.5955 -14.5355 -14.5285 -13.0414
   -12.9234  -9.0275  -7.1600  -5.2912  -5.2366  -3.7799  -3.5694  -3.4493
    -3.4147  -3.3870  -3.3118  -3.1982  -3.1249  -3.0298  -2.7919  -2.7016
    -2.6670  -2.6127  -2.6023  -2.5081  -2.4607  -2.3546  -2.3442  -2.3409
    -2.3227  -2.2999  -2.2679  -2.2258  -2.2040  -2.1865  -2.0628  -2.0582
    -1.9224  -1.9134  -1.8903  -1.8335  -1.8326  -1.7880  -1.7781  -1.7743
    -1.7576  -1.7105  -1.6982  -1.5874  -1.5113  -1.4481  -1.3637  -1.2221
    -1.1627  -1.1021  -1.0417  -1.0015  -0.9391  -0.9338  -0.8795  -0.8407
    -0.7832  -0.7758  -0.7659  -0.6681  -0.5748  -0.5481  -0.5203  -0.4373
    -0.3670  -0.2730  -0.2593  -0.2524  -0.2501  -0.2298  -0.0985  -0.0088
     0.0478   0.0517   0.1508   0.1837   0.2159   0.2316   0.2640   0.2831
     0.3391   0.4136   0.4253   0.4409   0.4679   0.5136   0.5185   0.6300
     0.7045   0.7061   0.7456   0.7785   0.9491   0.9879   1.1168   1.2204
     1.3904   1.4836   1.5542   1.6566   2.0696   2.1272   3.6429   3.6847
     3.7001   3.7398   3.7919   3.8216   3.8847   4.0842   4.1017   4.1502
     4.1880

[...]

          k = 0.0380-0.0419 0.0000 ( 17876 PWs)   bands (ev):

[...]

          k =-0.0760-0.0000 0.0000 ( 17886 PWs)   bands (ev):

[...]

          k =-0.0760-0.0839 0.0000 ( 17948 PWs)   bands (ev):

   -55.5181 -55.5043 -55.4761 -55.4732 -55.4529 -55.3995 -55.3825 -55.3013
   -55.2771 -55.2747 -55.2704 -55.2534 -55.2201 -55.2024 -54.5243 -54.5232
   -31.8595 -31.8447 -31.8239 -31.8112 -31.8087 -31.7892 -31.7660 -31.7541
   -31.7344 -31.7299 -31.7298 -31.7210 -31.6877 -31.6549 -31.6467 -31.6429
   -31.6339 -31.6318 -31.6302 -31.6262 -31.6201 -31.6018 -31.6003 -31.5997
   -31.5939 -31.5793 -31.5611 -31.5471 -31.5322 -31.5285 -31.5216 -31.5042
   -31.4867 -31.4826 -31.4819 -31.4740 -31.4622 -31.4407 -31.4382 -31.4267
   -31.3963 -31.3960 -30.8452 -30.8438 -30.7637 -30.7628 -30.7243 -30.7234
   -19.4978 -19.1456 -15.6989 -15.5885 -15.5583 -15.4070 -15.4029 -15.3540
   -15.3447 -15.3111 -15.2287 -15.2250 -15.1753 -15.1603 -15.1247 -15.1010
   -15.0890 -15.0399 -15.0373 -15.0222 -14.9961 -14.9756 -14.9590 -14.9314
   -14.9110 -14.9032 -14.8620 -14.8537 -14.7891 -14.7456 -14.7139 -13.0259
   -13.0236  -9.0284  -7.1576  -5.2686  -5.2154  -3.7385  -3.2223  -2.9826
    -2.7961  -2.7797  -2.6468  -2.6116  -2.5933  -2.5038  -2.4715  -2.4368
    -2.3745  -2.3615  -2.3552  -2.3346  -2.3325  -2.3155  -2.2988  -2.2609
    -2.2480  -2.2210  -2.1867  -2.1712  -2.1513  -2.1420  -2.1120  -2.0939
    -2.0826  -2.0763  -2.0175  -1.9969  -1.9171  -1.8375  -1.7567  -1.7074
    -1.6744  -1.6690  -1.6318  -1.5938  -1.5854  -1.5701  -1.4256  -1.3835
    -1.2535  -1.2420  -1.2203  -1.1483  -1.1356  -1.1082  -1.0898  -1.0326
    -0.9378  -0.9339  -0.9109  -0.8865  -0.7943  -0.7291  -0.6861  -0.6484
    -0.6068  -0.5758  -0.5026  -0.4862  -0.4757  -0.4147  -0.3769  -0.2884
    -0.2741  -0.2553  -0.2036  -0.1754  -0.1472  -0.0723  -0.0553  -0.0329
     0.0456   0.1072   0.1212   0.3308   0.4953   0.5215   0.5380   0.6248
     0.6679   0.7803   0.7976   0.8082   0.8545   0.9002   0.9891   1.0154
     1.0172   1.0940   1.8439   1.8446   1.9320   1.9426   3.5766   3.8875
     3.9513   3.9739   4.0006   4.1170   4.1196   4.1387   4.1474   4.2890
     4.3048

     the Fermi energy is     3.6217 ev

!    total energy              =   -2964.99521492 Ry
     estimated scf accuracy    <       0.00000004 Ry
     smearing contrib. (-TS)   =      -0.03125867 Ry
     internal energy E=F+TS    =   -2964.96395626 Ry

     The total energy is F=E-TS. E is the sum of the following terms:
     one-electron contribution =  -24339.58610030 Ry
     hartree contribution      =   12262.91926738 Ry
     xc contribution           =    -490.11393573 Ry
     ewald contribution        =    9601.81394188 Ry
     electric field correction =       0.00287052 Ry

     convergence has been achieved in  84 iterations

     Forces acting on atoms (cartesian axes, Ry/au):

     atom    1 type  1   force =    -0.00009857    0.00006876    0.10406234
     atom    2 type  1   force =    -0.00008931    0.00006401    0.10408906
     atom    3 type  2   force =    -0.00029811   -0.00188463    0.10329708
     atom    4 type  2   force =    -0.00015723    0.00151611    0.11463271
     atom    5 type  2   force =    -0.00037261    0.00124845   -0.17937556
     atom    6 type  2   force =    -0.00016568   -0.00076682   -0.17975737
     atom    7 type  1   force =    -0.06939507    0.00065203   -0.02930276
     atom    8 type  1   force =    -0.06893966   -0.00122053   -0.02934440
     atom    9 type  1   force =     0.06903831    0.00114280   -0.02936691
     atom   10 type  1   force =     0.06867014   -0.00080517   -0.02941675
     atom   11 type  1   force =     0.00041969    0.00057008    0.04683224
     atom   12 type  1   force =     0.00063210    0.00080858    0.04853697
     atom   13 type  1   force =     0.00026827   -0.00567673   -0.03326449
     atom   14 type  1   force =     0.00033184    0.00339774   -0.02639339
     atom   15 type  2   force =    -0.00010210   -0.00002710    0.00036789
     atom   16 type  2   force =     0.00001234    0.00003399    0.00048609
     atom   17 type  2   force =    -0.00002932    0.00010813    0.00042157
     atom   18 type  2   force =    -0.00006325   -0.00035395    0.00003919
     atom   19 type  1   force =    -0.01807781   -0.00015419    0.00404643
     atom   20 type  1   force =    -0.01685583    0.00148287    0.00329724
     atom   21 type  1   force =     0.01935035   -0.00136529    0.00449411
     atom   22 type  1   force =     0.01792177    0.00116693    0.00357041
     atom   23 type  1   force =     0.00001956    0.00003712   -0.00004673
     atom   24 type  1   force =    -0.00005220    0.00000959    0.00004434
     atom   25 type  1   force =    -0.00004604    0.00000667   -0.00055233
     atom   26 type  1   force =    -0.00023049    0.00014340   -0.00063416
     atom   27 type  2   force =     0.00003637    0.00013478   -0.00079324
     atom   28 type  2   force =     0.00021823    0.00003307   -0.00024556
     atom   29 type  2   force =     0.00020624   -0.00000791   -0.00036571
     atom   30 type  2   force =    -0.00008755    0.00019284   -0.00038675
     atom   31 type  1   force =    -0.00065397   -0.00026242    0.00060905
     atom   32 type  1   force =    -0.00056171    0.00035171    0.00064002
     atom   33 type  1   force =     0.00042360   -0.00015657    0.00042351
     atom   34 type  1   force =     0.00034369    0.00021142    0.00045425
     atom   35 type  1   force =    -0.00014860    0.00001335    0.00043344
     atom   36 type  1   force =    -0.00008818    0.00000905    0.00001574
     atom   37 type  1   force =    -0.00036218   -0.00003535    0.00058370
     atom   38 type  1   force =    -0.00052508    0.00024700    0.00129451
     atom   39 type  2   force =    -0.00020857   -0.00009357    0.00071277
     atom   40 type  2   force =     0.00003055    0.00022396   -0.00174420
     atom   41 type  2   force =    -0.00028019   -0.00030569   -0.00141017
     atom   42 type  2   force =    -0.00024475    0.00040927   -0.00135042
     atom   43 type  1   force =     0.00049877   -0.00005575    0.00068387
     atom   44 type  1   force =     0.00043455    0.00019439    0.00047303
     atom   45 type  1   force =    -0.00084985   -0.00002780    0.00031928
     atom   46 type  1   force =    -0.00090477    0.00019895    0.00047320
     atom   47 type  1   force =    -0.00007126   -0.00025750    0.00072119
     atom   48 type  1   force =     0.00206399   -0.00074398   -0.01819545
     atom   49 type  3   force =    -0.00177834    0.00012758    0.01525796
     atom   50 type  4   force =     0.00028227   -0.00071693    0.00169883
     atom   51 type  4   force =     0.00016570   -0.00052638    0.00076877
     atom   52 type  1   force =     0.00048150    0.00064469   -0.00043858
     atom   53 type  4   force =     0.00036433    0.00000155    0.00024515
     atom   54 type  4   force =    -0.00047587   -0.00000659   -0.00164102

     Total force =     0.375289     Total SCF correction =     0.000420
  @ DRIVER MODE: Message from server: STATUS
  @ DRIVER MODE: Message from server: GETFORCE
  @ DRIVER MODE: Returning v,forces,stress,ensemble

     Writing output data file ./calc.save/
  @ DRIVER MODE: Message from server: EXIT
  @ DRIVE MODE: Exiting

     General routines

     Parallel routines

   This run was terminated on:  17:55:45  15Sep2021

   JOB DONE.