     Program PWSCF v.6.7GPU starts on 16Sep2021 at  4:36: 2

     R & G space division:  proc/nbgrp/npool/nimage =      10
     Reading input from /storage/home/hcoda1/3/ntian30/research/carbon/CxH_vib/H2O_calc/ads_slab/CHNHH2O_a/out_0039/pw.inp
Warning: card &CELL ignored
Warning: card   CELL_DYNAMICS='IPI', ignored
Warning: card / ignored

     Current dimensions of program PWSCF are:
     Max number of different atomic species (ntypx) = 10
     Max number of k-points (npk) =  40000
     Max angular momentum in pseudopotentials (lmaxx) =  3
     Presently no symmetry can be used with electric field

     Message from routine cell_base_init:
     DEPRECATED: use true lattice parameter, not A to a.u. conversion factor

     IMPORTANT: XC functional enforced from input :
     Exchange-correlation= BEEF-VDW
                           (   1   4  43  14   2   0   0)
     Any further DFT definition will be discarded
     Please, verify this is what you really want

  @ DRIVER MODE: Connecting to
 qe_1139763_2852628.sched-torque.pace.gatech.edufcccw61d_scratch
  using UNIX socket
  @ DRIVER MODE: Message from server: STATUS
  @ DRIVER MODE: Message from server: INIT
  @ DRIVER MODE: Receiving replica           0          -1
  @ DRIVER MODE: Receiving encoded integer          25
  @ DRIVER MODE:  SCF:  T  FORCE:  T  STRESS:  F  VC:  F  ENSEMBLE:  F
  @ DRIVER MODE:  SCF:  T  FORCE:  T  STRESS:  F  VC:  F  ENSEMBLE:  F

     Using Slab Decomposition

     bravais-lattice index     =            0
     lattice parameter (alat)  =       1.8897  a.u.
     unit-cell volume          =    6658.9804 (a.u.)^3
     number of atoms/cell      =           54
     number of atomic types    =            5
     number of electrons       =       397.00
     number of Kohn-Sham states=          208
     kinetic-energy cutoff     =      29.3995  Ry
     charge density cutoff     =     293.9946  Ry
     scf convergence threshold =      7.3E-08
     mixing beta               =       0.0500
     number of iterations used =            8  plain     mixing
     Exchange-correlation= BEEF-VDW
                           (   1   4  43  14   2   0   0)

     celldm(1)=   1.889726  celldm(2)=   0.000000  celldm(3)=   0.000000
     celldm(4)=   0.000000  celldm(5)=   0.000000  celldm(6)=   0.000000

     crystal axes: (cart. coord. in units of alat)
               a(1) = (   6.579727   0.000000   0.000000 )
               a(2) = (  -0.000775   5.961596   0.000000 )
               a(3) = (   0.000000   0.000000  25.155947 )

     reciprocal axes: (cart. coord. in units 2 pi/alat)
               b(1) = (  0.151982  0.000020  0.000000 )
               b(2) = (  0.000000  0.167740  0.000000 )
               b(3) = (  0.000000  0.000000  0.039752 )

     PseudoPot. # 1 for Ti read from file:
     /storage/coda1/p-amedford6/0/shared/rich_project_chbe-medford/medford-share/data/pseudos_module/espresso/nninc/pbe/van/Ti.UPF
     MD5 check sum: 8e4df49b7f0d34bbd5052bf3f5ea0213
     Pseudo is Ultrasoft, Zval = 12.0
     Generated by new atomic code, or converted to UPF format
     Using radial grid of  851 points,  6 beta functions with:
                l(1) =   0
                l(2) =   0
                l(3) =   1
                l(4) =   1
                l(5) =   2
                l(6) =   2
     Q(r) pseudized with  8 coefficients,  rinner =    1.000   1.000   1.000
                                                       1.000   1.000

     PseudoPot. # 2 for O  read from file:
     /storage/coda1/p-amedford6/0/shared/rich_project_chbe-medford/medford-share/data/pseudos_module/espresso/nninc/pbe/van/O.UPF
     MD5 check sum: 78c19812648e8988a0fe644b0f25305e
     Pseudo is Ultrasoft, Zval =  6.0
     Generated by new atomic code, or converted to UPF format
     Using radial grid of  737 points,  4 beta functions with:
                l(1) =   0
                l(2) =   0
                l(3) =   1
                l(4) =   1
     Q(r) pseudized with  8 coefficients,  rinner =    0.800   0.800   0.800

     PseudoPot. # 3 for N  read from file:
     /storage/coda1/p-amedford6/0/shared/rich_project_chbe-medford/medford-share/data/pseudos_module/espresso/nninc/pbe/van/N.UPF
     MD5 check sum: 90d10febe142ad51ac9d5be1deb811c4
     Pseudo is Ultrasoft, Zval =  5.0
     Generated by new atomic code, or converted to UPF format
     Using radial grid of  729 points,  4 beta functions with:
                l(1) =   0
                l(2) =   0
                l(3) =   1
                l(4) =   1
     Q(r) pseudized with  8 coefficients,  rinner =    0.800   0.800   0.800

     PseudoPot. # 4 for C  read from file:
     /storage/coda1/p-amedford6/0/shared/rich_project_chbe-medford/medford-share/data/pseudos_module/espresso/nninc/pbe/van/C.UPF
     MD5 check sum: 1a69bf6b8db32088f5b2163dbdb77a27
     Pseudo is Ultrasoft, Zval =  4.0
     Generated by new atomic code, or converted to UPF format
     Using radial grid of  721 points,  4 beta functions with:
                l(1) =   0
                l(2) =   0
                l(3) =   1
                l(4) =   1
     Q(r) pseudized with  8 coefficients,  rinner =    0.800   0.800   0.800

     PseudoPot. # 5 for H  read from file:
     /storage/coda1/p-amedford6/0/shared/rich_project_chbe-medford/medford-share/data/pseudos_module/espresso/nninc/pbe/van/H.UPF
     MD5 check sum: b5ee9d7bfd3a09ee7748110bda690ff7
     Pseudo is Ultrasoft, Zval =  1.0
     Generated by new atomic code, or converted to UPF format
     Using radial grid of  615 points,  1 beta functions with:
                l(1) =   0
     Q(r) pseudized with  8 coefficients,  rinner =    0.800

     atomic species   valence    mass     pseudopotential
        Ti1           12.00    47.86700     Ti( 1.00)
        O1             6.00    15.99900     O ( 1.00)
        N1             5.00    14.00700     N ( 1.00)
        C1             4.00    12.01100     C ( 1.00)
        H1             1.00     1.00800     H ( 1.00)

     No symmetry found

   Cartesian axes

     site n.     atom                  positions (alat units)
         1           Ti1 tau(   1) = (   0.0004258   2.9801865   6.0000000  )
         2           Ti1 tau(   2) = (   3.2906075   1.4906267   6.0002472  )
         3           O1  tau(   3) = (   0.0006271   0.0005054   7.9858123  )
         4           O1  tau(   4) = (   3.2906025   0.0005020   7.3038282  )
         5           O1  tau(   5) = (   4.5942328   1.4918067   9.2879030  )
         6           O1  tau(   6) = (   1.9868534   1.4903216   9.2879459  )
         7           Ti1 tau(   7) = (   3.2907910   2.8959150   9.1758416  )
         8           Ti1 tau(   8) = (   0.0015273   1.4827037   9.2680791  )
         9           O1  tau(   9) = (   3.2914171   5.9475995  11.3455371  )
        10           O1  tau(  10) = (   0.0116148   5.9584955  10.6183126  )
        11           O1  tau(  11) = (   1.3057669   1.4807986  12.6390077  )
        12           O1  tau(  12) = (   5.3035249   1.4749620  12.6227664  )
        13           Ti1 tau(  13) = (   6.5294082   2.9362577  12.6231083  )
        14           Ti1 tau(  14) = (   3.2175537   1.4615748  12.5070279  )
        15           O1  tau(  15) = (   6.5585639   5.9474800  14.6380151  )
        16           O1  tau(  16) = (   3.3125803   5.9531145  13.9695519  )
        17           O1  tau(  17) = (   4.5393379   1.5011389  16.1071157  )
        18           O1  tau(  18) = (   2.0094023   1.5044898  16.0307267  )
        19           Ti1 tau(  19) = (   3.2760958   2.9523363  15.6877793  )
        20           Ti1 tau(  20) = (   0.0277933   1.3451898  16.0452527  )
        21           O1  tau(  21) = (   3.2904802   0.0005063   4.7018136  )
        22           O1  tau(  22) = (   0.0198929   5.9263875  17.1601691  )
        23           O1  tau(  23) = (   1.3043587   1.4918075   6.0039043  )
        24           O1  tau(  24) = (   5.2767064   1.4903225   6.0039473  )
        25           Ti1 tau(  25) = (   0.0000382   5.9609847   6.0000000  )
        26           Ti1 tau(  26) = (   3.2902200   4.4714249   6.0002472  )
        27           O1  tau(  27) = (   0.0002396   2.9813036   7.9858123  )
        28           O1  tau(  28) = (   3.2902150   2.9813002   7.3038282  )
        29           O1  tau(  29) = (   4.5938453   4.4726049   9.2879030  )
        30           O1  tau(  30) = (   1.9864658   4.4711199   9.2879459  )
        31           Ti1 tau(  31) = (   3.2891106   5.8743827   9.1763621  )
        32           Ti1 tau(  32) = (   0.0006254   4.4649316   9.2693709  )
        33           O1  tau(  33) = (   3.2862706   2.9662616  11.3468726  )
        34           O1  tau(  34) = (   0.0092240   2.9805883  10.6323155  )
        35           O1  tau(  35) = (   1.3102706   4.4726941  12.6361575  )
        36           O1  tau(  36) = (   5.3014905   4.4644878  12.6181669  )
        37           Ti1 tau(  37) = (   6.5311680   5.9227251  12.5202533  )
        38           Ti1 tau(  38) = (   3.2191334   4.4553394  12.5017427  )
        39           O1  tau(  39) = (   6.5614274   2.9920157  14.6796082  )
        40           O1  tau(  40) = (   3.3146075   2.9603188  13.8993185  )
        41           O1  tau(  41) = (   4.5484517   4.4144432  16.0509510  )
        42           O1  tau(  42) = (   2.0146171   4.4214036  15.9967612  )
        43           Ti1 tau(  43) = (   3.3303817   5.9274347  15.8100502  )
        44           Ti1 tau(  44) = (   0.0273359   4.4939047  15.8144843  )
        45           O1  tau(  45) = (   3.2900926   2.9813045   4.7018136  )
        46           O1  tau(  46) = (   1.3039711   4.4726057   6.0039043  )
        47           O1  tau(  47) = (   5.2763189   4.4711207   6.0039473  )
        48           N1  tau(  48) = (   6.5134970   2.9613368  17.6459670  )
        49           C1  tau(  49) = (   0.7931072   3.0267964  18.6255283  )
        50           H1  tau(  50) = (   1.8307262   2.9311331  18.2395185  )
        51           H1  tau(  51) = (   5.5494773   3.0666896  17.9713127  )
        52           O1  tau(  52) = (   3.1855344   5.8058271  18.1612476  )
        53           H1  tau(  53) = (   3.8461454   0.3022996  18.7034462  )
        54           H1  tau(  54) = (   2.3112830   5.9569962  18.5533318  )

     number of k points=    10  Fermi-Dirac smearing, width (Ry)=  0.0073
                       cart. coord. in units 2pi/alat
        k(    1) = (   0.0000000   0.0000000   0.0000000), wk =   0.1250000
        k(    2) = (   0.0000000   0.0419351   0.0000000), wk =   0.2500000
        k(    3) = (   0.0000000  -0.0838702   0.0000000), wk =   0.1250000
        k(    4) = (   0.0379955   0.0000049   0.0000000), wk =   0.2500000
        k(    5) = (   0.0379955   0.0419400   0.0000000), wk =   0.2500000
        k(    6) = (   0.0379955  -0.0838652   0.0000000), wk =   0.2500000
        k(    7) = (   0.0379955  -0.0419301   0.0000000), wk =   0.2500000
        k(    8) = (  -0.0759910  -0.0000099   0.0000000), wk =   0.1250000
        k(    9) = (  -0.0759910   0.0419252   0.0000000), wk =   0.2500000
        k(   10) = (  -0.0759910  -0.0838800   0.0000000), wk =   0.1250000

     Initial potential from superposition of free atoms

     starting charge  380.99916, renormalised to  397.00000

     negative rho (up, down):  1.755E-02 0.000E+00

     %%%%%%%%%%%%%%%%%%%%%%%%%%%%%%%%%%%%%%%%%%%%%%%%%%%%%%%%%%%%%%%%%%%%%%%%
     %                                                                      %
     % You are using vdW-DF, which was implemented by the Thonhauser group. %
     % Please cite the following two papers that made this development      %
     % possible and the two reviews that describe the various versions:     %
     %                                                                      %
     %   T. Thonhauser et al., PRL 115, 136402 (2015).                      %
     %   T. Thonhauser et al., PRB 76, 125112 (2007).                       %
     %   K. Berland et al., Rep. Prog. Phys. 78, 066501 (2015).             %
     %   D.C. Langreth et al., J. Phys.: Condens. Matter 21, 084203 (2009). %
     %                                                                      %
     %                                                                      %
     % If you are calculating the stress with vdW-DF, please also cite:     %
     %                                                                      %
     %   R. Sabatini et al., J. Phys.: Condens. Matter 24, 424209 (2012).   %
     %                                                                      %
     %%%%%%%%%%%%%%%%%%%%%%%%%%%%%%%%%%%%%%%%%%%%%%%%%%%%%%%%%%%%%%%%%%%%%%%%

     Adding external electric field

     Computed dipole along edir(3) :
        Dipole               -9.1667 Ry au,        -23.2993 Debye
        Dipole field         -0.0173 Ry au,

        Potential amp.        1.6036 Ry
        Total length         46.3494 bohr

     Starting wfcs are  300 atomic wfcs
  @ DRIVER MODE: Message from server: STATUS
  @ DRIVER MODE: Message from server: POSDATA
  @ DRIVER MODE: Reading and sharing cell
  @ DRIVER MODE: Reading and sharing positions
  @ DRIVER MODE: Received positions

     Self-consistent Calculation

     iteration #  1     ecut=    29.40 Ry     beta= 0.05
     Davidson diagonalization with overlap
     c_bands:  1 eigenvalues not converged
     c_bands:  1 eigenvalues not converged
     c_bands:  1 eigenvalues not converged
     c_bands:  1 eigenvalues not converged
     c_bands:  1 eigenvalues not converged
     c_bands:  1 eigenvalues not converged
     c_bands:  1 eigenvalues not converged
     c_bands:  1 eigenvalues not converged
     c_bands:  1 eigenvalues not converged
     ethr =  1.00E-05,  avg # of iterations = 19.8

[...]

     total energy              =   -2547.26504193 Ry
     estimated scf accuracy    <    4504.90721331 Ry

     iteration #  2     ecut=    29.40 Ry     beta= 0.05
     Davidson diagonalization with overlap
     ethr =  1.00E-02,  avg # of iterations = 25.3

[...]

     iteration # 84     ecut=    29.40 Ry     beta= 0.05
     Davidson diagonalization with overlap
     c_bands:  1 eigenvalues not converged
     ethr =  6.19E-11,  avg # of iterations = 10.8

[...]

     total energy              =   -2952.61572130 Ry
     estimated scf accuracy    <       0.00000018 Ry

     iteration # 85     ecut=    29.40 Ry     beta= 0.05
     Davidson diagonalization with overlap
     ethr =  4.55E-11,  avg # of iterations =  6.2

     negative rho (up, down):  1.616E-02 0.000E+00

     Adding external electric field

     Computed dipole along edir(3) :
        Dipole                0.4075 Ry au,          1.0357 Debye
        Dipole field          0.0008 Ry au,

        Potential amp.       -0.0713 Ry
        Total length         46.3494 bohr

     End of self-consistent calculation

          k = 0.0000 0.0000 0.0000 ( 18029 PWs)   bands (ev):

   -56.0238 -55.9992 -55.9923 -55.9897 -55.9629 -55.8694 -55.8369 -55.8281
   -55.8245 -55.8114 -55.8026 -55.7779 -55.7481 -55.5786 -55.0094 -54.9754
   -32.5450 -32.5077 -32.4007 -32.3689 -32.3358 -32.3158 -32.3067 -32.3014
   -32.2670 -32.2364 -32.2246 -32.2181 -32.2087 -32.1959 -32.1782 -32.1762
   -32.1515 -32.1295 -32.1281 -32.1249 -32.0921 -32.0811 -32.0721 -32.0398
   -32.0289 -32.0274 -32.0237 -32.0195 -32.0166 -32.0112 -31.9964 -31.9856
   -31.9834 -31.9820 -31.9697 -31.9641 -31.9603 -31.9415 -31.9224 -31.8393
   -31.8223 -31.7356 -31.4168 -31.3276 -31.3052 -31.2335 -31.1469 -31.0360
   -19.2356 -16.7562 -16.5160 -16.3411 -16.2010 -16.1702 -15.9534 -15.8518
   -15.7809 -15.7266 -15.6575 -15.6058 -15.5719 -15.5627 -15.5459 -15.5223
   -15.5025 -15.4797 -15.4567 -15.4448 -15.4383 -15.3960 -15.3889 -15.3729
   -15.3542 -15.2477 -15.1842 -15.1599 -15.1144 -15.0914 -14.7382 -13.5116
   -13.3951  -7.8687  -7.1071  -4.1538  -4.0594  -3.9847  -3.9424  -3.9283
    -3.7689  -3.6945  -3.5452  -3.5182  -3.3076  -3.2750  -3.2202  -3.1951
    -3.1335  -3.0713  -2.9765  -2.9327  -2.8561  -2.8401  -2.8275  -2.8047
    -2.7842  -2.7679  -2.7277  -2.6639  -2.5938  -2.5601  -2.4464  -2.4207
    -2.4138  -2.3465  -2.3394  -2.3269  -2.3141  -2.2829  -2.2609  -2.2577
    -2.1863  -2.1543  -2.0840  -2.0319  -1.9711  -1.8527  -1.7000  -1.6394
    -1.5887  -1.5277  -1.5034  -1.4677  -1.4453  -1.4215  -1.3610  -1.3043
    -1.2394  -1.2276  -1.1569  -1.0648  -0.9932  -0.9559  -0.8852  -0.8233
    -0.8017  -0.7737  -0.7656  -0.7566  -0.7082  -0.5352  -0.4792  -0.4655
    -0.4257  -0.3430  -0.3119  -0.3027  -0.2537  -0.2454  -0.2054  -0.1168
    -0.0977  -0.0628  -0.0449  -0.0313   0.0017   0.0211   0.1762   0.1968
     0.2393   0.2608   0.3633   0.4695   0.5363   0.6237   0.7183   0.9369
     1.0130   1.0903   1.2040   1.5851   1.6312   2.7802   3.1045   3.1931
     3.2312   3.2373   3.2714   3.3420   3.5586   3.5895   3.6069   3.6629

[...]

          k = 0.0380-0.0419 0.0000 ( 17876 PWs)   bands (ev):

[...]

          k =-0.0760-0.0000 0.0000 ( 17886 PWs)   bands (ev):

[...]

          k =-0.0760-0.0839 0.0000 ( 17948 PWs)   bands (ev):

   -56.0074 -56.0058 -55.9910 -55.9830 -55.9785 -55.8602 -55.8374 -55.8261
   -55.8204 -55.8183 -55.7953 -55.7942 -55.7465 -55.5801 -54.9924 -54.9922
   -32.3589 -32.3430 -32.3234 -32.3224 -32.3018 -32.3005 -32.2797 -32.2718
   -32.2521 -32.2195 -32.2045 -32.2001 -32.1956 -32.1741 -32.1463 -32.1414
   -32.1367 -32.1344 -32.1330 -32.1313 -32.1307 -32.1275 -32.1270 -32.1253
   -32.0783 -32.0592 -32.0504 -32.0387 -32.0269 -32.0245 -32.0231 -32.0214
   -32.0208 -32.0103 -32.0085 -31.9979 -31.9916 -31.9775 -31.9719 -31.8431
   -31.8274 -31.8225 -31.3180 -31.3178 -31.2297 -31.2295 -31.1903 -31.1902
   -19.2346 -16.2150 -16.0955 -16.0409 -15.9478 -15.9224 -15.9080 -15.8341
   -15.7815 -15.7284 -15.7188 -15.6946 -15.6804 -15.6728 -15.6141 -15.5857
   -15.5615 -15.5505 -15.5070 -15.4943 -15.4863 -15.4725 -15.4705 -15.4643
   -15.4206 -15.3891 -15.3524 -15.3485 -15.2089 -15.1002 -15.0103 -13.4970
   -13.4966  -7.8777  -7.1090  -3.9066  -3.6480  -3.4931  -3.3162  -3.2643
    -3.1665  -3.1545  -3.1234  -3.1033  -2.9940  -2.9344  -2.9217  -2.9000
    -2.8593  -2.8496  -2.8428  -2.8377  -2.8035  -2.8018  -2.7651  -2.7466
    -2.7147  -2.7012  -2.6955  -2.6886  -2.6648  -2.6453  -2.6056  -2.5907
    -2.5745  -2.5443  -2.5074  -2.3737  -2.3044  -2.2267  -2.2195  -2.1792
    -2.1667  -2.1466  -2.1038  -2.0862  -2.0587  -1.9777  -1.9022  -1.7478
    -1.7295  -1.7061  -1.6739  -1.6144  -1.5220  -1.4969  -1.4691  -1.4229
    -1.4062  -1.3478  -1.3269  -1.2963  -1.2403  -1.1784  -1.1409  -1.1136
    -1.0684  -1.0037  -0.9831  -0.9622  -0.9484  -0.8871  -0.7790  -0.7724
    -0.7666  -0.7170  -0.7016  -0.6720  -0.6509  -0.5592  -0.4797  -0.4197
    -0.3230  -0.1589  -0.0788   0.0190   0.0561   0.1007   0.1454   0.1873
     0.2841   0.2861   0.3586   0.3892   0.4064   0.4886   0.4996   0.5227
     0.6833   1.3756   1.3768   1.4507   1.4512   2.8151   3.3620   3.4082
     3.4424   3.4891   3.5918   3.6119   3.6405   3.6423   3.7218   3.7837

     the Fermi energy is     3.1076 ev

!    total energy              =   -2952.61574026 Ry
     estimated scf accuracy    <       0.00000005 Ry
     smearing contrib. (-TS)   =      -0.02583292 Ry
     internal energy E=F+TS    =   -2952.58990734 Ry

     The total energy is F=E-TS. E is the sum of the following terms:
     one-electron contribution =  -24509.53260036 Ry
     hartree contribution      =   12341.96116058 Ry
     xc contribution           =    -487.96393623 Ry
     ewald contribution        =    9702.94515535 Ry
     electric field correction =       0.00031331 Ry

     convergence has been achieved in  85 iterations

     Forces acting on atoms (cartesian axes, Ry/au):

     atom    1 type  1   force =    -0.00003655   -0.00029868    0.09593784
     atom    2 type  1   force =     0.00006045   -0.00049499   -0.17609715
     atom    3 type  2   force =     0.00010244   -0.00009174   -0.02434552
     atom    4 type  2   force =     0.00000942   -0.00163042    0.05391971
     atom    5 type  2   force =    -0.01177905   -0.00141991    0.00393118
     atom    6 type  2   force =     0.01320990   -0.00102478    0.00317624
     atom    7 type  1   force =     0.00034371    0.00068330   -0.00763693
     atom    8 type  1   force =     0.00026743    0.01496986    0.02334908
     atom    9 type  2   force =    -0.00004895    0.00019128    0.00009730
     atom   10 type  2   force =    -0.00219127    0.00050270   -0.01742076
     atom   11 type  2   force =     0.00048185   -0.00027014   -0.00021639
     atom   12 type  2   force =    -0.00086206   -0.00018068    0.00000203
     atom   13 type  1   force =     0.00045891    0.00044876    0.00004893
     atom   14 type  1   force =    -0.00018924    0.00004071    0.00089560
     atom   15 type  2   force =    -0.00013557   -0.00003266   -0.00075990
     atom   16 type  2   force =     0.00001104    0.00051058   -0.00025240
     atom   17 type  2   force =    -0.00047652    0.00024717    0.00009753
     atom   18 type  2   force =     0.00023829    0.00018542   -0.00028173
     atom   19 type  1   force =     0.00070955    0.00055903   -0.00041579
     atom   20 type  1   force =    -0.00048705    0.00037700   -0.00003779
     atom   21 type  2   force =     0.00006515   -0.00000101    0.10330389
     atom   22 type  2   force =    -0.00025987   -0.00023899    0.00065948
     atom   23 type  2   force =    -0.07136844   -0.00011061   -0.02760513
     atom   24 type  2   force =     0.07128882    0.00034525   -0.02767511
     atom   25 type  1   force =     0.00024345   -0.00029417    0.09575973
     atom   26 type  1   force =     0.00011658   -0.00029018   -0.17602433
     atom   27 type  2   force =     0.00014124   -0.00029290   -0.02323893
     atom   28 type  2   force =     0.00000233   -0.00132475    0.05367976
     atom   29 type  2   force =    -0.01212842    0.00039212    0.00377792
     atom   30 type  2   force =     0.01351962    0.00101119    0.00302404
     atom   31 type  1   force =     0.00023993    0.00374834   -0.01143033
     atom   32 type  1   force =     0.00044412   -0.01660967    0.02316549
     atom   33 type  2   force =     0.00017731    0.00009662   -0.00034362
     atom   34 type  2   force =    -0.00191208   -0.00010727   -0.02069665
     atom   35 type  2   force =     0.00046633    0.00006123    0.00007503
     atom   36 type  2   force =    -0.00090472   -0.00000509    0.00032883
     atom   37 type  1   force =     0.00080398    0.00004158   -0.00030151
     atom   38 type  1   force =     0.00000242    0.00012996    0.00040706
     atom   39 type  2   force =    -0.00025462    0.00042591   -0.00055964
     atom   40 type  2   force =    -0.00039044   -0.00007545   -0.00021605
     atom   41 type  2   force =    -0.00055048    0.00029331    0.00017575
     atom   42 type  2   force =     0.00003249    0.00023028    0.00016207
     atom   43 type  1   force =     0.00034884   -0.00009711    0.00043564
     atom   44 type  1   force =    -0.00011164   -0.00029579    0.00039940
     atom   45 type  2   force =     0.00006845   -0.00000170    0.10326179
     atom   46 type  2   force =    -0.07135575   -0.00004789   -0.02759081
     atom   47 type  2   force =     0.07128043    0.00038369   -0.02766664
     atom   48 type  3   force =     0.00128193    0.00097757    0.00040765
     atom   49 type  4   force =    -0.00023285   -0.00012954   -0.00056589
     atom   50 type  5   force =    -0.00003437   -0.00065251    0.00020141
     atom   51 type  5   force =     0.00018245   -0.00057779    0.00010672
     atom   52 type  2   force =     0.00286768   -0.00113708   -0.00066732
     atom   53 type  5   force =    -0.00164219   -0.00021900    0.00008283
     atom   54 type  5   force =    -0.00211445    0.00109961    0.00117638

     Total force =     0.367817     Total SCF correction =     0.000721
  @ DRIVER MODE: Message from server: STATUS
  @ DRIVER MODE: Message from server: GETFORCE
  @ DRIVER MODE: Returning v,forces,stress,ensemble

     Writing output data file ./calc.save/
  @ DRIVER MODE: Message from server: EXIT
  @ DRIVE MODE: Exiting

     General routines

     Parallel routines

   This run was terminated on:   4:58:14  16Sep2021

   JOB DONE.