     Program PWSCF v.6.7GPU starts on 24Aug2021 at  4:14:50

     R & G space division:  proc/nbgrp/npool/nimage =       6
     Reading input from /storage/home/hcoda1/3/ntian30/research/carbon/CH_vib/ads_slab/CHNHHH_a/out_0028/pw.inp
Warning: card &CELL ignored
Warning: card   CELL_DYNAMICS='IPI', ignored
Warning: card / ignored

     Current dimensions of program PWSCF are:
     Max number of different atomic species (ntypx) = 10
     Max number of k-points (npk) =  40000
     Max angular momentum in pseudopotentials (lmaxx) =  3
     Presently no symmetry can be used with electric field

     Message from routine cell_base_init:
     DEPRECATED: use true lattice parameter, not A to a.u. conversion factor

     IMPORTANT: XC functional enforced from input :
     Exchange-correlation= BEEF-VDW
                           (   1   4  43  14   2   0   0)
     Any further DFT definition will be discarded
     Please, verify this is what you really want

  @ DRIVER MODE: Connecting to
 qe_1139763_2632793.sched-torque.pace.gatech.edu64ut6qtc_scratch
  using UNIX socket
  @ DRIVER MODE: Message from server: STATUS
  @ DRIVER MODE: Message from server: INIT
  @ DRIVER MODE: Receiving replica           0          -1
  @ DRIVER MODE: Receiving encoded integer          25
  @ DRIVER MODE:  SCF:  T  FORCE:  T  STRESS:  F  VC:  F  ENSEMBLE:  F
  @ DRIVER MODE:  SCF:  T  FORCE:  T  STRESS:  F  VC:  F  ENSEMBLE:  F

     Using Slab Decomposition

     bravais-lattice index     =            0
     lattice parameter (alat)  =       1.8897  a.u.
     unit-cell volume          =    6658.9804 (a.u.)^3
     number of atoms/cell      =           53
     number of atomic types    =            5
     number of electrons       =       391.00
     number of Kohn-Sham states=          205
     kinetic-energy cutoff     =      29.3995  Ry
     charge density cutoff     =     293.9946  Ry
     scf convergence threshold =      7.3E-08
     mixing beta               =       0.0500
     number of iterations used =            8  plain     mixing
     Exchange-correlation= BEEF-VDW
                           (   1   4  43  14   2   0   0)

     celldm(1)=   1.889726  celldm(2)=   0.000000  celldm(3)=   0.000000
     celldm(4)=   0.000000  celldm(5)=   0.000000  celldm(6)=   0.000000

     crystal axes: (cart. coord. in units of alat)
               a(1) = (   6.579727   0.000000   0.000000 )
               a(2) = (  -0.000775   5.961596   0.000000 )
               a(3) = (   0.000000   0.000000  25.155947 )

     reciprocal axes: (cart. coord. in units 2 pi/alat)
               b(1) = (  0.151982  0.000020  0.000000 )
               b(2) = (  0.000000  0.167740  0.000000 )
               b(3) = (  0.000000  0.000000  0.039752 )

     PseudoPot. # 1 for Ti read from file:
     /storage/coda1/p-amedford6/0/shared/rich_project_chbe-medford/medford-share/data/pseudos_module/espresso/nninc/pbe/van/Ti.UPF
     MD5 check sum: 8e4df49b7f0d34bbd5052bf3f5ea0213
     Pseudo is Ultrasoft, Zval = 12.0
     Generated by new atomic code, or converted to UPF format
     Using radial grid of  851 points,  6 beta functions with:
                l(1) =   0
                l(2) =   0
                l(3) =   1
                l(4) =   1
                l(5) =   2
                l(6) =   2
     Q(r) pseudized with  8 coefficients,  rinner =    1.000   1.000   1.000
                                                       1.000   1.000

     PseudoPot. # 2 for O  read from file:
     /storage/coda1/p-amedford6/0/shared/rich_project_chbe-medford/medford-share/data/pseudos_module/espresso/nninc/pbe/van/O.UPF
     MD5 check sum: 78c19812648e8988a0fe644b0f25305e
     Pseudo is Ultrasoft, Zval =  6.0
     Generated by new atomic code, or converted to UPF format
     Using radial grid of  737 points,  4 beta functions with:
                l(1) =   0
                l(2) =   0
                l(3) =   1
                l(4) =   1
     Q(r) pseudized with  8 coefficients,  rinner =    0.800   0.800   0.800

     PseudoPot. # 3 for N  read from file:
     /storage/coda1/p-amedford6/0/shared/rich_project_chbe-medford/medford-share/data/pseudos_module/espresso/nninc/pbe/van/N.UPF
     MD5 check sum: 90d10febe142ad51ac9d5be1deb811c4
     Pseudo is Ultrasoft, Zval =  5.0
     Generated by new atomic code, or converted to UPF format
     Using radial grid of  729 points,  4 beta functions with:
                l(1) =   0
                l(2) =   0
                l(3) =   1
                l(4) =   1
     Q(r) pseudized with  8 coefficients,  rinner =    0.800   0.800   0.800

     PseudoPot. # 4 for C  read from file:
     /storage/coda1/p-amedford6/0/shared/rich_project_chbe-medford/medford-share/data/pseudos_module/espresso/nninc/pbe/van/C.UPF
     MD5 check sum: 1a69bf6b8db32088f5b2163dbdb77a27
     Pseudo is Ultrasoft, Zval =  4.0
     Generated by new atomic code, or converted to UPF format
     Using radial grid of  721 points,  4 beta functions with:
                l(1) =   0
                l(2) =   0
                l(3) =   1
                l(4) =   1
     Q(r) pseudized with  8 coefficients,  rinner =    0.800   0.800   0.800

     PseudoPot. # 5 for H  read from file:
     /storage/coda1/p-amedford6/0/shared/rich_project_chbe-medford/medford-share/data/pseudos_module/espresso/nninc/pbe/van/H.UPF
     MD5 check sum: b5ee9d7bfd3a09ee7748110bda690ff7
     Pseudo is Ultrasoft, Zval =  1.0
     Generated by new atomic code, or converted to UPF format
     Using radial grid of  615 points,  1 beta functions with:
                l(1) =   0
     Q(r) pseudized with  8 coefficients,  rinner =    0.800

     atomic species   valence    mass     pseudopotential
        Ti1           12.00    47.86700     Ti( 1.00)
        O1             6.00    15.99900     O ( 1.00)
        N1             5.00    14.00700     N ( 1.00)
        C1             4.00    12.01100     C ( 1.00)
        H1             1.00     1.00800     H ( 1.00)

     No symmetry found

   Cartesian axes

     site n.     atom                  positions (alat units)
         1           Ti1 tau(   1) = (   0.0004258   2.9801865   6.0000000  )
         2           Ti1 tau(   2) = (   3.2906075   1.4906267   6.0002472  )
         3           O1  tau(   3) = (   0.0006271   0.0005054   7.9858123  )
         4           O1  tau(   4) = (   3.2906025   0.0005020   7.3038282  )
         5           O1  tau(   5) = (   4.5942328   1.4918067   9.2879030  )
         6           O1  tau(   6) = (   1.9868534   1.4903216   9.2879459  )
         7           Ti1 tau(   7) = (   3.2907910   2.8959150   9.1758416  )
         8           Ti1 tau(   8) = (   0.0015273   1.4827037   9.2680791  )
         9           O1  tau(   9) = (   3.3113122   5.9567026  11.3833813  )
        10           O1  tau(  10) = (   0.0116148   5.9584955  10.6183126  )
        11           O1  tau(  11) = (   1.3074368   1.4838846  12.6958875  )
        12           O1  tau(  12) = (   5.3165545   1.4905306  12.6890028  )
        13           Ti1 tau(  13) = (   0.0319163   2.9634337  12.5060949  )
        14           Ti1 tau(  14) = (   3.3348194   1.4676286  12.5406051  )
        15           O1  tau(  15) = (   6.5718004   5.8756060  14.7032446  )
        16           O1  tau(  16) = (   3.3285255   5.9545307  14.0046557  )
        17           O1  tau(  17) = (   4.5620449   1.5282301  16.1894795  )
        18           O1  tau(  18) = (   2.0507131   1.5111456  16.1254446  )
        19           Ti1 tau(  19) = (   3.3090684   3.0029381  15.7706148  )
        20           Ti1 tau(  20) = (   0.0350077   1.2886257  15.8758580  )
        21           O1  tau(  21) = (   3.2904802   0.0005063   4.7018136  )
        22           O1  tau(  22) = (   0.0240991   0.1326893  17.2553962  )
        23           O1  tau(  23) = (   1.3043587   1.4918075   6.0039043  )
        24           O1  tau(  24) = (   5.2767064   1.4903225   6.0039473  )
        25           Ti1 tau(  25) = (   0.0000382   5.9609847   6.0000000  )
        26           Ti1 tau(  26) = (   3.2902200   4.4714249   6.0002472  )
        27           O1  tau(  27) = (   0.0002396   2.9813036   7.9858123  )
        28           O1  tau(  28) = (   3.2902150   2.9813002   7.3038282  )
        29           O1  tau(  29) = (   4.5938453   4.4726049   9.2879030  )
        30           O1  tau(  30) = (   1.9864658   4.4711199   9.2879459  )
        31           Ti1 tau(  31) = (   3.2891106   5.8743827   9.1763621  )
        32           Ti1 tau(  32) = (   0.0006254   4.4649316   9.2693709  )
        33           O1  tau(  33) = (   3.3073171   2.9646269  11.3784001  )
        34           O1  tau(  34) = (   0.0092240   2.9805883  10.6323155  )
        35           O1  tau(  35) = (   1.3112202   4.4579144  12.6624112  )
        36           O1  tau(  36) = (   5.3138049   4.4530836  12.6532163  )
        37           Ti1 tau(  37) = (   0.0383750   5.9352221  12.5084026  )
        38           Ti1 tau(  38) = (   3.3346062   4.4465110  12.5317211  )
        39           O1  tau(  39) = (   0.0124192   3.0170750  14.9941726  )
        40           O1  tau(  40) = (   3.3221393   2.9969786  13.9787254  )
        41           O1  tau(  41) = (   4.5445774   4.4782521  16.2319081  )
        42           O1  tau(  42) = (   2.0501905   4.4790704  16.2078326  )
        43           Ti1 tau(  43) = (   3.3285819   0.0194352  15.8051934  )
        44           Ti1 tau(  44) = (   0.0611752   4.5099810  16.0683830  )
        45           O1  tau(  45) = (   3.2900926   2.9813045   4.7018136  )
        46           O1  tau(  46) = (   1.3039711   4.4726057   6.0039043  )
        47           O1  tau(  47) = (   5.2763189   4.4711207   6.0039473  )
        48           N1  tau(  48) = (   6.2166669   3.4226028  18.2351681  )
        49           C1  tau(  49) = (   0.7325778   3.1430902  19.0455235  )
        50           H1  tau(  50) = (   1.1688338   2.1628109  18.9760543  )
        51           H1  tau(  51) = (   5.7007151   4.2593073  18.4945226  )
        52           H1  tau(  52) = (   5.5741914   2.6525579  18.1107425  )
        53           H1  tau(  53) = (   1.2593429   3.9788434  19.4721980  )

     number of k points=    10  Fermi-Dirac smearing, width (Ry)=  0.0073
                       cart. coord. in units 2pi/alat
        k(    1) = (   0.0000000   0.0000000   0.0000000), wk =   0.1250000
        k(    2) = (   0.0000000   0.0419351   0.0000000), wk =   0.2500000
        k(    3) = (   0.0000000  -0.0838702   0.0000000), wk =   0.1250000
        k(    4) = (   0.0379955   0.0000049   0.0000000), wk =   0.2500000
        k(    5) = (   0.0379955   0.0419400   0.0000000), wk =   0.2500000
        k(    6) = (   0.0379955  -0.0838652   0.0000000), wk =   0.2500000
        k(    7) = (   0.0379955  -0.0419301   0.0000000), wk =   0.2500000
        k(    8) = (  -0.0759910  -0.0000099   0.0000000), wk =   0.1250000
        k(    9) = (  -0.0759910   0.0419252   0.0000000), wk =   0.2500000
        k(   10) = (  -0.0759910  -0.0838800   0.0000000), wk =   0.1250000

     Initial potential from superposition of free atoms

     starting charge  374.99916, renormalised to  391.00000

     negative rho (up, down):  1.698E-02 0.000E+00

     %%%%%%%%%%%%%%%%%%%%%%%%%%%%%%%%%%%%%%%%%%%%%%%%%%%%%%%%%%%%%%%%%%%%%%%%
     %                                                                      %
     % You are using vdW-DF, which was implemented by the Thonhauser group. %
     % Please cite the following two papers that made this development      %
     % possible and the two reviews that describe the various versions:     %
     %                                                                      %
     %   T. Thonhauser et al., PRL 115, 136402 (2015).                      %
     %   T. Thonhauser et al., PRB 76, 125112 (2007).                       %
     %   K. Berland et al., Rep. Prog. Phys. 78, 066501 (2015).             %
     %   D.C. Langreth et al., J. Phys.: Condens. Matter 21, 084203 (2009). %
     %                                                                      %
     %                                                                      %
     % If you are calculating the stress with vdW-DF, please also cite:     %
     %                                                                      %
     %   R. Sabatini et al., J. Phys.: Condens. Matter 24, 424209 (2012).   %
     %                                                                      %
     %%%%%%%%%%%%%%%%%%%%%%%%%%%%%%%%%%%%%%%%%%%%%%%%%%%%%%%%%%%%%%%%%%%%%%%%

     Adding external electric field

     Computed dipole along edir(3) :
        Dipole               -6.8871 Ry au,        -17.5052 Debye
        Dipole field         -0.0130 Ry au,

        Potential amp.        1.2048 Ry
        Total length         46.3494 bohr

     Starting wfcs are  296 atomic wfcs
  @ DRIVER MODE: Message from server: STATUS
  @ DRIVER MODE: Message from server: POSDATA
  @ DRIVER MODE: Reading and sharing cell
  @ DRIVER MODE: Reading and sharing positions
  @ DRIVER MODE: Received positions

     Self-consistent Calculation

     iteration #  1     ecut=    29.40 Ry     beta= 0.05
     Davidson diagonalization with overlap
     c_bands:  1 eigenvalues not converged
     c_bands:  2 eigenvalues not converged
     ethr =  1.00E-05,  avg # of iterations = 15.9

[...]

     total energy              =   -2713.95265735 Ry
     estimated scf accuracy    <    2275.99070687 Ry

     iteration #  2     ecut=    29.40 Ry     beta= 0.05
     Davidson diagonalization with overlap
     ethr =  1.00E-02,  avg # of iterations = 18.6

[...]

     iteration # 54     ecut=    29.40 Ry     beta= 0.05
     Davidson diagonalization with overlap
     c_bands:  1 eigenvalues not converged
     ethr =  5.66E-11,  avg # of iterations = 14.4

[...]

     total energy              =   -2920.25685486 Ry
     estimated scf accuracy    <       0.00000013 Ry

     iteration # 56     ecut=    29.40 Ry     beta= 0.05
     Davidson diagonalization with overlap
     ethr =  3.39E-11,  avg # of iterations = 11.2

     negative rho (up, down):  1.634E-02 0.000E+00

     Adding external electric field

     Computed dipole along edir(3) :
        Dipole                0.9006 Ry au,          2.2890 Debye
        Dipole field          0.0017 Ry au,

        Potential amp.       -0.1575 Ry
        Total length         46.3494 bohr

     End of self-consistent calculation

          k = 0.0000 0.0000 0.0000 ( 18029 PWs)   bands (ev):

   -55.7212 -55.6849 -55.6749 -55.6408 -55.6078 -55.6049 -55.5705 -55.5463
   -55.5382 -55.5119 -55.5069 -55.4732 -55.4513 -55.2883 -54.7064 -54.6723
   -32.2863 -32.1678 -32.0923 -32.0423 -32.0386 -32.0352 -32.0305 -32.0127
   -31.9638 -31.9536 -31.9337 -31.9285 -31.9198 -31.8901 -31.8752 -31.8745
   -31.8598 -31.8459 -31.8422 -31.8275 -31.8224 -31.7892 -31.7820 -31.7767
   -31.7485 -31.7365 -31.7352 -31.7320 -31.7260 -31.7186 -31.7068 -31.7048
   -31.6952 -31.6925 -31.6597 -31.6578 -31.6540 -31.6348 -31.6237 -31.6183
   -31.5080 -31.4612 -31.1158 -31.0214 -30.9993 -30.9322 -30.8454 -30.7345
   -16.7052 -16.5285 -16.2715 -16.1053 -16.0063 -15.9214 -15.7790 -15.7602
   -15.6443 -15.5677 -15.4250 -15.3875 -15.3750 -15.3585 -15.3355 -15.3227
   -15.2694 -15.2638 -15.2425 -15.2187 -15.2142 -15.1662 -15.1630 -15.1227
   -15.0996 -15.0367 -14.9671 -14.8837 -14.8117 -14.4789 -13.2091 -13.0916
    -9.5513  -6.8798  -4.9726  -3.8846  -3.7417  -3.6751  -3.6224  -3.6163
    -3.4718  -3.3004  -3.1527  -3.1321  -3.0987  -2.9902  -2.9261  -2.9117
    -2.8877  -2.7564  -2.7315  -2.6805  -2.6455  -2.5710  -2.5673  -2.5272
    -2.5135  -2.4684  -2.4622  -2.4365  -2.3034  -2.2894  -2.2515  -2.1885
    -2.1286  -2.1266  -2.0701  -2.0524  -2.0128  -2.0041  -1.9924  -1.9504
    -1.9452  -1.9103  -1.8077  -1.7458  -1.6132  -1.5791  -1.4325  -1.3634
    -1.3145  -1.2958  -1.2126  -1.1906  -1.1396  -1.1022  -1.0904  -1.0593
    -0.9460  -0.8597  -0.8087  -0.7545  -0.7212  -0.7057  -0.6163  -0.5235
    -0.5022  -0.4892  -0.4467  -0.3451  -0.3245  -0.2612  -0.2027  -0.1871
    -0.1778  -0.0810  -0.0507   0.0217   0.0730   0.0939   0.1650   0.1911
     0.2099   0.2151   0.2507   0.2615   0.3386   0.3546   0.3790   0.4660
     0.5919   0.8390   0.8870   0.9018   1.2171   1.2212   1.3163   1.4995
     1.8926   1.9409   3.3697   3.3877   3.4514   3.5205   3.5242   3.5889
     3.6113   3.8565   3.8777   3.8850   3.9017

[...]

          k = 0.0380-0.0419 0.0000 ( 17876 PWs)   bands (ev):

[...]

          k =-0.0760-0.0000 0.0000 ( 17886 PWs)   bands (ev):

[...]

          k =-0.0760-0.0839 0.0000 ( 17948 PWs)   bands (ev):

   -55.7060 -55.6999 -55.6579 -55.6576 -55.6033 -55.5883 -55.5870 -55.5425
   -55.5306 -55.5271 -55.4905 -55.4898 -55.4493 -55.2903 -54.6894 -54.6892
   -32.0929 -32.0883 -31.9967 -31.9829 -31.9829 -31.9788 -31.9507 -31.9491
   -31.9491 -31.9330 -31.9264 -31.9173 -31.9120 -31.8714 -31.8683 -31.8629
   -31.8589 -31.8543 -31.8489 -31.8456 -31.8294 -31.8092 -31.8014 -31.8007
   -31.7834 -31.7787 -31.7776 -31.7772 -31.7633 -31.7599 -31.7434 -31.7398
   -31.7391 -31.7240 -31.7230 -31.7202 -31.6722 -31.6706 -31.6693 -31.6298
   -31.5523 -31.5102 -31.0121 -31.0119 -30.9284 -30.9282 -30.8889 -30.8888
   -16.6759 -16.0100 -15.9455 -15.9074 -15.7595 -15.7184 -15.6834 -15.6717
   -15.5484 -15.5162 -15.4948 -15.4755 -15.4392 -15.4255 -15.4188 -15.3661
   -15.3402 -15.3202 -15.3159 -15.3019 -15.2398 -15.2334 -15.2286 -15.2213
   -15.1737 -15.1701 -15.0787 -15.0757 -15.0512 -14.7653 -13.1931 -13.1931
    -9.5533  -6.8616  -4.9521  -3.2153  -3.1962  -3.1616  -3.1340  -2.9795
    -2.9173  -2.9026  -2.8730  -2.8006  -2.7486  -2.7326  -2.6881  -2.6846
    -2.6310  -2.5976  -2.5729  -2.5593  -2.5530  -2.5393  -2.5178  -2.4810
    -2.4528  -2.4507  -2.4420  -2.3958  -2.3699  -2.3593  -2.3213  -2.3150
    -2.3072  -2.2798  -2.2155  -2.1155  -2.0858  -2.0577  -1.9616  -1.9308
    -1.9257  -1.8457  -1.8126  -1.7579  -1.7509  -1.7427  -1.5771  -1.5054
    -1.4697  -1.4662  -1.4436  -1.3165  -1.3017  -1.2233  -1.1997  -1.1869
    -1.0967  -1.0786  -1.0350  -1.0082  -0.9317  -0.9024  -0.8405  -0.7538
    -0.7152  -0.7081  -0.6794  -0.6755  -0.6263  -0.6152  -0.5300  -0.4916
    -0.4568  -0.4464  -0.3978  -0.2123  -0.1960  -0.1654  -0.0269   0.0248
     0.1493   0.1726   0.2341   0.3076   0.3477   0.3911   0.4279   0.5727
     0.5823   0.6162   0.6600   0.6712   0.7291   0.7379   1.6726   1.6731
     1.7608   1.7610   3.3834   3.6309   3.6333   3.6683   3.6911   3.8464
     3.8909   3.9351   3.9564   3.9596   3.9818

     the Fermi energy is     3.4379 ev

!    total energy              =   -2920.25691544 Ry
     estimated scf accuracy    <       0.00000006 Ry
     smearing contrib. (-TS)   =      -0.04244380 Ry
     internal energy E=F+TS    =   -2920.21447164 Ry

     The total energy is F=E-TS. E is the sum of the following terms:
     one-electron contribution =  -24059.36268345 Ry
     hartree contribution      =   12115.86420784 Ry
     xc contribution           =    -480.86391339 Ry
     ewald contribution        =    9504.14638687 Ry
     electric field correction =       0.00153049 Ry

     convergence has been achieved in  56 iterations

     Forces acting on atoms (cartesian axes, Ry/au):

     atom    1 type  1   force =    -0.00001841   -0.00019598    0.09321643
     atom    2 type  1   force =    -0.00010536   -0.00034081   -0.17839799
     atom    3 type  2   force =     0.00009148   -0.00039103   -0.02007186
     atom    4 type  2   force =     0.00004856   -0.00199648    0.05911337
     atom    5 type  2   force =    -0.01019993   -0.00081984    0.00743657
     atom    6 type  2   force =     0.01220919   -0.00042895    0.00774855
     atom    7 type  1   force =     0.00015124    0.00229943   -0.01369475
     atom    8 type  1   force =    -0.00035311   -0.00184006   -0.00453838
     atom    9 type  2   force =    -0.00034274    0.00036754   -0.00021738
     atom   10 type  2   force =    -0.00026896    0.00141659    0.00223596
     atom   11 type  2   force =    -0.00014048    0.00010548   -0.00011295
     atom   12 type  2   force =    -0.00026724   -0.00022652   -0.00062752
     atom   13 type  1   force =    -0.00049893    0.00091334   -0.00023739
     atom   14 type  1   force =    -0.00069335    0.00042848   -0.00047273
     atom   15 type  2   force =     0.00003564   -0.00021156    0.00012719
     atom   16 type  2   force =    -0.00041285   -0.00010216    0.00000521
     atom   17 type  2   force =    -0.00020611   -0.00029189   -0.00053828
     atom   18 type  2   force =    -0.00024996   -0.00016734    0.00043175
     atom   19 type  1   force =    -0.00063800   -0.00018139    0.00003644
     atom   20 type  1   force =    -0.00016398   -0.00034762   -0.00011112
     atom   21 type  2   force =     0.00002438   -0.00005988    0.10396147
     atom   22 type  2   force =    -0.00048174   -0.00000243   -0.00003874
     atom   23 type  2   force =    -0.07036028   -0.00014718   -0.02688133
     atom   24 type  2   force =     0.07023554    0.00029356   -0.02696402
     atom   25 type  1   force =     0.00002344   -0.00014350    0.09259690
     atom   26 type  1   force =    -0.00013979   -0.00046334   -0.17846268
     atom   27 type  2   force =     0.00015966   -0.00028011   -0.01914901
     atom   28 type  2   force =     0.00005767   -0.00176705    0.05849370
     atom   29 type  2   force =    -0.01068185   -0.00129935    0.00790532
     atom   30 type  2   force =     0.01255740   -0.00083013    0.00817251
     atom   31 type  1   force =     0.00028567    0.00602127   -0.01441175
     atom   32 type  1   force =    -0.00036712    0.00121295   -0.00501369
     atom   33 type  2   force =    -0.00004895   -0.00045628   -0.00006646
     atom   34 type  2   force =     0.00078273   -0.00258472    0.00063341
     atom   35 type  2   force =    -0.00061310   -0.00028826   -0.00013110
     atom   36 type  2   force =     0.00060141    0.00005144    0.00003832
     atom   37 type  1   force =    -0.00047379   -0.00041029    0.00008330
     atom   38 type  1   force =    -0.00025309    0.00036097   -0.00084932
     atom   39 type  2   force =    -0.00062755    0.00037655   -0.00015184
     atom   40 type  2   force =    -0.00015019   -0.00035775   -0.00056675
     atom   41 type  2   force =    -0.00106016    0.00005515    0.00003567
     atom   42 type  2   force =     0.00009693   -0.00013708    0.00024714
     atom   43 type  1   force =     0.00050476    0.00005759   -0.00039456
     atom   44 type  1   force =     0.00047840    0.00076697    0.00000805
     atom   45 type  2   force =     0.00003871   -0.00007669    0.10391869
     atom   46 type  2   force =    -0.07032892   -0.00009247   -0.02686258
     atom   47 type  2   force =     0.07023443    0.00035049   -0.02691919
     atom   48 type  3   force =     0.00540471    0.01204909    0.00136882
     atom   49 type  4   force =    -0.00057744    0.00100928    0.00091030
     atom   50 type  5   force =     0.00051824   -0.00087800   -0.00028250
     atom   51 type  5   force =     0.00237524   -0.00034561   -0.00035068
     atom   52 type  5   force =    -0.00673684   -0.00994774   -0.00148017
     atom   53 type  5   force =     0.00054479   -0.00002667   -0.00072835

     Total force =     0.366764     Total SCF correction =     0.000579
  @ DRIVER MODE: Message from server: STATUS
  @ DRIVER MODE: Message from server: GETFORCE
  @ DRIVER MODE: Returning v,forces,stress,ensemble

     Writing output data file ./calc.save/
  @ DRIVER MODE: Message from server: EXIT
  @ DRIVE MODE: Exiting

     General routines

     Parallel routines

   This run was terminated on:   4:39:13  24Aug2021

   JOB DONE.