     Program PWSCF v.6.7GPU starts on 10Sep2021 at 13:47:22

     R & G space division:  proc/nbgrp/npool/nimage =      10
     Reading input from /storage/home/hcoda1/3/ntian30/research/carbon/CxH_vib/CH_calc/ads_slab/CHNHNH_a/out_0010/pw.inp
Warning: card &CELL ignored
Warning: card   CELL_DYNAMICS='IPI', ignored
Warning: card / ignored

     Current dimensions of program PWSCF are:
     Max number of different atomic species (ntypx) = 10
     Max number of k-points (npk) =  40000
     Max angular momentum in pseudopotentials (lmaxx) =  3
     Presently no symmetry can be used with electric field

     Message from routine cell_base_init:
     DEPRECATED: use true lattice parameter, not A to a.u. conversion factor

     IMPORTANT: XC functional enforced from input :
     Exchange-correlation= BEEF-VDW
                           (   1   4  43  14   2   0   0)
     Any further DFT definition will be discarded
     Please, verify this is what you really want

  @ DRIVER MODE: Connecting to
 qe_1139763_2787518.sched-torque.pace.gatech.eduh4ajug86_scratch
  using UNIX socket
  @ DRIVER MODE: Message from server: STATUS
  @ DRIVER MODE: Message from server: INIT
  @ DRIVER MODE: Receiving replica           0          -1
  @ DRIVER MODE: Receiving encoded integer          25
  @ DRIVER MODE:  SCF:  T  FORCE:  T  STRESS:  F  VC:  F  ENSEMBLE:  F
  @ DRIVER MODE:  SCF:  T  FORCE:  T  STRESS:  F  VC:  F  ENSEMBLE:  F

     Using Slab Decomposition

     bravais-lattice index     =            0
     lattice parameter (alat)  =       1.8897  a.u.
     unit-cell volume          =    6658.9804 (a.u.)^3
     number of atoms/cell      =           53
     number of atomic types    =            5
     number of electrons       =       395.00
     number of Kohn-Sham states=          207
     kinetic-energy cutoff     =      29.3995  Ry
     charge density cutoff     =     293.9946  Ry
     scf convergence threshold =      7.3E-08
     mixing beta               =       0.0500
     number of iterations used =            8  plain     mixing
     Exchange-correlation= BEEF-VDW
                           (   1   4  43  14   2   0   0)

     celldm(1)=   1.889726  celldm(2)=   0.000000  celldm(3)=   0.000000
     celldm(4)=   0.000000  celldm(5)=   0.000000  celldm(6)=   0.000000

     crystal axes: (cart. coord. in units of alat)
               a(1) = (   6.579727   0.000000   0.000000 )
               a(2) = (  -0.000775   5.961596   0.000000 )
               a(3) = (   0.000000   0.000000  25.155947 )

     reciprocal axes: (cart. coord. in units 2 pi/alat)
               b(1) = (  0.151982  0.000020  0.000000 )
               b(2) = (  0.000000  0.167740  0.000000 )
               b(3) = (  0.000000  0.000000  0.039752 )

     PseudoPot. # 1 for Ti read from file:
     /storage/coda1/p-amedford6/0/shared/rich_project_chbe-medford/medford-share/data/pseudos_module/espresso/nninc/pbe/van/Ti.UPF
     MD5 check sum: 8e4df49b7f0d34bbd5052bf3f5ea0213
     Pseudo is Ultrasoft, Zval = 12.0
     Generated by new atomic code, or converted to UPF format
     Using radial grid of  851 points,  6 beta functions with:
                l(1) =   0
                l(2) =   0
                l(3) =   1
                l(4) =   1
                l(5) =   2
                l(6) =   2
     Q(r) pseudized with  8 coefficients,  rinner =    1.000   1.000   1.000
                                                       1.000   1.000

     PseudoPot. # 2 for O  read from file:
     /storage/coda1/p-amedford6/0/shared/rich_project_chbe-medford/medford-share/data/pseudos_module/espresso/nninc/pbe/van/O.UPF
     MD5 check sum: 78c19812648e8988a0fe644b0f25305e
     Pseudo is Ultrasoft, Zval =  6.0
     Generated by new atomic code, or converted to UPF format
     Using radial grid of  737 points,  4 beta functions with:
                l(1) =   0
                l(2) =   0
                l(3) =   1
                l(4) =   1
     Q(r) pseudized with  8 coefficients,  rinner =    0.800   0.800   0.800

     PseudoPot. # 3 for N  read from file:
     /storage/coda1/p-amedford6/0/shared/rich_project_chbe-medford/medford-share/data/pseudos_module/espresso/nninc/pbe/van/N.UPF
     MD5 check sum: 90d10febe142ad51ac9d5be1deb811c4
     Pseudo is Ultrasoft, Zval =  5.0
     Generated by new atomic code, or converted to UPF format
     Using radial grid of  729 points,  4 beta functions with:
                l(1) =   0
                l(2) =   0
                l(3) =   1
                l(4) =   1
     Q(r) pseudized with  8 coefficients,  rinner =    0.800   0.800   0.800

     PseudoPot. # 4 for C  read from file:
     /storage/coda1/p-amedford6/0/shared/rich_project_chbe-medford/medford-share/data/pseudos_module/espresso/nninc/pbe/van/C.UPF
     MD5 check sum: 1a69bf6b8db32088f5b2163dbdb77a27
     Pseudo is Ultrasoft, Zval =  4.0
     Generated by new atomic code, or converted to UPF format
     Using radial grid of  721 points,  4 beta functions with:
                l(1) =   0
                l(2) =   0
                l(3) =   1
                l(4) =   1
     Q(r) pseudized with  8 coefficients,  rinner =    0.800   0.800   0.800

     PseudoPot. # 5 for H  read from file:
     /storage/coda1/p-amedford6/0/shared/rich_project_chbe-medford/medford-share/data/pseudos_module/espresso/nninc/pbe/van/H.UPF
     MD5 check sum: b5ee9d7bfd3a09ee7748110bda690ff7
     Pseudo is Ultrasoft, Zval =  1.0
     Generated by new atomic code, or converted to UPF format
     Using radial grid of  615 points,  1 beta functions with:
                l(1) =   0
     Q(r) pseudized with  8 coefficients,  rinner =    0.800

     atomic species   valence    mass     pseudopotential
        Ti1           12.00    47.86700     Ti( 1.00)
        O1             6.00    15.99900     O ( 1.00)
        N1             5.00    14.00700     N ( 1.00)
        C1             4.00    12.01100     C ( 1.00)
        H1             1.00     1.00800     H ( 1.00)

     No symmetry found

   Cartesian axes

     site n.     atom                  positions (alat units)
         1           Ti1 tau(   1) = (   0.0004258   2.9801865   6.0000000  )
         2           Ti1 tau(   2) = (   3.2906075   1.4906267   6.0002472  )
         3           O1  tau(   3) = (   0.0006271   0.0005054   7.9858123  )
         4           O1  tau(   4) = (   3.2906025   0.0005020   7.3038282  )
         5           O1  tau(   5) = (   4.5942328   1.4918067   9.2879030  )
         6           O1  tau(   6) = (   1.9868534   1.4903216   9.2879459  )
         7           Ti1 tau(   7) = (   3.2907910   2.8959150   9.1758416  )
         8           Ti1 tau(   8) = (   0.0015273   1.4827037   9.2680791  )
         9           O1  tau(   9) = (   3.2974950   5.9468587  11.3331085  )
        10           O1  tau(  10) = (   0.0116148   5.9584955  10.6183126  )
        11           O1  tau(  11) = (   1.3019594   1.4757037  12.6170356  )
        12           O1  tau(  12) = (   5.2841045   1.4688878  12.6073194  )
        13           Ti1 tau(  13) = (   0.0658538   3.0089988  12.6217963  )
        14           Ti1 tau(  14) = (   3.3903573   1.4765488  12.4775701  )
        15           O1  tau(  15) = (   6.5762050   0.0002902  14.6414759  )
        16           O1  tau(  16) = (   3.3078303   5.9588356  13.9306596  )
        17           O1  tau(  17) = (   4.5399328   1.5113171  16.0740780  )
        18           O1  tau(  18) = (   2.0525891   1.5105181  16.0861438  )
        19           Ti1 tau(  19) = (   3.3041007   2.9930787  15.6963055  )
        20           Ti1 tau(  20) = (   0.0280933   1.5113244  15.8467906  )
        21           O1  tau(  21) = (   3.2904802   0.0005063   4.7018136  )
        22           O1  tau(  22) = (   0.0368235   0.0128086  17.1990618  )
        23           O1  tau(  23) = (   1.3043587   1.4918075   6.0039043  )
        24           O1  tau(  24) = (   5.2767064   1.4903225   6.0039473  )
        25           Ti1 tau(  25) = (   0.0000382   5.9609847   6.0000000  )
        26           Ti1 tau(  26) = (   3.2902200   4.4714249   6.0002472  )
        27           O1  tau(  27) = (   0.0002396   2.9813036   7.9858123  )
        28           O1  tau(  28) = (   3.2902150   2.9813002   7.3038282  )
        29           O1  tau(  29) = (   4.5938453   4.4726049   9.2879030  )
        30           O1  tau(  30) = (   1.9864658   4.4711199   9.2879459  )
        31           Ti1 tau(  31) = (   3.2891106   5.8743827   9.1763621  )
        32           Ti1 tau(  32) = (   0.0006254   4.4649316   9.2693709  )
        33           O1  tau(  33) = (   3.3000731   2.9737533  11.3293525  )
        34           O1  tau(  34) = (   0.0092240   2.9805883  10.6323155  )
        35           O1  tau(  35) = (   1.3001503   4.4664650  12.6348062  )
        36           O1  tau(  36) = (   5.2875254   4.4541756  12.6228532  )
        37           Ti1 tau(  37) = (   0.0765437   0.0243871  12.5594496  )
        38           Ti1 tau(  38) = (   3.3883988   4.4566399  12.4818539  )
        39           O1  tau(  39) = (   0.0169469   2.9261715  14.6451004  )
        40           O1  tau(  40) = (   3.3035743   2.9719493  13.9037931  )
        41           O1  tau(  41) = (   4.5445893   4.4635849  16.0933648  )
        42           O1  tau(  42) = (   2.0554864   4.4706235  16.0676963  )
        43           Ti1 tau(  43) = (   3.3300396   0.0018144  15.7250798  )
        44           Ti1 tau(  44) = (   0.0441581   4.6348571  16.0952712  )
        45           O1  tau(  45) = (   3.2900926   2.9813045   4.7018136  )
        46           O1  tau(  46) = (   1.3039711   4.4726057   6.0039043  )
        47           O1  tau(  47) = (   5.2763189   4.4711207   6.0039473  )
        48           N1  tau(  48) = (   1.0252718   2.8101955  18.5330041  )
        49           N1  tau(  49) = (   6.5702222   2.9567621  17.4444712  )
        50           C1  tau(  50) = (   1.2122298   3.5280882  19.5702009  )
        51           H1  tau(  51) = (   0.5037382   4.3646449  19.6222421  )
        52           H1  tau(  52) = (   1.5845460   1.9874866  18.3412699  )
        53           H1  tau(  53) = (   5.6894004   2.9582294  17.9538253  )

     number of k points=    10  Fermi-Dirac smearing, width (Ry)=  0.0073
                       cart. coord. in units 2pi/alat
        k(    1) = (   0.0000000   0.0000000   0.0000000), wk =   0.1250000
        k(    2) = (   0.0000000   0.0419351   0.0000000), wk =   0.2500000
        k(    3) = (   0.0000000  -0.0838702   0.0000000), wk =   0.1250000
        k(    4) = (   0.0379955   0.0000049   0.0000000), wk =   0.2500000
        k(    5) = (   0.0379955   0.0419400   0.0000000), wk =   0.2500000
        k(    6) = (   0.0379955  -0.0838652   0.0000000), wk =   0.2500000
        k(    7) = (   0.0379955  -0.0419301   0.0000000), wk =   0.2500000
        k(    8) = (  -0.0759910  -0.0000099   0.0000000), wk =   0.1250000
        k(    9) = (  -0.0759910   0.0419252   0.0000000), wk =   0.2500000
        k(   10) = (  -0.0759910  -0.0838800   0.0000000), wk =   0.1250000

     Initial potential from superposition of free atoms

     starting charge  378.99916, renormalised to  395.00000

     negative rho (up, down):  1.643E-02 0.000E+00

     %%%%%%%%%%%%%%%%%%%%%%%%%%%%%%%%%%%%%%%%%%%%%%%%%%%%%%%%%%%%%%%%%%%%%%%%
     %                                                                      %
     % You are using vdW-DF, which was implemented by the Thonhauser group. %
     % Please cite the following two papers that made this development      %
     % possible and the two reviews that describe the various versions:     %
     %                                                                      %
     %   T. Thonhauser et al., PRL 115, 136402 (2015).                      %
     %   T. Thonhauser et al., PRB 76, 125112 (2007).                       %
     %   K. Berland et al., Rep. Prog. Phys. 78, 066501 (2015).             %
     %   D.C. Langreth et al., J. Phys.: Condens. Matter 21, 084203 (2009). %
     %                                                                      %
     %                                                                      %
     % If you are calculating the stress with vdW-DF, please also cite:     %
     %                                                                      %
     %   R. Sabatini et al., J. Phys.: Condens. Matter 24, 424209 (2012).   %
     %                                                                      %
     %%%%%%%%%%%%%%%%%%%%%%%%%%%%%%%%%%%%%%%%%%%%%%%%%%%%%%%%%%%%%%%%%%%%%%%%

     Adding external electric field

     Computed dipole along edir(3) :
        Dipole               -8.5017 Ry au,        -21.6093 Debye
        Dipole field         -0.0160 Ry au,

        Potential amp.        1.4872 Ry
        Total length         46.3494 bohr

     Starting wfcs are  299 atomic wfcs
  @ DRIVER MODE: Message from server: STATUS
  @ DRIVER MODE: Message from server: POSDATA
  @ DRIVER MODE: Reading and sharing cell
  @ DRIVER MODE: Reading and sharing positions
  @ DRIVER MODE: Received positions

     Self-consistent Calculation

     iteration #  1     ecut=    29.40 Ry     beta= 0.05
     Davidson diagonalization with overlap
     c_bands:  1 eigenvalues not converged
     c_bands:  1 eigenvalues not converged
     c_bands:  2 eigenvalues not converged
     c_bands:  3 eigenvalues not converged
     c_bands:  3 eigenvalues not converged
     c_bands:  1 eigenvalues not converged
     c_bands:  1 eigenvalues not converged
     ethr =  1.00E-05,  avg # of iterations = 19.2

[...]

     total energy              =   -2621.18085735 Ry
     estimated scf accuracy    <    3530.46363706 Ry

[...]

     iteration #  3     ecut=    29.40 Ry     beta= 0.05
     Davidson diagonalization with overlap
     ethr =  1.00E-02,  avg # of iterations = 14.3

[...]

     iteration # 64     ecut=    29.40 Ry     beta= 0.05
     Davidson diagonalization with overlap
     c_bands:  1 eigenvalues not converged
     ethr =  5.25E-10,  avg # of iterations = 12.8

[...]

     total energy              =   -2939.04805837 Ry
     estimated scf accuracy    <       0.00000012 Ry

     iteration # 74     ecut=    29.40 Ry     beta= 0.05
     Davidson diagonalization with overlap
     ethr =  2.48E-11,  avg # of iterations =  7.0

     negative rho (up, down):  1.569E-02 0.000E+00

     Adding external electric field

     Computed dipole along edir(3) :
        Dipole                0.0416 Ry au,          0.1057 Debye
        Dipole field          0.0001 Ry au,

        Potential amp.       -0.0073 Ry
        Total length         46.3494 bohr

     End of self-consistent calculation

          k = 0.0000 0.0000 0.0000 ( 18029 PWs)   bands (ev):

   -56.2402 -56.2340 -56.2061 -56.1980 -56.1490 -56.0776 -56.0768 -56.0482
   -56.0412 -56.0142 -56.0126 -55.9790 -55.7922 -55.5162 -55.2170 -55.1830
   -32.7905 -32.7223 -32.5905 -32.5782 -32.5584 -32.5470 -32.5332 -32.5032
   -32.4826 -32.4811 -32.4551 -32.4434 -32.4152 -32.3923 -32.3866 -32.3759
   -32.3752 -32.3442 -32.3290 -32.2972 -32.2896 -32.2870 -32.2631 -32.2435
   -32.2400 -32.2357 -32.2356 -32.2228 -32.2154 -32.1996 -32.1938 -32.1917
   -32.1874 -32.1786 -32.1655 -32.1551 -32.1247 -32.0438 -31.9816 -31.7963
   -31.7790 -31.7188 -31.6241 -31.5358 -31.5134 -31.4408 -31.3543 -31.2433
   -17.2994 -16.9891 -16.7168 -16.5078 -16.3960 -16.3640 -16.2643 -16.0811
   -15.9573 -15.9271 -15.8274 -15.8000 -15.7764 -15.7653 -15.7432 -15.7331
   -15.6861 -15.6818 -15.6692 -15.6541 -15.6009 -15.5758 -15.5470 -15.4378
   -15.4312 -15.3981 -15.3725 -15.2961 -15.2898 -14.8282 -13.7197 -13.6033
   -12.7619  -8.6550  -5.3314  -4.3645  -4.2204  -4.1923  -4.1455  -4.0934
    -3.8763  -3.8120  -3.7542  -3.6003  -3.4689  -3.4275  -3.4148  -3.3987
    -3.3693  -3.1429  -3.1172  -3.0540  -3.0305  -3.0246  -3.0137  -3.0040
    -2.9827  -2.9658  -2.8931  -2.7890  -2.7156  -2.6670  -2.6193  -2.6114
    -2.5521  -2.5061  -2.5013  -2.4837  -2.4790  -2.4711  -2.4329  -2.4242
    -2.2881  -2.2272  -2.0942  -2.0572  -2.0371  -1.8853  -1.8472  -1.7522
    -1.6860  -1.6686  -1.6590  -1.6307  -1.5453  -1.5232  -1.4034  -1.3808
    -1.3399  -1.2641  -1.2557  -1.2341  -1.1318  -1.1165  -1.0114  -1.0040
    -0.9972  -0.9804  -0.9208  -0.7339  -0.7130  -0.6813  -0.6623  -0.6291
    -0.5528  -0.5220  -0.4311  -0.4187  -0.3600  -0.3418  -0.3155  -0.2659
    -0.2597  -0.2480  -0.2439  -0.2283  -0.0525   0.0094   0.0662   0.1171
     0.1314   0.2893   0.3394   0.4172   0.5029   0.7303   0.8048   0.8386
     0.8933   0.9969   1.3761   1.4216   2.4381   2.9005   2.9808   3.0307
     3.0409   3.1350   3.1413   3.3489   3.3705   3.3761   3.4402

[...]

          k = 0.0380-0.0419 0.0000 ( 17876 PWs)   bands (ev):

[...]

          k =-0.0760-0.0000 0.0000 ( 17886 PWs)   bands (ev):

[...]

          k =-0.0760-0.0839 0.0000 ( 17948 PWs)   bands (ev):

   -56.2235 -56.2226 -56.2167 -56.2151 -56.1445 -56.0819 -56.0636 -56.0543
   -56.0321 -56.0298 -55.9961 -55.9956 -55.7912 -55.5170 -55.2000 -55.1999
   -32.5955 -32.5927 -32.5379 -32.5372 -32.5268 -32.5190 -32.5181 -32.4997
   -32.4420 -32.4408 -32.4351 -32.4319 -32.4071 -32.3720 -32.3610 -32.3565
   -32.3492 -32.3458 -32.3433 -32.3429 -32.3420 -32.3352 -32.3331 -32.2852
   -32.2842 -32.2732 -32.2551 -32.2452 -32.2308 -32.2304 -32.2278 -32.2276
   -32.2110 -32.2102 -32.2024 -32.2003 -32.1335 -32.0462 -31.9769 -31.8538
   -31.7875 -31.7425 -31.5261 -31.5260 -31.4370 -31.4368 -31.3976 -31.3976
   -17.2819 -16.4400 -16.4084 -16.1821 -16.1719 -16.1572 -16.1538 -16.0163
   -15.9490 -15.9461 -15.9390 -15.9075 -15.8787 -15.8414 -15.7964 -15.7745
   -15.7740 -15.7622 -15.7556 -15.7024 -15.6972 -15.6755 -15.6685 -15.5663
   -15.5556 -15.5522 -15.4982 -15.4104 -15.2818 -15.0017 -13.7052 -13.7050
   -12.7726  -8.6603  -5.3289  -3.8736  -3.7309  -3.6938  -3.5339  -3.4107
    -3.4077  -3.3967  -3.3236  -3.1561  -3.1417  -3.1188  -3.0949  -3.0679
    -3.0677  -3.0534  -3.0474  -3.0286  -3.0047  -2.9693  -2.9302  -2.9267
    -2.9048  -2.8950  -2.8692  -2.8553  -2.8257  -2.8135  -2.7980  -2.7795
    -2.7614  -2.7452  -2.5929  -2.4723  -2.4389  -2.3766  -2.3682  -2.3487
    -2.3144  -2.3036  -2.2906  -2.2285  -2.1273  -1.9911  -1.9437  -1.9371
    -1.9046  -1.8248  -1.8126  -1.6677  -1.6530  -1.6255  -1.5867  -1.5324
    -1.5166  -1.4661  -1.4040  -1.3908  -1.3587  -1.3285  -1.2531  -1.2029
    -1.2002  -1.1814  -1.1219  -1.0340  -1.0254  -1.0101  -1.0018  -0.9522
    -0.8746  -0.8592  -0.8285  -0.7445  -0.7271  -0.6295  -0.5452  -0.3488
    -0.2608  -0.2136  -0.1679  -0.1349  -0.0310   0.0140   0.0314   0.0667
     0.0800   0.1265   0.1868   0.2924   0.2991   0.3606   0.4699   0.8000
     1.1684   1.1693   1.2413   1.2416   2.3963   3.1607   3.1687   3.2245
     3.2468   3.3975   3.4031   3.4276   3.4289   3.5487   3.5662

     the Fermi energy is     2.8952 ev

!    total energy              =   -2939.04806876 Ry
     estimated scf accuracy    <       0.00000004 Ry
     smearing contrib. (-TS)   =      -0.02296686 Ry
     internal energy E=F+TS    =   -2939.02510191 Ry

     The total energy is F=E-TS. E is the sum of the following terms:
     one-electron contribution =  -24314.81942653 Ry
     hartree contribution      =   12241.24951797 Ry
     xc contribution           =    -485.12644198 Ry
     ewald contribution        =    9619.67124537 Ry
     electric field correction =       0.00000326 Ry

     convergence has been achieved in  74 iterations

     Forces acting on atoms (cartesian axes, Ry/au):

     atom    1 type  1   force =     0.00026422   -0.00023971    0.09665005
     atom    2 type  1   force =    -0.00018096   -0.00052273   -0.17529829
     atom    3 type  2   force =    -0.00000444   -0.00007762   -0.02503826
     atom    4 type  2   force =     0.00005805   -0.00154407    0.05297525
     atom    5 type  2   force =    -0.01216466   -0.00104344    0.00344964
     atom    6 type  2   force =     0.01404424   -0.00028491    0.00274095
     atom    7 type  1   force =    -0.00095384    0.00049528   -0.01193539
     atom    8 type  1   force =     0.00044290    0.00875720    0.02925694
     atom    9 type  2   force =     0.00051204    0.00030405   -0.00016035
     atom   10 type  2   force =    -0.00090539   -0.00020234   -0.01711947
     atom   11 type  2   force =     0.00037548    0.00019587    0.00035136
     atom   12 type  2   force =    -0.00107618    0.00083890    0.00048520
     atom   13 type  1   force =     0.00146446    0.00081454   -0.00011962
     atom   14 type  1   force =    -0.00124263    0.00035037   -0.00026713
     atom   15 type  2   force =    -0.00065651    0.00156536    0.00021139
     atom   16 type  2   force =     0.00031996   -0.00035013   -0.00019862
     atom   17 type  2   force =     0.00079376    0.00023425   -0.00004001
     atom   18 type  2   force =    -0.00079810    0.00013675   -0.00019336
     atom   19 type  1   force =    -0.00006043   -0.00033277   -0.00004094
     atom   20 type  1   force =    -0.00010658   -0.00015485    0.00046182
     atom   21 type  2   force =     0.00008027   -0.00006073    0.10321266
     atom   22 type  2   force =    -0.00000147    0.00311791    0.00039512
     atom   23 type  2   force =    -0.07148518   -0.00015367   -0.02776026
     atom   24 type  2   force =     0.07143191    0.00026735   -0.02776085
     atom   25 type  1   force =     0.00008139   -0.00022622    0.09650103
     atom   26 type  1   force =    -0.00012926   -0.00033940   -0.17546097
     atom   27 type  2   force =     0.00006303   -0.00023887   -0.02406869
     atom   28 type  2   force =     0.00011628   -0.00128096    0.05274740
     atom   29 type  2   force =    -0.01227640    0.00002269    0.00301570
     atom   30 type  2   force =     0.01404459    0.00040135    0.00238406
     atom   31 type  1   force =    -0.00094345    0.00315751   -0.01287986
     atom   32 type  1   force =     0.00028937   -0.01001360    0.02994368
     atom   33 type  2   force =     0.00025639   -0.00013660    0.00048642
     atom   34 type  2   force =    -0.00003134    0.00000123   -0.02436093
     atom   35 type  2   force =    -0.00032357    0.00020749   -0.00027162
     atom   36 type  2   force =    -0.00115876    0.00052783   -0.00006837
     atom   37 type  1   force =     0.00123087   -0.00090451    0.00052797
     atom   38 type  1   force =    -0.00091486   -0.00056880   -0.00003878
     atom   39 type  2   force =    -0.00018047   -0.00074317    0.00078243
     atom   40 type  2   force =     0.00008526    0.00053514    0.00011547
     atom   41 type  2   force =    -0.00131112   -0.00004169   -0.00039707
     atom   42 type  2   force =     0.00179643   -0.00021712   -0.00030790
     atom   43 type  1   force =    -0.00050925    0.00010911   -0.00046036
     atom   44 type  1   force =    -0.00007678    0.00016722    0.00007014
     atom   45 type  2   force =     0.00005205   -0.00008616    0.10320707
     atom   46 type  2   force =    -0.07151125   -0.00016211   -0.02774676
     atom   47 type  2   force =     0.07148128    0.00033615   -0.02778668
     atom   48 type  3   force =    -0.00104695    0.00321849    0.00061439
     atom   49 type  3   force =     0.00027773   -0.00484604   -0.00022531
     atom   50 type  4   force =     0.00095056    0.00001991    0.00047457
     atom   51 type  5   force =     0.00011246    0.00088813   -0.00053627
     atom   52 type  5   force =     0.00021284   -0.00159798   -0.00115707
     atom   53 type  5   force =    -0.00078798   -0.00029989    0.00063853

     Total force =     0.368426     Total SCF correction =     0.000434
  @ DRIVER MODE: Message from server: STATUS
  @ DRIVER MODE: Message from server: GETFORCE
  @ DRIVER MODE: Returning v,forces,stress,ensemble

     Writing output data file ./calc.save/
  @ DRIVER MODE: Message from server: EXIT
  @ DRIVE MODE: Exiting

     General routines

     Parallel routines

   This run was terminated on:  14: 8: 7  10Sep2021

   JOB DONE.