     Program PWSCF v.6.7GPU starts on 16Sep2021 at  7:33:34

     R & G space division:  proc/nbgrp/npool/nimage =      10
     Reading input from /storage/home/hcoda1/3/ntian30/research/carbon/CxH_vib/H2O_calc/ads_slab/CH2NHHH2O_a/out_0047/pw.inp
Warning: card &CELL ignored
Warning: card   CELL_DYNAMICS='IPI', ignored
Warning: card / ignored

     Current dimensions of program PWSCF are:
     Max number of different atomic species (ntypx) = 10
     Max number of k-points (npk) =  40000
     Max angular momentum in pseudopotentials (lmaxx) =  3
     Presently no symmetry can be used with electric field

     Message from routine cell_base_init:
     DEPRECATED: use true lattice parameter, not A to a.u. conversion factor

     IMPORTANT: XC functional enforced from input :
     Exchange-correlation= BEEF-VDW
                           (   1   4  43  14   2   0   0)
     Any further DFT definition will be discarded
     Please, verify this is what you really want

  @ DRIVER MODE: Connecting to
 qe_1139763_2852609.sched-torque.pace.gatech.edulvg1gdv2_scratch
  using UNIX socket
  @ DRIVER MODE: Message from server: STATUS
  @ DRIVER MODE: Message from server: INIT
  @ DRIVER MODE: Receiving replica           0          -1
  @ DRIVER MODE: Receiving encoded integer          25
  @ DRIVER MODE:  SCF:  T  FORCE:  T  STRESS:  F  VC:  F  ENSEMBLE:  F
  @ DRIVER MODE:  SCF:  T  FORCE:  T  STRESS:  F  VC:  F  ENSEMBLE:  F

     Using Slab Decomposition

     bravais-lattice index     =            0
     lattice parameter (alat)  =       1.8897  a.u.
     unit-cell volume          =    6658.9804 (a.u.)^3
     number of atoms/cell      =           56
     number of atomic types    =            5
     number of electrons       =       399.00
     number of Kohn-Sham states=          209
     kinetic-energy cutoff     =      29.3995  Ry
     charge density cutoff     =     293.9946  Ry
     scf convergence threshold =      7.3E-08
     mixing beta               =       0.0500
     number of iterations used =            8  plain     mixing
     Exchange-correlation= BEEF-VDW
                           (   1   4  43  14   2   0   0)

     celldm(1)=   1.889726  celldm(2)=   0.000000  celldm(3)=   0.000000
     celldm(4)=   0.000000  celldm(5)=   0.000000  celldm(6)=   0.000000

     crystal axes: (cart. coord. in units of alat)
               a(1) = (   6.579727   0.000000   0.000000 )
               a(2) = (  -0.000775   5.961596   0.000000 )
               a(3) = (   0.000000   0.000000  25.155947 )

     reciprocal axes: (cart. coord. in units 2 pi/alat)
               b(1) = (  0.151982  0.000020  0.000000 )
               b(2) = (  0.000000  0.167740  0.000000 )
               b(3) = (  0.000000  0.000000  0.039752 )

     PseudoPot. # 1 for Ti read from file:
     /storage/coda1/p-amedford6/0/shared/rich_project_chbe-medford/medford-share/data/pseudos_module/espresso/nninc/pbe/van/Ti.UPF
     MD5 check sum: 8e4df49b7f0d34bbd5052bf3f5ea0213
     Pseudo is Ultrasoft, Zval = 12.0
     Generated by new atomic code, or converted to UPF format
     Using radial grid of  851 points,  6 beta functions with:
                l(1) =   0
                l(2) =   0
                l(3) =   1
                l(4) =   1
                l(5) =   2
                l(6) =   2
     Q(r) pseudized with  8 coefficients,  rinner =    1.000   1.000   1.000
                                                       1.000   1.000

     PseudoPot. # 2 for O  read from file:
     /storage/coda1/p-amedford6/0/shared/rich_project_chbe-medford/medford-share/data/pseudos_module/espresso/nninc/pbe/van/O.UPF
     MD5 check sum: 78c19812648e8988a0fe644b0f25305e
     Pseudo is Ultrasoft, Zval =  6.0
     Generated by new atomic code, or converted to UPF format
     Using radial grid of  737 points,  4 beta functions with:
                l(1) =   0
                l(2) =   0
                l(3) =   1
                l(4) =   1
     Q(r) pseudized with  8 coefficients,  rinner =    0.800   0.800   0.800

     PseudoPot. # 3 for N  read from file:
     /storage/coda1/p-amedford6/0/shared/rich_project_chbe-medford/medford-share/data/pseudos_module/espresso/nninc/pbe/van/N.UPF
     MD5 check sum: 90d10febe142ad51ac9d5be1deb811c4
     Pseudo is Ultrasoft, Zval =  5.0
     Generated by new atomic code, or converted to UPF format
     Using radial grid of  729 points,  4 beta functions with:
                l(1) =   0
                l(2) =   0
                l(3) =   1
                l(4) =   1
     Q(r) pseudized with  8 coefficients,  rinner =    0.800   0.800   0.800

     PseudoPot. # 4 for C  read from file:
     /storage/coda1/p-amedford6/0/shared/rich_project_chbe-medford/medford-share/data/pseudos_module/espresso/nninc/pbe/van/C.UPF
     MD5 check sum: 1a69bf6b8db32088f5b2163dbdb77a27
     Pseudo is Ultrasoft, Zval =  4.0
     Generated by new atomic code, or converted to UPF format
     Using radial grid of  721 points,  4 beta functions with:
                l(1) =   0
                l(2) =   0
                l(3) =   1
                l(4) =   1
     Q(r) pseudized with  8 coefficients,  rinner =    0.800   0.800   0.800

     PseudoPot. # 5 for H  read from file:
     /storage/coda1/p-amedford6/0/shared/rich_project_chbe-medford/medford-share/data/pseudos_module/espresso/nninc/pbe/van/H.UPF
     MD5 check sum: b5ee9d7bfd3a09ee7748110bda690ff7
     Pseudo is Ultrasoft, Zval =  1.0
     Generated by new atomic code, or converted to UPF format
     Using radial grid of  615 points,  1 beta functions with:
                l(1) =   0
     Q(r) pseudized with  8 coefficients,  rinner =    0.800

     atomic species   valence    mass     pseudopotential
        Ti1           12.00    47.86700     Ti( 1.00)
        O1             6.00    15.99900     O ( 1.00)
        N1             5.00    14.00700     N ( 1.00)
        C1             4.00    12.01100     C ( 1.00)
        H1             1.00     1.00800     H ( 1.00)

     No symmetry found

   Cartesian axes

     site n.     atom                  positions (alat units)
         1           Ti1 tau(   1) = (   0.0004258   2.9801865   6.0000000  )
         2           Ti1 tau(   2) = (   3.2906075   1.4906267   6.0002472  )
         3           O1  tau(   3) = (   0.0006271   0.0005054   7.9858123  )
         4           O1  tau(   4) = (   3.2906025   0.0005020   7.3038282  )
         5           O1  tau(   5) = (   4.5942328   1.4918067   9.2879030  )
         6           O1  tau(   6) = (   1.9868534   1.4903216   9.2879459  )
         7           Ti1 tau(   7) = (   3.2907910   2.8959150   9.1758416  )
         8           Ti1 tau(   8) = (   0.0015273   1.4827037   9.2680791  )
         9           O1  tau(   9) = (   3.2861202   0.0128588  11.3777969  )
        10           O1  tau(  10) = (   0.0116148   5.9584955  10.6183126  )
        11           O1  tau(  11) = (   1.2831632   1.4993340  12.6921085  )
        12           O1  tau(  12) = (   5.2921761   1.5015178  12.6679780  )
        13           Ti1 tau(  13) = (   0.0111066   2.9912061  12.5123142  )
        14           Ti1 tau(  14) = (   3.3187119   1.4875497  12.5412637  )
        15           O1  tau(  15) = (   6.5416963   5.9006142  14.6662030  )
        16           O1  tau(  16) = (   3.3066524   0.0016155  14.0179881  )
        17           O1  tau(  17) = (   4.5377470   1.5714702  16.1207712  )
        18           O1  tau(  18) = (   1.9925948   1.5577299  16.0387284  )
        19           Ti1 tau(  19) = (   3.2598466   3.0207798  15.7337896  )
        20           Ti1 tau(  20) = (   0.0086319   1.3133152  15.8444473  )
        21           O1  tau(  21) = (   3.2904802   0.0005063   4.7018136  )
        22           O1  tau(  22) = (   6.5660721   0.1678205  17.2271563  )
        23           O1  tau(  23) = (   1.3043587   1.4918075   6.0039043  )
        24           O1  tau(  24) = (   5.2767064   1.4903225   6.0039473  )
        25           Ti1 tau(  25) = (   0.0000382   5.9609847   6.0000000  )
        26           Ti1 tau(  26) = (   3.2902200   4.4714249   6.0002472  )
        27           O1  tau(  27) = (   0.0002396   2.9813036   7.9858123  )
        28           O1  tau(  28) = (   3.2902150   2.9813002   7.3038282  )
        29           O1  tau(  29) = (   4.5938453   4.4726049   9.2879030  )
        30           O1  tau(  30) = (   1.9864658   4.4711199   9.2879459  )
        31           Ti1 tau(  31) = (   3.2891106   5.8743827   9.1763621  )
        32           Ti1 tau(  32) = (   0.0006254   4.4649316   9.2693709  )
        33           O1  tau(  33) = (   3.2870289   2.9785969  11.3746142  )
        34           O1  tau(  34) = (   0.0092240   2.9805883  10.6323155  )
        35           O1  tau(  35) = (   1.2865429   4.4729593  12.6568099  )
        36           O1  tau(  36) = (   5.2907978   4.4713399  12.6331247  )
        37           Ti1 tau(  37) = (   0.0245089   0.0029545  12.5000319  )
        38           Ti1 tau(  38) = (   3.3192338   4.4773935  12.5310228  )
        39           O1  tau(  39) = (   6.5398775   3.0461246  14.9162120  )
        40           O1  tau(  40) = (   3.2968145   3.0151409  13.9465962  )
        41           O1  tau(  41) = (   4.5189833   4.4812017  16.2068643  )
        42           O1  tau(  42) = (   1.9905864   4.4756957  16.1679402  )
        43           Ti1 tau(  43) = (   3.3140030   0.0507474  15.8534526  )
        44           Ti1 tau(  44) = (   0.0184218   4.5194176  15.9927436  )
        45           O1  tau(  45) = (   3.2900926   2.9813045   4.7018136  )
        46           O1  tau(  46) = (   1.3039711   4.4726057   6.0039043  )
        47           O1  tau(  47) = (   5.2763189   4.4711207   6.0039473  )
        48           N1  tau(  48) = (   6.2908993   3.4294391  18.1752670  )
        49           C1  tau(  49) = (   0.7550536   3.1452864  19.0745941  )
        50           H1  tau(  50) = (   1.1396299   3.9643166  19.6610198  )
        51           H1  tau(  51) = (   1.3301158   2.2513941  18.9084762  )
        52           H1  tau(  52) = (   5.7550451   4.2450011  18.4501662  )
        53           H1  tau(  53) = (   5.6463078   2.6497838  18.0429669  )
        54           O1  tau(  54) = (   3.1180431   0.1968263  18.2683150  )
        55           H1  tau(  55) = (   3.8687171   5.7182160  18.6822429  )
        56           H1  tau(  56) = (   2.3371514   5.6040609  18.4451484  )

     number of k points=    10  Fermi-Dirac smearing, width (Ry)=  0.0073
                       cart. coord. in units 2pi/alat
        k(    1) = (   0.0000000   0.0000000   0.0000000), wk =   0.1250000
        k(    2) = (   0.0000000   0.0419351   0.0000000), wk =   0.2500000
        k(    3) = (   0.0000000  -0.0838702   0.0000000), wk =   0.1250000
        k(    4) = (   0.0379955   0.0000049   0.0000000), wk =   0.2500000
        k(    5) = (   0.0379955   0.0419400   0.0000000), wk =   0.2500000
        k(    6) = (   0.0379955  -0.0838652   0.0000000), wk =   0.2500000
        k(    7) = (   0.0379955  -0.0419301   0.0000000), wk =   0.2500000
        k(    8) = (  -0.0759910  -0.0000099   0.0000000), wk =   0.1250000
        k(    9) = (  -0.0759910   0.0419252   0.0000000), wk =   0.2500000
        k(   10) = (  -0.0759910  -0.0838800   0.0000000), wk =   0.1250000

     Initial potential from superposition of free atoms

     starting charge  382.99914, renormalised to  399.00000

     negative rho (up, down):  1.614E-02 0.000E+00

     %%%%%%%%%%%%%%%%%%%%%%%%%%%%%%%%%%%%%%%%%%%%%%%%%%%%%%%%%%%%%%%%%%%%%%%%
     %                                                                      %
     % You are using vdW-DF, which was implemented by the Thonhauser group. %
     % Please cite the following two papers that made this development      %
     % possible and the two reviews that describe the various versions:     %
     %                                                                      %
     %   T. Thonhauser et al., PRL 115, 136402 (2015).                      %
     %   T. Thonhauser et al., PRB 76, 125112 (2007).                       %
     %   K. Berland et al., Rep. Prog. Phys. 78, 066501 (2015).             %
     %   D.C. Langreth et al., J. Phys.: Condens. Matter 21, 084203 (2009). %
     %                                                                      %
     %                                                                      %
     % If you are calculating the stress with vdW-DF, please also cite:     %
     %                                                                      %
     %   R. Sabatini et al., J. Phys.: Condens. Matter 24, 424209 (2012).   %
     %                                                                      %
     %%%%%%%%%%%%%%%%%%%%%%%%%%%%%%%%%%%%%%%%%%%%%%%%%%%%%%%%%%%%%%%%%%%%%%%%

     Adding external electric field

     Computed dipole along edir(3) :
        Dipole              -11.3161 Ry au,        -28.7627 Debye
        Dipole field         -0.0214 Ry au,

        Potential amp.        1.9796 Ry
        Total length         46.3494 bohr

     Starting wfcs are  302 atomic wfcs
  @ DRIVER MODE: Message from server: STATUS
  @ DRIVER MODE: Message from server: POSDATA
  @ DRIVER MODE: Reading and sharing cell
  @ DRIVER MODE: Reading and sharing positions
  @ DRIVER MODE: Received positions

     Self-consistent Calculation

     iteration #  1     ecut=    29.40 Ry     beta= 0.05
     Davidson diagonalization with overlap
     c_bands:  3 eigenvalues not converged
     c_bands:  3 eigenvalues not converged
     c_bands:  1 eigenvalues not converged
     c_bands:  4 eigenvalues not converged
     c_bands:  1 eigenvalues not converged
     c_bands:  1 eigenvalues not converged
     c_bands:  1 eigenvalues not converged
     c_bands:  2 eigenvalues not converged
     c_bands:  3 eigenvalues not converged
     ethr =  1.00E-05,  avg # of iterations = 24.0

[...]

     total energy              =   -2437.55497401 Ry
     estimated scf accuracy    <    5825.81494175 Ry

     iteration #  2     ecut=    29.40 Ry     beta= 0.05
     Davidson diagonalization with overlap
     ethr =  1.00E-02,  avg # of iterations = 26.4

[...]

     iteration # 75     ecut=    29.40 Ry     beta= 0.05
     Davidson diagonalization with overlap
     c_bands:  1 eigenvalues not converged
     ethr =  7.67E-11,  avg # of iterations = 12.8

[...]

     total energy              =   -2955.08680407 Ry
     estimated scf accuracy    <       0.00000008 Ry

     iteration # 78     ecut=    29.40 Ry     beta= 0.05
     Davidson diagonalization with overlap
     ethr =  1.90E-11,  avg # of iterations =  8.9

     negative rho (up, down):  1.531E-02 0.000E+00

     Adding external electric field

     Computed dipole along edir(3) :
        Dipole                0.9553 Ry au,          2.4283 Debye
        Dipole field          0.0018 Ry au,

        Potential amp.       -0.1671 Ry
        Total length         46.3494 bohr

     End of self-consistent calculation

          k = 0.0000 0.0000 0.0000 ( 18029 PWs)   bands (ev):

   -55.5444 -55.5110 -55.5079 -55.4900 -55.4768 -55.4283 -55.3920 -55.3725
   -55.3556 -55.3430 -55.3376 -55.3094 -55.2978 -55.1154 -54.5367 -54.5026
   -32.1004 -32.0031 -31.9166 -31.9014 -31.8768 -31.8613 -31.8477 -31.8427
   -31.7999 -31.7647 -31.7591 -31.7558 -31.7459 -31.7215 -31.7162 -31.6954
   -31.6858 -31.6832 -31.6716 -31.6632 -31.6420 -31.6245 -31.6074 -31.6012
   -31.5721 -31.5681 -31.5637 -31.5610 -31.5587 -31.5461 -31.5369 -31.5300
   -31.5259 -31.5206 -31.5099 -31.4979 -31.4862 -31.4710 -31.4692 -31.4539
   -31.3408 -31.2964 -30.9458 -30.8521 -30.8300 -30.7622 -30.6755 -30.5645
   -19.2611 -16.4020 -16.3116 -16.0888 -15.9241 -15.8448 -15.7478 -15.6074
   -15.5360 -15.4253 -15.3891 -15.2303 -15.2058 -15.1995 -15.1644 -15.1477
   -15.1077 -15.0895 -15.0606 -15.0492 -15.0474 -15.0256 -14.9890 -14.9851
   -14.9426 -14.9295 -14.8712 -14.7745 -14.7064 -14.6423 -14.3301 -13.0392
   -12.9218  -9.2160  -7.0409  -6.5572  -4.6068  -3.7167  -3.5818  -3.5627
    -3.5037  -3.4491  -3.4070  -3.3008  -3.0704  -3.0234  -2.9795  -2.9320
    -2.8124  -2.7409  -2.7370  -2.6578  -2.5822  -2.5402  -2.4860  -2.4768
    -2.3989  -2.3648  -2.3470  -2.3237  -2.2804  -2.2527  -2.2112  -2.1199
    -2.0989  -2.0220  -1.9916  -1.9470  -1.9434  -1.8955  -1.8776  -1.8388
    -1.8376  -1.8281  -1.8075  -1.7697  -1.7271  -1.6735  -1.5805  -1.5552
    -1.3872  -1.2757  -1.2110  -1.1834  -1.1310  -1.0995  -1.0338  -0.9856
    -0.9717  -0.9351  -0.8683  -0.7658  -0.6994  -0.6877  -0.6275  -0.5362
    -0.4783  -0.4410  -0.3582  -0.3323  -0.3136  -0.3083  -0.2445  -0.1764
    -0.1300  -0.0561  -0.0400   0.0159   0.0384   0.0884   0.1195   0.1860
     0.2419   0.2821   0.3340   0.3883   0.3899   0.4048   0.4399   0.4415
     0.5415   0.5535   0.5757   0.6764   0.7754   0.9630   1.0617   1.0965
     1.3942   1.4096   1.4862   1.6706   2.0616   2.1097   3.5166   3.5468
     3.6306   3.6859   3.6949   3.7246   3.7814   4.0346   4.0462   4.0682
     4.0812

[...]

          k = 0.0380-0.0419 0.0000 ( 17876 PWs)   bands (ev):

[...]

          k =-0.0760-0.0000 0.0000 ( 17886 PWs)   bands (ev):

[...]

          k =-0.0760-0.0839 0.0000 ( 17948 PWs)   bands (ev):

   -55.5300 -55.5222 -55.4940 -55.4937 -55.4877 -55.4160 -55.4043 -55.3578
   -55.3576 -55.3518 -55.3265 -55.3261 -55.2960 -55.1171 -54.5197 -54.5194
   -31.9121 -31.8998 -31.8183 -31.8180 -31.8014 -31.8004 -31.7893 -31.7853
   -31.7852 -31.7688 -31.7577 -31.7505 -31.7331 -31.7155 -31.6961 -31.6903
   -31.6872 -31.6850 -31.6805 -31.6738 -31.6711 -31.6613 -31.6335 -31.6325
   -31.6135 -31.6133 -31.6106 -31.6010 -31.5898 -31.5815 -31.5712 -31.5654
   -31.5562 -31.5560 -31.5534 -31.5440 -31.5144 -31.5061 -31.5056 -31.4833
   -31.3800 -31.3437 -30.8428 -30.8426 -30.7584 -30.7582 -30.7189 -30.7188
   -19.2603 -16.3308 -15.8855 -15.7863 -15.6563 -15.5733 -15.5506 -15.4773
   -15.4193 -15.3855 -15.3293 -15.3062 -15.2924 -15.2769 -15.2421 -15.2168
   -15.1971 -15.1534 -15.1360 -15.1179 -15.0867 -15.0613 -15.0503 -15.0451
   -15.0394 -15.0048 -15.0004 -14.9154 -14.9057 -14.9022 -14.5721 -13.0234
   -13.0233  -9.2150  -7.0712  -6.4986  -4.5897  -3.5424  -3.0954  -3.0498
    -2.9954  -2.8559  -2.7959  -2.7301  -2.6943  -2.6514  -2.6010  -2.5675
    -2.5494  -2.4984  -2.4907  -2.4256  -2.4100  -2.3945  -2.3760  -2.3726
    -2.3642  -2.3269  -2.2920  -2.2784  -2.2715  -2.2621  -2.2488  -2.2017
    -2.1863  -2.1550  -2.1454  -2.1116  -2.0825  -2.0525  -1.9409  -1.9073
    -1.8831  -1.8195  -1.7542  -1.7484  -1.6671  -1.6453  -1.5892  -1.5854
    -1.5682  -1.5277  -1.4001  -1.2935  -1.2822  -1.2312  -1.1986  -1.1748
    -1.1119  -1.0613  -1.0066  -1.0036  -0.9126  -0.8666  -0.8401  -0.7383
    -0.7079  -0.7004  -0.5833  -0.5582  -0.5200  -0.5085  -0.5021  -0.4431
    -0.4356  -0.4116  -0.3293  -0.3103  -0.2832  -0.2716  -0.2094  -0.0490
    -0.0182   0.0262   0.1540   0.1932   0.3565   0.3877   0.4200   0.5259
     0.5711   0.6184   0.6229   0.7460   0.7559   0.8431   0.8544   0.8723
     0.9083   0.9200   1.8430   1.8444   1.9296   1.9298   3.5325   3.7758
     3.8413   3.8486   3.8858   4.0221   4.0659   4.1244   4.1279   4.1375
     4.1560

     the Fermi energy is     3.6030 ev

!    total energy              =   -2955.08682091 Ry
     estimated scf accuracy    <       0.00000006 Ry
     smearing contrib. (-TS)   =      -0.04072460 Ry
     internal energy E=F+TS    =   -2955.04609631 Ry

     The total energy is F=E-TS. E is the sum of the following terms:
     one-electron contribution =  -23873.80880014 Ry
     hartree contribution      =   12029.06053554 Ry
     xc contribution           =    -489.73720512 Ry
     ewald contribution        =    9379.43765105 Ry
     electric field correction =       0.00172236 Ry

     convergence has been achieved in  78 iterations

     Forces acting on atoms (cartesian axes, Ry/au):

     atom    1 type  1   force =    -0.00000529   -0.00025573    0.09340106
     atom    2 type  1   force =    -0.00015548   -0.00040145   -0.17804509
     atom    3 type  2   force =     0.00001219   -0.00034784   -0.02032764
     atom    4 type  2   force =    -0.00003673   -0.00190381    0.05857036
     atom    5 type  2   force =    -0.01018591   -0.00085177    0.00744646
     atom    6 type  2   force =     0.01152493   -0.00017872    0.00624640
     atom    7 type  1   force =    -0.00076606    0.00202632   -0.01057354
     atom    8 type  1   force =     0.00031872    0.00073897   -0.00334927
     atom    9 type  2   force =     0.00024304    0.00042280    0.00013883
     atom   10 type  2   force =    -0.00108480    0.00267581   -0.00408004
     atom   11 type  2   force =    -0.00027934    0.00005416    0.00001120
     atom   12 type  2   force =    -0.00003698   -0.00002854    0.00011347
     atom   13 type  1   force =     0.00075032    0.00071956    0.00039292
     atom   14 type  1   force =    -0.00093432   -0.00011396   -0.00009480
     atom   15 type  2   force =    -0.00013874   -0.00028190    0.00057758
     atom   16 type  2   force =     0.00032190    0.00054823    0.00001192
     atom   17 type  2   force =     0.00015718   -0.00029926    0.00032349
     atom   18 type  2   force =     0.00059669    0.00026373    0.00000986
     atom   19 type  1   force =    -0.00087499   -0.00069259    0.00004843
     atom   20 type  1   force =     0.00026691   -0.00052753   -0.00042269
     atom   21 type  2   force =     0.00002112   -0.00011484    0.10392232
     atom   22 type  2   force =    -0.00005850   -0.00134205    0.00058866
     atom   23 type  2   force =    -0.07052927   -0.00021172   -0.02692225
     atom   24 type  2   force =     0.07034786    0.00022635   -0.02696757
     atom   25 type  1   force =     0.00003688   -0.00022119    0.09300285
     atom   26 type  1   force =    -0.00023770   -0.00043323   -0.17801291
     atom   27 type  2   force =     0.00006944   -0.00024668   -0.01930906
     atom   28 type  2   force =     0.00002399   -0.00162558    0.05766603
     atom   29 type  2   force =    -0.01077022   -0.00046386    0.00807506
     atom   30 type  2   force =     0.01198752   -0.00007440    0.00683652
     atom   31 type  1   force =    -0.00063623    0.00609276   -0.01380878
     atom   32 type  1   force =     0.00028399   -0.00085177   -0.00340570
     atom   33 type  2   force =     0.00014318    0.00006960    0.00000105
     atom   34 type  2   force =    -0.00051184   -0.00107154   -0.00268033
     atom   35 type  2   force =    -0.00041737    0.00006111    0.00003546
     atom   36 type  2   force =     0.00005023    0.00001525    0.00025706
     atom   37 type  1   force =     0.00083023   -0.00082350    0.00023154
     atom   38 type  1   force =    -0.00088661    0.00034081   -0.00055596
     atom   39 type  2   force =    -0.00024494   -0.00014018   -0.00012633
     atom   40 type  2   force =     0.00033756    0.00014610    0.00043195
     atom   41 type  2   force =     0.00005425   -0.00022080    0.00008744
     atom   42 type  2   force =     0.00055061   -0.00015167   -0.00045766
     atom   43 type  1   force =    -0.00127483    0.00017304    0.00027791
     atom   44 type  1   force =     0.00134501   -0.00047836   -0.00033509
     atom   45 type  2   force =     0.00000950   -0.00012051    0.10391743
     atom   46 type  2   force =    -0.07052428   -0.00017041   -0.02690070
     atom   47 type  2   force =     0.07035454    0.00026866   -0.02697016
     atom   48 type  3   force =     0.00067912   -0.00026182    0.00031017
     atom   49 type  4   force =     0.00081545    0.00142307   -0.00003615
     atom   50 type  5   force =    -0.00050375   -0.00092315   -0.00059776
     atom   51 type  5   force =     0.00018761    0.00004461    0.00029393
     atom   52 type  5   force =     0.00030178   -0.00020726   -0.00024362
     atom   53 type  5   force =    -0.00039214   -0.00023209    0.00067183
     atom   54 type  2   force =    -0.00663745    0.00421152   -0.00383516
     atom   55 type  5   force =     0.00578917   -0.00429647    0.00394904
     atom   56 type  5   force =    -0.00028715    0.00004369    0.00021004

     Total force =     0.365966     Total SCF correction =     0.000750
  @ DRIVER MODE: Message from server: STATUS
  @ DRIVER MODE: Message from server: GETFORCE
  @ DRIVER MODE: Returning v,forces,stress,ensemble

     Writing output data file ./calc.save/
  @ DRIVER MODE: Message from server: EXIT
  @ DRIVE MODE: Exiting

     General routines

     Parallel routines

   This run was terminated on:   7:54:26  16Sep2021

   JOB DONE.