     Program PWSCF v.6.7GPU starts on 23Sep2021 at 12: 5: 4

     R & G space division:  proc/nbgrp/npool/nimage =       8
     Reading input from /storage/home/hcoda1/3/ntian30/research/carbon/CxH_vib/H2O_calc/ads_slab/CH2NHHO_a/out_0035/pw.inp
Warning: card &CELL ignored
Warning: card   CELL_DYNAMICS='IPI', ignored
Warning: card / ignored

     Current dimensions of program PWSCF are:
     Max number of different atomic species (ntypx) = 10
     Max number of k-points (npk) =  40000
     Max angular momentum in pseudopotentials (lmaxx) =  3
     Presently no symmetry can be used with electric field

     Message from routine cell_base_init:
     DEPRECATED: use true lattice parameter, not A to a.u. conversion factor

     IMPORTANT: XC functional enforced from input :
     Exchange-correlation= BEEF-VDW
                           (   1   4  43  14   2   0   0)
     Any further DFT definition will be discarded
     Please, verify this is what you really want

  @ DRIVER MODE: Connecting to
 qe_1139763_2941012.sched-torque.pace.gatech.edu0biu9pmy_scratch
  using UNIX socket
  @ DRIVER MODE: Message from server: STATUS
  @ DRIVER MODE: Message from server: INIT
  @ DRIVER MODE: Receiving replica           0          -1
  @ DRIVER MODE: Receiving encoded integer          25
  @ DRIVER MODE:  SCF:  T  FORCE:  T  STRESS:  F  VC:  F  ENSEMBLE:  F
  @ DRIVER MODE:  SCF:  T  FORCE:  T  STRESS:  F  VC:  F  ENSEMBLE:  F

     Using Slab Decomposition

     bravais-lattice index     =            0
     lattice parameter (alat)  =       1.8897  a.u.
     unit-cell volume          =    6658.9804 (a.u.)^3
     number of atoms/cell      =           54
     number of atomic types    =            5
     number of electrons       =       397.00
     number of Kohn-Sham states=          208
     kinetic-energy cutoff     =      29.3995  Ry
     charge density cutoff     =     293.9946  Ry
     scf convergence threshold =      7.3E-08
     mixing beta               =       0.0500
     number of iterations used =            8  plain     mixing
     Exchange-correlation= BEEF-VDW
                           (   1   4  43  14   2   0   0)

     celldm(1)=   1.889726  celldm(2)=   0.000000  celldm(3)=   0.000000
     celldm(4)=   0.000000  celldm(5)=   0.000000  celldm(6)=   0.000000

     crystal axes: (cart. coord. in units of alat)
               a(1) = (   6.579727   0.000000   0.000000 )
               a(2) = (  -0.000775   5.961596   0.000000 )
               a(3) = (   0.000000   0.000000  25.155947 )

     reciprocal axes: (cart. coord. in units 2 pi/alat)
               b(1) = (  0.151982  0.000020  0.000000 )
               b(2) = (  0.000000  0.167740  0.000000 )
               b(3) = (  0.000000  0.000000  0.039752 )

     PseudoPot. # 1 for Ti read from file:
     /storage/coda1/p-amedford6/0/shared/rich_project_chbe-medford/medford-share/data/pseudos_module/espresso/nninc/pbe/van/Ti.UPF
     MD5 check sum: 8e4df49b7f0d34bbd5052bf3f5ea0213
     Pseudo is Ultrasoft, Zval = 12.0
     Generated by new atomic code, or converted to UPF format
     Using radial grid of  851 points,  6 beta functions with:
                l(1) =   0
                l(2) =   0
                l(3) =   1
                l(4) =   1
                l(5) =   2
                l(6) =   2
     Q(r) pseudized with  8 coefficients,  rinner =    1.000   1.000   1.000
                                                       1.000   1.000

     PseudoPot. # 2 for O  read from file:
     /storage/coda1/p-amedford6/0/shared/rich_project_chbe-medford/medford-share/data/pseudos_module/espresso/nninc/pbe/van/O.UPF
     MD5 check sum: 78c19812648e8988a0fe644b0f25305e
     Pseudo is Ultrasoft, Zval =  6.0
     Generated by new atomic code, or converted to UPF format
     Using radial grid of  737 points,  4 beta functions with:
                l(1) =   0
                l(2) =   0
                l(3) =   1
                l(4) =   1
     Q(r) pseudized with  8 coefficients,  rinner =    0.800   0.800   0.800

     PseudoPot. # 3 for N  read from file:
     /storage/coda1/p-amedford6/0/shared/rich_project_chbe-medford/medford-share/data/pseudos_module/espresso/nninc/pbe/van/N.UPF
     MD5 check sum: 90d10febe142ad51ac9d5be1deb811c4
     Pseudo is Ultrasoft, Zval =  5.0
     Generated by new atomic code, or converted to UPF format
     Using radial grid of  729 points,  4 beta functions with:
                l(1) =   0
                l(2) =   0
                l(3) =   1
                l(4) =   1
     Q(r) pseudized with  8 coefficients,  rinner =    0.800   0.800   0.800

     PseudoPot. # 4 for C  read from file:
     /storage/coda1/p-amedford6/0/shared/rich_project_chbe-medford/medford-share/data/pseudos_module/espresso/nninc/pbe/van/C.UPF
     MD5 check sum: 1a69bf6b8db32088f5b2163dbdb77a27
     Pseudo is Ultrasoft, Zval =  4.0
     Generated by new atomic code, or converted to UPF format
     Using radial grid of  721 points,  4 beta functions with:
                l(1) =   0
                l(2) =   0
                l(3) =   1
                l(4) =   1
     Q(r) pseudized with  8 coefficients,  rinner =    0.800   0.800   0.800

     PseudoPot. # 5 for H  read from file:
     /storage/coda1/p-amedford6/0/shared/rich_project_chbe-medford/medford-share/data/pseudos_module/espresso/nninc/pbe/van/H.UPF
     MD5 check sum: b5ee9d7bfd3a09ee7748110bda690ff7
     Pseudo is Ultrasoft, Zval =  1.0
     Generated by new atomic code, or converted to UPF format
     Using radial grid of  615 points,  1 beta functions with:
                l(1) =   0
     Q(r) pseudized with  8 coefficients,  rinner =    0.800

     atomic species   valence    mass     pseudopotential
        Ti1           12.00    47.86700     Ti( 1.00)
        O1             6.00    15.99900     O ( 1.00)
        N1             5.00    14.00700     N ( 1.00)
        C1             4.00    12.01100     C ( 1.00)
        H1             1.00     1.00800     H ( 1.00)

     No symmetry found

   Cartesian axes

     site n.     atom                  positions (alat units)
         1           Ti1 tau(   1) = (   0.0004258   2.9801865   6.0000000  )
         2           Ti1 tau(   2) = (   3.2906075   1.4906267   6.0002472  )
         3           O1  tau(   3) = (   0.0006271   0.0005054   7.9858123  )
         4           O1  tau(   4) = (   3.2906025   0.0005020   7.3038282  )
         5           O1  tau(   5) = (   4.5942328   1.4918067   9.2879030  )
         6           O1  tau(   6) = (   1.9868534   1.4903216   9.2879459  )
         7           Ti1 tau(   7) = (   3.2907910   2.8959150   9.1758416  )
         8           Ti1 tau(   8) = (   0.0015273   1.4827037   9.2680791  )
         9           O1  tau(   9) = (   3.2872377   5.9372537  11.3619719  )
        10           O1  tau(  10) = (   0.0116148   5.9584955  10.6183126  )
        11           O1  tau(  11) = (   1.2678424   1.4880610  12.6451974  )
        12           O1  tau(  12) = (   5.2928823   1.5036634  12.6399001  )
        13           Ti1 tau(  13) = (   6.5521701   2.9315368  12.5404127  )
        14           Ti1 tau(  14) = (   3.2895327   1.2997526  12.7137971  )
        15           O1  tau(  15) = (   6.5477037   0.0845492  14.6505624  )
        16           O1  tau(  16) = (   3.2827468   0.0880329  14.0175491  )
        17           O1  tau(  17) = (   4.5427558   1.5765460  16.1196870  )
        18           O1  tau(  18) = (   1.9971221   1.5491956  16.2097298  )
        19           Ti1 tau(  19) = (   3.2670693   3.0250103  15.6873951  )
        20           Ti1 tau(  20) = (   6.4806419   1.4532933  16.0069425  )
        21           O1  tau(  21) = (   3.2904802   0.0005063   4.7018136  )
        22           O1  tau(  22) = (   6.5100566   5.8635464  17.1664964  )
        23           O1  tau(  23) = (   1.3043587   1.4918075   6.0039043  )
        24           O1  tau(  24) = (   5.2767064   1.4903225   6.0039473  )
        25           Ti1 tau(  25) = (   0.0000382   5.9609847   6.0000000  )
        26           Ti1 tau(  26) = (   3.2902200   4.4714249   6.0002472  )
        27           O1  tau(  27) = (   0.0002396   2.9813036   7.9858123  )
        28           O1  tau(  28) = (   3.2902150   2.9813002   7.3038282  )
        29           O1  tau(  29) = (   4.5938453   4.4726049   9.2879030  )
        30           O1  tau(  30) = (   1.9864658   4.4711199   9.2879459  )
        31           Ti1 tau(  31) = (   3.2891106   5.8743827   9.1763621  )
        32           Ti1 tau(  32) = (   0.0006254   4.4649316   9.2693709  )
        33           O1  tau(  33) = (   3.2826969   3.0075535  11.3127327  )
        34           O1  tau(  34) = (   0.0092240   2.9805883  10.6323155  )
        35           O1  tau(  35) = (   1.2713698   4.4757098  12.6731835  )
        36           O1  tau(  36) = (   5.2977781   4.4601507  12.6712348  )
        37           Ti1 tau(  37) = (   0.0330522   5.9225719  12.5042524  )
        38           Ti1 tau(  38) = (   3.2990360   4.3766664  12.4405836  )
        39           O1  tau(  39) = (   0.0150134   2.9421642  14.8567636  )
        40           O1  tau(  40) = (   3.2596324   2.9836344  13.9148061  )
        41           O1  tau(  41) = (   4.5490916   4.3969069  16.0525170  )
        42           O1  tau(  42) = (   1.9960638   4.4622821  16.0939853  )
        43           Ti1 tau(  43) = (   3.1777156   0.0378257  16.2738330  )
        44           Ti1 tau(  44) = (   6.5243348   4.6462111  15.7996153  )
        45           O1  tau(  45) = (   3.2900926   2.9813045   4.7018136  )
        46           O1  tau(  46) = (   1.3039711   4.4726057   6.0039043  )
        47           O1  tau(  47) = (   5.2763189   4.4711207   6.0039473  )
        48           N1  tau(  48) = (   6.4646383   2.7559932  17.9272311  )
        49           C1  tau(  49) = (   0.7552072   2.7164238  18.8602713  )
        50           H1  tau(  50) = (   0.5916026   3.1878006  19.8266510  )
        51           H1  tau(  51) = (   1.6887153   2.1901376  18.6919226  )
        52           H1  tau(  52) = (   5.6107037   3.2511282  18.1874541  )
        53           O1  tau(  53) = (   3.4589997   5.9358250  18.1044358  )
        54           H1  tau(  54) = (   4.3999295   5.9567086  18.3589960  )

     number of k points=    10  Fermi-Dirac smearing, width (Ry)=  0.0073
                       cart. coord. in units 2pi/alat
        k(    1) = (   0.0000000   0.0000000   0.0000000), wk =   0.1250000
        k(    2) = (   0.0000000   0.0419351   0.0000000), wk =   0.2500000
        k(    3) = (   0.0000000  -0.0838702   0.0000000), wk =   0.1250000
        k(    4) = (   0.0379955   0.0000049   0.0000000), wk =   0.2500000
        k(    5) = (   0.0379955   0.0419400   0.0000000), wk =   0.2500000
        k(    6) = (   0.0379955  -0.0838652   0.0000000), wk =   0.2500000
        k(    7) = (   0.0379955  -0.0419301   0.0000000), wk =   0.2500000
        k(    8) = (  -0.0759910  -0.0000099   0.0000000), wk =   0.1250000
        k(    9) = (  -0.0759910   0.0419252   0.0000000), wk =   0.2500000
        k(   10) = (  -0.0759910  -0.0838800   0.0000000), wk =   0.1250000

     Initial potential from superposition of free atoms

     starting charge  380.99916, renormalised to  397.00000

     negative rho (up, down):  1.654E-02 0.000E+00

     %%%%%%%%%%%%%%%%%%%%%%%%%%%%%%%%%%%%%%%%%%%%%%%%%%%%%%%%%%%%%%%%%%%%%%%%
     %                                                                      %
     % You are using vdW-DF, which was implemented by the Thonhauser group. %
     % Please cite the following two papers that made this development      %
     % possible and the two reviews that describe the various versions:     %
     %                                                                      %
     %   T. Thonhauser et al., PRL 115, 136402 (2015).                      %
     %   T. Thonhauser et al., PRB 76, 125112 (2007).                       %
     %   K. Berland et al., Rep. Prog. Phys. 78, 066501 (2015).             %
     %   D.C. Langreth et al., J. Phys.: Condens. Matter 21, 084203 (2009). %
     %                                                                      %
     %                                                                      %
     % If you are calculating the stress with vdW-DF, please also cite:     %
     %                                                                      %
     %   R. Sabatini et al., J. Phys.: Condens. Matter 24, 424209 (2012).   %
     %                                                                      %
     %%%%%%%%%%%%%%%%%%%%%%%%%%%%%%%%%%%%%%%%%%%%%%%%%%%%%%%%%%%%%%%%%%%%%%%%

     Adding external electric field

     Computed dipole along edir(3) :
        Dipole               -9.2951 Ry au,        -23.6257 Debye
        Dipole field         -0.0175 Ry au,

        Potential amp.        1.6260 Ry
        Total length         46.3494 bohr

     Starting wfcs are  300 atomic wfcs
  @ DRIVER MODE: Message from server: STATUS
  @ DRIVER MODE: Message from server: POSDATA
  @ DRIVER MODE: Reading and sharing cell
  @ DRIVER MODE: Reading and sharing positions
  @ DRIVER MODE: Received positions

     Self-consistent Calculation

     iteration #  1     ecut=    29.40 Ry     beta= 0.05
     Davidson diagonalization with overlap
     c_bands:  1 eigenvalues not converged
     c_bands:  1 eigenvalues not converged
     c_bands:  2 eigenvalues not converged
     c_bands:  1 eigenvalues not converged
     c_bands:  1 eigenvalues not converged
     c_bands:  2 eigenvalues not converged
     c_bands:  1 eigenvalues not converged
     c_bands:  1 eigenvalues not converged
     c_bands:  3 eigenvalues not converged
     ethr =  1.00E-05,  avg # of iterations = 19.6

[...]

     total energy              =   -2534.81689284 Ry
     estimated scf accuracy    <    4638.88955376 Ry

     iteration #  2     ecut=    29.40 Ry     beta= 0.05
     Davidson diagonalization with overlap
     ethr =  1.00E-02,  avg # of iterations = 24.6

[...]

     iteration # 53     ecut=    29.40 Ry     beta= 0.05
     Davidson diagonalization with overlap
     c_bands:  1 eigenvalues not converged
     ethr =  2.54E-11,  avg # of iterations = 12.6

[...]

     total energy              =   -2952.74681221 Ry
     estimated scf accuracy    <       0.00000023 Ry

     iteration # 54     ecut=    29.40 Ry     beta= 0.05
     Davidson diagonalization with overlap
     ethr =  2.54E-11,  avg # of iterations =  6.7

     negative rho (up, down):  1.672E-02 0.000E+00

     Adding external electric field

     Computed dipole along edir(3) :
        Dipole                1.0958 Ry au,          2.7853 Debye
        Dipole field          0.0021 Ry au,

        Potential amp.       -0.1917 Ry
        Total length         46.3494 bohr

     End of self-consistent calculation

          k = 0.0000 0.0000 0.0000 ( 18029 PWs)   bands (ev):

   -55.6487 -55.6330 -55.5990 -55.4613 -55.4544 -55.4266 -55.4260 -55.4210
   -55.4029 -55.3927 -55.3434 -55.2343 -55.2185 -55.1659 -54.5985 -54.5645
   -32.1166 -31.9781 -31.9576 -31.9497 -31.9450 -31.9242 -31.9180 -31.8783
   -31.8763 -31.8632 -31.8266 -31.7855 -31.7463 -31.7386 -31.7291 -31.7264
   -31.7079 -31.6905 -31.6699 -31.6589 -31.6560 -31.6497 -31.6286 -31.6177
   -31.6079 -31.6025 -31.5926 -31.5841 -31.5831 -31.5707 -31.5688 -31.5637
   -31.5587 -31.5395 -31.5133 -31.4990 -31.4315 -31.4224 -31.4085 -31.3787
   -31.3727 -31.3716 -31.0041 -30.9189 -30.8964 -30.8217 -30.7354 -30.6235
   -16.7161 -16.4580 -16.2494 -16.0755 -15.8613 -15.7866 -15.7495 -15.5529
   -15.4662 -15.4022 -15.1688 -15.1651 -15.1526 -15.1317 -15.1045 -15.0940
   -15.0840 -15.0497 -15.0480 -15.0255 -14.9990 -14.9664 -14.9578 -14.9097
   -14.8599 -14.8425 -14.7635 -14.6901 -14.6431 -14.4398 -14.3176 -13.0966
   -12.9804  -9.3293  -6.3449  -4.7350  -4.0038  -3.6179  -3.5322  -3.4972
    -3.4213  -3.3722  -3.1356  -3.0002  -2.9528  -2.8683  -2.7554  -2.7305
    -2.6701  -2.6131  -2.5452  -2.5219  -2.4795  -2.4240  -2.4012  -2.3704
    -2.3617  -2.3297  -2.2781  -2.2157  -2.1546  -2.1304  -2.0708  -1.9933
    -1.9462  -1.9421  -1.9348  -1.9141  -1.8899  -1.8677  -1.8449  -1.8334
    -1.7310  -1.6777  -1.6586  -1.6049  -1.5596  -1.3055  -1.2272  -1.2185
    -1.1462  -1.0963  -1.0634  -1.0458  -1.0172  -0.9778  -0.9226  -0.8862
    -0.8065  -0.7583  -0.6999  -0.6798  -0.6327  -0.5578  -0.4732  -0.4228
    -0.3989  -0.3410  -0.3329  -0.3077  -0.1853  -0.1480  -0.1375  -0.0818
    -0.0609   0.0480   0.0919   0.1264   0.1621   0.2479   0.2726   0.3132
     0.3151   0.3492   0.3564   0.4463   0.4518   0.4812   0.5440   0.5700
     0.6485   0.7196   0.7271   0.8731   0.9294   1.0207   1.0526   1.1432
     1.3791   1.4283   1.4866   1.6220   1.9945   2.0395   3.4605   3.6058
     3.6230   3.7181   3.7202   3.8265   3.9346   3.9912   4.0262   4.1428

[...]

          k = 0.0380-0.0419 0.0000 ( 17876 PWs)   bands (ev):

[...]

          k =-0.0760-0.0000 0.0000 ( 17886 PWs)   bands (ev):

[...]

          k =-0.0760-0.0839 0.0000 ( 17948 PWs)   bands (ev):

   -55.6478 -55.6162 -55.6156 -55.4451 -55.4421 -55.4378 -55.4371 -55.4250
   -55.4037 -55.3860 -55.3501 -55.2301 -55.2199 -55.1700 -54.5819 -54.5810
   -31.9321 -31.9318 -31.9132 -31.9100 -31.9095 -31.9044 -31.8697 -31.8616
   -31.7963 -31.7691 -31.7684 -31.7594 -31.7538 -31.7361 -31.7354 -31.7291
   -31.7104 -31.7082 -31.6945 -31.6741 -31.6614 -31.6496 -31.6466 -31.6397
   -31.6359 -31.6322 -31.6292 -31.6128 -31.6088 -31.6056 -31.6035 -31.6029
   -31.5897 -31.5728 -31.5700 -31.5129 -31.4973 -31.4532 -31.4349 -31.4260
   -31.4170 -31.3758 -30.9094 -30.9088 -30.8176 -30.8164 -30.7790 -30.7782
   -16.6954 -16.4414 -15.8152 -15.7056 -15.5861 -15.5775 -15.4644 -15.3921
   -15.3564 -15.3276 -15.3097 -15.2988 -15.2762 -15.2354 -15.1893 -15.1683
   -15.1364 -15.1185 -15.1060 -15.0652 -15.0497 -15.0399 -15.0212 -14.9769
   -14.9627 -14.9338 -14.9209 -14.7883 -14.7352 -14.6309 -14.5555 -13.0826
   -13.0821  -9.3344  -6.3410  -4.7202  -3.9864  -3.0196  -2.9229  -2.7936
    -2.6984  -2.6639  -2.6246  -2.6005  -2.5749  -2.5339  -2.5167  -2.4681
    -2.4233  -2.4065  -2.3950  -2.3653  -2.3608  -2.3523  -2.3204  -2.2997
    -2.2931  -2.2797  -2.2563  -2.2455  -2.2283  -2.2040  -2.1914  -2.1652
    -2.1441  -2.0977  -1.9912  -1.9362  -1.9068  -1.7774  -1.7643  -1.7435
    -1.7282  -1.7145  -1.6933  -1.6749  -1.6075  -1.5895  -1.5617  -1.3861
    -1.3696  -1.2775  -1.2447  -1.1999  -1.1356  -1.1215  -1.0717  -1.0435
    -0.9899  -0.9777  -0.8732  -0.8180  -0.7889  -0.7558  -0.6288  -0.5756
    -0.5697  -0.5595  -0.5298  -0.5094  -0.4658  -0.4476  -0.4144  -0.3487
    -0.3198  -0.3026  -0.2588  -0.2508  -0.1204  -0.0033   0.0814   0.1225
     0.1825   0.1994   0.2403   0.3478   0.4266   0.5068   0.5475   0.5674
     0.5993   0.6898   0.7052   0.8456   0.8784   0.8800   0.9196   0.9514
     0.9801   1.0236   1.7915   1.7996   1.8596   1.8600   3.7065   3.8386
     3.9686   3.9883   4.0006   4.0327   4.0376   4.0605   4.1103   4.1442

     the Fermi energy is     3.4919 ev

!    total energy              =   -2952.74689594 Ry
     estimated scf accuracy    <       0.00000006 Ry
     smearing contrib. (-TS)   =      -0.02002251 Ry
     internal energy E=F+TS    =   -2952.72687342 Ry

     The total energy is F=E-TS. E is the sum of the following terms:
     one-electron contribution =  -23995.00508133 Ry
     hartree contribution      =   12089.08189673 Ry
     xc contribution           =    -488.03331476 Ry
     ewald contribution        =    9441.22735975 Ry
     electric field correction =       0.00226619 Ry

     convergence has been achieved in  54 iterations

     Forces acting on atoms (cartesian axes, Ry/au):

     atom    1 type  1   force =     0.00016589   -0.00027696    0.09476133
     atom    2 type  1   force =    -0.00000318    0.00040287   -0.17489278
     atom    3 type  2   force =    -0.00001381   -0.00013327   -0.02196819
     atom    4 type  2   force =     0.00006355   -0.00191732    0.05339327
     atom    5 type  2   force =    -0.00732996   -0.00239851    0.00310000
     atom    6 type  2   force =     0.00859559   -0.00197503    0.00181334
     atom    7 type  1   force =    -0.00059502   -0.00347390    0.00961250
     atom    8 type  1   force =     0.00060732    0.00467834    0.00864135
     atom    9 type  2   force =     0.00008937    0.00014347   -0.00021099
     atom   10 type  2   force =    -0.00268998   -0.00030875   -0.01307272
     atom   11 type  2   force =    -0.00043431   -0.00035873   -0.00012349
     atom   12 type  2   force =     0.00021204   -0.00016803    0.00029419
     atom   13 type  1   force =     0.00040897    0.00018680   -0.00064441
     atom   14 type  1   force =    -0.00014722    0.00000151    0.00011801
     atom   15 type  2   force =     0.00025260   -0.00024569   -0.00037518
     atom   16 type  2   force =     0.00044887    0.00018306   -0.00041221
     atom   17 type  2   force =     0.00006212    0.00031171    0.00017392
     atom   18 type  2   force =    -0.00017888   -0.00051698   -0.00031539
     atom   19 type  1   force =     0.00020742    0.00044607    0.00007514
     atom   20 type  1   force =     0.00002119    0.00009968   -0.00011836
     atom   21 type  2   force =     0.00009656    0.00007478    0.10312818
     atom   22 type  2   force =     0.00000517   -0.00045023    0.00046610
     atom   23 type  2   force =    -0.07217038   -0.00014285   -0.02739154
     atom   24 type  2   force =     0.07211970    0.00026544   -0.02741805
     atom   25 type  1   force =     0.00002699   -0.00008294    0.09453268
     atom   26 type  1   force =    -0.00007637   -0.00132743   -0.17508345
     atom   27 type  2   force =     0.00015114   -0.00020347   -0.02073287
     atom   28 type  2   force =     0.00002325   -0.00018765    0.04898137
     atom   29 type  2   force =    -0.00615296    0.00259697    0.00154255
     atom   30 type  2   force =     0.00737510    0.00321827    0.00010288
     atom   31 type  1   force =    -0.00054940    0.00717104   -0.00086389
     atom   32 type  1   force =     0.00056026   -0.00651720    0.00787883
     atom   33 type  2   force =     0.00025642   -0.00024867   -0.00037901
     atom   34 type  2   force =    -0.00212708    0.00146927   -0.01189173
     atom   35 type  2   force =    -0.00011115    0.00001177    0.00016569
     atom   36 type  2   force =    -0.00020938    0.00011239    0.00028929
     atom   37 type  1   force =     0.00054158   -0.00010872   -0.00023716
     atom   38 type  1   force =    -0.00019056   -0.00011267    0.00037514
     atom   39 type  2   force =     0.00010738    0.00043578   -0.00036659
     atom   40 type  2   force =    -0.00014298    0.00029222   -0.00051678
     atom   41 type  2   force =     0.00037001    0.00007666   -0.00036925
     atom   42 type  2   force =    -0.00034466    0.00004470    0.00015695
     atom   43 type  1   force =    -0.00083975   -0.00080483   -0.00580588
     atom   44 type  1   force =     0.00016986    0.00051841    0.00004573
     atom   45 type  2   force =     0.00009703   -0.00009253    0.10293817
     atom   46 type  2   force =    -0.07218570   -0.00005583   -0.02742256
     atom   47 type  2   force =     0.07218798    0.00039713   -0.02745848
     atom   48 type  3   force =    -0.00007840   -0.00035606   -0.00051585
     atom   49 type  4   force =     0.00068685   -0.00036905   -0.00016250
     atom   50 type  5   force =    -0.00022247   -0.00003063    0.00006591
     atom   51 type  5   force =     0.00028952    0.00008082   -0.00039906
     atom   52 type  5   force =     0.00004817   -0.00017788   -0.00017362
     atom   53 type  2   force =     0.00559383   -0.00001394    0.00965720
     atom   54 type  5   force =    -0.00504813   -0.00016343   -0.00298774

     Total force =     0.362693     Total SCF correction =     0.000888
  @ DRIVER MODE: Message from server: STATUS
  @ DRIVER MODE: Message from server: GETFORCE
  @ DRIVER MODE: Returning v,forces,stress,ensemble

     Writing output data file ./calc.save/
  @ DRIVER MODE: Message from server: EXIT
  @ DRIVE MODE: Exiting

     General routines

     Parallel routines

   This run was terminated on:  12:23:45  23Sep2021

   JOB DONE.