     Program PWSCF v.6.7GPU starts on 25Aug2021 at  1: 3:20

     R & G space division:  proc/nbgrp/npool/nimage =       6
     Reading input from /storage/home/hcoda1/3/ntian30/research/carbon/CH3_vib_end_on/ads_slab/CH3N2H2_f/out_0016/pw.inp
Warning: card &CELL ignored
Warning: card   CELL_DYNAMICS='IPI', ignored
Warning: card / ignored

     Current dimensions of program PWSCF are:
     Max number of different atomic species (ntypx) = 10
     Max number of k-points (npk) =  40000
     Max angular momentum in pseudopotentials (lmaxx) =  3
     Presently no symmetry can be used with electric field

     Message from routine cell_base_init:
     DEPRECATED: use true lattice parameter, not A to a.u. conversion factor

     IMPORTANT: XC functional enforced from input :
     Exchange-correlation= BEEF-VDW
                           (   1   4  43  14   2   0   0)
     Any further DFT definition will be discarded
     Please, verify this is what you really want

  @ DRIVER MODE: Connecting to
 qe_1139763_2643870.sched-torque.pace.gatech.eduk0uurcpp_scratch
  using UNIX socket
  @ DRIVER MODE: Message from server: STATUS
  @ DRIVER MODE: Message from server: INIT
  @ DRIVER MODE: Receiving replica           0          -1
  @ DRIVER MODE: Receiving encoded integer          25
  @ DRIVER MODE:  SCF:  T  FORCE:  T  STRESS:  F  VC:  F  ENSEMBLE:  F
  @ DRIVER MODE:  SCF:  T  FORCE:  T  STRESS:  F  VC:  F  ENSEMBLE:  F

     Using Slab Decomposition

     bravais-lattice index     =            0
     lattice parameter (alat)  =       1.8897  a.u.
     unit-cell volume          =    6658.9804 (a.u.)^3
     number of atoms/cell      =           55
     number of atomic types    =            5
     number of electrons       =       397.00
     number of Kohn-Sham states=          208
     kinetic-energy cutoff     =      29.3995  Ry
     charge density cutoff     =     293.9946  Ry
     scf convergence threshold =      7.3E-08
     mixing beta               =       0.0500
     number of iterations used =            8  plain     mixing
     Exchange-correlation= BEEF-VDW
                           (   1   4  43  14   2   0   0)

     celldm(1)=   1.889726  celldm(2)=   0.000000  celldm(3)=   0.000000
     celldm(4)=   0.000000  celldm(5)=   0.000000  celldm(6)=   0.000000

     crystal axes: (cart. coord. in units of alat)
               a(1) = (   6.579727   0.000000   0.000000 )
               a(2) = (  -0.000775   5.961596   0.000000 )
               a(3) = (   0.000000   0.000000  25.155947 )

     reciprocal axes: (cart. coord. in units 2 pi/alat)
               b(1) = (  0.151982  0.000020  0.000000 )
               b(2) = (  0.000000  0.167740  0.000000 )
               b(3) = (  0.000000  0.000000  0.039752 )

     PseudoPot. # 1 for Ti read from file:
     /storage/coda1/p-amedford6/0/shared/rich_project_chbe-medford/medford-share/data/pseudos_module/espresso/nninc/pbe/van/Ti.UPF
     MD5 check sum: 8e4df49b7f0d34bbd5052bf3f5ea0213
     Pseudo is Ultrasoft, Zval = 12.0
     Generated by new atomic code, or converted to UPF format
     Using radial grid of  851 points,  6 beta functions with:
                l(1) =   0
                l(2) =   0
                l(3) =   1
                l(4) =   1
                l(5) =   2
                l(6) =   2
     Q(r) pseudized with  8 coefficients,  rinner =    1.000   1.000   1.000
                                                       1.000   1.000

     PseudoPot. # 2 for O  read from file:
     /storage/coda1/p-amedford6/0/shared/rich_project_chbe-medford/medford-share/data/pseudos_module/espresso/nninc/pbe/van/O.UPF
     MD5 check sum: 78c19812648e8988a0fe644b0f25305e
     Pseudo is Ultrasoft, Zval =  6.0
     Generated by new atomic code, or converted to UPF format
     Using radial grid of  737 points,  4 beta functions with:
                l(1) =   0
                l(2) =   0
                l(3) =   1
                l(4) =   1
     Q(r) pseudized with  8 coefficients,  rinner =    0.800   0.800   0.800

     PseudoPot. # 3 for N  read from file:
     /storage/coda1/p-amedford6/0/shared/rich_project_chbe-medford/medford-share/data/pseudos_module/espresso/nninc/pbe/van/N.UPF
     MD5 check sum: 90d10febe142ad51ac9d5be1deb811c4
     Pseudo is Ultrasoft, Zval =  5.0
     Generated by new atomic code, or converted to UPF format
     Using radial grid of  729 points,  4 beta functions with:
                l(1) =   0
                l(2) =   0
                l(3) =   1
                l(4) =   1
     Q(r) pseudized with  8 coefficients,  rinner =    0.800   0.800   0.800

     PseudoPot. # 4 for C  read from file:
     /storage/coda1/p-amedford6/0/shared/rich_project_chbe-medford/medford-share/data/pseudos_module/espresso/nninc/pbe/van/C.UPF
     MD5 check sum: 1a69bf6b8db32088f5b2163dbdb77a27
     Pseudo is Ultrasoft, Zval =  4.0
     Generated by new atomic code, or converted to UPF format
     Using radial grid of  721 points,  4 beta functions with:
                l(1) =   0
                l(2) =   0
                l(3) =   1
                l(4) =   1
     Q(r) pseudized with  8 coefficients,  rinner =    0.800   0.800   0.800

     PseudoPot. # 5 for H  read from file:
     /storage/coda1/p-amedford6/0/shared/rich_project_chbe-medford/medford-share/data/pseudos_module/espresso/nninc/pbe/van/H.UPF
     MD5 check sum: b5ee9d7bfd3a09ee7748110bda690ff7
     Pseudo is Ultrasoft, Zval =  1.0
     Generated by new atomic code, or converted to UPF format
     Using radial grid of  615 points,  1 beta functions with:
                l(1) =   0
     Q(r) pseudized with  8 coefficients,  rinner =    0.800

     atomic species   valence    mass     pseudopotential
        Ti1           12.00    47.86700     Ti( 1.00)
        O1             6.00    15.99900     O ( 1.00)
        N1             5.00    14.00700     N ( 1.00)
        C1             4.00    12.01100     C ( 1.00)
        H1             1.00     1.00800     H ( 1.00)

     No symmetry found

   Cartesian axes

     site n.     atom                  positions (alat units)
         1           Ti1 tau(   1) = (   0.0004258   2.9801865   6.0000000  )
         2           Ti1 tau(   2) = (   3.2906075   1.4906267   6.0002472  )
         3           O1  tau(   3) = (   0.0006271   0.0005054   7.9858123  )
         4           O1  tau(   4) = (   3.2906025   0.0005020   7.3038282  )
         5           O1  tau(   5) = (   4.5942328   1.4918067   9.2879030  )
         6           O1  tau(   6) = (   1.9868534   1.4903216   9.2879459  )
         7           Ti1 tau(   7) = (   3.2907910   2.8959150   9.1758416  )
         8           Ti1 tau(   8) = (   0.0015273   1.4827037   9.2680791  )
         9           O1  tau(   9) = (   3.2830128   5.9597860  11.3344455  )
        10           O1  tau(  10) = (   0.0116148   5.9584955  10.6183126  )
        11           O1  tau(  11) = (   1.2885291   1.4855062  12.6376555  )
        12           O1  tau(  12) = (   5.2724004   1.4911608  12.5936499  )
        13           Ti1 tau(  13) = (   0.0410009   3.0319447  12.6084003  )
        14           Ti1 tau(  14) = (   3.3739341   1.4916561  12.4823474  )
        15           O1  tau(  15) = (   6.4862162   0.0153916  14.6455093  )
        16           O1  tau(  16) = (   3.3439542   5.9611638  13.9051029  )
        17           O1  tau(  17) = (   4.4933269   1.5483200  16.1231154  )
        18           O1  tau(  18) = (   1.9964937   1.4536654  15.9127221  )
        19           Ti1 tau(  19) = (   3.1412959   3.0017366  15.7441667  )
        20           Ti1 tau(  20) = (   6.4823597   1.5369342  15.8006069  )
        21           O1  tau(  21) = (   3.2904802   0.0005063   4.7018136  )
        22           O1  tau(  22) = (   6.5709111   0.0522475  17.2082838  )
        23           O1  tau(  23) = (   1.3043587   1.4918075   6.0039043  )
        24           O1  tau(  24) = (   5.2767064   1.4903225   6.0039473  )
        25           Ti1 tau(  25) = (   0.0000382   5.9609847   6.0000000  )
        26           Ti1 tau(  26) = (   3.2902200   4.4714249   6.0002472  )
        27           O1  tau(  27) = (   0.0002396   2.9813036   7.9858123  )
        28           O1  tau(  28) = (   3.2902150   2.9813002   7.3038282  )
        29           O1  tau(  29) = (   4.5938453   4.4726049   9.2879030  )
        30           O1  tau(  30) = (   1.9864658   4.4711199   9.2879459  )
        31           Ti1 tau(  31) = (   3.2891106   5.8743827   9.1763621  )
        32           Ti1 tau(  32) = (   0.0006254   4.4649316   9.2693709  )
        33           O1  tau(  33) = (   3.2833609   2.9822938  11.3349093  )
        34           O1  tau(  34) = (   0.0092240   2.9805883  10.6323155  )
        35           O1  tau(  35) = (   1.2838611   4.4860338  12.6468719  )
        36           O1  tau(  36) = (   5.2760156   4.4607002  12.6015494  )
        37           Ti1 tau(  37) = (   0.0673138   0.0440259  12.5461749  )
        38           Ti1 tau(  38) = (   3.3712377   4.4654930  12.4933830  )
        39           O1  tau(  39) = (   6.5217465   2.9589972  14.6412948  )
        40           O1  tau(  40) = (   3.2809526   2.9956502  13.9333893  )
        41           O1  tau(  41) = (   4.4911989   4.4583117  16.1637052  )
        42           O1  tau(  42) = (   1.9937212   4.5427850  15.9740970  )
        43           Ti1 tau(  43) = (   3.2955853   0.0167752  15.6963065  )
        44           Ti1 tau(  44) = (   6.5082246   4.6715011  16.1069148  )
        45           O1  tau(  45) = (   3.2900926   2.9813045   4.7018136  )
        46           O1  tau(  46) = (   1.3039711   4.4726057   6.0039043  )
        47           O1  tau(  47) = (   5.2763189   4.4711207   6.0039473  )
        48           N1  tau(  48) = (   1.3945086   2.8365607  18.1849301  )
        49           N1  tau(  49) = (   0.1777896   2.9650562  17.4211889  )
        50           C1  tau(  50) = (   1.4118813   3.7228676  19.3556819  )
        51           H1  tau(  51) = (   0.5171711   3.5996102  19.9880000  )
        52           H1  tau(  52) = (   2.2935099   3.4681107  19.9517681  )
        53           H1  tau(  53) = (   1.4703795   4.7520035  19.0319817  )
        54           H1  tau(  54) = (   1.4579882   1.8621926  18.4823179  )
        55           H1  tau(  55) = (   5.9558665   2.8747675  18.0551794  )

     number of k points=    10  Fermi-Dirac smearing, width (Ry)=  0.0073
                       cart. coord. in units 2pi/alat
        k(    1) = (   0.0000000   0.0000000   0.0000000), wk =   0.1250000
        k(    2) = (   0.0000000   0.0419351   0.0000000), wk =   0.2500000
        k(    3) = (   0.0000000  -0.0838702   0.0000000), wk =   0.1250000
        k(    4) = (   0.0379955   0.0000049   0.0000000), wk =   0.2500000
        k(    5) = (   0.0379955   0.0419400   0.0000000), wk =   0.2500000
        k(    6) = (   0.0379955  -0.0838652   0.0000000), wk =   0.2500000
        k(    7) = (   0.0379955  -0.0419301   0.0000000), wk =   0.2500000
        k(    8) = (  -0.0759910  -0.0000099   0.0000000), wk =   0.1250000
        k(    9) = (  -0.0759910   0.0419252   0.0000000), wk =   0.2500000
        k(   10) = (  -0.0759910  -0.0838800   0.0000000), wk =   0.1250000

     Initial potential from superposition of free atoms

     starting charge  380.99914, renormalised to  397.00000

     negative rho (up, down):  1.540E-02 0.000E+00

     %%%%%%%%%%%%%%%%%%%%%%%%%%%%%%%%%%%%%%%%%%%%%%%%%%%%%%%%%%%%%%%%%%%%%%%%
     %                                                                      %
     % You are using vdW-DF, which was implemented by the Thonhauser group. %
     % Please cite the following two papers that made this development      %
     % possible and the two reviews that describe the various versions:     %
     %                                                                      %
     %   T. Thonhauser et al., PRL 115, 136402 (2015).                      %
     %   T. Thonhauser et al., PRB 76, 125112 (2007).                       %
     %   K. Berland et al., Rep. Prog. Phys. 78, 066501 (2015).             %
     %   D.C. Langreth et al., J. Phys.: Condens. Matter 21, 084203 (2009). %
     %                                                                      %
     %                                                                      %
     % If you are calculating the stress with vdW-DF, please also cite:     %
     %                                                                      %
     %   R. Sabatini et al., J. Phys.: Condens. Matter 24, 424209 (2012).   %
     %                                                                      %
     %%%%%%%%%%%%%%%%%%%%%%%%%%%%%%%%%%%%%%%%%%%%%%%%%%%%%%%%%%%%%%%%%%%%%%%%

     Adding external electric field

     Computed dipole along edir(3) :
        Dipole               -9.6180 Ry au,        -24.4465 Debye
        Dipole field         -0.0182 Ry au,

        Potential amp.        1.6825 Ry
        Total length         46.3494 bohr

     Starting wfcs are  301 atomic wfcs
  @ DRIVER MODE: Message from server: STATUS
  @ DRIVER MODE: Message from server: POSDATA
  @ DRIVER MODE: Reading and sharing cell
  @ DRIVER MODE: Reading and sharing positions
  @ DRIVER MODE: Received positions

     Self-consistent Calculation

     iteration #  1     ecut=    29.40 Ry     beta= 0.05
     Davidson diagonalization with overlap
     c_bands:  1 eigenvalues not converged
     c_bands:  1 eigenvalues not converged
     c_bands:  1 eigenvalues not converged
     c_bands:  1 eigenvalues not converged
     c_bands:  1 eigenvalues not converged
     c_bands:  1 eigenvalues not converged
     c_bands:  2 eigenvalues not converged
     ethr =  1.00E-05,  avg # of iterations = 18.8

[...]

     total energy              =   -2533.09825606 Ry
     estimated scf accuracy    <    4544.27286379 Ry

     iteration #  2     ecut=    29.40 Ry     beta= 0.05
     Davidson diagonalization with overlap
     ethr =  1.00E-02,  avg # of iterations = 24.7

[...]

     iteration # 73     ecut=    29.40 Ry     beta= 0.05
     Davidson diagonalization with overlap
     c_bands:  1 eigenvalues not converged
     ethr =  4.48E-11,  avg # of iterations =  7.3

[...]

     total energy              =   -2941.66139806 Ry
     estimated scf accuracy    <       0.00000020 Ry

     iteration # 75     ecut=    29.40 Ry     beta= 0.05
     Davidson diagonalization with overlap
     ethr =  3.50E-11,  avg # of iterations = 13.6

     negative rho (up, down):  1.606E-02 0.000E+00

     Adding external electric field

     Computed dipole along edir(3) :
        Dipole                0.9435 Ry au,          2.3981 Debye
        Dipole field          0.0018 Ry au,

        Potential amp.       -0.1650 Ry
        Total length         46.3494 bohr

     End of self-consistent calculation

          k = 0.0000 0.0000 0.0000 ( 18029 PWs)   bands (ev):

   -55.6856 -55.6688 -55.6515 -55.6321 -55.5912 -55.5371 -55.5301 -55.5001
   -55.4940 -55.4661 -55.4643 -55.4301 -55.2571 -55.0333 -54.6662 -54.6322
   -32.2197 -32.1687 -32.0417 -32.0317 -31.9984 -31.9837 -31.9784 -31.9546
   -31.9296 -31.8977 -31.8954 -31.8892 -31.8463 -31.8379 -31.8239 -31.8225
   -31.8058 -31.7905 -31.7818 -31.7465 -31.7429 -31.7358 -31.7202 -31.7164
   -31.6940 -31.6892 -31.6866 -31.6789 -31.6649 -31.6625 -31.6549 -31.6457
   -31.6402 -31.6306 -31.6172 -31.6076 -31.5764 -31.5074 -31.4635 -31.2997
   -31.2901 -31.2358 -31.0735 -30.9849 -30.9625 -30.8902 -30.8037 -30.6927
   -16.7519 -16.4159 -16.1614 -15.9314 -15.8409 -15.8106 -15.6583 -15.5267
   -15.4173 -15.3356 -15.2506 -15.2316 -15.2244 -15.2135 -15.1876 -15.1815
   -15.1346 -15.1299 -15.1105 -15.0976 -15.0476 -15.0309 -15.0275 -14.9326
   -14.8688 -14.8335 -14.8188 -14.7840 -14.7467 -14.3333 -13.1686 -13.0521
   -11.7881  -8.9978  -5.4258  -4.3379  -3.8277  -3.7870  -3.6437  -3.5932
    -3.5328  -3.4918  -3.3164  -3.2139  -2.9413  -2.8859  -2.8548  -2.8460
    -2.8047  -2.7674  -2.6015  -2.5743  -2.5078  -2.4963  -2.4795  -2.4504
    -2.4436  -2.4342  -2.4162  -2.3762  -2.3474  -2.2424  -2.1056  -2.0941
    -2.0706  -2.0376  -1.9997  -1.9512  -1.9347  -1.9143  -1.8961  -1.8841
    -1.8710  -1.7360  -1.7009  -1.5848  -1.4950  -1.4491  -1.3670  -1.2980
    -1.2684  -1.1570  -1.1173  -1.1052  -1.0905  -1.0799  -0.9804  -0.8746
    -0.8571  -0.8192  -0.7646  -0.7085  -0.6378  -0.5931  -0.5418  -0.4897
    -0.4656  -0.4503  -0.4475  -0.4123  -0.3206  -0.1795  -0.1277  -0.0932
    -0.0710   0.0057   0.0408   0.0968   0.1218   0.1447   0.1807   0.2335
     0.2773   0.2837   0.2971   0.3117   0.3163   0.4906   0.5402   0.5820
     0.6154   0.6613   0.8225   0.8444   0.9662   1.0412   1.2081   1.2815
     1.3560   1.4342   1.5478   1.6239   1.9273   1.9731   3.4451   3.5326
     3.5773   3.5911   3.6864   3.7283   3.8980   3.9284   3.9430   4.0029

[...]

          k = 0.0380-0.0419 0.0000 ( 17876 PWs)   bands (ev):

[...]

          k =-0.0760-0.0000 0.0000 ( 17886 PWs)   bands (ev):

[...]

          k =-0.0760-0.0839 0.0000 ( 17948 PWs)   bands (ev):

   -55.6689 -55.6681 -55.6540 -55.6466 -55.5852 -55.5430 -55.5176 -55.5066
   -55.4836 -55.4820 -55.4502 -55.4444 -55.2559 -55.0343 -54.6492 -54.6491
   -32.0289 -32.0192 -31.9842 -31.9836 -31.9642 -31.9634 -31.9434 -31.9367
   -31.8840 -31.8834 -31.8732 -31.8679 -31.8510 -31.8331 -31.8085 -31.8037
   -31.7994 -31.7957 -31.7891 -31.7889 -31.7879 -31.7875 -31.7837 -31.7439
   -31.7356 -31.7240 -31.7158 -31.7047 -31.6840 -31.6831 -31.6812 -31.6745
   -31.6645 -31.6604 -31.6570 -31.6546 -31.6132 -31.5099 -31.4602 -31.3618
   -31.2923 -31.2618 -30.9752 -30.9752 -30.8863 -30.8862 -30.8470 -30.8470
   -16.7245 -15.8635 -15.8025 -15.6446 -15.6093 -15.5898 -15.5548 -15.4940
   -15.4108 -15.3838 -15.3792 -15.3321 -15.3062 -15.2733 -15.2353 -15.2209
   -15.2138 -15.1950 -15.1826 -15.1489 -15.1394 -15.1277 -15.1205 -15.0450
   -15.0075 -15.0031 -14.9974 -14.8938 -14.7672 -14.5015 -13.1539 -13.1539
   -11.7942  -9.0124  -5.4402  -4.3240  -3.7485  -3.1564  -3.0693  -2.8947
    -2.8391  -2.8103  -2.7943  -2.6408  -2.6229  -2.6031  -2.5759  -2.5355
    -2.5342  -2.5170  -2.5077  -2.4865  -2.4743  -2.4383  -2.4290  -2.3957
    -2.3823  -2.3620  -2.3452  -2.3279  -2.3083  -2.2964  -2.2793  -2.2367
    -2.2184  -2.2085  -2.1882  -2.1417  -1.9316  -1.8815  -1.8347  -1.8316
    -1.8211  -1.8021  -1.7466  -1.7416  -1.7075  -1.6563  -1.5780  -1.4332
    -1.3877  -1.3713  -1.2781  -1.2568  -1.2042  -1.1317  -1.0860  -1.0691
    -1.0341  -0.9701  -0.9345  -0.8963  -0.8299  -0.8056  -0.7998  -0.7061
    -0.6851  -0.6488  -0.6421  -0.5635  -0.5133  -0.4500  -0.4346  -0.4182
    -0.3867  -0.3531  -0.3349  -0.2669  -0.1750  -0.1740  -0.1499  -0.0420
     0.0486   0.2772   0.3400   0.3768   0.4217   0.5153   0.5841   0.6085
     0.6243   0.6461   0.6655   0.7131   0.8406   0.8508   0.8850   0.9979
     1.1080   1.6395   1.7195   1.7203   1.7929   1.7930   3.7467   3.7649
     3.7855   3.8319   3.9511   3.9581   3.9802   3.9824   4.1050   4.1179

     the Fermi energy is     3.4467 ev

!    total energy              =   -2941.66140911 Ry
     estimated scf accuracy    <       0.00000006 Ry
     smearing contrib. (-TS)   =      -0.02151781 Ry
     internal energy E=F+TS    =   -2941.63989130 Ry

     The total energy is F=E-TS. E is the sum of the following terms:
     one-electron contribution =  -24275.98531639 Ry
     hartree contribution      =   12228.46455463 Ry
     xc contribution           =    -486.87237951 Ry
     ewald contribution        =    9592.75157014 Ry
     electric field correction =       0.00167983 Ry

     convergence has been achieved in  75 iterations

     Forces acting on atoms (cartesian axes, Ry/au):

     atom    1 type  1   force =     0.00017694   -0.00011540    0.09632519
     atom    2 type  1   force =    -0.00021435   -0.00063611   -0.17552332
     atom    3 type  2   force =    -0.00004166   -0.00003744   -0.02419847
     atom    4 type  2   force =     0.00005069   -0.00143840    0.05291337
     atom    5 type  2   force =    -0.01180359   -0.00049544    0.00396484
     atom    6 type  2   force =     0.01311750    0.00023239    0.00230173
     atom    7 type  1   force =    -0.00140135    0.00080180   -0.01149530
     atom    8 type  1   force =     0.00053426    0.00921219    0.02522284
     atom    9 type  2   force =    -0.00011018    0.00017092    0.00038166
     atom   10 type  2   force =    -0.00086434    0.00148429   -0.01579611
     atom   11 type  2   force =    -0.00019300   -0.00049841    0.00040078
     atom   12 type  2   force =    -0.00012665   -0.00026287    0.00003374
     atom   13 type  1   force =     0.00054657   -0.00091308    0.00007109
     atom   14 type  1   force =    -0.00008245   -0.00040532    0.00025126
     atom   15 type  2   force =     0.00017763   -0.00000260   -0.00029443
     atom   16 type  2   force =     0.00007205    0.00024403    0.00005793
     atom   17 type  2   force =    -0.00052062    0.00033391    0.00048122
     atom   18 type  2   force =     0.00009275    0.00004886    0.00027272
     atom   19 type  1   force =     0.00005224   -0.00057553    0.00038111
     atom   20 type  1   force =     0.00014372    0.00047526    0.00059613
     atom   21 type  2   force =     0.00007466   -0.00007961    0.10319635
     atom   22 type  2   force =    -0.00036353   -0.00026776    0.00039977
     atom   23 type  2   force =    -0.07148355   -0.00018345   -0.02771219
     atom   24 type  2   force =     0.07140601    0.00025087   -0.02771234
     atom   25 type  1   force =     0.00003042   -0.00028035    0.09578793
     atom   26 type  1   force =    -0.00014782   -0.00023588   -0.17570234
     atom   27 type  2   force =     0.00009299   -0.00012461   -0.02330030
     atom   28 type  2   force =     0.00008002   -0.00129491    0.05333715
     atom   29 type  2   force =    -0.01193184   -0.00005813    0.00376259
     atom   30 type  2   force =     0.01318380    0.00042776    0.00213737
     atom   31 type  1   force =    -0.00141598    0.00344524   -0.01081373
     atom   32 type  1   force =     0.00064124   -0.01009510    0.02562895
     atom   33 type  2   force =    -0.00039111    0.00005545    0.00004193
     atom   34 type  2   force =     0.00074988    0.00090156   -0.02306916
     atom   35 type  2   force =    -0.00011010    0.00030048   -0.00001690
     atom   36 type  2   force =    -0.00021867    0.00060381   -0.00028013
     atom   37 type  1   force =    -0.00082171   -0.00103040   -0.00014447
     atom   38 type  1   force =    -0.00003127   -0.00010210   -0.00003010
     atom   39 type  2   force =    -0.00034831    0.00005646    0.00057849
     atom   40 type  2   force =     0.00048851    0.00025251    0.00025682
     atom   41 type  2   force =     0.00006755    0.00051744    0.00026615
     atom   42 type  2   force =     0.00003677    0.00034442   -0.00018708
     atom   43 type  1   force =     0.00020543    0.00011534   -0.00025371
     atom   44 type  1   force =    -0.00028575   -0.00077023   -0.00011079
     atom   45 type  2   force =     0.00007139   -0.00008779    0.10322058
     atom   46 type  2   force =    -0.07148562   -0.00016835   -0.02770532
     atom   47 type  2   force =     0.07141233    0.00030727   -0.02772243
     atom   48 type  3   force =    -0.00078713    0.00499973    0.00133148
     atom   49 type  3   force =     0.00057276   -0.00042235    0.00032602
     atom   50 type  4   force =     0.00114006   -0.02065143    0.00344266
     atom   51 type  5   force =     0.00219617    0.00243460   -0.00137361
     atom   52 type  5   force =    -0.00211950    0.00313165   -0.00179421
     atom   53 type  5   force =     0.00027448    0.00892131   -0.00280304
     atom   54 type  5   force =    -0.00007574    0.00143187    0.00087876
     atom   55 type  5   force =    -0.00031298   -0.00026836   -0.00020911

     Total force =     0.368108     Total SCF correction =     0.000565
  @ DRIVER MODE: Message from server: STATUS
  @ DRIVER MODE: Message from server: GETFORCE
  @ DRIVER MODE: Returning v,forces,stress,ensemble

     Writing output data file ./calc.save/
  @ DRIVER MODE: Message from server: EXIT
  @ DRIVE MODE: Exiting

     General routines

     Parallel routines

   This run was terminated on:   1:37: 1  25Aug2021

   JOB DONE.