     Program PWSCF v.6.7GPU starts on 23Sep2021 at  5: 8:56

     R & G space division:  proc/nbgrp/npool/nimage =      10
     Reading input from /storage/home/hcoda1/3/ntian30/research/carbon/CxH_vib/H2O_calc/ads_slab/CH2NHHHO_a/out_0037/pw.inp
Warning: card &CELL ignored
Warning: card   CELL_DYNAMICS='IPI', ignored
Warning: card / ignored

     Current dimensions of program PWSCF are:
     Max number of different atomic species (ntypx) = 10
     Max number of k-points (npk) =  40000
     Max angular momentum in pseudopotentials (lmaxx) =  3
     Presently no symmetry can be used with electric field

     Message from routine cell_base_init:
     DEPRECATED: use true lattice parameter, not A to a.u. conversion factor

     IMPORTANT: XC functional enforced from input :
     Exchange-correlation= BEEF-VDW
                           (   1   4  43  14   2   0   0)
     Any further DFT definition will be discarded
     Please, verify this is what you really want

  @ DRIVER MODE: Connecting to
 qe_1139763_2937325.sched-torque.pace.gatech.edua2a53_qp_scratch
  using UNIX socket
  @ DRIVER MODE: Message from server: STATUS
  @ DRIVER MODE: Message from server: INIT
  @ DRIVER MODE: Receiving replica           0          -1
  @ DRIVER MODE: Receiving encoded integer          25
  @ DRIVER MODE:  SCF:  T  FORCE:  T  STRESS:  F  VC:  F  ENSEMBLE:  F
  @ DRIVER MODE:  SCF:  T  FORCE:  T  STRESS:  F  VC:  F  ENSEMBLE:  F

     Using Slab Decomposition

     bravais-lattice index     =            0
     lattice parameter (alat)  =       1.8897  a.u.
     unit-cell volume          =    6658.9804 (a.u.)^3
     number of atoms/cell      =           55
     number of atomic types    =            5
     number of electrons       =       398.00
     number of Kohn-Sham states=          209
     kinetic-energy cutoff     =      29.3995  Ry
     charge density cutoff     =     293.9946  Ry
     scf convergence threshold =      7.3E-08
     mixing beta               =       0.0500
     number of iterations used =            8  plain     mixing
     Exchange-correlation= BEEF-VDW
                           (   1   4  43  14   2   0   0)

     celldm(1)=   1.889726  celldm(2)=   0.000000  celldm(3)=   0.000000
     celldm(4)=   0.000000  celldm(5)=   0.000000  celldm(6)=   0.000000

     crystal axes: (cart. coord. in units of alat)
               a(1) = (   6.579727   0.000000   0.000000 )
               a(2) = (  -0.000775   5.961596   0.000000 )
               a(3) = (   0.000000   0.000000  25.155947 )

     reciprocal axes: (cart. coord. in units 2 pi/alat)
               b(1) = (  0.151982  0.000020  0.000000 )
               b(2) = (  0.000000  0.167740  0.000000 )
               b(3) = (  0.000000  0.000000  0.039752 )

     PseudoPot. # 1 for Ti read from file:
     /storage/coda1/p-amedford6/0/shared/rich_project_chbe-medford/medford-share/data/pseudos_module/espresso/nninc/pbe/van/Ti.UPF
     MD5 check sum: 8e4df49b7f0d34bbd5052bf3f5ea0213
     Pseudo is Ultrasoft, Zval = 12.0
     Generated by new atomic code, or converted to UPF format
     Using radial grid of  851 points,  6 beta functions with:
                l(1) =   0
                l(2) =   0
                l(3) =   1
                l(4) =   1
                l(5) =   2
                l(6) =   2
     Q(r) pseudized with  8 coefficients,  rinner =    1.000   1.000   1.000
                                                       1.000   1.000

     PseudoPot. # 2 for O  read from file:
     /storage/coda1/p-amedford6/0/shared/rich_project_chbe-medford/medford-share/data/pseudos_module/espresso/nninc/pbe/van/O.UPF
     MD5 check sum: 78c19812648e8988a0fe644b0f25305e
     Pseudo is Ultrasoft, Zval =  6.0
     Generated by new atomic code, or converted to UPF format
     Using radial grid of  737 points,  4 beta functions with:
                l(1) =   0
                l(2) =   0
                l(3) =   1
                l(4) =   1
     Q(r) pseudized with  8 coefficients,  rinner =    0.800   0.800   0.800

     PseudoPot. # 3 for N  read from file:
     /storage/coda1/p-amedford6/0/shared/rich_project_chbe-medford/medford-share/data/pseudos_module/espresso/nninc/pbe/van/N.UPF
     MD5 check sum: 90d10febe142ad51ac9d5be1deb811c4
     Pseudo is Ultrasoft, Zval =  5.0
     Generated by new atomic code, or converted to UPF format
     Using radial grid of  729 points,  4 beta functions with:
                l(1) =   0
                l(2) =   0
                l(3) =   1
                l(4) =   1
     Q(r) pseudized with  8 coefficients,  rinner =    0.800   0.800   0.800

     PseudoPot. # 4 for C  read from file:
     /storage/coda1/p-amedford6/0/shared/rich_project_chbe-medford/medford-share/data/pseudos_module/espresso/nninc/pbe/van/C.UPF
     MD5 check sum: 1a69bf6b8db32088f5b2163dbdb77a27
     Pseudo is Ultrasoft, Zval =  4.0
     Generated by new atomic code, or converted to UPF format
     Using radial grid of  721 points,  4 beta functions with:
                l(1) =   0
                l(2) =   0
                l(3) =   1
                l(4) =   1
     Q(r) pseudized with  8 coefficients,  rinner =    0.800   0.800   0.800

     PseudoPot. # 5 for H  read from file:
     /storage/coda1/p-amedford6/0/shared/rich_project_chbe-medford/medford-share/data/pseudos_module/espresso/nninc/pbe/van/H.UPF
     MD5 check sum: b5ee9d7bfd3a09ee7748110bda690ff7
     Pseudo is Ultrasoft, Zval =  1.0
     Generated by new atomic code, or converted to UPF format
     Using radial grid of  615 points,  1 beta functions with:
                l(1) =   0
     Q(r) pseudized with  8 coefficients,  rinner =    0.800

     atomic species   valence    mass     pseudopotential
        Ti1           12.00    47.86700     Ti( 1.00)
        O1             6.00    15.99900     O ( 1.00)
        N1             5.00    14.00700     N ( 1.00)
        C1             4.00    12.01100     C ( 1.00)
        H1             1.00     1.00800     H ( 1.00)

     No symmetry found

   Cartesian axes

     site n.     atom                  positions (alat units)
         1           Ti1 tau(   1) = (   0.0004258   2.9801865   6.0000000  )
         2           Ti1 tau(   2) = (   3.2906075   1.4906267   6.0002472  )
         3           O1  tau(   3) = (   0.0006271   0.0005054   7.9858123  )
         4           O1  tau(   4) = (   3.2906025   0.0005020   7.3038282  )
         5           O1  tau(   5) = (   4.5942328   1.4918067   9.2879030  )
         6           O1  tau(   6) = (   1.9868534   1.4903216   9.2879459  )
         7           Ti1 tau(   7) = (   3.2907910   2.8959150   9.1758416  )
         8           Ti1 tau(   8) = (   0.0015273   1.4827037   9.2680791  )
         9           O1  tau(   9) = (   3.3134935   5.9450930  11.3716456  )
        10           O1  tau(  10) = (   0.0116148   5.9584955  10.6183126  )
        11           O1  tau(  11) = (   1.3009377   1.4930576  12.6823270  )
        12           O1  tau(  12) = (   5.3410967   1.4903504  12.6863499  )
        13           Ti1 tau(  13) = (   0.0342001   2.9430440  12.5112676  )
        14           Ti1 tau(  14) = (   3.3297267   1.2953541  12.7310232  )
        15           O1  tau(  15) = (   0.0493764   5.9086628  14.6689690  )
        16           O1  tau(  16) = (   3.3288597   0.0714287  14.0177558  )
        17           O1  tau(  17) = (   4.6153468   1.5975901  16.1787110  )
        18           O1  tau(  18) = (   2.0592605   1.5839887  16.0909148  )
        19           Ti1 tau(  19) = (   3.3163104   3.0362344  15.7082748  )
        20           Ti1 tau(  20) = (   0.1120434   1.3330501  15.8434463  )
        21           O1  tau(  21) = (   3.2904802   0.0005063   4.7018136  )
        22           O1  tau(  22) = (   0.0690725   0.1374024  17.2087871  )
        23           O1  tau(  23) = (   1.3043587   1.4918075   6.0039043  )
        24           O1  tau(  24) = (   5.2767064   1.4903225   6.0039473  )
        25           Ti1 tau(  25) = (   0.0000382   5.9609847   6.0000000  )
        26           Ti1 tau(  26) = (   3.2902200   4.4714249   6.0002472  )
        27           O1  tau(  27) = (   0.0002396   2.9813036   7.9858123  )
        28           O1  tau(  28) = (   3.2902150   2.9813002   7.3038282  )
        29           O1  tau(  29) = (   4.5938453   4.4726049   9.2879030  )
        30           O1  tau(  30) = (   1.9864658   4.4711199   9.2879459  )
        31           Ti1 tau(  31) = (   3.2891106   5.8743827   9.1763621  )
        32           Ti1 tau(  32) = (   0.0006254   4.4649316   9.2693709  )
        33           O1  tau(  33) = (   3.3165203   3.0043058  11.3207354  )
        34           O1  tau(  34) = (   0.0092240   2.9805883  10.6323155  )
        35           O1  tau(  35) = (   1.3050136   4.4578615  12.6552238  )
        36           O1  tau(  36) = (   5.3353050   4.4620295  12.6594116  )
        37           Ti1 tau(  37) = (   0.0330755   5.9154870  12.5003292  )
        38           Ti1 tau(  38) = (   3.3291962   4.3779952  12.4454333  )
        39           O1  tau(  39) = (   0.0233967   3.0352723  14.9286183  )
        40           O1  tau(  40) = (   3.3272303   3.0068708  13.9347379  )
        41           O1  tau(  41) = (   4.5962338   4.4808180  16.1645836  )
        42           O1  tau(  42) = (   2.0526765   4.4464907  16.1857218  )
        43           Ti1 tau(  43) = (   3.4309460   0.0633718  16.3216252  )
        44           Ti1 tau(  44) = (   0.1034465   4.5521166  15.9739525  )
        45           O1  tau(  45) = (   3.2900926   2.9813045   4.7018136  )
        46           O1  tau(  46) = (   1.3039711   4.4726057   6.0039043  )
        47           O1  tau(  47) = (   5.2763189   4.4711207   6.0039473  )
        48           N1  tau(  48) = (   6.1597698   3.4535781  18.2989460  )
        49           C1  tau(  49) = (   0.6557129   3.1470513  19.0816575  )
        50           H1  tau(  50) = (   1.2037892   3.9510289  19.5415217  )
        51           H1  tau(  51) = (   1.0557295   2.1499681  19.0337936  )
        52           H1  tau(  52) = (   5.6880836   4.3337965  18.4846543  )
        53           H1  tau(  53) = (   5.5056413   2.7003945  18.1017309  )
        54           O1  tau(  54) = (   3.2644276   0.0793712  18.1757868  )
        55           H1  tau(  55) = (   2.3604784   5.9194474  18.4805682  )

     number of k points=    10  Fermi-Dirac smearing, width (Ry)=  0.0073
                       cart. coord. in units 2pi/alat
        k(    1) = (   0.0000000   0.0000000   0.0000000), wk =   0.1250000
        k(    2) = (   0.0000000   0.0419351   0.0000000), wk =   0.2500000
        k(    3) = (   0.0000000  -0.0838702   0.0000000), wk =   0.1250000
        k(    4) = (   0.0379955   0.0000049   0.0000000), wk =   0.2500000
        k(    5) = (   0.0379955   0.0419400   0.0000000), wk =   0.2500000
        k(    6) = (   0.0379955  -0.0838652   0.0000000), wk =   0.2500000
        k(    7) = (   0.0379955  -0.0419301   0.0000000), wk =   0.2500000
        k(    8) = (  -0.0759910  -0.0000099   0.0000000), wk =   0.1250000
        k(    9) = (  -0.0759910   0.0419252   0.0000000), wk =   0.2500000
        k(   10) = (  -0.0759910  -0.0838800   0.0000000), wk =   0.1250000

     Initial potential from superposition of free atoms

     starting charge  381.99915, renormalised to  398.00000

     negative rho (up, down):  1.644E-02 0.000E+00

     %%%%%%%%%%%%%%%%%%%%%%%%%%%%%%%%%%%%%%%%%%%%%%%%%%%%%%%%%%%%%%%%%%%%%%%%
     %                                                                      %
     % You are using vdW-DF, which was implemented by the Thonhauser group. %
     % Please cite the following two papers that made this development      %
     % possible and the two reviews that describe the various versions:     %
     %                                                                      %
     %   T. Thonhauser et al., PRL 115, 136402 (2015).                      %
     %   T. Thonhauser et al., PRB 76, 125112 (2007).                       %
     %   K. Berland et al., Rep. Prog. Phys. 78, 066501 (2015).             %
     %   D.C. Langreth et al., J. Phys.: Condens. Matter 21, 084203 (2009). %
     %                                                                      %
     %                                                                      %
     % If you are calculating the stress with vdW-DF, please also cite:     %
     %                                                                      %
     %   R. Sabatini et al., J. Phys.: Condens. Matter 24, 424209 (2012).   %
     %                                                                      %
     %%%%%%%%%%%%%%%%%%%%%%%%%%%%%%%%%%%%%%%%%%%%%%%%%%%%%%%%%%%%%%%%%%%%%%%%

     Adding external electric field

     Computed dipole along edir(3) :
        Dipole              -10.2322 Ry au,        -26.0075 Debye
        Dipole field         -0.0193 Ry au,

        Potential amp.        1.7900 Ry
        Total length         46.3494 bohr

     Starting wfcs are  301 atomic wfcs
  @ DRIVER MODE: Message from server: STATUS
  @ DRIVER MODE: Message from server: POSDATA
  @ DRIVER MODE: Reading and sharing cell
  @ DRIVER MODE: Reading and sharing positions
  @ DRIVER MODE: Received positions

     Self-consistent Calculation

     iteration #  1     ecut=    29.40 Ry     beta= 0.05
     Davidson diagonalization with overlap
     c_bands:  1 eigenvalues not converged
     c_bands:  3 eigenvalues not converged
     c_bands:  3 eigenvalues not converged
     c_bands:  1 eigenvalues not converged
     c_bands:  4 eigenvalues not converged
     c_bands:  4 eigenvalues not converged
     c_bands:  4 eigenvalues not converged
     c_bands:  2 eigenvalues not converged
     c_bands:  3 eigenvalues not converged
     c_bands:  4 eigenvalues not converged
     ethr =  1.00E-05,  avg # of iterations = 20.0

[...]

     total energy              =   -2477.32208886 Ry
     estimated scf accuracy    <    5313.82591960 Ry

     iteration #  2     ecut=    29.40 Ry     beta= 0.05
     Davidson diagonalization with overlap
     ethr =  1.00E-02,  avg # of iterations = 23.1

[...]

     iteration # 48     ecut=    29.40 Ry     beta= 0.05
     Davidson diagonalization with overlap
     c_bands:  3 eigenvalues not converged
     ethr =  4.28E-07,  avg # of iterations = 15.6

[...]

     total energy              =   -2953.88652505 Ry
     estimated scf accuracy    <       0.00000009 Ry

     iteration # 66     ecut=    29.40 Ry     beta= 0.05
     Davidson diagonalization with overlap
     ethr =  2.30E-11,  avg # of iterations =  3.0

     negative rho (up, down):  1.574E-02 0.000E+00

     Adding external electric field

     Computed dipole along edir(3) :
        Dipole                0.8553 Ry au,          2.1740 Debye
        Dipole field          0.0016 Ry au,

        Potential amp.       -0.1496 Ry
        Total length         46.3494 bohr

     End of self-consistent calculation

          k = 0.0000 0.0000 0.0000 ( 18029 PWs)   bands (ev):

   -55.7675 -55.7132 -55.6791 -55.5821 -55.5432 -55.5422 -55.5275 -55.5084
   -55.4998 -55.4491 -55.4489 -55.3375 -55.3072 -55.2651 -54.6917 -54.6577
   -32.1990 -32.0858 -32.0671 -32.0603 -32.0458 -32.0334 -32.0036 -31.9828
   -31.9817 -31.9590 -31.9442 -31.8659 -31.8510 -31.8509 -31.8286 -31.8219
   -31.8209 -31.7913 -31.7708 -31.7446 -31.7437 -31.7358 -31.7264 -31.7231
   -31.7213 -31.7148 -31.6864 -31.6774 -31.6693 -31.6681 -31.6602 -31.6557
   -31.6449 -31.6364 -31.6152 -31.6049 -31.5317 -31.5276 -31.5105 -31.4774
   -31.4695 -31.4600 -31.0979 -31.0111 -30.9886 -30.9154 -30.8290 -30.7172
   -16.8825 -16.6602 -16.3792 -16.2136 -15.9902 -15.9382 -15.8774 -15.7047
   -15.5896 -15.5343 -15.3494 -15.2819 -15.2533 -15.2407 -15.2353 -15.2189
   -15.2059 -15.1628 -15.1452 -15.1430 -15.1373 -15.1031 -15.0756 -15.0343
   -14.9870 -14.9520 -14.8551 -14.8002 -14.7604 -14.5170 -14.4818 -13.1901
   -13.0736  -9.7997  -7.0637  -5.3372  -4.1679  -3.7414  -3.6279  -3.6169
    -3.5561  -3.5007  -3.3356  -3.2230  -3.1412  -3.1253  -2.9733  -2.8598
    -2.8139  -2.7484  -2.7136  -2.6739  -2.6367  -2.6252  -2.5935  -2.5019
    -2.4800  -2.4661  -2.4043  -2.3789  -2.3121  -2.2884  -2.2568  -2.2444
    -2.1371  -2.0850  -2.0515  -2.0429  -2.0266  -1.9988  -1.9717  -1.9649
    -1.9373  -1.8534  -1.8003  -1.7445  -1.7174  -1.7021  -1.3985  -1.3264
    -1.2912  -1.2549  -1.1646  -1.1467  -1.1117  -1.0920  -1.0778  -1.0705
    -0.9558  -0.8871  -0.8288  -0.7988  -0.7551  -0.7207  -0.6102  -0.5564
    -0.5074  -0.4665  -0.4531  -0.4294  -0.3424  -0.3161  -0.2996  -0.1978
    -0.1557  -0.0910  -0.0209  -0.0072   0.0422   0.0712   0.1109   0.1472
     0.2051   0.2377   0.2553   0.2994   0.3382   0.3491   0.4069   0.4239
     0.5192   0.6037   0.6224   0.6927   0.7835   0.8292   0.9474   1.0103
     1.2811   1.3351   1.3481   1.5266   1.9025   1.9481   3.3641   3.4017
     3.5174   3.5305   3.6058   3.6172   3.7018   3.8576   3.9067   4.0174
     4.0536

[...]

          k = 0.0380-0.0419 0.0000 ( 17876 PWs)   bands (ev):

[...]

          k =-0.0760-0.0000 0.0000 ( 17886 PWs)   bands (ev):

[...]

          k =-0.0760-0.0839 0.0000 ( 17948 PWs)   bands (ev):

   -55.7667 -55.6964 -55.6958 -55.5714 -55.5535 -55.5281 -55.5259 -55.5246
   -55.4936 -55.4553 -55.4466 -55.3336 -55.3096 -55.2688 -54.6751 -54.6741
   -32.0311 -32.0150 -32.0145 -32.0141 -31.9894 -31.9888 -31.9856 -31.9732
   -31.9149 -31.8892 -31.8715 -31.8585 -31.8538 -31.8337 -31.8186 -31.8164
   -31.8157 -31.8127 -31.8091 -31.8039 -31.7788 -31.7525 -31.7440 -31.7369
   -31.7287 -31.7272 -31.7119 -31.7107 -31.7094 -31.7007 -31.7001 -31.6798
   -31.6783 -31.6739 -31.6431 -31.6133 -31.5945 -31.5564 -31.5357 -31.5298
   -31.5183 -31.4732 -31.0017 -31.0010 -30.9114 -30.9101 -30.8726 -30.8718
   -16.8636 -16.6528 -16.0509 -15.8018 -15.7095 -15.6991 -15.5672 -15.4998
   -15.4887 -15.4470 -15.4281 -15.4063 -15.3983 -15.3753 -15.3331 -15.2805
   -15.2508 -15.2242 -15.2180 -15.1783 -15.1710 -15.1523 -15.1499 -15.1282
   -15.0786 -15.0374 -15.0239 -15.0081 -14.8241 -14.7696 -14.6407 -13.1756
   -13.1751  -9.8004  -7.0555  -5.3217  -4.1533  -3.3632  -3.1752  -3.0122
    -2.9410  -2.8844  -2.7920  -2.7494  -2.7347  -2.6895  -2.6665  -2.6436
    -2.5637  -2.5486  -2.5199  -2.5085  -2.4790  -2.4643  -2.4578  -2.4482
    -2.4042  -2.3954  -2.3853  -2.3535  -2.3457  -2.3351  -2.2960  -2.2748
    -2.2649  -2.2541  -2.2052  -2.1819  -2.1034  -2.0639  -1.9669  -1.8838
    -1.8733  -1.8499  -1.8024  -1.7906  -1.7482  -1.7323  -1.6883  -1.6140
    -1.5300  -1.4613  -1.3511  -1.3080  -1.2966  -1.2379  -1.2198  -1.1635
    -1.1304  -1.0989  -1.0702  -0.9694  -0.9365  -0.8802  -0.7636  -0.6997
    -0.6873  -0.6643  -0.6536  -0.6181  -0.5976  -0.5827  -0.5517  -0.4688
    -0.4318  -0.4164  -0.4074  -0.3715  -0.2456  -0.1220  -0.0779  -0.0201
     0.0471   0.0630   0.1163   0.1578   0.3109   0.3452   0.4423   0.4572
     0.4780   0.5915   0.5989   0.6796   0.7220   0.7662   0.7946   0.8270
     0.8319   0.8714   1.6964   1.7049   1.7684   1.7685   3.3731   3.7455
     3.8479   3.8642   3.8818   3.9227   3.9365   3.9657   3.9713   4.0364
     4.0544

     the Fermi energy is     3.4062 ev

!    total energy              =   -2953.88656083 Ry
     estimated scf accuracy    <       0.00000004 Ry
     smearing contrib. (-TS)   =      -0.02908934 Ry
     internal energy E=F+TS    =   -2953.85747150 Ry

     The total energy is F=E-TS. E is the sum of the following terms:
     one-electron contribution =  -23669.85969845 Ry
     hartree contribution      =   11925.88344091 Ry
     xc contribution           =    -488.86053183 Ry
     ewald contribution        =    9278.97793733 Ry
     electric field correction =       0.00138055 Ry

     convergence has been achieved in  66 iterations

     Forces acting on atoms (cartesian axes, Ry/au):

     atom    1 type  1   force =    -0.00002308   -0.00028545    0.09375714
     atom    2 type  1   force =    -0.00008922    0.00049074   -0.17554452
     atom    3 type  2   force =     0.00011184   -0.00024842   -0.02087759
     atom    4 type  2   force =     0.00001201   -0.00197930    0.05497433
     atom    5 type  2   force =    -0.00645618   -0.00244196    0.00277655
     atom    6 type  2   force =     0.00861544   -0.00177316    0.00361664
     atom    7 type  1   force =     0.00058981   -0.00335235    0.00968878
     atom    8 type  1   force =    -0.00066269    0.00048112    0.00110284
     atom    9 type  2   force =    -0.00001176    0.00060486   -0.00094163
     atom   10 type  2   force =    -0.00025083    0.00115143   -0.00781686
     atom   11 type  2   force =    -0.00011359   -0.00002062    0.00015656
     atom   12 type  2   force =    -0.00043137   -0.00018576    0.00002325
     atom   13 type  1   force =    -0.00027507    0.00002341   -0.00041155
     atom   14 type  1   force =    -0.00061195    0.00048909    0.00036584
     atom   15 type  2   force =    -0.00006812    0.00103700   -0.00007196
     atom   16 type  2   force =    -0.00009196    0.00004101    0.00002662
     atom   17 type  2   force =    -0.00052328    0.00038279   -0.00008699
     atom   18 type  2   force =     0.00012598    0.00085802   -0.00052282
     atom   19 type  1   force =    -0.00022689   -0.00017003    0.00066925
     atom   20 type  1   force =     0.00005946   -0.00050460    0.00016239
     atom   21 type  2   force =     0.00001648    0.00008299    0.10330238
     atom   22 type  2   force =    -0.00024970    0.00024798   -0.00021785
     atom   23 type  2   force =    -0.07187841   -0.00017390   -0.02714980
     atom   24 type  2   force =     0.07174773    0.00029737   -0.02722613
     atom   25 type  1   force =     0.00008913   -0.00019772    0.09355768
     atom   26 type  1   force =    -0.00025785   -0.00138155   -0.17566092
     atom   27 type  2   force =     0.00015151   -0.00016046   -0.01963305
     atom   28 type  2   force =     0.00011221   -0.00028524    0.05021434
     atom   29 type  2   force =    -0.00551913    0.00259471    0.00167039
     atom   30 type  2   force =     0.00766678    0.00268858    0.00256409
     atom   31 type  1   force =     0.00071453    0.00799143   -0.00206043
     atom   32 type  1   force =    -0.00071587   -0.00207694    0.00021169
     atom   33 type  2   force =    -0.00016923   -0.00073065   -0.00009550
     atom   34 type  2   force =     0.00011432   -0.00173223   -0.00873634
     atom   35 type  2   force =    -0.00003799   -0.00011424   -0.00059490
     atom   36 type  2   force =    -0.00020207   -0.00019003   -0.00039948
     atom   37 type  1   force =     0.00044991    0.00066325   -0.00068463
     atom   38 type  1   force =    -0.00062576   -0.00057434    0.00021272
     atom   39 type  2   force =    -0.00006566    0.00011688    0.00020581
     atom   40 type  2   force =     0.00013280    0.00002235    0.00059317
     atom   41 type  2   force =    -0.00067748   -0.00005476    0.00032574
     atom   42 type  2   force =     0.00060963   -0.00007950   -0.00097125
     atom   43 type  1   force =    -0.00080261    0.00049350    0.00049178
     atom   44 type  1   force =     0.00016015   -0.00111893    0.00026431
     atom   45 type  2   force =     0.00001931   -0.00005535    0.10308704
     atom   46 type  2   force =    -0.07188823   -0.00002182   -0.02715977
     atom   47 type  2   force =     0.07179573    0.00039795   -0.02724814
     atom   48 type  3   force =     0.00038281   -0.00011489   -0.00030580
     atom   49 type  4   force =     0.00092976    0.00023468    0.00071220
     atom   50 type  5   force =    -0.00042547    0.00017195    0.00012891
     atom   51 type  5   force =    -0.00003125   -0.00060707    0.00066045
     atom   52 type  5   force =     0.00001827    0.00061363   -0.00060933
     atom   53 type  5   force =    -0.00061312   -0.00113736    0.00002133
     atom   54 type  2   force =     0.01696434    0.00170202   -0.00713715
     atom   55 type  5   force =    -0.01759413   -0.00211013    0.00662018

     Total force =     0.363016     Total SCF correction =     0.000414
  @ DRIVER MODE: Message from server: STATUS
  @ DRIVER MODE: Message from server: GETFORCE
  @ DRIVER MODE: Returning v,forces,stress,ensemble

     Writing output data file ./calc.save/
  @ DRIVER MODE: Message from server: EXIT
  @ DRIVE MODE: Exiting

     General routines

     Parallel routines

   This run was terminated on:   5:26:47  23Sep2021

   JOB DONE.