     Program PWSCF v.6.7GPU starts on 22Sep2021 at 22: 0:37

     R & G space division:  proc/nbgrp/npool/nimage =       8
     Reading input from /storage/home/hcoda1/3/ntian30/research/carbon/CxH_vib/H2O_calc/ads_slab/CH3HO_a/out_0000/pw.inp
Warning: card &CELL ignored
Warning: card   CELL_DYNAMICS='IPI', ignored
Warning: card / ignored

     Current dimensions of program PWSCF are:
     Max number of different atomic species (ntypx) = 10
     Max number of k-points (npk) =  40000
     Max angular momentum in pseudopotentials (lmaxx) =  3
     Presently no symmetry can be used with electric field

     Message from routine cell_base_init:
     DEPRECATED: use true lattice parameter, not A to a.u. conversion factor

     IMPORTANT: XC functional enforced from input :
     Exchange-correlation= BEEF-VDW
                           (   1   4  43  14   2   0   0)
     Any further DFT definition will be discarded
     Please, verify this is what you really want

  @ DRIVER MODE: Connecting to
 qe_1139763_2941010.sched-torque.pace.gatech.edu0cop_euw_scratch
  using UNIX socket
  @ DRIVER MODE: Message from server: STATUS
  @ DRIVER MODE: Message from server: INIT
  @ DRIVER MODE: Receiving replica           0          -1
  @ DRIVER MODE: Receiving encoded integer          25
  @ DRIVER MODE:  SCF:  T  FORCE:  T  STRESS:  F  VC:  F  ENSEMBLE:  F
  @ DRIVER MODE:  SCF:  T  FORCE:  T  STRESS:  F  VC:  F  ENSEMBLE:  F

     Using Slab Decomposition

     bravais-lattice index     =            0
     lattice parameter (alat)  =       1.8897  a.u.
     unit-cell volume          =    6658.9804 (a.u.)^3
     number of atoms/cell      =           53
     number of atomic types    =            4
     number of electrons       =       392.00
     number of Kohn-Sham states=          206
     kinetic-energy cutoff     =      29.3995  Ry
     charge density cutoff     =     293.9946  Ry
     scf convergence threshold =      7.3E-08
     mixing beta               =       0.0500
     number of iterations used =            8  plain     mixing
     Exchange-correlation= BEEF-VDW
                           (   1   4  43  14   2   0   0)

     celldm(1)=   1.889726  celldm(2)=   0.000000  celldm(3)=   0.000000
     celldm(4)=   0.000000  celldm(5)=   0.000000  celldm(6)=   0.000000

     crystal axes: (cart. coord. in units of alat)
               a(1) = (   6.579727   0.000000   0.000000 )
               a(2) = (  -0.000775   5.961596   0.000000 )
               a(3) = (   0.000000   0.000000  25.155947 )

     reciprocal axes: (cart. coord. in units 2 pi/alat)
               b(1) = (  0.151982  0.000020  0.000000 )
               b(2) = (  0.000000  0.167740  0.000000 )
               b(3) = (  0.000000  0.000000  0.039752 )

     PseudoPot. # 1 for Ti read from file:
     /storage/coda1/p-amedford6/0/shared/rich_project_chbe-medford/medford-share/data/pseudos_module/espresso/nninc/pbe/van/Ti.UPF
     MD5 check sum: 8e4df49b7f0d34bbd5052bf3f5ea0213
     Pseudo is Ultrasoft, Zval = 12.0
     Generated by new atomic code, or converted to UPF format
     Using radial grid of  851 points,  6 beta functions with:
                l(1) =   0
                l(2) =   0
                l(3) =   1
                l(4) =   1
                l(5) =   2
                l(6) =   2
     Q(r) pseudized with  8 coefficients,  rinner =    1.000   1.000   1.000
                                                       1.000   1.000

     PseudoPot. # 2 for O  read from file:
     /storage/coda1/p-amedford6/0/shared/rich_project_chbe-medford/medford-share/data/pseudos_module/espresso/nninc/pbe/van/O.UPF
     MD5 check sum: 78c19812648e8988a0fe644b0f25305e
     Pseudo is Ultrasoft, Zval =  6.0
     Generated by new atomic code, or converted to UPF format
     Using radial grid of  737 points,  4 beta functions with:
                l(1) =   0
                l(2) =   0
                l(3) =   1
                l(4) =   1
     Q(r) pseudized with  8 coefficients,  rinner =    0.800   0.800   0.800

     PseudoPot. # 3 for C  read from file:
     /storage/coda1/p-amedford6/0/shared/rich_project_chbe-medford/medford-share/data/pseudos_module/espresso/nninc/pbe/van/C.UPF
     MD5 check sum: 1a69bf6b8db32088f5b2163dbdb77a27
     Pseudo is Ultrasoft, Zval =  4.0
     Generated by new atomic code, or converted to UPF format
     Using radial grid of  721 points,  4 beta functions with:
                l(1) =   0
                l(2) =   0
                l(3) =   1
                l(4) =   1
     Q(r) pseudized with  8 coefficients,  rinner =    0.800   0.800   0.800

     PseudoPot. # 4 for H  read from file:
     /storage/coda1/p-amedford6/0/shared/rich_project_chbe-medford/medford-share/data/pseudos_module/espresso/nninc/pbe/van/H.UPF
     MD5 check sum: b5ee9d7bfd3a09ee7748110bda690ff7
     Pseudo is Ultrasoft, Zval =  1.0
     Generated by new atomic code, or converted to UPF format
     Using radial grid of  615 points,  1 beta functions with:
                l(1) =   0
     Q(r) pseudized with  8 coefficients,  rinner =    0.800

     atomic species   valence    mass     pseudopotential
        Ti1           12.00    47.86700     Ti( 1.00)
        O1             6.00    15.99900     O ( 1.00)
        C1             4.00    12.01100     C ( 1.00)
        H1             1.00     1.00800     H ( 1.00)

     No symmetry found

   Cartesian axes

     site n.     atom                  positions (alat units)
         1           Ti1 tau(   1) = (   0.0004258   2.9801865   6.0000000  )
         2           Ti1 tau(   2) = (   3.2906075   1.4906267   6.0002472  )
         3           O1  tau(   3) = (   0.0006271   0.0005054   7.9858123  )
         4           O1  tau(   4) = (   3.2906025   0.0005020   7.3038282  )
         5           O1  tau(   5) = (   4.5942328   1.4918067   9.2879030  )
         6           O1  tau(   6) = (   1.9868534   1.4903216   9.2879459  )
         7           Ti1 tau(   7) = (   3.2776386   2.8603028   9.2190116  )
         8           Ti1 tau(   8) = (   6.5598479   1.4304724   9.3580194  )
         9           O1  tau(   9) = (   3.2889234   5.9509398  11.3217173  )
        10           O1  tau(  10) = (   6.5764018   5.9495644  10.5876710  )
        11           O1  tau(  11) = (   1.2812264   1.4943635  12.6442538  )
        12           O1  tau(  12) = (   5.3065913   1.4950901  12.6410841  )
        13           Ti1 tau(  13) = (   0.0201148   2.8652118  12.8170930  )
        14           Ti1 tau(  14) = (   3.2957237   1.3106547  12.6889287  )
        15           O1  tau(  15) = (   6.5548780   5.9443598  14.6367865  )
        16           O1  tau(  16) = (   3.2877845   0.0417723  13.9217912  )
        17           O1  tau(  17) = (   4.5532326   1.5761655  16.0783859  )
        18           O1  tau(  18) = (   2.0366504   1.5601698  16.0762102  )
        19           Ti1 tau(  19) = (   3.2678531   3.0297845  15.6708759  )
        20           Ti1 tau(  20) = (   6.4629285   1.5188837  16.1410570  )
        21           O1  tau(  21) = (   3.2904802   0.0005063   4.7018136  )
        22           O1  tau(  22) = (   6.5629482   0.0231895  17.1619738  )
        23           O1  tau(  23) = (   1.3043587   1.4918075   6.0039043  )
        24           O1  tau(  24) = (   5.2767064   1.4903225   6.0039473  )
        25           Ti1 tau(  25) = (   0.0000382   5.9609847   6.0000000  )
        26           Ti1 tau(  26) = (   3.2902200   4.4714249   6.0002472  )
        27           O1  tau(  27) = (   0.0002396   2.9813036   7.9858123  )
        28           O1  tau(  28) = (   3.2902150   2.9813002   7.3038282  )
        29           O1  tau(  29) = (   4.5938453   4.4726049   9.2879030  )
        30           O1  tau(  30) = (   1.9864658   4.4711199   9.2879459  )
        31           Ti1 tau(  31) = (   3.2699525   5.8470351   9.1790592  )
        32           Ti1 tau(  32) = (   6.5580068   4.3764721   9.3475679  )
        33           O1  tau(  33) = (   3.2877686   3.0124297  11.2895287  )
        34           O1  tau(  34) = (   0.0005883   2.9642609  10.5504472  )
        35           O1  tau(  35) = (   1.2748618   4.4645017  12.6259732  )
        36           O1  tau(  36) = (   5.2954498   4.4639995  12.6225180  )
        37           Ti1 tau(  37) = (   6.5558271   5.8472513  12.6028672  )
        38           Ti1 tau(  38) = (   3.2807834   4.4064534  12.4217905  )
        39           O1  tau(  39) = (   6.5786029   2.9813041  14.7145626  )
        40           O1  tau(  40) = (   3.2869290   2.9992676  13.8921391  )
        41           O1  tau(  41) = (   4.5413935   4.4541386  16.0960746  )
        42           O1  tau(  42) = (   2.0104822   4.4576224  16.0708021  )
        43           Ti1 tau(  43) = (   3.1667734   0.0431258  16.3165854  )
        44           Ti1 tau(  44) = (   6.5007865   4.6242813  15.9014112  )
        45           O1  tau(  45) = (   3.2900926   2.9813045   4.7018136  )
        46           O1  tau(  46) = (   1.3039711   4.4726057   6.0039043  )
        47           O1  tau(  47) = (   5.2763189   4.4711207   6.0039473  )
        48           C1  tau(  48) = (   0.0287742   2.9159372  17.8309569  )
        49           H1  tau(  49) = (   0.0209232   3.9694834  18.1111783  )
        50           H1  tau(  50) = (   0.9459818   2.5003430  18.2552837  )
        51           H1  tau(  51) = (   5.7514102   2.4667126  18.3442606  )
        52           O1  tau(  52) = (   3.2249103   0.0683284  18.1361362  )
        53           H1  tau(  53) = (   3.4857875   5.2839856  18.6954204  )

     number of k points=    10  Fermi-Dirac smearing, width (Ry)=  0.0073
                       cart. coord. in units 2pi/alat
        k(    1) = (   0.0000000   0.0000000   0.0000000), wk =   0.1250000
        k(    2) = (   0.0000000   0.0419351   0.0000000), wk =   0.2500000
        k(    3) = (   0.0000000  -0.0838702   0.0000000), wk =   0.1250000
        k(    4) = (   0.0379955   0.0000049   0.0000000), wk =   0.2500000
        k(    5) = (   0.0379955   0.0419400   0.0000000), wk =   0.2500000
        k(    6) = (   0.0379955  -0.0838652   0.0000000), wk =   0.2500000
        k(    7) = (   0.0379955  -0.0419301   0.0000000), wk =   0.2500000
        k(    8) = (  -0.0759910  -0.0000099   0.0000000), wk =   0.1250000
        k(    9) = (  -0.0759910   0.0419252   0.0000000), wk =   0.2500000
        k(   10) = (  -0.0759910  -0.0838800   0.0000000), wk =   0.1250000

     Initial potential from superposition of free atoms

     starting charge  375.99917, renormalised to  392.00000

     negative rho (up, down):  1.891E-02 0.000E+00

     %%%%%%%%%%%%%%%%%%%%%%%%%%%%%%%%%%%%%%%%%%%%%%%%%%%%%%%%%%%%%%%%%%%%%%%%
     %                                                                      %
     % You are using vdW-DF, which was implemented by the Thonhauser group. %
     % Please cite the following two papers that made this development      %
     % possible and the two reviews that describe the various versions:     %
     %                                                                      %
     %   T. Thonhauser et al., PRL 115, 136402 (2015).                      %
     %   T. Thonhauser et al., PRB 76, 125112 (2007).                       %
     %   K. Berland et al., Rep. Prog. Phys. 78, 066501 (2015).             %
     %   D.C. Langreth et al., J. Phys.: Condens. Matter 21, 084203 (2009). %
     %                                                                      %
     %                                                                      %
     % If you are calculating the stress with vdW-DF, please also cite:     %
     %                                                                      %
     %   R. Sabatini et al., J. Phys.: Condens. Matter 24, 424209 (2012).   %
     %                                                                      %
     %%%%%%%%%%%%%%%%%%%%%%%%%%%%%%%%%%%%%%%%%%%%%%%%%%%%%%%%%%%%%%%%%%%%%%%%

     Adding external electric field

     Computed dipole along edir(3) :
        Dipole               -5.0034 Ry au,        -12.7174 Debye
        Dipole field         -0.0094 Ry au,

        Potential amp.        0.8753 Ry
        Total length         46.3494 bohr

     Starting wfcs are  296 atomic wfcs
  @ DRIVER MODE: Message from server: STATUS
  @ DRIVER MODE: Message from server: POSDATA
  @ DRIVER MODE: Reading and sharing cell
  @ DRIVER MODE: Reading and sharing positions
  @ DRIVER MODE: Received positions

     Self-consistent Calculation

     iteration #  1     ecut=    29.40 Ry     beta= 0.05
     Davidson diagonalization with overlap
     ethr =  1.00E-02,  avg # of iterations =  2.0

[...]

     total energy              =   -2844.82466284 Ry
     estimated scf accuracy    <     968.66666063 Ry

[...]

     iteration #  3     ecut=    29.40 Ry     beta= 0.05
     Davidson diagonalization with overlap
     c_bands:  1 eigenvalues not converged
     ethr =  1.00E-02,  avg # of iterations = 17.7

[...]

     iteration # 31     ecut=    29.40 Ry     beta= 0.05
     Davidson diagonalization with overlap
     c_bands:  1 eigenvalues not converged
     ethr =  7.77E-07,  avg # of iterations =  9.5

[...]

     total energy              =   -2932.63116566 Ry
     estimated scf accuracy    <       0.00000015 Ry

     iteration # 66     ecut=    29.40 Ry     beta= 0.05
     Davidson diagonalization with overlap
     ethr =  2.52E-11,  avg # of iterations =  5.5

     negative rho (up, down):  1.833E-02 0.000E+00

     Adding external electric field

     Computed dipole along edir(3) :
        Dipole                0.4028 Ry au,          1.0238 Debye
        Dipole field          0.0008 Ry au,

        Potential amp.       -0.0705 Ry
        Total length         46.3494 bohr

     End of self-consistent calculation

          k = 0.0000 0.0000 0.0000 ( 18029 PWs)   bands (ev):

   -56.6136 -56.5635 -56.0782 -56.0396 -56.0047 -55.9340 -55.9080 -55.8949
   -55.8538 -55.8479 -55.8054 -55.7825 -55.7270 -55.6355 -55.2250 -55.1911
   -33.0253 -32.8786 -32.8243 -32.7923 -32.6966 -32.6514 -32.5035 -32.4882
   -32.4505 -32.3436 -32.3244 -32.3189 -32.3128 -32.3053 -32.2862 -32.2688
   -32.2456 -32.2246 -32.2185 -32.1432 -32.1397 -32.1382 -32.1251 -32.1140
   -32.1080 -32.1034 -32.0927 -32.0898 -32.0849 -32.0537 -32.0400 -32.0395
   -32.0096 -31.9997 -31.9954 -31.9833 -31.9676 -31.9512 -31.8921 -31.8590
   -31.8453 -31.8383 -31.6195 -31.5651 -31.5408 -31.4363 -31.3515 -31.2406
   -16.9225 -16.7697 -16.6314 -16.4088 -16.2685 -16.1579 -15.9403 -15.9293
   -15.8076 -15.8035 -15.7616 -15.6363 -15.6217 -15.5853 -15.5740 -15.5498
   -15.5363 -15.5259 -15.5217 -15.4972 -15.4615 -15.4388 -15.3956 -15.3242
   -15.2591 -15.2417 -15.2030 -15.1397 -15.1070 -14.8726 -13.7267 -13.6181
    -9.3762  -4.6680  -4.2960  -4.0801  -3.9659  -3.9242  -3.7864  -3.6404
    -3.4641  -3.3700  -3.2408  -3.2344  -3.1641  -3.1221  -3.1108  -3.1057
    -3.0210  -2.9743  -2.9462  -2.9184  -2.9042  -2.8517  -2.8177  -2.7754
    -2.7543  -2.7528  -2.7089  -2.6806  -2.5357  -2.5053  -2.4887  -2.4805
    -2.4414  -2.4237  -2.3885  -2.3723  -2.2921  -2.2092  -2.1904  -2.1294
    -2.0648  -2.0179  -1.8274  -1.8155  -1.7161  -1.6388  -1.6158  -1.5692
    -1.5299  -1.4888  -1.4215  -1.3956  -1.3081  -1.2535  -1.2005  -1.1890
    -1.1562  -1.1218  -1.0802  -0.9754  -0.9264  -0.9207  -0.8106  -0.7578
    -0.6925  -0.6878  -0.6320  -0.5992  -0.4962  -0.4779  -0.4453  -0.4096
    -0.3775  -0.3541  -0.2963  -0.2761  -0.2464  -0.1856  -0.1462  -0.1265
    -0.0972  -0.0824  -0.0182   0.0384   0.0576   0.1638   0.1826   0.2185
     0.2897   0.3795   0.4330   0.5203   0.6934   0.7923   0.8264   0.9374
     1.0070   1.0531   1.3439   1.3898   2.6880   2.8501   3.1294   3.2819
     3.3045   3.3600   3.4071   3.4627   3.6218   3.6523

[...]

          k = 0.0380-0.0419 0.0000 ( 17876 PWs)   bands (ev):

[...]

          k =-0.0760-0.0000 0.0000 ( 17886 PWs)   bands (ev):

[...]

          k =-0.0760-0.0839 0.0000 ( 17948 PWs)   bands (ev):

   -56.6071 -56.5698 -56.0771 -56.0373 -56.0000 -55.9385 -55.9101 -55.8957
   -55.8518 -55.8395 -55.8138 -55.7806 -55.7290 -55.6373 -55.2082 -55.2077
   -32.8744 -32.8578 -32.8282 -32.8259 -32.7588 -32.7271 -32.3830 -32.3574
   -32.3439 -32.3231 -32.2925 -32.2902 -32.2676 -32.2631 -32.2500 -32.2429
   -32.2195 -32.2172 -32.2074 -32.1887 -32.1838 -32.1657 -32.1607 -32.1369
   -32.1335 -32.1333 -32.1196 -32.1041 -32.0998 -32.0704 -32.0619 -32.0496
   -32.0475 -32.0407 -32.0071 -32.0043 -31.9906 -31.9872 -31.9688 -31.8932
   -31.8818 -31.8488 -31.5540 -31.5537 -31.4352 -31.4334 -31.3936 -31.3927
   -16.9079 -16.1666 -16.0828 -16.0766 -16.0658 -16.0360 -15.9907 -15.9215
   -15.9186 -15.8257 -15.7936 -15.7583 -15.7242 -15.7083 -15.6547 -15.6499
   -15.6329 -15.5686 -15.5261 -15.4996 -15.4814 -15.4770 -15.4490 -15.4295
   -15.4178 -15.3987 -15.3331 -15.2995 -15.2226 -15.0127 -13.7225 -13.7211
    -9.3907  -4.6755  -3.3949  -3.3249  -3.2538  -3.2347  -3.1567  -3.1114
    -3.0980  -3.0746  -3.0498  -3.0170  -2.9888  -2.9734  -2.9266  -2.9153
    -2.9089  -2.9062  -2.8975  -2.8847  -2.8588  -2.8058  -2.7958  -2.7895
    -2.7687  -2.7624  -2.7463  -2.7258  -2.6808  -2.6646  -2.6221  -2.4590
    -2.4302  -2.4227  -2.3749  -2.3518  -2.3016  -2.2726  -2.1962  -2.1824
    -2.1746  -2.1438  -2.0269  -1.9098  -1.7803  -1.7709  -1.7349  -1.6645
    -1.6293  -1.5651  -1.5366  -1.5135  -1.4879  -1.4450  -1.4256  -1.3383
    -1.3296  -1.2876  -1.2731  -1.2574  -1.1749  -1.1135  -1.0851  -1.0625
    -1.0233  -0.9881  -0.9282  -0.8820  -0.8695  -0.8398  -0.8216  -0.7042
    -0.6702  -0.6400  -0.4919  -0.4573  -0.4505  -0.4023  -0.2506  -0.2077
    -0.1575  -0.1128  -0.0835   0.0465   0.0911   0.1378   0.1452   0.1998
     0.3187   0.3418   0.3862   0.4528   0.4762   0.4867   0.5267   1.0281
     1.1853   1.1881   1.1964   1.2017   3.2295   3.2539   3.2664   3.2975
     3.4699   3.5398   3.5758   3.6043   3.6518   3.7278

     the Fermi energy is     2.0970 ev

!    total energy              =   -2932.63118729 Ry
     estimated scf accuracy    <       0.00000002 Ry
     smearing contrib. (-TS)   =      -0.00015676 Ry
     internal energy E=F+TS    =   -2932.63103053 Ry

     The total energy is F=E-TS. E is the sum of the following terms:
     one-electron contribution =  -24308.08031749 Ry
     hartree contribution      =   12238.21166359 Ry
     xc contribution           =    -482.65163363 Ry
     ewald contribution        =    9619.88895079 Ry
     electric field correction =       0.00030620 Ry

     convergence has been achieved in  66 iterations

     Forces acting on atoms (cartesian axes, Ry/au):

     atom    1 type  1   force =     0.00035450   -0.00031562    0.13238357
     atom    2 type  1   force =     0.00005360    0.00688208   -0.15776870
     atom    3 type  2   force =     0.00014772    0.00441497   -0.05306531
     atom    4 type  2   force =    -0.00038300   -0.00087160    0.04047675
     atom    5 type  2   force =    -0.00907166   -0.00264973    0.00215207
     atom    6 type  2   force =     0.00917625   -0.00496384    0.00182244
     atom    7 type  1   force =     0.00068790    0.00107052    0.00046700
     atom    8 type  1   force =    -0.00078602   -0.00013241   -0.00011330
     atom    9 type  2   force =     0.00000674   -0.00017377    0.00051696
     atom   10 type  2   force =     0.00005008   -0.00006940   -0.00012112
     atom   11 type  2   force =    -0.00058106    0.00020914   -0.00039127
     atom   12 type  2   force =    -0.00052076   -0.00055181   -0.00059945
     atom   13 type  1   force =     0.00096570   -0.00085960   -0.00002184
     atom   14 type  1   force =    -0.00105772   -0.00094097    0.00006353
     atom   15 type  2   force =     0.00003316    0.00018235   -0.00082922
     atom   16 type  2   force =     0.00009551    0.00003437   -0.00040922
     atom   17 type  2   force =     0.00003323   -0.00011628    0.00010990
     atom   18 type  2   force =    -0.00011879   -0.00006930    0.00022319
     atom   19 type  1   force =     0.00009179   -0.00012524   -0.00093733
     atom   20 type  1   force =    -0.00015500   -0.00033152   -0.00008688
     atom   21 type  2   force =     0.00016200    0.00008871    0.09921206
     atom   22 type  2   force =     0.00015171    0.00015134   -0.00004146
     atom   23 type  2   force =    -0.08041201    0.00141753   -0.03414602
     atom   24 type  2   force =     0.08050103    0.00191589   -0.03418720
     atom   25 type  1   force =     0.00021173   -0.00004684    0.14218515
     atom   26 type  1   force =     0.00010235   -0.00847867   -0.15823725
     atom   27 type  2   force =    -0.00010918   -0.00043471   -0.05129177
     atom   28 type  2   force =    -0.00024856   -0.00030778    0.04226841
     atom   29 type  2   force =    -0.00856666    0.00487200    0.00031783
     atom   30 type  2   force =     0.00771645    0.00352137    0.00001909
     atom   31 type  1   force =     0.00053660   -0.00129346    0.00088592
     atom   32 type  1   force =    -0.00091124    0.00037573   -0.00076406
     atom   33 type  2   force =     0.00001973   -0.00027618   -0.00016542
     atom   34 type  2   force =     0.00000405   -0.00100162    0.00034370
     atom   35 type  2   force =    -0.00038501    0.00005560   -0.00020515
     atom   36 type  2   force =     0.00021032   -0.00021127   -0.00022739
     atom   37 type  1   force =     0.00101176    0.00078590    0.00045206
     atom   38 type  1   force =    -0.00047730    0.00002006    0.00018271
     atom   39 type  2   force =    -0.00025957   -0.00026186   -0.00017173
     atom   40 type  2   force =     0.00024777   -0.00028026   -0.00001964
     atom   41 type  2   force =     0.00011457   -0.00012500   -0.00006479
     atom   42 type  2   force =     0.00003324    0.00029256   -0.00000663
     atom   43 type  1   force =    -0.00001615    0.00037363   -0.00080214
     atom   44 type  1   force =     0.00026902    0.00015074    0.00003421
     atom   45 type  2   force =     0.00015562    0.00004229    0.09875350
     atom   46 type  2   force =    -0.08044789   -0.00101229   -0.03415027
     atom   47 type  2   force =     0.08054130   -0.00053125   -0.03418570
     atom   48 type  3   force =    -0.00019353    0.00006775   -0.00024428
     atom   49 type  4   force =    -0.00007886    0.00014738    0.00060150
     atom   50 type  4   force =     0.00007541   -0.00030779    0.00044335
     atom   51 type  4   force =    -0.00039371   -0.00015039    0.00016467
     atom   52 type  2   force =     0.00064352   -0.00165361   -0.00048826
     atom   53 type  4   force =     0.00076929    0.00147218   -0.00033681

     Total force =     0.383749     Total SCF correction =     0.000225
  @ DRIVER MODE: Message from server: STATUS
  @ DRIVER MODE: Message from server: GETFORCE
  @ DRIVER MODE: Returning v,forces,stress,ensemble

     Writing output data file ./calc.save/
  @ DRIVER MODE: Message from server: EXIT
  @ DRIVE MODE: Exiting

     General routines

     Parallel routines

   This run was terminated on:  22:21:20  22Sep2021

   JOB DONE.