     Program PWSCF v.6.7GPU starts on  9Sep2021 at  6:41:11

     R & G space division:  proc/nbgrp/npool/nimage =      10
     Reading input from /storage/home/hcoda1/3/ntian30/research/carbon/CxH_vib/CH2_calc/ads_slab/CH2N2_b/out_0025/pw.inp
Warning: card &CELL ignored
Warning: card   CELL_DYNAMICS='IPI', ignored
Warning: card / ignored

     Current dimensions of program PWSCF are:
     Max number of different atomic species (ntypx) = 10
     Max number of k-points (npk) =  40000
     Max angular momentum in pseudopotentials (lmaxx) =  3
     Presently no symmetry can be used with electric field

     Message from routine cell_base_init:
     DEPRECATED: use true lattice parameter, not A to a.u. conversion factor

     IMPORTANT: XC functional enforced from input :
     Exchange-correlation= BEEF-VDW
                           (   1   4  43  14   2   0   0)
     Any further DFT definition will be discarded
     Please, verify this is what you really want

  @ DRIVER MODE: Connecting to
 qe_1139763_2767386.sched-torque.pace.gatech.educi1aos8e_scratch
  using UNIX socket
  @ DRIVER MODE: Message from server: STATUS
  @ DRIVER MODE: Message from server: INIT
  @ DRIVER MODE: Receiving replica           0          -1
  @ DRIVER MODE: Receiving encoded integer          25
  @ DRIVER MODE:  SCF:  T  FORCE:  T  STRESS:  F  VC:  F  ENSEMBLE:  F
  @ DRIVER MODE:  SCF:  T  FORCE:  T  STRESS:  F  VC:  F  ENSEMBLE:  F

     Using Slab Decomposition

     bravais-lattice index     =            0
     lattice parameter (alat)  =       1.8897  a.u.
     unit-cell volume          =    6658.9804 (a.u.)^3
     number of atoms/cell      =           52
     number of atomic types    =            5
     number of electrons       =       394.00
     number of Kohn-Sham states=          207
     kinetic-energy cutoff     =      29.3995  Ry
     charge density cutoff     =     293.9946  Ry
     scf convergence threshold =      7.3E-08
     mixing beta               =       0.0500
     number of iterations used =            8  plain     mixing
     Exchange-correlation= BEEF-VDW
                           (   1   4  43  14   2   0   0)

     celldm(1)=   1.889726  celldm(2)=   0.000000  celldm(3)=   0.000000
     celldm(4)=   0.000000  celldm(5)=   0.000000  celldm(6)=   0.000000

     crystal axes: (cart. coord. in units of alat)
               a(1) = (   6.579727   0.000000   0.000000 )
               a(2) = (  -0.000775   5.961596   0.000000 )
               a(3) = (   0.000000   0.000000  25.155947 )

     reciprocal axes: (cart. coord. in units 2 pi/alat)
               b(1) = (  0.151982  0.000020  0.000000 )
               b(2) = (  0.000000  0.167740  0.000000 )
               b(3) = (  0.000000  0.000000  0.039752 )

     PseudoPot. # 1 for Ti read from file:
     /storage/coda1/p-amedford6/0/shared/rich_project_chbe-medford/medford-share/data/pseudos_module/espresso/nninc/pbe/van/Ti.UPF
     MD5 check sum: 8e4df49b7f0d34bbd5052bf3f5ea0213
     Pseudo is Ultrasoft, Zval = 12.0
     Generated by new atomic code, or converted to UPF format
     Using radial grid of  851 points,  6 beta functions with:
                l(1) =   0
                l(2) =   0
                l(3) =   1
                l(4) =   1
                l(5) =   2
                l(6) =   2
     Q(r) pseudized with  8 coefficients,  rinner =    1.000   1.000   1.000
                                                       1.000   1.000

     PseudoPot. # 2 for O  read from file:
     /storage/coda1/p-amedford6/0/shared/rich_project_chbe-medford/medford-share/data/pseudos_module/espresso/nninc/pbe/van/O.UPF
     MD5 check sum: 78c19812648e8988a0fe644b0f25305e
     Pseudo is Ultrasoft, Zval =  6.0
     Generated by new atomic code, or converted to UPF format
     Using radial grid of  737 points,  4 beta functions with:
                l(1) =   0
                l(2) =   0
                l(3) =   1
                l(4) =   1
     Q(r) pseudized with  8 coefficients,  rinner =    0.800   0.800   0.800

     PseudoPot. # 3 for N  read from file:
     /storage/coda1/p-amedford6/0/shared/rich_project_chbe-medford/medford-share/data/pseudos_module/espresso/nninc/pbe/van/N.UPF
     MD5 check sum: 90d10febe142ad51ac9d5be1deb811c4
     Pseudo is Ultrasoft, Zval =  5.0
     Generated by new atomic code, or converted to UPF format
     Using radial grid of  729 points,  4 beta functions with:
                l(1) =   0
                l(2) =   0
                l(3) =   1
                l(4) =   1
     Q(r) pseudized with  8 coefficients,  rinner =    0.800   0.800   0.800

     PseudoPot. # 4 for C  read from file:
     /storage/coda1/p-amedford6/0/shared/rich_project_chbe-medford/medford-share/data/pseudos_module/espresso/nninc/pbe/van/C.UPF
     MD5 check sum: 1a69bf6b8db32088f5b2163dbdb77a27
     Pseudo is Ultrasoft, Zval =  4.0
     Generated by new atomic code, or converted to UPF format
     Using radial grid of  721 points,  4 beta functions with:
                l(1) =   0
                l(2) =   0
                l(3) =   1
                l(4) =   1
     Q(r) pseudized with  8 coefficients,  rinner =    0.800   0.800   0.800

     PseudoPot. # 5 for H  read from file:
     /storage/coda1/p-amedford6/0/shared/rich_project_chbe-medford/medford-share/data/pseudos_module/espresso/nninc/pbe/van/H.UPF
     MD5 check sum: b5ee9d7bfd3a09ee7748110bda690ff7
     Pseudo is Ultrasoft, Zval =  1.0
     Generated by new atomic code, or converted to UPF format
     Using radial grid of  615 points,  1 beta functions with:
                l(1) =   0
     Q(r) pseudized with  8 coefficients,  rinner =    0.800

     atomic species   valence    mass     pseudopotential
        Ti1           12.00    47.86700     Ti( 1.00)
        O1             6.00    15.99900     O ( 1.00)
        N1             5.00    14.00700     N ( 1.00)
        C1             4.00    12.01100     C ( 1.00)
        H1             1.00     1.00800     H ( 1.00)

     No symmetry found

   Cartesian axes

     site n.     atom                  positions (alat units)
         1           Ti1 tau(   1) = (   0.0004258   2.9801865   6.0000000  )
         2           Ti1 tau(   2) = (   3.2906075   1.4906267   6.0002472  )
         3           O1  tau(   3) = (   0.0006271   0.0005054   7.9858123  )
         4           O1  tau(   4) = (   3.2906025   0.0005020   7.3038282  )
         5           O1  tau(   5) = (   4.5942328   1.4918067   9.2879030  )
         6           O1  tau(   6) = (   1.9868534   1.4903216   9.2879459  )
         7           Ti1 tau(   7) = (   3.2907910   2.8959150   9.1758416  )
         8           Ti1 tau(   8) = (   0.0015273   1.4827037   9.2680791  )
         9           O1  tau(   9) = (   3.2944872   5.9444814  11.3088555  )
        10           O1  tau(  10) = (   0.0116148   5.9584955  10.6183126  )
        11           O1  tau(  11) = (   1.2913257   1.4757505  12.6225222  )
        12           O1  tau(  12) = (   5.2743172   1.4729811  12.6021195  )
        13           Ti1 tau(  13) = (   0.0890023   2.9564894  12.7220187  )
        14           Ti1 tau(  14) = (   3.4221593   1.4702301  12.4648352  )
        15           O1  tau(  15) = (   0.0068176   5.9411714  14.5947238  )
        16           O1  tau(  16) = (   3.2944910   5.9492763  13.8828731  )
        17           O1  tau(  17) = (   4.5250581   1.4982466  16.0456249  )
        18           O1  tau(  18) = (   2.0665045   1.4881935  16.0281199  )
        19           Ti1 tau(  19) = (   3.2778778   2.9684174  15.6871799  )
        20           Ti1 tau(  20) = (   6.5490154   1.5309925  16.0314916  )
        21           O1  tau(  21) = (   3.2904802   0.0005063   4.7018136  )
        22           O1  tau(  22) = (   0.0123181   0.0076990  17.1679072  )
        23           O1  tau(  23) = (   1.3043587   1.4918075   6.0039043  )
        24           O1  tau(  24) = (   5.2767064   1.4903225   6.0039473  )
        25           Ti1 tau(  25) = (   0.0000382   5.9609847   6.0000000  )
        26           Ti1 tau(  26) = (   3.2902200   4.4714249   6.0002472  )
        27           O1  tau(  27) = (   0.0002396   2.9813036   7.9858123  )
        28           O1  tau(  28) = (   3.2902150   2.9813002   7.3038282  )
        29           O1  tau(  29) = (   4.5938453   4.4726049   9.2879030  )
        30           O1  tau(  30) = (   1.9864658   4.4711199   9.2879459  )
        31           Ti1 tau(  31) = (   3.2891106   5.8743827   9.1763621  )
        32           Ti1 tau(  32) = (   0.0006254   4.4649316   9.2693709  )
        33           O1  tau(  33) = (   3.2980042   2.9668427  11.3079272  )
        34           O1  tau(  34) = (   0.0092240   2.9805883  10.6323155  )
        35           O1  tau(  35) = (   1.2899229   4.4488879  12.6271902  )
        36           O1  tau(  36) = (   5.2743549   4.4545148  12.6090941  )
        37           Ti1 tau(  37) = (   0.1039690   5.9375691  12.6739196  )
        38           Ti1 tau(  38) = (   3.4213609   4.4493060  12.4702176  )
        39           O1  tau(  39) = (   6.5648181   2.9459624  14.6378081  )
        40           O1  tau(  40) = (   3.2943236   2.9658899  13.8785053  )
        41           O1  tau(  41) = (   4.5287159   4.4634493  16.0515226  )
        42           O1  tau(  42) = (   2.0597896   4.4749507  16.0164256  )
        43           Ti1 tau(  43) = (   3.2714021   5.9517381  15.6902239  )
        44           Ti1 tau(  44) = (   6.5616293   4.5902425  16.0297769  )
        45           O1  tau(  45) = (   3.2900926   2.9813045   4.7018136  )
        46           O1  tau(  46) = (   1.3039711   4.4726057   6.0039043  )
        47           O1  tau(  47) = (   5.2763189   4.4711207   6.0039473  )
        48           N1  tau(  48) = (   0.6459789   3.0609845  18.5091170  )
        49           N1  tau(  49) = (   0.0956274   2.9759187  17.3381616  )
        50           C1  tau(  50) = (   0.0579326   3.2697647  19.6266723  )
        51           H1  tau(  51) = (   5.5568954   3.3836083  19.7010695  )
        52           H1  tau(  52) = (   0.6627643   3.3288843  20.5134281  )

     number of k points=    10  Fermi-Dirac smearing, width (Ry)=  0.0073
                       cart. coord. in units 2pi/alat
        k(    1) = (   0.0000000   0.0000000   0.0000000), wk =   0.1250000
        k(    2) = (   0.0000000   0.0419351   0.0000000), wk =   0.2500000
        k(    3) = (   0.0000000  -0.0838702   0.0000000), wk =   0.1250000
        k(    4) = (   0.0379955   0.0000049   0.0000000), wk =   0.2500000
        k(    5) = (   0.0379955   0.0419400   0.0000000), wk =   0.2500000
        k(    6) = (   0.0379955  -0.0838652   0.0000000), wk =   0.2500000
        k(    7) = (   0.0379955  -0.0419301   0.0000000), wk =   0.2500000
        k(    8) = (  -0.0759910  -0.0000099   0.0000000), wk =   0.1250000
        k(    9) = (  -0.0759910   0.0419252   0.0000000), wk =   0.2500000
        k(   10) = (  -0.0759910  -0.0838800   0.0000000), wk =   0.1250000

     Initial potential from superposition of free atoms

     starting charge  377.99917, renormalised to  394.00000

     negative rho (up, down):  1.509E-02 0.000E+00

     %%%%%%%%%%%%%%%%%%%%%%%%%%%%%%%%%%%%%%%%%%%%%%%%%%%%%%%%%%%%%%%%%%%%%%%%
     %                                                                      %
     % You are using vdW-DF, which was implemented by the Thonhauser group. %
     % Please cite the following two papers that made this development      %
     % possible and the two reviews that describe the various versions:     %
     %                                                                      %
     %   T. Thonhauser et al., PRL 115, 136402 (2015).                      %
     %   T. Thonhauser et al., PRB 76, 125112 (2007).                       %
     %   K. Berland et al., Rep. Prog. Phys. 78, 066501 (2015).             %
     %   D.C. Langreth et al., J. Phys.: Condens. Matter 21, 084203 (2009). %
     %                                                                      %
     %                                                                      %
     % If you are calculating the stress with vdW-DF, please also cite:     %
     %                                                                      %
     %   R. Sabatini et al., J. Phys.: Condens. Matter 24, 424209 (2012).   %
     %                                                                      %
     %%%%%%%%%%%%%%%%%%%%%%%%%%%%%%%%%%%%%%%%%%%%%%%%%%%%%%%%%%%%%%%%%%%%%%%%

     Adding external electric field

     Computed dipole along edir(3) :
        Dipole               -7.6437 Ry au,        -19.4284 Debye
        Dipole field         -0.0144 Ry au,

        Potential amp.        1.3372 Ry
        Total length         46.3494 bohr

     Starting wfcs are  298 atomic wfcs
  @ DRIVER MODE: Message from server: STATUS
  @ DRIVER MODE: Message from server: POSDATA
  @ DRIVER MODE: Reading and sharing cell
  @ DRIVER MODE: Reading and sharing positions
  @ DRIVER MODE: Received positions

     Self-consistent Calculation

     iteration #  1     ecut=    29.40 Ry     beta= 0.05
     Davidson diagonalization with overlap
     c_bands:  1 eigenvalues not converged
     c_bands:  1 eigenvalues not converged
     c_bands:  1 eigenvalues not converged
     c_bands:  1 eigenvalues not converged
     c_bands:  1 eigenvalues not converged
     c_bands:  1 eigenvalues not converged
     ethr =  1.00E-05,  avg # of iterations = 18.6

[...]

     total energy              =   -2699.57596283 Ry
     estimated scf accuracy    <    2638.52234907 Ry

[...]

     iteration #  3     ecut=    29.40 Ry     beta= 0.05
     Davidson diagonalization with overlap
     ethr =  1.00E-02,  avg # of iterations = 15.4

[...]

     iteration # 57     ecut=    29.40 Ry     beta= 0.05
     Davidson diagonalization with overlap
     c_bands:  1 eigenvalues not converged
     ethr =  1.48E-08,  avg # of iterations =  8.3

[...]

     total energy              =   -2937.89151983 Ry
     estimated scf accuracy    <       0.00000012 Ry

     iteration # 73     ecut=    29.40 Ry     beta= 0.05
     Davidson diagonalization with overlap
     ethr =  2.00E-11,  avg # of iterations =  5.6

     negative rho (up, down):  1.608E-02 0.000E+00

     Adding external electric field

     Computed dipole along edir(3) :
        Dipole                0.5222 Ry au,          1.3272 Debye
        Dipole field          0.0010 Ry au,

        Potential amp.       -0.0913 Ry
        Total length         46.3494 bohr

     End of self-consistent calculation

          k = 0.0000 0.0000 0.0000 ( 18029 PWs)   bands (ev):

   -56.3145 -56.2807 -55.8949 -55.8922 -55.8589 -55.8582 -55.8294 -55.7957
   -55.6773 -55.6685 -55.6377 -55.6319 -55.1627 -55.1363 -55.1287 -55.0593
   -32.7705 -32.6066 -32.5793 -32.4734 -32.4362 -32.3940 -32.3802 -32.3572
   -32.3158 -32.1929 -32.1798 -32.1495 -32.1406 -32.1176 -32.1074 -32.0769
   -32.0615 -32.0607 -32.0576 -32.0306 -32.0264 -32.0226 -32.0209 -32.0079
   -31.9954 -31.9922 -31.9813 -31.9397 -31.9117 -31.9074 -31.8432 -31.8294
   -31.8138 -31.8019 -31.7873 -31.7416 -31.6622 -31.5644 -31.4895 -31.4662
   -31.3894 -31.3816 -31.3469 -31.3135 -31.2960 -31.2615 -31.1865 -31.1850
   -17.7318 -16.6868 -16.5304 -16.2519 -16.0263 -15.9990 -15.8623 -15.8291
   -15.8049 -15.7770 -15.6565 -15.6165 -15.5789 -15.4621 -15.4192 -15.4069
   -15.3895 -15.3700 -15.3642 -15.2756 -15.2520 -15.2353 -15.1835 -15.0888
   -15.0577 -15.0162 -14.8747 -14.8578 -14.7612 -14.5005 -13.6636 -13.5497
   -11.9320  -6.6571  -4.6166  -4.1549  -4.0996  -4.0184  -3.8655  -3.7823
    -3.5952  -3.5614  -3.4675  -3.2399  -3.1546  -3.1456  -3.0698  -3.0453
    -3.0349  -2.9428  -2.8757  -2.8442  -2.8218  -2.8000  -2.7425  -2.6645
    -2.6187  -2.5856  -2.5666  -2.5338  -2.4279  -2.3721  -2.3566  -2.3328
    -2.2736  -2.2589  -2.2352  -2.2305  -2.1945  -2.1822  -2.1022  -2.0685
    -1.9455  -1.8719  -1.7482  -1.7409  -1.6692  -1.6502  -1.6258  -1.4270
    -1.4025  -1.3278  -1.2926  -1.2369  -1.2104  -1.1583  -1.0949  -1.0612
    -0.9638  -0.9364  -0.9062  -0.8714  -0.8490  -0.8190  -0.7994  -0.7400
    -0.6922  -0.5168  -0.4753  -0.4413  -0.3458  -0.3313  -0.3011  -0.2628
    -0.2488  -0.1962  -0.1903  -0.1767  -0.1183  -0.1042  -0.0191   0.0479
     0.0539   0.1033   0.1777   0.2399   0.2763   0.3941   0.4428   0.5103
     0.6058   0.6140   0.6748   0.8249   0.8390   0.8590   0.8630   1.0713
     1.3191   1.4209   1.4628   1.5659   2.7690   2.9060   3.0151   3.2111
     3.3275   3.3467   3.5231   3.6635   3.7008   3.7575   3.7653

[...]

          k = 0.0380-0.0419 0.0000 ( 17876 PWs)   bands (ev):

[...]

          k =-0.0760-0.0000 0.0000 ( 17886 PWs)   bands (ev):

[...]

          k =-0.0760-0.0839 0.0000 ( 17948 PWs)   bands (ev):

   -56.2977 -56.2973 -55.8791 -55.8776 -55.8745 -55.8725 -55.8135 -55.8117
   -55.6668 -55.6561 -55.6481 -55.6443 -55.1456 -55.1456 -55.1321 -55.0634
   -32.5924 -32.5919 -32.5863 -32.5861 -32.4250 -32.4247 -32.2431 -32.2392
   -32.1827 -32.1771 -32.1542 -32.1521 -32.1357 -32.1327 -32.0927 -32.0889
   -32.0672 -32.0614 -32.0549 -32.0526 -32.0415 -32.0401 -32.0266 -32.0255
   -32.0147 -32.0016 -31.9811 -31.9723 -31.9462 -31.9354 -31.8867 -31.8803
   -31.8727 -31.8473 -31.8156 -31.8119 -31.5512 -31.4791 -31.4790 -31.4061
   -31.3780 -31.3780 -31.3584 -31.3420 -31.3389 -31.3389 -31.2690 -31.2440
   -17.7258 -16.0467 -16.0444 -16.0403 -16.0339 -15.9159 -15.9138 -15.7570
   -15.7549 -15.7290 -15.7236 -15.5783 -15.5549 -15.5136 -15.5127 -15.4727
   -15.4628 -15.3940 -15.3912 -15.3823 -15.3764 -15.3615 -15.3569 -15.3123
   -15.2709 -15.0328 -14.9600 -14.9001 -14.7851 -14.6909 -13.6522 -13.6521
   -11.9362  -6.6516  -4.5554  -4.0952  -3.3370  -3.3323  -3.1689  -3.1512
    -3.0971  -3.0958  -3.0154  -2.9717  -2.9706  -2.8554  -2.8332  -2.7921
    -2.7886  -2.7745  -2.7719  -2.7382  -2.7323  -2.7105  -2.7040  -2.6482
    -2.6334  -2.6266  -2.6215  -2.5484  -2.5047  -2.4766  -2.4438  -2.4100
    -2.3811  -2.2896  -2.2860  -2.2490  -2.2273  -2.1683  -2.1646  -2.1109
    -2.0756  -2.0083  -1.9988  -1.7869  -1.7408  -1.7314  -1.6809  -1.5946
    -1.5723  -1.4272  -1.3959  -1.3342  -1.3219  -1.2717  -1.2536  -1.2447
    -1.1577  -1.1499  -1.1413  -1.0652  -1.0571  -0.9959  -0.9595  -0.9270
    -0.8426  -0.8285  -0.7896  -0.7868  -0.7769  -0.7093  -0.6627  -0.5908
    -0.5425  -0.5291  -0.4102  -0.3610  -0.2955  -0.2313  -0.1889  -0.0848
    -0.0423  -0.0327   0.1768   0.1875   0.2324   0.3230   0.4436   0.4448
     0.4833   0.5748   0.5966   0.6222   0.6390   0.8363   0.9097   1.2387
     1.2398   1.2795   1.2800   1.5298   2.7281   3.4306   3.4315   3.4565
     3.4570   3.5936   3.6173   3.6538   3.6629   3.7459   3.7497

     the Fermi energy is     2.8554 ev

!    total energy              =   -2937.89153687 Ry
     estimated scf accuracy    <       0.00000003 Ry
     smearing contrib. (-TS)   =      -0.01395639 Ry
     internal energy E=F+TS    =   -2937.87758048 Ry

     The total energy is F=E-TS. E is the sum of the following terms:
     one-electron contribution =  -24294.03021766 Ry
     hartree contribution      =   12233.36136466 Ry
     xc contribution           =    -484.31779904 Ry
     ewald contribution        =    9607.10855704 Ry
     electric field correction =       0.00051451 Ry

     convergence has been achieved in  73 iterations

     Forces acting on atoms (cartesian axes, Ry/au):

     atom    1 type  1   force =     0.00010736   -0.00020649    0.10744968
     atom    2 type  1   force =    -0.00012619   -0.00062485   -0.16928318
     atom    3 type  2   force =    -0.00016022    0.00000646   -0.04192636
     atom    4 type  2   force =     0.00005581   -0.00093184    0.04203111
     atom    5 type  2   force =    -0.01491147    0.00022095   -0.00301966
     atom    6 type  2   force =     0.01654627    0.00103726   -0.00399699
     atom    7 type  1   force =    -0.00113190   -0.00212894    0.00240104
     atom    8 type  1   force =     0.00131659    0.00452957    0.07558858
     atom    9 type  2   force =     0.00004331    0.00010903    0.00043441
     atom   10 type  2   force =    -0.00132184    0.00009960   -0.04722120
     atom   11 type  2   force =    -0.00047453    0.00031706    0.00023282
     atom   12 type  2   force =    -0.00007246    0.00050181    0.00014077
     atom   13 type  1   force =     0.00044867   -0.00041540    0.00069187
     atom   14 type  1   force =    -0.00014614   -0.00012038   -0.00007570
     atom   15 type  2   force =    -0.00022711   -0.00019341    0.00019576
     atom   16 type  2   force =     0.00019594    0.00024394   -0.00017711
     atom   17 type  2   force =     0.00011814    0.00049229    0.00031394
     atom   18 type  2   force =    -0.00039720   -0.00006092   -0.00029573
     atom   19 type  1   force =     0.00018082    0.00076684   -0.00021026
     atom   20 type  1   force =     0.00017305    0.00008043    0.00009980
     atom   21 type  2   force =     0.00007025    0.00003863    0.10164710
     atom   22 type  2   force =    -0.00042433    0.00041196    0.00007172
     atom   23 type  2   force =    -0.07420324   -0.00003428   -0.02981763
     atom   24 type  2   force =     0.07415990    0.00041887   -0.02982115
     atom   25 type  1   force =     0.00025516   -0.00034659    0.10694370
     atom   26 type  1   force =    -0.00002780   -0.00037984   -0.16935981
     atom   27 type  2   force =    -0.00004120   -0.00029188   -0.04087067
     atom   28 type  2   force =     0.00011059   -0.00073883    0.04200390
     atom   29 type  2   force =    -0.01521709    0.00063783   -0.00331008
     atom   30 type  2   force =     0.01678022    0.00101180   -0.00428098
     atom   31 type  1   force =    -0.00133424    0.00038225    0.00215691
     atom   32 type  1   force =     0.00130844   -0.00711814    0.07621375
     atom   33 type  2   force =    -0.00004859    0.00016914    0.00015928
     atom   34 type  2   force =    -0.00146212   -0.00008031   -0.05552915
     atom   35 type  2   force =     0.00000587    0.00006264    0.00011321
     atom   36 type  2   force =    -0.00003041    0.00022075   -0.00015091
     atom   37 type  1   force =     0.00022298    0.00028412    0.00039049
     atom   38 type  1   force =     0.00011056    0.00022880   -0.00032351
     atom   39 type  2   force =    -0.00022459   -0.00004374   -0.00063963
     atom   40 type  2   force =     0.00007769    0.00026702    0.00014637
     atom   41 type  2   force =    -0.00042543    0.00024375   -0.00042012
     atom   42 type  2   force =     0.00018733    0.00022464    0.00023595
     atom   43 type  1   force =    -0.00013838    0.00061904    0.00026450
     atom   44 type  1   force =    -0.00022332    0.00020140   -0.00007822
     atom   45 type  2   force =     0.00006253   -0.00000047    0.10166360
     atom   46 type  2   force =    -0.07419629    0.00001294   -0.02978797
     atom   47 type  2   force =     0.07415224    0.00044505   -0.02980892
     atom   48 type  3   force =     0.00090604    0.00084998    0.00052445
     atom   49 type  3   force =     0.00025474   -0.00016976   -0.00072331
     atom   50 type  4   force =    -0.00559096   -0.00150305   -0.00457975
     atom   51 type  5   force =    -0.00012084    0.00022354   -0.00132637
     atom   52 type  5   force =     0.00482742    0.00002969    0.00491968

     Total force =     0.389392     Total SCF correction =     0.000628
  @ DRIVER MODE: Message from server: STATUS
  @ DRIVER MODE: Message from server: GETFORCE
  @ DRIVER MODE: Returning v,forces,stress,ensemble

     Writing output data file ./calc.save/
  @ DRIVER MODE: Message from server: EXIT
  @ DRIVE MODE: Exiting

     General routines

     Parallel routines

   This run was terminated on:   7: 2:23   9Sep2021

   JOB DONE.