     Program PWSCF v.6.7GPU starts on 18Oct2021 at 16:19:14

     R & G space division:  proc/nbgrp/npool/nimage =       8
     Reading input from /storage/home/hcoda1/3/ntian30/research/carbon/CxH_vib/Thiel_calc/ads_slab/NH3NH3_perslab/out_0010/pw.inp
Warning: card &CELL ignored
Warning: card   CELL_DYNAMICS='IPI', ignored
Warning: card / ignored

     Current dimensions of program PWSCF are:
     Max number of different atomic species (ntypx) = 10
     Max number of k-points (npk) =  40000
     Max angular momentum in pseudopotentials (lmaxx) =  3
     Presently no symmetry can be used with electric field

     Message from routine cell_base_init:
     DEPRECATED: use true lattice parameter, not A to a.u. conversion factor

     IMPORTANT: XC functional enforced from input :
     Exchange-correlation= BEEF-VDW
                           (   1   4  43  14   2   0   0)
     Any further DFT definition will be discarded
     Please, verify this is what you really want

  @ DRIVER MODE: Connecting to
 qe_1139763_3255140.sched-torque.pace.gatech.edu0_tt52r3_scratch
  using UNIX socket
  @ DRIVER MODE: Message from server: STATUS
  @ DRIVER MODE: Message from server: INIT
  @ DRIVER MODE: Receiving replica           0          -1
  @ DRIVER MODE: Receiving encoded integer          25
  @ DRIVER MODE:  SCF:  T  FORCE:  T  STRESS:  F  VC:  F  ENSEMBLE:  F
  @ DRIVER MODE:  SCF:  T  FORCE:  T  STRESS:  F  VC:  F  ENSEMBLE:  F

     Using Slab Decomposition

     bravais-lattice index     =            0
     lattice parameter (alat)  =       1.8897  a.u.
     unit-cell volume          =    9988.4706 (a.u.)^3
     number of atoms/cell      =           61
     number of atomic types    =            4
     number of electrons       =       442.00
     number of Kohn-Sham states=          231
     kinetic-energy cutoff     =      29.3995  Ry
     charge density cutoff     =     293.9946  Ry
     scf convergence threshold =      7.3E-08
     mixing beta               =       0.0500
     number of iterations used =            8  plain     mixing
     Exchange-correlation= BEEF-VDW
                           (   1   4  43  14   2   0   0)

     celldm(1)=   1.889726  celldm(2)=   0.000000  celldm(3)=   0.000000
     celldm(4)=   0.000000  celldm(5)=   0.000000  celldm(6)=   0.000000

     crystal axes: (cart. coord. in units of alat)
               a(1) = (   6.579727   0.000000   0.000000 )
               a(2) = (  -0.001163   8.942395   0.000000 )
               a(3) = (   0.000000   0.000000  25.155947 )

     reciprocal axes: (cart. coord. in units 2 pi/alat)
               b(1) = (  0.151982  0.000020  0.000000 )
               b(2) = (  0.000000  0.111827  0.000000 )
               b(3) = (  0.000000  0.000000  0.039752 )

     PseudoPot. # 1 for O  read from file:
     /storage/coda1/p-amedford6/0/shared/rich_project_chbe-medford/medford-share/data/pseudos_module/espresso/nninc/pbe/van/O.UPF
     MD5 check sum: 78c19812648e8988a0fe644b0f25305e
     Pseudo is Ultrasoft, Zval =  6.0
     Generated by new atomic code, or converted to UPF format
     Using radial grid of  737 points,  4 beta functions with:
                l(1) =   0
                l(2) =   0
                l(3) =   1
                l(4) =   1
     Q(r) pseudized with  8 coefficients,  rinner =    0.800   0.800   0.800

     PseudoPot. # 2 for Ti read from file:
     /storage/coda1/p-amedford6/0/shared/rich_project_chbe-medford/medford-share/data/pseudos_module/espresso/nninc/pbe/van/Ti.UPF
     MD5 check sum: 8e4df49b7f0d34bbd5052bf3f5ea0213
     Pseudo is Ultrasoft, Zval = 12.0
     Generated by new atomic code, or converted to UPF format
     Using radial grid of  851 points,  6 beta functions with:
                l(1) =   0
                l(2) =   0
                l(3) =   1
                l(4) =   1
                l(5) =   2
                l(6) =   2
     Q(r) pseudized with  8 coefficients,  rinner =    1.000   1.000   1.000
                                                       1.000   1.000

     PseudoPot. # 3 for N  read from file:
     /storage/coda1/p-amedford6/0/shared/rich_project_chbe-medford/medford-share/data/pseudos_module/espresso/nninc/pbe/van/N.UPF
     MD5 check sum: 90d10febe142ad51ac9d5be1deb811c4
     Pseudo is Ultrasoft, Zval =  5.0
     Generated by new atomic code, or converted to UPF format
     Using radial grid of  729 points,  4 beta functions with:
                l(1) =   0
                l(2) =   0
                l(3) =   1
                l(4) =   1
     Q(r) pseudized with  8 coefficients,  rinner =    0.800   0.800   0.800

     PseudoPot. # 4 for H  read from file:
     /storage/coda1/p-amedford6/0/shared/rich_project_chbe-medford/medford-share/data/pseudos_module/espresso/nninc/pbe/van/H.UPF
     MD5 check sum: b5ee9d7bfd3a09ee7748110bda690ff7
     Pseudo is Ultrasoft, Zval =  1.0
     Generated by new atomic code, or converted to UPF format
     Using radial grid of  615 points,  1 beta functions with:
                l(1) =   0
     Q(r) pseudized with  8 coefficients,  rinner =    0.800

     atomic species   valence    mass     pseudopotential
        O1             6.00    15.99900     O ( 1.00)
        Ti1           12.00    47.86700     Ti( 1.00)
        N1             5.00    14.00700     N ( 1.00)
        H1             1.00     1.00800     H ( 1.00)

     No symmetry found

   Cartesian axes

     site n.     atom                  positions (alat units)
         1           O1  tau(   1) = (   0.0007354   0.0005023  10.5931620  )
         2           O1  tau(   2) = (   3.2905679   0.0262843  13.8966672  )
         3           O1  tau(   3) = (   0.0007290   0.0579300  17.2579193  )
         4           O1  tau(   4) = (   0.0006271   0.0005054   7.9858123  )
         5           O1  tau(   5) = (   3.2893100   8.9214726  11.1892856  )
         6           O1  tau(   6) = (   0.0005199   0.0455907  14.6396817  )
         7           O1  tau(   7) = (   1.9868534   1.4903216   9.2879459  )
         8           O1  tau(   8) = (   5.2380180   1.6024468  12.5713634  )
         9           O1  tau(   9) = (   2.0277759   1.4975965  16.1012153  )
        10           Ti1 tau(  10) = (   0.0007404   1.4906270   9.2895810  )
        11           Ti1 tau(  11) = (   3.2903786   1.3551844  12.4711573  )
        12           Ti1 tau(  12) = (   0.0003174   1.4440192  15.7330511  )
        13           O1  tau(  13) = (   4.5942328   1.4918067   9.2879030  )
        14           O1  tau(  14) = (   1.3426987   1.6023923  12.5713351  )
        15           O1  tau(  15) = (   4.5529958   1.4977110  16.1013444  )
        16           Ti1 tau(  16) = (   3.2902859   2.9801868   9.2893338  )
        17           Ti1 tau(  17) = (   0.0005333   2.8255407  12.4640987  )
        18           Ti1 tau(  18) = (   3.2895849   3.0341113  15.6952405  )
        19           O1  tau(  19) = (   0.0003479   2.9813005  10.5931620  )
        20           O1  tau(  20) = (   3.2900438   2.9627632  13.8881152  )
        21           O1  tau(  21) = (   0.0002396   2.9813036   7.9858123  )
        22           O1  tau(  22) = (   3.2902621   2.9759438  11.1922459  )
        23           O1  tau(  23) = (   0.0002943   2.9805036  14.7119039  )
        24           O1  tau(  24) = (   1.9864658   4.4711199   9.2879459  )
        25           O1  tau(  25) = (   5.2407125   4.5787950  12.5855407  )
        26           O1  tau(  26) = (   1.9842138   4.3634165  16.0604883  )
        27           Ti1 tau(  27) = (   0.0003529   4.4714252   9.2895810  )
        28           Ti1 tau(  28) = (   3.2904166   4.3402611  12.5252975  )
        29           Ti1 tau(  29) = (  -0.0003584   4.7219071  15.7914592  )
        30           O1  tau(  30) = (   4.5938453   4.4726049   9.2879030  )
        31           O1  tau(  31) = (   1.3394863   4.5787101  12.5854501  )
        32           O1  tau(  32) = (   4.5953883   4.3633133  16.0606172  )
        33           Ti1 tau(  33) = (   3.2898983   5.9609850   9.2893338  )
        34           Ti1 tau(  34) = (   0.0004309   5.8055675  12.4642027  )
        35           Ti1 tau(  35) = (   3.2895961   6.0676247  15.8182862  )
        36           O1  tau(  36) = (  -0.0000397   5.9620987  10.5931620  )
        37           O1  tau(  37) = (   3.2897974   5.9491097  13.9522666  )
        38           O1  tau(  38) = (  -0.0001005   5.9419674  17.2168411  )
        39           O1  tau(  39) = (  -0.0001480   5.9621018   7.9858123  )
        40           O1  tau(  40) = (   3.2898294   5.9516608  11.2068290  )
        41           O1  tau(  41) = (  -0.0002620   6.0093330  14.6024556  )
        42           O1  tau(  42) = (   1.9860782   7.4519181   9.2879459  )
        43           O1  tau(  43) = (   5.2335766   7.5615516  12.5803788  )
        44           O1  tau(  44) = (   2.0229086   7.4656171  16.0362607  )
        45           Ti1 tau(  45) = (  -0.0000347   7.4522234   9.2895810  )
        46           Ti1 tau(  46) = (   3.2895523   7.2794780  12.5477951  )
        47           Ti1 tau(  47) = (  -0.0001499   7.5569733  16.2601047  )
        48           O1  tau(  48) = (   4.5934577   7.4534031   9.2879030  )
        49           O1  tau(  49) = (   1.3453152   7.5613653  12.5804751  )
        50           O1  tau(  50) = (   4.5562564   7.4656138  16.0364310  )
        51           Ti1 tau(  51) = (   3.2895107   8.9417832   9.2893338  )
        52           Ti1 tau(  52) = (  -0.0004710   8.7769229  12.4586551  )
        53           Ti1 tau(  53) = (   3.2909234   0.0582169  15.6986445  )
        54           N1  tau(  54) = (   3.2892347   5.9685454  18.1810142  )
        55           H1  tau(  55) = (   3.2893406   5.0319839  18.5418895  )
        56           H1  tau(  56) = (   2.4590131   6.4368771  18.5304692  )
        57           H1  tau(  57) = (   4.1190552   6.4372901  18.5310312  )
        58           N1  tau(  58) = (  -0.0003436   2.9015831  17.9177722  )
        59           H1  tau(  59) = (   6.5794260   1.9611702  18.3102355  )
        60           H1  tau(  60) = (   5.7593157   3.3919262  18.2600543  )
        61           H1  tau(  61) = (   0.8192290   3.3923488  18.2608005  )

     number of k points=    10  Fermi-Dirac smearing, width (Ry)=  0.0073
                       cart. coord. in units 2pi/alat
        k(    1) = (   0.0000000   0.0000000   0.0000000), wk =   0.1250000
        k(    2) = (   0.0000000   0.0279567   0.0000000), wk =   0.2500000
        k(    3) = (   0.0000000  -0.0559134   0.0000000), wk =   0.1250000
        k(    4) = (   0.0379955   0.0000049   0.0000000), wk =   0.2500000
        k(    5) = (   0.0379955   0.0279617   0.0000000), wk =   0.2500000
        k(    6) = (   0.0379955  -0.0559085   0.0000000), wk =   0.2500000
        k(    7) = (   0.0379955  -0.0279518   0.0000000), wk =   0.2500000
        k(    8) = (  -0.0759910  -0.0000099   0.0000000), wk =   0.1250000
        k(    9) = (  -0.0759910   0.0279468   0.0000000), wk =   0.2500000
        k(   10) = (  -0.0759910  -0.0559233   0.0000000), wk =   0.1250000

     Initial potential from superposition of free atoms

     starting charge  423.99908, renormalised to  442.00000

     negative rho (up, down):  3.646E-02 0.000E+00

     %%%%%%%%%%%%%%%%%%%%%%%%%%%%%%%%%%%%%%%%%%%%%%%%%%%%%%%%%%%%%%%%%%%%%%%%
     %                                                                      %
     % You are using vdW-DF, which was implemented by the Thonhauser group. %
     % Please cite the following two papers that made this development      %
     % possible and the two reviews that describe the various versions:     %
     %                                                                      %
     %   T. Thonhauser et al., PRL 115, 136402 (2015).                      %
     %   T. Thonhauser et al., PRB 76, 125112 (2007).                       %
     %   K. Berland et al., Rep. Prog. Phys. 78, 066501 (2015).             %
     %   D.C. Langreth et al., J. Phys.: Condens. Matter 21, 084203 (2009). %
     %                                                                      %
     %                                                                      %
     % If you are calculating the stress with vdW-DF, please also cite:     %
     %                                                                      %
     %   R. Sabatini et al., J. Phys.: Condens. Matter 24, 424209 (2012).   %
     %                                                                      %
     %%%%%%%%%%%%%%%%%%%%%%%%%%%%%%%%%%%%%%%%%%%%%%%%%%%%%%%%%%%%%%%%%%%%%%%%

     Adding external electric field

     Computed dipole along edir(3) :
        Dipole               -6.4271 Ry au,        -16.3360 Debye
        Dipole field         -0.0081 Ry au,

        Potential amp.        0.7495 Ry
        Total length         46.3494 bohr

     Starting wfcs are  334 atomic wfcs
  @ DRIVER MODE: Message from server: STATUS
  @ DRIVER MODE: Message from server: POSDATA
  @ DRIVER MODE: Reading and sharing cell
  @ DRIVER MODE: Reading and sharing positions
  @ DRIVER MODE: Received positions

     Self-consistent Calculation

     iteration #  1     ecut=    29.40 Ry     beta= 0.05
     Davidson diagonalization with overlap
     c_bands:  1 eigenvalues not converged
     c_bands:  2 eigenvalues not converged
     c_bands:  2 eigenvalues not converged
     c_bands:  1 eigenvalues not converged
     c_bands:  3 eigenvalues not converged
     c_bands:  5 eigenvalues not converged
     c_bands:  3 eigenvalues not converged
     c_bands:  2 eigenvalues not converged
     c_bands:  3 eigenvalues not converged
     ethr =  1.00E-05,  avg # of iterations = 19.8

[...]

     total energy              =   -3273.09544901 Ry
     estimated scf accuracy    <     292.47578925 Ry

[...]

     iteration #  3     ecut=    29.40 Ry     beta= 0.05
     Davidson diagonalization with overlap
     ethr =  1.00E-02,  avg # of iterations = 14.3

[...]

     iteration # 28     ecut=    29.40 Ry     beta= 0.05
     Davidson diagonalization with overlap
     c_bands:  1 eigenvalues not converged
     c_bands:  1 eigenvalues not converged
     ethr =  2.90E-08,  avg # of iterations = 13.5

[...]

     total energy              =   -3295.91258207 Ry
     estimated scf accuracy    <       0.00000012 Ry

     iteration # 49     ecut=    29.40 Ry     beta= 0.05
     Davidson diagonalization with overlap
     ethr =  2.78E-11,  avg # of iterations =  5.8

     negative rho (up, down):  3.471E-02 0.000E+00

     Adding external electric field

     Computed dipole along edir(3) :
        Dipole                1.8700 Ry au,          4.7530 Debye
        Dipole field          0.0024 Ry au,

        Potential amp.       -0.2181 Ry
        Total length         46.3494 bohr

     End of self-consistent calculation

          k = 0.0000 0.0000 0.0000 ( 26871 PWs)   bands (ev):

   -57.5940 -57.5539 -57.5302 -57.5244 -57.4940 -57.3948 -57.3873 -57.3664
   -57.3517 -57.3266 -57.3002 -57.2812 -57.2179 -57.1586 -57.0616 -56.5658
   -56.5407 -56.5397 -33.9749 -33.9354 -33.9310 -33.9047 -33.8867 -33.8681
   -33.8661 -33.8566 -33.8299 -33.8195 -33.8088 -33.7934 -33.7768 -33.7590
   -33.7489 -33.7351 -33.7208 -33.6881 -33.6802 -33.6770 -33.6671 -33.6523
   -33.6472 -33.6445 -33.6385 -33.6070 -33.5884 -33.5850 -33.5748 -33.5605
   -33.5574 -33.5515 -33.5376 -33.5360 -33.5329 -33.5187 -33.5145 -33.5009
   -33.4990 -33.4707 -33.4118 -33.3665 -33.3384 -33.3326 -33.2390 -32.8812
   -32.8788 -32.8773 -32.8645 -32.8635 -32.7917 -32.7277 -32.7266 -32.5915
   -18.3895 -18.0531 -17.8394 -17.7846 -17.7614 -17.6933 -17.6428 -17.6275
   -17.5726 -17.4898 -17.3652 -17.3269 -17.3217 -17.3085 -17.2987 -17.2375
   -17.2227 -17.2056 -17.2030 -17.1863 -17.1822 -17.1390 -17.0661 -17.0570
   -17.0161 -17.0019 -16.9814 -16.9788 -16.9308 -16.8782 -16.8682 -16.6742
   -16.6352 -16.4816 -15.0327 -14.9756 -14.9732  -7.7816  -7.7294  -7.5157
    -7.4509  -5.7132  -5.5306  -5.4657  -5.3712  -4.9989  -4.9414  -4.9269
    -4.9008  -4.8591  -4.8180  -4.8030  -4.7779  -4.7770  -4.7331  -4.6896
    -4.6641  -4.6447  -4.5450  -4.5081  -4.4698  -4.4396  -4.4337  -4.3819
    -4.3662  -4.3265  -4.3260  -4.2776  -4.2373  -4.2266  -4.2058  -4.1387
    -4.1198  -4.0161  -3.9296  -3.8700  -3.8629  -3.8227  -3.8089  -3.7637
    -3.7403  -3.7028  -3.6811  -3.6347  -3.6109  -3.5427  -3.4906  -3.3901
    -3.2941  -3.2674  -3.2414  -3.2198  -3.1742  -3.1211  -3.0014  -2.9608
    -2.9287  -2.9069  -2.8172  -2.8158  -2.7266  -2.7108  -2.6959  -2.6523
    -2.6006  -2.5860  -2.5520  -2.4359  -2.4145  -2.3221  -2.3128  -2.3108
    -2.2812  -2.2196  -2.2080  -2.1839  -2.1622  -2.1346  -2.1202  -2.0816
    -2.0781  -1.9794  -1.9580  -1.9016  -1.8790  -1.8788  -1.7802  -1.7628
    -1.7373  -1.7249  -1.6572  -1.5734  -1.4633  -1.4123  -1.3873  -1.3843
    -1.2849  -1.2566  -1.2135  -1.1331  -0.7973  -0.6007  -0.3137  -0.2695
    -0.2691  -0.0066  -0.0050   0.1236   1.4463   1.6616   1.6829   1.8749
     1.8971   1.9411   2.0276   2.0356   2.0986   2.1972   2.2160

[...]

          k = 0.0380-0.0280 0.0000 ( 26873 PWs)   bands (ev):

[...]

          k =-0.0760-0.0000 0.0000 ( 26902 PWs)   bands (ev):

[...]

          k =-0.0760-0.0559 0.0000 ( 26868 PWs)   bands (ev):

   -57.5939 -57.5476 -57.5423 -57.5185 -57.4942 -57.3924 -57.3872 -57.3712
   -57.3488 -57.3245 -57.3046 -57.2790 -57.2177 -57.1590 -57.0615 -56.5578
   -56.5567 -56.5317 -34.0264 -34.0143 -33.9178 -33.8926 -33.8826 -33.8781
   -33.8765 -33.8550 -33.8263 -33.8131 -33.7782 -33.7439 -33.7386 -33.7354
   -33.7242 -33.6965 -33.6930 -33.6882 -33.6827 -33.6797 -33.6423 -33.6361
   -33.6333 -33.6262 -33.6077 -33.6075 -33.6048 -33.6027 -33.5989 -33.5861
   -33.5789 -33.5708 -33.5694 -33.5602 -33.5394 -33.5274 -33.5231 -33.5153
   -33.4993 -33.4250 -33.4182 -33.3720 -33.3389 -33.3344 -33.2720 -32.9697
   -32.8803 -32.8792 -32.8554 -32.7708 -32.7697 -32.7055 -32.6891 -32.6878
   -18.0792 -18.0167 -17.7731 -17.7057 -17.6892 -17.6532 -17.6420 -17.5612
   -17.5407 -17.5402 -17.5053 -17.4402 -17.3896 -17.3371 -17.3349 -17.3283
   -17.2581 -17.2529 -17.2455 -17.2409 -17.1949 -17.1805 -17.1580 -17.1144
   -17.0367 -16.9671 -16.9542 -16.9475 -16.9086 -16.8937 -16.8426 -16.7080
   -16.6997 -16.4088 -15.0312 -15.0287 -14.9121  -7.7897  -7.7133  -7.5231
    -7.4535  -5.3360  -5.3058  -5.2764  -5.2120  -5.0214  -4.8612  -4.8306
    -4.8240  -4.7864  -4.7369  -4.7098  -4.7030  -4.6941  -4.6768  -4.6620
    -4.6140  -4.6099  -4.5844  -4.5116  -4.4705  -4.4658  -4.4467  -4.4328
    -4.4266  -4.3585  -4.2839  -4.2167  -4.1706  -4.1569  -4.1395  -4.0917
    -4.0551  -4.0252  -3.9824  -3.9725  -3.9035  -3.7947  -3.7119  -3.6719
    -3.6714  -3.6307  -3.5821  -3.5816  -3.4797  -3.4194  -3.3429  -3.2113
    -3.2053  -3.1926  -3.1679  -3.1538  -3.1144  -3.1042  -3.0798  -3.0284
    -3.0184  -2.9968  -2.9361  -2.8699  -2.7856  -2.7566  -2.7232  -2.7173
    -2.6921  -2.6815  -2.6538  -2.6507  -2.6168  -2.6077  -2.5538  -2.5272
    -2.4754  -2.4482  -2.4046  -2.3191  -2.3031  -2.2809  -2.1895  -2.1269
    -2.1101  -2.1052  -2.0761  -2.0288  -1.9321  -1.8381  -1.8023  -1.7579
    -1.6462  -1.6458  -1.6421  -1.6263  -1.5525  -1.5382  -1.3346  -1.3225
    -1.2634  -1.1878  -1.1483  -1.1126  -1.1102  -0.8928  -0.4824  -0.1990
    -0.1859  -0.1623  -0.0096  -0.0045   1.5925   1.6745   1.7093   1.7589
     1.7946   1.7979   1.8039   1.8675   1.9313   1.9411   2.1634

     the Fermi energy is     1.5306 ev

!    total energy              =   -3295.91270246 Ry
     estimated scf accuracy    <       0.00000007 Ry
     smearing contrib. (-TS)   =      -0.03397325 Ry
     internal energy E=F+TS    =   -3295.87872921 Ry

     The total energy is F=E-TS. E is the sum of the following terms:
     one-electron contribution =  -34427.60479548 Ry
     hartree contribution      =   17282.33057366 Ry
     xc contribution           =    -543.76508512 Ry
     ewald contribution        =   14393.15617852 Ry
     electric field correction =       0.00439921 Ry

     convergence has been achieved in  49 iterations

     Forces acting on atoms (cartesian axes, Ry/au):

     atom    1 type  1   force =     0.00001581    0.00450680    0.05614448
     atom    2 type  1   force =     0.00000029   -0.00095236   -0.00073968
     atom    3 type  1   force =    -0.00000959    0.00148617   -0.00017711
     atom    4 type  1   force =     0.00005832    0.00031384    0.10696804
     atom    5 type  1   force =     0.00000212    0.00080981    0.00979973
     atom    6 type  1   force =     0.00000558   -0.00265758    0.00106123
     atom    7 type  1   force =     0.06729304   -0.00022714   -0.02913101
     atom    8 type  1   force =     0.00475231   -0.02828324    0.00257512
     atom    9 type  1   force =     0.00734040   -0.00159954   -0.00301647
     atom   10 type  2   force =    -0.00005378   -0.00149382   -0.18422793
     atom   11 type  2   force =     0.00003670    0.02163971   -0.00778866
     atom   12 type  2   force =     0.00003321   -0.00243184    0.01228792
     atom   13 type  1   force =    -0.06739430   -0.00069034   -0.02909723
     atom   14 type  1   force =    -0.00477804   -0.02828481    0.00257582
     atom   15 type  1   force =    -0.00736402   -0.00160027   -0.00303155
     atom   16 type  2   force =     0.00009485    0.00013559    0.06633051
     atom   17 type  2   force =    -0.00001223    0.03588732    0.00370397
     atom   18 type  2   force =     0.00001923   -0.01054666   -0.00428932
     atom   19 type  1   force =     0.00001928    0.00444158    0.05987110
     atom   20 type  1   force =    -0.00000291    0.00082785   -0.00596600
     atom   21 type  1   force =     0.00005781    0.00018675    0.10720760
     atom   22 type  1   force =    -0.00000115   -0.00065687    0.00885120
     atom   23 type  1   force =    -0.00000585    0.00498792    0.00313251
     atom   24 type  1   force =     0.06804282    0.00051304   -0.02902313
     atom   25 type  1   force =     0.00341702   -0.02997306    0.00208618
     atom   26 type  1   force =     0.01011871    0.02032215    0.00205924
     atom   27 type  2   force =    -0.00005901    0.00003958   -0.18365424
     atom   28 type  2   force =     0.00003587    0.02158235   -0.00596862
     atom   29 type  2   force =     0.00001191   -0.02176087   -0.00595626
     atom   30 type  1   force =    -0.06814267    0.00006506   -0.02899215
     atom   31 type  1   force =    -0.00345010   -0.02995960    0.00209486
     atom   32 type  1   force =    -0.01014669    0.02032737    0.00205493
     atom   33 type  2   force =     0.00010675   -0.00025615    0.06933343
     atom   34 type  2   force =    -0.00001278    0.03688652    0.00370749
     atom   35 type  2   force =     0.00000435   -0.02931207    0.01035565
     atom   36 type  1   force =     0.00002493    0.00481934    0.05627998
     atom   37 type  1   force =    -0.00001027    0.00206334   -0.00516681
     atom   38 type  1   force =    -0.00000625    0.00424642   -0.00002971
     atom   39 type  1   force =     0.00005697    0.00002303    0.10680035
     atom   40 type  1   force =    -0.00000503   -0.00060606    0.00811603
     atom   41 type  1   force =     0.00000365    0.00070603    0.00248324
     atom   42 type  1   force =     0.06806806   -0.00120782   -0.02961926
     atom   43 type  1   force =     0.00353466   -0.02805829    0.00205613
     atom   44 type  1   force =     0.01053910    0.01133228    0.00282053
     atom   45 type  2   force =    -0.00005906   -0.00196889   -0.18350747
     atom   46 type  2   force =     0.00003193    0.01958833   -0.00654251
     atom   47 type  2   force =    -0.00000923   -0.01030578   -0.01271189
     atom   48 type  1   force =    -0.06816150   -0.00164908   -0.02958339
     atom   49 type  1   force =    -0.00355215   -0.02805887    0.00205375
     atom   50 type  1   force =    -0.01055987    0.01133482    0.00280848
     atom   51 type  2   force =     0.00009815   -0.00308887    0.06761230
     atom   52 type  2   force =    -0.00001851    0.03494543    0.00628212
     atom   53 type  2   force =     0.00000682    0.00511291    0.00132172
     atom   54 type  3   force =     0.00007441    0.01502595   -0.00686407
     atom   55 type  4   force =    -0.00000588   -0.01696863    0.00470744
     atom   56 type  4   force =    -0.00116337    0.00114543   -0.00013563
     atom   57 type  4   force =     0.00106398    0.00110523   -0.00017277
     atom   58 type  3   force =     0.00011004   -0.00182134    0.00127515
     atom   59 type  4   force =    -0.00000431   -0.00006474    0.00016072
     atom   60 type  4   force =     0.00069554   -0.00093892   -0.00078235
     atom   61 type  4   force =    -0.00078608   -0.00098444   -0.00080374

     Total force =     0.455408     Total SCF correction =     0.001049
  @ DRIVER MODE: Message from server: STATUS
  @ DRIVER MODE: Message from server: GETFORCE
  @ DRIVER MODE: Returning v,forces,stress,ensemble

     Writing output data file ./calc.save/
  @ DRIVER MODE: Message from server: EXIT
  @ DRIVE MODE: Exiting

     General routines

     Parallel routines

   This run was terminated on:  16:44:52  18Oct2021

   JOB DONE.