     Program PWSCF v.6.7GPU starts on 27Sep2021 at 23:59:47

     R & G space division:  proc/nbgrp/npool/nimage =       8
     Reading input from /storage/home/hcoda1/3/ntian30/research/carbon/CxH_vib/CH_calc/ads_slab/CHONH_a/out_0005/pw.inp
Warning: card &CELL ignored
Warning: card   CELL_DYNAMICS='IPI', ignored
Warning: card / ignored

     Current dimensions of program PWSCF are:
     Max number of different atomic species (ntypx) = 10
     Max number of k-points (npk) =  40000
     Max angular momentum in pseudopotentials (lmaxx) =  3
     Presently no symmetry can be used with electric field

     Message from routine cell_base_init:
     DEPRECATED: use true lattice parameter, not A to a.u. conversion factor

     IMPORTANT: XC functional enforced from input :
     Exchange-correlation= BEEF-VDW
                           (   1   4  43  14   2   0   0)
     Any further DFT definition will be discarded
     Please, verify this is what you really want

  @ DRIVER MODE: Connecting to
 qe_1139763_3003539.sched-torque.pace.gatech.edue_9glx_9_scratch
  using UNIX socket
  @ DRIVER MODE: Message from server: STATUS
  @ DRIVER MODE: Message from server: INIT
  @ DRIVER MODE: Receiving replica           0          -1
  @ DRIVER MODE: Receiving encoded integer          25
  @ DRIVER MODE:  SCF:  T  FORCE:  T  STRESS:  F  VC:  F  ENSEMBLE:  F
  @ DRIVER MODE:  SCF:  T  FORCE:  T  STRESS:  F  VC:  F  ENSEMBLE:  F

     Using Slab Decomposition

     bravais-lattice index     =            0
     lattice parameter (alat)  =       1.8897  a.u.
     unit-cell volume          =    6658.9804 (a.u.)^3
     number of atoms/cell      =           52
     number of atomic types    =            5
     number of electrons       =       395.00
     number of Kohn-Sham states=          207
     kinetic-energy cutoff     =      29.3995  Ry
     charge density cutoff     =     293.9946  Ry
     scf convergence threshold =      7.3E-08
     mixing beta               =       0.0500
     number of iterations used =            8  plain     mixing
     Exchange-correlation= BEEF-VDW
                           (   1   4  43  14   2   0   0)

     celldm(1)=   1.889726  celldm(2)=   0.000000  celldm(3)=   0.000000
     celldm(4)=   0.000000  celldm(5)=   0.000000  celldm(6)=   0.000000

     crystal axes: (cart. coord. in units of alat)
               a(1) = (   6.579727   0.000000   0.000000 )
               a(2) = (  -0.000775   5.961596   0.000000 )
               a(3) = (   0.000000   0.000000  25.155947 )

     reciprocal axes: (cart. coord. in units 2 pi/alat)
               b(1) = (  0.151982  0.000020  0.000000 )
               b(2) = (  0.000000  0.167740  0.000000 )
               b(3) = (  0.000000  0.000000  0.039752 )

     PseudoPot. # 1 for O  read from file:
     /storage/coda1/p-amedford6/0/shared/rich_project_chbe-medford/medford-share/data/pseudos_module/espresso/nninc/pbe/van/O.UPF
     MD5 check sum: 78c19812648e8988a0fe644b0f25305e
     Pseudo is Ultrasoft, Zval =  6.0
     Generated by new atomic code, or converted to UPF format
     Using radial grid of  737 points,  4 beta functions with:
                l(1) =   0
                l(2) =   0
                l(3) =   1
                l(4) =   1
     Q(r) pseudized with  8 coefficients,  rinner =    0.800   0.800   0.800

     PseudoPot. # 2 for Ti read from file:
     /storage/coda1/p-amedford6/0/shared/rich_project_chbe-medford/medford-share/data/pseudos_module/espresso/nninc/pbe/van/Ti.UPF
     MD5 check sum: 8e4df49b7f0d34bbd5052bf3f5ea0213
     Pseudo is Ultrasoft, Zval = 12.0
     Generated by new atomic code, or converted to UPF format
     Using radial grid of  851 points,  6 beta functions with:
                l(1) =   0
                l(2) =   0
                l(3) =   1
                l(4) =   1
                l(5) =   2
                l(6) =   2
     Q(r) pseudized with  8 coefficients,  rinner =    1.000   1.000   1.000
                                                       1.000   1.000

     PseudoPot. # 3 for N  read from file:
     /storage/coda1/p-amedford6/0/shared/rich_project_chbe-medford/medford-share/data/pseudos_module/espresso/nninc/pbe/van/N.UPF
     MD5 check sum: 90d10febe142ad51ac9d5be1deb811c4
     Pseudo is Ultrasoft, Zval =  5.0
     Generated by new atomic code, or converted to UPF format
     Using radial grid of  729 points,  4 beta functions with:
                l(1) =   0
                l(2) =   0
                l(3) =   1
                l(4) =   1
     Q(r) pseudized with  8 coefficients,  rinner =    0.800   0.800   0.800

     PseudoPot. # 4 for H  read from file:
     /storage/coda1/p-amedford6/0/shared/rich_project_chbe-medford/medford-share/data/pseudos_module/espresso/nninc/pbe/van/H.UPF
     MD5 check sum: b5ee9d7bfd3a09ee7748110bda690ff7
     Pseudo is Ultrasoft, Zval =  1.0
     Generated by new atomic code, or converted to UPF format
     Using radial grid of  615 points,  1 beta functions with:
                l(1) =   0
     Q(r) pseudized with  8 coefficients,  rinner =    0.800

     PseudoPot. # 5 for C  read from file:
     /storage/coda1/p-amedford6/0/shared/rich_project_chbe-medford/medford-share/data/pseudos_module/espresso/nninc/pbe/van/C.UPF
     MD5 check sum: 1a69bf6b8db32088f5b2163dbdb77a27
     Pseudo is Ultrasoft, Zval =  4.0
     Generated by new atomic code, or converted to UPF format
     Using radial grid of  721 points,  4 beta functions with:
                l(1) =   0
                l(2) =   0
                l(3) =   1
                l(4) =   1
     Q(r) pseudized with  8 coefficients,  rinner =    0.800   0.800   0.800

     atomic species   valence    mass     pseudopotential
        O1             6.00    15.99900     O ( 1.00)
        Ti1           12.00    47.86700     Ti( 1.00)
        N1             5.00    14.00700     N ( 1.00)
        H1             1.00     1.00800     H ( 1.00)
        C1             4.00    12.01100     C ( 1.00)

     No symmetry found

   Cartesian axes

     site n.     atom                  positions (alat units)
         1           O1  tau(   1) = (   3.2904802   0.0005063   4.7018136  )
         2           O1  tau(   2) = (   3.2900926   2.9813045   4.7018136  )
         3           Ti1 tau(   3) = (   0.0004258   2.9801865   6.0000000  )
         4           Ti1 tau(   4) = (   0.0000382   5.9609847   6.0000000  )
         5           Ti1 tau(   5) = (   3.2906075   1.4906267   6.0002472  )
         6           Ti1 tau(   6) = (   3.2902200   4.4714249   6.0002472  )
         7           O1  tau(   7) = (   1.3043587   1.4918075   6.0039043  )
         8           O1  tau(   8) = (   1.3039711   4.4726057   6.0039043  )
         9           O1  tau(   9) = (   5.2767064   1.4903225   6.0039473  )
        10           O1  tau(  10) = (   5.2763189   4.4711207   6.0039473  )
        11           O1  tau(  11) = (   3.2906025   0.0005020   7.3038282  )
        12           O1  tau(  12) = (   3.2902150   2.9813002   7.3038282  )
        13           O1  tau(  13) = (   0.0006271   0.0005054   7.9858123  )
        14           O1  tau(  14) = (   0.0002396   2.9813036   7.9858123  )
        15           Ti1 tau(  15) = (   3.2907910   2.8959150   9.1758416  )
        16           Ti1 tau(  16) = (   3.2891106   5.8743827   9.1763621  )
        17           Ti1 tau(  17) = (   0.0015273   1.4827037   9.2680791  )
        18           Ti1 tau(  18) = (   0.0006254   4.4649316   9.2693709  )
        19           O1  tau(  19) = (   4.5942328   1.4918067   9.2879030  )
        20           O1  tau(  20) = (   4.5938453   4.4726049   9.2879030  )
        21           O1  tau(  21) = (   1.9868534   1.4903216   9.2879459  )
        22           O1  tau(  22) = (   1.9864658   4.4711199   9.2879459  )
        23           O1  tau(  23) = (   0.0116148   5.9584955  10.6183126  )
        24           O1  tau(  24) = (   0.0092240   2.9805883  10.6323155  )
        25           O1  tau(  25) = (   3.2907787   2.9729778  11.3304428  )
        26           O1  tau(  26) = (   3.2919079   5.9474133  11.3321580  )
        27           Ti1 tau(  27) = (   3.2097987   4.4572658  12.4865812  )
        28           Ti1 tau(  28) = (   3.2119315   1.4761680  12.4799496  )
        29           Ti1 tau(  29) = (   6.5264509   5.9216213  12.6328416  )
        30           O1  tau(  30) = (   5.2968352   1.4901136  12.6152109  )
        31           O1  tau(  31) = (   1.3135328   1.4919602  12.6192607  )
        32           O1  tau(  32) = (   5.3002941   4.4568025  12.6330795  )
        33           O1  tau(  33) = (   1.3069994   4.4674097  12.6333468  )
        34           Ti1 tau(  34) = (   6.5276633   2.9456522  12.5459445  )
        35           O1  tau(  35) = (   3.2998384   2.9660209  13.9106595  )
        36           O1  tau(  36) = (   3.3025942   5.9420417  13.9122833  )
        37           O1  tau(  37) = (   6.5640883   0.0415230  14.6395465  )
        38           O1  tau(  38) = (   0.0106891   2.9491072  14.6900936  )
        39           Ti1 tau(  39) = (   3.2736000   2.9502234  15.7069571  )
        40           Ti1 tau(  40) = (   3.3003751   5.9266233  15.7109206  )
        41           Ti1 tau(  41) = (   6.5634422   4.2760099  16.1499291  )
        42           O1  tau(  42) = (   2.0584629   4.4329444  16.0623798  )
        43           O1  tau(  43) = (   4.5473560   4.4405029  16.0785460  )
        44           O1  tau(  44) = (   2.0586626   1.4574935  16.0341320  )
        45           O1  tau(  45) = (   4.5465401   1.4531303  16.0599029  )
        46           Ti1 tau(  46) = (   6.5663670   1.4428561  15.8472210  )
        47           O1  tau(  47) = (   0.0528285   5.9376273  17.3175539  )
        48           N1  tau(  48) = (   2.9241058   0.2315137  18.9416947  )
        49           H1  tau(  49) = (   0.7823102   0.0278888  17.9584184  )
        50           H1  tau(  50) = (   4.9006910   1.2352932  19.1031722  )
        51           C1  tau(  51) = (   3.9482889   0.7533229  19.0539995  )
        52           O1  tau(  52) = (   0.0046524   2.9249380  17.2371169  )

     number of k points=    10  Fermi-Dirac smearing, width (Ry)=  0.0073
                       cart. coord. in units 2pi/alat
        k(    1) = (   0.0000000   0.0000000   0.0000000), wk =   0.1250000
        k(    2) = (   0.0000000   0.0419351   0.0000000), wk =   0.2500000
        k(    3) = (   0.0000000  -0.0838702   0.0000000), wk =   0.1250000
        k(    4) = (   0.0379955   0.0000049   0.0000000), wk =   0.2500000
        k(    5) = (   0.0379955   0.0419400   0.0000000), wk =   0.2500000
        k(    6) = (   0.0379955  -0.0838652   0.0000000), wk =   0.2500000
        k(    7) = (   0.0379955  -0.0419301   0.0000000), wk =   0.2500000
        k(    8) = (  -0.0759910  -0.0000099   0.0000000), wk =   0.1250000
        k(    9) = (  -0.0759910   0.0419252   0.0000000), wk =   0.2500000
        k(   10) = (  -0.0759910  -0.0838800   0.0000000), wk =   0.1250000

     Initial potential from superposition of free atoms

     starting charge  378.99918, renormalised to  395.00000

     negative rho (up, down):  1.730E-02 0.000E+00

     %%%%%%%%%%%%%%%%%%%%%%%%%%%%%%%%%%%%%%%%%%%%%%%%%%%%%%%%%%%%%%%%%%%%%%%%
     %                                                                      %
     % You are using vdW-DF, which was implemented by the Thonhauser group. %
     % Please cite the following two papers that made this development      %
     % possible and the two reviews that describe the various versions:     %
     %                                                                      %
     %   T. Thonhauser et al., PRL 115, 136402 (2015).                      %
     %   T. Thonhauser et al., PRB 76, 125112 (2007).                       %
     %   K. Berland et al., Rep. Prog. Phys. 78, 066501 (2015).             %
     %   D.C. Langreth et al., J. Phys.: Condens. Matter 21, 084203 (2009). %
     %                                                                      %
     %                                                                      %
     % If you are calculating the stress with vdW-DF, please also cite:     %
     %                                                                      %
     %   R. Sabatini et al., J. Phys.: Condens. Matter 24, 424209 (2012).   %
     %                                                                      %
     %%%%%%%%%%%%%%%%%%%%%%%%%%%%%%%%%%%%%%%%%%%%%%%%%%%%%%%%%%%%%%%%%%%%%%%%

     Adding external electric field

     Computed dipole along edir(3) :
        Dipole               -8.2711 Ry au,        -21.0231 Debye
        Dipole field         -0.0156 Ry au,

        Potential amp.        1.4469 Ry
        Total length         46.3494 bohr

     Starting wfcs are  298 atomic wfcs
  @ DRIVER MODE: Message from server: STATUS
  @ DRIVER MODE: Message from server: POSDATA
  @ DRIVER MODE: Reading and sharing cell
  @ DRIVER MODE: Reading and sharing positions
  @ DRIVER MODE: Received positions

     Self-consistent Calculation

     iteration #  1     ecut=    29.40 Ry     beta= 0.05
     Davidson diagonalization with overlap
     c_bands:  1 eigenvalues not converged
     c_bands:  1 eigenvalues not converged
     c_bands:  1 eigenvalues not converged
     c_bands:  3 eigenvalues not converged
     c_bands:  3 eigenvalues not converged
     c_bands:  2 eigenvalues not converged
     c_bands:  1 eigenvalues not converged
     ethr =  1.00E-05,  avg # of iterations = 19.3

[...]

     total energy              =   -2630.94178620 Ry
     estimated scf accuracy    <    3534.91122805 Ry

[...]

     iteration #  3     ecut=    29.40 Ry     beta= 0.05
     Davidson diagonalization with overlap
     ethr =  1.00E-02,  avg # of iterations = 14.5

[...]

     iteration # 44     ecut=    29.40 Ry     beta= 0.05
     Davidson diagonalization with overlap
     c_bands:  1 eigenvalues not converged
     c_bands:  1 eigenvalues not converged
     c_bands:  1 eigenvalues not converged
     ethr =  5.32E-07,  avg # of iterations = 15.1

[...]

     total energy              =   -2950.31366161 Ry
     estimated scf accuracy    <       0.00000009 Ry

     iteration # 74     ecut=    29.40 Ry     beta= 0.05
     Davidson diagonalization with overlap
     ethr =  2.37E-11,  avg # of iterations = 10.0

     negative rho (up, down):  1.725E-02 0.000E+00

     Adding external electric field

     Computed dipole along edir(3) :
        Dipole                0.6505 Ry au,          1.6535 Debye
        Dipole field          0.0012 Ry au,

        Potential amp.       -0.1138 Ry
        Total length         46.3494 bohr

     End of self-consistent calculation

          k = 0.0000 0.0000 0.0000 ( 18029 PWs)   bands (ev):

   -55.9685 -55.9618 -55.9345 -55.9257 -55.8434 -55.8201 -55.8050 -55.7855
   -55.7772 -55.7432 -55.7421 -55.7082 -55.6668 -55.4317 -54.9461 -54.9121
   -32.5158 -32.4510 -32.3194 -32.3019 -32.2766 -32.2734 -32.2615 -32.2327
   -32.2113 -32.1856 -32.1764 -32.1657 -32.1414 -32.1207 -32.1127 -32.1125
   -32.1012 -32.0818 -32.0728 -32.0588 -32.0320 -32.0258 -32.0256 -31.9798
   -31.9763 -31.9736 -31.9665 -31.9655 -31.9576 -31.9440 -31.9336 -31.9173
   -31.9114 -31.9106 -31.8950 -31.8864 -31.8816 -31.8781 -31.8542 -31.6963
   -31.6640 -31.6481 -31.3532 -31.2650 -31.2425 -31.1699 -31.0834 -30.9724
   -17.0704 -16.7037 -16.4404 -16.2020 -16.1477 -16.1074 -16.0854 -15.9756
   -15.8093 -15.6895 -15.6368 -15.5360 -15.5275 -15.5049 -15.4707 -15.4543
   -15.4192 -15.4120 -15.4028 -15.3910 -15.3774 -15.3284 -15.3091 -15.2960
   -15.1940 -15.1432 -15.1035 -15.0828 -15.0253 -15.0140 -14.6505 -13.4485
   -13.3321  -7.8423  -4.8073  -4.0844  -3.9259  -3.8747  -3.8250  -3.8077
    -3.5774  -3.5190  -3.2081  -3.1536  -3.1387  -3.1195  -3.0895  -2.8779
    -2.8476  -2.7980  -2.7795  -2.7590  -2.7467  -2.7284  -2.7152  -2.6956
    -2.6680  -2.6105  -2.5244  -2.4841  -2.3912  -2.3596  -2.3454  -2.3006
    -2.2808  -2.2421  -2.2188  -2.2093  -2.2028  -2.1657  -2.1600  -2.1007
    -2.0424  -1.9937  -1.9622  -1.9033  -1.8323  -1.7659  -1.7008  -1.5759
    -1.4555  -1.4393  -1.3965  -1.3694  -1.3600  -1.2706  -1.2173  -1.1503
    -1.1232  -1.1182  -1.0337  -0.9890  -0.9473  -0.9348  -0.8458  -0.8130
    -0.7349  -0.7292  -0.7166  -0.6759  -0.4562  -0.4209  -0.3889  -0.3681
    -0.3129  -0.2546  -0.2214  -0.1895  -0.1493  -0.0884  -0.0729  -0.0254
    -0.0027   0.0053   0.0252   0.0451   0.0722   0.1874   0.2199   0.2804
     0.3119   0.3845   0.4372   0.5745   0.6132   0.6890   0.7964   1.0024
     1.0760   1.1637   1.2682   1.6473   1.6929   3.1670   3.2532   3.2992
     3.3068   3.4084   3.4132   3.6186   3.6402   3.6533   3.7101

[...]

          k = 0.0380-0.0419 0.0000 ( 17876 PWs)   bands (ev):

[...]

          k =-0.0760-0.0000 0.0000 ( 17886 PWs)   bands (ev):

[...]

          k =-0.0760-0.0839 0.0000 ( 17948 PWs)   bands (ev):

   -55.9523 -55.9506 -55.9453 -55.9420 -55.8325 -55.8157 -55.8052 -55.8004
   -55.7607 -55.7593 -55.7274 -55.7230 -55.6657 -55.4327 -54.9291 -54.9290
   -32.3208 -32.3168 -32.2666 -32.2658 -32.2474 -32.2464 -32.2284 -32.2220
   -32.1703 -32.1642 -32.1578 -32.1527 -32.1126 -32.1015 -32.0962 -32.0901
   -32.0788 -32.0764 -32.0719 -32.0699 -32.0663 -32.0612 -32.0384 -32.0275
   -32.0248 -32.0137 -32.0129 -32.0003 -31.9777 -31.9616 -31.9589 -31.9581
   -31.9550 -31.9423 -31.9384 -31.9360 -31.9329 -31.8861 -31.8826 -31.7588
   -31.6809 -31.6647 -31.2552 -31.2552 -31.1660 -31.1660 -31.1268 -31.1267
   -17.0076 -16.1627 -16.1391 -16.1259 -15.9143 -15.8894 -15.8772 -15.8712
   -15.7521 -15.6735 -15.6633 -15.6612 -15.5882 -15.5640 -15.5593 -15.5079
   -15.5000 -15.4928 -15.4816 -15.4540 -15.4298 -15.4238 -15.4053 -15.4001
   -15.3191 -15.2852 -15.2818 -15.2544 -15.1331 -15.0120 -14.8217 -13.4342
   -13.4336  -7.8404  -4.7632  -3.4299  -3.4218  -3.1679  -3.1249  -3.1173
    -3.0608  -2.9112  -2.8739  -2.8680  -2.8333  -2.8138  -2.7961  -2.7889
    -2.7770  -2.7557  -2.7303  -2.7107  -2.7012  -2.6654  -2.6380  -2.6270
    -2.6146  -2.5982  -2.5817  -2.5670  -2.5476  -2.5228  -2.5068  -2.4911
    -2.4553  -2.3152  -2.2180  -2.1705  -2.1129  -2.0999  -2.0972  -2.0844
    -2.0589  -2.0322  -2.0227  -1.9699  -1.9353  -1.8250  -1.7694  -1.7028
    -1.6658  -1.6528  -1.5787  -1.5280  -1.4656  -1.4013  -1.3733  -1.3567
    -1.3059  -1.2499  -1.1853  -1.1683  -1.1378  -1.0917  -1.0453  -0.9668
    -0.9579  -0.9279  -0.9245  -0.8842  -0.8205  -0.7597  -0.7325  -0.7315
    -0.7042  -0.6444  -0.5830  -0.5646  -0.4581  -0.4519  -0.3351  -0.2925
    -0.0457   0.0114   0.0542   0.1033   0.1174   0.1818   0.2169   0.3366
     0.3459   0.3573   0.3962   0.4129   0.4302   0.5645   0.5781   0.6072
     0.7456   1.4400   1.4403   1.5122   1.5131   3.4676   3.4756   3.5026
     3.5204   3.6750   3.6784   3.6989   3.7002   3.8212   3.8440

     the Fermi energy is     3.1655 ev

!    total energy              =   -2950.31367173 Ry
     estimated scf accuracy    <       0.00000005 Ry
     smearing contrib. (-TS)   =      -0.02173214 Ry
     internal energy E=F+TS    =   -2950.29193959 Ry

     The total energy is F=E-TS. E is the sum of the following terms:
     one-electron contribution =  -24389.57883994 Ry
     hartree contribution      =   12281.87723567 Ry
     xc contribution           =    -486.33814319 Ry
     ewald contribution        =    9643.74700928 Ry
     electric field correction =       0.00079860 Ry

     convergence has been achieved in  74 iterations

     Forces acting on atoms (cartesian axes, Ry/au):

     atom    1 type  1   force =     0.00006449    0.00002413    0.10324191
     atom    2 type  1   force =     0.00007097    0.00004258    0.10318379
     atom    3 type  2   force =     0.00013543   -0.00030770    0.09681265
     atom    4 type  2   force =    -0.00007989   -0.00022252    0.09610265
     atom    5 type  2   force =     0.00011842   -0.00040549   -0.17539441
     atom    6 type  2   force =    -0.00001038   -0.00039650   -0.17549405
     atom    7 type  1   force =    -0.07151678   -0.00009985   -0.02769901
     atom    8 type  1   force =    -0.07155593   -0.00003393   -0.02771980
     atom    9 type  1   force =     0.07142780    0.00034572   -0.02776858
     atom   10 type  1   force =     0.07144936    0.00043239   -0.02776005
     atom   11 type  1   force =    -0.00001261   -0.00141013    0.05314506
     atom   12 type  1   force =     0.00001086   -0.00120625    0.05252842
     atom   13 type  1   force =     0.00009056   -0.00013933   -0.02457446
     atom   14 type  1   force =     0.00019610   -0.00012284   -0.02391359
     atom   15 type  2   force =     0.00043234    0.00061112   -0.01180356
     atom   16 type  2   force =     0.00058083    0.00307022   -0.01205246
     atom   17 type  2   force =     0.00035464   -0.01478323    0.02783525
     atom   18 type  2   force =     0.00037512    0.01324627    0.02789832
     atom   19 type  1   force =    -0.01207451    0.00073018    0.00326200
     atom   20 type  1   force =    -0.01219413   -0.00138393    0.00304945
     atom   21 type  1   force =     0.01357543    0.00131089    0.00277742
     atom   22 type  1   force =     0.01356587   -0.00098574    0.00248434
     atom   23 type  1   force =    -0.00335946    0.00070769   -0.01813489
     atom   24 type  1   force =    -0.00198087    0.00036483   -0.02015497
     atom   25 type  1   force =    -0.00013853   -0.00000095    0.00004517
     atom   26 type  1   force =    -0.00002131    0.00010054    0.00004842
     atom   27 type  2   force =     0.00004895   -0.00003230   -0.00008437
     atom   28 type  2   force =     0.00010172    0.00004607   -0.00001107
     atom   29 type  2   force =    -0.00012125    0.00000466   -0.00009477
     atom   30 type  1   force =     0.00005514   -0.00003663    0.00000975
     atom   31 type  1   force =     0.00006884   -0.00000506    0.00004024
     atom   32 type  1   force =     0.00000524   -0.00010013   -0.00005324
     atom   33 type  1   force =     0.00004901    0.00004449    0.00006128
     atom   34 type  2   force =    -0.00007345   -0.00010128    0.00005745
     atom   35 type  1   force =     0.00004468    0.00006546   -0.00005499
     atom   36 type  1   force =    -0.00003155    0.00002022   -0.00018589
     atom   37 type  1   force =    -0.00001106   -0.00007296    0.00000935
     atom   38 type  1   force =     0.00009297    0.00001241   -0.00007894
     atom   39 type  2   force =    -0.00005087    0.00005462   -0.00020890
     atom   40 type  2   force =     0.00007645    0.00005617    0.00016589
     atom   41 type  2   force =     0.00014367    0.00015277   -0.00012703
     atom   42 type  1   force =    -0.00000801    0.00000568   -0.00006031
     atom   43 type  1   force =     0.00009268    0.00000534    0.00003789
     atom   44 type  1   force =     0.00006154    0.00007716    0.00004046
     atom   45 type  1   force =     0.00010339    0.00008729   -0.00004384
     atom   46 type  2   force =     0.00006221    0.00002751   -0.00013814
     atom   47 type  1   force =     0.00006925   -0.00009701    0.00020151
     atom   48 type  3   force =     0.00352882    0.00340153    0.00215118
     atom   49 type  4   force =    -0.00011621    0.00003640   -0.00007588
     atom   50 type  4   force =     0.00019995   -0.00059561    0.00024944
     atom   51 type  5   force =    -0.00401754   -0.00255806   -0.00181255
     atom   52 type  1   force =     0.00012157    0.00001309    0.00006049

     Total force =     0.368116     Total SCF correction =     0.000623
  @ DRIVER MODE: Message from server: STATUS
  @ DRIVER MODE: Message from server: GETFORCE
  @ DRIVER MODE: Returning v,forces,stress,ensemble

     Writing output data file ./calc.save/
  @ DRIVER MODE: Message from server: EXIT
  @ DRIVE MODE: Exiting

     General routines

     Parallel routines

   This run was terminated on:   0:25:14  28Sep2021

   JOB DONE.