     Program PWSCF v.6.7GPU starts on 12Oct2021 at  4:42:51

     R & G space division:  proc/nbgrp/npool/nimage =       8
     Reading input from /storage/home/hcoda1/3/ntian30/research/carbon/CxH_vib/CH2_calc/ads_slab/CH2NHH_b/out_0034/pw.inp
Warning: card &CELL ignored
Warning: card   CELL_DYNAMICS='IPI', ignored
Warning: card / ignored

     Current dimensions of program PWSCF are:
     Max number of different atomic species (ntypx) = 10
     Max number of k-points (npk) =  40000
     Max angular momentum in pseudopotentials (lmaxx) =  3
     Presently no symmetry can be used with electric field

     Message from routine cell_base_init:
     DEPRECATED: use true lattice parameter, not A to a.u. conversion factor

     IMPORTANT: XC functional enforced from input :
     Exchange-correlation= BEEF-VDW
                           (   1   4  43  14   2   0   0)
     Any further DFT definition will be discarded
     Please, verify this is what you really want

  @ DRIVER MODE: Connecting to
 qe_1139763_3171005.sched-torque.pace.gatech.edu762ofn45_scratch
  using UNIX socket
  @ DRIVER MODE: Message from server: STATUS
  @ DRIVER MODE: Message from server: INIT
  @ DRIVER MODE: Receiving replica           0          -1
  @ DRIVER MODE: Receiving encoded integer          25
  @ DRIVER MODE:  SCF:  T  FORCE:  T  STRESS:  F  VC:  F  ENSEMBLE:  F
  @ DRIVER MODE:  SCF:  T  FORCE:  T  STRESS:  F  VC:  F  ENSEMBLE:  F

     Using Slab Decomposition

     bravais-lattice index     =            0
     lattice parameter (alat)  =       1.8897  a.u.
     unit-cell volume          =    6658.9804 (a.u.)^3
     number of atoms/cell      =           53
     number of atomic types    =            5
     number of electrons       =       391.00
     number of Kohn-Sham states=          205
     kinetic-energy cutoff     =      29.3995  Ry
     charge density cutoff     =     293.9946  Ry
     scf convergence threshold =      7.3E-08
     mixing beta               =       0.0500
     number of iterations used =            8  plain     mixing
     Exchange-correlation= BEEF-VDW
                           (   1   4  43  14   2   0   0)

     celldm(1)=   1.889726  celldm(2)=   0.000000  celldm(3)=   0.000000
     celldm(4)=   0.000000  celldm(5)=   0.000000  celldm(6)=   0.000000

     crystal axes: (cart. coord. in units of alat)
               a(1) = (   6.579727   0.000000   0.000000 )
               a(2) = (  -0.000775   5.961596   0.000000 )
               a(3) = (   0.000000   0.000000  25.155947 )

     reciprocal axes: (cart. coord. in units 2 pi/alat)
               b(1) = (  0.151982  0.000020  0.000000 )
               b(2) = (  0.000000  0.167740  0.000000 )
               b(3) = (  0.000000  0.000000  0.039752 )

     PseudoPot. # 1 for Ti read from file:
     /storage/coda1/p-amedford6/0/shared/rich_project_chbe-medford/medford-share/data/pseudos_module/espresso/nninc/pbe/van/Ti.UPF
     MD5 check sum: 8e4df49b7f0d34bbd5052bf3f5ea0213
     Pseudo is Ultrasoft, Zval = 12.0
     Generated by new atomic code, or converted to UPF format
     Using radial grid of  851 points,  6 beta functions with:
                l(1) =   0
                l(2) =   0
                l(3) =   1
                l(4) =   1
                l(5) =   2
                l(6) =   2
     Q(r) pseudized with  8 coefficients,  rinner =    1.000   1.000   1.000
                                                       1.000   1.000

     PseudoPot. # 2 for O  read from file:
     /storage/coda1/p-amedford6/0/shared/rich_project_chbe-medford/medford-share/data/pseudos_module/espresso/nninc/pbe/van/O.UPF
     MD5 check sum: 78c19812648e8988a0fe644b0f25305e
     Pseudo is Ultrasoft, Zval =  6.0
     Generated by new atomic code, or converted to UPF format
     Using radial grid of  737 points,  4 beta functions with:
                l(1) =   0
                l(2) =   0
                l(3) =   1
                l(4) =   1
     Q(r) pseudized with  8 coefficients,  rinner =    0.800   0.800   0.800

     PseudoPot. # 3 for H  read from file:
     /storage/coda1/p-amedford6/0/shared/rich_project_chbe-medford/medford-share/data/pseudos_module/espresso/nninc/pbe/van/H.UPF
     MD5 check sum: b5ee9d7bfd3a09ee7748110bda690ff7
     Pseudo is Ultrasoft, Zval =  1.0
     Generated by new atomic code, or converted to UPF format
     Using radial grid of  615 points,  1 beta functions with:
                l(1) =   0
     Q(r) pseudized with  8 coefficients,  rinner =    0.800

     PseudoPot. # 4 for N  read from file:
     /storage/coda1/p-amedford6/0/shared/rich_project_chbe-medford/medford-share/data/pseudos_module/espresso/nninc/pbe/van/N.UPF
     MD5 check sum: 90d10febe142ad51ac9d5be1deb811c4
     Pseudo is Ultrasoft, Zval =  5.0
     Generated by new atomic code, or converted to UPF format
     Using radial grid of  729 points,  4 beta functions with:
                l(1) =   0
                l(2) =   0
                l(3) =   1
                l(4) =   1
     Q(r) pseudized with  8 coefficients,  rinner =    0.800   0.800   0.800

     PseudoPot. # 5 for C  read from file:
     /storage/coda1/p-amedford6/0/shared/rich_project_chbe-medford/medford-share/data/pseudos_module/espresso/nninc/pbe/van/C.UPF
     MD5 check sum: 1a69bf6b8db32088f5b2163dbdb77a27
     Pseudo is Ultrasoft, Zval =  4.0
     Generated by new atomic code, or converted to UPF format
     Using radial grid of  721 points,  4 beta functions with:
                l(1) =   0
                l(2) =   0
                l(3) =   1
                l(4) =   1
     Q(r) pseudized with  8 coefficients,  rinner =    0.800   0.800   0.800

     atomic species   valence    mass     pseudopotential
        Ti1           12.00    47.86700     Ti( 1.00)
        O1             6.00    15.99900     O ( 1.00)
        H1             1.00     1.00800     H ( 1.00)
        N1             5.00    14.00700     N ( 1.00)
        C1             4.00    12.01100     C ( 1.00)

     No symmetry found

   Cartesian axes

     site n.     atom                  positions (alat units)
         1           Ti1 tau(   1) = (   0.0004258   2.9801865   6.0000000  )
         2           Ti1 tau(   2) = (   3.2906075   1.4906267   6.0002472  )
         3           O1  tau(   3) = (   0.0006271   0.0005054   7.9858123  )
         4           O1  tau(   4) = (   3.2906025   0.0005020   7.3038282  )
         5           O1  tau(   5) = (   4.5942328   1.4918067   9.2879030  )
         6           O1  tau(   6) = (   1.9868534   1.4903216   9.2879459  )
         7           Ti1 tau(   7) = (   3.2907910   2.8959150   9.1758416  )
         8           Ti1 tau(   8) = (   0.0015273   1.4827037   9.2680791  )
         9           O1  tau(   9) = (   3.3750462   0.0034689  11.3324641  )
        10           O1  tau(  10) = (   0.0116148   5.9584955  10.6183126  )
        11           O1  tau(  11) = (   1.3977860   1.4758343  12.6375763  )
        12           O1  tau(  12) = (   5.4232152   1.4913549  12.6657899  )
        13           Ti1 tau(  13) = (   0.0691229   2.9530050  12.5389017  )
        14           Ti1 tau(  14) = (   3.3643908   1.4039863  12.4577757  )
        15           O1  tau(  15) = (   0.1477665   0.0132832  14.6652528  )
        16           O1  tau(  16) = (   3.5189244   0.0045933  13.9158019  )
        17           O1  tau(  17) = (   4.7861523   1.5333885  16.1913275  )
        18           O1  tau(  18) = (   2.2541876   1.4026900  15.9427082  )
        19           Ti1 tau(  19) = (   3.5811307   2.9972434  16.0687679  )
        20           Ti1 tau(  20) = (   0.2998503   1.4255696  15.8726171  )
        21           O1  tau(  21) = (   3.2904802   0.0005063   4.7018136  )
        22           O1  tau(  22) = (   0.2643450   0.0038197  17.1846268  )
        23           O1  tau(  23) = (   1.3043587   1.4918075   6.0039043  )
        24           O1  tau(  24) = (   5.2767064   1.4903225   6.0039473  )
        25           Ti1 tau(  25) = (   0.0000382   5.9609847   6.0000000  )
        26           Ti1 tau(  26) = (   3.2902200   4.4714249   6.0002472  )
        27           O1  tau(  27) = (   0.0002396   2.9813036   7.9858123  )
        28           O1  tau(  28) = (   3.2902150   2.9813002   7.3038282  )
        29           O1  tau(  29) = (   4.5938453   4.4726049   9.2879030  )
        30           O1  tau(  30) = (   1.9864658   4.4711199   9.2879459  )
        31           Ti1 tau(  31) = (   3.2891106   5.8743827   9.1763621  )
        32           Ti1 tau(  32) = (   0.0006254   4.4649316   9.2693709  )
        33           O1  tau(  33) = (   3.3836021   2.9593565  11.3526375  )
        34           O1  tau(  34) = (   0.0092240   2.9805883  10.6323155  )
        35           O1  tau(  35) = (   1.3957467   4.4736095  12.6396340  )
        36           O1  tau(  36) = (   5.4261019   4.4541359  12.6685409  )
        37           Ti1 tau(  37) = (   0.0939275   5.9312067  12.4916740  )
        38           Ti1 tau(  38) = (   3.3665170   4.3046527  12.6650499  )
        39           O1  tau(  39) = (   0.1734719   2.9828917  14.8532074  )
        40           O1  tau(  40) = (   3.4150578   3.0309863  13.9715028  )
        41           O1  tau(  41) = (   4.7877001   4.4493464  16.1994792  )
        42           O1  tau(  42) = (   2.2536850   4.5881152  15.9586447  )
        43           Ti1 tau(  43) = (   3.5332629   0.0183730  15.6991940  )
        44           Ti1 tau(  44) = (   0.2986595   4.6220906  15.9451660  )
        45           O1  tau(  45) = (   3.2900926   2.9813045   4.7018136  )
        46           O1  tau(  46) = (   1.3039711   4.4726057   6.0039043  )
        47           O1  tau(  47) = (   5.2763189   4.4711207   6.0039473  )
        48           H1  tau(  48) = (   0.6716682   3.7174429  18.3617054  )
        49           H1  tau(  49) = (   0.7299512   2.1188458  18.2939656  )
        50           N1  tau(  50) = (   1.0883034   2.9530349  17.8291855  )
        51           C1  tau(  51) = (   2.6610371   2.9951180  18.0825860  )
        52           H1  tau(  52) = (   2.6895649   3.8224559  18.7561578  )
        53           H1  tau(  53) = (   2.7295784   2.2242559  18.8115579  )

     number of k points=    10  Fermi-Dirac smearing, width (Ry)=  0.0073
                       cart. coord. in units 2pi/alat
        k(    1) = (   0.0000000   0.0000000   0.0000000), wk =   0.1250000
        k(    2) = (   0.0000000   0.0419351   0.0000000), wk =   0.2500000
        k(    3) = (   0.0000000  -0.0838702   0.0000000), wk =   0.1250000
        k(    4) = (   0.0379955   0.0000049   0.0000000), wk =   0.2500000
        k(    5) = (   0.0379955   0.0419400   0.0000000), wk =   0.2500000
        k(    6) = (   0.0379955  -0.0838652   0.0000000), wk =   0.2500000
        k(    7) = (   0.0379955  -0.0419301   0.0000000), wk =   0.2500000
        k(    8) = (  -0.0759910  -0.0000099   0.0000000), wk =   0.1250000
        k(    9) = (  -0.0759910   0.0419252   0.0000000), wk =   0.2500000
        k(   10) = (  -0.0759910  -0.0838800   0.0000000), wk =   0.1250000

     Initial potential from superposition of free atoms

     starting charge  374.99916, renormalised to  391.00000

     negative rho (up, down):  1.820E-02 0.000E+00

     %%%%%%%%%%%%%%%%%%%%%%%%%%%%%%%%%%%%%%%%%%%%%%%%%%%%%%%%%%%%%%%%%%%%%%%%
     %                                                                      %
     % You are using vdW-DF, which was implemented by the Thonhauser group. %
     % Please cite the following two papers that made this development      %
     % possible and the two reviews that describe the various versions:     %
     %                                                                      %
     %   T. Thonhauser et al., PRL 115, 136402 (2015).                      %
     %   T. Thonhauser et al., PRB 76, 125112 (2007).                       %
     %   K. Berland et al., Rep. Prog. Phys. 78, 066501 (2015).             %
     %   D.C. Langreth et al., J. Phys.: Condens. Matter 21, 084203 (2009). %
     %                                                                      %
     %                                                                      %
     % If you are calculating the stress with vdW-DF, please also cite:     %
     %                                                                      %
     %   R. Sabatini et al., J. Phys.: Condens. Matter 24, 424209 (2012).   %
     %                                                                      %
     %%%%%%%%%%%%%%%%%%%%%%%%%%%%%%%%%%%%%%%%%%%%%%%%%%%%%%%%%%%%%%%%%%%%%%%%

     Adding external electric field

     Computed dipole along edir(3) :
        Dipole               -5.7422 Ry au,        -14.5952 Debye
        Dipole field         -0.0108 Ry au,

        Potential amp.        1.0045 Ry
        Total length         46.3494 bohr

     Starting wfcs are  296 atomic wfcs
  @ DRIVER MODE: Message from server: STATUS
  @ DRIVER MODE: Message from server: POSDATA
  @ DRIVER MODE: Reading and sharing cell
  @ DRIVER MODE: Reading and sharing positions
  @ DRIVER MODE: Received positions

     Self-consistent Calculation

     iteration #  1     ecut=    29.40 Ry     beta= 0.05
     Davidson diagonalization with overlap
     c_bands:  2 eigenvalues not converged
     c_bands:  1 eigenvalues not converged
     c_bands:  5 eigenvalues not converged
     c_bands:  2 eigenvalues not converged
     c_bands:  2 eigenvalues not converged
     c_bands:  2 eigenvalues not converged
     c_bands:  2 eigenvalues not converged
     ethr =  1.00E-05,  avg # of iterations = 20.8

[...]

     total energy              =   -2767.17606352 Ry
     estimated scf accuracy    <    1681.00627419 Ry

     iteration #  2     ecut=    29.40 Ry     beta= 0.05
     Davidson diagonalization with overlap
     ethr =  1.00E-02,  avg # of iterations = 19.3

[...]

     iteration # 59     ecut=    29.40 Ry     beta= 0.05
     Davidson diagonalization with overlap
     c_bands:  2 eigenvalues not converged
     ethr =  1.24E-10,  avg # of iterations = 15.2

[...]

     total energy              =   -2920.26976498 Ry
     estimated scf accuracy    <       0.00000015 Ry

     iteration # 64     ecut=    29.40 Ry     beta= 0.05
     Davidson diagonalization with overlap
     ethr =  3.80E-11,  avg # of iterations =  6.4

     negative rho (up, down):  1.845E-02 0.000E+00

     Adding external electric field

     Computed dipole along edir(3) :
        Dipole                0.8718 Ry au,          2.2158 Debye
        Dipole field          0.0016 Ry au,

        Potential amp.       -0.1525 Ry
        Total length         46.3494 bohr

     End of self-consistent calculation

          k = 0.0000 0.0000 0.0000 ( 18029 PWs)   bands (ev):

   -55.8835 -55.8494 -55.7537 -55.7153 -55.7100 -55.7081 -55.6965 -55.6761
   -55.6691 -55.6321 -55.6302 -55.6267 -55.5935 -55.5630 -54.8641 -54.8300
   -32.3691 -32.2806 -32.2437 -32.2125 -32.1770 -32.1742 -32.1560 -32.1556
   -32.1290 -32.0772 -32.0362 -32.0181 -32.0088 -31.9954 -31.9941 -31.9910
   -31.9787 -31.9478 -31.9411 -31.9308 -31.9218 -31.9097 -31.8990 -31.8904
   -31.8788 -31.8752 -31.8537 -31.8532 -31.8467 -31.8452 -31.8381 -31.8292
   -31.8226 -31.8219 -31.8199 -31.8052 -31.7921 -31.7806 -31.7790 -31.7676
   -31.7120 -31.6266 -31.2705 -31.1832 -31.1608 -31.0880 -31.0015 -30.8898
   -16.5731 -16.4021 -16.1953 -16.0684 -16.0507 -15.8573 -15.7644 -15.6869
   -15.4924 -15.4533 -15.4248 -15.4094 -15.3981 -15.3965 -15.3795 -15.3602
   -15.3398 -15.3301 -15.3086 -15.2563 -15.2502 -15.2406 -15.2164 -15.2135
   -15.0299 -15.0213 -14.9806 -14.9441 -14.8660 -14.5656 -13.3633 -13.2468
    -8.9446  -5.6277  -3.9605  -3.8912  -3.8165  -3.7908  -3.7787  -3.6570
    -3.4836  -3.2959  -3.2079  -3.1734  -3.0578  -3.0119  -2.9161  -2.8381
    -2.8241  -2.7621  -2.7211  -2.6990  -2.6719  -2.6599  -2.6075  -2.5845
    -2.5773  -2.4430  -2.3861  -2.3659  -2.3031  -2.2776  -2.2500  -2.2064
    -2.2005  -2.1866  -2.1700  -2.1330  -2.1041  -2.0876  -2.0060  -1.9355
    -1.8955  -1.8557  -1.6274  -1.5247  -1.4998  -1.4658  -1.4114  -1.3791
    -1.3344  -1.2958  -1.2797  -1.2612  -1.1928  -1.1032  -1.0220  -1.0141
    -0.9126  -0.8878  -0.8012  -0.7259  -0.7083  -0.6455  -0.6224  -0.6181
    -0.6137  -0.5218  -0.4707  -0.3875  -0.3381  -0.3008  -0.2349  -0.1688
    -0.1123  -0.1008  -0.0624  -0.0198   0.0229   0.0336   0.0585   0.0884
     0.1266   0.1644   0.2039   0.2853   0.3274   0.3621   0.4083   0.4208
     0.5233   0.7336   0.7737   0.9125   1.0927   1.1618   1.1871   1.2050
     1.3533   1.7301   1.7759   3.1985   3.3432   3.3610   3.4326   3.4626
     3.5152   3.6863   3.7725   3.8138   3.8874

[...]

          k = 0.0380-0.0419 0.0000 ( 17876 PWs)   bands (ev):

[...]

          k =-0.0760-0.0000 0.0000 ( 17886 PWs)   bands (ev):

[...]

          k =-0.0760-0.0839 0.0000 ( 17948 PWs)   bands (ev):

   -55.8665 -55.8662 -55.7425 -55.7262 -55.7055 -55.6930 -55.6927 -55.6920
   -55.6608 -55.6352 -55.6351 -55.6225 -55.6030 -55.5647 -54.8472 -54.8468
   -32.2048 -32.1845 -32.1843 -32.1599 -32.1595 -32.0997 -32.0669 -32.0488
   -32.0335 -32.0265 -32.0237 -32.0165 -32.0009 -31.9868 -31.9861 -31.9842
   -31.9764 -31.9686 -31.9613 -31.9475 -31.9457 -31.9365 -31.9334 -31.9251
   -31.9118 -31.9027 -31.8986 -31.8941 -31.8818 -31.8775 -31.8695 -31.8686
   -31.8682 -31.8607 -31.8568 -31.8472 -31.8441 -31.8317 -31.8132 -31.8129
   -31.7976 -31.6269 -31.1737 -31.1734 -31.0837 -31.0830 -31.0450 -31.0446
   -16.1456 -15.9769 -15.8677 -15.8529 -15.7898 -15.6801 -15.6670 -15.6401
   -15.6207 -15.5839 -15.5646 -15.5516 -15.5031 -15.4638 -15.4269 -15.4025
   -15.3987 -15.3520 -15.3476 -15.3378 -15.3157 -15.2814 -15.2727 -15.2084
   -15.1997 -15.1031 -15.0880 -15.0676 -15.0176 -14.8977 -13.3487 -13.3486
    -8.9507  -5.5979  -3.8175  -3.3040  -3.2063  -3.0697  -3.0019  -2.9617
    -2.9133  -2.8804  -2.8589  -2.8404  -2.7903  -2.7765  -2.7450  -2.7016
    -2.6834  -2.6663  -2.6461  -2.6195  -2.5984  -2.5868  -2.5681  -2.5503
    -2.5178  -2.5027  -2.4761  -2.4614  -2.4509  -2.4391  -2.4317  -2.4189
    -2.2347  -2.1430  -2.0513  -2.0410  -2.0325  -2.0072  -1.9797  -1.9648
    -1.9475  -1.9266  -1.9001  -1.8708  -1.8404  -1.5872  -1.5581  -1.5232
    -1.4652  -1.4279  -1.3801  -1.3659  -1.3334  -1.3042  -1.2233  -1.1871
    -1.1600  -1.0819  -1.0099  -0.9458  -0.9001  -0.8627  -0.8321  -0.8203
    -0.7808  -0.7422  -0.7330  -0.7087  -0.6927  -0.5860  -0.5840  -0.5812
    -0.4360  -0.3987  -0.3787  -0.2863  -0.2667  -0.0873  -0.0264   0.0022
     0.1362   0.1470   0.1837   0.2934   0.3205   0.3660   0.4226   0.4437
     0.5301   0.5823   0.6241   0.6636   0.6873   0.7040   1.1630   1.5241
     1.5299   1.5961   1.5962   3.5989   3.6400   3.7065   3.7323   3.7523
     3.7880   3.8104   3.8216   3.8670   3.8768

     the Fermi energy is     3.2372 ev

!    total energy              =   -2920.26979208 Ry
     estimated scf accuracy    <       0.00000004 Ry
     smearing contrib. (-TS)   =      -0.01953346 Ry
     internal energy E=F+TS    =   -2920.25025862 Ry

     The total energy is F=E-TS. E is the sum of the following terms:
     one-electron contribution =  -24543.76342398 Ry
     hartree contribution      =   12357.68961619 Ry
     xc contribution           =    -480.81775788 Ry
     ewald contribution        =    9746.63987284 Ry
     electric field correction =       0.00143420 Ry

     convergence has been achieved in  64 iterations

     Forces acting on atoms (cartesian axes, Ry/au):

     atom    1 type  1   force =     0.00007129   -0.00038408    0.09439794
     atom    2 type  1   force =    -0.00007687   -0.00123089   -0.17582190
     atom    3 type  2   force =     0.00046700   -0.00020565   -0.02134211
     atom    4 type  2   force =     0.00017530   -0.00093058    0.05147403
     atom    5 type  2   force =    -0.00540897    0.00099930   -0.00034596
     atom    6 type  2   force =     0.00990027    0.00143163    0.00528476
     atom    7 type  1   force =     0.00311810    0.00406590   -0.00384308
     atom    8 type  1   force =    -0.00264163    0.00537600    0.00462394
     atom    9 type  2   force =     0.00031906    0.00018656    0.00044577
     atom   10 type  2   force =     0.00290233    0.00077188   -0.01334102
     atom   11 type  2   force =     0.00010616    0.00027835   -0.00001160
     atom   12 type  2   force =    -0.00017217   -0.00005369   -0.00008239
     atom   13 type  1   force =    -0.00028210   -0.00029767    0.00137141
     atom   14 type  1   force =    -0.00061727    0.00041366   -0.00125017
     atom   15 type  2   force =     0.00026925   -0.00003861   -0.00002506
     atom   16 type  2   force =     0.00005449   -0.00015831    0.00021130
     atom   17 type  2   force =     0.00029525   -0.00083307    0.00069607
     atom   18 type  2   force =     0.00017491    0.00007988   -0.00021367
     atom   19 type  1   force =    -0.00023814    0.00031931   -0.00082178
     atom   20 type  1   force =    -0.00004288    0.00191688   -0.00034787
     atom   21 type  2   force =     0.00005080   -0.00009743    0.10311050
     atom   22 type  2   force =    -0.00064452    0.00070588    0.00080534
     atom   23 type  2   force =    -0.07170046   -0.00014003   -0.02718986
     atom   24 type  2   force =     0.07176107    0.00035118   -0.02733472
     atom   25 type  1   force =    -0.00009062   -0.00021675    0.09387696
     atom   26 type  1   force =     0.00003904    0.00040169   -0.17578445
     atom   27 type  2   force =     0.00046601   -0.00026497   -0.02044064
     atom   28 type  2   force =     0.00023836   -0.00170691    0.05409667
     atom   29 type  2   force =    -0.00646219   -0.00169928    0.00029403
     atom   30 type  2   force =     0.01070256   -0.00155737    0.00560705
     atom   31 type  1   force =     0.00345623    0.00044073    0.00535041
     atom   32 type  1   force =    -0.00266703   -0.00669136    0.00503481
     atom   33 type  2   force =     0.00024934    0.00032082    0.00057771
     atom   34 type  2   force =     0.00503923   -0.00078944   -0.00876310
     atom   35 type  2   force =     0.00013479   -0.00001566    0.00000180
     atom   36 type  2   force =    -0.00013729   -0.00002990   -0.00001839
     atom   37 type  1   force =     0.00075400   -0.00041433    0.00088521
     atom   38 type  1   force =    -0.00028296   -0.00119755   -0.00000192
     atom   39 type  2   force =    -0.00075044   -0.00017337    0.00043980
     atom   40 type  2   force =     0.00037510    0.00041171   -0.00008308
     atom   41 type  2   force =     0.00022425    0.00152234    0.00070887
     atom   42 type  2   force =     0.00054966    0.00038113   -0.00001801
     atom   43 type  1   force =     0.00071220    0.00005632    0.00009611
     atom   44 type  1   force =     0.00002761   -0.00176150   -0.00072263
     atom   45 type  2   force =     0.00005466   -0.00001912    0.10330770
     atom   46 type  2   force =    -0.07168353   -0.00015422   -0.02721684
     atom   47 type  2   force =     0.07172580    0.00029917   -0.02732534
     atom   48 type  3   force =     0.00032812   -0.00017929   -0.00047014
     atom   49 type  3   force =     0.00022426   -0.00096399   -0.00010501
     atom   50 type  4   force =     0.00003072    0.00089325    0.00043157
     atom   51 type  5   force =    -0.08595886    0.00383804   -0.00606564
     atom   52 type  3   force =     0.03095659    0.05280923   -0.00058587
     atom   53 type  3   force =     0.03390411   -0.05606581    0.00644248

     Total force =     0.383734     Total SCF correction =     0.000491
  @ DRIVER MODE: Message from server: STATUS
  @ DRIVER MODE: Message from server: GETFORCE
  @ DRIVER MODE: Returning v,forces,stress,ensemble

     Writing output data file ./calc.save/
  @ DRIVER MODE: Message from server: EXIT
  @ DRIVE MODE: Exiting

     General routines

     Parallel routines

   This run was terminated on:   5: 5:41  12Oct2021

   JOB DONE.