     Program PWSCF v.6.7GPU starts on 12Oct2021 at 10:29: 9

     R & G space division:  proc/nbgrp/npool/nimage =       8
     Reading input from /storage/home/hcoda1/3/ntian30/research/carbon/ACS_vib/ads_slab/HNNH2/out_0005/pw.inp
Warning: card &CELL ignored
Warning: card   CELL_DYNAMICS='IPI', ignored
Warning: card / ignored

     Current dimensions of program PWSCF are:
     Max number of different atomic species (ntypx) = 10
     Max number of k-points (npk) =  40000
     Max angular momentum in pseudopotentials (lmaxx) =  3
     Presently no symmetry can be used with electric field

     Message from routine cell_base_init:
     DEPRECATED: use true lattice parameter, not A to a.u. conversion factor

     IMPORTANT: XC functional enforced from input :
     Exchange-correlation= BEEF-VDW
                           (   1   4  43  14   2   0   0)
     Any further DFT definition will be discarded
     Please, verify this is what you really want

  @ DRIVER MODE: Connecting to
 qe_1139763_3181312.sched-torque.pace.gatech.edu83s5q0pj_scratch
  using UNIX socket
  @ DRIVER MODE: Message from server: STATUS
  @ DRIVER MODE: Message from server: INIT
  @ DRIVER MODE: Receiving replica           0          -1
  @ DRIVER MODE: Receiving encoded integer          25
  @ DRIVER MODE:  SCF:  T  FORCE:  T  STRESS:  F  VC:  F  ENSEMBLE:  F
  @ DRIVER MODE:  SCF:  T  FORCE:  T  STRESS:  F  VC:  F  ENSEMBLE:  F

     Using Slab Decomposition

     bravais-lattice index     =            0
     lattice parameter (alat)  =       1.8897  a.u.
     unit-cell volume          =    6658.9804 (a.u.)^3
     number of atoms/cell      =           52
     number of atomic types    =            4
     number of electrons       =       391.00
     number of Kohn-Sham states=          205
     kinetic-energy cutoff     =      29.3995  Ry
     charge density cutoff     =     293.9946  Ry
     scf convergence threshold =      7.3E-08
     mixing beta               =       0.0500
     number of iterations used =            8  plain     mixing
     Exchange-correlation= BEEF-VDW
                           (   1   4  43  14   2   0   0)

     celldm(1)=   1.889726  celldm(2)=   0.000000  celldm(3)=   0.000000
     celldm(4)=   0.000000  celldm(5)=   0.000000  celldm(6)=   0.000000

     crystal axes: (cart. coord. in units of alat)
               a(1) = (   6.579727   0.000000   0.000000 )
               a(2) = (  -0.000775   5.961596   0.000000 )
               a(3) = (   0.000000   0.000000  25.155947 )

     reciprocal axes: (cart. coord. in units 2 pi/alat)
               b(1) = (  0.151982  0.000020  0.000000 )
               b(2) = (  0.000000  0.167740  0.000000 )
               b(3) = (  0.000000  0.000000  0.039752 )

     PseudoPot. # 1 for Ti read from file:
     /storage/coda1/p-amedford6/0/shared/rich_project_chbe-medford/medford-share/data/pseudos_module/espresso/nninc/pbe/van/Ti.UPF
     MD5 check sum: 8e4df49b7f0d34bbd5052bf3f5ea0213
     Pseudo is Ultrasoft, Zval = 12.0
     Generated by new atomic code, or converted to UPF format
     Using radial grid of  851 points,  6 beta functions with:
                l(1) =   0
                l(2) =   0
                l(3) =   1
                l(4) =   1
                l(5) =   2
                l(6) =   2
     Q(r) pseudized with  8 coefficients,  rinner =    1.000   1.000   1.000
                                                       1.000   1.000

     PseudoPot. # 2 for O  read from file:
     /storage/coda1/p-amedford6/0/shared/rich_project_chbe-medford/medford-share/data/pseudos_module/espresso/nninc/pbe/van/O.UPF
     MD5 check sum: 78c19812648e8988a0fe644b0f25305e
     Pseudo is Ultrasoft, Zval =  6.0
     Generated by new atomic code, or converted to UPF format
     Using radial grid of  737 points,  4 beta functions with:
                l(1) =   0
                l(2) =   0
                l(3) =   1
                l(4) =   1
     Q(r) pseudized with  8 coefficients,  rinner =    0.800   0.800   0.800

     PseudoPot. # 3 for H  read from file:
     /storage/coda1/p-amedford6/0/shared/rich_project_chbe-medford/medford-share/data/pseudos_module/espresso/nninc/pbe/van/H.UPF
     MD5 check sum: b5ee9d7bfd3a09ee7748110bda690ff7
     Pseudo is Ultrasoft, Zval =  1.0
     Generated by new atomic code, or converted to UPF format
     Using radial grid of  615 points,  1 beta functions with:
                l(1) =   0
     Q(r) pseudized with  8 coefficients,  rinner =    0.800

     PseudoPot. # 4 for N  read from file:
     /storage/coda1/p-amedford6/0/shared/rich_project_chbe-medford/medford-share/data/pseudos_module/espresso/nninc/pbe/van/N.UPF
     MD5 check sum: 90d10febe142ad51ac9d5be1deb811c4
     Pseudo is Ultrasoft, Zval =  5.0
     Generated by new atomic code, or converted to UPF format
     Using radial grid of  729 points,  4 beta functions with:
                l(1) =   0
                l(2) =   0
                l(3) =   1
                l(4) =   1
     Q(r) pseudized with  8 coefficients,  rinner =    0.800   0.800   0.800

     atomic species   valence    mass     pseudopotential
        Ti1           12.00    47.86700     Ti( 1.00)
        O1             6.00    15.99900     O ( 1.00)
        H1             1.00     1.00800     H ( 1.00)
        N1             5.00    14.00700     N ( 1.00)

     No symmetry found

   Cartesian axes

     site n.     atom                  positions (alat units)
         1           Ti1 tau(   1) = (   0.0004258   2.9801865   6.0000000  )
         2           Ti1 tau(   2) = (   3.2906075   1.4906267   6.0002472  )
         3           O1  tau(   3) = (   0.0006271   0.0005054   7.9858123  )
         4           O1  tau(   4) = (   3.2906025   0.0005020   7.3038282  )
         5           O1  tau(   5) = (   4.5942328   1.4918067   9.2879030  )
         6           O1  tau(   6) = (   1.9868534   1.4903216   9.2879459  )
         7           Ti1 tau(   7) = (   3.2908112   2.9011704   9.1816539  )
         8           Ti1 tau(   8) = (   0.0015097   1.3932332   9.2931702  )
         9           O1  tau(   9) = (   3.2819087   5.9526348  11.3504271  )
        10           O1  tau(  10) = (   6.5772260   5.9545827  10.6088576  )
        11           O1  tau(  11) = (   1.2874804   1.4832564  12.6509691  )
        12           O1  tau(  12) = (   5.2781146   1.4858874  12.6440994  )
        13           Ti1 tau(  13) = (   6.5585775   2.9503744  12.8030734  )
        14           Ti1 tau(  14) = (   3.2696126   1.4733128  12.4944632  )
        15           O1  tau(  15) = (   6.5513721   5.9458199  14.6768215  )
        16           O1  tau(  16) = (   3.2879482   5.9481552  13.9547078  )
        17           O1  tau(  17) = (   4.5181657   1.4884665  16.1124167  )
        18           O1  tau(  18) = (   2.0188244   1.4835402  16.0984261  )
        19           Ti1 tau(  19) = (   3.2766105   2.9578040  15.7125626  )
        20           Ti1 tau(  20) = (   0.0270592   1.3580474  16.0627221  )
        21           O1  tau(  21) = (   3.2904802   0.0005063   4.7018136  )
        22           O1  tau(  22) = (   0.0072818   5.9434210  17.2237418  )
        23           O1  tau(  23) = (   1.3043587   1.4918075   6.0039043  )
        24           O1  tau(  24) = (   5.2767064   1.4903225   6.0039473  )
        25           Ti1 tau(  25) = (   0.0000382   5.9609847   6.0000000  )
        26           Ti1 tau(  26) = (   3.2902200   4.4714249   6.0002472  )
        27           O1  tau(  27) = (   0.0002396   2.9813036   7.9858123  )
        28           O1  tau(  28) = (   3.2902150   2.9813002   7.3038282  )
        29           O1  tau(  29) = (   4.5938453   4.4726049   9.2879030  )
        30           O1  tau(  30) = (   1.9864658   4.4711199   9.2879459  )
        31           Ti1 tau(  31) = (   3.2900885   5.8829342   9.1674613  )
        32           Ti1 tau(  32) = (   0.0009626   4.3321112   9.3579051  )
        33           O1  tau(  33) = (   3.2805539   2.9674959  11.3464436  )
        34           O1  tau(  34) = (   6.5791951   2.9642230  10.5753725  )
        35           O1  tau(  35) = (   1.2880645   4.4660911  12.6414962  )
        36           O1  tau(  36) = (   5.2770833   4.4616490  12.6331305  )
        37           Ti1 tau(  37) = (   6.5652171   5.9330851  12.5680926  )
        38           Ti1 tau(  38) = (   3.2703904   4.4534766  12.4879229  )
        39           O1  tau(  39) = (   6.5642693   2.9891374  14.6930774  )
        40           O1  tau(  40) = (   3.2814391   2.9717942  13.9260038  )
        41           O1  tau(  41) = (   4.5200678   4.4336085  16.1105754  )
        42           O1  tau(  42) = (   2.0169658   4.4359636  16.1171003  )
        43           Ti1 tau(  43) = (   3.3139371   5.9425984  15.7429620  )
        44           Ti1 tau(  44) = (   0.0173840   4.5100783  16.0001754  )
        45           O1  tau(  45) = (   3.2900926   2.9813045   4.7018136  )
        46           O1  tau(  46) = (   1.3039711   4.4726057   6.0039043  )
        47           O1  tau(  47) = (   5.2763189   4.4711207   6.0039473  )
        48           H1  tau(  48) = (   5.5810648   2.9993886  17.8766560  )
        49           N1  tau(  49) = (   6.5184219   2.9788514  17.4915934  )
        50           N1  tau(  50) = (   0.8269126   2.9775512  18.6276789  )
        51           H1  tau(  51) = (   1.2125983   2.0437984  18.7562651  )
        52           H1  tau(  52) = (   1.5963704   3.6133177  18.4401992  )

     number of k points=    10  Fermi-Dirac smearing, width (Ry)=  0.0073
                       cart. coord. in units 2pi/alat
        k(    1) = (   0.0000000   0.0000000   0.0000000), wk =   0.1250000
        k(    2) = (   0.0000000   0.0419351   0.0000000), wk =   0.2500000
        k(    3) = (   0.0000000  -0.0838702   0.0000000), wk =   0.1250000
        k(    4) = (   0.0379955   0.0000049   0.0000000), wk =   0.2500000
        k(    5) = (   0.0379955   0.0419400   0.0000000), wk =   0.2500000
        k(    6) = (   0.0379955  -0.0838652   0.0000000), wk =   0.2500000
        k(    7) = (   0.0379955  -0.0419301   0.0000000), wk =   0.2500000
        k(    8) = (  -0.0759910  -0.0000099   0.0000000), wk =   0.1250000
        k(    9) = (  -0.0759910   0.0419252   0.0000000), wk =   0.2500000
        k(   10) = (  -0.0759910  -0.0838800   0.0000000), wk =   0.1250000

     Initial potential from superposition of free atoms

     starting charge  374.99920, renormalised to  391.00000

     negative rho (up, down):  1.966E-02 0.000E+00

     %%%%%%%%%%%%%%%%%%%%%%%%%%%%%%%%%%%%%%%%%%%%%%%%%%%%%%%%%%%%%%%%%%%%%%%%
     %                                                                      %
     % You are using vdW-DF, which was implemented by the Thonhauser group. %
     % Please cite the following two papers that made this development      %
     % possible and the two reviews that describe the various versions:     %
     %                                                                      %
     %   T. Thonhauser et al., PRL 115, 136402 (2015).                      %
     %   T. Thonhauser et al., PRB 76, 125112 (2007).                       %
     %   K. Berland et al., Rep. Prog. Phys. 78, 066501 (2015).             %
     %   D.C. Langreth et al., J. Phys.: Condens. Matter 21, 084203 (2009). %
     %                                                                      %
     %                                                                      %
     % If you are calculating the stress with vdW-DF, please also cite:     %
     %                                                                      %
     %   R. Sabatini et al., J. Phys.: Condens. Matter 24, 424209 (2012).   %
     %                                                                      %
     %%%%%%%%%%%%%%%%%%%%%%%%%%%%%%%%%%%%%%%%%%%%%%%%%%%%%%%%%%%%%%%%%%%%%%%%

     Adding external electric field

     Computed dipole along edir(3) :
        Dipole               -5.4642 Ry au,        -13.8887 Debye
        Dipole field         -0.0103 Ry au,

        Potential amp.        0.9559 Ry
        Total length         46.3494 bohr

     Starting wfcs are  295 atomic wfcs
  @ DRIVER MODE: Message from server: STATUS
  @ DRIVER MODE: Message from server: POSDATA
  @ DRIVER MODE: Reading and sharing cell
  @ DRIVER MODE: Reading and sharing positions
  @ DRIVER MODE: Received positions

     Self-consistent Calculation

     iteration #  1     ecut=    29.40 Ry     beta= 0.05
     Davidson diagonalization with overlap
     c_bands:  4 eigenvalues not converged
     c_bands:  1 eigenvalues not converged
     c_bands:  2 eigenvalues not converged
     c_bands:  3 eigenvalues not converged
     c_bands:  4 eigenvalues not converged
     c_bands:  2 eigenvalues not converged
     c_bands:  1 eigenvalues not converged
     c_bands:  1 eigenvalues not converged
     c_bands:  2 eigenvalues not converged
     ethr =  1.00E-05,  avg # of iterations = 19.9

[...]

     total energy              =   -2794.95426825 Ry
     estimated scf accuracy    <    1457.34566300 Ry

     iteration #  2     ecut=    29.40 Ry     beta= 0.05
     Davidson diagonalization with overlap
     ethr =  1.00E-02,  avg # of iterations = 16.8

[...]

     iteration # 62     ecut=    29.40 Ry     beta= 0.05
     Davidson diagonalization with overlap
     c_bands:  1 eigenvalues not converged
     ethr =  2.41E-08,  avg # of iterations = 11.5

[...]

     total energy              =   -2927.71124017 Ry
     estimated scf accuracy    <       0.00000025 Ry

     iteration # 75     ecut=    29.40 Ry     beta= 0.05
     Davidson diagonalization with overlap
     ethr =  5.26E-11,  avg # of iterations = 11.5

     negative rho (up, down):  1.937E-02 0.000E+00

     Adding external electric field

     Computed dipole along edir(3) :
        Dipole                0.4575 Ry au,          1.1628 Debye
        Dipole field          0.0009 Ry au,

        Potential amp.       -0.0800 Ry
        Total length         46.3494 bohr

     End of self-consistent calculation

          k = 0.0000 0.0000 0.0000 ( 18029 PWs)   bands (ev):

   -56.1410 -56.1255 -56.1052 -56.0893 -56.0431 -56.0092 -55.9692 -55.9447
   -55.8943 -55.8821 -55.8681 -55.8320 -55.7608 -55.7566 -55.0778 -55.0438
   -32.6970 -32.6008 -32.4825 -32.4705 -32.4601 -32.4281 -32.4024 -32.3844
   -32.3734 -32.3538 -32.3483 -32.3448 -32.3312 -32.3069 -32.3032 -32.2824
   -32.2764 -32.2552 -32.2239 -32.2122 -32.2090 -32.1911 -32.1596 -32.1537
   -32.1526 -32.1323 -32.1302 -32.1069 -32.1000 -32.0953 -32.0950 -32.0737
   -32.0736 -32.0402 -32.0171 -32.0166 -31.9805 -31.9771 -31.9672 -31.9556
   -31.9414 -31.8972 -31.4850 -31.3965 -31.3737 -31.3012 -31.2148 -31.1042
   -16.9044 -16.6692 -16.5257 -16.3710 -16.2654 -16.2423 -16.1854 -15.9070
   -15.8400 -15.7775 -15.7597 -15.7388 -15.7286 -15.6643 -15.6632 -15.6292
   -15.5853 -15.5504 -15.5391 -15.5102 -15.5031 -15.4542 -15.4292 -15.3990
   -15.3644 -15.2803 -15.2259 -15.1546 -15.1186 -15.0785 -13.5814 -13.4653
   -11.2959  -5.2646  -4.6314  -4.2498  -4.1335  -4.0496  -3.9984  -3.9315
    -3.7791  -3.7253  -3.5873  -3.3400  -3.3026  -3.2881  -3.2588  -3.2213
    -3.0332  -2.9836  -2.9475  -2.9257  -2.9199  -2.9128  -2.8751  -2.8430
    -2.8355  -2.8327  -2.7168  -2.6449  -2.5574  -2.5469  -2.4773  -2.4383
    -2.4151  -2.4117  -2.3708  -2.3479  -2.3270  -2.3093  -2.2819  -2.1806
    -2.1553  -2.0731  -1.9841  -1.8990  -1.7769  -1.7141  -1.7023  -1.5746
    -1.5151  -1.5127  -1.4791  -1.4574  -1.4178  -1.3402  -1.3027  -1.2549
    -1.1761  -1.1318  -1.0626  -1.0336  -1.0179  -0.9772  -0.9021  -0.8544
    -0.8475  -0.8363  -0.6311  -0.6034  -0.5938  -0.5795  -0.4613  -0.3801
    -0.3628  -0.3327  -0.3160  -0.3035  -0.2497  -0.1591  -0.1302  -0.1183
    -0.0989  -0.0133   0.0569   0.0643   0.0978   0.1858   0.2093   0.3259
     0.3903   0.5662   0.6020   0.7197   0.8630   0.9421   0.9756   1.1361
     1.5223   1.5613   1.5730   3.0558   3.0735   3.1107   3.1314   3.2679
     3.3779   3.3820   3.4800   3.5008   3.5534

[...]

          k = 0.0380-0.0419 0.0000 ( 17876 PWs)   bands (ev):

[...]

          k =-0.0760-0.0000 0.0000 ( 17886 PWs)   bands (ev):

[...]

          k =-0.0760-0.0839 0.0000 ( 17948 PWs)   bands (ev):

   -56.1288 -56.1172 -56.1082 -56.1065 -56.0388 -56.0047 -55.9733 -55.9491
   -55.8921 -55.8792 -55.8570 -55.8434 -55.7628 -55.7589 -55.0610 -55.0604
   -32.5009 -32.4974 -32.4340 -32.4243 -32.4171 -32.4113 -32.4012 -32.3995
   -32.3382 -32.3376 -32.3340 -32.3047 -32.3024 -32.2853 -32.2715 -32.2579
   -32.2500 -32.2484 -32.2355 -32.2334 -32.2209 -32.2095 -32.1949 -32.1849
   -32.1766 -32.1683 -32.1649 -32.1597 -32.1425 -32.1083 -32.0878 -32.0860
   -32.0848 -32.0667 -32.0655 -32.0602 -32.0491 -32.0214 -32.0178 -31.9917
   -31.9495 -31.9469 -31.3868 -31.3860 -31.2982 -31.2975 -31.2584 -31.2576
   -16.5428 -16.3603 -16.3140 -16.0822 -16.0669 -16.0240 -15.9465 -15.8940
   -15.8887 -15.8641 -15.8568 -15.7968 -15.7863 -15.7742 -15.7459 -15.6490
   -15.6474 -15.6356 -15.6169 -15.5554 -15.5399 -15.5051 -15.4744 -15.4654
   -15.4389 -15.4111 -15.3809 -15.3589 -15.2966 -15.2803 -13.5675 -13.5667
   -11.3041  -5.2633  -4.5915  -3.6888  -3.6470  -3.5993  -3.2951  -3.2773
    -3.2484  -3.1337  -3.0658  -3.0398  -3.0069  -2.9781  -2.9423  -2.9310
    -2.9161  -2.9118  -2.9036  -2.9008  -2.8693  -2.8394  -2.8228  -2.7772
    -2.7494  -2.7406  -2.7245  -2.7081  -2.7037  -2.6540  -2.6500  -2.6451
    -2.6365  -2.5207  -2.3865  -2.3694  -2.3315  -2.2123  -2.1889  -2.1831
    -2.1533  -2.1425  -2.1366  -2.0797  -1.9751  -1.8702  -1.8211  -1.8005
    -1.7767  -1.7144  -1.5973  -1.5471  -1.5365  -1.5055  -1.4437  -1.4240
    -1.3721  -1.3667  -1.2614  -1.2347  -1.2111  -1.1369  -1.0755  -1.0578
    -1.0357  -0.9765  -0.9285  -0.9082  -0.9010  -0.8544  -0.7536  -0.7451
    -0.6965  -0.6859  -0.6336  -0.6280  -0.5749  -0.4462  -0.2058  -0.1672
    -0.0951  -0.0722   0.0197   0.0513   0.0787   0.1736   0.2020   0.3033
     0.3437   0.4383   0.4454   0.4609   0.5036   0.6686   1.3068   1.3095
     1.3832   1.3895   1.5640   3.2120   3.2493   3.2742   3.3380   3.5185
     3.5421   3.5430   3.5575   3.5899   3.6529

     the Fermi energy is     3.0140 ev

!    total energy              =   -2927.71126111 Ry
     estimated scf accuracy    <       0.00000007 Ry
     smearing contrib. (-TS)   =      -0.02327334 Ry
     internal energy E=F+TS    =   -2927.68798777 Ry

     The total energy is F=E-TS. E is the sum of the following terms:
     one-electron contribution =  -24560.35623649 Ry
     hartree contribution      =   12363.36151953 Ry
     xc contribution           =    -481.65568702 Ry
     ewald contribution        =    9750.96202124 Ry
     electric field correction =       0.00039497 Ry

     convergence has been achieved in  75 iterations

     Forces acting on atoms (cartesian axes, Ry/au):

     atom    1 type  1   force =     0.00026590    0.00112396    0.11022946
     atom    2 type  1   force =     0.00005686    0.00172891   -0.17429851
     atom    3 type  2   force =     0.00010753    0.00665337   -0.03421380
     atom    4 type  2   force =     0.00001292   -0.00085533    0.05079017
     atom    5 type  2   force =    -0.01743505   -0.00134534    0.00576070
     atom    6 type  2   force =     0.01688624   -0.00101641    0.00538771
     atom    7 type  1   force =     0.00007028    0.00260168   -0.01784888
     atom    8 type  1   force =    -0.00001825    0.00012323    0.00034063
     atom    9 type  2   force =    -0.00001278    0.00009742   -0.00041528
     atom   10 type  2   force =     0.00000156   -0.00051048   -0.00007443
     atom   11 type  2   force =     0.00011487   -0.00025518   -0.00006172
     atom   12 type  2   force =    -0.00011429   -0.00036872   -0.00022018
     atom   13 type  1   force =    -0.00038690   -0.00035057    0.00010399
     atom   14 type  1   force =    -0.00075756    0.00007821   -0.00011273
     atom   15 type  2   force =    -0.00011756   -0.00028169    0.00056164
     atom   16 type  2   force =     0.00011934   -0.00015007   -0.00029878
     atom   17 type  2   force =     0.00017583   -0.00017451    0.00059674
     atom   18 type  2   force =     0.00104891   -0.00051287    0.00049480
     atom   19 type  1   force =    -0.00019922    0.00036963   -0.00001674
     atom   20 type  1   force =     0.00008150   -0.00076127    0.00111800
     atom   21 type  2   force =     0.00009859    0.00006332    0.10315204
     atom   22 type  2   force =     0.00006871    0.00047705   -0.00150004
     atom   23 type  2   force =    -0.07113236    0.00062257   -0.03029870
     atom   24 type  2   force =     0.07109656    0.00104074   -0.03030756
     atom   25 type  1   force =     0.00005409   -0.00110163    0.11737426
     atom   26 type  1   force =     0.00004253   -0.00256132   -0.17414417
     atom   27 type  2   force =     0.00006909   -0.00282078   -0.02992234
     atom   28 type  2   force =     0.00002348   -0.00148293    0.05395102
     atom   29 type  2   force =    -0.01859281    0.00056484    0.00666213
     atom   30 type  2   force =     0.01807191    0.00123756    0.00630301
     atom   31 type  1   force =     0.00039864   -0.00271973   -0.01223984
     atom   32 type  1   force =     0.00000233    0.00038658    0.00071441
     atom   33 type  2   force =     0.00002303   -0.00009209   -0.00047563
     atom   34 type  2   force =     0.00006730    0.00031108    0.00040834
     atom   35 type  2   force =     0.00002402    0.00006689   -0.00029066
     atom   36 type  2   force =     0.00004626    0.00002045   -0.00032738
     atom   37 type  1   force =    -0.00049873   -0.00042818    0.00102159
     atom   38 type  1   force =    -0.00070632    0.00003350   -0.00012996
     atom   39 type  2   force =    -0.00017294   -0.00063430   -0.00051683
     atom   40 type  2   force =     0.00001688   -0.00009729   -0.00060946
     atom   41 type  2   force =    -0.00021750    0.00008774    0.00053475
     atom   42 type  2   force =     0.00088415    0.00040017    0.00005227
     atom   43 type  1   force =     0.00018315   -0.00018759    0.00000957
     atom   44 type  1   force =     0.00070319    0.00057047    0.00061494
     atom   45 type  2   force =     0.00008070    0.00013938    0.10308771
     atom   46 type  2   force =    -0.07142052   -0.00054326   -0.03023542
     atom   47 type  2   force =     0.07138723   -0.00010354   -0.03028326
     atom   48 type  3   force =    -0.00427326    0.00041602    0.00420596
     atom   49 type  4   force =     0.00632545   -0.00017627   -0.00374210
     atom   50 type  4   force =    -0.00152748   -0.00077293   -0.00089507
     atom   51 type  3   force =    -0.00029083    0.00059995   -0.00037124
     atom   52 type  3   force =    -0.00073465    0.00048957    0.00037487

     Total force =     0.376181     Total SCF correction =     0.000845
  @ DRIVER MODE: Message from server: STATUS
  @ DRIVER MODE: Message from server: GETFORCE
  @ DRIVER MODE: Returning v,forces,stress,ensemble

     Writing output data file ./calc.save/
  @ DRIVER MODE: Message from server: EXIT
  @ DRIVE MODE: Exiting

     General routines

     Parallel routines

   This run was terminated on:  10:51:57  12Oct2021

   JOB DONE.