     Program PWSCF v.6.7GPU starts on 24Sep2021 at  5:39:59

     R & G space division:  proc/nbgrp/npool/nimage =       8
     Reading input from /storage/home/hcoda1/3/ntian30/research/carbon/CxH_vib/H2O_calc/ads_slab/CH2NHNH2HO_a/out_0042/pw.inp
Warning: card &CELL ignored
Warning: card   CELL_DYNAMICS='IPI', ignored
Warning: card / ignored

     Current dimensions of program PWSCF are:
     Max number of different atomic species (ntypx) = 10
     Max number of k-points (npk) =  40000
     Max angular momentum in pseudopotentials (lmaxx) =  3
     Presently no symmetry can be used with electric field

     Message from routine cell_base_init:
     DEPRECATED: use true lattice parameter, not A to a.u. conversion factor

     IMPORTANT: XC functional enforced from input :
     Exchange-correlation= BEEF-VDW
                           (   1   4  43  14   2   0   0)
     Any further DFT definition will be discarded
     Please, verify this is what you really want

  @ DRIVER MODE: Connecting to
 qe_1139763_2947313.sched-torque.pace.gatech.edudlls4b1__scratch
  using UNIX socket
  @ DRIVER MODE: Message from server: STATUS
  @ DRIVER MODE: Message from server: INIT
  @ DRIVER MODE: Receiving replica           0          -1
  @ DRIVER MODE: Receiving encoded integer          25
  @ DRIVER MODE:  SCF:  T  FORCE:  T  STRESS:  F  VC:  F  ENSEMBLE:  F
  @ DRIVER MODE:  SCF:  T  FORCE:  T  STRESS:  F  VC:  F  ENSEMBLE:  F

     Using Slab Decomposition

     bravais-lattice index     =            0
     lattice parameter (alat)  =       1.8897  a.u.
     unit-cell volume          =    6658.9804 (a.u.)^3
     number of atoms/cell      =           57
     number of atomic types    =            5
     number of electrons       =       404.00
     number of Kohn-Sham states=          212
     kinetic-energy cutoff     =      29.3995  Ry
     charge density cutoff     =     293.9946  Ry
     scf convergence threshold =      7.3E-08
     mixing beta               =       0.0500
     number of iterations used =            8  plain     mixing
     Exchange-correlation= BEEF-VDW
                           (   1   4  43  14   2   0   0)

     celldm(1)=   1.889726  celldm(2)=   0.000000  celldm(3)=   0.000000
     celldm(4)=   0.000000  celldm(5)=   0.000000  celldm(6)=   0.000000

     crystal axes: (cart. coord. in units of alat)
               a(1) = (   6.579727   0.000000   0.000000 )
               a(2) = (  -0.000775   5.961596   0.000000 )
               a(3) = (   0.000000   0.000000  25.155947 )

     reciprocal axes: (cart. coord. in units 2 pi/alat)
               b(1) = (  0.151982  0.000020  0.000000 )
               b(2) = (  0.000000  0.167740  0.000000 )
               b(3) = (  0.000000  0.000000  0.039752 )

     PseudoPot. # 1 for Ti read from file:
     /storage/coda1/p-amedford6/0/shared/rich_project_chbe-medford/medford-share/data/pseudos_module/espresso/nninc/pbe/van/Ti.UPF
     MD5 check sum: 8e4df49b7f0d34bbd5052bf3f5ea0213
     Pseudo is Ultrasoft, Zval = 12.0
     Generated by new atomic code, or converted to UPF format
     Using radial grid of  851 points,  6 beta functions with:
                l(1) =   0
                l(2) =   0
                l(3) =   1
                l(4) =   1
                l(5) =   2
                l(6) =   2
     Q(r) pseudized with  8 coefficients,  rinner =    1.000   1.000   1.000
                                                       1.000   1.000

     PseudoPot. # 2 for O  read from file:
     /storage/coda1/p-amedford6/0/shared/rich_project_chbe-medford/medford-share/data/pseudos_module/espresso/nninc/pbe/van/O.UPF
     MD5 check sum: 78c19812648e8988a0fe644b0f25305e
     Pseudo is Ultrasoft, Zval =  6.0
     Generated by new atomic code, or converted to UPF format
     Using radial grid of  737 points,  4 beta functions with:
                l(1) =   0
                l(2) =   0
                l(3) =   1
                l(4) =   1
     Q(r) pseudized with  8 coefficients,  rinner =    0.800   0.800   0.800

     PseudoPot. # 3 for N  read from file:
     /storage/coda1/p-amedford6/0/shared/rich_project_chbe-medford/medford-share/data/pseudos_module/espresso/nninc/pbe/van/N.UPF
     MD5 check sum: 90d10febe142ad51ac9d5be1deb811c4
     Pseudo is Ultrasoft, Zval =  5.0
     Generated by new atomic code, or converted to UPF format
     Using radial grid of  729 points,  4 beta functions with:
                l(1) =   0
                l(2) =   0
                l(3) =   1
                l(4) =   1
     Q(r) pseudized with  8 coefficients,  rinner =    0.800   0.800   0.800

     PseudoPot. # 4 for C  read from file:
     /storage/coda1/p-amedford6/0/shared/rich_project_chbe-medford/medford-share/data/pseudos_module/espresso/nninc/pbe/van/C.UPF
     MD5 check sum: 1a69bf6b8db32088f5b2163dbdb77a27
     Pseudo is Ultrasoft, Zval =  4.0
     Generated by new atomic code, or converted to UPF format
     Using radial grid of  721 points,  4 beta functions with:
                l(1) =   0
                l(2) =   0
                l(3) =   1
                l(4) =   1
     Q(r) pseudized with  8 coefficients,  rinner =    0.800   0.800   0.800

     PseudoPot. # 5 for H  read from file:
     /storage/coda1/p-amedford6/0/shared/rich_project_chbe-medford/medford-share/data/pseudos_module/espresso/nninc/pbe/van/H.UPF
     MD5 check sum: b5ee9d7bfd3a09ee7748110bda690ff7
     Pseudo is Ultrasoft, Zval =  1.0
     Generated by new atomic code, or converted to UPF format
     Using radial grid of  615 points,  1 beta functions with:
                l(1) =   0
     Q(r) pseudized with  8 coefficients,  rinner =    0.800

     atomic species   valence    mass     pseudopotential
        Ti1           12.00    47.86700     Ti( 1.00)
        O1             6.00    15.99900     O ( 1.00)
        N1             5.00    14.00700     N ( 1.00)
        C1             4.00    12.01100     C ( 1.00)
        H1             1.00     1.00800     H ( 1.00)

     No symmetry found

   Cartesian axes

     site n.     atom                  positions (alat units)
         1           Ti1 tau(   1) = (   0.0004258   2.9801865   6.0000000  )
         2           Ti1 tau(   2) = (   3.2906075   1.4906267   6.0002472  )
         3           O1  tau(   3) = (   0.0006271   0.0005054   7.9858123  )
         4           O1  tau(   4) = (   3.2906025   0.0005020   7.3038282  )
         5           O1  tau(   5) = (   4.5942328   1.4918067   9.2879030  )
         6           O1  tau(   6) = (   1.9868534   1.4903216   9.2879459  )
         7           Ti1 tau(   7) = (   3.2907910   2.8959150   9.1758416  )
         8           Ti1 tau(   8) = (   0.0015273   1.4827037   9.2680791  )
         9           O1  tau(   9) = (   3.2769995   5.9424463  11.3879711  )
        10           O1  tau(  10) = (   0.0116148   5.9584955  10.6183126  )
        11           O1  tau(  11) = (   1.2559300   1.4809235  12.6914295  )
        12           O1  tau(  12) = (   5.2914439   1.4888754  12.6824943  )
        13           Ti1 tau(  13) = (   6.5693074   2.9549812  12.5071532  )
        14           Ti1 tau(  14) = (   3.2720578   1.2926143  12.7373905  )
        15           O1  tau(  15) = (   6.5263330   5.9075480  14.6758232  )
        16           O1  tau(  16) = (   3.2750150   0.0724425  14.0538047  )
        17           O1  tau(  17) = (   4.5404297   1.6145126  16.1214498  )
        18           O1  tau(  18) = (   1.9612862   1.5681812  16.1371236  )
        19           Ti1 tau(  19) = (   3.2615978   3.0295928  15.7214328  )
        20           Ti1 tau(  20) = (   6.4910920   1.3289874  15.8500745  )
        21           O1  tau(  21) = (   3.2904802   0.0005063   4.7018136  )
        22           O1  tau(  22) = (   6.5149858   0.1606772  17.2625446  )
        23           O1  tau(  23) = (   1.3043587   1.4918075   6.0039043  )
        24           O1  tau(  24) = (   5.2767064   1.4903225   6.0039473  )
        25           Ti1 tau(  25) = (   0.0000382   5.9609847   6.0000000  )
        26           Ti1 tau(  26) = (   3.2902200   4.4714249   6.0002472  )
        27           O1  tau(  27) = (   0.0002396   2.9813036   7.9858123  )
        28           O1  tau(  28) = (   3.2902150   2.9813002   7.3038282  )
        29           O1  tau(  29) = (   4.5938453   4.4726049   9.2879030  )
        30           O1  tau(  30) = (   1.9864658   4.4711199   9.2879459  )
        31           Ti1 tau(  31) = (   3.2891106   5.8743827   9.1763621  )
        32           Ti1 tau(  32) = (   0.0006254   4.4649316   9.2693709  )
        33           O1  tau(  33) = (   3.2749377   2.9871965  11.3337082  )
        34           O1  tau(  34) = (   0.0092240   2.9805883  10.6323155  )
        35           O1  tau(  35) = (   1.2597673   4.4587344  12.6634223  )
        36           O1  tau(  36) = (   5.2866262   4.4511231  12.6493885  )
        37           Ti1 tau(  37) = (   6.5604603   5.9292220  12.4937940  )
        38           Ti1 tau(  38) = (   3.2724722   4.3622713  12.4512132  )
        39           O1  tau(  39) = (   6.5737517   3.0258615  14.9025115  )
        40           O1  tau(  40) = (   3.2593133   3.0063273  13.9441864  )
        41           O1  tau(  41) = (   4.5441350   4.4310557  16.1689449  )
        42           O1  tau(  42) = (   1.9655774   4.4762250  16.2070539  )
        43           Ti1 tau(  43) = (   3.1776431   0.0563557  16.2565842  )
        44           Ti1 tau(  44) = (   6.5216753   4.5226504  15.9439936  )
        45           O1  tau(  45) = (   3.2900926   2.9813045   4.7018136  )
        46           O1  tau(  46) = (   1.3039711   4.4726057   6.0039043  )
        47           O1  tau(  47) = (   5.2763189   4.4711207   6.0039473  )
        48           N1  tau(  48) = (   0.8157702   2.5297039  18.7633901  )
        49           N1  tau(  49) = (   6.4302604   3.3580032  18.1334362  )
        50           C1  tau(  50) = (   1.9549655   3.0231469  19.2293773  )
        51           H1  tau(  51) = (   2.0901252   4.0892486  19.3254668  )
        52           H1  tau(  52) = (   2.7239663   2.3052050  19.4587972  )
        53           H1  tau(  53) = (   0.7490178   1.5515861  18.4517582  )
        54           H1  tau(  54) = (   6.4535031   4.2829477  18.5796568  )
        55           H1  tau(  55) = (   5.5068980   2.9516776  18.2836589  )
        56           O1  tau(  56) = (   3.3967406   0.0908776  18.1493316  )
        57           H1  tau(  57) = (   4.3453859   0.1513423  18.3540861  )

     number of k points=    10  Fermi-Dirac smearing, width (Ry)=  0.0073
                       cart. coord. in units 2pi/alat
        k(    1) = (   0.0000000   0.0000000   0.0000000), wk =   0.1250000
        k(    2) = (   0.0000000   0.0419351   0.0000000), wk =   0.2500000
        k(    3) = (   0.0000000  -0.0838702   0.0000000), wk =   0.1250000
        k(    4) = (   0.0379955   0.0000049   0.0000000), wk =   0.2500000
        k(    5) = (   0.0379955   0.0419400   0.0000000), wk =   0.2500000
        k(    6) = (   0.0379955  -0.0838652   0.0000000), wk =   0.2500000
        k(    7) = (   0.0379955  -0.0419301   0.0000000), wk =   0.2500000
        k(    8) = (  -0.0759910  -0.0000099   0.0000000), wk =   0.1250000
        k(    9) = (  -0.0759910   0.0419252   0.0000000), wk =   0.2500000
        k(   10) = (  -0.0759910  -0.0838800   0.0000000), wk =   0.1250000

     Initial potential from superposition of free atoms

     starting charge  387.99913, renormalised to  404.00000

     negative rho (up, down):  1.608E-02 0.000E+00

     %%%%%%%%%%%%%%%%%%%%%%%%%%%%%%%%%%%%%%%%%%%%%%%%%%%%%%%%%%%%%%%%%%%%%%%%
     %                                                                      %
     % You are using vdW-DF, which was implemented by the Thonhauser group. %
     % Please cite the following two papers that made this development      %
     % possible and the two reviews that describe the various versions:     %
     %                                                                      %
     %   T. Thonhauser et al., PRL 115, 136402 (2015).                      %
     %   T. Thonhauser et al., PRB 76, 125112 (2007).                       %
     %   K. Berland et al., Rep. Prog. Phys. 78, 066501 (2015).             %
     %   D.C. Langreth et al., J. Phys.: Condens. Matter 21, 084203 (2009). %
     %                                                                      %
     %                                                                      %
     % If you are calculating the stress with vdW-DF, please also cite:     %
     %                                                                      %
     %   R. Sabatini et al., J. Phys.: Condens. Matter 24, 424209 (2012).   %
     %                                                                      %
     %%%%%%%%%%%%%%%%%%%%%%%%%%%%%%%%%%%%%%%%%%%%%%%%%%%%%%%%%%%%%%%%%%%%%%%%

     Adding external electric field

     Computed dipole along edir(3) :
        Dipole              -13.8436 Ry au,        -35.1870 Debye
        Dipole field         -0.0261 Ry au,

        Potential amp.        2.4217 Ry
        Total length         46.3494 bohr

     Starting wfcs are  306 atomic wfcs
  @ DRIVER MODE: Message from server: STATUS
  @ DRIVER MODE: Message from server: POSDATA
  @ DRIVER MODE: Reading and sharing cell
  @ DRIVER MODE: Reading and sharing positions
  @ DRIVER MODE: Received positions

     Self-consistent Calculation

     iteration #  1     ecut=    29.40 Ry     beta= 0.05
     Davidson diagonalization with overlap
     c_bands:  1 eigenvalues not converged
     c_bands:  2 eigenvalues not converged
     c_bands:  1 eigenvalues not converged
     c_bands:  1 eigenvalues not converged
     c_bands:  1 eigenvalues not converged
     c_bands:  2 eigenvalues not converged
     c_bands:  5 eigenvalues not converged
     c_bands:  3 eigenvalues not converged
     ethr =  1.00E-05,  avg # of iterations = 32.8

[...]

     total energy              =   -2231.90942959 Ry
     estimated scf accuracy    <    8426.18045297 Ry

     iteration #  2     ecut=    29.40 Ry     beta= 0.05
     Davidson diagonalization with overlap
     ethr =  1.00E-02,  avg # of iterations = 27.8

[...]

     iteration # 74     ecut=    29.40 Ry     beta= 0.05
     Davidson diagonalization with overlap
     c_bands:  1 eigenvalues not converged
     ethr =  2.96E-11,  avg # of iterations = 16.3

[...]

     total energy              =   -2975.15008909 Ry
     estimated scf accuracy    <       0.00000020 Ry

     iteration # 75     ecut=    29.40 Ry     beta= 0.05
     Davidson diagonalization with overlap
     ethr =  2.96E-11,  avg # of iterations = 11.7

     negative rho (up, down):  1.523E-02 0.000E+00

     Adding external electric field

     Computed dipole along edir(3) :
        Dipole                1.1816 Ry au,          3.0032 Debye
        Dipole field          0.0022 Ry au,

        Potential amp.       -0.2067 Ry
        Total length         46.3494 bohr

     End of self-consistent calculation

          k = 0.0000 0.0000 0.0000 ( 18029 PWs)   bands (ev):

   -55.4169 -55.3345 -55.3004 -55.2297 -55.1916 -55.1804 -55.1659 -55.1649
   -55.1498 -55.1303 -55.1019 -55.0307 -55.0220 -54.9963 -54.3287 -54.2946
   -31.8224 -31.7717 -31.7435 -31.7155 -31.6690 -31.6686 -31.6334 -31.6243
   -31.6207 -31.6085 -31.5799 -31.5419 -31.5044 -31.4874 -31.4715 -31.4640
   -31.4464 -31.4441 -31.4429 -31.4085 -31.3920 -31.3806 -31.3745 -31.3714
   -31.3666 -31.3604 -31.3571 -31.3352 -31.3296 -31.3264 -31.3261 -31.3027
   -31.2946 -31.2908 -31.2788 -31.2545 -31.2357 -31.2327 -31.2104 -31.2002
   -31.1962 -31.1936 -30.7357 -30.6467 -30.6244 -30.5530 -30.4665 -30.3548
   -19.3705 -16.2694 -16.0496 -15.8839 -15.6686 -15.6223 -15.5322 -15.3700
   -15.2578 -15.1876 -15.0780 -15.0026 -14.9286 -14.8945 -14.8854 -14.8718
   -14.8665 -14.8155 -14.8066 -14.7927 -14.7822 -14.7720 -14.7603 -14.7310
   -14.6969 -14.6484 -14.6036 -14.4934 -14.4549 -14.4184 -14.2933 -14.2750
   -12.8278 -12.7110 -10.1777  -7.8197  -6.5424  -5.3762  -4.1946  -3.8056
    -3.6625  -3.3925  -3.2840  -3.2524  -3.1887  -3.1574  -2.9029  -2.8034
    -2.7845  -2.6483  -2.5296  -2.4829  -2.4223  -2.3519  -2.3204  -2.2973
    -2.2721  -2.2155  -2.1520  -2.1382  -2.1243  -2.0481  -2.0435  -1.9681
    -1.9200  -1.9074  -1.8023  -1.7296  -1.6986  -1.6855  -1.6738  -1.6573
    -1.6324  -1.6255  -1.6017  -1.5396  -1.4738  -1.4648  -1.3995  -1.3733
    -1.1021  -1.0367  -0.9719  -0.9423  -0.8655  -0.8270  -0.8097  -0.7860
    -0.7429  -0.7396  -0.7191  -0.6577  -0.5596  -0.5046  -0.4735  -0.4550
    -0.4025  -0.2886  -0.2683  -0.1579  -0.1285  -0.1215  -0.0830  -0.0343
     0.0067   0.0459   0.1083   0.1780   0.2285   0.2790   0.3114   0.3372
     0.3777   0.4135   0.4731   0.5506   0.5745   0.6190   0.6491   0.6693
     0.6788   0.7356   0.7526   0.8403   0.9213   0.9328   1.0315   1.0626
     1.1132   1.2974   1.3344   1.6333   1.6798   1.6976   1.8861   2.2673
     2.3137   3.7325   3.8573   3.8871   3.8973   3.9360   3.9695   4.0250
     4.2200   4.2312   4.3430   4.4596

[...]

          k = 0.0380-0.0419 0.0000 ( 17876 PWs)   bands (ev):

[...]

          k =-0.0760-0.0000 0.0000 ( 17886 PWs)   bands (ev):

[...]

          k =-0.0760-0.0839 0.0000 ( 17948 PWs)   bands (ev):

   -55.4161 -55.3176 -55.3172 -55.2184 -55.2027 -55.1780 -55.1668 -55.1473
   -55.1470 -55.1435 -55.1087 -55.0241 -55.0194 -55.0075 -54.3120 -54.3111
   -31.6840 -31.6747 -31.6563 -31.6378 -31.6375 -31.6214 -31.6099 -31.6095
   -31.5685 -31.5373 -31.5216 -31.4966 -31.4873 -31.4790 -31.4674 -31.4546
   -31.4530 -31.4475 -31.4445 -31.4374 -31.4370 -31.4270 -31.4116 -31.4032
   -31.3995 -31.3819 -31.3681 -31.3676 -31.3614 -31.3590 -31.3539 -31.3439
   -31.3295 -31.3255 -31.3242 -31.3206 -31.2853 -31.2850 -31.2464 -31.2391
   -31.2145 -31.2060 -30.6375 -30.6368 -30.5490 -30.5478 -30.5101 -30.5094
   -19.3660 -16.2402 -15.7539 -15.4858 -15.3608 -15.3489 -15.2275 -15.2109
   -15.1483 -15.1401 -15.1107 -15.0981 -15.0873 -15.0425 -15.0135 -14.9310
   -14.9153 -14.8746 -14.8711 -14.8253 -14.8231 -14.8214 -14.7997 -14.7781
   -14.7721 -14.7471 -14.7136 -14.6841 -14.6707 -14.5335 -14.4368 -14.3983
   -12.8130 -12.8124 -10.1491  -7.7859  -6.5348  -5.4590  -4.1532  -3.8239
    -3.6225  -2.8414  -2.6986  -2.5973  -2.4871  -2.4550  -2.4065  -2.3573
    -2.3438  -2.3122  -2.2400  -2.2120  -2.1969  -2.1609  -2.1594  -2.1365
    -2.1267  -2.1071  -2.0785  -2.0589  -2.0491  -2.0425  -2.0156  -1.9998
    -1.9858  -1.9603  -1.9326  -1.9117  -1.8983  -1.8905  -1.8397  -1.7343
    -1.6460  -1.5671  -1.5308  -1.5051  -1.4923  -1.4462  -1.4328  -1.4208
    -1.3857  -1.3622  -1.2272  -1.2054  -1.0676  -1.0126  -0.9786  -0.9320
    -0.8788  -0.8698  -0.8529  -0.8131  -0.7736  -0.6406  -0.6099  -0.5752
    -0.5088  -0.4443  -0.3572  -0.3430  -0.3188  -0.3016  -0.2659  -0.2466
    -0.2325  -0.2025  -0.1730  -0.0948  -0.0610  -0.0489  -0.0299   0.0690
     0.1685   0.2083   0.2725   0.3420   0.3832   0.4082   0.4372   0.6221
     0.6515   0.7949   0.8035   0.8080   0.9533   0.9537   1.0023   1.0518
     1.0809   1.1230   1.1520   1.1667   1.2017   2.0563   2.0647   2.1339
     2.1341   3.7688   3.9349   4.1582   4.1805   4.2387   4.2503   4.2809
     4.3067   4.3358   4.3771   4.3959

     the Fermi energy is     3.7824 ev

!    total energy              =   -2975.15010619 Ry
     estimated scf accuracy    <       0.00000003 Ry
     smearing contrib. (-TS)   =      -0.03327426 Ry
     internal energy E=F+TS    =   -2975.11683193 Ry

     The total energy is F=E-TS. E is the sum of the following terms:
     one-electron contribution =  -23379.25971028 Ry
     hartree contribution      =   11786.88352784 Ry
     xc contribution           =    -494.89942611 Ry
     ewald contribution        =    9112.15614203 Ry
     electric field correction =       0.00263458 Ry

     convergence has been achieved in  75 iterations

     Forces acting on atoms (cartesian axes, Ry/au):

     atom    1 type  1   force =     0.00028740   -0.00019849    0.09348090
     atom    2 type  1   force =    -0.00005606    0.00053417   -0.17632108
     atom    3 type  2   force =     0.00004277   -0.00029770   -0.02070539
     atom    4 type  2   force =     0.00001669   -0.00222309    0.05686012
     atom    5 type  2   force =    -0.00785831   -0.00263345    0.00513100
     atom    6 type  2   force =     0.00892279   -0.00211668    0.00324972
     atom    7 type  1   force =    -0.00077977   -0.00333557    0.00575162
     atom    8 type  1   force =     0.00086266    0.00107786   -0.00173834
     atom    9 type  2   force =    -0.00018684    0.00014991    0.00005428
     atom   10 type  2   force =    -0.00342035    0.00105624   -0.00644044
     atom   11 type  2   force =     0.00018669   -0.00013641    0.00030832
     atom   12 type  2   force =    -0.00012063   -0.00023203    0.00003446
     atom   13 type  1   force =     0.00000889   -0.00005660   -0.00020594
     atom   14 type  1   force =     0.00052832   -0.00036971   -0.00024737
     atom   15 type  2   force =    -0.00002330   -0.00102354   -0.00046229
     atom   16 type  2   force =     0.00021208    0.00063855    0.00084064
     atom   17 type  2   force =    -0.00129606    0.00036660   -0.00039975
     atom   18 type  2   force =     0.00137641   -0.00000660   -0.00072186
     atom   19 type  1   force =     0.00006029    0.00063042    0.00000700
     atom   20 type  1   force =     0.00054039    0.00002165   -0.00049778
     atom   21 type  2   force =     0.00011561    0.00004993    0.10357552
     atom   22 type  2   force =     0.00008974    0.00031237    0.00044949
     atom   23 type  2   force =    -0.07135815   -0.00017577   -0.02699856
     atom   24 type  2   force =     0.07135184    0.00027290   -0.02702977
     atom   25 type  1   force =     0.00007245   -0.00017201    0.09323974
     atom   26 type  1   force =     0.00008276   -0.00126473   -0.17653099
     atom   27 type  2   force =     0.00007668   -0.00014854   -0.01947157
     atom   28 type  2   force =     0.00001841   -0.00060091    0.05222196
     atom   29 type  2   force =    -0.00742556    0.00176801    0.00489061
     atom   30 type  2   force =     0.00835321    0.00235321    0.00299253
     atom   31 type  1   force =    -0.00098045    0.00886678   -0.00437353
     atom   32 type  1   force =     0.00094442   -0.00222541   -0.00240495
     atom   33 type  2   force =    -0.00022432   -0.00135001   -0.00064512
     atom   34 type  2   force =    -0.00214523   -0.00210280   -0.00764449
     atom   35 type  2   force =    -0.00002458    0.00016622    0.00026635
     atom   36 type  2   force =     0.00018432    0.00016112    0.00020403
     atom   37 type  1   force =     0.00003592   -0.00029838    0.00015328
     atom   38 type  1   force =     0.00035256    0.00046381    0.00018605
     atom   39 type  2   force =    -0.00000765    0.00076526   -0.00017262
     atom   40 type  2   force =     0.00021304   -0.00017051    0.00040064
     atom   41 type  2   force =    -0.00050648   -0.00013440    0.00014708
     atom   42 type  2   force =     0.00089315   -0.00022939    0.00000242
     atom   43 type  1   force =     0.00036662   -0.00068935   -0.00006049
     atom   44 type  1   force =     0.00005449    0.00100763    0.00079357
     atom   45 type  2   force =     0.00009993   -0.00009044    0.10333678
     atom   46 type  2   force =    -0.07139791   -0.00003066   -0.02703455
     atom   47 type  2   force =     0.07137225    0.00038591   -0.02706628
     atom   48 type  3   force =    -0.00079286   -0.00116966   -0.00031649
     atom   49 type  3   force =     0.00107899    0.00718969    0.00412984
     atom   50 type  4   force =     0.00046606    0.00039914    0.00002800
     atom   51 type  5   force =     0.00053648   -0.00091442   -0.00051205
     atom   52 type  5   force =    -0.00009416    0.00011299   -0.00008746
     atom   53 type  5   force =    -0.00005308    0.00044656    0.00007733
     atom   54 type  5   force =    -0.00086984   -0.00506122   -0.00421810
     atom   55 type  5   force =    -0.00011971    0.00003604    0.00051781
     atom   56 type  2   force =     0.00078640    0.00090716   -0.00023428
     atom   57 type  5   force =    -0.00084937   -0.00068168   -0.00078951

     Total force =     0.363236     Total SCF correction =     0.000545
  @ DRIVER MODE: Message from server: STATUS
  @ DRIVER MODE: Message from server: GETFORCE
  @ DRIVER MODE: Returning v,forces,stress,ensemble

     Writing output data file ./calc.save/
  @ DRIVER MODE: Message from server: EXIT
  @ DRIVE MODE: Exiting

     General routines

     Parallel routines

   This run was terminated on:   6: 5:57  24Sep2021

   JOB DONE.