     Program PWSCF v.6.7GPU starts on 22Sep2021 at  3: 2: 1

     R & G space division:  proc/nbgrp/npool/nimage =      10
     Reading input from /storage/home/hcoda1/3/ntian30/research/carbon/CxH_vib/CH_calc/ads_slab/CHNHNH2H2O_b/out_0014/pw.inp
Warning: card &CELL ignored
Warning: card   CELL_DYNAMICS='IPI', ignored
Warning: card / ignored

     Current dimensions of program PWSCF are:
     Max number of different atomic species (ntypx) = 10
     Max number of k-points (npk) =  40000
     Max angular momentum in pseudopotentials (lmaxx) =  3
     Presently no symmetry can be used with electric field

     Message from routine cell_base_init:
     DEPRECATED: use true lattice parameter, not A to a.u. conversion factor

     IMPORTANT: XC functional enforced from input :
     Exchange-correlation= BEEF-VDW
                           (   1   4  43  14   2   0   0)
     Any further DFT definition will be discarded
     Please, verify this is what you really want

  @ DRIVER MODE: Connecting to
 qe_1139763_2927425.sched-torque.pace.gatech.edu5tele0ci_scratch
  using UNIX socket
  @ DRIVER MODE: Message from server: STATUS
  @ DRIVER MODE: Message from server: INIT
  @ DRIVER MODE: Receiving replica           0          -1
  @ DRIVER MODE: Receiving encoded integer          25
  @ DRIVER MODE:  SCF:  T  FORCE:  T  STRESS:  F  VC:  F  ENSEMBLE:  F
  @ DRIVER MODE:  SCF:  T  FORCE:  T  STRESS:  F  VC:  F  ENSEMBLE:  F

     Using Slab Decomposition

     bravais-lattice index     =            0
     lattice parameter (alat)  =       1.8897  a.u.
     unit-cell volume          =    6658.9804 (a.u.)^3
     number of atoms/cell      =           57
     number of atomic types    =            5
     number of electrons       =       404.00
     number of Kohn-Sham states=          212
     kinetic-energy cutoff     =      29.3995  Ry
     charge density cutoff     =     293.9946  Ry
     scf convergence threshold =      7.3E-08
     mixing beta               =       0.0500
     number of iterations used =            8  plain     mixing
     Exchange-correlation= BEEF-VDW
                           (   1   4  43  14   2   0   0)

     celldm(1)=   1.889726  celldm(2)=   0.000000  celldm(3)=   0.000000
     celldm(4)=   0.000000  celldm(5)=   0.000000  celldm(6)=   0.000000

     crystal axes: (cart. coord. in units of alat)
               a(1) = (   6.579727   0.000000   0.000000 )
               a(2) = (  -0.000775   5.961596   0.000000 )
               a(3) = (   0.000000   0.000000  25.155947 )

     reciprocal axes: (cart. coord. in units 2 pi/alat)
               b(1) = (  0.151982  0.000020  0.000000 )
               b(2) = (  0.000000  0.167740  0.000000 )
               b(3) = (  0.000000  0.000000  0.039752 )

     PseudoPot. # 1 for Ti read from file:
     /storage/coda1/p-amedford6/0/shared/rich_project_chbe-medford/medford-share/data/pseudos_module/espresso/nninc/pbe/van/Ti.UPF
     MD5 check sum: 8e4df49b7f0d34bbd5052bf3f5ea0213
     Pseudo is Ultrasoft, Zval = 12.0
     Generated by new atomic code, or converted to UPF format
     Using radial grid of  851 points,  6 beta functions with:
                l(1) =   0
                l(2) =   0
                l(3) =   1
                l(4) =   1
                l(5) =   2
                l(6) =   2
     Q(r) pseudized with  8 coefficients,  rinner =    1.000   1.000   1.000
                                                       1.000   1.000

     PseudoPot. # 2 for O  read from file:
     /storage/coda1/p-amedford6/0/shared/rich_project_chbe-medford/medford-share/data/pseudos_module/espresso/nninc/pbe/van/O.UPF
     MD5 check sum: 78c19812648e8988a0fe644b0f25305e
     Pseudo is Ultrasoft, Zval =  6.0
     Generated by new atomic code, or converted to UPF format
     Using radial grid of  737 points,  4 beta functions with:
                l(1) =   0
                l(2) =   0
                l(3) =   1
                l(4) =   1
     Q(r) pseudized with  8 coefficients,  rinner =    0.800   0.800   0.800

     PseudoPot. # 3 for N  read from file:
     /storage/coda1/p-amedford6/0/shared/rich_project_chbe-medford/medford-share/data/pseudos_module/espresso/nninc/pbe/van/N.UPF
     MD5 check sum: 90d10febe142ad51ac9d5be1deb811c4
     Pseudo is Ultrasoft, Zval =  5.0
     Generated by new atomic code, or converted to UPF format
     Using radial grid of  729 points,  4 beta functions with:
                l(1) =   0
                l(2) =   0
                l(3) =   1
                l(4) =   1
     Q(r) pseudized with  8 coefficients,  rinner =    0.800   0.800   0.800

     PseudoPot. # 4 for C  read from file:
     /storage/coda1/p-amedford6/0/shared/rich_project_chbe-medford/medford-share/data/pseudos_module/espresso/nninc/pbe/van/C.UPF
     MD5 check sum: 1a69bf6b8db32088f5b2163dbdb77a27
     Pseudo is Ultrasoft, Zval =  4.0
     Generated by new atomic code, or converted to UPF format
     Using radial grid of  721 points,  4 beta functions with:
                l(1) =   0
                l(2) =   0
                l(3) =   1
                l(4) =   1
     Q(r) pseudized with  8 coefficients,  rinner =    0.800   0.800   0.800

     PseudoPot. # 5 for H  read from file:
     /storage/coda1/p-amedford6/0/shared/rich_project_chbe-medford/medford-share/data/pseudos_module/espresso/nninc/pbe/van/H.UPF
     MD5 check sum: b5ee9d7bfd3a09ee7748110bda690ff7
     Pseudo is Ultrasoft, Zval =  1.0
     Generated by new atomic code, or converted to UPF format
     Using radial grid of  615 points,  1 beta functions with:
                l(1) =   0
     Q(r) pseudized with  8 coefficients,  rinner =    0.800

     atomic species   valence    mass     pseudopotential
        Ti1           12.00    47.86700     Ti( 1.00)
        O1             6.00    15.99900     O ( 1.00)
        N1             5.00    14.00700     N ( 1.00)
        C1             4.00    12.01100     C ( 1.00)
        H1             1.00     1.00800     H ( 1.00)

     No symmetry found

   Cartesian axes

     site n.     atom                  positions (alat units)
         1           Ti1 tau(   1) = (   0.0004258   2.9801865   6.0000000  )
         2           Ti1 tau(   2) = (   3.2906075   1.4906267   6.0002472  )
         3           O1  tau(   3) = (   0.0006271   0.0005054   7.9858123  )
         4           O1  tau(   4) = (   3.2906025   0.0005020   7.3038282  )
         5           O1  tau(   5) = (   4.5942328   1.4918067   9.2879030  )
         6           O1  tau(   6) = (   1.9868534   1.4903216   9.2879459  )
         7           Ti1 tau(   7) = (   3.2907910   2.8959150   9.1758416  )
         8           Ti1 tau(   8) = (   0.0015273   1.4827037   9.2680791  )
         9           O1  tau(   9) = (   3.3066417   5.9496923  11.3845403  )
        10           O1  tau(  10) = (   0.0116148   5.9584955  10.6183126  )
        11           O1  tau(  11) = (   1.3010148   1.4986442  12.6442229  )
        12           O1  tau(  12) = (   5.3085967   1.5001388  12.6592367  )
        13           Ti1 tau(  13) = (   0.0282779   2.9853959  12.5065338  )
        14           Ti1 tau(  14) = (   3.3279724   1.4707331  12.5413945  )
        15           O1  tau(  15) = (   0.0378505   0.0859181  14.6860672  )
        16           O1  tau(  16) = (   3.3018867   0.0259462  14.0338077  )
        17           O1  tau(  17) = (   4.5998927   1.5484098  16.1661054  )
        18           O1  tau(  18) = (   2.0454451   1.5021798  16.2221046  )
        19           Ti1 tau(  19) = (   3.3206312   2.9825829  15.7321521  )
        20           Ti1 tau(  20) = (   0.0140791   1.4435866  15.9983415  )
        21           O1  tau(  21) = (   3.2904802   0.0005063   4.7018136  )
        22           O1  tau(  22) = (   6.5273045   5.8164216  17.2577718  )
        23           O1  tau(  23) = (   1.3043587   1.4918075   6.0039043  )
        24           O1  tau(  24) = (   5.2767064   1.4903225   6.0039473  )
        25           Ti1 tau(  25) = (   0.0000382   5.9609847   6.0000000  )
        26           Ti1 tau(  26) = (   3.2902200   4.4714249   6.0002472  )
        27           O1  tau(  27) = (   0.0002396   2.9813036   7.9858123  )
        28           O1  tau(  28) = (   3.2902150   2.9813002   7.3038282  )
        29           O1  tau(  29) = (   4.5938453   4.4726049   9.2879030  )
        30           O1  tau(  30) = (   1.9864658   4.4711199   9.2879459  )
        31           Ti1 tau(  31) = (   3.2891106   5.8743827   9.1763621  )
        32           Ti1 tau(  32) = (   0.0006254   4.4649316   9.2693709  )
        33           O1  tau(  33) = (   3.3068470   2.9864458  11.3814114  )
        34           O1  tau(  34) = (   0.0092240   2.9805883  10.6323155  )
        35           O1  tau(  35) = (   1.2982948   4.4740332  12.6840172  )
        36           O1  tau(  36) = (   5.3097620   4.4704985  12.6972095  )
        37           Ti1 tau(  37) = (   0.0348817   0.0130325  12.4954113  )
        38           Ti1 tau(  38) = (   3.3270268   4.4633798  12.5435021  )
        39           O1  tau(  39) = (   0.0563025   2.9439880  14.9425960  )
        40           O1  tau(  40) = (   3.2900316   2.9661073  13.9503945  )
        41           O1  tau(  41) = (   4.5967999   4.4093095  16.0633277  )
        42           O1  tau(  42) = (   2.0412097   4.4536800  16.1303113  )
        43           Ti1 tau(  43) = (   3.2964201   5.9600488  15.8742613  )
        44           Ti1 tau(  44) = (   0.0241369   4.6516137  15.8518307  )
        45           O1  tau(  45) = (   3.2900926   2.9813045   4.7018136  )
        46           O1  tau(  46) = (   1.3039711   4.4726057   6.0039043  )
        47           O1  tau(  47) = (   5.2763189   4.4711207   6.0039473  )
        48           N1  tau(  48) = (   1.4509408   2.7109095  18.7602185  )
        49           N1  tau(  49) = (   0.0917387   2.5303350  18.2207845  )
        50           C1  tau(  50) = (   1.9603960   3.7723240  19.2784661  )
        51           H1  tau(  51) = (   1.1612915   4.5273475  19.4152495  )
        52           H1  tau(  52) = (   2.0208952   1.9183395  18.4664618  )
        53           H1  tau(  53) = (   6.1377449   3.3539424  18.4987646  )
        54           H1  tau(  54) = (   6.2616785   1.7135167  18.6767212  )
        55           O1  tau(  55) = (   3.7012217   5.9496235  18.2853534  )
        56           H1  tau(  56) = (   4.6684668   5.8470116  18.1670174  )
        57           H1  tau(  57) = (   3.3852657   5.1278045  18.7338684  )

     number of k points=    10  Fermi-Dirac smearing, width (Ry)=  0.0073
                       cart. coord. in units 2pi/alat
        k(    1) = (   0.0000000   0.0000000   0.0000000), wk =   0.1250000
        k(    2) = (   0.0000000   0.0419351   0.0000000), wk =   0.2500000
        k(    3) = (   0.0000000  -0.0838702   0.0000000), wk =   0.1250000
        k(    4) = (   0.0379955   0.0000049   0.0000000), wk =   0.2500000
        k(    5) = (   0.0379955   0.0419400   0.0000000), wk =   0.2500000
        k(    6) = (   0.0379955  -0.0838652   0.0000000), wk =   0.2500000
        k(    7) = (   0.0379955  -0.0419301   0.0000000), wk =   0.2500000
        k(    8) = (  -0.0759910  -0.0000099   0.0000000), wk =   0.1250000
        k(    9) = (  -0.0759910   0.0419252   0.0000000), wk =   0.2500000
        k(   10) = (  -0.0759910  -0.0838800   0.0000000), wk =   0.1250000

     Initial potential from superposition of free atoms

     starting charge  387.99913, renormalised to  404.00000

     negative rho (up, down):  1.598E-02 0.000E+00

     %%%%%%%%%%%%%%%%%%%%%%%%%%%%%%%%%%%%%%%%%%%%%%%%%%%%%%%%%%%%%%%%%%%%%%%%
     %                                                                      %
     % You are using vdW-DF, which was implemented by the Thonhauser group. %
     % Please cite the following two papers that made this development      %
     % possible and the two reviews that describe the various versions:     %
     %                                                                      %
     %   T. Thonhauser et al., PRL 115, 136402 (2015).                      %
     %   T. Thonhauser et al., PRB 76, 125112 (2007).                       %
     %   K. Berland et al., Rep. Prog. Phys. 78, 066501 (2015).             %
     %   D.C. Langreth et al., J. Phys.: Condens. Matter 21, 084203 (2009). %
     %                                                                      %
     %                                                                      %
     % If you are calculating the stress with vdW-DF, please also cite:     %
     %                                                                      %
     %   R. Sabatini et al., J. Phys.: Condens. Matter 24, 424209 (2012).   %
     %                                                                      %
     %%%%%%%%%%%%%%%%%%%%%%%%%%%%%%%%%%%%%%%%%%%%%%%%%%%%%%%%%%%%%%%%%%%%%%%%

     Adding external electric field

     Computed dipole along edir(3) :
        Dipole              -14.3585 Ry au,        -36.4957 Debye
        Dipole field         -0.0271 Ry au,

        Potential amp.        2.5118 Ry
        Total length         46.3494 bohr

     Starting wfcs are  306 atomic wfcs
  @ DRIVER MODE: Message from server: STATUS
  @ DRIVER MODE: Message from server: POSDATA
  @ DRIVER MODE: Reading and sharing cell
  @ DRIVER MODE: Reading and sharing positions
  @ DRIVER MODE: Received positions

     Self-consistent Calculation

     iteration #  1     ecut=    29.40 Ry     beta= 0.05
     Davidson diagonalization with overlap
     c_bands:  3 eigenvalues not converged
     c_bands:  4 eigenvalues not converged
     c_bands:  4 eigenvalues not converged
     c_bands:  4 eigenvalues not converged
     c_bands:  5 eigenvalues not converged
     c_bands:  3 eigenvalues not converged
     c_bands:  2 eigenvalues not converged
     c_bands:  4 eigenvalues not converged
     ethr =  1.00E-05,  avg # of iterations = 21.9

[...]

     total energy              =   -2220.97385357 Ry
     estimated scf accuracy    <    8587.31785476 Ry

     iteration #  2     ecut=    29.40 Ry     beta= 0.05
     Davidson diagonalization with overlap
     ethr =  1.00E-02,  avg # of iterations = 27.5

[...]

     iteration # 78     ecut=    29.40 Ry     beta= 0.05
     Davidson diagonalization with overlap
     c_bands:  1 eigenvalues not converged
     ethr =  1.32E-10,  avg # of iterations = 16.0

[...]

     total energy              =   -2975.10518938 Ry
     estimated scf accuracy    <       0.00000049 Ry

     iteration # 80     ecut=    29.40 Ry     beta= 0.05
     Davidson diagonalization with overlap
     ethr =  1.21E-10,  avg # of iterations =  8.9

     negative rho (up, down):  1.579E-02 0.000E+00

     Adding external electric field

     Computed dipole along edir(3) :
        Dipole                1.0241 Ry au,          2.6030 Debye
        Dipole field          0.0019 Ry au,

        Potential amp.       -0.1791 Ry
        Total length         46.3494 bohr

     End of self-consistent calculation

          k = 0.0000 0.0000 0.0000 ( 18029 PWs)   bands (ev):

   -55.3858 -55.3500 -55.3459 -55.3118 -55.3087 -55.3030 -55.2678 -55.2325
   -55.2173 -55.1825 -55.1756 -55.1604 -55.1419 -55.1127 -54.3773 -54.3432
   -31.9448 -31.8808 -31.8386 -31.7575 -31.7086 -31.7059 -31.6815 -31.6787
   -31.6346 -31.5989 -31.5918 -31.5905 -31.5835 -31.5799 -31.5619 -31.5598
   -31.5352 -31.5271 -31.5242 -31.5127 -31.4986 -31.4920 -31.4731 -31.4683
   -31.4600 -31.4469 -31.4464 -31.4175 -31.4032 -31.3995 -31.3962 -31.3740
   -31.3704 -31.3661 -31.3626 -31.3413 -31.3304 -31.3183 -31.3033 -31.3033
   -31.2931 -31.2867 -30.7867 -30.6923 -30.6702 -30.6031 -30.5163 -30.4054
   -18.8659 -18.4534 -16.2204 -15.9731 -15.8370 -15.7324 -15.5954 -15.4971
   -15.3879 -15.2747 -15.2516 -15.1575 -15.0835 -15.0791 -15.0421 -15.0168
   -14.9542 -14.9329 -14.9090 -14.9031 -14.8886 -14.8783 -14.8418 -14.8309
   -14.7971 -14.7870 -14.7697 -14.6441 -14.6266 -14.5524 -14.4819 -14.3439
   -12.8794 -12.7619  -9.8134  -7.0054  -6.3762  -6.0786  -4.3739  -3.7174
    -3.5435  -3.4108  -3.3319  -3.3018  -3.2861  -3.1545  -3.0603  -2.9020
    -2.8634  -2.8067  -2.6741  -2.5983  -2.5918  -2.5039  -2.4315  -2.4081
    -2.3751  -2.2658  -2.2596  -2.2095  -2.1926  -2.1694  -2.1601  -2.1132
    -2.0674  -2.0404  -1.9553  -1.8538  -1.8099  -1.7903  -1.7538  -1.7311
    -1.7263  -1.6828  -1.6767  -1.6525  -1.6141  -1.5898  -1.5442  -1.4323
    -1.3904  -1.2315  -1.1944  -1.0404  -1.0199  -0.9806  -0.9604  -0.9207
    -0.8934  -0.8774  -0.8606  -0.7728  -0.7144  -0.6475  -0.5839  -0.4927
    -0.4824  -0.4082  -0.3831  -0.3175  -0.2295  -0.1858  -0.1762  -0.1514
    -0.1480  -0.0341   0.0106   0.0709   0.0896   0.1468   0.1626   0.1849
     0.2549   0.3086   0.3779   0.4087   0.4877   0.5058   0.5410   0.5501
     0.5826   0.5929   0.6694   0.6840   0.7122   0.8149   0.9122   1.0035
     1.2101   1.2179   1.2289   1.5505   1.5526   1.6459   1.8293   2.2223
     2.2706   3.7041   3.7825   3.8321   3.8495   3.8542   3.9390   4.1936
     4.2079   4.2205   4.2268   4.2675

[...]

          k = 0.0380-0.0419 0.0000 ( 17876 PWs)   bands (ev):

[...]

          k =-0.0760-0.0000 0.0000 ( 17886 PWs)   bands (ev):

[...]

          k =-0.0760-0.0839 0.0000 ( 17948 PWs)   bands (ev):

   -55.3689 -55.3666 -55.3288 -55.3287 -55.3058 -55.3021 -55.2541 -55.2463
   -55.2030 -55.1963 -55.1622 -55.1596 -55.1580 -55.1144 -54.3602 -54.3602
   -31.7955 -31.7572 -31.7431 -31.6537 -31.6536 -31.6391 -31.6272 -31.6199
   -31.6198 -31.5991 -31.5940 -31.5909 -31.5679 -31.5602 -31.5482 -31.5343
   -31.5312 -31.5285 -31.5247 -31.5166 -31.5120 -31.5099 -31.5088 -31.5011
   -31.4691 -31.4677 -31.4486 -31.4485 -31.4481 -31.4430 -31.4406 -31.4359
   -31.4264 -31.4151 -31.4093 -31.3925 -31.3908 -31.3808 -31.3396 -31.3386
   -31.3380 -31.3191 -30.6829 -30.6829 -30.5993 -30.5991 -30.5597 -30.5597
   -18.8599 -18.4560 -15.8399 -15.6532 -15.5020 -15.4302 -15.4100 -15.3266
   -15.2711 -15.2678 -15.1946 -15.1767 -15.1644 -15.1427 -15.1332 -15.0860
   -15.0488 -15.0122 -14.9935 -14.9708 -14.9276 -14.9050 -14.9033 -14.8966
   -14.8889 -14.8483 -14.8434 -14.8400 -14.7483 -14.7464 -14.7040 -14.5576
   -12.8635 -12.8633  -9.8226  -6.9939  -6.3520  -6.0545  -4.3896  -3.6415
    -3.0201  -2.9114  -2.9005  -2.6716  -2.6536  -2.5925  -2.5799  -2.4922
    -2.4764  -2.4158  -2.3922  -2.3420  -2.3191  -2.2812  -2.2675  -2.2457
    -2.2248  -2.2111  -2.1842  -2.1684  -2.1511  -2.1317  -2.1207  -2.1094
    -2.0537  -2.0482  -2.0396  -2.0143  -1.9912  -1.9551  -1.9450  -1.9279
    -1.7734  -1.7576  -1.7360  -1.6009  -1.5965  -1.5616  -1.5223  -1.4947
    -1.4366  -1.4283  -1.3997  -1.3408  -1.1470  -1.1368  -1.1249  -1.1065
    -1.0356  -0.9800  -0.9664  -0.9481  -0.8947  -0.8166  -0.7824  -0.7303
    -0.6393  -0.5895  -0.5796  -0.5540  -0.4329  -0.4098  -0.3673  -0.3495
    -0.3330  -0.2988  -0.2973  -0.2387  -0.1867  -0.1517  -0.1288  -0.1145
    -0.0775   0.0774   0.1295   0.1457   0.2602   0.2893   0.4672   0.5104
     0.5319   0.6369   0.7203   0.7479   0.7627   0.8872   0.9099   0.9126
     0.9809   1.0032   1.0633   1.0690   1.1801   2.0020   2.0033   2.0905
     2.0907   3.8291   3.9519   3.9964   4.0321   4.1080   4.1608   4.2178
     4.2770   4.2888   4.2921   4.3591

     the Fermi energy is     3.7661 ev

!    total energy              =   -2975.10520230 Ry
     estimated scf accuracy    <       0.00000007 Ry
     smearing contrib. (-TS)   =      -0.03671904 Ry
     internal energy E=F+TS    =   -2975.06848326 Ry

     The total energy is F=E-TS. E is the sum of the following terms:
     one-electron contribution =  -23505.28416280 Ry
     hartree contribution      =   11848.65755354 Ry
     xc contribution           =    -494.90898573 Ry
     ewald contribution        =    9176.46513257 Ry
     electric field correction =       0.00197915 Ry

     convergence has been achieved in  80 iterations

     Forces acting on atoms (cartesian axes, Ry/au):

     atom    1 type  1   force =     0.00003515   -0.00025120    0.09307921
     atom    2 type  1   force =    -0.00018836   -0.00031617   -0.17840684
     atom    3 type  2   force =     0.00005940   -0.00016896   -0.02025173
     atom    4 type  2   force =     0.00001535   -0.00203425    0.05924504
     atom    5 type  2   force =    -0.01033797   -0.00110233    0.00809682
     atom    6 type  2   force =     0.01217718   -0.00054669    0.00817542
     atom    7 type  1   force =     0.00014830    0.00329224   -0.01112843
     atom    8 type  1   force =    -0.00030010    0.00053980   -0.00560957
     atom    9 type  2   force =     0.00003945    0.00018217   -0.00014432
     atom   10 type  2   force =    -0.00146548   -0.00003397   -0.00171489
     atom   11 type  2   force =     0.00038937   -0.00003158   -0.00005441
     atom   12 type  2   force =    -0.00010913    0.00010919   -0.00008433
     atom   13 type  1   force =    -0.00009627   -0.00016940   -0.00025579
     atom   14 type  1   force =    -0.00021871   -0.00036641    0.00036118
     atom   15 type  2   force =     0.00006504   -0.00044594    0.00010221
     atom   16 type  2   force =     0.00022202    0.00009419    0.00023153
     atom   17 type  2   force =     0.00040215   -0.00013892    0.00022331
     atom   18 type  2   force =    -0.00003925   -0.00016502   -0.00022954
     atom   19 type  1   force =    -0.00033630   -0.00045780    0.00010629
     atom   20 type  1   force =     0.00021417    0.00013311    0.00041613
     atom   21 type  2   force =    -0.00000535   -0.00007482    0.10399961
     atom   22 type  2   force =    -0.00015554    0.00002580   -0.00018684
     atom   23 type  2   force =    -0.07034544   -0.00016251   -0.02684084
     atom   24 type  2   force =     0.07021162    0.00028212   -0.02691960
     atom   25 type  1   force =     0.00002125   -0.00015798    0.09274213
     atom   26 type  1   force =    -0.00016326   -0.00040124   -0.17835476
     atom   27 type  2   force =     0.00011066   -0.00030946   -0.01919281
     atom   28 type  2   force =     0.00004586   -0.00163107    0.05839377
     atom   29 type  2   force =    -0.01029480   -0.00064149    0.00730395
     atom   30 type  2   force =     0.01202449   -0.00031106    0.00743876
     atom   31 type  1   force =     0.00007733    0.00514896   -0.01466693
     atom   32 type  1   force =    -0.00013864   -0.00052184   -0.00595623
     atom   33 type  2   force =     0.00012663   -0.00039837   -0.00022802
     atom   34 type  2   force =    -0.00078746    0.00260762   -0.00102592
     atom   35 type  2   force =    -0.00006491   -0.00011637   -0.00011851
     atom   36 type  2   force =     0.00022986    0.00000134   -0.00014523
     atom   37 type  1   force =    -0.00043653    0.00008498    0.00002004
     atom   38 type  1   force =    -0.00002398   -0.00024165   -0.00022242
     atom   39 type  2   force =    -0.00031401   -0.00020623   -0.00014873
     atom   40 type  2   force =    -0.00013361   -0.00005974   -0.00005132
     atom   41 type  2   force =    -0.00014462   -0.00016574    0.00037018
     atom   42 type  2   force =    -0.00003770   -0.00023367    0.00009488
     atom   43 type  1   force =    -0.00005235   -0.00028416    0.00020587
     atom   44 type  1   force =     0.00003258    0.00001899    0.00023459
     atom   45 type  2   force =     0.00000812   -0.00010888    0.10397232
     atom   46 type  2   force =    -0.07037077   -0.00011426   -0.02686299
     atom   47 type  2   force =     0.07021267    0.00032049   -0.02692179
     atom   48 type  3   force =     0.00482083    0.00351835    0.00213246
     atom   49 type  3   force =     0.00072085    0.00078629    0.00143239
     atom   50 type  4   force =    -0.01213862    0.00067227   -0.00155896
     atom   51 type  5   force =     0.00642576   -0.00430086   -0.00083157
     atom   52 type  5   force =    -0.00053492   -0.00130710   -0.00050531
     atom   53 type  5   force =    -0.00018979    0.00015521    0.00000818
     atom   54 type  5   force =     0.00039478    0.00050964    0.00008509
     atom   55 type  2   force =     0.00025329    0.00003258    0.00045723
     atom   56 type  5   force =     0.00020373   -0.00039049   -0.00041777
     atom   57 type  5   force =    -0.00026402   -0.00014769    0.00010782

     Total force =     0.366545     Total SCF correction =     0.000894
  @ DRIVER MODE: Message from server: STATUS
  @ DRIVER MODE: Message from server: GETFORCE
  @ DRIVER MODE: Returning v,forces,stress,ensemble

     Writing output data file ./calc.save/
  @ DRIVER MODE: Message from server: EXIT
  @ DRIVE MODE: Exiting

     General routines

     Parallel routines

   This run was terminated on:   3:24: 1  22Sep2021

   JOB DONE.