     Program PWSCF v.6.7GPU starts on 22Sep2021 at 17:27:50

     R & G space division:  proc/nbgrp/npool/nimage =      10
     Reading input from /storage/home/hcoda1/3/ntian30/research/carbon/CxH_vib/H2O_calc/ads_slab/CH2NHNHH2O_b/out_0005/pw.inp
Warning: card &CELL ignored
Warning: card   CELL_DYNAMICS='IPI', ignored
Warning: card / ignored

     Current dimensions of program PWSCF are:
     Max number of different atomic species (ntypx) = 10
     Max number of k-points (npk) =  40000
     Max angular momentum in pseudopotentials (lmaxx) =  3
     Presently no symmetry can be used with electric field

     Message from routine cell_base_init:
     DEPRECATED: use true lattice parameter, not A to a.u. conversion factor

     IMPORTANT: XC functional enforced from input :
     Exchange-correlation= BEEF-VDW
                           (   1   4  43  14   2   0   0)
     Any further DFT definition will be discarded
     Please, verify this is what you really want

  @ DRIVER MODE: Connecting to
 qe_1139763_2937310.sched-torque.pace.gatech.edu1uhcoquw_scratch
  using UNIX socket
  @ DRIVER MODE: Message from server: STATUS
  @ DRIVER MODE: Message from server: INIT
  @ DRIVER MODE: Receiving replica           0          -1
  @ DRIVER MODE: Receiving encoded integer          25
  @ DRIVER MODE:  SCF:  T  FORCE:  T  STRESS:  F  VC:  F  ENSEMBLE:  F
  @ DRIVER MODE:  SCF:  T  FORCE:  T  STRESS:  F  VC:  F  ENSEMBLE:  F

     Using Slab Decomposition

     bravais-lattice index     =            0
     lattice parameter (alat)  =       1.8897  a.u.
     unit-cell volume          =    6658.9804 (a.u.)^3
     number of atoms/cell      =           57
     number of atomic types    =            5
     number of electrons       =       404.00
     number of Kohn-Sham states=          212
     kinetic-energy cutoff     =      29.3995  Ry
     charge density cutoff     =     293.9946  Ry
     scf convergence threshold =      7.3E-08
     mixing beta               =       0.0500
     number of iterations used =            8  plain     mixing
     Exchange-correlation= BEEF-VDW
                           (   1   4  43  14   2   0   0)

     celldm(1)=   1.889726  celldm(2)=   0.000000  celldm(3)=   0.000000
     celldm(4)=   0.000000  celldm(5)=   0.000000  celldm(6)=   0.000000

     crystal axes: (cart. coord. in units of alat)
               a(1) = (   6.579727   0.000000   0.000000 )
               a(2) = (  -0.000775   5.961596   0.000000 )
               a(3) = (   0.000000   0.000000  25.155947 )

     reciprocal axes: (cart. coord. in units 2 pi/alat)
               b(1) = (  0.151982  0.000020  0.000000 )
               b(2) = (  0.000000  0.167740  0.000000 )
               b(3) = (  0.000000  0.000000  0.039752 )

     PseudoPot. # 1 for Ti read from file:
     /storage/coda1/p-amedford6/0/shared/rich_project_chbe-medford/medford-share/data/pseudos_module/espresso/nninc/pbe/van/Ti.UPF
     MD5 check sum: 8e4df49b7f0d34bbd5052bf3f5ea0213
     Pseudo is Ultrasoft, Zval = 12.0
     Generated by new atomic code, or converted to UPF format
     Using radial grid of  851 points,  6 beta functions with:
                l(1) =   0
                l(2) =   0
                l(3) =   1
                l(4) =   1
                l(5) =   2
                l(6) =   2
     Q(r) pseudized with  8 coefficients,  rinner =    1.000   1.000   1.000
                                                       1.000   1.000

     PseudoPot. # 2 for O  read from file:
     /storage/coda1/p-amedford6/0/shared/rich_project_chbe-medford/medford-share/data/pseudos_module/espresso/nninc/pbe/van/O.UPF
     MD5 check sum: 78c19812648e8988a0fe644b0f25305e
     Pseudo is Ultrasoft, Zval =  6.0
     Generated by new atomic code, or converted to UPF format
     Using radial grid of  737 points,  4 beta functions with:
                l(1) =   0
                l(2) =   0
                l(3) =   1
                l(4) =   1
     Q(r) pseudized with  8 coefficients,  rinner =    0.800   0.800   0.800

     PseudoPot. # 3 for N  read from file:
     /storage/coda1/p-amedford6/0/shared/rich_project_chbe-medford/medford-share/data/pseudos_module/espresso/nninc/pbe/van/N.UPF
     MD5 check sum: 90d10febe142ad51ac9d5be1deb811c4
     Pseudo is Ultrasoft, Zval =  5.0
     Generated by new atomic code, or converted to UPF format
     Using radial grid of  729 points,  4 beta functions with:
                l(1) =   0
                l(2) =   0
                l(3) =   1
                l(4) =   1
     Q(r) pseudized with  8 coefficients,  rinner =    0.800   0.800   0.800

     PseudoPot. # 4 for C  read from file:
     /storage/coda1/p-amedford6/0/shared/rich_project_chbe-medford/medford-share/data/pseudos_module/espresso/nninc/pbe/van/C.UPF
     MD5 check sum: 1a69bf6b8db32088f5b2163dbdb77a27
     Pseudo is Ultrasoft, Zval =  4.0
     Generated by new atomic code, or converted to UPF format
     Using radial grid of  721 points,  4 beta functions with:
                l(1) =   0
                l(2) =   0
                l(3) =   1
                l(4) =   1
     Q(r) pseudized with  8 coefficients,  rinner =    0.800   0.800   0.800

     PseudoPot. # 5 for H  read from file:
     /storage/coda1/p-amedford6/0/shared/rich_project_chbe-medford/medford-share/data/pseudos_module/espresso/nninc/pbe/van/H.UPF
     MD5 check sum: b5ee9d7bfd3a09ee7748110bda690ff7
     Pseudo is Ultrasoft, Zval =  1.0
     Generated by new atomic code, or converted to UPF format
     Using radial grid of  615 points,  1 beta functions with:
                l(1) =   0
     Q(r) pseudized with  8 coefficients,  rinner =    0.800

     atomic species   valence    mass     pseudopotential
        Ti1           12.00    47.86700     Ti( 1.00)
        O1             6.00    15.99900     O ( 1.00)
        N1             5.00    14.00700     N ( 1.00)
        C1             4.00    12.01100     C ( 1.00)
        H1             1.00     1.00800     H ( 1.00)

     No symmetry found

   Cartesian axes

     site n.     atom                  positions (alat units)
         1           Ti1 tau(   1) = (   0.0004258   2.9801865   6.0000000  )
         2           Ti1 tau(   2) = (   3.2906075   1.4906267   6.0002472  )
         3           O1  tau(   3) = (   0.0006271   0.0005054   7.9858123  )
         4           O1  tau(   4) = (   3.2906025   0.0005020   7.3038282  )
         5           O1  tau(   5) = (   4.5942328   1.4918067   9.2879030  )
         6           O1  tau(   6) = (   1.9868534   1.4903216   9.2879459  )
         7           Ti1 tau(   7) = (   3.2907910   2.8959150   9.1758416  )
         8           Ti1 tau(   8) = (   0.0015273   1.4827037   9.2680791  )
         9           O1  tau(   9) = (   3.2740695   5.9399032  11.3612631  )
        10           O1  tau(  10) = (   0.0116148   5.9584955  10.6183126  )
        11           O1  tau(  11) = (   1.2665466   1.4659349  12.6457467  )
        12           O1  tau(  12) = (   5.2636777   1.4644475  12.6520517  )
        13           Ti1 tau(  13) = (   0.0254019   2.9535957  12.5508080  )
        14           Ti1 tau(  14) = (   3.3235577   1.4585364  12.5144190  )
        15           O1  tau(  15) = (   0.0066209   5.9388471  14.7046414  )
        16           O1  tau(  16) = (   3.2471877   5.9405099  14.0100224  )
        17           O1  tau(  17) = (   4.5302733   1.5208160  16.0462967  )
        18           O1  tau(  18) = (   1.9955500   1.4995475  16.2009832  )
        19           Ti1 tau(  19) = (   3.2567830   2.9699832  15.6929747  )
        20           Ti1 tau(  20) = (   6.4949666   1.4732860  15.8443191  )
        21           O1  tau(  21) = (   3.2904802   0.0005063   4.7018136  )
        22           O1  tau(  22) = (   6.4419287   5.8812218  17.2824568  )
        23           O1  tau(  23) = (   1.3043587   1.4918075   6.0039043  )
        24           O1  tau(  24) = (   5.2767064   1.4903225   6.0039473  )
        25           Ti1 tau(  25) = (   0.0000382   5.9609847   6.0000000  )
        26           Ti1 tau(  26) = (   3.2902200   4.4714249   6.0002472  )
        27           O1  tau(  27) = (   0.0002396   2.9813036   7.9858123  )
        28           O1  tau(  28) = (   3.2902150   2.9813002   7.3038282  )
        29           O1  tau(  29) = (   4.5938453   4.4726049   9.2879030  )
        30           O1  tau(  30) = (   1.9864658   4.4711199   9.2879459  )
        31           Ti1 tau(  31) = (   3.2891106   5.8743827   9.1763621  )
        32           Ti1 tau(  32) = (   0.0006254   4.4649316   9.2693709  )
        33           O1  tau(  33) = (   3.2800166   2.9600013  11.3546200  )
        34           O1  tau(  34) = (   0.0092240   2.9805883  10.6323155  )
        35           O1  tau(  35) = (   1.2663080   4.4508225  12.6496728  )
        36           O1  tau(  36) = (   5.2650692   4.4524444  12.6537221  )
        37           Ti1 tau(  37) = (   0.0180281   5.9297397  12.5120547  )
        38           Ti1 tau(  38) = (   3.3242103   4.4456960  12.5094407  )
        39           O1  tau(  39) = (   0.0028395   2.9305241  14.7702868  )
        40           O1  tau(  40) = (   3.2369197   2.9632653  13.9133312  )
        41           O1  tau(  41) = (   4.5259019   4.3784886  16.1008109  )
        42           O1  tau(  42) = (   2.0017919   4.4285960  16.1845674  )
        43           Ti1 tau(  43) = (   3.2453488   5.9423767  15.8283900  )
        44           Ti1 tau(  44) = (   6.5728488   4.6138345  16.0446011  )
        45           O1  tau(  45) = (   3.2900926   2.9813045   4.7018136  )
        46           O1  tau(  46) = (   1.3039711   4.4726057   6.0039043  )
        47           O1  tau(  47) = (   5.2763189   4.4711207   6.0039473  )
        48           N1  tau(  48) = (   0.9567011   2.5879941  18.4748429  )
        49           N1  tau(  49) = (   6.5185693   2.8362889  17.6364570  )
        50           C1  tau(  50) = (   1.0658718   2.8740630  19.7563100  )
        51           H1  tau(  51) = (   1.9437682   2.5238050  20.2723566  )
        52           H1  tau(  52) = (   0.2809834   3.4210577  20.2544045  )
        53           H1  tau(  53) = (   1.7014144   2.0656717  17.9989220  )
        54           H1  tau(  54) = (   5.6742842   3.0275795  18.1730567  )
        55           O1  tau(  55) = (   3.7618585   0.1297276  18.3074903  )
        56           H1  tau(  56) = (   4.7330396   0.0541995  18.1289380  )
        57           H1  tau(  57) = (   3.4892521   5.2388606  18.6788193  )

     number of k points=    10  Fermi-Dirac smearing, width (Ry)=  0.0073
                       cart. coord. in units 2pi/alat
        k(    1) = (   0.0000000   0.0000000   0.0000000), wk =   0.1250000
        k(    2) = (   0.0000000   0.0419351   0.0000000), wk =   0.2500000
        k(    3) = (   0.0000000  -0.0838702   0.0000000), wk =   0.1250000
        k(    4) = (   0.0379955   0.0000049   0.0000000), wk =   0.2500000
        k(    5) = (   0.0379955   0.0419400   0.0000000), wk =   0.2500000
        k(    6) = (   0.0379955  -0.0838652   0.0000000), wk =   0.2500000
        k(    7) = (   0.0379955  -0.0419301   0.0000000), wk =   0.2500000
        k(    8) = (  -0.0759910  -0.0000099   0.0000000), wk =   0.1250000
        k(    9) = (  -0.0759910   0.0419252   0.0000000), wk =   0.2500000
        k(   10) = (  -0.0759910  -0.0838800   0.0000000), wk =   0.1250000

     Initial potential from superposition of free atoms

     starting charge  387.99913, renormalised to  404.00000

     negative rho (up, down):  1.394E-02 0.000E+00

     %%%%%%%%%%%%%%%%%%%%%%%%%%%%%%%%%%%%%%%%%%%%%%%%%%%%%%%%%%%%%%%%%%%%%%%%
     %                                                                      %
     % You are using vdW-DF, which was implemented by the Thonhauser group. %
     % Please cite the following two papers that made this development      %
     % possible and the two reviews that describe the various versions:     %
     %                                                                      %
     %   T. Thonhauser et al., PRL 115, 136402 (2015).                      %
     %   T. Thonhauser et al., PRB 76, 125112 (2007).                       %
     %   K. Berland et al., Rep. Prog. Phys. 78, 066501 (2015).             %
     %   D.C. Langreth et al., J. Phys.: Condens. Matter 21, 084203 (2009). %
     %                                                                      %
     %                                                                      %
     % If you are calculating the stress with vdW-DF, please also cite:     %
     %                                                                      %
     %   R. Sabatini et al., J. Phys.: Condens. Matter 24, 424209 (2012).   %
     %                                                                      %
     %%%%%%%%%%%%%%%%%%%%%%%%%%%%%%%%%%%%%%%%%%%%%%%%%%%%%%%%%%%%%%%%%%%%%%%%

     Adding external electric field

     Computed dipole along edir(3) :
        Dipole              -14.1733 Ry au,        -36.0250 Debye
        Dipole field         -0.0267 Ry au,

        Potential amp.        2.4794 Ry
        Total length         46.3494 bohr

     Starting wfcs are  306 atomic wfcs
  @ DRIVER MODE: Message from server: STATUS
  @ DRIVER MODE: Message from server: POSDATA
  @ DRIVER MODE: Reading and sharing cell
  @ DRIVER MODE: Reading and sharing positions
  @ DRIVER MODE: Received positions

     Self-consistent Calculation

     iteration #  1     ecut=    29.40 Ry     beta= 0.05
     Davidson diagonalization with overlap
     c_bands:  4 eigenvalues not converged
     c_bands:  5 eigenvalues not converged
     c_bands:  2 eigenvalues not converged
     c_bands:  2 eigenvalues not converged
     c_bands:  1 eigenvalues not converged
     c_bands:  1 eigenvalues not converged
     c_bands:  4 eigenvalues not converged
     c_bands:  1 eigenvalues not converged
     c_bands:  1 eigenvalues not converged
     ethr =  1.00E-05,  avg # of iterations = 28.9

[...]

     total energy              =   -2249.26719841 Ry
     estimated scf accuracy    <    8255.45703866 Ry

     iteration #  2     ecut=    29.40 Ry     beta= 0.05
     Davidson diagonalization with overlap
     ethr =  1.00E-02,  avg # of iterations = 28.5

[...]

     iteration # 60     ecut=    29.40 Ry     beta= 0.05
     Davidson diagonalization with overlap
     c_bands:  1 eigenvalues not converged
     ethr =  3.69E-11,  avg # of iterations = 13.8

[...]

     total energy              =   -2975.20132786 Ry
     estimated scf accuracy    <       0.00000016 Ry

     iteration # 61     ecut=    29.40 Ry     beta= 0.05
     Davidson diagonalization with overlap
     ethr =  3.69E-11,  avg # of iterations =  5.7

     negative rho (up, down):  1.358E-02 0.000E+00

     Adding external electric field

     Computed dipole along edir(3) :
        Dipole                1.4084 Ry au,          3.5799 Debye
        Dipole field          0.0027 Ry au,

        Potential amp.       -0.2464 Ry
        Total length         46.3494 bohr

     End of self-consistent calculation

          k = 0.0000 0.0000 0.0000 ( 18029 PWs)   bands (ev):

   -55.1546 -55.1263 -55.1179 -55.0922 -55.0896 -55.0404 -54.9986 -54.9659
   -54.9510 -54.9349 -54.9306 -54.9254 -54.9179 -54.8434 -54.1389 -54.1048
   -31.7175 -31.6161 -31.5335 -31.4905 -31.4681 -31.4650 -31.4551 -31.4530
   -31.4160 -31.3956 -31.3738 -31.3705 -31.3540 -31.3320 -31.3151 -31.3014
   -31.2957 -31.2791 -31.2761 -31.2671 -31.2376 -31.2245 -31.2204 -31.1956
   -31.1871 -31.1833 -31.1736 -31.1668 -31.1662 -31.1591 -31.1475 -31.1455
   -31.1236 -31.1151 -31.1110 -31.1012 -31.0944 -31.0822 -31.0797 -31.0603
   -31.0591 -31.0232 -30.5474 -30.4553 -30.4331 -30.3640 -30.2773 -30.1662
   -19.2774 -18.5880 -15.9709 -15.7058 -15.5742 -15.4095 -15.3464 -15.1749
   -15.0934 -15.0289 -14.9436 -14.8830 -14.8696 -14.8631 -14.7725 -14.7538
   -14.7007 -14.6895 -14.6825 -14.6516 -14.6436 -14.5856 -14.5814 -14.5749
   -14.5423 -14.5295 -14.4995 -14.3816 -14.3012 -14.2444 -14.0302 -13.6164
   -12.6415 -12.5244 -10.0283  -6.7956  -6.4840  -6.3617  -4.0675  -3.9096
    -3.3222  -3.1764  -3.1614  -3.0774  -3.0554  -2.9265  -2.8756  -2.7131
    -2.5998  -2.5083  -2.4198  -2.3497  -2.3422  -2.3136  -2.1949  -2.1338
    -2.0883  -2.0435  -2.0252  -2.0140  -1.9661  -1.9298  -1.9274  -1.8600
    -1.8569  -1.7214  -1.6241  -1.6160  -1.5884  -1.5726  -1.4837  -1.4593
    -1.4506  -1.4457  -1.4388  -1.4317  -1.3971  -1.3511  -1.3263  -1.2408
    -1.1903  -1.1430  -1.0148  -0.9119  -0.8392  -0.7842  -0.6956  -0.6921
    -0.6248  -0.5578  -0.5437  -0.5431  -0.4827  -0.3602  -0.3118  -0.2604
    -0.2419  -0.2138  -0.1290  -0.1110  -0.0414   0.0360   0.0595   0.0693
     0.0914   0.2659   0.2731   0.3017   0.3200   0.4100   0.4616   0.5046
     0.5110   0.5332   0.6017   0.6370   0.7283   0.7761   0.7870   0.8075
     0.8290   0.8693   0.9474   0.9564   0.9959   1.0194   1.1618   1.1991
     1.2601   1.4661   1.4675   1.7966   1.8369   1.8837   2.0699   2.4580
     2.5054   3.9448   4.0347   4.0738   4.0756   4.0943   4.1798   4.3103
     4.4261   4.4365   4.4489   4.4705

[...]

          k = 0.0380-0.0419 0.0000 ( 17876 PWs)   bands (ev):

[...]

          k =-0.0760-0.0000 0.0000 ( 17886 PWs)   bands (ev):

[...]

          k =-0.0760-0.0839 0.0000 ( 17948 PWs)   bands (ev):

   -55.1398 -55.1325 -55.1094 -55.1090 -55.0877 -55.0314 -55.0076 -54.9510
   -54.9446 -54.9364 -54.9353 -54.9343 -54.9221 -54.8469 -54.1219 -54.1217
   -31.5259 -31.5176 -31.4322 -31.4314 -31.4310 -31.4154 -31.4016 -31.4011
   -31.3768 -31.3729 -31.3697 -31.3630 -31.3520 -31.3216 -31.2918 -31.2850
   -31.2844 -31.2839 -31.2795 -31.2739 -31.2668 -31.2487 -31.2346 -31.2320
   -31.2289 -31.2288 -31.2284 -31.2069 -31.1842 -31.1756 -31.1723 -31.1648
   -31.1588 -31.1565 -31.1544 -31.1520 -31.1497 -31.1217 -31.1159 -31.1141
   -31.0975 -31.0675 -30.4459 -30.4457 -30.3601 -30.3599 -30.3207 -30.3206
   -19.2748 -18.5875 -15.4652 -15.3077 -15.2951 -15.1434 -15.1295 -15.1212
   -15.0957 -15.0204 -15.0001 -14.9367 -14.9254 -14.8811 -14.8558 -14.8422
   -14.8314 -14.7384 -14.7312 -14.7249 -14.7088 -14.6586 -14.6465 -14.6294
   -14.6062 -14.6021 -14.5651 -14.5008 -14.4976 -14.4635 -14.2316 -13.6268
   -12.6260 -12.6259 -10.0310  -6.7890  -6.4870  -6.3541  -4.0432  -3.8952
    -2.9351  -2.7304  -2.5304  -2.5163  -2.4623  -2.3764  -2.3347  -2.2948
    -2.1983  -2.1485  -2.1339  -2.1103  -2.0970  -2.0386  -2.0334  -2.0306
    -1.9957  -1.9874  -1.9730  -1.9483  -1.9249  -1.8899  -1.8771  -1.8674
    -1.8546  -1.8154  -1.7953  -1.7671  -1.7533  -1.7251  -1.7085  -1.6377
    -1.5344  -1.5041  -1.4509  -1.3581  -1.3412  -1.3355  -1.2503  -1.2156
    -1.2037  -1.1888  -1.1742  -1.1113  -0.9770  -0.8896  -0.8796  -0.8258
    -0.7596  -0.7274  -0.6852  -0.6565  -0.6285  -0.5736  -0.5261  -0.5009
    -0.4271  -0.3750  -0.3694  -0.3363  -0.1899  -0.1658  -0.1192  -0.1178
    -0.1021  -0.0925  -0.0049   0.0118   0.0565   0.0759   0.1168   0.1342
     0.2127   0.2289   0.3434   0.4176   0.4761   0.5814   0.7239   0.7366
     0.8077   0.8751   0.9084   0.9729   1.0310   1.0676   1.1471   1.1563
     1.1776   1.2738   1.3231   1.3296   1.3467   2.2423   2.2439   2.3253
     2.3255   4.1072   4.1290   4.2197   4.2327   4.2850   4.3690   4.4572
     4.4840   4.5187   4.5229   4.6005

     the Fermi energy is     3.9930 ev

!    total energy              =   -2975.20136638 Ry
     estimated scf accuracy    <       0.00000006 Ry
     smearing contrib. (-TS)   =      -0.03819321 Ry
     internal energy E=F+TS    =   -2975.16317317 Ry

     The total energy is F=E-TS. E is the sum of the following terms:
     one-electron contribution =  -23648.58553435 Ry
     hartree contribution      =   11922.37620681 Ry
     xc contribution           =    -494.97410028 Ry
     ewald contribution        =    9246.01651122 Ry
     electric field correction =       0.00374343 Ry

     convergence has been achieved in  61 iterations

     Forces acting on atoms (cartesian axes, Ry/au):

     atom    1 type  1   force =     0.00014259   -0.00013925    0.09420847
     atom    2 type  1   force =    -0.00023076   -0.00026414   -0.17727801
     atom    3 type  2   force =     0.00001830   -0.00026622   -0.02170508
     atom    4 type  2   force =    -0.00004152   -0.00184532    0.05694059
     atom    5 type  2   force =    -0.01106548   -0.00171847    0.00687247
     atom    6 type  2   force =     0.01215500   -0.00091228    0.00494011
     atom    7 type  1   force =    -0.00122201    0.00156290   -0.01216411
     atom    8 type  1   force =     0.00072770    0.00496566    0.00604782
     atom    9 type  2   force =     0.00026697    0.00050854    0.00032497
     atom   10 type  2   force =    -0.00307244   -0.00067946   -0.00507348
     atom   11 type  2   force =     0.00080882    0.00021212   -0.00025629
     atom   12 type  2   force =    -0.00007354    0.00050962   -0.00000450
     atom   13 type  1   force =    -0.00021606    0.00010677   -0.00000153
     atom   14 type  1   force =    -0.00000834    0.00012790   -0.00005877
     atom   15 type  2   force =    -0.00007557    0.00001009    0.00017042
     atom   16 type  2   force =     0.00042946    0.00034189   -0.00021060
     atom   17 type  2   force =     0.00009892   -0.00010352    0.00025081
     atom   18 type  2   force =     0.00041193   -0.00052561   -0.00074254
     atom   19 type  1   force =     0.00022683    0.00021866    0.00006818
     atom   20 type  1   force =    -0.00011215    0.00051007   -0.00005133
     atom   21 type  2   force =     0.00005079    0.00002457    0.10363462
     atom   22 type  2   force =     0.00058737   -0.00006032   -0.00036593
     atom   23 type  2   force =    -0.07084083   -0.00009523   -0.02720270
     atom   24 type  2   force =     0.07067688    0.00038796   -0.02724165
     atom   25 type  1   force =    -0.00006113   -0.00028365    0.09395561
     atom   26 type  1   force =    -0.00030565   -0.00036268   -0.17745236
     atom   27 type  2   force =     0.00000946   -0.00023040   -0.02073990
     atom   28 type  2   force =     0.00003646   -0.00148578    0.05597123
     atom   29 type  2   force =    -0.01133821   -0.00053216    0.00690526
     atom   30 type  2   force =     0.01230080   -0.00025461    0.00492654
     atom   31 type  1   force =    -0.00121999    0.00507286   -0.01495884
     atom   32 type  1   force =     0.00092543   -0.00601046    0.00587471
     atom   33 type  2   force =     0.00035395   -0.00013487    0.00011857
     atom   34 type  2   force =    -0.00261095   -0.00151559   -0.00578778
     atom   35 type  2   force =     0.00036295    0.00030474   -0.00032021
     atom   36 type  2   force =     0.00044041    0.00040782   -0.00008256
     atom   37 type  1   force =    -0.00016590   -0.00014579   -0.00010362
     atom   38 type  1   force =     0.00005470    0.00032773    0.00048482
     atom   39 type  2   force =     0.00008751    0.00087301   -0.00094495
     atom   40 type  2   force =     0.00004563   -0.00007411   -0.00001788
     atom   41 type  2   force =     0.00083087    0.00040881    0.00046761
     atom   42 type  2   force =    -0.00078772    0.00022695   -0.00022187
     atom   43 type  1   force =     0.00029883   -0.00056644    0.00038686
     atom   44 type  1   force =    -0.00000202    0.00007477   -0.00064741
     atom   45 type  2   force =     0.00001764   -0.00002289    0.10363306
     atom   46 type  2   force =    -0.07083413   -0.00000137   -0.02721859
     atom   47 type  2   force =     0.07066373    0.00040393   -0.02721308
     atom   48 type  3   force =     0.00051903    0.00638113    0.03003277
     atom   49 type  3   force =    -0.00377996    0.00047145   -0.00791990
     atom   50 type  4   force =    -0.00047076   -0.00345415   -0.01561013
     atom   51 type  5   force =    -0.00016716   -0.00037933   -0.00056397
     atom   52 type  5   force =     0.00020950   -0.00080895   -0.00088841
     atom   53 type  5   force =     0.00291257   -0.00194787   -0.00387990
     atom   54 type  5   force =     0.00153756    0.00040168    0.00052976
     atom   55 type  2   force =     0.00019594    0.00012048   -0.00017267
     atom   56 type  5   force =     0.00058406   -0.00018108   -0.00041830
     atom   57 type  5   force =    -0.00028630    0.00003988    0.00077359

     Total force =     0.367426     Total SCF correction =     0.000659
  @ DRIVER MODE: Message from server: STATUS
  @ DRIVER MODE: Message from server: GETFORCE
  @ DRIVER MODE: Returning v,forces,stress,ensemble

     Writing output data file ./calc.save/
  @ DRIVER MODE: Message from server: EXIT
  @ DRIVE MODE: Exiting

     General routines

     Parallel routines

   This run was terminated on:  17:46:12  22Sep2021

   JOB DONE.