     Program PWSCF v.6.7GPU starts on 12Oct2021 at 14:17:54

     R & G space division:  proc/nbgrp/npool/nimage =       8
     Reading input from /storage/home/hcoda1/3/ntian30/research/carbon/ACS_vib/ads_slab/NH3/out_0018/pw.inp
Warning: card &CELL ignored
Warning: card   CELL_DYNAMICS='IPI', ignored
Warning: card / ignored

     Current dimensions of program PWSCF are:
     Max number of different atomic species (ntypx) = 10
     Max number of k-points (npk) =  40000
     Max angular momentum in pseudopotentials (lmaxx) =  3
     Presently no symmetry can be used with electric field

     Message from routine cell_base_init:
     DEPRECATED: use true lattice parameter, not A to a.u. conversion factor

     IMPORTANT: XC functional enforced from input :
     Exchange-correlation= BEEF-VDW
                           (   1   4  43  14   2   0   0)
     Any further DFT definition will be discarded
     Please, verify this is what you really want

  @ DRIVER MODE: Connecting to
 qe_1139763_3181317.sched-torque.pace.gatech.edu8qqygpg0_scratch
  using UNIX socket
  @ DRIVER MODE: Message from server: STATUS
  @ DRIVER MODE: Message from server: INIT
  @ DRIVER MODE: Receiving replica           0          -1
  @ DRIVER MODE: Receiving encoded integer          25
  @ DRIVER MODE:  SCF:  T  FORCE:  T  STRESS:  F  VC:  F  ENSEMBLE:  F
  @ DRIVER MODE:  SCF:  T  FORCE:  T  STRESS:  F  VC:  F  ENSEMBLE:  F

     Using Slab Decomposition

     bravais-lattice index     =            0
     lattice parameter (alat)  =       1.8897  a.u.
     unit-cell volume          =    6658.9804 (a.u.)^3
     number of atoms/cell      =           51
     number of atomic types    =            4
     number of electrons       =       386.00
     number of Kohn-Sham states=          203
     kinetic-energy cutoff     =      29.3995  Ry
     charge density cutoff     =     293.9946  Ry
     scf convergence threshold =      7.3E-08
     mixing beta               =       0.0500
     number of iterations used =            8  plain     mixing
     Exchange-correlation= BEEF-VDW
                           (   1   4  43  14   2   0   0)

     celldm(1)=   1.889726  celldm(2)=   0.000000  celldm(3)=   0.000000
     celldm(4)=   0.000000  celldm(5)=   0.000000  celldm(6)=   0.000000

     crystal axes: (cart. coord. in units of alat)
               a(1) = (   6.579727   0.000000   0.000000 )
               a(2) = (  -0.000775   5.961596   0.000000 )
               a(3) = (   0.000000   0.000000  25.155947 )

     reciprocal axes: (cart. coord. in units 2 pi/alat)
               b(1) = (  0.151982  0.000020  0.000000 )
               b(2) = (  0.000000  0.167740  0.000000 )
               b(3) = (  0.000000  0.000000  0.039752 )

     PseudoPot. # 1 for Ti read from file:
     /storage/coda1/p-amedford6/0/shared/rich_project_chbe-medford/medford-share/data/pseudos_module/espresso/nninc/pbe/van/Ti.UPF
     MD5 check sum: 8e4df49b7f0d34bbd5052bf3f5ea0213
     Pseudo is Ultrasoft, Zval = 12.0
     Generated by new atomic code, or converted to UPF format
     Using radial grid of  851 points,  6 beta functions with:
                l(1) =   0
                l(2) =   0
                l(3) =   1
                l(4) =   1
                l(5) =   2
                l(6) =   2
     Q(r) pseudized with  8 coefficients,  rinner =    1.000   1.000   1.000
                                                       1.000   1.000

     PseudoPot. # 2 for O  read from file:
     /storage/coda1/p-amedford6/0/shared/rich_project_chbe-medford/medford-share/data/pseudos_module/espresso/nninc/pbe/van/O.UPF
     MD5 check sum: 78c19812648e8988a0fe644b0f25305e
     Pseudo is Ultrasoft, Zval =  6.0
     Generated by new atomic code, or converted to UPF format
     Using radial grid of  737 points,  4 beta functions with:
                l(1) =   0
                l(2) =   0
                l(3) =   1
                l(4) =   1
     Q(r) pseudized with  8 coefficients,  rinner =    0.800   0.800   0.800

     PseudoPot. # 3 for N  read from file:
     /storage/coda1/p-amedford6/0/shared/rich_project_chbe-medford/medford-share/data/pseudos_module/espresso/nninc/pbe/van/N.UPF
     MD5 check sum: 90d10febe142ad51ac9d5be1deb811c4
     Pseudo is Ultrasoft, Zval =  5.0
     Generated by new atomic code, or converted to UPF format
     Using radial grid of  729 points,  4 beta functions with:
                l(1) =   0
                l(2) =   0
                l(3) =   1
                l(4) =   1
     Q(r) pseudized with  8 coefficients,  rinner =    0.800   0.800   0.800

     PseudoPot. # 4 for H  read from file:
     /storage/coda1/p-amedford6/0/shared/rich_project_chbe-medford/medford-share/data/pseudos_module/espresso/nninc/pbe/van/H.UPF
     MD5 check sum: b5ee9d7bfd3a09ee7748110bda690ff7
     Pseudo is Ultrasoft, Zval =  1.0
     Generated by new atomic code, or converted to UPF format
     Using radial grid of  615 points,  1 beta functions with:
                l(1) =   0
     Q(r) pseudized with  8 coefficients,  rinner =    0.800

     atomic species   valence    mass     pseudopotential
        Ti1           12.00    47.86700     Ti( 1.00)
        O1             6.00    15.99900     O ( 1.00)
        N1             5.00    14.00700     N ( 1.00)
        H1             1.00     1.00800     H ( 1.00)

     No symmetry found

   Cartesian axes

     site n.     atom                  positions (alat units)
         1           Ti1 tau(   1) = (   0.0004258   2.9801865   6.0000000  )
         2           Ti1 tau(   2) = (   3.2906075   1.4906267   6.0002472  )
         3           O1  tau(   3) = (   0.0006271   0.0005054   7.9858123  )
         4           O1  tau(   4) = (   3.2906025   0.0005020   7.3038282  )
         5           O1  tau(   5) = (   4.5942328   1.4918067   9.2879030  )
         6           O1  tau(   6) = (   1.9868534   1.4903216   9.2879459  )
         7           Ti1 tau(   7) = (   3.2905188   2.9817269   9.1608671  )
         8           Ti1 tau(   8) = (   0.0008727   1.4903491   9.2579811  )
         9           O1  tau(   9) = (   3.2954587   0.0012773  11.3746546  )
        10           O1  tau(  10) = (   0.0020290   0.0006084  10.6073296  )
        11           O1  tau(  11) = (   1.2942686   1.4887116  12.6629798  )
        12           O1  tau(  12) = (   5.2972733   1.4890718  12.6650130  )
        13           Ti1 tau(  13) = (   0.0067627   2.9786896  12.5148789  )
        14           Ti1 tau(  14) = (   3.2982433   1.4907855  12.5198723  )
        15           O1  tau(  15) = (   0.0088675   5.9288053  14.6873217  )
        16           O1  tau(  16) = (   3.2976659   5.9545549  13.9976866  )
        17           O1  tau(  17) = (   4.5618459   1.5065800  16.1616785  )
        18           O1  tau(  18) = (   2.0406978   1.5054917  16.1618958  )
        19           Ti1 tau(  19) = (   3.3003398   2.9801551  15.7464260  )
        20           Ti1 tau(  20) = (   0.0122322   1.3591711  15.8926631  )
        21           O1  tau(  21) = (   3.2904802   0.0005063   4.7018136  )
        22           O1  tau(  22) = (   0.0111396   0.0327255  17.2179391  )
        23           O1  tau(  23) = (   1.3043587   1.4918075   6.0039043  )
        24           O1  tau(  24) = (   5.2767064   1.4903225   6.0039473  )
        25           Ti1 tau(  25) = (   0.0000382   5.9609847   6.0000000  )
        26           Ti1 tau(  26) = (   3.2902200   4.4714249   6.0002472  )
        27           O1  tau(  27) = (   0.0002396   2.9813036   7.9858123  )
        28           O1  tau(  28) = (   3.2902150   2.9813002   7.3038282  )
        29           O1  tau(  29) = (   4.5938453   4.4726049   9.2879030  )
        30           O1  tau(  30) = (   1.9864658   4.4711199   9.2879459  )
        31           Ti1 tau(  31) = (   3.2908958   0.0009406   9.1591437  )
        32           Ti1 tau(  32) = (   0.0004876   4.4725358   9.2579169  )
        33           O1  tau(  33) = (   3.2950182   2.9773574  11.3676543  )
        34           O1  tau(  34) = (   0.0019984   2.9784031  10.6274637  )
        35           O1  tau(  35) = (   1.2946310   4.4674284  12.6500497  )
        36           O1  tau(  36) = (   5.2961322   4.4668132  12.6522398  )
        37           Ti1 tau(  37) = (   0.0072964   5.9565020  12.4821340  )
        38           Ti1 tau(  38) = (   3.2980713   4.4687862  12.5160290  )
        39           O1  tau(  39) = (   0.0098827   2.9916113  14.9005182  )
        40           O1  tau(  40) = (   3.2960480   2.9848727  13.9584560  )
        41           O1  tau(  41) = (   4.5591248   4.4529439  16.1935040  )
        42           O1  tau(  42) = (   2.0431063   4.4547719  16.1917947  )
        43           Ti1 tau(  43) = (   3.3030955   0.0010839  15.7925060  )
        44           Ti1 tau(  44) = (   0.0111621   4.5610188  15.9796684  )
        45           O1  tau(  45) = (   3.2900926   2.9813045   4.7018136  )
        46           O1  tau(  46) = (   1.3039711   4.4726057   6.0039043  )
        47           O1  tau(  47) = (   5.2763189   4.4711207   6.0039473  )
        48           N1  tau(  48) = (   0.0348475   3.0484350  18.0388005  )
        49           H1  tau(  49) = (   0.0344738   2.0763216  18.3478120  )
        50           H1  tau(  50) = (   0.8651728   3.4882926  18.4352144  )
        51           H1  tau(  51) = (   5.8033537   3.4985160  18.4509717  )

     number of k points=    10  Fermi-Dirac smearing, width (Ry)=  0.0073
                       cart. coord. in units 2pi/alat
        k(    1) = (   0.0000000   0.0000000   0.0000000), wk =   0.1250000
        k(    2) = (   0.0000000   0.0419351   0.0000000), wk =   0.2500000
        k(    3) = (   0.0000000  -0.0838702   0.0000000), wk =   0.1250000
        k(    4) = (   0.0379955   0.0000049   0.0000000), wk =   0.2500000
        k(    5) = (   0.0379955   0.0419400   0.0000000), wk =   0.2500000
        k(    6) = (   0.0379955  -0.0838652   0.0000000), wk =   0.2500000
        k(    7) = (   0.0379955  -0.0419301   0.0000000), wk =   0.2500000
        k(    8) = (  -0.0759910  -0.0000099   0.0000000), wk =   0.1250000
        k(    9) = (  -0.0759910   0.0419252   0.0000000), wk =   0.2500000
        k(   10) = (  -0.0759910  -0.0838800   0.0000000), wk =   0.1250000

     Initial potential from superposition of free atoms

     starting charge  369.99921, renormalised to  386.00000

     negative rho (up, down):  1.971E-02 0.000E+00

     %%%%%%%%%%%%%%%%%%%%%%%%%%%%%%%%%%%%%%%%%%%%%%%%%%%%%%%%%%%%%%%%%%%%%%%%
     %                                                                      %
     % You are using vdW-DF, which was implemented by the Thonhauser group. %
     % Please cite the following two papers that made this development      %
     % possible and the two reviews that describe the various versions:     %
     %                                                                      %
     %   T. Thonhauser et al., PRL 115, 136402 (2015).                      %
     %   T. Thonhauser et al., PRB 76, 125112 (2007).                       %
     %   K. Berland et al., Rep. Prog. Phys. 78, 066501 (2015).             %
     %   D.C. Langreth et al., J. Phys.: Condens. Matter 21, 084203 (2009). %
     %                                                                      %
     %                                                                      %
     % If you are calculating the stress with vdW-DF, please also cite:     %
     %                                                                      %
     %   R. Sabatini et al., J. Phys.: Condens. Matter 24, 424209 (2012).   %
     %                                                                      %
     %%%%%%%%%%%%%%%%%%%%%%%%%%%%%%%%%%%%%%%%%%%%%%%%%%%%%%%%%%%%%%%%%%%%%%%%

     Adding external electric field

     Computed dipole along edir(3) :
        Dipole               -3.5664 Ry au,         -9.0649 Debye
        Dipole field         -0.0067 Ry au,

        Potential amp.        0.6239 Ry
        Total length         46.3494 bohr

     Starting wfcs are  291 atomic wfcs
  @ DRIVER MODE: Message from server: STATUS
  @ DRIVER MODE: Message from server: POSDATA
  @ DRIVER MODE: Reading and sharing cell
  @ DRIVER MODE: Reading and sharing positions
  @ DRIVER MODE: Received positions

     Self-consistent Calculation

     iteration #  1     ecut=    29.40 Ry     beta= 0.05
     Davidson diagonalization with overlap
     c_bands:  1 eigenvalues not converged
     c_bands:  2 eigenvalues not converged
     c_bands:  1 eigenvalues not converged
     c_bands:  4 eigenvalues not converged
     c_bands:  1 eigenvalues not converged
     c_bands:  1 eigenvalues not converged
     c_bands:  3 eigenvalues not converged
     ethr =  1.00E-05,  avg # of iterations = 20.0

[...]

     total energy              =   -2896.14165171 Ry
     estimated scf accuracy    <     156.25255102 Ry

     iteration #  2     ecut=    29.40 Ry     beta= 0.05
     Davidson diagonalization with overlap
     ethr =  1.00E-02,  avg # of iterations = 15.1

[...]

     iteration # 55     ecut=    29.40 Ry     beta= 0.05
     Davidson diagonalization with overlap
     c_bands:  1 eigenvalues not converged
     ethr =  2.40E-10,  avg # of iterations = 17.7

[...]

     total energy              =   -2907.69386985 Ry
     estimated scf accuracy    <       0.00000012 Ry

     iteration # 60     ecut=    29.40 Ry     beta= 0.05
     Davidson diagonalization with overlap
     ethr =  3.00E-11,  avg # of iterations = 11.7

     negative rho (up, down):  1.930E-02 0.000E+00

     Adding external electric field

     Computed dipole along edir(3) :
        Dipole                1.2485 Ry au,          3.1735 Debye
        Dipole field          0.0024 Ry au,

        Potential amp.       -0.2184 Ry
        Total length         46.3494 bohr

     End of self-consistent calculation

          k = 0.0000 0.0000 0.0000 ( 18029 PWs)   bands (ev):

   -55.6667 -55.6305 -55.6241 -55.5899 -55.5763 -55.5485 -55.5393 -55.5017
   -55.4953 -55.4943 -55.4601 -55.4587 -55.4490 -55.4150 -54.7101 -54.6760
   -32.2359 -32.1713 -32.1224 -32.0255 -31.9836 -31.9688 -31.9672 -31.9611
   -31.9149 -31.9101 -31.8734 -31.8724 -31.8703 -31.8692 -31.8411 -31.8213
   -31.8200 -31.8108 -31.8020 -31.7953 -31.7773 -31.7727 -31.7511 -31.7480
   -31.7431 -31.7279 -31.7199 -31.7188 -31.6842 -31.6796 -31.6684 -31.6531
   -31.6527 -31.6409 -31.6336 -31.6283 -31.6260 -31.5988 -31.5933 -31.5828
   -31.5811 -31.5627 -31.1218 -31.0207 -30.9991 -30.9380 -30.8516 -30.7406
   -16.5030 -16.2618 -16.1360 -15.9958 -15.8859 -15.8513 -15.7551 -15.7221
   -15.6085 -15.5205 -15.3960 -15.3505 -15.3240 -15.3187 -15.3066 -15.2880
   -15.2787 -15.2153 -15.1767 -15.1681 -15.1476 -15.1462 -15.1037 -15.1028
   -15.0461 -15.0300 -14.8935 -14.8186 -14.7578 -14.5062 -13.2114 -13.0923
    -6.0638  -5.9398  -3.8309  -3.6714  -3.6441  -3.5938  -3.5832  -3.4271
    -3.2673  -3.1347  -3.0896  -2.9516  -2.9178  -2.8698  -2.8415  -2.6935
    -2.6603  -2.6297  -2.5725  -2.5432  -2.5415  -2.5333  -2.5197  -2.4383
    -2.4357  -2.4174  -2.3014  -2.2514  -2.1407  -2.1101  -2.0465  -2.0292
    -1.9921  -1.9910  -1.9806  -1.9300  -1.9291  -1.9050  -1.8712  -1.8021
    -1.7064  -1.6572  -1.5620  -1.5299  -1.4187  -1.4157  -1.2483  -1.2287
    -1.1629  -1.1213  -1.1092  -1.0762  -1.0664  -1.0165  -0.9069  -0.8224
    -0.7839  -0.7218  -0.6709  -0.6382  -0.6011  -0.5278  -0.4577  -0.4505
    -0.4191  -0.3034  -0.2615  -0.2063  -0.1535  -0.1448  -0.1096  -0.0105
    -0.0053   0.0938   0.1005   0.1333   0.1614   0.2677   0.2761   0.2853
     0.3052   0.3063   0.3937   0.4321   0.4933   0.5090   0.6544   0.8693
     0.9056   0.9369   1.2083   1.2837   1.3152   1.4786   1.8980   1.9503
     3.4321   3.4963   3.5311   3.5610   3.5748   3.6417   3.9223   3.9247
     3.9377   3.9526   3.9881

[...]

          k = 0.0380-0.0419 0.0000 ( 17876 PWs)   bands (ev):

[...]

          k =-0.0760-0.0000 0.0000 ( 17886 PWs)   bands (ev):

[...]

          k =-0.0760-0.0839 0.0000 ( 17948 PWs)   bands (ev):

   -55.6504 -55.6467 -55.6071 -55.6067 -55.5717 -55.5454 -55.5283 -55.5128
   -55.4995 -55.4781 -55.4760 -55.4619 -55.4335 -55.4306 -54.6930 -54.6930
   -32.0906 -32.0404 -32.0373 -31.9539 -31.9373 -31.9371 -31.9257 -31.9004
   -31.9000 -31.8701 -31.8677 -31.8633 -31.8595 -31.8372 -31.8263 -31.8169
   -31.7945 -31.7935 -31.7935 -31.7902 -31.7877 -31.7851 -31.7831 -31.7444
   -31.7427 -31.7408 -31.7353 -31.7308 -31.7253 -31.7251 -31.7248 -31.7237
   -31.7050 -31.7014 -31.6892 -31.6761 -31.6745 -31.6569 -31.6539 -31.6445
   -31.6192 -31.6165 -31.0117 -31.0116 -30.9345 -30.9344 -30.8949 -30.8948
   -16.0612 -15.9263 -15.9104 -15.8568 -15.6943 -15.6812 -15.6507 -15.6318
   -15.4905 -15.4735 -15.4577 -15.4514 -15.4076 -15.3978 -15.3908 -15.3801
   -15.2609 -15.2566 -15.2462 -15.2429 -15.1748 -15.1716 -15.1684 -15.1516
   -15.1263 -15.1134 -15.0776 -15.0732 -14.9968 -14.8403 -13.1934 -13.1933
    -6.0222  -5.9441  -3.1861  -3.1458  -3.1208  -2.9031  -2.8689  -2.8409
    -2.8282  -2.7455  -2.6851  -2.6803  -2.6660  -2.6282  -2.5736  -2.5584
    -2.5525  -2.5173  -2.5070  -2.4917  -2.4586  -2.4448  -2.3887  -2.3598
    -2.3474  -2.3455  -2.3333  -2.3265  -2.3111  -2.2925  -2.2704  -2.2649
    -2.1473  -2.0431  -1.9966  -1.9879  -1.8861  -1.8833  -1.8820  -1.7946
    -1.7741  -1.7215  -1.7164  -1.6948  -1.4805  -1.4643  -1.4455  -1.4416
    -1.4166  -1.3383  -1.2607  -1.2332  -1.2170  -1.1626  -1.0486  -1.0169
    -0.9957  -0.9262  -0.8792  -0.8642  -0.8141  -0.6805  -0.6674  -0.6630
    -0.6487  -0.6433  -0.5859  -0.5803  -0.4992  -0.4527  -0.4013  -0.3890
    -0.3684  -0.1762  -0.1425  -0.0763   0.0204   0.0265   0.2022   0.2476
     0.2544   0.3574   0.3802   0.4173   0.4730   0.5947   0.6081   0.6452
     0.7203   0.7767   0.7773   0.7795   1.6668   1.6681   1.7683   1.7686
     3.5791   3.6683   3.6852   3.7483   3.8414   3.9443   3.9461   3.9608
     3.9903   3.9919   4.0957

     the Fermi energy is     3.4920 ev

!    total energy              =   -2907.69390754 Ry
     estimated scf accuracy    <       0.00000004 Ry
     smearing contrib. (-TS)   =      -0.03697609 Ry
     internal energy E=F+TS    =   -2907.65693145 Ry

     The total energy is F=E-TS. E is the sum of the following terms:
     one-electron contribution =  -24675.43779669 Ry
     hartree contribution      =   12422.54789661 Ry
     xc contribution           =    -476.54706798 Ry
     ewald contribution        =    9821.77709485 Ry
     electric field correction =       0.00294176 Ry

     convergence has been achieved in  60 iterations

     Forces acting on atoms (cartesian axes, Ry/au):

     atom    1 type  1   force =    -0.00000229    0.00004881    0.09118861
     atom    2 type  1   force =    -0.00012335    0.00034289   -0.18250101
     atom    3 type  2   force =     0.00003482   -0.00041382   -0.02466920
     atom    4 type  2   force =     0.00001256    0.00000798    0.05210972
     atom    5 type  2   force =    -0.01339171   -0.00057264    0.00484836
     atom    6 type  2   force =     0.01364100   -0.00009653    0.00500839
     atom    7 type  1   force =    -0.00000652   -0.00034249   -0.00326056
     atom    8 type  1   force =    -0.00006976    0.00364829    0.00359456
     atom    9 type  2   force =     0.00000714    0.00016320   -0.00018079
     atom   10 type  2   force =     0.00003568    0.00004524   -0.00037033
     atom   11 type  2   force =    -0.00002212    0.00019436    0.00017957
     atom   12 type  2   force =     0.00006717    0.00014648    0.00014229
     atom   13 type  1   force =     0.00012142    0.00055329   -0.00018309
     atom   14 type  1   force =     0.00010360   -0.00016054   -0.00073985
     atom   15 type  2   force =     0.00010259   -0.00003628   -0.00011052
     atom   16 type  2   force =    -0.00003733    0.00006374    0.00025095
     atom   17 type  2   force =     0.00062788    0.00014486    0.00005360
     atom   18 type  2   force =    -0.00054533    0.00015858    0.00006893
     atom   19 type  1   force =     0.00014019    0.00030545    0.00042049
     atom   20 type  1   force =     0.00005500   -0.00182795   -0.00048779
     atom   21 type  2   force =     0.00001230    0.00011605    0.10481628
     atom   22 type  2   force =     0.00007963    0.00058556    0.00140204
     atom   23 type  2   force =    -0.06841672   -0.00025398   -0.02641026
     atom   24 type  2   force =     0.06825531    0.00017513   -0.02646256
     atom   25 type  1   force =     0.00006873    0.00001407    0.09094981
     atom   26 type  1   force =    -0.00009179   -0.00043322   -0.18243946
     atom   27 type  2   force =     0.00002527    0.00005657   -0.02326088
     atom   28 type  2   force =     0.00000591    0.00001512    0.05199260
     atom   29 type  2   force =    -0.01322489   -0.00010439    0.00518563
     atom   30 type  2   force =     0.01346018    0.00041022    0.00533232
     atom   31 type  1   force =     0.00004659    0.00024319   -0.00293709
     atom   32 type  1   force =    -0.00008664   -0.00356553    0.00348461
     atom   33 type  2   force =     0.00001462   -0.00020061    0.00017922
     atom   34 type  2   force =     0.00001591   -0.00006810   -0.00065257
     atom   35 type  2   force =    -0.00008099   -0.00028530   -0.00002514
     atom   36 type  2   force =     0.00011847   -0.00023821   -0.00005144
     atom   37 type  1   force =     0.00009242   -0.00064656    0.00077308
     atom   38 type  1   force =     0.00009474    0.00015767   -0.00068337
     atom   39 type  2   force =     0.00004906   -0.00017069    0.00014466
     atom   40 type  2   force =     0.00009201   -0.00011011    0.00066204
     atom   41 type  2   force =     0.00044841   -0.00020069    0.00021047
     atom   42 type  2   force =    -0.00029613   -0.00021772    0.00026947
     atom   43 type  1   force =     0.00001696   -0.00040311   -0.00001408
     atom   44 type  1   force =     0.00010479    0.00042251    0.00033236
     atom   45 type  2   force =     0.00001366    0.00009445    0.10479108
     atom   46 type  2   force =    -0.06839567   -0.00014523   -0.02639159
     atom   47 type  2   force =     0.06825155    0.00028977   -0.02644294
     atom   48 type  3   force =     0.00577099    0.00408507    0.00331164
     atom   49 type  4   force =    -0.00072936   -0.00062413   -0.00076347
     atom   50 type  4   force =    -0.00479905   -0.00193849   -0.00331047
     atom   51 type  4   force =    -0.00166688    0.00056775    0.00064568

     Total force =     0.366328     Total SCF correction =     0.000427
  @ DRIVER MODE: Message from server: STATUS
  @ DRIVER MODE: Message from server: GETFORCE
  @ DRIVER MODE: Returning v,forces,stress,ensemble

     Writing output data file ./calc.save/
  @ DRIVER MODE: Message from server: EXIT
  @ DRIVE MODE: Exiting

     General routines

     Parallel routines

   This run was terminated on:  14:35:48  12Oct2021

   JOB DONE.