     Program PWSCF v.6.7GPU starts on 15Sep2021 at 18:24:14

     R & G space division:  proc/nbgrp/npool/nimage =      10
     Reading input from /storage/home/hcoda1/3/ntian30/research/carbon/CxH_vib/H2O_calc/ads_slab/CH3OHH2O_e/out_0009/pw.inp
Warning: card &CELL ignored
Warning: card   CELL_DYNAMICS='IPI', ignored
Warning: card / ignored

     Current dimensions of program PWSCF are:
     Max number of different atomic species (ntypx) = 10
     Max number of k-points (npk) =  40000
     Max angular momentum in pseudopotentials (lmaxx) =  3
     Presently no symmetry can be used with electric field

     Message from routine cell_base_init:
     DEPRECATED: use true lattice parameter, not A to a.u. conversion factor

     IMPORTANT: XC functional enforced from input :
     Exchange-correlation= BEEF-VDW
                           (   1   4  43  14   2   0   0)
     Any further DFT definition will be discarded
     Please, verify this is what you really want

  @ DRIVER MODE: Connecting to
 qe_1139763_2852623.sched-torque.pace.gatech.edup1gub_6p_scratch
  using UNIX socket
  @ DRIVER MODE: Message from server: STATUS
  @ DRIVER MODE: Message from server: INIT
  @ DRIVER MODE: Receiving replica           0          -1
  @ DRIVER MODE: Receiving encoded integer          25
  @ DRIVER MODE:  SCF:  T  FORCE:  T  STRESS:  F  VC:  F  ENSEMBLE:  F
  @ DRIVER MODE:  SCF:  T  FORCE:  T  STRESS:  F  VC:  F  ENSEMBLE:  F

     Using Slab Decomposition

     bravais-lattice index     =            0
     lattice parameter (alat)  =       1.8897  a.u.
     unit-cell volume          =    6658.9804 (a.u.)^3
     number of atoms/cell      =           56
     number of atomic types    =            4
     number of electrons       =       400.00
     number of Kohn-Sham states=          210
     kinetic-energy cutoff     =      29.3995  Ry
     charge density cutoff     =     293.9946  Ry
     scf convergence threshold =      7.3E-08
     mixing beta               =       0.0500
     number of iterations used =            8  plain     mixing
     Exchange-correlation= BEEF-VDW
                           (   1   4  43  14   2   0   0)

     celldm(1)=   1.889726  celldm(2)=   0.000000  celldm(3)=   0.000000
     celldm(4)=   0.000000  celldm(5)=   0.000000  celldm(6)=   0.000000

     crystal axes: (cart. coord. in units of alat)
               a(1) = (   6.579727   0.000000   0.000000 )
               a(2) = (  -0.000775   5.961596   0.000000 )
               a(3) = (   0.000000   0.000000  25.155947 )

     reciprocal axes: (cart. coord. in units 2 pi/alat)
               b(1) = (  0.151982  0.000020  0.000000 )
               b(2) = (  0.000000  0.167740  0.000000 )
               b(3) = (  0.000000  0.000000  0.039752 )

     PseudoPot. # 1 for Ti read from file:
     /storage/coda1/p-amedford6/0/shared/rich_project_chbe-medford/medford-share/data/pseudos_module/espresso/nninc/pbe/van/Ti.UPF
     MD5 check sum: 8e4df49b7f0d34bbd5052bf3f5ea0213
     Pseudo is Ultrasoft, Zval = 12.0
     Generated by new atomic code, or converted to UPF format
     Using radial grid of  851 points,  6 beta functions with:
                l(1) =   0
                l(2) =   0
                l(3) =   1
                l(4) =   1
                l(5) =   2
                l(6) =   2
     Q(r) pseudized with  8 coefficients,  rinner =    1.000   1.000   1.000
                                                       1.000   1.000

     PseudoPot. # 2 for O  read from file:
     /storage/coda1/p-amedford6/0/shared/rich_project_chbe-medford/medford-share/data/pseudos_module/espresso/nninc/pbe/van/O.UPF
     MD5 check sum: 78c19812648e8988a0fe644b0f25305e
     Pseudo is Ultrasoft, Zval =  6.0
     Generated by new atomic code, or converted to UPF format
     Using radial grid of  737 points,  4 beta functions with:
                l(1) =   0
                l(2) =   0
                l(3) =   1
                l(4) =   1
     Q(r) pseudized with  8 coefficients,  rinner =    0.800   0.800   0.800

     PseudoPot. # 3 for C  read from file:
     /storage/coda1/p-amedford6/0/shared/rich_project_chbe-medford/medford-share/data/pseudos_module/espresso/nninc/pbe/van/C.UPF
     MD5 check sum: 1a69bf6b8db32088f5b2163dbdb77a27
     Pseudo is Ultrasoft, Zval =  4.0
     Generated by new atomic code, or converted to UPF format
     Using radial grid of  721 points,  4 beta functions with:
                l(1) =   0
                l(2) =   0
                l(3) =   1
                l(4) =   1
     Q(r) pseudized with  8 coefficients,  rinner =    0.800   0.800   0.800

     PseudoPot. # 4 for H  read from file:
     /storage/coda1/p-amedford6/0/shared/rich_project_chbe-medford/medford-share/data/pseudos_module/espresso/nninc/pbe/van/H.UPF
     MD5 check sum: b5ee9d7bfd3a09ee7748110bda690ff7
     Pseudo is Ultrasoft, Zval =  1.0
     Generated by new atomic code, or converted to UPF format
     Using radial grid of  615 points,  1 beta functions with:
                l(1) =   0
     Q(r) pseudized with  8 coefficients,  rinner =    0.800

     atomic species   valence    mass     pseudopotential
        Ti1           12.00    47.86700     Ti( 1.00)
        O1             6.00    15.99900     O ( 1.00)
        C1             4.00    12.01100     C ( 1.00)
        H1             1.00     1.00800     H ( 1.00)

     No symmetry found

   Cartesian axes

     site n.     atom                  positions (alat units)
         1           Ti1 tau(   1) = (   0.0004258   2.9801865   6.0000000  )
         2           Ti1 tau(   2) = (   3.2906075   1.4906267   6.0002472  )
         3           O1  tau(   3) = (   0.0006271   0.0005054   7.9858123  )
         4           O1  tau(   4) = (   3.2906025   0.0005020   7.3038282  )
         5           O1  tau(   5) = (   4.5942328   1.4918067   9.2879030  )
         6           O1  tau(   6) = (   1.9868534   1.4903216   9.2879459  )
         7           Ti1 tau(   7) = (   3.3179988   2.9667087   9.1587561  )
         8           Ti1 tau(   8) = (   0.0368451   1.4888401   9.2646154  )
         9           O1  tau(   9) = (   3.2981896   5.9413050  11.3756853  )
        10           O1  tau(  10) = (   0.0022081   5.9550161  10.6068466  )
        11           O1  tau(  11) = (   1.2930414   1.4711740  12.6526869  )
        12           O1  tau(  12) = (   5.2963464   1.4745835  12.6500758  )
        13           Ti1 tau(  13) = (   0.0229324   2.9590759  12.5385950  )
        14           Ti1 tau(  14) = (   3.3157970   1.4644123  12.5194148  )
        15           O1  tau(  15) = (   6.5691168   5.9481840  14.6869282  )
        16           O1  tau(  16) = (   3.2964787   5.9455965  14.0277316  )
        17           O1  tau(  17) = (   4.5665908   1.5027878  16.2081754  )
        18           O1  tau(  18) = (   2.0283028   1.5092035  16.1774433  )
        19           Ti1 tau(  19) = (   3.2999954   2.9453206  15.7178785  )
        20           Ti1 tau(  20) = (   6.5724188   1.3235339  15.9896992  )
        21           O1  tau(  21) = (   3.2904802   0.0005063   4.7018136  )
        22           O1  tau(  22) = (   0.0286320   5.9425150  17.2304330  )
        23           O1  tau(  23) = (   1.3043587   1.4918075   6.0039043  )
        24           O1  tau(  24) = (   5.2767064   1.4903225   6.0039473  )
        25           Ti1 tau(  25) = (   0.0000382   5.9609847   6.0000000  )
        26           Ti1 tau(  26) = (   3.2902200   4.4714249   6.0002472  )
        27           O1  tau(  27) = (   0.0002396   2.9813036   7.9858123  )
        28           O1  tau(  28) = (   3.2902150   2.9813002   7.3038282  )
        29           O1  tau(  29) = (   4.5938453   4.4726049   9.2879030  )
        30           O1  tau(  30) = (   1.9864658   4.4711199   9.2879459  )
        31           Ti1 tau(  31) = (   3.3176359   5.9492212   9.1540102  )
        32           Ti1 tau(  32) = (   0.0367062   4.4560090   9.2708352  )
        33           O1  tau(  33) = (   3.2951800   2.9650663  11.3684769  )
        34           O1  tau(  34) = (   0.0080098   2.9764013  10.6279654  )
        35           O1  tau(  35) = (   1.2931912   4.4560454  12.6592269  )
        36           O1  tau(  36) = (   5.2946864   4.4524020  12.6579832  )
        37           Ti1 tau(  37) = (   0.0159028   5.9413441  12.4831893  )
        38           Ti1 tau(  38) = (   3.3151975   4.4500431  12.5204281  )
        39           O1  tau(  39) = (   0.0034497   2.9621527  14.8596962  )
        40           O1  tau(  40) = (   3.2989893   2.9535984  13.9376031  )
        41           O1  tau(  41) = (   4.5724332   4.4114593  16.1445292  )
        42           O1  tau(  42) = (   2.0255208   4.3883007  16.1585022  )
        43           Ti1 tau(  43) = (   3.2821299   5.9114753  15.8432964  )
        44           Ti1 tau(  44) = (   6.5414858   4.5242847  15.8739915  )
        45           O1  tau(  45) = (   3.2900926   2.9813045   4.7018136  )
        46           O1  tau(  46) = (   1.3039711   4.4726057   6.0039043  )
        47           O1  tau(  47) = (   5.2763189   4.4711207   6.0039473  )
        48           C1  tau(  48) = (   5.9754720   3.1749164  18.9278073  )
        49           O1  tau(  49) = (   0.1533887   3.0170296  17.7012840  )
        50           H1  tau(  50) = (   4.9293134   3.0706859  18.6584277  )
        51           H1  tau(  51) = (   1.0910173   3.2466920  17.8500278  )
        52           H1  tau(  52) = (   6.2690755   2.3937635  19.6305738  )
        53           H1  tau(  53) = (   6.1431946   4.1694627  19.3379575  )
        54           O1  tau(  54) = (   3.1723115   5.9428592  18.3689464  )
        55           H1  tau(  55) = (   3.8852673   0.6353712  18.4582360  )
        56           H1  tau(  56) = (   2.3406934   0.4831942  18.3201771  )

     number of k points=    10  Fermi-Dirac smearing, width (Ry)=  0.0073
                       cart. coord. in units 2pi/alat
        k(    1) = (   0.0000000   0.0000000   0.0000000), wk =   0.1250000
        k(    2) = (   0.0000000   0.0419351   0.0000000), wk =   0.2500000
        k(    3) = (   0.0000000  -0.0838702   0.0000000), wk =   0.1250000
        k(    4) = (   0.0379955   0.0000049   0.0000000), wk =   0.2500000
        k(    5) = (   0.0379955   0.0419400   0.0000000), wk =   0.2500000
        k(    6) = (   0.0379955  -0.0838652   0.0000000), wk =   0.2500000
        k(    7) = (   0.0379955  -0.0419301   0.0000000), wk =   0.2500000
        k(    8) = (  -0.0759910  -0.0000099   0.0000000), wk =   0.1250000
        k(    9) = (  -0.0759910   0.0419252   0.0000000), wk =   0.2500000
        k(   10) = (  -0.0759910  -0.0838800   0.0000000), wk =   0.1250000

     Initial potential from superposition of free atoms

     starting charge  383.99915, renormalised to  400.00000

     negative rho (up, down):  1.599E-02 0.000E+00

     %%%%%%%%%%%%%%%%%%%%%%%%%%%%%%%%%%%%%%%%%%%%%%%%%%%%%%%%%%%%%%%%%%%%%%%%
     %                                                                      %
     % You are using vdW-DF, which was implemented by the Thonhauser group. %
     % Please cite the following two papers that made this development      %
     % possible and the two reviews that describe the various versions:     %
     %                                                                      %
     %   T. Thonhauser et al., PRL 115, 136402 (2015).                      %
     %   T. Thonhauser et al., PRB 76, 125112 (2007).                       %
     %   K. Berland et al., Rep. Prog. Phys. 78, 066501 (2015).             %
     %   D.C. Langreth et al., J. Phys.: Condens. Matter 21, 084203 (2009). %
     %                                                                      %
     %                                                                      %
     % If you are calculating the stress with vdW-DF, please also cite:     %
     %                                                                      %
     %   R. Sabatini et al., J. Phys.: Condens. Matter 24, 424209 (2012).   %
     %                                                                      %
     %%%%%%%%%%%%%%%%%%%%%%%%%%%%%%%%%%%%%%%%%%%%%%%%%%%%%%%%%%%%%%%%%%%%%%%%

     Adding external electric field

     Computed dipole along edir(3) :
        Dipole              -11.7400 Ry au,        -29.8402 Debye
        Dipole field         -0.0222 Ry au,

        Potential amp.        2.0537 Ry
        Total length         46.3494 bohr

     Starting wfcs are  302 atomic wfcs
  @ DRIVER MODE: Message from server: STATUS
  @ DRIVER MODE: Message from server: POSDATA
  @ DRIVER MODE: Reading and sharing cell
  @ DRIVER MODE: Reading and sharing positions
  @ DRIVER MODE: Received positions

     Self-consistent Calculation

     iteration #  1     ecut=    29.40 Ry     beta= 0.05
     Davidson diagonalization with overlap
     c_bands:  2 eigenvalues not converged
     c_bands:  2 eigenvalues not converged
     c_bands:  4 eigenvalues not converged
     c_bands:  2 eigenvalues not converged
     c_bands:  4 eigenvalues not converged
     c_bands:  4 eigenvalues not converged
     c_bands:  3 eigenvalues not converged
     c_bands:  2 eigenvalues not converged
     ethr =  1.00E-05,  avg # of iterations = 21.3

[...]

     total energy              =   -2420.23439808 Ry
     estimated scf accuracy    <    6189.11340986 Ry

     iteration #  2     ecut=    29.40 Ry     beta= 0.05
     Davidson diagonalization with overlap
     ethr =  1.00E-02,  avg # of iterations = 28.6

[...]

     iteration # 73     ecut=    29.40 Ry     beta= 0.05
     Davidson diagonalization with overlap
     c_bands:  3 eigenvalues not converged
     c_bands:  2 eigenvalues not converged
     c_bands:  1 eigenvalues not converged
     ethr =  6.39E-11,  avg # of iterations = 13.7

[...]

     total energy              =   -2967.47595394 Ry
     estimated scf accuracy    <       0.00000008 Ry

     iteration # 76     ecut=    29.40 Ry     beta= 0.05
     Davidson diagonalization with overlap
     ethr =  2.12E-11,  avg # of iterations =  7.0

     negative rho (up, down):  1.588E-02 0.000E+00

     Adding external electric field

     Computed dipole along edir(3) :
        Dipole                1.3770 Ry au,          3.4999 Debye
        Dipole field          0.0026 Ry au,

        Potential amp.       -0.2409 Ry
        Total length         46.3494 bohr

     End of self-consistent calculation

          k = 0.0000 0.0000 0.0000 ( 18029 PWs)   bands (ev):

   -55.2504 -55.2232 -55.2143 -55.1888 -55.1570 -55.1489 -55.1434 -55.0967
   -55.0959 -55.0897 -55.0555 -55.0379 -55.0081 -55.0039 -54.3122 -54.2781
   -31.8171 -31.7664 -31.7183 -31.6278 -31.5652 -31.5552 -31.5506 -31.5480
   -31.5118 -31.4823 -31.4662 -31.4637 -31.4526 -31.4426 -31.4284 -31.4142
   -31.3969 -31.3905 -31.3874 -31.3831 -31.3773 -31.3680 -31.3451 -31.3407
   -31.3391 -31.3190 -31.3160 -31.3145 -31.2934 -31.2805 -31.2645 -31.2437
   -31.2424 -31.2416 -31.2301 -31.2210 -31.2026 -31.1891 -31.1773 -31.1727
   -31.1598 -31.1491 -30.7242 -30.6218 -30.6002 -30.5404 -30.4541 -30.3430
   -20.1528 -19.0850 -16.0798 -15.8328 -15.6929 -15.5944 -15.4736 -15.3400
   -15.2798 -15.1650 -15.0741 -14.9840 -14.9690 -14.9505 -14.9212 -14.8985
   -14.8737 -14.8355 -14.8096 -14.7656 -14.7567 -14.7403 -14.7336 -14.6970
   -14.6936 -14.6488 -14.6404 -14.4833 -14.4133 -14.3531 -14.1311 -12.8126
   -12.6932 -11.1783  -6.9172  -6.8504  -5.1334  -5.0087  -3.4193  -3.2627
    -3.2262  -3.2021  -3.1836  -3.1430  -3.0604  -2.9624  -2.7891  -2.6797
    -2.5445  -2.5347  -2.4880  -2.4613  -2.4048  -2.3210  -2.2342  -2.2077
    -2.1719  -2.1393  -2.1360  -2.1206  -2.1106  -2.0534  -2.0181  -1.9603
    -1.8629  -1.8150  -1.7719  -1.7555  -1.6947  -1.6515  -1.6168  -1.5891
    -1.5825  -1.5763  -1.5175  -1.5156  -1.5072  -1.4960  -1.4783  -1.2894
    -1.2503  -1.1177  -1.0264  -0.9860  -0.9720  -0.8180  -0.8110  -0.7667
    -0.7333  -0.6994  -0.6590  -0.6012  -0.5037  -0.4727  -0.4214  -0.3835
    -0.2754  -0.2432  -0.2120  -0.1578  -0.0504  -0.0421  -0.0162   0.0027
     0.0772   0.1729   0.2023   0.2235   0.3003   0.3055   0.3668   0.4074
     0.4411   0.5160   0.5612   0.5725   0.6642   0.6811   0.6946   0.7213
     0.7247   0.8233   0.8594   0.9040   0.9224   1.0741   1.1684   1.3080
     1.3366   1.6033   1.6984   1.7140   1.8743   2.2998   2.3546   3.8406
     3.9090   3.9475   3.9551   3.9684   4.0480   4.3316   4.3471   4.3590
     4.3686   4.3867

[...]

          k = 0.0380-0.0419 0.0000 ( 17876 PWs)   bands (ev):

[...]

          k =-0.0760-0.0000 0.0000 ( 17886 PWs)   bands (ev):

[...]

          k =-0.0760-0.0839 0.0000 ( 17948 PWs)   bands (ev):

   -55.2333 -55.2312 -55.2078 -55.2040 -55.1539 -55.1430 -55.1361 -55.1041
   -55.1025 -55.0739 -55.0710 -55.0227 -55.0191 -55.0100 -54.2951 -54.2950
   -31.6834 -31.6242 -31.6172 -31.5351 -31.5313 -31.5173 -31.5057 -31.5008
   -31.4934 -31.4725 -31.4544 -31.4489 -31.4447 -31.4312 -31.4055 -31.4028
   -31.3912 -31.3888 -31.3817 -31.3809 -31.3774 -31.3741 -31.3615 -31.3477
   -31.3395 -31.3343 -31.3338 -31.3276 -31.3246 -31.3241 -31.3236 -31.3054
   -31.2979 -31.2957 -31.2769 -31.2722 -31.2716 -31.2477 -31.2439 -31.2089
   -31.2047 -31.1917 -30.6128 -30.6127 -30.5370 -30.5367 -30.4973 -30.4972
   -20.1494 -19.0843 -15.6381 -15.5393 -15.3891 -15.2660 -15.2537 -15.2410
   -15.1889 -15.1245 -15.1107 -15.0605 -15.0481 -15.0169 -15.0011 -14.9951
   -14.9591 -14.8507 -14.8466 -14.8362 -14.8155 -14.7706 -14.7596 -14.7525
   -14.7404 -14.7041 -14.6957 -14.6814 -14.6710 -14.5789 -14.4406 -12.7945
   -12.7938 -11.1801  -6.9128  -6.8513  -5.1349  -4.9868  -3.1824  -2.9879
    -2.8074  -2.7284  -2.6310  -2.4839  -2.4691  -2.3880  -2.3762  -2.3259
    -2.2549  -2.2519  -2.2484  -2.1666  -2.1549  -2.1548  -2.1334  -2.1142
    -2.0733  -2.0649  -2.0412  -2.0309  -1.9895  -1.9589  -1.9459  -1.9286
    -1.9185  -1.9146  -1.8836  -1.8685  -1.8534  -1.8132  -1.7901  -1.7279
    -1.6408  -1.6032  -1.4806  -1.4779  -1.4403  -1.4131  -1.3877  -1.3471
    -1.3271  -1.2791  -1.2583  -1.2338  -1.0500  -1.0341  -0.9795  -0.9400
    -0.9208  -0.9066  -0.8445  -0.7725  -0.7457  -0.7145  -0.6484  -0.5753
    -0.4795  -0.4552  -0.4467  -0.3410  -0.2886  -0.2493  -0.2448  -0.2354
    -0.2113  -0.1631  -0.1432  -0.0813  -0.0424   0.0013   0.0267   0.0436
     0.2248   0.2633   0.3219   0.4128   0.4418   0.5871   0.6353   0.6874
     0.7478   0.8243   0.8351   0.9013   1.0154   1.0276   1.0575   1.1346
     1.1779   1.1837   1.2087   2.0653   2.0674   2.1688   2.1719   3.9707
     4.0779   4.0965   4.1755   4.2418   4.3499   4.3630   4.3922   4.4026
     4.4469   4.4815

     the Fermi energy is     3.8971 ev

!    total energy              =   -2967.47596780 Ry
     estimated scf accuracy    <       0.00000006 Ry
     smearing contrib. (-TS)   =      -0.03653772 Ry
     internal energy E=F+TS    =   -2967.43943008 Ry

     The total energy is F=E-TS. E is the sum of the following terms:
     one-electron contribution =  -23962.75061099 Ry
     hartree contribution      =   12076.97443812 Ry
     xc contribution           =    -491.85660637 Ry
     ewald contribution        =    9410.18977114 Ry
     electric field correction =       0.00357801 Ry

     convergence has been achieved in  76 iterations

     Forces acting on atoms (cartesian axes, Ry/au):

     atom    1 type  1   force =    -0.00027173    0.00019584    0.09243799
     atom    2 type  1   force =    -0.00035443    0.00104850   -0.18342099
     atom    3 type  2   force =     0.00050508   -0.00072450   -0.02347940
     atom    4 type  2   force =     0.00072455   -0.00018714    0.05071132
     atom    5 type  2   force =    -0.01403489   -0.00131866    0.00496381
     atom    6 type  2   force =     0.01520088   -0.00065292    0.00510288
     atom    7 type  1   force =    -0.00048021    0.00105864   -0.00012252
     atom    8 type  1   force =     0.00016096   -0.00053779    0.00040496
     atom    9 type  2   force =    -0.00043973    0.00017456    0.00041175
     atom   10 type  2   force =     0.00040876    0.00016543    0.00047232
     atom   11 type  2   force =     0.00037065    0.00044083    0.00035339
     atom   12 type  2   force =     0.00004367    0.00014127    0.00028178
     atom   13 type  1   force =    -0.00088417   -0.00118828   -0.00009337
     atom   14 type  1   force =     0.00059057   -0.00005123    0.00021235
     atom   15 type  2   force =     0.00050893    0.00049411    0.00003708
     atom   16 type  2   force =    -0.00061323   -0.00038195    0.00005527
     atom   17 type  2   force =    -0.00000070    0.00018746   -0.00045621
     atom   18 type  2   force =    -0.00000017    0.00021496   -0.00034958
     atom   19 type  1   force =     0.00063917   -0.00017669   -0.00030894
     atom   20 type  1   force =    -0.00002578    0.00028473    0.00007445
     atom   21 type  2   force =    -0.00004235    0.00015643    0.10499348
     atom   22 type  2   force =    -0.00034670   -0.00021425   -0.00088379
     atom   23 type  2   force =    -0.06802868    0.00012942   -0.02682414
     atom   24 type  2   force =     0.06775049    0.00053278   -0.02689153
     atom   25 type  1   force =    -0.00038592   -0.00009417    0.09622775
     atom   26 type  1   force =    -0.00035608   -0.00099840   -0.18321336
     atom   27 type  2   force =     0.00041813   -0.00125160   -0.02225126
     atom   28 type  2   force =     0.00070165   -0.00033461    0.05102826
     atom   29 type  2   force =    -0.01422155   -0.00106338    0.00467185
     atom   30 type  2   force =     0.01517272    0.00021263    0.00485675
     atom   31 type  1   force =    -0.00049573   -0.00146212    0.00018222
     atom   32 type  1   force =     0.00013523    0.00070927   -0.00026596
     atom   33 type  2   force =     0.00002140   -0.00020849    0.00008441
     atom   34 type  2   force =     0.00002463   -0.00006811   -0.00007871
     atom   35 type  2   force =     0.00023032    0.00007629    0.00031411
     atom   36 type  2   force =     0.00037937    0.00044573    0.00005933
     atom   37 type  1   force =    -0.00106645    0.00124653   -0.00005308
     atom   38 type  1   force =     0.00038154    0.00010834   -0.00043945
     atom   39 type  2   force =     0.00039664    0.00019265   -0.00035433
     atom   40 type  2   force =    -0.00008134    0.00020188    0.00007177
     atom   41 type  2   force =    -0.00014330    0.00016250   -0.00047644
     atom   42 type  2   force =    -0.00006485   -0.00009300    0.00036417
     atom   43 type  1   force =    -0.00059330    0.00024845    0.00021102
     atom   44 type  1   force =    -0.00003366    0.00012219   -0.00109113
     atom   45 type  2   force =    -0.00005488    0.00015063    0.10492935
     atom   46 type  2   force =    -0.06807284   -0.00038838   -0.02682062
     atom   47 type  2   force =     0.06779430    0.00004957   -0.02690461
     atom   48 type  3   force =    -0.00024884   -0.00188328   -0.00063104
     atom   49 type  2   force =     0.00265842    0.00478355    0.00280009
     atom   50 type  4   force =     0.00039010    0.00063314    0.00022541
     atom   51 type  4   force =    -0.00294265   -0.00048644   -0.00123549
     atom   52 type  4   force =    -0.00093329    0.00090078    0.00042921
     atom   53 type  4   force =     0.00052250   -0.00015793   -0.00096023
     atom   54 type  2   force =     0.00086473   -0.00023161    0.00106101
     atom   55 type  4   force =    -0.00084413   -0.00036707   -0.00058479
     atom   56 type  4   force =    -0.00093382   -0.00094705    0.00016145

     Total force =     0.368307     Total SCF correction =     0.000773
  @ DRIVER MODE: Message from server: STATUS
  @ DRIVER MODE: Message from server: GETFORCE
  @ DRIVER MODE: Returning v,forces,stress,ensemble

     Writing output data file ./calc.save/
  @ DRIVER MODE: Message from server: EXIT
  @ DRIVE MODE: Exiting

     General routines

     Parallel routines

   This run was terminated on:  18:44: 4  15Sep2021

   JOB DONE.