     Program PWSCF v.6.7GPU starts on 18Aug2021 at 12:10:19

     R & G space division:  proc/nbgrp/npool/nimage =       6
     Reading input from /storage/home/hcoda1/3/ntian30/research/carbon/CH3_vib_side_on/ads_slab/CH3N2_c/out_0002/pw.inp
Warning: card &CELL ignored
Warning: card   CELL_DYNAMICS='IPI', ignored
Warning: card / ignored

     Current dimensions of program PWSCF are:
     Max number of different atomic species (ntypx) = 10
     Max number of k-points (npk) =  40000
     Max angular momentum in pseudopotentials (lmaxx) =  3
     Presently no symmetry can be used with electric field

     Message from routine cell_base_init:
     DEPRECATED: use true lattice parameter, not A to a.u. conversion factor

     IMPORTANT: XC functional enforced from input :
     Exchange-correlation= BEEF-VDW
                           (   1   4  43  14   2   0   0)
     Any further DFT definition will be discarded
     Please, verify this is what you really want

  @ DRIVER MODE: Connecting to
 qe_1139763_2594174.sched-torque.pace.gatech.edu9pyfyx8t_scratch
  using UNIX socket
  @ DRIVER MODE: Message from server: STATUS
  @ DRIVER MODE: Message from server: INIT
  @ DRIVER MODE: Receiving replica           0          -1
  @ DRIVER MODE: Receiving encoded integer          25
  @ DRIVER MODE:  SCF:  T  FORCE:  T  STRESS:  F  VC:  F  ENSEMBLE:  F
  @ DRIVER MODE:  SCF:  T  FORCE:  T  STRESS:  F  VC:  F  ENSEMBLE:  F

     Using Slab Decomposition

     bravais-lattice index     =            0
     lattice parameter (alat)  =       1.8897  a.u.
     unit-cell volume          =    6658.9804 (a.u.)^3
     number of atoms/cell      =           53
     number of atomic types    =            5
     number of electrons       =       395.00
     number of Kohn-Sham states=          207
     kinetic-energy cutoff     =      29.3995  Ry
     charge density cutoff     =     293.9946  Ry
     scf convergence threshold =      7.3E-08
     mixing beta               =       0.0500
     number of iterations used =            8  plain     mixing
     Exchange-correlation= BEEF-VDW
                           (   1   4  43  14   2   0   0)

     celldm(1)=   1.889726  celldm(2)=   0.000000  celldm(3)=   0.000000
     celldm(4)=   0.000000  celldm(5)=   0.000000  celldm(6)=   0.000000

     crystal axes: (cart. coord. in units of alat)
               a(1) = (   6.579727   0.000000   0.000000 )
               a(2) = (  -0.000775   5.961596   0.000000 )
               a(3) = (   0.000000   0.000000  25.155947 )

     reciprocal axes: (cart. coord. in units 2 pi/alat)
               b(1) = (  0.151982  0.000020  0.000000 )
               b(2) = (  0.000000  0.167740  0.000000 )
               b(3) = (  0.000000  0.000000  0.039752 )

     PseudoPot. # 1 for Ti read from file:
     /storage/coda1/p-amedford6/0/shared/rich_project_chbe-medford/medford-share/data/pseudos_module/espresso/nninc/pbe/van/Ti.UPF
     MD5 check sum: 8e4df49b7f0d34bbd5052bf3f5ea0213
     Pseudo is Ultrasoft, Zval = 12.0
     Generated by new atomic code, or converted to UPF format
     Using radial grid of  851 points,  6 beta functions with:
                l(1) =   0
                l(2) =   0
                l(3) =   1
                l(4) =   1
                l(5) =   2
                l(6) =   2
     Q(r) pseudized with  8 coefficients,  rinner =    1.000   1.000   1.000
                                                       1.000   1.000

     PseudoPot. # 2 for O  read from file:
     /storage/coda1/p-amedford6/0/shared/rich_project_chbe-medford/medford-share/data/pseudos_module/espresso/nninc/pbe/van/O.UPF
     MD5 check sum: 78c19812648e8988a0fe644b0f25305e
     Pseudo is Ultrasoft, Zval =  6.0
     Generated by new atomic code, or converted to UPF format
     Using radial grid of  737 points,  4 beta functions with:
                l(1) =   0
                l(2) =   0
                l(3) =   1
                l(4) =   1
     Q(r) pseudized with  8 coefficients,  rinner =    0.800   0.800   0.800

     PseudoPot. # 3 for N  read from file:
     /storage/coda1/p-amedford6/0/shared/rich_project_chbe-medford/medford-share/data/pseudos_module/espresso/nninc/pbe/van/N.UPF
     MD5 check sum: 90d10febe142ad51ac9d5be1deb811c4
     Pseudo is Ultrasoft, Zval =  5.0
     Generated by new atomic code, or converted to UPF format
     Using radial grid of  729 points,  4 beta functions with:
                l(1) =   0
                l(2) =   0
                l(3) =   1
                l(4) =   1
     Q(r) pseudized with  8 coefficients,  rinner =    0.800   0.800   0.800

     PseudoPot. # 4 for C  read from file:
     /storage/coda1/p-amedford6/0/shared/rich_project_chbe-medford/medford-share/data/pseudos_module/espresso/nninc/pbe/van/C.UPF
     MD5 check sum: 1a69bf6b8db32088f5b2163dbdb77a27
     Pseudo is Ultrasoft, Zval =  4.0
     Generated by new atomic code, or converted to UPF format
     Using radial grid of  721 points,  4 beta functions with:
                l(1) =   0
                l(2) =   0
                l(3) =   1
                l(4) =   1
     Q(r) pseudized with  8 coefficients,  rinner =    0.800   0.800   0.800

     PseudoPot. # 5 for H  read from file:
     /storage/coda1/p-amedford6/0/shared/rich_project_chbe-medford/medford-share/data/pseudos_module/espresso/nninc/pbe/van/H.UPF
     MD5 check sum: b5ee9d7bfd3a09ee7748110bda690ff7
     Pseudo is Ultrasoft, Zval =  1.0
     Generated by new atomic code, or converted to UPF format
     Using radial grid of  615 points,  1 beta functions with:
                l(1) =   0
     Q(r) pseudized with  8 coefficients,  rinner =    0.800

     atomic species   valence    mass     pseudopotential
        Ti1           12.00    47.86700     Ti( 1.00)
        O1             6.00    15.99900     O ( 1.00)
        N1             5.00    14.00700     N ( 1.00)
        C1             4.00    12.01100     C ( 1.00)
        H1             1.00     1.00800     H ( 1.00)

     No symmetry found

   Cartesian axes

     site n.     atom                  positions (alat units)
         1           Ti1 tau(   1) = (   0.0004258   2.9801865   6.0000000  )
         2           Ti1 tau(   2) = (   3.2906075   1.4906267   6.0002472  )
         3           O1  tau(   3) = (   0.0006271   0.0005054   7.9858123  )
         4           O1  tau(   4) = (   3.2906025   0.0005020   7.3038282  )
         5           O1  tau(   5) = (   4.5942328   1.4918067   9.2879030  )
         6           O1  tau(   6) = (   1.9868534   1.4903216   9.2879459  )
         7           Ti1 tau(   7) = (   3.2907910   2.8959150   9.1758416  )
         8           Ti1 tau(   8) = (   0.0015273   1.4827037   9.2680791  )
         9           O1  tau(   9) = (   3.2868105   5.9447858  11.3346005  )
        10           O1  tau(  10) = (   0.0116148   5.9584955  10.6183126  )
        11           O1  tau(  11) = (   1.2897616   1.4699164  12.6258314  )
        12           O1  tau(  12) = (   5.2713851   1.4716199  12.6109895  )
        13           Ti1 tau(  13) = (   0.0629619   2.9460495  12.6207869  )
        14           Ti1 tau(  14) = (   3.3778125   1.4702366  12.4807322  )
        15           O1  tau(  15) = (   6.5741670   5.9392046  14.6271830  )
        16           O1  tau(  16) = (   3.2925211   5.9405975  13.9303826  )
        17           O1  tau(  17) = (   4.5331425   1.4971777  16.0590535  )
        18           O1  tau(  18) = (   2.0416154   1.4974824  16.0477615  )
        19           Ti1 tau(  19) = (   3.2901388   2.9722967  15.7036181  )
        20           Ti1 tau(  20) = (   6.5714728   1.5019933  15.8140906  )
        21           O1  tau(  21) = (   3.2904802   0.0005063   4.7018136  )
        22           O1  tau(  22) = (   6.5775371   0.0159386  17.1814867  )
        23           O1  tau(  23) = (   1.3043587   1.4918075   6.0039043  )
        24           O1  tau(  24) = (   5.2767064   1.4903225   6.0039473  )
        25           Ti1 tau(  25) = (   0.0000382   5.9609847   6.0000000  )
        26           Ti1 tau(  26) = (   3.2902200   4.4714249   6.0002472  )
        27           O1  tau(  27) = (   0.0002396   2.9813036   7.9858123  )
        28           O1  tau(  28) = (   3.2902150   2.9813002   7.3038282  )
        29           O1  tau(  29) = (   4.5938453   4.4726049   9.2879030  )
        30           O1  tau(  30) = (   1.9864658   4.4711199   9.2879459  )
        31           Ti1 tau(  31) = (   3.2891106   5.8743827   9.1763621  )
        32           Ti1 tau(  32) = (   0.0006254   4.4649316   9.2693709  )
        33           O1  tau(  33) = (   3.2909631   2.9655588  11.3316111  )
        34           O1  tau(  34) = (   0.0092240   2.9805883  10.6323155  )
        35           O1  tau(  35) = (   1.2884032   4.4536117  12.6269208  )
        36           O1  tau(  36) = (   5.2752684   4.4605011  12.6109535  )
        37           Ti1 tau(  37) = (   0.0626277   5.9200555  12.5524633  )
        38           Ti1 tau(  38) = (   3.3797810   4.4486816  12.4846537  )
        39           O1  tau(  39) = (   6.5720240   2.9440667  14.6479771  )
        40           O1  tau(  40) = (   3.2941106   2.9728877  13.9057494  )
        41           O1  tau(  41) = (   4.5311790   4.4530262  16.1020043  )
        42           O1  tau(  42) = (   2.0427069   4.4534008  16.0946336  )
        43           Ti1 tau(  43) = (   3.2818950   5.9508925  15.7274921  )
        44           Ti1 tau(  44) = (   6.5750914   4.6476268  16.0792144  )
        45           O1  tau(  45) = (   3.2900926   2.9813045   4.7018136  )
        46           O1  tau(  46) = (   1.3039711   4.4726057   6.0039043  )
        47           O1  tau(  47) = (   5.2763189   4.4711207   6.0039473  )
        48           N1  tau(  48) = (   0.0895740   2.6614725  18.6386781  )
        49           N1  tau(  49) = (   0.0132033   2.8794178  17.4383708  )
        50           C1  tau(  50) = (   0.1510961   3.8031638  19.5808395  )
        51           H1  tau(  51) = (   6.4701351   4.7592986  19.1328852  )
        52           H1  tau(  52) = (   6.0910372   3.5604803  20.4266230  )
        53           H1  tau(  53) = (   1.1812797   3.8285794  19.9476819  )

     number of k points=    10  Fermi-Dirac smearing, width (Ry)=  0.0073
                       cart. coord. in units 2pi/alat
        k(    1) = (   0.0000000   0.0000000   0.0000000), wk =   0.1250000
        k(    2) = (   0.0000000   0.0419351   0.0000000), wk =   0.2500000
        k(    3) = (   0.0000000  -0.0838702   0.0000000), wk =   0.1250000
        k(    4) = (   0.0379955   0.0000049   0.0000000), wk =   0.2500000
        k(    5) = (   0.0379955   0.0419400   0.0000000), wk =   0.2500000
        k(    6) = (   0.0379955  -0.0838652   0.0000000), wk =   0.2500000
        k(    7) = (   0.0379955  -0.0419301   0.0000000), wk =   0.2500000
        k(    8) = (  -0.0759910  -0.0000099   0.0000000), wk =   0.1250000
        k(    9) = (  -0.0759910   0.0419252   0.0000000), wk =   0.2500000
        k(   10) = (  -0.0759910  -0.0838800   0.0000000), wk =   0.1250000

     Initial potential from superposition of free atoms

     starting charge  378.99916, renormalised to  395.00000

     negative rho (up, down):  1.506E-02 0.000E+00

     %%%%%%%%%%%%%%%%%%%%%%%%%%%%%%%%%%%%%%%%%%%%%%%%%%%%%%%%%%%%%%%%%%%%%%%%
     %                                                                      %
     % You are using vdW-DF, which was implemented by the Thonhauser group. %
     % Please cite the following two papers that made this development      %
     % possible and the two reviews that describe the various versions:     %
     %                                                                      %
     %   T. Thonhauser et al., PRL 115, 136402 (2015).                      %
     %   T. Thonhauser et al., PRB 76, 125112 (2007).                       %
     %   K. Berland et al., Rep. Prog. Phys. 78, 066501 (2015).             %
     %   D.C. Langreth et al., J. Phys.: Condens. Matter 21, 084203 (2009). %
     %                                                                      %
     %                                                                      %
     % If you are calculating the stress with vdW-DF, please also cite:     %
     %                                                                      %
     %   R. Sabatini et al., J. Phys.: Condens. Matter 24, 424209 (2012).   %
     %                                                                      %
     %%%%%%%%%%%%%%%%%%%%%%%%%%%%%%%%%%%%%%%%%%%%%%%%%%%%%%%%%%%%%%%%%%%%%%%%

     Adding external electric field

     Computed dipole along edir(3) :
        Dipole               -8.8495 Ry au,        -22.4931 Debye
        Dipole field         -0.0167 Ry au,

        Potential amp.        1.5481 Ry
        Total length         46.3494 bohr

     Starting wfcs are  299 atomic wfcs
  @ DRIVER MODE: Message from server: STATUS
  @ DRIVER MODE: Message from server: POSDATA
  @ DRIVER MODE: Reading and sharing cell
  @ DRIVER MODE: Reading and sharing positions
  @ DRIVER MODE: Received positions

     Self-consistent Calculation

     iteration #  1     ecut=    29.40 Ry     beta= 0.05
     Davidson diagonalization with overlap
     c_bands:  1 eigenvalues not converged
     c_bands:  2 eigenvalues not converged
     c_bands:  1 eigenvalues not converged
     c_bands:  3 eigenvalues not converged
     c_bands:  3 eigenvalues not converged
     c_bands:  1 eigenvalues not converged
     ethr =  1.00E-05,  avg # of iterations = 19.1

[...]

     total energy              =   -2605.58618065 Ry
     estimated scf accuracy    <    3700.05158057 Ry

     iteration #  2     ecut=    29.40 Ry     beta= 0.05
     Davidson diagonalization with overlap
     ethr =  1.00E-02,  avg # of iterations = 22.3

[...]

     iteration # 54     ecut=    29.40 Ry     beta= 0.05
     Davidson diagonalization with overlap
     c_bands:  1 eigenvalues not converged
     ethr =  2.76E-07,  avg # of iterations = 11.2

[...]

     total energy              =   -2939.15477460 Ry
     estimated scf accuracy    <       0.00000010 Ry

     iteration # 71     ecut=    29.40 Ry     beta= 0.05
     Davidson diagonalization with overlap
     ethr =  2.48E-11,  avg # of iterations =  7.8

     negative rho (up, down):  1.565E-02 0.000E+00

     Adding external electric field

     Computed dipole along edir(3) :
        Dipole                0.7075 Ry au,          1.7982 Debye
        Dipole field          0.0013 Ry au,

        Potential amp.       -0.1238 Ry
        Total length         46.3494 bohr

     End of self-consistent calculation

          k = 0.0000 0.0000 0.0000 ( 18029 PWs)   bands (ev):

   -55.8954 -55.8802 -55.8614 -55.8443 -55.7956 -55.7302 -55.7042 -55.7037
   -55.6937 -55.6697 -55.6686 -55.6350 -55.2865 -55.0955 -54.8726 -54.8385
   -32.4344 -32.3777 -32.2303 -32.2277 -32.2025 -32.1990 -32.1884 -32.1592
   -32.1378 -32.1243 -32.1025 -32.0667 -32.0609 -32.0475 -32.0336 -32.0199
   -32.0177 -31.9996 -31.9850 -31.9525 -31.9443 -31.9398 -31.8988 -31.8938
   -31.8915 -31.8881 -31.8800 -31.8752 -31.8708 -31.8442 -31.8434 -31.8346
   -31.8332 -31.8216 -31.8102 -31.7808 -31.7781 -31.5665 -31.4598 -31.3577
   -31.3557 -31.3113 -31.2797 -31.1913 -31.1689 -31.0964 -31.0099 -30.8989
   -18.4417 -16.6329 -16.3681 -16.1391 -16.0455 -16.0133 -15.8951 -15.7329
   -15.6154 -15.5604 -15.4629 -15.4436 -15.4306 -15.3986 -15.3801 -15.3748
   -15.3409 -15.3369 -15.3184 -15.3032 -15.2549 -15.2312 -15.2095 -15.1101
   -15.0638 -15.0301 -15.0145 -14.9518 -14.9466 -14.4417 -13.3748 -13.2584
   -11.3641  -6.9296  -4.3465  -4.0028  -3.8903  -3.8630  -3.8475  -3.8007
    -3.7439  -3.6243  -3.4992  -3.4368  -3.1262  -3.0782  -3.0623  -3.0451
    -3.0073  -2.7999  -2.7486  -2.7085  -2.6837  -2.6766  -2.6656  -2.6580
    -2.6462  -2.6077  -2.5054  -2.4363  -2.4283  -2.3441  -2.2935  -2.2702
    -2.2073  -2.1873  -2.1656  -2.1422  -2.1309  -2.1098  -2.0900  -2.0790
    -1.9736  -1.8830  -1.7507  -1.6944  -1.6732  -1.6573  -1.6405  -1.5027
    -1.3694  -1.3378  -1.3290  -1.3201  -1.2867  -1.2744  -1.1918  -1.0626
    -1.0521  -1.0121  -0.9599  -0.9019  -0.8769  -0.7751  -0.7382  -0.6614
    -0.6563  -0.6394  -0.5861  -0.5334  -0.3764  -0.3346  -0.3083  -0.2863
    -0.2616  -0.1910  -0.1695  -0.0530  -0.0356  -0.0182   0.0420   0.0653
     0.0782   0.0881   0.1059   0.1239   0.1415   0.3086   0.3810   0.4335
     0.4568   0.5147   0.6397   0.7089   0.7637   0.8642   1.0753   1.1496
     1.2421   1.3417   1.7209   1.7665   2.6467   3.2441   3.3248   3.3739
     3.3887   3.4856   3.5195   3.6957   3.6971   3.7258   3.7961

[...]

          k = 0.0380-0.0419 0.0000 ( 17876 PWs)   bands (ev):

[...]

          k =-0.0760-0.0000 0.0000 ( 17886 PWs)   bands (ev):

[...]

          k =-0.0760-0.0839 0.0000 ( 17948 PWs)   bands (ev):

   -55.8787 -55.8780 -55.8624 -55.8619 -55.7922 -55.7182 -55.7075 -55.7057
   -55.6876 -55.6853 -55.6526 -55.6513 -55.2850 -55.0969 -54.8556 -54.8554
   -32.2390 -32.2371 -32.1932 -32.1928 -32.1741 -32.1734 -32.1695 -32.1341
   -32.0886 -32.0856 -32.0795 -32.0791 -32.0423 -32.0129 -32.0053 -32.0046
   -31.9983 -31.9981 -31.9975 -31.9973 -31.9931 -31.9914 -31.9889 -31.9379
   -31.9241 -31.9121 -31.9110 -31.8998 -31.8866 -31.8861 -31.8837 -31.8826
   -31.8670 -31.8663 -31.8573 -31.8546 -31.6950 -31.5683 -31.4680 -31.4149
   -31.3575 -31.3368 -31.1817 -31.1815 -31.0925 -31.0924 -31.0532 -31.0531
   -18.4375 -16.0686 -16.0426 -15.8428 -15.8097 -15.8055 -15.7910 -15.6824
   -15.5975 -15.5904 -15.5877 -15.5210 -15.4910 -15.4752 -15.4346 -15.4221
   -15.4146 -15.4031 -15.3925 -15.3557 -15.3484 -15.3312 -15.3237 -15.2396
   -15.2117 -15.2076 -15.1819 -15.0640 -14.9327 -14.6178 -13.3602 -13.3602
   -11.3619  -6.9413  -4.2558  -3.9005  -3.8353  -3.3581  -3.3292  -3.0891
    -3.0502  -3.0365  -2.9834  -2.8218  -2.7915  -2.7657  -2.7541  -2.7225
    -2.7173  -2.7052  -2.7001  -2.6801  -2.6386  -2.6172  -2.5997  -2.5819
    -2.5626  -2.5487  -2.5327  -2.5161  -2.5065  -2.4671  -2.4437  -2.4319
    -2.4134  -2.4016  -2.2450  -2.1222  -2.0878  -2.0332  -2.0230  -2.0015
    -1.9615  -1.9576  -1.9460  -1.8817  -1.8085  -1.6511  -1.6137  -1.5943
    -1.5749  -1.5550  -1.5004  -1.4599  -1.3732  -1.2986  -1.2750  -1.2704
    -1.2019  -1.1149  -1.1071  -1.0600  -1.0164  -1.0075  -0.9529  -0.8881
    -0.8576  -0.8533  -0.8003  -0.7312  -0.7136  -0.6635  -0.6566  -0.6123
    -0.5573  -0.5477  -0.5281  -0.4871  -0.4051  -0.3815  -0.2429  -0.1632
    -0.0406   0.0738   0.1680   0.1824   0.2624   0.3144   0.3981   0.4156
     0.4260   0.4352   0.4783   0.5618   0.6371   0.6518   0.6977   0.8186
     1.5133   1.5141   1.5862   1.5863   2.7033   3.4916   3.5361   3.5782
     3.6105   3.7168   3.7491   3.7726   3.7737   3.8020   3.9160

     the Fermi energy is     3.2394 ev

!    total energy              =   -2939.15479145 Ry
     estimated scf accuracy    <       0.00000006 Ry
     smearing contrib. (-TS)   =      -0.02243731 Ry
     internal energy E=F+TS    =   -2939.13235414 Ry

     The total energy is F=E-TS. E is the sum of the following terms:
     one-electron contribution =  -24176.18513302 Ry
     hartree contribution      =   12175.34824948 Ry
     xc contribution           =    -485.18379020 Ry
     ewald contribution        =    9546.88737508 Ry
     electric field correction =       0.00094452 Ry

     convergence has been achieved in  71 iterations

     Forces acting on atoms (cartesian axes, Ry/au):

     atom    1 type  1   force =     0.00011840   -0.00025019    0.09666136
     atom    2 type  1   force =    -0.00012534   -0.00050208   -0.17524607
     atom    3 type  2   force =     0.00000030   -0.00010267   -0.02501314
     atom    4 type  2   force =     0.00005444   -0.00149977    0.05297638
     atom    5 type  2   force =    -0.01215619   -0.00108865    0.00360495
     atom    6 type  2   force =     0.01370921   -0.00027910    0.00228114
     atom    7 type  1   force =    -0.00116496    0.00036757   -0.01149171
     atom    8 type  1   force =     0.00056232    0.00940093    0.02851919
     atom    9 type  2   force =     0.00019908    0.00053223   -0.00014884
     atom   10 type  2   force =    -0.00115013    0.00028117   -0.01822811
     atom   11 type  2   force =    -0.00012629   -0.00000683   -0.00012775
     atom   12 type  2   force =     0.00013367    0.00022385    0.00017646
     atom   13 type  1   force =     0.00009112   -0.00029115    0.00016180
     atom   14 type  1   force =     0.00022457    0.00017316    0.00021557
     atom   15 type  2   force =     0.00021233   -0.00007641   -0.00013204
     atom   16 type  2   force =    -0.00032629    0.00034001    0.00035614
     atom   17 type  2   force =    -0.00007255    0.00042104   -0.00006685
     atom   18 type  2   force =     0.00024833    0.00012903    0.00013930
     atom   19 type  1   force =    -0.00008527    0.00012697    0.00014734
     atom   20 type  1   force =    -0.00062780   -0.00019906    0.00030789
     atom   21 type  2   force =     0.00008697    0.00001469    0.10326196
     atom   22 type  2   force =    -0.00016178    0.00025184    0.00076874
     atom   23 type  2   force =    -0.07146623   -0.00007486   -0.02773883
     atom   24 type  2   force =     0.07143622    0.00034485   -0.02774764
     atom   25 type  1   force =     0.00006622   -0.00021672    0.09638505
     atom   26 type  1   force =    -0.00021803   -0.00025717   -0.17565371
     atom   27 type  2   force =     0.00007464   -0.00024805   -0.02401420
     atom   28 type  2   force =     0.00009814   -0.00126122    0.05285140
     atom   29 type  2   force =    -0.01239565    0.00004082    0.00351756
     atom   30 type  2   force =     0.01386607    0.00033108    0.00216275
     atom   31 type  1   force =    -0.00114105    0.00332742   -0.01190620
     atom   32 type  1   force =     0.00065389   -0.01117114    0.02913034
     atom   33 type  2   force =     0.00011188   -0.00019895   -0.00040855
     atom   34 type  2   force =    -0.00089033   -0.00093200   -0.02482490
     atom   35 type  2   force =    -0.00038498    0.00026615    0.00001729
     atom   36 type  2   force =     0.00073445    0.00029557    0.00034613
     atom   37 type  1   force =    -0.00001872   -0.00023316    0.00005979
     atom   38 type  1   force =    -0.00001710    0.00010832    0.00001356
     atom   39 type  2   force =     0.00038526    0.00033603   -0.00044299
     atom   40 type  2   force =    -0.00030282    0.00010407    0.00014709
     atom   41 type  2   force =    -0.00055933    0.00057598    0.00004716
     atom   42 type  2   force =    -0.00007376    0.00042530    0.00050440
     atom   43 type  1   force =    -0.00005821    0.00040457    0.00046223
     atom   44 type  1   force =    -0.00060357    0.00020484    0.00086964
     atom   45 type  2   force =     0.00008415   -0.00002564    0.10324835
     atom   46 type  2   force =    -0.07149939   -0.00003155   -0.02775225
     atom   47 type  2   force =     0.07146842    0.00039083   -0.02777761
     atom   48 type  3   force =    -0.00194626   -0.00077150   -0.00172122
     atom   49 type  3   force =     0.00146276   -0.00003266    0.00101294
     atom   50 type  4   force =     0.00367934    0.00064351   -0.00071251
     atom   51 type  5   force =    -0.00002644    0.00055391   -0.00060412
     atom   52 type  5   force =    -0.00131829   -0.00147172    0.00067173
     atom   53 type  5   force =    -0.00084548    0.00060650    0.00073362

     Total force =     0.368392     Total SCF correction =     0.000953
  @ DRIVER MODE: Message from server: STATUS
  @ DRIVER MODE: Message from server: GETFORCE
  @ DRIVER MODE: Returning v,forces,stress,ensemble

     Writing output data file ./calc.save/
  @ DRIVER MODE: Message from server: EXIT
  @ DRIVE MODE: Exiting

     General routines

     Parallel routines

   This run was terminated on:  12:41:24  18Aug2021

   JOB DONE.