     Program PWSCF v.6.7GPU starts on  9Sep2021 at  0:56:54

     R & G space division:  proc/nbgrp/npool/nimage =      10
     Reading input from /storage/home/hcoda1/3/ntian30/research/carbon/CxH_vib/CH_calc/ads_slab/CHNH_a/out_0012/pw.inp
Warning: card &CELL ignored
Warning: card   CELL_DYNAMICS='IPI', ignored
Warning: card / ignored

     Current dimensions of program PWSCF are:
     Max number of different atomic species (ntypx) = 10
     Max number of k-points (npk) =  40000
     Max angular momentum in pseudopotentials (lmaxx) =  3
     Presently no symmetry can be used with electric field

     Message from routine cell_base_init:
     DEPRECATED: use true lattice parameter, not A to a.u. conversion factor

     IMPORTANT: XC functional enforced from input :
     Exchange-correlation= BEEF-VDW
                           (   1   4  43  14   2   0   0)
     Any further DFT definition will be discarded
     Please, verify this is what you really want

  @ DRIVER MODE: Connecting to
 qe_1139763_2767380.sched-torque.pace.gatech.edu86zzy4j__scratch
  using UNIX socket
  @ DRIVER MODE: Message from server: STATUS
  @ DRIVER MODE: Message from server: INIT
  @ DRIVER MODE: Receiving replica           0          -1
  @ DRIVER MODE: Receiving encoded integer          25
  @ DRIVER MODE:  SCF:  T  FORCE:  T  STRESS:  F  VC:  F  ENSEMBLE:  F
  @ DRIVER MODE:  SCF:  T  FORCE:  T  STRESS:  F  VC:  F  ENSEMBLE:  F

     Using Slab Decomposition

     bravais-lattice index     =            0
     lattice parameter (alat)  =       1.8897  a.u.
     unit-cell volume          =    6658.9804 (a.u.)^3
     number of atoms/cell      =           51
     number of atomic types    =            5
     number of electrons       =       389.00
     number of Kohn-Sham states=          204
     kinetic-energy cutoff     =      29.3995  Ry
     charge density cutoff     =     293.9946  Ry
     scf convergence threshold =      7.3E-08
     mixing beta               =       0.0500
     number of iterations used =            8  plain     mixing
     Exchange-correlation= BEEF-VDW
                           (   1   4  43  14   2   0   0)

     celldm(1)=   1.889726  celldm(2)=   0.000000  celldm(3)=   0.000000
     celldm(4)=   0.000000  celldm(5)=   0.000000  celldm(6)=   0.000000

     crystal axes: (cart. coord. in units of alat)
               a(1) = (   6.579727   0.000000   0.000000 )
               a(2) = (  -0.000775   5.961596   0.000000 )
               a(3) = (   0.000000   0.000000  25.155947 )

     reciprocal axes: (cart. coord. in units 2 pi/alat)
               b(1) = (  0.151982  0.000020  0.000000 )
               b(2) = (  0.000000  0.167740  0.000000 )
               b(3) = (  0.000000  0.000000  0.039752 )

     PseudoPot. # 1 for Ti read from file:
     /storage/coda1/p-amedford6/0/shared/rich_project_chbe-medford/medford-share/data/pseudos_module/espresso/nninc/pbe/van/Ti.UPF
     MD5 check sum: 8e4df49b7f0d34bbd5052bf3f5ea0213
     Pseudo is Ultrasoft, Zval = 12.0
     Generated by new atomic code, or converted to UPF format
     Using radial grid of  851 points,  6 beta functions with:
                l(1) =   0
                l(2) =   0
                l(3) =   1
                l(4) =   1
                l(5) =   2
                l(6) =   2
     Q(r) pseudized with  8 coefficients,  rinner =    1.000   1.000   1.000
                                                       1.000   1.000

     PseudoPot. # 2 for O  read from file:
     /storage/coda1/p-amedford6/0/shared/rich_project_chbe-medford/medford-share/data/pseudos_module/espresso/nninc/pbe/van/O.UPF
     MD5 check sum: 78c19812648e8988a0fe644b0f25305e
     Pseudo is Ultrasoft, Zval =  6.0
     Generated by new atomic code, or converted to UPF format
     Using radial grid of  737 points,  4 beta functions with:
                l(1) =   0
                l(2) =   0
                l(3) =   1
                l(4) =   1
     Q(r) pseudized with  8 coefficients,  rinner =    0.800   0.800   0.800

     PseudoPot. # 3 for N  read from file:
     /storage/coda1/p-amedford6/0/shared/rich_project_chbe-medford/medford-share/data/pseudos_module/espresso/nninc/pbe/van/N.UPF
     MD5 check sum: 90d10febe142ad51ac9d5be1deb811c4
     Pseudo is Ultrasoft, Zval =  5.0
     Generated by new atomic code, or converted to UPF format
     Using radial grid of  729 points,  4 beta functions with:
                l(1) =   0
                l(2) =   0
                l(3) =   1
                l(4) =   1
     Q(r) pseudized with  8 coefficients,  rinner =    0.800   0.800   0.800

     PseudoPot. # 4 for C  read from file:
     /storage/coda1/p-amedford6/0/shared/rich_project_chbe-medford/medford-share/data/pseudos_module/espresso/nninc/pbe/van/C.UPF
     MD5 check sum: 1a69bf6b8db32088f5b2163dbdb77a27
     Pseudo is Ultrasoft, Zval =  4.0
     Generated by new atomic code, or converted to UPF format
     Using radial grid of  721 points,  4 beta functions with:
                l(1) =   0
                l(2) =   0
                l(3) =   1
                l(4) =   1
     Q(r) pseudized with  8 coefficients,  rinner =    0.800   0.800   0.800

     PseudoPot. # 5 for H  read from file:
     /storage/coda1/p-amedford6/0/shared/rich_project_chbe-medford/medford-share/data/pseudos_module/espresso/nninc/pbe/van/H.UPF
     MD5 check sum: b5ee9d7bfd3a09ee7748110bda690ff7
     Pseudo is Ultrasoft, Zval =  1.0
     Generated by new atomic code, or converted to UPF format
     Using radial grid of  615 points,  1 beta functions with:
                l(1) =   0
     Q(r) pseudized with  8 coefficients,  rinner =    0.800

     atomic species   valence    mass     pseudopotential
        Ti1           12.00    47.86700     Ti( 1.00)
        O1             6.00    15.99900     O ( 1.00)
        N1             5.00    14.00700     N ( 1.00)
        C1             4.00    12.01100     C ( 1.00)
        H1             1.00     1.00800     H ( 1.00)

     No symmetry found

   Cartesian axes

     site n.     atom                  positions (alat units)
         1           Ti1 tau(   1) = (   0.0004258   2.9801865   6.0000000  )
         2           Ti1 tau(   2) = (   3.2906075   1.4906267   6.0002472  )
         3           O1  tau(   3) = (   0.0006271   0.0005054   7.9858123  )
         4           O1  tau(   4) = (   3.2906025   0.0005020   7.3038282  )
         5           O1  tau(   5) = (   4.5942328   1.4918067   9.2879030  )
         6           O1  tau(   6) = (   1.9868534   1.4903216   9.2879459  )
         7           Ti1 tau(   7) = (   3.2907910   2.8959150   9.1758416  )
         8           Ti1 tau(   8) = (   0.0015273   1.4827037   9.2680791  )
         9           O1  tau(   9) = (   3.3107583   5.9394213  11.3440837  )
        10           O1  tau(  10) = (   0.0116148   5.9584955  10.6183126  )
        11           O1  tau(  11) = (   1.3209705   1.4681434  12.6387851  )
        12           O1  tau(  12) = (   5.3117763   1.4689694  12.6372993  )
        13           Ti1 tau(  13) = (   6.5586693   2.9297660  12.6634068  )
        14           Ti1 tau(  14) = (   3.2703198   1.4638114  12.4955107  )
        15           O1  tau(  15) = (   0.0083729   5.9498784  14.6531507  )
        16           O1  tau(  16) = (   3.3267446   5.9373244  13.9471573  )
        17           O1  tau(  17) = (   4.5400383   1.4607670  16.1300196  )
        18           O1  tau(  18) = (   2.0562451   1.4605895  16.0859588  )
        19           Ti1 tau(  19) = (   3.3219294   2.9366742  15.7081325  )
        20           Ti1 tau(  20) = (   0.0794022   1.3719971  16.1804440  )
        21           O1  tau(  21) = (   3.2904802   0.0005063   4.7018136  )
        22           O1  tau(  22) = (   0.0048811   5.8540159  17.1722642  )
        23           O1  tau(  23) = (   1.3043587   1.4918075   6.0039043  )
        24           O1  tau(  24) = (   5.2767064   1.4903225   6.0039473  )
        25           Ti1 tau(  25) = (   0.0000382   5.9609847   6.0000000  )
        26           Ti1 tau(  26) = (   3.2902200   4.4714249   6.0002472  )
        27           O1  tau(  27) = (   0.0002396   2.9813036   7.9858123  )
        28           O1  tau(  28) = (   3.2902150   2.9813002   7.3038282  )
        29           O1  tau(  29) = (   4.5938453   4.4726049   9.2879030  )
        30           O1  tau(  30) = (   1.9864658   4.4711199   9.2879459  )
        31           Ti1 tau(  31) = (   3.2891106   5.8743827   9.1763621  )
        32           Ti1 tau(  32) = (   0.0006254   4.4649316   9.2693709  )
        33           O1  tau(  33) = (   3.3036409   2.9595551  11.3414423  )
        34           O1  tau(  34) = (   0.0092240   2.9805883  10.6323155  )
        35           O1  tau(  35) = (   1.3251634   4.4629088  12.6456700  )
        36           O1  tau(  36) = (   5.3099897   4.4533368  12.6426351  )
        37           Ti1 tau(  37) = (   0.0071655   5.9203210  12.5194715  )
        38           Ti1 tau(  38) = (   3.2774562   4.4456010  12.4944480  )
        39           O1  tau(  39) = (   0.0172281   2.9510719  14.7337574  )
        40           O1  tau(  40) = (   3.3230371   2.9488945  13.9167408  )
        41           O1  tau(  41) = (   4.5572773   4.4147185  16.0816828  )
        42           O1  tau(  42) = (   2.0601761   4.4202290  16.0727324  )
        43           Ti1 tau(  43) = (   3.3574729   5.9210026  15.7440268  )
        44           Ti1 tau(  44) = (   0.0706454   4.5402764  15.7844247  )
        45           O1  tau(  45) = (   3.2900926   2.9813045   4.7018136  )
        46           O1  tau(  46) = (   1.3039711   4.4726057   6.0039043  )
        47           O1  tau(  47) = (   5.2763189   4.4711207   6.0039473  )
        48           N1  tau(  48) = (   6.3928749   2.8496863  17.7411295  )
        49           C1  tau(  49) = (   0.6235525   2.6789418  18.7395412  )
        50           H1  tau(  50) = (   1.5351458   2.1120716  18.4733693  )
        51           H1  tau(  51) = (   5.5197072   3.3230476  17.9821812  )

     number of k points=    10  Fermi-Dirac smearing, width (Ry)=  0.0073
                       cart. coord. in units 2pi/alat
        k(    1) = (   0.0000000   0.0000000   0.0000000), wk =   0.1250000
        k(    2) = (   0.0000000   0.0419351   0.0000000), wk =   0.2500000
        k(    3) = (   0.0000000  -0.0838702   0.0000000), wk =   0.1250000
        k(    4) = (   0.0379955   0.0000049   0.0000000), wk =   0.2500000
        k(    5) = (   0.0379955   0.0419400   0.0000000), wk =   0.2500000
        k(    6) = (   0.0379955  -0.0838652   0.0000000), wk =   0.2500000
        k(    7) = (   0.0379955  -0.0419301   0.0000000), wk =   0.2500000
        k(    8) = (  -0.0759910  -0.0000099   0.0000000), wk =   0.1250000
        k(    9) = (  -0.0759910   0.0419252   0.0000000), wk =   0.2500000
        k(   10) = (  -0.0759910  -0.0838800   0.0000000), wk =   0.1250000

     Initial potential from superposition of free atoms

     starting charge  372.99918, renormalised to  389.00000

     negative rho (up, down):  1.908E-02 0.000E+00

     %%%%%%%%%%%%%%%%%%%%%%%%%%%%%%%%%%%%%%%%%%%%%%%%%%%%%%%%%%%%%%%%%%%%%%%%
     %                                                                      %
     % You are using vdW-DF, which was implemented by the Thonhauser group. %
     % Please cite the following two papers that made this development      %
     % possible and the two reviews that describe the various versions:     %
     %                                                                      %
     %   T. Thonhauser et al., PRL 115, 136402 (2015).                      %
     %   T. Thonhauser et al., PRB 76, 125112 (2007).                       %
     %   K. Berland et al., Rep. Prog. Phys. 78, 066501 (2015).             %
     %   D.C. Langreth et al., J. Phys.: Condens. Matter 21, 084203 (2009). %
     %                                                                      %
     %                                                                      %
     % If you are calculating the stress with vdW-DF, please also cite:     %
     %                                                                      %
     %   R. Sabatini et al., J. Phys.: Condens. Matter 24, 424209 (2012).   %
     %                                                                      %
     %%%%%%%%%%%%%%%%%%%%%%%%%%%%%%%%%%%%%%%%%%%%%%%%%%%%%%%%%%%%%%%%%%%%%%%%

     Adding external electric field

     Computed dipole along edir(3) :
        Dipole               -4.7413 Ry au,        -12.0512 Debye
        Dipole field         -0.0089 Ry au,

        Potential amp.        0.8294 Ry
        Total length         46.3494 bohr

     Starting wfcs are  294 atomic wfcs
  @ DRIVER MODE: Message from server: STATUS
  @ DRIVER MODE: Message from server: POSDATA
  @ DRIVER MODE: Reading and sharing cell
  @ DRIVER MODE: Reading and sharing positions
  @ DRIVER MODE: Received positions

     Self-consistent Calculation

     iteration #  1     ecut=    29.40 Ry     beta= 0.05
     Davidson diagonalization with overlap
     c_bands:  4 eigenvalues not converged
     c_bands:  2 eigenvalues not converged
     c_bands:  1 eigenvalues not converged
     c_bands:  3 eigenvalues not converged
     c_bands:  2 eigenvalues not converged
     c_bands:  1 eigenvalues not converged
     c_bands:  2 eigenvalues not converged
     c_bands:  2 eigenvalues not converged
     c_bands:  1 eigenvalues not converged
     c_bands:  1 eigenvalues not converged
     ethr =  1.00E-05,  avg # of iterations = 20.0

[...]

     total energy              =   -2847.23141908 Ry
     estimated scf accuracy    <     791.11103515 Ry

     iteration #  2     ecut=    29.40 Ry     beta= 0.05
     Davidson diagonalization with overlap
     ethr =  1.00E-02,  avg # of iterations = 15.3

[...]

     iteration # 60     ecut=    29.40 Ry     beta= 0.05
     Davidson diagonalization with overlap
     c_bands:  1 eigenvalues not converged
     ethr =  7.76E-10,  avg # of iterations = 13.7

[...]

     total energy              =   -2917.76271363 Ry
     estimated scf accuracy    <       0.00000026 Ry

     iteration # 70     ecut=    29.40 Ry     beta= 0.05
     Davidson diagonalization with overlap
     ethr =  3.90E-11,  avg # of iterations =  9.2

     negative rho (up, down):  1.796E-02 0.000E+00

     Adding external electric field

     Computed dipole along edir(3) :
        Dipole                0.1017 Ry au,          0.2585 Debye
        Dipole field          0.0002 Ry au,

        Potential amp.       -0.0178 Ry
        Total length         46.3494 bohr

     End of self-consistent calculation

          k = 0.0000 0.0000 0.0000 ( 18029 PWs)   bands (ev):

   -56.3362 -56.3306 -56.2998 -56.2965 -56.2292 -56.1961 -56.1699 -56.1555
   -56.1381 -56.1184 -56.1038 -56.0849 -55.9288 -55.7741 -55.3156 -55.2815
   -32.8980 -32.8141 -32.6821 -32.6771 -32.6499 -32.6386 -32.6229 -32.6085
   -32.5730 -32.5648 -32.5442 -32.5406 -32.5146 -32.4830 -32.4818 -32.4715
   -32.4655 -32.4359 -32.4314 -32.4286 -32.4021 -32.3918 -32.3878 -32.3550
   -32.3498 -32.3366 -32.3360 -32.3297 -32.3248 -32.3212 -32.3021 -32.2869
   -32.2864 -32.2748 -32.2704 -32.2406 -32.2290 -32.2274 -32.1423 -32.0576
   -32.0071 -31.9047 -31.7231 -31.6338 -31.6114 -31.5398 -31.4532 -31.3422
   -17.0946 -16.8279 -16.6569 -16.5089 -16.4739 -16.3627 -16.1967 -16.0710
   -16.0262 -15.9957 -15.9274 -15.9026 -15.8764 -15.8685 -15.8477 -15.8425
   -15.7964 -15.7870 -15.7643 -15.7477 -15.7158 -15.7007 -15.6789 -15.6397
   -15.5408 -15.4898 -15.4663 -15.3986 -15.3291 -14.9922 -13.8184 -13.7018
    -8.2426  -4.4607  -4.3498  -4.2844  -4.2406  -4.1970  -3.9804  -3.9051
    -3.8538  -3.6806  -3.5736  -3.5268  -3.5113  -3.4698  -3.4679  -3.2546
    -3.2127  -3.1518  -3.1490  -3.1300  -3.1258  -3.0997  -3.0878  -3.0700
    -3.0192  -2.9310  -2.8796  -2.7730  -2.7355  -2.6934  -2.6636  -2.6457
    -2.6074  -2.5951  -2.5897  -2.5714  -2.5557  -2.5419  -2.4493  -2.4073
    -2.3031  -2.1603  -2.1538  -2.1241  -1.9498  -1.8905  -1.8116  -1.7984
    -1.7686  -1.7384  -1.7279  -1.6426  -1.5593  -1.5295  -1.4594  -1.4568
    -1.3691  -1.3269  -1.2382  -1.2098  -1.1715  -1.0982  -1.0890  -1.0821
    -1.0259  -0.8286  -0.8112  -0.8036  -0.7827  -0.7132  -0.6643  -0.6276
    -0.5675  -0.5398  -0.4991  -0.4150  -0.4084  -0.3707  -0.3487  -0.3363
    -0.3075  -0.3027  -0.1127  -0.1071  -0.0650  -0.0524   0.0389   0.1903
     0.2839   0.3175   0.3929   0.6278   0.7061   0.7843   0.8970   1.2786
     1.3247   2.5308   2.8011   2.8739   2.8893   2.9306   3.0276   3.0372
     3.2527   3.2630   3.2893   3.3099

[...]

          k = 0.0380-0.0419 0.0000 ( 17876 PWs)   bands (ev):

[...]

          k =-0.0760-0.0000 0.0000 ( 17886 PWs)   bands (ev):

[...]

          k =-0.0760-0.0839 0.0000 ( 17948 PWs)   bands (ev):

   -56.3207 -56.3150 -56.3145 -56.3125 -56.2236 -56.1871 -56.1753 -56.1645
   -56.1223 -56.1189 -56.1034 -56.1003 -55.9273 -55.7756 -55.2987 -55.2983
   -32.7044 -32.6975 -32.6300 -32.6287 -32.6101 -32.6091 -32.6075 -32.5973
   -32.5386 -32.5337 -32.5327 -32.5218 -32.4949 -32.4661 -32.4611 -32.4511
   -32.4446 -32.4398 -32.4363 -32.4348 -32.4340 -32.4318 -32.4314 -32.4014
   -32.3958 -32.3791 -32.3675 -32.3528 -32.3431 -32.3353 -32.3337 -32.3259
   -32.3241 -32.3166 -32.3152 -32.2977 -32.2936 -32.2182 -32.1447 -32.0779
   -32.0113 -31.9569 -31.6242 -31.6239 -31.5360 -31.5357 -31.4966 -31.4965
   -16.5410 -16.5006 -16.3306 -16.2681 -16.2565 -16.2458 -16.2006 -16.0677
   -16.0551 -16.0379 -16.0182 -16.0024 -15.9768 -15.9572 -15.8791 -15.8669
   -15.8648 -15.8424 -15.8036 -15.7991 -15.7856 -15.7704 -15.7673 -15.7414
   -15.7330 -15.6595 -15.6553 -15.4332 -15.3404 -15.2698 -13.8038 -13.8034
    -8.2459  -4.0091  -3.8305  -3.7798  -3.6413  -3.5428  -3.5010  -3.4833
    -3.4082  -3.2865  -3.2292  -3.2219  -3.2107  -3.1793  -3.1742  -3.1542
    -3.1444  -3.1303  -3.0870  -3.0652  -3.0489  -3.0382  -3.0154  -2.9996
    -2.9792  -2.9702  -2.9573  -2.9310  -2.8970  -2.8944  -2.8662  -2.8581
    -2.6268  -2.6196  -2.5570  -2.5006  -2.4850  -2.4709  -2.4687  -2.4094
    -2.3923  -2.3647  -2.2691  -2.2012  -2.0518  -2.0360  -2.0264  -1.9884
    -1.9545  -1.8136  -1.7645  -1.7434  -1.7148  -1.6606  -1.6535  -1.5911
    -1.5731  -1.5357  -1.4669  -1.4322  -1.3815  -1.3659  -1.2941  -1.2876
    -1.2525  -1.1990  -1.1178  -1.0995  -1.0820  -1.0694  -1.0166  -0.9758
    -0.9314  -0.8780  -0.8076  -0.7110  -0.6314  -0.4806  -0.4079  -0.3170
    -0.2583  -0.2193  -0.1671  -0.1365  -0.0476  -0.0208  -0.0184   0.0477
     0.0810   0.1788   0.1840   0.2016   0.4299   1.0685   1.0697   1.1440
     1.1447   2.5361   3.0679   3.0831   3.0937   3.1411   3.2990   3.3048
     3.3318   3.3340   3.4254   3.4587

     the Fermi energy is     2.8024 ev

!    total energy              =   -2917.76272738 Ry
     estimated scf accuracy    <       0.00000005 Ry
     smearing contrib. (-TS)   =      -0.02749783 Ry
     internal energy E=F+TS    =   -2917.73522955 Ry

     The total energy is F=E-TS. E is the sum of the following terms:
     one-electron contribution =  -24681.62459819 Ry
     hartree contribution      =   12420.50865262 Ry
     xc contribution           =    -479.07193850 Ry
     ewald contribution        =    9822.45263500 Ry
     electric field correction =       0.00001951 Ry

     convergence has been achieved in  70 iterations

     Forces acting on atoms (cartesian axes, Ry/au):

     atom    1 type  1   force =     0.00012406   -0.00024058    0.09638036
     atom    2 type  1   force =    -0.00005619   -0.00048076   -0.17576386
     atom    3 type  2   force =     0.00009079   -0.00007851   -0.02480519
     atom    4 type  2   force =     0.00006552   -0.00165960    0.05385356
     atom    5 type  2   force =    -0.01232117   -0.00180889    0.00349545
     atom    6 type  2   force =     0.01429571   -0.00152767    0.00390257
     atom    7 type  1   force =     0.00061301    0.00061338   -0.01171557
     atom    8 type  1   force =    -0.00019921    0.02054689    0.02642802
     atom    9 type  2   force =    -0.00054758    0.00047679   -0.00022289
     atom   10 type  2   force =    -0.00145143   -0.00066515   -0.01379151
     atom   11 type  2   force =     0.00041002    0.00025795   -0.00022871
     atom   12 type  2   force =    -0.00052093    0.00053560   -0.00046186
     atom   13 type  1   force =     0.00050876   -0.00034576   -0.00062500
     atom   14 type  1   force =    -0.00117161    0.00107747   -0.00105770
     atom   15 type  2   force =     0.00002361    0.00000784    0.00048967
     atom   16 type  2   force =     0.00021791    0.00069375   -0.00050386
     atom   17 type  2   force =    -0.00082199    0.00035534   -0.00114556
     atom   18 type  2   force =     0.00105000    0.00069224    0.00038735
     atom   19 type  1   force =    -0.00027569    0.00082346   -0.00064623
     atom   20 type  1   force =    -0.00052522    0.00085488    0.00090180
     atom   21 type  2   force =     0.00004849    0.00002365    0.10339688
     atom   22 type  2   force =     0.00053140   -0.00051968    0.00011973
     atom   23 type  2   force =    -0.07129580   -0.00005152   -0.02763174
     atom   24 type  2   force =     0.07125972    0.00033770   -0.02773478
     atom   25 type  1   force =     0.00019918   -0.00035767    0.09609169
     atom   26 type  1   force =     0.00001057   -0.00024998   -0.17591243
     atom   27 type  2   force =     0.00021888   -0.00036898   -0.02360188
     atom   28 type  2   force =     0.00006531   -0.00138067    0.05391287
     atom   29 type  2   force =    -0.01264298    0.00049054    0.00326188
     atom   30 type  2   force =     0.01459109    0.00114084    0.00364480
     atom   31 type  1   force =     0.00072623    0.00350835   -0.01312935
     atom   32 type  1   force =     0.00000460   -0.02244842    0.02632073
     atom   33 type  2   force =     0.00006081   -0.00002046    0.00097344
     atom   34 type  2   force =    -0.00088499   -0.00053833   -0.01877389
     atom   35 type  2   force =    -0.00024158   -0.00022180    0.00013592
     atom   36 type  2   force =     0.00011731   -0.00032041   -0.00008409
     atom   37 type  1   force =     0.00037489    0.00059977   -0.00033636
     atom   38 type  1   force =    -0.00132430   -0.00094657   -0.00042146
     atom   39 type  2   force =    -0.00001421    0.00103241   -0.00084929
     atom   40 type  2   force =    -0.00013698   -0.00012898   -0.00041128
     atom   41 type  2   force =     0.00027175    0.00036470   -0.00009976
     atom   42 type  2   force =    -0.00057283    0.00011381   -0.00052710
     atom   43 type  1   force =    -0.00035691   -0.00034860   -0.00032281
     atom   44 type  1   force =    -0.00012386    0.00008736    0.00026868
     atom   45 type  2   force =     0.00006441   -0.00000827    0.10337826
     atom   46 type  2   force =    -0.07128236   -0.00005689   -0.02763808
     atom   47 type  2   force =     0.07125661    0.00043149   -0.02770078
     atom   48 type  3   force =     0.00578673   -0.00068673    0.00922075
     atom   49 type  4   force =    -0.00578342    0.00045246   -0.01204821
     atom   50 type  5   force =    -0.00180366    0.00104147    0.00131025
     atom   51 type  5   force =     0.00136749   -0.00109922    0.00031656

     Total force =     0.369339     Total SCF correction =     0.000759
  @ DRIVER MODE: Message from server: STATUS
  @ DRIVER MODE: Message from server: GETFORCE
  @ DRIVER MODE: Returning v,forces,stress,ensemble

     Writing output data file ./calc.save/
  @ DRIVER MODE: Message from server: EXIT
  @ DRIVE MODE: Exiting

     General routines

     Parallel routines

   This run was terminated on:   1:14:24   9Sep2021

   JOB DONE.