     Program PWSCF v.6.7GPU starts on 23Aug2021 at 16:18:53

     R & G space division:  proc/nbgrp/npool/nimage =       6
     Reading input from /storage/home/hcoda1/3/ntian30/research/carbon/CH2_vib/ads_slab/CH2N2_b/out_0008/pw.inp
Warning: card &CELL ignored
Warning: card   CELL_DYNAMICS='IPI', ignored
Warning: card / ignored

     Current dimensions of program PWSCF are:
     Max number of different atomic species (ntypx) = 10
     Max number of k-points (npk) =  40000
     Max angular momentum in pseudopotentials (lmaxx) =  3
     Presently no symmetry can be used with electric field

     Message from routine cell_base_init:
     DEPRECATED: use true lattice parameter, not A to a.u. conversion factor

     IMPORTANT: XC functional enforced from input :
     Exchange-correlation= BEEF-VDW
                           (   1   4  43  14   2   0   0)
     Any further DFT definition will be discarded
     Please, verify this is what you really want

  @ DRIVER MODE: Connecting to
 qe_1139763_2632805.sched-torque.pace.gatech.edudxurjq4b_scratch
  using UNIX socket
  @ DRIVER MODE: Message from server: STATUS
  @ DRIVER MODE: Message from server: INIT
  @ DRIVER MODE: Receiving replica           0          -1
  @ DRIVER MODE: Receiving encoded integer          25
  @ DRIVER MODE:  SCF:  T  FORCE:  T  STRESS:  F  VC:  F  ENSEMBLE:  F
  @ DRIVER MODE:  SCF:  T  FORCE:  T  STRESS:  F  VC:  F  ENSEMBLE:  F

     Using Slab Decomposition

     bravais-lattice index     =            0
     lattice parameter (alat)  =       1.8897  a.u.
     unit-cell volume          =    6658.9804 (a.u.)^3
     number of atoms/cell      =           52
     number of atomic types    =            5
     number of electrons       =       394.00
     number of Kohn-Sham states=          207
     kinetic-energy cutoff     =      29.3995  Ry
     charge density cutoff     =     293.9946  Ry
     scf convergence threshold =      7.3E-08
     mixing beta               =       0.0500
     number of iterations used =            8  plain     mixing
     Exchange-correlation= BEEF-VDW
                           (   1   4  43  14   2   0   0)

     celldm(1)=   1.889726  celldm(2)=   0.000000  celldm(3)=   0.000000
     celldm(4)=   0.000000  celldm(5)=   0.000000  celldm(6)=   0.000000

     crystal axes: (cart. coord. in units of alat)
               a(1) = (   6.579727   0.000000   0.000000 )
               a(2) = (  -0.000775   5.961596   0.000000 )
               a(3) = (   0.000000   0.000000  25.155947 )

     reciprocal axes: (cart. coord. in units 2 pi/alat)
               b(1) = (  0.151982  0.000020  0.000000 )
               b(2) = (  0.000000  0.167740  0.000000 )
               b(3) = (  0.000000  0.000000  0.039752 )

     PseudoPot. # 1 for Ti read from file:
     /storage/coda1/p-amedford6/0/shared/rich_project_chbe-medford/medford-share/data/pseudos_module/espresso/nninc/pbe/van/Ti.UPF
     MD5 check sum: 8e4df49b7f0d34bbd5052bf3f5ea0213
     Pseudo is Ultrasoft, Zval = 12.0
     Generated by new atomic code, or converted to UPF format
     Using radial grid of  851 points,  6 beta functions with:
                l(1) =   0
                l(2) =   0
                l(3) =   1
                l(4) =   1
                l(5) =   2
                l(6) =   2
     Q(r) pseudized with  8 coefficients,  rinner =    1.000   1.000   1.000
                                                       1.000   1.000

     PseudoPot. # 2 for O  read from file:
     /storage/coda1/p-amedford6/0/shared/rich_project_chbe-medford/medford-share/data/pseudos_module/espresso/nninc/pbe/van/O.UPF
     MD5 check sum: 78c19812648e8988a0fe644b0f25305e
     Pseudo is Ultrasoft, Zval =  6.0
     Generated by new atomic code, or converted to UPF format
     Using radial grid of  737 points,  4 beta functions with:
                l(1) =   0
                l(2) =   0
                l(3) =   1
                l(4) =   1
     Q(r) pseudized with  8 coefficients,  rinner =    0.800   0.800   0.800

     PseudoPot. # 3 for N  read from file:
     /storage/coda1/p-amedford6/0/shared/rich_project_chbe-medford/medford-share/data/pseudos_module/espresso/nninc/pbe/van/N.UPF
     MD5 check sum: 90d10febe142ad51ac9d5be1deb811c4
     Pseudo is Ultrasoft, Zval =  5.0
     Generated by new atomic code, or converted to UPF format
     Using radial grid of  729 points,  4 beta functions with:
                l(1) =   0
                l(2) =   0
                l(3) =   1
                l(4) =   1
     Q(r) pseudized with  8 coefficients,  rinner =    0.800   0.800   0.800

     PseudoPot. # 4 for C  read from file:
     /storage/coda1/p-amedford6/0/shared/rich_project_chbe-medford/medford-share/data/pseudos_module/espresso/nninc/pbe/van/C.UPF
     MD5 check sum: 1a69bf6b8db32088f5b2163dbdb77a27
     Pseudo is Ultrasoft, Zval =  4.0
     Generated by new atomic code, or converted to UPF format
     Using radial grid of  721 points,  4 beta functions with:
                l(1) =   0
                l(2) =   0
                l(3) =   1
                l(4) =   1
     Q(r) pseudized with  8 coefficients,  rinner =    0.800   0.800   0.800

     PseudoPot. # 5 for H  read from file:
     /storage/coda1/p-amedford6/0/shared/rich_project_chbe-medford/medford-share/data/pseudos_module/espresso/nninc/pbe/van/H.UPF
     MD5 check sum: b5ee9d7bfd3a09ee7748110bda690ff7
     Pseudo is Ultrasoft, Zval =  1.0
     Generated by new atomic code, or converted to UPF format
     Using radial grid of  615 points,  1 beta functions with:
                l(1) =   0
     Q(r) pseudized with  8 coefficients,  rinner =    0.800

     atomic species   valence    mass     pseudopotential
        Ti1           12.00    47.86700     Ti( 1.00)
        O1             6.00    15.99900     O ( 1.00)
        N1             5.00    14.00700     N ( 1.00)
        C1             4.00    12.01100     C ( 1.00)
        H1             1.00     1.00800     H ( 1.00)

     No symmetry found

   Cartesian axes

     site n.     atom                  positions (alat units)
         1           Ti1 tau(   1) = (   0.0004258   2.9801865   6.0000000  )
         2           Ti1 tau(   2) = (   3.2906075   1.4906267   6.0002472  )
         3           O1  tau(   3) = (   0.0006271   0.0005054   7.9858123  )
         4           O1  tau(   4) = (   3.2906025   0.0005020   7.3038282  )
         5           O1  tau(   5) = (   4.5942328   1.4918067   9.2879030  )
         6           O1  tau(   6) = (   1.9868534   1.4903216   9.2879459  )
         7           Ti1 tau(   7) = (   3.2907910   2.8959150   9.1758416  )
         8           Ti1 tau(   8) = (   0.0015273   1.4827037   9.2680791  )
         9           O1  tau(   9) = (   3.2944872   5.9444814  11.3088555  )
        10           O1  tau(  10) = (   0.0116148   5.9584955  10.6183126  )
        11           O1  tau(  11) = (   1.2913257   1.4757505  12.6225222  )
        12           O1  tau(  12) = (   5.2743172   1.4729811  12.6021195  )
        13           Ti1 tau(  13) = (   0.0890023   2.9564894  12.7220187  )
        14           Ti1 tau(  14) = (   3.4221593   1.4702301  12.4648352  )
        15           O1  tau(  15) = (   0.0068176   5.9411714  14.5947238  )
        16           O1  tau(  16) = (   3.2944910   5.9492763  13.8828731  )
        17           O1  tau(  17) = (   4.5250581   1.4982466  16.0456249  )
        18           O1  tau(  18) = (   2.0665045   1.4881935  16.0281199  )
        19           Ti1 tau(  19) = (   3.2778778   2.9684174  15.6871799  )
        20           Ti1 tau(  20) = (   6.5490154   1.5309925  16.0314916  )
        21           O1  tau(  21) = (   3.2904802   0.0005063   4.7018136  )
        22           O1  tau(  22) = (   0.0123181   0.0076990  17.1679072  )
        23           O1  tau(  23) = (   1.3043587   1.4918075   6.0039043  )
        24           O1  tau(  24) = (   5.2767064   1.4903225   6.0039473  )
        25           Ti1 tau(  25) = (   0.0000382   5.9609847   6.0000000  )
        26           Ti1 tau(  26) = (   3.2902200   4.4714249   6.0002472  )
        27           O1  tau(  27) = (   0.0002396   2.9813036   7.9858123  )
        28           O1  tau(  28) = (   3.2902150   2.9813002   7.3038282  )
        29           O1  tau(  29) = (   4.5938453   4.4726049   9.2879030  )
        30           O1  tau(  30) = (   1.9864658   4.4711199   9.2879459  )
        31           Ti1 tau(  31) = (   3.2891106   5.8743827   9.1763621  )
        32           Ti1 tau(  32) = (   0.0006254   4.4649316   9.2693709  )
        33           O1  tau(  33) = (   3.2980042   2.9668427  11.3079272  )
        34           O1  tau(  34) = (   0.0092240   2.9805883  10.6323155  )
        35           O1  tau(  35) = (   1.2899229   4.4488879  12.6271902  )
        36           O1  tau(  36) = (   5.2743549   4.4545148  12.6090941  )
        37           Ti1 tau(  37) = (   0.1039690   5.9375691  12.6739196  )
        38           Ti1 tau(  38) = (   3.4213609   4.4493060  12.4702176  )
        39           O1  tau(  39) = (   6.5648181   2.9459624  14.6378081  )
        40           O1  tau(  40) = (   3.2943236   2.9658899  13.8785053  )
        41           O1  tau(  41) = (   4.5287159   4.4634493  16.0515226  )
        42           O1  tau(  42) = (   2.0597896   4.4749507  16.0164256  )
        43           Ti1 tau(  43) = (   3.2714021   5.9517381  15.6902239  )
        44           Ti1 tau(  44) = (   6.5616293   4.5902425  16.0297769  )
        45           O1  tau(  45) = (   3.2900926   2.9813045   4.7018136  )
        46           O1  tau(  46) = (   1.3039711   4.4726057   6.0039043  )
        47           O1  tau(  47) = (   5.2763189   4.4711207   6.0039473  )
        48           N1  tau(  48) = (   0.6459789   3.0609845  18.5091170  )
        49           N1  tau(  49) = (   0.1056274   2.9759187  17.3381616  )
        50           C1  tau(  50) = (   0.0579326   3.2697647  19.6266723  )
        51           H1  tau(  51) = (   5.5568954   3.3836083  19.7010695  )
        52           H1  tau(  52) = (   0.6727643   3.3288843  20.5134281  )

     number of k points=    10  Fermi-Dirac smearing, width (Ry)=  0.0073
                       cart. coord. in units 2pi/alat
        k(    1) = (   0.0000000   0.0000000   0.0000000), wk =   0.1250000
        k(    2) = (   0.0000000   0.0419351   0.0000000), wk =   0.2500000
        k(    3) = (   0.0000000  -0.0838702   0.0000000), wk =   0.1250000
        k(    4) = (   0.0379955   0.0000049   0.0000000), wk =   0.2500000
        k(    5) = (   0.0379955   0.0419400   0.0000000), wk =   0.2500000
        k(    6) = (   0.0379955  -0.0838652   0.0000000), wk =   0.2500000
        k(    7) = (   0.0379955  -0.0419301   0.0000000), wk =   0.2500000
        k(    8) = (  -0.0759910  -0.0000099   0.0000000), wk =   0.1250000
        k(    9) = (  -0.0759910   0.0419252   0.0000000), wk =   0.2500000
        k(   10) = (  -0.0759910  -0.0838800   0.0000000), wk =   0.1250000

     Initial potential from superposition of free atoms

     starting charge  377.99917, renormalised to  394.00000

     negative rho (up, down):  1.509E-02 0.000E+00

     %%%%%%%%%%%%%%%%%%%%%%%%%%%%%%%%%%%%%%%%%%%%%%%%%%%%%%%%%%%%%%%%%%%%%%%%
     %                                                                      %
     % You are using vdW-DF, which was implemented by the Thonhauser group. %
     % Please cite the following two papers that made this development      %
     % possible and the two reviews that describe the various versions:     %
     %                                                                      %
     %   T. Thonhauser et al., PRL 115, 136402 (2015).                      %
     %   T. Thonhauser et al., PRB 76, 125112 (2007).                       %
     %   K. Berland et al., Rep. Prog. Phys. 78, 066501 (2015).             %
     %   D.C. Langreth et al., J. Phys.: Condens. Matter 21, 084203 (2009). %
     %                                                                      %
     %                                                                      %
     % If you are calculating the stress with vdW-DF, please also cite:     %
     %                                                                      %
     %   R. Sabatini et al., J. Phys.: Condens. Matter 24, 424209 (2012).   %
     %                                                                      %
     %%%%%%%%%%%%%%%%%%%%%%%%%%%%%%%%%%%%%%%%%%%%%%%%%%%%%%%%%%%%%%%%%%%%%%%%

     Adding external electric field

     Computed dipole along edir(3) :
        Dipole               -7.6437 Ry au,        -19.4284 Debye
        Dipole field         -0.0144 Ry au,

        Potential amp.        1.3372 Ry
        Total length         46.3494 bohr

     Starting wfcs are  298 atomic wfcs
  @ DRIVER MODE: Message from server: STATUS
  @ DRIVER MODE: Message from server: POSDATA
  @ DRIVER MODE: Reading and sharing cell
  @ DRIVER MODE: Reading and sharing positions
  @ DRIVER MODE: Received positions

     Self-consistent Calculation

     iteration #  1     ecut=    29.40 Ry     beta= 0.05
     Davidson diagonalization with overlap
     c_bands:  1 eigenvalues not converged
     c_bands:  1 eigenvalues not converged
     c_bands:  1 eigenvalues not converged
     c_bands:  1 eigenvalues not converged
     c_bands:  1 eigenvalues not converged
     c_bands:  1 eigenvalues not converged
     ethr =  1.00E-05,  avg # of iterations = 18.6

[...]

     total energy              =   -2699.59092032 Ry
     estimated scf accuracy    <    2638.40228149 Ry

[...]

     iteration #  5     ecut=    29.40 Ry     beta= 0.05
     Davidson diagonalization with overlap
     ethr =  1.00E-02,  avg # of iterations =  4.3

[...]

     iteration # 59     ecut=    29.40 Ry     beta= 0.05
     Davidson diagonalization with overlap
     c_bands:  1 eigenvalues not converged
     ethr =  7.43E-06,  avg # of iterations =  6.1

[...]

     total energy              =   -2937.89153491 Ry
     estimated scf accuracy    <       0.00000009 Ry

     iteration # 85     ecut=    29.40 Ry     beta= 0.05
     Davidson diagonalization with overlap
     ethr =  2.37E-11,  avg # of iterations =  8.9

     negative rho (up, down):  1.606E-02 0.000E+00

     Adding external electric field

     Computed dipole along edir(3) :
        Dipole                0.5264 Ry au,          1.3379 Debye
        Dipole field          0.0010 Ry au,

        Potential amp.       -0.0921 Ry
        Total length         46.3494 bohr

     End of self-consistent calculation

          k = 0.0000 0.0000 0.0000 ( 18029 PWs)   bands (ev):

   -56.3068 -56.2730 -55.8933 -55.8870 -55.8573 -55.8530 -55.8244 -55.7907
   -55.6781 -55.6676 -55.6385 -55.6309 -55.1562 -55.1401 -55.1222 -55.0619
   -32.7630 -32.5990 -32.5717 -32.4657 -32.4346 -32.3865 -32.3724 -32.3519
   -32.3108 -32.1913 -32.1788 -32.1444 -32.1414 -32.1161 -32.1021 -32.0754
   -32.0594 -32.0560 -32.0533 -32.0257 -32.0248 -32.0209 -32.0173 -32.0028
   -31.9961 -31.9869 -31.9763 -31.9346 -31.9126 -31.9063 -31.8422 -31.8285
   -31.8147 -31.8011 -31.7863 -31.7424 -31.6661 -31.5580 -31.4830 -31.4598
   -31.3936 -31.3753 -31.3498 -31.3170 -31.2896 -31.2630 -31.1900 -31.1786
   -17.7881 -16.6819 -16.5272 -16.2474 -16.0257 -15.9976 -15.8608 -15.8260
   -15.7990 -15.7701 -15.6497 -15.6106 -15.5758 -15.4571 -15.4178 -15.4030
   -15.3880 -15.3632 -15.3592 -15.2742 -15.2540 -15.2378 -15.1858 -15.0841
   -15.0580 -15.0145 -14.8717 -14.8600 -14.7583 -14.5046 -13.6574 -13.5435
   -11.9612  -6.6415  -4.6392  -4.1483  -4.1095  -4.0150  -3.8627  -3.7800
    -3.5977  -3.5563  -3.4645  -3.2356  -3.1599  -3.1410  -3.0673  -3.0603
    -3.0330  -2.9402  -2.8718  -2.8388  -2.8177  -2.7967  -2.7409  -2.6613
    -2.6188  -2.5840  -2.5596  -2.5350  -2.4242  -2.3733  -2.3546  -2.3304
    -2.2731  -2.2568  -2.2332  -2.2268  -2.1932  -2.1807  -2.1009  -2.0703
    -1.9439  -1.8717  -1.7480  -1.7352  -1.6692  -1.6434  -1.6243  -1.4218
    -1.4004  -1.3271  -1.2890  -1.2330  -1.2094  -1.1658  -1.0967  -1.0582
    -0.9654  -0.9311  -0.9051  -0.8709  -0.8456  -0.8151  -0.7961  -0.7384
    -0.6909  -0.5138  -0.4765  -0.4425  -0.3402  -0.3295  -0.2972  -0.2611
    -0.2532  -0.1955  -0.1853  -0.1723  -0.1150  -0.1029  -0.0167   0.0505
     0.0562   0.1031   0.1761   0.2404   0.2762   0.3964   0.4440   0.5119
     0.6102   0.6170   0.6773   0.8290   0.8390   0.8645   0.8652   1.0774
     1.3212   1.4273   1.4693   1.5607   2.7776   2.9133   3.0221   3.2164
     3.3330   3.3537   3.5246   3.6624   3.7026   3.7600   3.7686

[...]

          k = 0.0380-0.0419 0.0000 ( 17876 PWs)   bands (ev):

[...]

          k =-0.0760-0.0000 0.0000 ( 17886 PWs)   bands (ev):

[...]

          k =-0.0760-0.0839 0.0000 ( 17948 PWs)   bands (ev):

   -56.2900 -56.2896 -55.8775 -55.8729 -55.8724 -55.8673 -55.8085 -55.8066
   -55.6675 -55.6553 -55.6489 -55.6432 -55.1392 -55.1391 -55.1360 -55.0658
   -32.5848 -32.5842 -32.5788 -32.5786 -32.4173 -32.4169 -32.2414 -32.2376
   -32.1774 -32.1718 -32.1498 -32.1476 -32.1335 -32.1307 -32.0912 -32.0873
   -32.0620 -32.0562 -32.0497 -32.0474 -32.0368 -32.0354 -32.0215 -32.0205
   -32.0151 -32.0021 -31.9802 -31.9712 -31.9470 -31.9363 -31.8857 -31.8791
   -31.8735 -31.8482 -31.8149 -31.8109 -31.5555 -31.4726 -31.4725 -31.4096
   -31.3716 -31.3716 -31.3627 -31.3450 -31.3326 -31.3324 -31.2709 -31.2464
   -17.7823 -16.0443 -16.0420 -16.0341 -16.0277 -15.9109 -15.9087 -15.7539
   -15.7520 -15.7228 -15.7172 -15.5764 -15.5527 -15.5096 -15.5087 -15.4684
   -15.4585 -15.3945 -15.3914 -15.3778 -15.3716 -15.3606 -15.3560 -15.3143
   -15.2730 -15.0325 -14.9607 -14.8985 -14.7822 -14.6961 -13.6460 -13.6459
   -11.9653  -6.6358  -4.5792  -4.1057  -3.3352  -3.3305  -3.1643  -3.1454
    -3.0946  -3.0924  -3.0435  -2.9660  -2.9652  -2.8522  -2.8285  -2.7879
    -2.7837  -2.7694  -2.7668  -2.7353  -2.7292  -2.7076  -2.7011  -2.6443
    -2.6296  -2.6235  -2.6180  -2.5498  -2.5070  -2.4782  -2.4452  -2.4100
    -2.3834  -2.2840  -2.2795  -2.2485  -2.2288  -2.1632  -2.1595  -2.1085
    -2.0732  -2.0071  -1.9977  -1.7881  -1.7366  -1.7271  -1.6826  -1.5916
    -1.5692  -1.4234  -1.3920  -1.3343  -1.3253  -1.2687  -1.2530  -1.2409
    -1.1540  -1.1440  -1.1375  -1.0653  -1.0558  -0.9969  -0.9587  -0.9278
    -0.8400  -0.8252  -0.7883  -0.7847  -0.7737  -0.7090  -0.6627  -0.5897
    -0.5394  -0.5270  -0.4066  -0.3590  -0.3030  -0.2303  -0.1886  -0.0885
    -0.0369  -0.0272   0.1821   0.1933   0.2337   0.3244   0.4422   0.4469
     0.4857   0.5753   0.5986   0.6222   0.6377   0.8388   0.9128   1.2447
     1.2458   1.2860   1.2864   1.5240   2.7369   3.4376   3.4385   3.4629
     3.4634   3.5949   3.6186   3.6556   3.6653   3.7507   3.7549

     the Fermi energy is     2.8630 ev

!    total energy              =   -2937.89153884 Ry
     estimated scf accuracy    <       0.00000005 Ry
     smearing contrib. (-TS)   =      -0.01402451 Ry
     internal energy E=F+TS    =   -2937.87751433 Ry

     The total energy is F=E-TS. E is the sum of the following terms:
     one-electron contribution =  -24294.10622733 Ry
     hartree contribution      =   12233.40985027 Ry
     xc contribution           =    -484.31812425 Ry
     ewald contribution        =    9607.13646414 Ry
     electric field correction =       0.00052283 Ry

     convergence has been achieved in  85 iterations

     Forces acting on atoms (cartesian axes, Ry/au):

     atom    1 type  1   force =     0.00010655   -0.00021214    0.10734685
     atom    2 type  1   force =    -0.00012041   -0.00062714   -0.16933370
     atom    3 type  2   force =    -0.00016014    0.00000578   -0.04180697
     atom    4 type  2   force =     0.00005541   -0.00093483    0.04211947
     atom    5 type  2   force =    -0.01491724    0.00021902   -0.00297939
     atom    6 type  2   force =     0.01655161    0.00103324   -0.00395498
     atom    7 type  1   force =    -0.00113925   -0.00212330    0.00222846
     atom    8 type  1   force =     0.00132188    0.00452636    0.07538938
     atom    9 type  2   force =     0.00004702    0.00011191    0.00056915
     atom   10 type  2   force =    -0.00131340    0.00009590   -0.04697534
     atom   11 type  2   force =    -0.00049783    0.00032689    0.00030380
     atom   12 type  2   force =    -0.00004124    0.00050141    0.00021310
     atom   13 type  1   force =     0.00046017   -0.00041733    0.00027629
     atom   14 type  1   force =    -0.00017262   -0.00011039   -0.00023682
     atom   15 type  2   force =    -0.00022954   -0.00018607    0.00076190
     atom   16 type  2   force =     0.00020170    0.00023922    0.00000645
     atom   17 type  2   force =     0.00039986    0.00069053    0.00064091
     atom   18 type  2   force =     0.00000766   -0.00024354   -0.00045918
     atom   19 type  1   force =     0.00000581    0.00071460   -0.00054403
     atom   20 type  1   force =     0.00072898   -0.00004104   -0.00048523
     atom   21 type  2   force =     0.00007199    0.00004036    0.10166673
     atom   22 type  2   force =    -0.00054076    0.00037640    0.00029312
     atom   23 type  2   force =    -0.07418651   -0.00003264   -0.02979621
     atom   24 type  2   force =     0.07414203    0.00042043   -0.02979836
     atom   25 type  1   force =     0.00025763   -0.00034045    0.10684604
     atom   26 type  1   force =    -0.00002363   -0.00037198   -0.16940107
     atom   27 type  2   force =    -0.00004298   -0.00029192   -0.04075141
     atom   28 type  2   force =     0.00011024   -0.00074424    0.04209106
     atom   29 type  2   force =    -0.01522153    0.00063460   -0.00326720
     atom   30 type  2   force =     0.01678353    0.00101053   -0.00423990
     atom   31 type  1   force =    -0.00133566    0.00038130    0.00198398
     atom   32 type  1   force =     0.00130311   -0.00711213    0.07600826
     atom   33 type  2   force =    -0.00004403    0.00016849    0.00029879
     atom   34 type  2   force =    -0.00145552   -0.00008302   -0.05528363
     atom   35 type  2   force =    -0.00002220    0.00005395    0.00019117
     atom   36 type  2   force =     0.00000048    0.00021903   -0.00007958
     atom   37 type  1   force =     0.00023281    0.00028176   -0.00005443
     atom   38 type  1   force =     0.00009300    0.00022582   -0.00048802
     atom   39 type  2   force =    -0.00024607   -0.00006468   -0.00009738
     atom   40 type  2   force =     0.00007280    0.00026961    0.00031929
     atom   41 type  2   force =    -0.00006441    0.00005640   -0.00012402
     atom   42 type  2   force =     0.00051636    0.00038680    0.00010498
     atom   43 type  1   force =    -0.00034443    0.00066858    0.00001318
     atom   44 type  1   force =     0.00000715    0.00045059   -0.00071973
     atom   45 type  2   force =     0.00006135   -0.00000135    0.10167993
     atom   46 type  2   force =    -0.07417573    0.00001336   -0.02976766
     atom   47 type  2   force =     0.07413224    0.00044476   -0.02978672
     atom   48 type  3   force =     0.00294296    0.00114701    0.00367165
     atom   49 type  3   force =    -0.00383548   -0.00060638   -0.00453189
     atom   50 type  4   force =     0.00038616   -0.00125059    0.00101524
     atom   51 type  5   force =     0.00015953    0.00030138   -0.00068362
     atom   52 type  5   force =    -0.00102941   -0.00022086   -0.00039269

     Total force =     0.389160     Total SCF correction =     0.000586
  @ DRIVER MODE: Message from server: STATUS
  @ DRIVER MODE: Message from server: GETFORCE
  @ DRIVER MODE: Returning v,forces,stress,ensemble

     Writing output data file ./calc.save/
  @ DRIVER MODE: Message from server: EXIT
  @ DRIVE MODE: Exiting

     General routines

     Parallel routines

   This run was terminated on:  16:50:50  23Aug2021

   JOB DONE.