     Program PWSCF v.6.7GPU starts on 22Sep2021 at 20:46:21

     R & G space division:  proc/nbgrp/npool/nimage =      10
     Reading input from /storage/home/hcoda1/3/ntian30/research/carbon/CxH_vib/H2O_calc/ads_slab/CH3NHO_a/out_0014/pw.inp
Warning: card &CELL ignored
Warning: card   CELL_DYNAMICS='IPI', ignored
Warning: card / ignored

     Current dimensions of program PWSCF are:
     Max number of different atomic species (ntypx) = 10
     Max number of k-points (npk) =  40000
     Max angular momentum in pseudopotentials (lmaxx) =  3
     Presently no symmetry can be used with electric field

     Message from routine cell_base_init:
     DEPRECATED: use true lattice parameter, not A to a.u. conversion factor

     IMPORTANT: XC functional enforced from input :
     Exchange-correlation= BEEF-VDW
                           (   1   4  43  14   2   0   0)
     Any further DFT definition will be discarded
     Please, verify this is what you really want

  @ DRIVER MODE: Connecting to
 qe_1139763_2937319.sched-torque.pace.gatech.educ9u47hfx_scratch
  using UNIX socket
  @ DRIVER MODE: Message from server: STATUS
  @ DRIVER MODE: Message from server: INIT
  @ DRIVER MODE: Receiving replica           0          -1
  @ DRIVER MODE: Receiving encoded integer          25
  @ DRIVER MODE:  SCF:  T  FORCE:  T  STRESS:  F  VC:  F  ENSEMBLE:  F
  @ DRIVER MODE:  SCF:  T  FORCE:  T  STRESS:  F  VC:  F  ENSEMBLE:  F

     Using Slab Decomposition

     bravais-lattice index     =            0
     lattice parameter (alat)  =       1.8897  a.u.
     unit-cell volume          =    6658.9804 (a.u.)^3
     number of atoms/cell      =           54
     number of atomic types    =            5
     number of electrons       =       397.00
     number of Kohn-Sham states=          208
     kinetic-energy cutoff     =      29.3995  Ry
     charge density cutoff     =     293.9946  Ry
     scf convergence threshold =      7.3E-08
     mixing beta               =       0.0500
     number of iterations used =            8  plain     mixing
     Exchange-correlation= BEEF-VDW
                           (   1   4  43  14   2   0   0)

     celldm(1)=   1.889726  celldm(2)=   0.000000  celldm(3)=   0.000000
     celldm(4)=   0.000000  celldm(5)=   0.000000  celldm(6)=   0.000000

     crystal axes: (cart. coord. in units of alat)
               a(1) = (   6.579727   0.000000   0.000000 )
               a(2) = (  -0.000775   5.961596   0.000000 )
               a(3) = (   0.000000   0.000000  25.155947 )

     reciprocal axes: (cart. coord. in units 2 pi/alat)
               b(1) = (  0.151982  0.000020  0.000000 )
               b(2) = (  0.000000  0.167740  0.000000 )
               b(3) = (  0.000000  0.000000  0.039752 )

     PseudoPot. # 1 for Ti read from file:
     /storage/coda1/p-amedford6/0/shared/rich_project_chbe-medford/medford-share/data/pseudos_module/espresso/nninc/pbe/van/Ti.UPF
     MD5 check sum: 8e4df49b7f0d34bbd5052bf3f5ea0213
     Pseudo is Ultrasoft, Zval = 12.0
     Generated by new atomic code, or converted to UPF format
     Using radial grid of  851 points,  6 beta functions with:
                l(1) =   0
                l(2) =   0
                l(3) =   1
                l(4) =   1
                l(5) =   2
                l(6) =   2
     Q(r) pseudized with  8 coefficients,  rinner =    1.000   1.000   1.000
                                                       1.000   1.000

     PseudoPot. # 2 for O  read from file:
     /storage/coda1/p-amedford6/0/shared/rich_project_chbe-medford/medford-share/data/pseudos_module/espresso/nninc/pbe/van/O.UPF
     MD5 check sum: 78c19812648e8988a0fe644b0f25305e
     Pseudo is Ultrasoft, Zval =  6.0
     Generated by new atomic code, or converted to UPF format
     Using radial grid of  737 points,  4 beta functions with:
                l(1) =   0
                l(2) =   0
                l(3) =   1
                l(4) =   1
     Q(r) pseudized with  8 coefficients,  rinner =    0.800   0.800   0.800

     PseudoPot. # 3 for N  read from file:
     /storage/coda1/p-amedford6/0/shared/rich_project_chbe-medford/medford-share/data/pseudos_module/espresso/nninc/pbe/van/N.UPF
     MD5 check sum: 90d10febe142ad51ac9d5be1deb811c4
     Pseudo is Ultrasoft, Zval =  5.0
     Generated by new atomic code, or converted to UPF format
     Using radial grid of  729 points,  4 beta functions with:
                l(1) =   0
                l(2) =   0
                l(3) =   1
                l(4) =   1
     Q(r) pseudized with  8 coefficients,  rinner =    0.800   0.800   0.800

     PseudoPot. # 4 for C  read from file:
     /storage/coda1/p-amedford6/0/shared/rich_project_chbe-medford/medford-share/data/pseudos_module/espresso/nninc/pbe/van/C.UPF
     MD5 check sum: 1a69bf6b8db32088f5b2163dbdb77a27
     Pseudo is Ultrasoft, Zval =  4.0
     Generated by new atomic code, or converted to UPF format
     Using radial grid of  721 points,  4 beta functions with:
                l(1) =   0
                l(2) =   0
                l(3) =   1
                l(4) =   1
     Q(r) pseudized with  8 coefficients,  rinner =    0.800   0.800   0.800

     PseudoPot. # 5 for H  read from file:
     /storage/coda1/p-amedford6/0/shared/rich_project_chbe-medford/medford-share/data/pseudos_module/espresso/nninc/pbe/van/H.UPF
     MD5 check sum: b5ee9d7bfd3a09ee7748110bda690ff7
     Pseudo is Ultrasoft, Zval =  1.0
     Generated by new atomic code, or converted to UPF format
     Using radial grid of  615 points,  1 beta functions with:
                l(1) =   0
     Q(r) pseudized with  8 coefficients,  rinner =    0.800

     atomic species   valence    mass     pseudopotential
        Ti1           12.00    47.86700     Ti( 1.00)
        O1             6.00    15.99900     O ( 1.00)
        N1             5.00    14.00700     N ( 1.00)
        C1             4.00    12.01100     C ( 1.00)
        H1             1.00     1.00800     H ( 1.00)

     No symmetry found

   Cartesian axes

     site n.     atom                  positions (alat units)
         1           Ti1 tau(   1) = (   0.0004258   2.9801865   6.0000000  )
         2           Ti1 tau(   2) = (   3.2906075   1.4906267   6.0002472  )
         3           O1  tau(   3) = (   0.0006271   0.0005054   7.9858123  )
         4           O1  tau(   4) = (   3.2906025   0.0005020   7.3038282  )
         5           O1  tau(   5) = (   4.5942328   1.4918067   9.2879030  )
         6           O1  tau(   6) = (   1.9868534   1.4903216   9.2879459  )
         7           Ti1 tau(   7) = (   3.2907910   2.8959150   9.1758416  )
         8           Ti1 tau(   8) = (   0.0015273   1.4827037   9.2680791  )
         9           O1  tau(   9) = (   3.2880966   5.9442215  11.2779904  )
        10           O1  tau(  10) = (   0.0116148   5.9584955  10.6183126  )
        11           O1  tau(  11) = (   1.2901275   1.4920942  12.6240107  )
        12           O1  tau(  12) = (   5.2966278   1.4852543  12.6143030  )
        13           Ti1 tau(  13) = (   0.0031916   3.1007002  12.7073671  )
        14           Ti1 tau(  14) = (   3.2978183   1.3116672  12.6600973  )
        15           O1  tau(  15) = (   6.5743189   0.0224225  14.6379036  )
        16           O1  tau(  16) = (   3.2931419   0.0435670  13.8892854  )
        17           O1  tau(  17) = (   4.5409235   1.5821231  16.0748620  )
        18           O1  tau(  18) = (   2.0417342   1.5698890  16.0900686  )
        19           Ti1 tau(  19) = (   3.2746960   3.0378214  15.6558348  )
        20           Ti1 tau(  20) = (   6.4705883   1.5381531  15.9030332  )
        21           O1  tau(  21) = (   3.2904802   0.0005063   4.7018136  )
        22           O1  tau(  22) = (   6.5584422   0.0457650  17.1906971  )
        23           O1  tau(  23) = (   1.3043587   1.4918075   6.0039043  )
        24           O1  tau(  24) = (   5.2767064   1.4903225   6.0039473  )
        25           Ti1 tau(  25) = (   0.0000382   5.9609847   6.0000000  )
        26           Ti1 tau(  26) = (   3.2902200   4.4714249   6.0002472  )
        27           O1  tau(  27) = (   0.0002396   2.9813036   7.9858123  )
        28           O1  tau(  28) = (   3.2902150   2.9813002   7.3038282  )
        29           O1  tau(  29) = (   4.5938453   4.4726049   9.2879030  )
        30           O1  tau(  30) = (   1.9864658   4.4711199   9.2879459  )
        31           Ti1 tau(  31) = (   3.2891106   5.8743827   9.1763621  )
        32           Ti1 tau(  32) = (   0.0006254   4.4649316   9.2693709  )
        33           O1  tau(  33) = (   3.2918970   3.0256722  11.2465752  )
        34           O1  tau(  34) = (   0.0092240   2.9805883  10.6323155  )
        35           O1  tau(  35) = (   1.2932338   4.4650182  12.6342030  )
        36           O1  tau(  36) = (   5.2897350   4.4662865  12.6224893  )
        37           Ti1 tau(  37) = (   0.0112454   0.1207271  12.6557084  )
        38           Ti1 tau(  38) = (   3.2993242   4.4067673  12.4119285  )
        39           O1  tau(  39) = (   6.5542949   2.9732608  14.6543823  )
        40           O1  tau(  40) = (   3.2957262   2.9928748  13.8751945  )
        41           O1  tau(  41) = (   4.5169628   4.4726675  16.1294972  )
        42           O1  tau(  42) = (   2.0179035   4.4711894  16.0655614  )
        43           Ti1 tau(  43) = (   3.1791666   0.0518155  16.3463265  )
        44           Ti1 tau(  44) = (   6.5235282   4.6410908  16.0777984  )
        45           O1  tau(  45) = (   3.2900926   2.9813045   4.7018136  )
        46           O1  tau(  46) = (   1.3039711   4.4726057   6.0039043  )
        47           O1  tau(  47) = (   5.2763189   4.4711207   6.0039473  )
        48           N1  tau(  48) = (   0.0679940   2.9882472  17.3287890  )
        49           C1  tau(  49) = (   0.3445104   2.8919884  18.7043053  )
        50           H1  tau(  50) = (   0.6035414   3.8503421  19.1719745  )
        51           H1  tau(  51) = (   6.0379261   2.4644003  19.2136804  )
        52           H1  tau(  52) = (   1.1315070   2.1426081  18.8955932  )
        53           O1  tau(  53) = (   3.2362511   0.0690349  18.1809703  )
        54           H1  tau(  54) = (   3.8186072   5.4079590  18.6400750  )

     number of k points=    10  Fermi-Dirac smearing, width (Ry)=  0.0073
                       cart. coord. in units 2pi/alat
        k(    1) = (   0.0000000   0.0000000   0.0000000), wk =   0.1250000
        k(    2) = (   0.0000000   0.0419351   0.0000000), wk =   0.2500000
        k(    3) = (   0.0000000  -0.0838702   0.0000000), wk =   0.1250000
        k(    4) = (   0.0379955   0.0000049   0.0000000), wk =   0.2500000
        k(    5) = (   0.0379955   0.0419400   0.0000000), wk =   0.2500000
        k(    6) = (   0.0379955  -0.0838652   0.0000000), wk =   0.2500000
        k(    7) = (   0.0379955  -0.0419301   0.0000000), wk =   0.2500000
        k(    8) = (  -0.0759910  -0.0000099   0.0000000), wk =   0.1250000
        k(    9) = (  -0.0759910   0.0419252   0.0000000), wk =   0.2500000
        k(   10) = (  -0.0759910  -0.0838800   0.0000000), wk =   0.1250000

     Initial potential from superposition of free atoms

     starting charge  380.99916, renormalised to  397.00000

     negative rho (up, down):  1.676E-02 0.000E+00

     %%%%%%%%%%%%%%%%%%%%%%%%%%%%%%%%%%%%%%%%%%%%%%%%%%%%%%%%%%%%%%%%%%%%%%%%
     %                                                                      %
     % You are using vdW-DF, which was implemented by the Thonhauser group. %
     % Please cite the following two papers that made this development      %
     % possible and the two reviews that describe the various versions:     %
     %                                                                      %
     %   T. Thonhauser et al., PRL 115, 136402 (2015).                      %
     %   T. Thonhauser et al., PRB 76, 125112 (2007).                       %
     %   K. Berland et al., Rep. Prog. Phys. 78, 066501 (2015).             %
     %   D.C. Langreth et al., J. Phys.: Condens. Matter 21, 084203 (2009). %
     %                                                                      %
     %                                                                      %
     % If you are calculating the stress with vdW-DF, please also cite:     %
     %                                                                      %
     %   R. Sabatini et al., J. Phys.: Condens. Matter 24, 424209 (2012).   %
     %                                                                      %
     %%%%%%%%%%%%%%%%%%%%%%%%%%%%%%%%%%%%%%%%%%%%%%%%%%%%%%%%%%%%%%%%%%%%%%%%

     Adding external electric field

     Computed dipole along edir(3) :
        Dipole               -8.2921 Ry au,        -21.0764 Debye
        Dipole field         -0.0156 Ry au,

        Potential amp.        1.4506 Ry
        Total length         46.3494 bohr

     Starting wfcs are  300 atomic wfcs
  @ DRIVER MODE: Message from server: STATUS
  @ DRIVER MODE: Message from server: POSDATA
  @ DRIVER MODE: Reading and sharing cell
  @ DRIVER MODE: Reading and sharing positions
  @ DRIVER MODE: Received positions

     Self-consistent Calculation

     iteration #  1     ecut=    29.40 Ry     beta= 0.05
     Davidson diagonalization with overlap
     c_bands:  1 eigenvalues not converged
     c_bands:  1 eigenvalues not converged
     c_bands:  1 eigenvalues not converged
     c_bands:  3 eigenvalues not converged
     c_bands:  2 eigenvalues not converged
     c_bands:  1 eigenvalues not converged
     c_bands:  1 eigenvalues not converged
     ethr =  1.00E-05,  avg # of iterations = 19.2

[...]

     total energy              =   -2606.38050775 Ry
     estimated scf accuracy    <    3821.55584899 Ry

     iteration #  2     ecut=    29.40 Ry     beta= 0.05
     Davidson diagonalization with overlap
     ethr =  1.00E-02,  avg # of iterations = 23.2

[...]

     iteration # 41     ecut=    29.40 Ry     beta= 0.05
     Davidson diagonalization with overlap
     c_bands:  1 eigenvalues not converged
     ethr =  9.85E-08,  avg # of iterations =  3.1

[...]

     total energy              =   -2952.64743220 Ry
     estimated scf accuracy    <       0.00000007 Ry

     iteration # 63     ecut=    29.40 Ry     beta= 0.05
     Davidson diagonalization with overlap
     ethr =  1.87E-11,  avg # of iterations =  5.8

     negative rho (up, down):  1.695E-02 0.000E+00

     Adding external electric field

     Computed dipole along edir(3) :
        Dipole                0.3605 Ry au,          0.9162 Debye
        Dipole field          0.0007 Ry au,

        Potential amp.       -0.0631 Ry
        Total length         46.3494 bohr

     End of self-consistent calculation

          k = 0.0000 0.0000 0.0000 ( 18029 PWs)   bands (ev):

   -56.8764 -56.8429 -55.9466 -55.9111 -55.7361 -55.6713 -55.5495 -55.4278
   -55.3939 -55.3140 -55.3117 -55.2411 -55.2193 -55.1163 -55.0474 -54.9199
   -33.2951 -33.1467 -33.1186 -33.0561 -32.9659 -32.9222 -32.4278 -32.2113
   -32.1668 -32.1465 -32.0911 -32.0827 -32.0571 -31.9699 -31.9484 -31.9061
   -31.8910 -31.8739 -31.8335 -31.8056 -31.7954 -31.7939 -31.7807 -31.7748
   -31.7502 -31.7305 -31.6657 -31.6319 -31.5916 -31.5827 -31.5516 -31.5289
   -31.5164 -31.5086 -31.4751 -31.4662 -31.4401 -31.4308 -31.4087 -31.3944
   -31.3569 -31.3061 -31.2994 -31.2830 -31.2511 -31.1919 -31.1565 -31.1032
   -16.9791 -16.4636 -16.4172 -16.1926 -16.0700 -16.0644 -16.0189 -15.9570
   -15.7837 -15.7298 -15.6898 -15.6263 -15.4752 -15.3647 -15.2678 -15.0721
   -15.0371 -15.0053 -15.0033 -14.9897 -14.9590 -14.9467 -14.8712 -14.8201
   -14.7895 -14.7075 -14.7007 -14.5394 -14.3104 -14.2871 -13.9255 -13.8185
   -13.7952  -8.0287  -4.5549  -4.0904  -3.8856  -3.7105  -3.5610  -3.4849
    -3.4639  -3.3949  -3.3814  -3.2419  -3.2358  -3.2287  -3.2229  -3.1387
    -3.0744  -3.0158  -2.9268  -2.9112  -2.8206  -2.7701  -2.6111  -2.5763
    -2.4888  -2.4103  -2.4048  -2.3384  -2.3192  -2.2775  -2.2425  -2.2109
    -2.1814  -2.1385  -2.0839  -2.0739  -1.9791  -1.9727  -1.8906  -1.8751
    -1.8690  -1.7475  -1.7085  -1.6490  -1.5092  -1.4877  -1.4705  -1.4393
    -1.4009  -1.3407  -1.2358  -1.1782  -1.1493  -1.0956  -1.0258  -0.9690
    -0.9488  -0.8748  -0.8482  -0.7739  -0.7298  -0.7149  -0.6950  -0.6701
    -0.5319  -0.4497  -0.4149  -0.3624  -0.3474  -0.3084  -0.2832  -0.2285
    -0.1705  -0.1483  -0.0498  -0.0475   0.0891   0.1569   0.1596   0.2579
     0.3024   0.3087   0.3655   0.4342   0.4459   0.5097   0.5298   0.5879
     0.5934   0.6362   0.7198   0.7968   0.8401   0.8699   0.9103   0.9307
     1.0425   1.0676   1.1308   1.1871   1.4986   1.5701   2.1772   2.4180
     2.5899   2.8673   3.0629   3.3626   3.4040   3.4221   3.4223   3.7331

[...]

          k = 0.0380-0.0419 0.0000 ( 17876 PWs)   bands (ev):

[...]

          k =-0.0760-0.0000 0.0000 ( 17886 PWs)   bands (ev):

[...]

          k =-0.0760-0.0839 0.0000 ( 17948 PWs)   bands (ev):

   -56.8603 -56.8588 -55.9346 -55.9229 -55.7313 -55.6760 -55.5487 -55.4113
   -55.4102 -55.3146 -55.3072 -55.2453 -55.2179 -55.1148 -55.0490 -54.9213
   -33.1332 -33.1316 -33.1131 -33.1116 -33.0102 -33.0090 -32.2528 -32.2426
   -32.1291 -32.1250 -32.1171 -32.1161 -32.0294 -31.9888 -31.9630 -31.9493
   -31.9016 -31.9000 -31.8345 -31.7921 -31.7718 -31.7637 -31.7629 -31.6868
   -31.6367 -31.6316 -31.6301 -31.6054 -31.5949 -31.5915 -31.5905 -31.5844
   -31.5359 -31.5281 -31.5114 -31.4859 -31.4807 -31.4651 -31.4353 -31.4107
   -31.3940 -31.3597 -31.3082 -31.2936 -31.2605 -31.2569 -31.1589 -31.1409
   -16.4529 -16.3369 -16.3351 -16.2925 -16.2910 -16.0274 -16.0230 -15.7748
   -15.7458 -15.5701 -15.4582 -15.4361 -15.3944 -15.3538 -15.2766 -15.2255
   -15.2126 -15.1844 -15.1580 -15.0857 -15.0519 -14.9505 -14.9150 -14.8531
   -14.8186 -14.7451 -14.7049 -14.6762 -14.4811 -14.4202 -13.9230 -13.9225
   -13.8185  -8.0275  -4.0940  -3.4679  -3.4138  -3.4095  -3.3742  -3.3671
    -3.2903  -3.1627  -3.1593  -3.0412  -2.9585  -2.9316  -2.9020  -2.8479
    -2.8341  -2.7382  -2.6884  -2.6835  -2.6682  -2.6338  -2.6026  -2.5955
    -2.5379  -2.4114  -2.3667  -2.3296  -2.2892  -2.2208  -2.1904  -2.1828
    -2.1500  -2.1105  -2.0920  -2.0633  -2.0507  -2.0440  -2.0334  -1.9473
    -1.7994  -1.7726  -1.6794  -1.6763  -1.6665  -1.6265  -1.5969  -1.5829
    -1.5626  -1.5290  -1.4523  -1.4265  -1.3624  -1.2267  -1.2134  -1.1789
    -1.1253  -1.0226  -1.0077  -0.9120  -0.8941  -0.8839  -0.8196  -0.7976
    -0.7809  -0.7187  -0.6811  -0.5610  -0.4896  -0.4810  -0.4632  -0.4541
    -0.4037  -0.3560  -0.2835  -0.2796  -0.2631  -0.1550  -0.0590   0.0352
     0.0418   0.1098   0.1256   0.1802   0.3377   0.3482   0.3901   0.4515
     0.5678   0.6594   0.7133   0.8128   0.8458   0.9518   0.9703   0.9753
     0.9946   1.0035   1.0473   1.1029   1.1664   1.4809   1.9763   3.0107
     3.0139   3.0723   3.0778   3.3890   3.3912   3.5034   3.5083   3.8313

     the Fermi energy is     2.0744 ev

!    total energy              =   -2952.64747185 Ry
     estimated scf accuracy    <       0.00000003 Ry
     smearing contrib. (-TS)   =      -0.01068764 Ry
     internal energy E=F+TS    =   -2952.63678421 Ry

     The total energy is F=E-TS. E is the sum of the following terms:
     one-electron contribution =  -24061.16770064 Ry
     hartree contribution      =   12121.03067554 Ry
     xc contribution           =    -487.77562865 Ry
     ewald contribution        =    9475.27562436 Ry
     electric field correction =       0.00024519 Ry

     convergence has been achieved in  63 iterations

     Forces acting on atoms (cartesian axes, Ry/au):

     atom    1 type  1   force =     0.00004848   -0.00036345    0.12635917
     atom    2 type  1   force =    -0.00006490    0.00038585   -0.15471929
     atom    3 type  2   force =     0.00003742    0.00023052   -0.06867010
     atom    4 type  2   force =     0.00004395    0.00001273    0.01721244
     atom    5 type  2   force =    -0.00542882   -0.00182880   -0.01283875
     atom    6 type  2   force =     0.00701025   -0.00106897   -0.01373833
     atom    7 type  1   force =    -0.00029389   -0.00640152    0.05892666
     atom    8 type  1   force =     0.00058266    0.00674819    0.10095089
     atom    9 type  2   force =     0.00031853    0.00036394    0.00013329
     atom   10 type  2   force =    -0.00198549    0.00132440   -0.06337710
     atom   11 type  2   force =    -0.00016776   -0.00065944    0.00024187
     atom   12 type  2   force =    -0.00036673   -0.00040591    0.00006218
     atom   13 type  1   force =     0.00057582   -0.00074805    0.00027238
     atom   14 type  1   force =    -0.00003317   -0.00054230    0.00119902
     atom   15 type  2   force =    -0.00000518    0.00000254    0.00026389
     atom   16 type  2   force =     0.00005973   -0.00019466   -0.00086658
     atom   17 type  2   force =    -0.00042957   -0.00055651   -0.00044601
     atom   18 type  2   force =    -0.00045003   -0.00057437   -0.00059297
     atom   19 type  1   force =     0.00126246    0.00039468   -0.00081674
     atom   20 type  1   force =    -0.00085786    0.00085453   -0.00066859
     atom   21 type  2   force =     0.00009465    0.00015069    0.09785964
     atom   22 type  2   force =    -0.00011471   -0.00005841   -0.00037031
     atom   23 type  2   force =    -0.08272405    0.00002931   -0.03315375
     atom   24 type  2   force =     0.08269571    0.00046048   -0.03321821
     atom   25 type  1   force =     0.00004940   -0.00040181    0.12673427
     atom   26 type  1   force =    -0.00005292   -0.00138885   -0.15487126
     atom   27 type  2   force =     0.00011912   -0.00037027   -0.06707445
     atom   28 type  2   force =     0.00007196    0.00177011    0.01243427
     atom   29 type  2   force =    -0.00385210    0.00476978   -0.01598048
     atom   30 type  2   force =     0.00538113    0.00500982   -0.01690845
     atom   31 type  1   force =    -0.00028967    0.00188395    0.04201308
     atom   32 type  1   force =     0.00074166   -0.00886908    0.10187582
     atom   33 type  2   force =    -0.00004873   -0.00034192   -0.00058711
     atom   34 type  2   force =    -0.00187835    0.00205905   -0.07569819
     atom   35 type  2   force =     0.00013291   -0.00013441   -0.00046898
     atom   36 type  2   force =    -0.00030645    0.00006228   -0.00019185
     atom   37 type  1   force =     0.00046818    0.00055636    0.00036337
     atom   38 type  1   force =    -0.00035244   -0.00075052   -0.00038026
     atom   39 type  2   force =     0.00002132   -0.00049743    0.00060773
     atom   40 type  2   force =    -0.00008855   -0.00056960   -0.00045049
     atom   41 type  2   force =     0.00048153   -0.00036529   -0.00062398
     atom   42 type  2   force =    -0.00130048    0.00022054   -0.00006975
     atom   43 type  1   force =     0.00082759   -0.00068991   -0.00066841
     atom   44 type  1   force =    -0.00108770   -0.00062606   -0.00010089
     atom   45 type  2   force =     0.00008305   -0.00002962    0.09770118
     atom   46 type  2   force =    -0.08276119    0.00001695   -0.03316856
     atom   47 type  2   force =     0.08272451    0.00043052   -0.03321377
     atom   48 type  3   force =     0.00032814   -0.00065578   -0.00049088
     atom   49 type  4   force =     0.00159235    0.00138442    0.00036848
     atom   50 type  5   force =    -0.00231469   -0.00209155   -0.00033521
     atom   51 type  5   force =     0.00074873    0.00088640    0.00011417
     atom   52 type  5   force =    -0.00083017   -0.00001814   -0.00015952
     atom   53 type  2   force =     0.00035223    0.00025964   -0.00086214
     atom   54 type  5   force =     0.00123217    0.00093491    0.00008755

     Total force =     0.421157     Total SCF correction =     0.000571
  @ DRIVER MODE: Message from server: STATUS
  @ DRIVER MODE: Message from server: GETFORCE
  @ DRIVER MODE: Returning v,forces,stress,ensemble

     Writing output data file ./calc.save/
  @ DRIVER MODE: Message from server: EXIT
  @ DRIVE MODE: Exiting

     General routines

     Parallel routines

   This run was terminated on:  21: 2:24  22Sep2021

   JOB DONE.