     Program PWSCF v.6.7GPU starts on 16Sep2021 at  8:17: 3

     R & G space division:  proc/nbgrp/npool/nimage =      10
     Reading input from /storage/home/hcoda1/3/ntian30/research/carbon/CxH_vib/H2O_calc/ads_slab/CH2N2HH2O_a/out_0050/pw.inp
Warning: card &CELL ignored
Warning: card   CELL_DYNAMICS='IPI', ignored
Warning: card / ignored

     Current dimensions of program PWSCF are:
     Max number of different atomic species (ntypx) = 10
     Max number of k-points (npk) =  40000
     Max angular momentum in pseudopotentials (lmaxx) =  3
     Presently no symmetry can be used with electric field

     Message from routine cell_base_init:
     DEPRECATED: use true lattice parameter, not A to a.u. conversion factor

     IMPORTANT: XC functional enforced from input :
     Exchange-correlation= BEEF-VDW
                           (   1   4  43  14   2   0   0)
     Any further DFT definition will be discarded
     Please, verify this is what you really want

  @ DRIVER MODE: Connecting to
 qe_1139763_2852606.sched-torque.pace.gatech.eduigw1nkm4_scratch
  using UNIX socket
  @ DRIVER MODE: Message from server: STATUS
  @ DRIVER MODE: Message from server: INIT
  @ DRIVER MODE: Receiving replica           0          -1
  @ DRIVER MODE: Receiving encoded integer          25
  @ DRIVER MODE:  SCF:  T  FORCE:  T  STRESS:  F  VC:  F  ENSEMBLE:  F
  @ DRIVER MODE:  SCF:  T  FORCE:  T  STRESS:  F  VC:  F  ENSEMBLE:  F

     Using Slab Decomposition

     bravais-lattice index     =            0
     lattice parameter (alat)  =       1.8897  a.u.
     unit-cell volume          =    6658.9804 (a.u.)^3
     number of atoms/cell      =           56
     number of atomic types    =            5
     number of electrons       =       403.00
     number of Kohn-Sham states=          211
     kinetic-energy cutoff     =      29.3995  Ry
     charge density cutoff     =     293.9946  Ry
     scf convergence threshold =      7.3E-08
     mixing beta               =       0.0500
     number of iterations used =            8  plain     mixing
     Exchange-correlation= BEEF-VDW
                           (   1   4  43  14   2   0   0)

     celldm(1)=   1.889726  celldm(2)=   0.000000  celldm(3)=   0.000000
     celldm(4)=   0.000000  celldm(5)=   0.000000  celldm(6)=   0.000000

     crystal axes: (cart. coord. in units of alat)
               a(1) = (   6.579727   0.000000   0.000000 )
               a(2) = (  -0.000775   5.961596   0.000000 )
               a(3) = (   0.000000   0.000000  25.155947 )

     reciprocal axes: (cart. coord. in units 2 pi/alat)
               b(1) = (  0.151982  0.000020  0.000000 )
               b(2) = (  0.000000  0.167740  0.000000 )
               b(3) = (  0.000000  0.000000  0.039752 )

     PseudoPot. # 1 for Ti read from file:
     /storage/coda1/p-amedford6/0/shared/rich_project_chbe-medford/medford-share/data/pseudos_module/espresso/nninc/pbe/van/Ti.UPF
     MD5 check sum: 8e4df49b7f0d34bbd5052bf3f5ea0213
     Pseudo is Ultrasoft, Zval = 12.0
     Generated by new atomic code, or converted to UPF format
     Using radial grid of  851 points,  6 beta functions with:
                l(1) =   0
                l(2) =   0
                l(3) =   1
                l(4) =   1
                l(5) =   2
                l(6) =   2
     Q(r) pseudized with  8 coefficients,  rinner =    1.000   1.000   1.000
                                                       1.000   1.000

     PseudoPot. # 2 for O  read from file:
     /storage/coda1/p-amedford6/0/shared/rich_project_chbe-medford/medford-share/data/pseudos_module/espresso/nninc/pbe/van/O.UPF
     MD5 check sum: 78c19812648e8988a0fe644b0f25305e
     Pseudo is Ultrasoft, Zval =  6.0
     Generated by new atomic code, or converted to UPF format
     Using radial grid of  737 points,  4 beta functions with:
                l(1) =   0
                l(2) =   0
                l(3) =   1
                l(4) =   1
     Q(r) pseudized with  8 coefficients,  rinner =    0.800   0.800   0.800

     PseudoPot. # 3 for N  read from file:
     /storage/coda1/p-amedford6/0/shared/rich_project_chbe-medford/medford-share/data/pseudos_module/espresso/nninc/pbe/van/N.UPF
     MD5 check sum: 90d10febe142ad51ac9d5be1deb811c4
     Pseudo is Ultrasoft, Zval =  5.0
     Generated by new atomic code, or converted to UPF format
     Using radial grid of  729 points,  4 beta functions with:
                l(1) =   0
                l(2) =   0
                l(3) =   1
                l(4) =   1
     Q(r) pseudized with  8 coefficients,  rinner =    0.800   0.800   0.800

     PseudoPot. # 4 for C  read from file:
     /storage/coda1/p-amedford6/0/shared/rich_project_chbe-medford/medford-share/data/pseudos_module/espresso/nninc/pbe/van/C.UPF
     MD5 check sum: 1a69bf6b8db32088f5b2163dbdb77a27
     Pseudo is Ultrasoft, Zval =  4.0
     Generated by new atomic code, or converted to UPF format
     Using radial grid of  721 points,  4 beta functions with:
                l(1) =   0
                l(2) =   0
                l(3) =   1
                l(4) =   1
     Q(r) pseudized with  8 coefficients,  rinner =    0.800   0.800   0.800

     PseudoPot. # 5 for H  read from file:
     /storage/coda1/p-amedford6/0/shared/rich_project_chbe-medford/medford-share/data/pseudos_module/espresso/nninc/pbe/van/H.UPF
     MD5 check sum: b5ee9d7bfd3a09ee7748110bda690ff7
     Pseudo is Ultrasoft, Zval =  1.0
     Generated by new atomic code, or converted to UPF format
     Using radial grid of  615 points,  1 beta functions with:
                l(1) =   0
     Q(r) pseudized with  8 coefficients,  rinner =    0.800

     atomic species   valence    mass     pseudopotential
        Ti1           12.00    47.86700     Ti( 1.00)
        O1             6.00    15.99900     O ( 1.00)
        N1             5.00    14.00700     N ( 1.00)
        C1             4.00    12.01100     C ( 1.00)
        H1             1.00     1.00800     H ( 1.00)

     No symmetry found

   Cartesian axes

     site n.     atom                  positions (alat units)
         1           Ti1 tau(   1) = (   0.0004258   2.9801865   6.0000000  )
         2           Ti1 tau(   2) = (   3.2906075   1.4906267   6.0002472  )
         3           O1  tau(   3) = (   0.0006271   0.0005054   7.9858123  )
         4           O1  tau(   4) = (   3.2906025   0.0005020   7.3038282  )
         5           O1  tau(   5) = (   4.5942328   1.4918067   9.2879030  )
         6           O1  tau(   6) = (   1.9868534   1.4903216   9.2879459  )
         7           Ti1 tau(   7) = (   3.2907910   2.8959150   9.1758416  )
         8           Ti1 tau(   8) = (   0.0015273   1.4827037   9.2680791  )
         9           O1  tau(   9) = (   3.2932810   5.9556063  11.3276769  )
        10           O1  tau(  10) = (   0.0116148   5.9584955  10.6183126  )
        11           O1  tau(  11) = (   1.2966828   1.5020869  12.6141357  )
        12           O1  tau(  12) = (   5.2995835   1.4923495  12.6341875  )
        13           Ti1 tau(  13) = (   6.5470072   2.9473109  12.5798724  )
        14           Ti1 tau(  14) = (   3.2302912   1.4573256  12.5082679  )
        15           O1  tau(  15) = (   0.0525813   0.0137714  14.6435187  )
        16           O1  tau(  16) = (   3.2708393   0.0302713  13.9228694  )
        17           O1  tau(  17) = (   4.5627544   1.5900677  16.0055000  )
        18           O1  tau(  18) = (   2.0437599   1.5040777  16.0764052  )
        19           Ti1 tau(  19) = (   3.3063064   2.9825517  15.6619520  )
        20           Ti1 tau(  20) = (   6.5607061   1.3194196  15.9785141  )
        21           O1  tau(  21) = (   3.2904802   0.0005063   4.7018136  )
        22           O1  tau(  22) = (   6.3855286   5.9589440  17.1610702  )
        23           O1  tau(  23) = (   1.3043587   1.4918075   6.0039043  )
        24           O1  tau(  24) = (   5.2767064   1.4903225   6.0039473  )
        25           Ti1 tau(  25) = (   0.0000382   5.9609847   6.0000000  )
        26           Ti1 tau(  26) = (   3.2902200   4.4714249   6.0002472  )
        27           O1  tau(  27) = (   0.0002396   2.9813036   7.9858123  )
        28           O1  tau(  28) = (   3.2902150   2.9813002   7.3038282  )
        29           O1  tau(  29) = (   4.5938453   4.4726049   9.2879030  )
        30           O1  tau(  30) = (   1.9864658   4.4711199   9.2879459  )
        31           Ti1 tau(  31) = (   3.2891106   5.8743827   9.1763621  )
        32           Ti1 tau(  32) = (   0.0006254   4.4649316   9.2693709  )
        33           O1  tau(  33) = (   3.2946552   2.9814125  11.3288906  )
        34           O1  tau(  34) = (   0.0092240   2.9805883  10.6323155  )
        35           O1  tau(  35) = (   1.2978438   4.4726441  12.6233041  )
        36           O1  tau(  36) = (   5.2969606   4.4732664  12.6435870  )
        37           Ti1 tau(  37) = (   6.5415350   5.9305516  12.5357152  )
        38           Ti1 tau(  38) = (   3.2303862   4.4559975  12.4807118  )
        39           O1  tau(  39) = (   0.0164246   2.9899045  14.7829194  )
        40           O1  tau(  40) = (   3.2688228   2.9752494  13.8698570  )
        41           O1  tau(  41) = (   4.5210259   4.4573316  15.9082071  )
        42           O1  tau(  42) = (   2.0412773   4.4882057  16.0214637  )
        43           Ti1 tau(  43) = (   3.2233344   5.9452837  15.7820064  )
        44           Ti1 tau(  44) = (   6.5355943   4.4735413  15.8975681  )
        45           O1  tau(  45) = (   3.2900926   2.9813045   4.7018136  )
        46           O1  tau(  46) = (   1.3039711   4.4726057   6.0039043  )
        47           O1  tau(  47) = (   5.2763189   4.4711207   6.0039473  )
        48           N1  tau(  48) = (   0.2167872   2.3688911  18.0161765  )
        49           C1  tau(  49) = (   0.4968348   1.8934616  19.1878903  )
        50           H1  tau(  50) = (   0.5617972   2.5522217  20.0513624  )
        51           H1  tau(  51) = (   0.6371857   0.8299532  19.2874115  )
        52           N1  tau(  52) = (   6.5661014   3.6386027  17.7750644  )
        53           H1  tau(  53) = (   0.0713089   4.2532688  18.5884219  )
        54           O1  tau(  54) = (   3.6608114   5.9026821  18.0962282  )
        55           H1  tau(  55) = (   4.6425638   0.0038819  18.0438526  )
        56           H1  tau(  56) = (   3.3658581   0.7595698  18.5153002  )

     number of k points=    10  Fermi-Dirac smearing, width (Ry)=  0.0073
                       cart. coord. in units 2pi/alat
        k(    1) = (   0.0000000   0.0000000   0.0000000), wk =   0.1250000
        k(    2) = (   0.0000000   0.0419351   0.0000000), wk =   0.2500000
        k(    3) = (   0.0000000  -0.0838702   0.0000000), wk =   0.1250000
        k(    4) = (   0.0379955   0.0000049   0.0000000), wk =   0.2500000
        k(    5) = (   0.0379955   0.0419400   0.0000000), wk =   0.2500000
        k(    6) = (   0.0379955  -0.0838652   0.0000000), wk =   0.2500000
        k(    7) = (   0.0379955  -0.0419301   0.0000000), wk =   0.2500000
        k(    8) = (  -0.0759910  -0.0000099   0.0000000), wk =   0.1250000
        k(    9) = (  -0.0759910   0.0419252   0.0000000), wk =   0.2500000
        k(   10) = (  -0.0759910  -0.0838800   0.0000000), wk =   0.1250000

     Initial potential from superposition of free atoms

     starting charge  386.99914, renormalised to  403.00000

     negative rho (up, down):  1.554E-02 0.000E+00

     %%%%%%%%%%%%%%%%%%%%%%%%%%%%%%%%%%%%%%%%%%%%%%%%%%%%%%%%%%%%%%%%%%%%%%%%
     %                                                                      %
     % You are using vdW-DF, which was implemented by the Thonhauser group. %
     % Please cite the following two papers that made this development      %
     % possible and the two reviews that describe the various versions:     %
     %                                                                      %
     %   T. Thonhauser et al., PRL 115, 136402 (2015).                      %
     %   T. Thonhauser et al., PRB 76, 125112 (2007).                       %
     %   K. Berland et al., Rep. Prog. Phys. 78, 066501 (2015).             %
     %   D.C. Langreth et al., J. Phys.: Condens. Matter 21, 084203 (2009). %
     %                                                                      %
     %                                                                      %
     % If you are calculating the stress with vdW-DF, please also cite:     %
     %                                                                      %
     %   R. Sabatini et al., J. Phys.: Condens. Matter 24, 424209 (2012).   %
     %                                                                      %
     %%%%%%%%%%%%%%%%%%%%%%%%%%%%%%%%%%%%%%%%%%%%%%%%%%%%%%%%%%%%%%%%%%%%%%%%

     Adding external electric field

     Computed dipole along edir(3) :
        Dipole              -12.7952 Ry au,        -32.5221 Debye
        Dipole field         -0.0241 Ry au,

        Potential amp.        2.2383 Ry
        Total length         46.3494 bohr

     Starting wfcs are  305 atomic wfcs
  @ DRIVER MODE: Message from server: STATUS
  @ DRIVER MODE: Message from server: POSDATA
  @ DRIVER MODE: Reading and sharing cell
  @ DRIVER MODE: Reading and sharing positions
  @ DRIVER MODE: Received positions

     Self-consistent Calculation

     iteration #  1     ecut=    29.40 Ry     beta= 0.05
     Davidson diagonalization with overlap
     c_bands:  3 eigenvalues not converged
     c_bands:  3 eigenvalues not converged
     c_bands:  4 eigenvalues not converged
     c_bands:  5 eigenvalues not converged
     c_bands:  1 eigenvalues not converged
     c_bands:  1 eigenvalues not converged
     c_bands:  4 eigenvalues not converged
     c_bands:  3 eigenvalues not converged
     ethr =  1.00E-05,  avg # of iterations = 27.5

[...]

     total energy              =   -2369.05781018 Ry
     estimated scf accuracy    <    6884.39584267 Ry

     iteration #  2     ecut=    29.40 Ry     beta= 0.05
     Davidson diagonalization with overlap
     ethr =  1.00E-02,  avg # of iterations = 24.0

[...]

     iteration # 42     ecut=    29.40 Ry     beta= 0.05
     Davidson diagonalization with overlap
     c_bands:  1 eigenvalues not converged
     ethr =  3.63E-07,  avg # of iterations = 15.0

[...]

     total energy              =   -2973.98325988 Ry
     estimated scf accuracy    <       0.00000025 Ry

     iteration # 58     ecut=    29.40 Ry     beta= 0.05
     Davidson diagonalization with overlap
     ethr =  6.11E-11,  avg # of iterations =  9.9

     negative rho (up, down):  1.541E-02 0.000E+00

     Adding external electric field

     Computed dipole along edir(3) :
        Dipole                0.9247 Ry au,          2.3503 Debye
        Dipole field          0.0017 Ry au,

        Potential amp.       -0.1618 Ry
        Total length         46.3494 bohr

     End of self-consistent calculation

          k = 0.0000 0.0000 0.0000 ( 18029 PWs)   bands (ev):

   -55.6132 -55.5852 -55.5792 -55.5471 -55.4946 -55.4837 -55.4529 -55.4307
   -55.3967 -55.3924 -55.3584 -55.3354 -55.0412 -54.9906 -54.5929 -54.5589
   -32.1292 -32.0973 -31.9853 -31.9304 -31.9174 -31.9050 -31.8837 -31.8707
   -31.8576 -31.8167 -31.7657 -31.7616 -31.7338 -31.7328 -31.7295 -31.7192
   -31.7147 -31.7113 -31.7084 -31.7059 -31.6753 -31.6706 -31.6616 -31.6339
   -31.6245 -31.6236 -31.6164 -31.6129 -31.5980 -31.5899 -31.5726 -31.5593
   -31.5471 -31.5406 -31.5357 -31.5058 -31.5035 -31.3048 -31.2654 -31.2420
   -31.1888 -31.1466 -30.9998 -30.9119 -30.8895 -30.8169 -30.7304 -30.6190
   -18.6936 -17.9042 -16.3331 -16.0908 -15.8513 -15.7741 -15.7416 -15.5280
   -15.4251 -15.3695 -15.2341 -15.1850 -15.1716 -15.1516 -15.1265 -15.0924
   -15.0663 -15.0526 -15.0456 -15.0291 -15.0038 -14.9772 -14.9568 -14.9529
   -14.9118 -14.8430 -14.7736 -14.7480 -14.6863 -14.6741 -14.2341 -13.0942
   -12.9778 -12.0727  -7.8462  -6.4406  -5.3028  -4.4972  -3.7070  -3.5688
    -3.5212  -3.4719  -3.4645  -3.2737  -3.2018  -3.0652  -2.8978  -2.8513
    -2.7796  -2.7425  -2.7027  -2.6416  -2.5990  -2.4934  -2.4555  -2.4259
    -2.4106  -2.3657  -2.3603  -2.3562  -2.2951  -2.2581  -2.1804  -2.1533
    -2.0737  -2.0039  -1.9759  -1.9493  -1.9272  -1.9104  -1.9063  -1.8575
    -1.8564  -1.8546  -1.7829  -1.7355  -1.6604  -1.6143  -1.5572  -1.4187
    -1.3774  -1.2675  -1.2210  -1.0996  -1.0955  -1.0742  -1.0486  -1.0095
    -1.0018  -0.8780  -0.7927  -0.7431  -0.7078  -0.6456  -0.5421  -0.5217
    -0.4331  -0.4276  -0.3735  -0.3603  -0.3454  -0.3155  -0.2376  -0.1249
    -0.1058  -0.0454   0.0038   0.0666   0.1102   0.1352   0.1732   0.2229
     0.2466   0.2877   0.3141   0.3253   0.3584   0.3961   0.4185   0.4965
     0.5694   0.6189   0.6680   0.7085   0.7127   0.8901   1.0026   1.0414
     1.1724   1.1957   1.3629   1.4306   1.5007   1.6224   2.0007   2.0463
     2.2181   3.4945   3.6082   3.6326   3.6425   3.7458   3.8791   3.9620
     4.0027   4.0272   4.0661

[...]

          k = 0.0380-0.0419 0.0000 ( 17876 PWs)   bands (ev):

[...]

          k =-0.0760-0.0000 0.0000 ( 17886 PWs)   bands (ev):

[...]

          k =-0.0760-0.0839 0.0000 ( 17948 PWs)   bands (ev):

   -55.5962 -55.5961 -55.5725 -55.5596 -55.4856 -55.4816 -55.4619 -55.4140
   -55.4128 -55.3781 -55.3729 -55.3374 -55.0344 -54.9974 -54.5760 -54.5757
   -31.9455 -31.9203 -31.9126 -31.9125 -31.8905 -31.8903 -31.8254 -31.8206
   -31.8124 -31.8073 -31.7891 -31.7386 -31.7348 -31.7317 -31.7229 -31.7210
   -31.7191 -31.7161 -31.7155 -31.7138 -31.7123 -31.6998 -31.6903 -31.6755
   -31.6729 -31.6682 -31.6472 -31.6180 -31.6171 -31.6076 -31.5988 -31.5947
   -31.5914 -31.5904 -31.5890 -31.5443 -31.5181 -31.2935 -31.2678 -31.2624
   -31.2460 -31.1900 -30.9023 -30.9021 -30.8127 -30.8124 -30.7737 -30.7736
   -18.6917 -17.8914 -15.7739 -15.6809 -15.5939 -15.5519 -15.4732 -15.4546
   -15.4008 -15.3357 -15.2975 -15.2789 -15.2375 -15.2089 -15.1643 -15.1518
   -15.1443 -15.1205 -15.0967 -15.0723 -15.0611 -15.0550 -15.0504 -15.0370
   -15.0033 -14.9715 -14.9347 -14.9309 -14.9024 -14.6595 -14.5835 -13.0796
   -13.0795 -12.0255  -7.7688  -6.4346  -5.3677  -4.5677  -3.2050  -3.0618
    -2.8913  -2.8511  -2.8086  -2.7509  -2.7422  -2.6880  -2.5635  -2.5543
    -2.5235  -2.4591  -2.4356  -2.4325  -2.4240  -2.4201  -2.3992  -2.3625
    -2.3615  -2.3068  -2.2982  -2.2869  -2.2812  -2.2623  -2.2456  -2.2426
    -2.2189  -2.1727  -2.1580  -2.1424  -2.0367  -1.9341  -1.8772  -1.8390
    -1.8086  -1.7619  -1.7571  -1.7371  -1.7217  -1.6829  -1.6669  -1.6109
    -1.4962  -1.4178  -1.3325  -1.3013  -1.2728  -1.2017  -1.1570  -1.0930
    -1.0520  -1.0465  -0.9633  -0.8482  -0.8357  -0.7986  -0.7702  -0.6938
    -0.6654  -0.6327  -0.5721  -0.5653  -0.5378  -0.5101  -0.4732  -0.3818
    -0.3640  -0.3576  -0.3278  -0.3192  -0.3078  -0.2669  -0.1944  -0.0950
    -0.0233  -0.0168   0.0893   0.2163   0.3135   0.4454   0.4736   0.5215
     0.5749   0.6084   0.6922   0.7000   0.7262   0.7898   0.8328   0.9009
     0.9250   0.9403   1.0260   1.0331   1.7945   1.7957   1.8663   1.8665
     2.1618   3.8589   3.8873   3.9077   3.9526   4.0301   4.0540   4.0548
     4.0609   4.1771   4.1892

     the Fermi energy is     3.5134 ev

!    total energy              =   -2973.98332144 Ry
     estimated scf accuracy    <       0.00000006 Ry
     smearing contrib. (-TS)   =      -0.02040672 Ry
     internal energy E=F+TS    =   -2973.96291472 Ry

     The total energy is F=E-TS. E is the sum of the following terms:
     one-electron contribution =  -24204.29182237 Ry
     hartree contribution      =   12196.77370933 Ry
     xc contribution           =    -494.26364395 Ry
     ewald contribution        =    9527.81722866 Ry
     electric field correction =       0.00161360 Ry

     convergence has been achieved in  58 iterations

     Forces acting on atoms (cartesian axes, Ry/au):

     atom    1 type  1   force =    -0.00005612   -0.00019758    0.09557191
     atom    2 type  1   force =     0.00002597   -0.00035710   -0.17555115
     atom    3 type  2   force =     0.00009643   -0.00012235   -0.02314700
     atom    4 type  2   force =     0.00000461   -0.00138939    0.05288359
     atom    5 type  2   force =    -0.00998524   -0.00075556    0.00325442
     atom    6 type  2   force =     0.01151631   -0.00009714    0.00282804
     atom    7 type  1   force =     0.00045561    0.00028672   -0.00664929
     atom    8 type  1   force =     0.00029332    0.00535859    0.01757651
     atom    9 type  2   force =    -0.00015150   -0.00015572   -0.00036911
     atom   10 type  2   force =    -0.00346339    0.00075641   -0.01266805
     atom   11 type  2   force =    -0.00081292   -0.00033114    0.00009797
     atom   12 type  2   force =     0.00033508   -0.00017421    0.00010481
     atom   13 type  1   force =    -0.00024920    0.00039781   -0.00020393
     atom   14 type  1   force =     0.00021446    0.00004100    0.00067808
     atom   15 type  2   force =    -0.00012304    0.00009295   -0.00038457
     atom   16 type  2   force =    -0.00003461   -0.00022760   -0.00003693
     atom   17 type  2   force =     0.00049844   -0.00014724   -0.00002801
     atom   18 type  2   force =    -0.00022093   -0.00037608   -0.00010828
     atom   19 type  1   force =    -0.00016862   -0.00012695    0.00027072
     atom   20 type  1   force =     0.00056402   -0.00000864   -0.00039548
     atom   21 type  2   force =     0.00007307    0.00003383    0.10318288
     atom   22 type  2   force =     0.00006885    0.00002185   -0.00007169
     atom   23 type  2   force =    -0.07160997   -0.00013873   -0.02753497
     atom   24 type  2   force =     0.07153702    0.00036379   -0.02757466
     atom   25 type  1   force =     0.00018371   -0.00008911    0.09523327
     atom   26 type  1   force =     0.00008141   -0.00039619   -0.17572856
     atom   27 type  2   force =     0.00011187   -0.00024456   -0.02206082
     atom   28 type  2   force =     0.00002759   -0.00099093    0.05228516
     atom   29 type  2   force =    -0.01013691    0.00036859    0.00286057
     atom   30 type  2   force =     0.01153824    0.00074654    0.00248025
     atom   31 type  1   force =     0.00027549    0.00394873   -0.01132121
     atom   32 type  1   force =     0.00045555   -0.00672172    0.01787221
     atom   33 type  2   force =    -0.00008252    0.00004654   -0.00018161
     atom   34 type  2   force =    -0.00395594    0.00073213   -0.01215502
     atom   35 type  2   force =    -0.00021798    0.00008166   -0.00016175
     atom   36 type  2   force =     0.00000615    0.00003536   -0.00007323
     atom   37 type  1   force =    -0.00003545   -0.00040895    0.00036888
     atom   38 type  1   force =     0.00005313    0.00001452    0.00040100
     atom   39 type  2   force =     0.00035301   -0.00035931    0.00023862
     atom   40 type  2   force =    -0.00050033    0.00026583   -0.00007494
     atom   41 type  2   force =     0.00005519    0.00008874   -0.00016667
     atom   42 type  2   force =     0.00036165    0.00019396    0.00023061
     atom   43 type  1   force =    -0.00022819   -0.00025529   -0.00014890
     atom   44 type  1   force =    -0.00013217   -0.00020018    0.00022275
     atom   45 type  2   force =     0.00006912   -0.00000575    0.10314446
     atom   46 type  2   force =    -0.07161049   -0.00003437   -0.02751094
     atom   47 type  2   force =     0.07154212    0.00035658   -0.02759899
     atom   48 type  3   force =     0.00009312    0.00003920   -0.00022574
     atom   49 type  4   force =     0.00074560   -0.00014007    0.00029703
     atom   50 type  5   force =     0.00028123   -0.00023547    0.00040489
     atom   51 type  5   force =     0.00054518   -0.00026749    0.00004346
     atom   52 type  3   force =    -0.00014228    0.00012894   -0.00042031
     atom   53 type  5   force =     0.00056342    0.00039733   -0.00010358
     atom   54 type  2   force =     0.00266092   -0.00506361   -0.00247682
     atom   55 type  5   force =     0.00217608   -0.00151108   -0.00061357
     atom   56 type  5   force =    -0.00394514    0.00673189    0.00321370

     Total force =     0.364867     Total SCF correction =     0.000462
  @ DRIVER MODE: Message from server: STATUS
  @ DRIVER MODE: Message from server: GETFORCE
  @ DRIVER MODE: Returning v,forces,stress,ensemble

     Writing output data file ./calc.save/
  @ DRIVER MODE: Message from server: EXIT
  @ DRIVE MODE: Exiting

     General routines

     Parallel routines

   This run was terminated on:   8:34:26  16Sep2021

   JOB DONE.