     Program PWSCF v.6.7GPU starts on  2Aug2021 at 19:57:37

     R & G space division:  proc/nbgrp/npool/nimage =      16
     Reading input from /storage/home/hcoda1/3/ntian30/research/carbon/02Aug_vib_paired/ads_slab/CH3NH_b/out_0028/pw.inp
Warning: card &CELL ignored
Warning: card   CELL_DYNAMICS='IPI', ignored
Warning: card / ignored

     Current dimensions of program PWSCF are:
     Max number of different atomic species (ntypx) = 10
     Max number of k-points (npk) =  40000
     Max angular momentum in pseudopotentials (lmaxx) =  3
     Presently no symmetry can be used with electric field

     Message from routine cell_base_init:
     DEPRECATED: use true lattice parameter, not A to a.u. conversion factor

     IMPORTANT: XC functional enforced from input :
     Exchange-correlation= BEEF-VDW
                           (   1   4  43  14   2   0   0)
     Any further DFT definition will be discarded
     Please, verify this is what you really want

  @ DRIVER MODE: Connecting to
 qe_1139763_2482541.sched-torque.pace.gatech.edujk8zmxpk_scratch
  using UNIX socket
  @ DRIVER MODE: Message from server: STATUS
  @ DRIVER MODE: Message from server: INIT
  @ DRIVER MODE: Receiving replica           0          -1
  @ DRIVER MODE: Receiving encoded integer          25
  @ DRIVER MODE:  SCF:  T  FORCE:  T  STRESS:  F  VC:  F  ENSEMBLE:  F
  @ DRIVER MODE:  SCF:  T  FORCE:  T  STRESS:  F  VC:  F  ENSEMBLE:  F

     Using Slab Decomposition

     bravais-lattice index     =            0
     lattice parameter (alat)  =       1.8897  a.u.
     unit-cell volume          =    6658.9804 (a.u.)^3
     number of atoms/cell      =           53
     number of atomic types    =            5
     number of electrons       =       391.00
     number of Kohn-Sham states=          205
     kinetic-energy cutoff     =      29.3995  Ry
     charge density cutoff     =     293.9946  Ry
     scf convergence threshold =      7.3E-08
     mixing beta               =       0.0500
     number of iterations used =            8  plain     mixing
     Exchange-correlation= BEEF-VDW
                           (   1   4  43  14   2   0   0)

     celldm(1)=   1.889726  celldm(2)=   0.000000  celldm(3)=   0.000000
     celldm(4)=   0.000000  celldm(5)=   0.000000  celldm(6)=   0.000000

     crystal axes: (cart. coord. in units of alat)
               a(1) = (   6.579727   0.000000   0.000000 )
               a(2) = (  -0.000775   5.961596   0.000000 )
               a(3) = (   0.000000   0.000000  25.155947 )

     reciprocal axes: (cart. coord. in units 2 pi/alat)
               b(1) = (  0.151982  0.000020  0.000000 )
               b(2) = (  0.000000  0.167740  0.000000 )
               b(3) = (  0.000000  0.000000  0.039752 )

     PseudoPot. # 1 for Ti read from file:
     /storage/coda1/p-amedford6/0/shared/rich_project_chbe-medford/medford-share/data/pseudos_module/espresso/nninc/pbe/van/Ti.UPF
     MD5 check sum: 8e4df49b7f0d34bbd5052bf3f5ea0213
     Pseudo is Ultrasoft, Zval = 12.0
     Generated by new atomic code, or converted to UPF format
     Using radial grid of  851 points,  6 beta functions with:
                l(1) =   0
                l(2) =   0
                l(3) =   1
                l(4) =   1
                l(5) =   2
                l(6) =   2
     Q(r) pseudized with  8 coefficients,  rinner =    1.000   1.000   1.000
                                                       1.000   1.000

     PseudoPot. # 2 for O  read from file:
     /storage/coda1/p-amedford6/0/shared/rich_project_chbe-medford/medford-share/data/pseudos_module/espresso/nninc/pbe/van/O.UPF
     MD5 check sum: 78c19812648e8988a0fe644b0f25305e
     Pseudo is Ultrasoft, Zval =  6.0
     Generated by new atomic code, or converted to UPF format
     Using radial grid of  737 points,  4 beta functions with:
                l(1) =   0
                l(2) =   0
                l(3) =   1
                l(4) =   1
     Q(r) pseudized with  8 coefficients,  rinner =    0.800   0.800   0.800

     PseudoPot. # 3 for H  read from file:
     /storage/coda1/p-amedford6/0/shared/rich_project_chbe-medford/medford-share/data/pseudos_module/espresso/nninc/pbe/van/H.UPF
     MD5 check sum: b5ee9d7bfd3a09ee7748110bda690ff7
     Pseudo is Ultrasoft, Zval =  1.0
     Generated by new atomic code, or converted to UPF format
     Using radial grid of  615 points,  1 beta functions with:
                l(1) =   0
     Q(r) pseudized with  8 coefficients,  rinner =    0.800

     PseudoPot. # 4 for N  read from file:
     /storage/coda1/p-amedford6/0/shared/rich_project_chbe-medford/medford-share/data/pseudos_module/espresso/nninc/pbe/van/N.UPF
     MD5 check sum: 90d10febe142ad51ac9d5be1deb811c4
     Pseudo is Ultrasoft, Zval =  5.0
     Generated by new atomic code, or converted to UPF format
     Using radial grid of  729 points,  4 beta functions with:
                l(1) =   0
                l(2) =   0
                l(3) =   1
                l(4) =   1
     Q(r) pseudized with  8 coefficients,  rinner =    0.800   0.800   0.800

     PseudoPot. # 5 for C  read from file:
     /storage/coda1/p-amedford6/0/shared/rich_project_chbe-medford/medford-share/data/pseudos_module/espresso/nninc/pbe/van/C.UPF
     MD5 check sum: 1a69bf6b8db32088f5b2163dbdb77a27
     Pseudo is Ultrasoft, Zval =  4.0
     Generated by new atomic code, or converted to UPF format
     Using radial grid of  721 points,  4 beta functions with:
                l(1) =   0
                l(2) =   0
                l(3) =   1
                l(4) =   1
     Q(r) pseudized with  8 coefficients,  rinner =    0.800   0.800   0.800

     atomic species   valence    mass     pseudopotential
        Ti1           12.00    47.86700     Ti( 1.00)
        O1             6.00    15.99900     O ( 1.00)
        H1             1.00     1.00800     H ( 1.00)
        N1             5.00    14.00700     N ( 1.00)
        C1             4.00    12.01100     C ( 1.00)

     No symmetry found

   Cartesian axes

     site n.     atom                  positions (alat units)
         1           Ti1 tau(   1) = (   0.0004258   2.9801865   6.0000000  )
         2           Ti1 tau(   2) = (   3.2906075   1.4906267   6.0002472  )
         3           O1  tau(   3) = (   0.0006271   0.0005054   7.9858123  )
         4           O1  tau(   4) = (   3.2906025   0.0005020   7.3038282  )
         5           O1  tau(   5) = (   4.5942328   1.4918067   9.2879030  )
         6           O1  tau(   6) = (   1.9868534   1.4903216   9.2879459  )
         7           Ti1 tau(   7) = (   3.2907910   2.8959150   9.1758416  )
         8           Ti1 tau(   8) = (   0.0015273   1.4827037   9.2680791  )
         9           O1  tau(   9) = (   3.2906183   5.9580730  11.3246990  )
        10           O1  tau(  10) = (   0.0116148   5.9584955  10.6183126  )
        11           O1  tau(  11) = (   1.3160896   1.4863360  12.6200149  )
        12           O1  tau(  12) = (   5.2947061   1.4800608  12.6053981  )
        13           Ti1 tau(  13) = (   6.5224157   2.9421717  12.6196007  )
        14           Ti1 tau(  14) = (   3.2076970   1.4879367  12.4696142  )
        15           O1  tau(  15) = (   6.5517659   0.0158556  14.6493665  )
        16           O1  tau(  16) = (   3.3109316   0.0069331  13.9179417  )
        17           O1  tau(  17) = (   4.5083530   1.5297238  16.0872293  )
        18           O1  tau(  18) = (   2.0274073   1.5273405  16.0409094  )
        19           Ti1 tau(  19) = (   3.2920608   3.0081397  15.6838061  )
        20           Ti1 tau(  20) = (   0.0536170   1.5416865  15.8648894  )
        21           O1  tau(  21) = (   3.2904802   0.0005063   4.7018136  )
        22           O1  tau(  22) = (   0.0122827   0.0301012  17.2134340  )
        23           O1  tau(  23) = (   1.3043587   1.4918075   6.0039043  )
        24           O1  tau(  24) = (   5.2767064   1.4903225   6.0039473  )
        25           Ti1 tau(  25) = (   0.0000382   5.9609847   6.0000000  )
        26           Ti1 tau(  26) = (   3.2902200   4.4714249   6.0002472  )
        27           O1  tau(  27) = (   0.0002396   2.9813036   7.9858123  )
        28           O1  tau(  28) = (   3.2902150   2.9813002   7.3038282  )
        29           O1  tau(  29) = (   4.5938453   4.4726049   9.2879030  )
        30           O1  tau(  30) = (   1.9864658   4.4711199   9.2879459  )
        31           Ti1 tau(  31) = (   3.2891106   5.8743827   9.1763621  )
        32           Ti1 tau(  32) = (   0.0006254   4.4649316   9.2693709  )
        33           O1  tau(  33) = (   3.2866862   2.9837957  11.3234553  )
        34           O1  tau(  34) = (   0.0092240   2.9805883  10.6323155  )
        35           O1  tau(  35) = (   1.3095649   4.4762946  12.6335636  )
        36           O1  tau(  36) = (   5.2963019   4.4650584  12.6194355  )
        37           Ti1 tau(  37) = (   6.5192018   5.9199268  12.5733442  )
        38           Ti1 tau(  38) = (   3.2055211   4.4685508  12.4747853  )
        39           O1  tau(  39) = (   6.5624772   2.9349094  14.6472044  )
        40           O1  tau(  40) = (   3.3065106   2.9879112  13.8942307  )
        41           O1  tau(  41) = (   4.5199725   4.4841037  16.0899424  )
        42           O1  tau(  42) = (   2.0389375   4.4882992  16.0664246  )
        43           Ti1 tau(  43) = (   3.3279474   0.0221627  15.7114356  )
        44           Ti1 tau(  44) = (   0.0314192   4.6578676  16.1055029  )
        45           O1  tau(  45) = (   3.2900926   2.9813045   4.7018136  )
        46           O1  tau(  46) = (   1.3039711   4.4726057   6.0039043  )
        47           O1  tau(  47) = (   5.2763189   4.4711207   6.0039473  )
        48           H1  tau(  48) = (   5.5751926   2.9245997  17.7795037  )
        49           N1  tau(  49) = (   6.5345126   2.9709300  17.4463781  )
        50           C1  tau(  50) = (   0.8205834   2.9192471  18.6315588  )
        51           H1  tau(  51) = (   0.6379014   3.7726647  19.2931901  )
        52           H1  tau(  52) = (   0.6616828   2.0003841  19.1881566  )
        53           H1  tau(  53) = (   1.8691752   2.9530840  18.3388921  )

     number of k points=    10  Fermi-Dirac smearing, width (Ry)=  0.0073
                       cart. coord. in units 2pi/alat
        k(    1) = (   0.0000000   0.0000000   0.0000000), wk =   0.1250000
        k(    2) = (   0.0000000   0.0419351   0.0000000), wk =   0.2500000
        k(    3) = (   0.0000000  -0.0838702   0.0000000), wk =   0.1250000
        k(    4) = (   0.0379955   0.0000049   0.0000000), wk =   0.2500000
        k(    5) = (   0.0379955   0.0419400   0.0000000), wk =   0.2500000
        k(    6) = (   0.0379955  -0.0838652   0.0000000), wk =   0.2500000
        k(    7) = (   0.0379955  -0.0419301   0.0000000), wk =   0.2500000
        k(    8) = (  -0.0759910  -0.0000099   0.0000000), wk =   0.1250000
        k(    9) = (  -0.0759910   0.0419252   0.0000000), wk =   0.2500000
        k(   10) = (  -0.0759910  -0.0838800   0.0000000), wk =   0.1250000

     Initial potential from superposition of free atoms

     starting charge  374.99916, renormalised to  391.00000

     negative rho (up, down):  1.779E-02 0.000E+00

     %%%%%%%%%%%%%%%%%%%%%%%%%%%%%%%%%%%%%%%%%%%%%%%%%%%%%%%%%%%%%%%%%%%%%%%%
     %                                                                      %
     % You are using vdW-DF, which was implemented by the Thonhauser group. %
     % Please cite the following two papers that made this development      %
     % possible and the two reviews that describe the various versions:     %
     %                                                                      %
     %   T. Thonhauser et al., PRL 115, 136402 (2015).                      %
     %   T. Thonhauser et al., PRB 76, 125112 (2007).                       %
     %   K. Berland et al., Rep. Prog. Phys. 78, 066501 (2015).             %
     %   D.C. Langreth et al., J. Phys.: Condens. Matter 21, 084203 (2009). %
     %                                                                      %
     %                                                                      %
     % If you are calculating the stress with vdW-DF, please also cite:     %
     %                                                                      %
     %   R. Sabatini et al., J. Phys.: Condens. Matter 24, 424209 (2012).   %
     %                                                                      %
     %%%%%%%%%%%%%%%%%%%%%%%%%%%%%%%%%%%%%%%%%%%%%%%%%%%%%%%%%%%%%%%%%%%%%%%%

     Adding external electric field

     Computed dipole along edir(3) :
        Dipole               -5.8162 Ry au,        -14.7834 Debye
        Dipole field         -0.0110 Ry au,

        Potential amp.        1.0175 Ry
        Total length         46.3494 bohr

     Starting wfcs are  296 atomic wfcs
  @ DRIVER MODE: Message from server: STATUS
  @ DRIVER MODE: Message from server: POSDATA
  @ DRIVER MODE: Reading and sharing cell
  @ DRIVER MODE: Reading and sharing positions
  @ DRIVER MODE: Received positions

     Self-consistent Calculation

     iteration #  1     ecut=    29.40 Ry     beta= 0.05
     Davidson diagonalization with overlap
     c_bands:  3 eigenvalues not converged
     c_bands:  1 eigenvalues not converged
     c_bands:  1 eigenvalues not converged
     c_bands:  3 eigenvalues not converged
     c_bands:  4 eigenvalues not converged
     c_bands:  2 eigenvalues not converged
     c_bands:  1 eigenvalues not converged
     c_bands:  1 eigenvalues not converged
     c_bands:  2 eigenvalues not converged
     ethr =  1.00E-05,  avg # of iterations = 19.6

[...]

     total energy              =   -2770.86197057 Ry
     estimated scf accuracy    <    1639.29694455 Ry

[...]

     iteration #  4     ecut=    29.40 Ry     beta= 0.05
     Davidson diagonalization with overlap
     ethr =  1.00E-02,  avg # of iterations =  6.3

[...]

     iteration # 55     ecut=    29.40 Ry     beta= 0.05
     Davidson diagonalization with overlap
     c_bands:  2 eigenvalues not converged
     c_bands:  1 eigenvalues not converged
     ethr =  2.81E-10,  avg # of iterations = 16.7

[...]

     total energy              =   -2920.42399231 Ry
     estimated scf accuracy    <       0.00000018 Ry

     iteration # 61     ecut=    29.40 Ry     beta= 0.05
     Davidson diagonalization with overlap
     ethr =  3.16E-11,  avg # of iterations =  7.3

     negative rho (up, down):  1.815E-02 0.000E+00

     Adding external electric field

     Computed dipole along edir(3) :
        Dipole                0.6862 Ry au,          1.7442 Debye
        Dipole field          0.0013 Ry au,

        Potential amp.       -0.1200 Ry
        Total length         46.3494 bohr

     End of self-consistent calculation

          k = 0.0000 0.0000 0.0000 ( 18029 PWs)   bands (ev):

   -55.9944 -55.9870 -55.9604 -55.9509 -55.9015 -55.8370 -55.8370 -55.8026
   -55.7983 -55.7643 -55.7588 -55.7252 -55.5383 -55.2708 -54.9667 -54.9327
   -32.5460 -32.4758 -32.3489 -32.3388 -32.3145 -32.2977 -32.2876 -32.2499
   -32.2356 -32.2349 -32.2108 -32.2034 -32.1697 -32.1466 -32.1391 -32.1330
   -32.1295 -32.0978 -32.0769 -32.0517 -32.0475 -32.0400 -32.0246 -31.9976
   -31.9906 -31.9900 -31.9846 -31.9767 -31.9621 -31.9563 -31.9528 -31.9427
   -31.9352 -31.9280 -31.9120 -31.9056 -31.8714 -31.8077 -31.7095 -31.5457
   -31.5408 -31.4660 -31.3737 -31.2859 -31.2635 -31.1904 -31.1040 -30.9929
   -16.7551 -16.4717 -16.2922 -16.1491 -16.1171 -16.0315 -15.8306 -15.7039
   -15.6918 -15.5881 -15.5550 -15.5285 -15.5220 -15.4956 -15.4907 -15.4297
   -15.4278 -15.4140 -15.4047 -15.3480 -15.3235 -15.2700 -15.1906 -15.1576
   -15.1522 -15.1244 -15.0428 -15.0375 -14.5838 -14.1772 -13.4693 -13.3530
    -8.9459  -4.3727  -4.1262  -3.9518  -3.9126  -3.8968  -3.8471  -3.5929
    -3.5779  -3.3349  -3.2278  -3.1934  -3.1773  -3.1683  -3.1481  -3.1371
    -2.8909  -2.8238  -2.8089  -2.7873  -2.7791  -2.7730  -2.7610  -2.7602
    -2.7206  -2.6579  -2.5326  -2.4988  -2.4192  -2.3819  -2.3517  -2.3039
    -2.2600  -2.2531  -2.2423  -2.2235  -2.2105  -2.1868  -2.1704  -2.0366
    -1.9708  -1.8354  -1.8006  -1.7813  -1.5950  -1.5362  -1.4715  -1.4330
    -1.4197  -1.4126  -1.3807  -1.2992  -1.2076  -1.1515  -1.1415  -1.0850
    -1.0078  -0.9961  -0.8890  -0.8839  -0.8580  -0.7653  -0.7550  -0.7438
    -0.7248  -0.6573  -0.5575  -0.4791  -0.4342  -0.4041  -0.3736  -0.3040
    -0.2738  -0.1715  -0.1560  -0.1084  -0.1027  -0.0611  -0.0158  -0.0065
     0.0023   0.0102   0.0355   0.1780   0.2889   0.3439   0.3838   0.3895
     0.5445   0.5721   0.6691   0.7576   0.9822   1.0551   1.1483   1.2480
     1.3232   1.6259   1.6713   3.1487   3.2275   3.2812   3.2900   3.3925
     3.3982   3.5984   3.6080   3.6209   3.6886

[...]

          k = 0.0380-0.0419 0.0000 ( 17876 PWs)   bands (ev):

[...]

          k =-0.0760-0.0000 0.0000 ( 17886 PWs)   bands (ev):

[...]

          k =-0.0760-0.0839 0.0000 ( 17948 PWs)   bands (ev):

   -55.9777 -55.9770 -55.9702 -55.9675 -55.8965 -55.8419 -55.8205 -55.8190
   -55.7820 -55.7801 -55.7426 -55.7415 -55.5373 -55.2716 -54.9497 -54.9496
   -32.3509 -32.3473 -32.2914 -32.2908 -32.2804 -32.2733 -32.2725 -32.2594
   -32.1976 -32.1965 -32.1915 -32.1872 -32.1637 -32.1325 -32.1179 -32.1137
   -32.1005 -32.0985 -32.0972 -32.0965 -32.0932 -32.0823 -32.0800 -32.0480
   -32.0402 -32.0391 -32.0096 -31.9985 -31.9790 -31.9786 -31.9752 -31.9743
   -31.9575 -31.9568 -31.9551 -31.9522 -31.8768 -31.8101 -31.7049 -31.6102
   -31.5426 -31.4905 -31.2762 -31.2761 -31.1865 -31.1863 -31.1473 -31.1472
   -16.2087 -16.1736 -15.9369 -15.9257 -15.9190 -15.9034 -15.7575 -15.7106
   -15.6990 -15.6919 -15.6691 -15.6460 -15.5884 -15.5595 -15.5306 -15.5219
   -15.5158 -15.5137 -15.4521 -15.4469 -15.4238 -15.4170 -15.3033 -15.2995
   -15.2900 -15.2139 -15.1594 -15.0196 -14.7453 -14.2006 -13.4549 -13.4548
    -8.9507  -4.3850  -3.5028  -3.4627  -3.2878  -3.2453  -3.1777  -3.1611
    -3.1370  -3.0685  -2.9044  -2.8875  -2.8762  -2.8610  -2.8188  -2.8126
    -2.8021  -2.7896  -2.7828  -2.7638  -2.7305  -2.6978  -2.6593  -2.6519
    -2.6434  -2.6183  -2.6072  -2.5860  -2.5739  -2.5429  -2.5339  -2.5162
    -2.4867  -2.2251  -2.2052  -2.1942  -2.1233  -2.1166  -2.0830  -2.0651
    -2.0553  -2.0421  -1.9852  -1.8815  -1.7244  -1.6929  -1.6848  -1.6680
    -1.5850  -1.5757  -1.4221  -1.4010  -1.3803  -1.3432  -1.2894  -1.2667
    -1.2261  -1.1677  -1.1504  -1.0863  -1.0695  -1.0103  -0.9550  -0.9530
    -0.9324  -0.8566  -0.7752  -0.7595  -0.7463  -0.7072  -0.6974  -0.6102
    -0.5866  -0.4933  -0.4791  -0.4223  -0.3957  -0.2948  -0.1373  -0.0103
     0.0433   0.0693   0.1268   0.2254   0.2694   0.2814   0.3255   0.3317
     0.3933   0.4338   0.5468   0.5526   0.6275   0.7188   1.2611   1.4195
     1.4201   1.4911   1.4911   3.4120   3.4171   3.4643   3.4937   3.6489
     3.6535   3.6754   3.6765   3.8011   3.8177

     the Fermi energy is     3.1417 ev

!    total energy              =   -2920.42402901 Ry
     estimated scf accuracy    <       0.00000006 Ry
     smearing contrib. (-TS)   =      -0.02203206 Ry
     internal energy E=F+TS    =   -2920.40199695 Ry

     The total energy is F=E-TS. E is the sum of the following terms:
     one-electron contribution =  -24701.82754881 Ry
     hartree contribution      =   12435.52531171 Ry
     xc contribution           =    -480.87700663 Ry
     ewald contribution        =    9826.77635811 Ry
     electric field correction =       0.00088867 Ry

     convergence has been achieved in  61 iterations

     Forces acting on atoms (cartesian axes, Ry/au):

     atom    1 type  1   force =     0.00012962   -0.00026727    0.09686959
     atom    2 type  1   force =     0.00002493   -0.00053493   -0.17508193
     atom    3 type  2   force =     0.00013424   -0.00007569   -0.02545454
     atom    4 type  2   force =    -0.00000905   -0.00136695    0.05232722
     atom    5 type  2   force =    -0.01237606   -0.00013774    0.00302134
     atom    6 type  2   force =     0.01380738    0.00023325    0.00238264
     atom    7 type  1   force =     0.00057621    0.00033207   -0.01263332
     atom    8 type  1   force =     0.00045615    0.00595993    0.03111197
     atom    9 type  2   force =    -0.00033223    0.00023880    0.00040270
     atom   10 type  2   force =    -0.00269424    0.00069704   -0.01623653
     atom   11 type  2   force =    -0.00041238    0.00012591    0.00017029
     atom   12 type  2   force =     0.00013969    0.00013608    0.00019969
     atom   13 type  1   force =    -0.00011869    0.00024800    0.00023481
     atom   14 type  1   force =    -0.00003662   -0.00021813   -0.00014656
     atom   15 type  2   force =     0.00020376    0.00010254    0.00034055
     atom   16 type  2   force =    -0.00006801    0.00027492    0.00023305
     atom   17 type  2   force =    -0.00008199   -0.00021586   -0.00025106
     atom   18 type  2   force =     0.00034721   -0.00010152    0.00022418
     atom   19 type  1   force =    -0.00003298    0.00019980   -0.00008345
     atom   20 type  1   force =    -0.00003283   -0.00004715   -0.00036377
     atom   21 type  2   force =     0.00007138   -0.00005899    0.10308907
     atom   22 type  2   force =    -0.00012222   -0.00001833    0.00028291
     atom   23 type  2   force =    -0.07163277   -0.00016247   -0.02783956
     atom   24 type  2   force =     0.07155110    0.00032387   -0.02789691
     atom   25 type  1   force =     0.00010923   -0.00024164    0.09667654
     atom   26 type  1   force =     0.00012087   -0.00028124   -0.17525768
     atom   27 type  2   force =     0.00013222   -0.00023284   -0.02452567
     atom   28 type  2   force =     0.00002968   -0.00112720    0.05224427
     atom   29 type  2   force =    -0.01249762    0.00014120    0.00267819
     atom   30 type  2   force =     0.01381771    0.00069384    0.00201939
     atom   31 type  1   force =     0.00051532    0.00291573   -0.01338435
     atom   32 type  1   force =     0.00027882   -0.00822448    0.03150646
     atom   33 type  2   force =    -0.00005573   -0.00006496   -0.00010911
     atom   34 type  2   force =    -0.00183989    0.00056212   -0.02455604
     atom   35 type  2   force =    -0.00014209    0.00010306    0.00004807
     atom   36 type  2   force =    -0.00024267    0.00020133    0.00012455
     atom   37 type  1   force =    -0.00004918    0.00031558    0.00024548
     atom   38 type  1   force =    -0.00023483   -0.00006239   -0.00015557
     atom   39 type  2   force =     0.00005739    0.00020695   -0.00014453
     atom   40 type  2   force =    -0.00017284    0.00026960   -0.00014245
     atom   41 type  2   force =     0.00004536    0.00006745    0.00022141
     atom   42 type  2   force =    -0.00009606   -0.00001644    0.00037905
     atom   43 type  1   force =    -0.00021590   -0.00021381    0.00046015
     atom   44 type  1   force =     0.00033006   -0.00025797    0.00013947
     atom   45 type  2   force =     0.00005196   -0.00006649    0.10309619
     atom   46 type  2   force =    -0.07163775   -0.00008839   -0.02783492
     atom   47 type  2   force =     0.07157096    0.00033861   -0.02791579
     atom   48 type  3   force =    -0.00052772    0.00016634   -0.00000627
     atom   49 type  4   force =     0.00024269   -0.00057317   -0.00048566
     atom   50 type  5   force =     0.00285921    0.00909922   -0.00411191
     atom   51 type  3   force =    -0.00035296   -0.00042285   -0.00078903
     atom   52 type  3   force =    -0.00119655   -0.00870903    0.00437931
     atom   53 type  3   force =    -0.00039129   -0.00016534    0.00029807

     Total force =     0.368654     Total SCF correction =     0.000610
  @ DRIVER MODE: Message from server: STATUS
  @ DRIVER MODE: Message from server: GETFORCE
  @ DRIVER MODE: Returning v,forces,stress,ensemble

     Writing output data file ./calc.save/
  @ DRIVER MODE: Message from server: EXIT
  @ DRIVE MODE: Exiting

     General routines

     Parallel routines

   This run was terminated on:  20:11:25   2Aug2021

   JOB DONE.