     Program PWSCF v.6.7GPU starts on 16Sep2021 at  7: 8: 1

     R & G space division:  proc/nbgrp/npool/nimage =      10
     Reading input from /storage/home/hcoda1/3/ntian30/research/carbon/CxH_vib/H2O_calc/ads_slab/CH3N2HH2O_a/out_0048/pw.inp
Warning: card &CELL ignored
Warning: card   CELL_DYNAMICS='IPI', ignored
Warning: card / ignored

     Current dimensions of program PWSCF are:
     Max number of different atomic species (ntypx) = 10
     Max number of k-points (npk) =  40000
     Max angular momentum in pseudopotentials (lmaxx) =  3
     Presently no symmetry can be used with electric field

     Message from routine cell_base_init:
     DEPRECATED: use true lattice parameter, not A to a.u. conversion factor

     IMPORTANT: XC functional enforced from input :
     Exchange-correlation= BEEF-VDW
                           (   1   4  43  14   2   0   0)
     Any further DFT definition will be discarded
     Please, verify this is what you really want

  @ DRIVER MODE: Connecting to
 qe_1139763_2852617.sched-torque.pace.gatech.edu_9rhfqj1_scratch
  using UNIX socket
  @ DRIVER MODE: Message from server: STATUS
  @ DRIVER MODE: Message from server: INIT
  @ DRIVER MODE: Receiving replica           0          -1
  @ DRIVER MODE: Receiving encoded integer          25
  @ DRIVER MODE:  SCF:  T  FORCE:  T  STRESS:  F  VC:  F  ENSEMBLE:  F
  @ DRIVER MODE:  SCF:  T  FORCE:  T  STRESS:  F  VC:  F  ENSEMBLE:  F

     Using Slab Decomposition

     bravais-lattice index     =            0
     lattice parameter (alat)  =       1.8897  a.u.
     unit-cell volume          =    6658.9804 (a.u.)^3
     number of atoms/cell      =           57
     number of atomic types    =            5
     number of electrons       =       404.00
     number of Kohn-Sham states=          212
     kinetic-energy cutoff     =      29.3995  Ry
     charge density cutoff     =     293.9946  Ry
     scf convergence threshold =      7.3E-08
     mixing beta               =       0.0500
     number of iterations used =            8  plain     mixing
     Exchange-correlation= BEEF-VDW
                           (   1   4  43  14   2   0   0)

     celldm(1)=   1.889726  celldm(2)=   0.000000  celldm(3)=   0.000000
     celldm(4)=   0.000000  celldm(5)=   0.000000  celldm(6)=   0.000000

     crystal axes: (cart. coord. in units of alat)
               a(1) = (   6.579727   0.000000   0.000000 )
               a(2) = (  -0.000775   5.961596   0.000000 )
               a(3) = (   0.000000   0.000000  25.155947 )

     reciprocal axes: (cart. coord. in units 2 pi/alat)
               b(1) = (  0.151982  0.000020  0.000000 )
               b(2) = (  0.000000  0.167740  0.000000 )
               b(3) = (  0.000000  0.000000  0.039752 )

     PseudoPot. # 1 for Ti read from file:
     /storage/coda1/p-amedford6/0/shared/rich_project_chbe-medford/medford-share/data/pseudos_module/espresso/nninc/pbe/van/Ti.UPF
     MD5 check sum: 8e4df49b7f0d34bbd5052bf3f5ea0213
     Pseudo is Ultrasoft, Zval = 12.0
     Generated by new atomic code, or converted to UPF format
     Using radial grid of  851 points,  6 beta functions with:
                l(1) =   0
                l(2) =   0
                l(3) =   1
                l(4) =   1
                l(5) =   2
                l(6) =   2
     Q(r) pseudized with  8 coefficients,  rinner =    1.000   1.000   1.000
                                                       1.000   1.000

     PseudoPot. # 2 for O  read from file:
     /storage/coda1/p-amedford6/0/shared/rich_project_chbe-medford/medford-share/data/pseudos_module/espresso/nninc/pbe/van/O.UPF
     MD5 check sum: 78c19812648e8988a0fe644b0f25305e
     Pseudo is Ultrasoft, Zval =  6.0
     Generated by new atomic code, or converted to UPF format
     Using radial grid of  737 points,  4 beta functions with:
                l(1) =   0
                l(2) =   0
                l(3) =   1
                l(4) =   1
     Q(r) pseudized with  8 coefficients,  rinner =    0.800   0.800   0.800

     PseudoPot. # 3 for N  read from file:
     /storage/coda1/p-amedford6/0/shared/rich_project_chbe-medford/medford-share/data/pseudos_module/espresso/nninc/pbe/van/N.UPF
     MD5 check sum: 90d10febe142ad51ac9d5be1deb811c4
     Pseudo is Ultrasoft, Zval =  5.0
     Generated by new atomic code, or converted to UPF format
     Using radial grid of  729 points,  4 beta functions with:
                l(1) =   0
                l(2) =   0
                l(3) =   1
                l(4) =   1
     Q(r) pseudized with  8 coefficients,  rinner =    0.800   0.800   0.800

     PseudoPot. # 4 for C  read from file:
     /storage/coda1/p-amedford6/0/shared/rich_project_chbe-medford/medford-share/data/pseudos_module/espresso/nninc/pbe/van/C.UPF
     MD5 check sum: 1a69bf6b8db32088f5b2163dbdb77a27
     Pseudo is Ultrasoft, Zval =  4.0
     Generated by new atomic code, or converted to UPF format
     Using radial grid of  721 points,  4 beta functions with:
                l(1) =   0
                l(2) =   0
                l(3) =   1
                l(4) =   1
     Q(r) pseudized with  8 coefficients,  rinner =    0.800   0.800   0.800

     PseudoPot. # 5 for H  read from file:
     /storage/coda1/p-amedford6/0/shared/rich_project_chbe-medford/medford-share/data/pseudos_module/espresso/nninc/pbe/van/H.UPF
     MD5 check sum: b5ee9d7bfd3a09ee7748110bda690ff7
     Pseudo is Ultrasoft, Zval =  1.0
     Generated by new atomic code, or converted to UPF format
     Using radial grid of  615 points,  1 beta functions with:
                l(1) =   0
     Q(r) pseudized with  8 coefficients,  rinner =    0.800

     atomic species   valence    mass     pseudopotential
        Ti1           12.00    47.86700     Ti( 1.00)
        O1             6.00    15.99900     O ( 1.00)
        N1             5.00    14.00700     N ( 1.00)
        C1             4.00    12.01100     C ( 1.00)
        H1             1.00     1.00800     H ( 1.00)

     No symmetry found

   Cartesian axes

     site n.     atom                  positions (alat units)
         1           Ti1 tau(   1) = (   0.0004258   2.9801865   6.0000000  )
         2           Ti1 tau(   2) = (   3.2906075   1.4906267   6.0002472  )
         3           O1  tau(   3) = (   0.0006271   0.0005054   7.9858123  )
         4           O1  tau(   4) = (   3.2906025   0.0005020   7.3038282  )
         5           O1  tau(   5) = (   4.5942328   1.4918067   9.2879030  )
         6           O1  tau(   6) = (   1.9868534   1.4903216   9.2879459  )
         7           Ti1 tau(   7) = (   3.2907910   2.8959150   9.1758416  )
         8           Ti1 tau(   8) = (   0.0015273   1.4827037   9.2680791  )
         9           O1  tau(   9) = (   3.2846840   0.0164488  11.3171736  )
        10           O1  tau(  10) = (   0.0116148   5.9584955  10.6183126  )
        11           O1  tau(  11) = (   1.2780696   1.4966870  12.6228330  )
        12           O1  tau(  12) = (   5.2671132   1.5021727  12.6038655  )
        13           Ti1 tau(  13) = (   0.0814623   2.9703834  12.6092300  )
        14           Ti1 tau(  14) = (   3.3984034   1.5042134  12.4754612  )
        15           O1  tau(  15) = (   6.5611900   5.9602394  14.6246442  )
        16           O1  tau(  16) = (   3.2847170   0.0117735  13.9091713  )
        17           O1  tau(  17) = (   4.5127615   1.5439160  15.9886145  )
        18           O1  tau(  18) = (   2.0245574   1.5486524  15.9865356  )
        19           Ti1 tau(  19) = (   3.2678410   3.0292036  15.6627315  )
        20           Ti1 tau(  20) = (   6.5437773   1.5790868  15.8036792  )
        21           O1  tau(  21) = (   3.2904802   0.0005063   4.7018136  )
        22           O1  tau(  22) = (   6.5616667   0.0409992  17.2467836  )
        23           O1  tau(  23) = (   1.3043587   1.4918075   6.0039043  )
        24           O1  tau(  24) = (   5.2767064   1.4903225   6.0039473  )
        25           Ti1 tau(  25) = (   0.0000382   5.9609847   6.0000000  )
        26           Ti1 tau(  26) = (   3.2902200   4.4714249   6.0002472  )
        27           O1  tau(  27) = (   0.0002396   2.9813036   7.9858123  )
        28           O1  tau(  28) = (   3.2902150   2.9813002   7.3038282  )
        29           O1  tau(  29) = (   4.5938453   4.4726049   9.2879030  )
        30           O1  tau(  30) = (   1.9864658   4.4711199   9.2879459  )
        31           Ti1 tau(  31) = (   3.2891106   5.8743827   9.1763621  )
        32           Ti1 tau(  32) = (   0.0006254   4.4649316   9.2693709  )
        33           O1  tau(  33) = (   3.2886753   2.9955121  11.3174028  )
        34           O1  tau(  34) = (   0.0092240   2.9805883  10.6323155  )
        35           O1  tau(  35) = (   1.2771457   4.4765085  12.6200386  )
        36           O1  tau(  36) = (   5.2716127   4.4859779  12.5990880  )
        37           Ti1 tau(  37) = (   0.0719143   5.9417653  12.6408960  )
        38           Ti1 tau(  38) = (   3.4009286   4.4967646  12.4819834  )
        39           O1  tau(  39) = (   6.5633752   2.9851081  14.6229342  )
        40           O1  tau(  40) = (   3.2806164   3.0132077  13.8636590  )
        41           O1  tau(  41) = (   4.5054435   4.4842064  16.0752605  )
        42           O1  tau(  42) = (   2.0287922   4.4846499  16.0567397  )
        43           Ti1 tau(  43) = (   3.2585180   0.0608266  15.7494983  )
        44           Ti1 tau(  44) = (   6.5556145   4.6328118  16.1363011  )
        45           O1  tau(  45) = (   3.2900926   2.9813045   4.7018136  )
        46           O1  tau(  46) = (   1.3039711   4.4726057   6.0039043  )
        47           O1  tau(  47) = (   5.2763189   4.4711207   6.0039473  )
        48           N1  tau(  48) = (   6.4582227   2.6263240  18.5734135  )
        49           N1  tau(  49) = (   6.5493832   2.9496485  17.3103279  )
        50           C1  tau(  50) = (   0.1600853   3.5596473  19.6455425  )
        51           H1  tau(  51) = (   6.1911903   4.4878083  19.4849519  )
        52           H1  tau(  52) = (   6.4401482   3.1080517  20.5902855  )
        53           H1  tau(  53) = (   1.2308410   3.8049764  19.6956042  )
        54           H1  tau(  54) = (   6.5044843   1.6253530  18.7706356  )
        55           O1  tau(  55) = (   3.2415852   0.0755412  18.2149893  )
        56           H1  tau(  56) = (   4.0109045   5.4607113  18.3409029  )
        57           H1  tau(  57) = (   2.4534619   5.4803556  18.3240773  )

     number of k points=    10  Fermi-Dirac smearing, width (Ry)=  0.0073
                       cart. coord. in units 2pi/alat
        k(    1) = (   0.0000000   0.0000000   0.0000000), wk =   0.1250000
        k(    2) = (   0.0000000   0.0419351   0.0000000), wk =   0.2500000
        k(    3) = (   0.0000000  -0.0838702   0.0000000), wk =   0.1250000
        k(    4) = (   0.0379955   0.0000049   0.0000000), wk =   0.2500000
        k(    5) = (   0.0379955   0.0419400   0.0000000), wk =   0.2500000
        k(    6) = (   0.0379955  -0.0838652   0.0000000), wk =   0.2500000
        k(    7) = (   0.0379955  -0.0419301   0.0000000), wk =   0.2500000
        k(    8) = (  -0.0759910  -0.0000099   0.0000000), wk =   0.1250000
        k(    9) = (  -0.0759910   0.0419252   0.0000000), wk =   0.2500000
        k(   10) = (  -0.0759910  -0.0838800   0.0000000), wk =   0.1250000

     Initial potential from superposition of free atoms

     starting charge  387.99913, renormalised to  404.00000

     negative rho (up, down):  1.445E-02 0.000E+00

     %%%%%%%%%%%%%%%%%%%%%%%%%%%%%%%%%%%%%%%%%%%%%%%%%%%%%%%%%%%%%%%%%%%%%%%%
     %                                                                      %
     % You are using vdW-DF, which was implemented by the Thonhauser group. %
     % Please cite the following two papers that made this development      %
     % possible and the two reviews that describe the various versions:     %
     %                                                                      %
     %   T. Thonhauser et al., PRL 115, 136402 (2015).                      %
     %   T. Thonhauser et al., PRB 76, 125112 (2007).                       %
     %   K. Berland et al., Rep. Prog. Phys. 78, 066501 (2015).             %
     %   D.C. Langreth et al., J. Phys.: Condens. Matter 21, 084203 (2009). %
     %                                                                      %
     %                                                                      %
     % If you are calculating the stress with vdW-DF, please also cite:     %
     %                                                                      %
     %   R. Sabatini et al., J. Phys.: Condens. Matter 24, 424209 (2012).   %
     %                                                                      %
     %%%%%%%%%%%%%%%%%%%%%%%%%%%%%%%%%%%%%%%%%%%%%%%%%%%%%%%%%%%%%%%%%%%%%%%%

     Adding external electric field

     Computed dipole along edir(3) :
        Dipole              -13.5715 Ry au,        -34.4953 Debye
        Dipole field         -0.0256 Ry au,

        Potential amp.        2.3741 Ry
        Total length         46.3494 bohr

     Starting wfcs are  306 atomic wfcs
  @ DRIVER MODE: Message from server: STATUS
  @ DRIVER MODE: Message from server: POSDATA
  @ DRIVER MODE: Reading and sharing cell
  @ DRIVER MODE: Reading and sharing positions
  @ DRIVER MODE: Received positions

     Self-consistent Calculation

     iteration #  1     ecut=    29.40 Ry     beta= 0.05
     Davidson diagonalization with overlap
     c_bands:  4 eigenvalues not converged
     c_bands:  4 eigenvalues not converged
     c_bands:  4 eigenvalues not converged
     c_bands:  4 eigenvalues not converged
     c_bands:  3 eigenvalues not converged
     c_bands:  3 eigenvalues not converged
     ethr =  1.00E-05,  avg # of iterations = 25.3

[...]

     total energy              =   -2338.95458801 Ry
     estimated scf accuracy    <    7252.83132348 Ry

     iteration #  2     ecut=    29.40 Ry     beta= 0.05
     Davidson diagonalization with overlap
     ethr =  1.00E-02,  avg # of iterations = 23.7

[...]

     iteration # 50     ecut=    29.40 Ry     beta= 0.05
     Davidson diagonalization with overlap
     c_bands:  2 eigenvalues not converged
     c_bands:  1 eigenvalues not converged
     c_bands:  1 eigenvalues not converged
     ethr =  2.42E-06,  avg # of iterations = 14.5

[...]

     total energy              =   -2975.23050046 Ry
     estimated scf accuracy    <       0.00000016 Ry

     iteration # 75     ecut=    29.40 Ry     beta= 0.05
     Davidson diagonalization with overlap
     ethr =  4.01E-11,  avg # of iterations =  6.4

     negative rho (up, down):  1.508E-02 0.000E+00

     Adding external electric field

     Computed dipole along edir(3) :
        Dipole                1.1546 Ry au,          2.9348 Debye
        Dipole field          0.0022 Ry au,

        Potential amp.       -0.2020 Ry
        Total length         46.3494 bohr

     End of self-consistent calculation

          k = 0.0000 0.0000 0.0000 ( 18029 PWs)   bands (ev):

   -55.5092 -55.4752 -55.3374 -55.3009 -55.2664 -55.2327 -55.2067 -55.2054
   -55.1919 -55.1691 -55.1576 -55.0200 -54.5571 -54.4400 -54.4060 -54.3932
   -31.9822 -31.8728 -31.8035 -31.7885 -31.7253 -31.7168 -31.6810 -31.6625
   -31.6266 -31.6104 -31.6046 -31.5786 -31.5681 -31.5241 -31.5167 -31.5056
   -31.4879 -31.4852 -31.4605 -31.4423 -31.4316 -31.4214 -31.4183 -31.4015
   -31.3965 -31.3891 -31.3793 -31.3719 -31.3701 -31.3679 -31.3457 -31.3344
   -31.3219 -31.3044 -31.2121 -31.1851 -31.0509 -30.8451 -30.7814 -30.7673
   -30.7619 -30.7391 -30.7282 -30.6621 -30.6038 -30.5759 -30.5728 -30.4648
   -18.7876 -17.7516 -16.0785 -15.8862 -15.6139 -15.4916 -15.4637 -15.2800
   -15.2036 -15.1513 -15.0190 -14.9730 -14.9430 -14.9132 -14.9000 -14.8432
   -14.8165 -14.7891 -14.7606 -14.7551 -14.7353 -14.7131 -14.6735 -14.6140
   -14.5893 -14.5282 -14.4776 -14.4562 -14.3644 -14.3581 -13.9320 -12.9414
   -12.8258 -11.9017  -8.8054  -6.5695  -5.6083  -4.3246  -4.0874  -3.4629
    -3.3870  -3.3285  -3.2118  -3.1289  -2.9939  -2.9420  -2.8825  -2.7673
    -2.6091  -2.5514  -2.5224  -2.4967  -2.4125  -2.2784  -2.2669  -2.2192
    -2.1913  -2.1708  -2.1563  -2.1402  -2.0453  -2.0065  -1.9685  -1.8585
    -1.8208  -1.7994  -1.7832  -1.7749  -1.7576  -1.6931  -1.6612  -1.6418
    -1.6328  -1.5953  -1.5614  -1.5516  -1.4208  -1.3996  -1.2823  -1.1558
    -1.1335  -1.0752  -1.0512  -0.8919  -0.8858  -0.8646  -0.8235  -0.8161
    -0.7446  -0.6716  -0.6302  -0.5545  -0.4361  -0.4267  -0.3922  -0.2457
    -0.2426  -0.2188  -0.1811  -0.1698  -0.1198  -0.1091  -0.0635  -0.0025
     0.0920   0.1626   0.2685   0.2710   0.3235   0.3634   0.3757   0.4341
     0.4505   0.4999   0.5121   0.5195   0.5714   0.6064   0.6188   0.6762
     0.7277   0.8448   0.9145   0.9398   0.9860   1.1082   1.1835   1.2313
     1.2364   1.4043   1.5274   1.5572   1.5824   1.7826   1.8137   2.1493
     2.1932   3.6647   3.6817   3.7713   3.8302   3.9441   4.0154   4.1046
     4.1823   4.2528   4.3458   4.3886

[...]

          k = 0.0380-0.0419 0.0000 ( 17876 PWs)   bands (ev):

[...]

          k =-0.0760-0.0000 0.0000 ( 17886 PWs)   bands (ev):

[...]

          k =-0.0760-0.0839 0.0000 ( 17948 PWs)   bands (ev):

   -55.4924 -55.4919 -55.3229 -55.3152 -55.2495 -55.2493 -55.2037 -55.1952
   -55.1805 -55.1780 -55.1715 -55.0215 -54.5556 -54.4230 -54.4229 -54.3946
   -31.7978 -31.7976 -31.7888 -31.7887 -31.6859 -31.6687 -31.6134 -31.6127
   -31.5752 -31.5707 -31.5669 -31.5616 -31.5589 -31.5537 -31.5209 -31.5159
   -31.4945 -31.4869 -31.4830 -31.4777 -31.4427 -31.4405 -31.4325 -31.4299
   -31.4195 -31.4189 -31.4062 -31.4037 -31.3998 -31.3937 -31.3934 -31.3875
   -31.3602 -31.3360 -31.3219 -31.2198 -30.9605 -30.8045 -30.7704 -30.7519
   -30.7518 -30.7499 -30.6582 -30.6581 -30.6224 -30.6190 -30.6190 -30.6038
   -18.7866 -17.7457 -15.5021 -15.4360 -15.3644 -15.3605 -15.2562 -15.2034
   -15.1082 -15.0976 -15.0908 -15.0875 -14.9865 -14.9831 -14.9180 -14.9091
   -14.8699 -14.8626 -14.8588 -14.8424 -14.8278 -14.8225 -14.8085 -14.7620
   -14.7433 -14.7374 -14.5741 -14.5490 -14.4334 -14.4152 -14.0559 -12.9280
   -12.9278 -11.9030  -8.8159  -6.5535  -5.6003  -4.2739  -4.1078  -2.9294
    -2.8891  -2.7934  -2.6645  -2.5327  -2.5204  -2.5002  -2.4635  -2.2968
    -2.2842  -2.2687  -2.2591  -2.2179  -2.2065  -2.1877  -2.1737  -2.1195
    -2.1022  -2.0831  -2.0788  -2.0676  -2.0612  -2.0514  -2.0416  -2.0340
    -2.0104  -1.9626  -1.9423  -1.8602  -1.7753  -1.7649  -1.6891  -1.5583
    -1.5521  -1.5401  -1.5385  -1.5253  -1.5168  -1.4757  -1.4387  -1.3850
    -1.2750  -1.1546  -1.1062  -1.0877  -1.0335  -1.0144  -0.9259  -0.8450
    -0.8104  -0.7920  -0.7067  -0.6579  -0.5787  -0.5628  -0.5267  -0.4762
    -0.4522  -0.4379  -0.4217  -0.4136  -0.3500  -0.3071  -0.2387  -0.2249
    -0.1691  -0.1381  -0.1095  -0.0864  -0.0457   0.0476   0.0551   0.0826
     0.1107   0.1254   0.1996   0.3510   0.3911   0.6306   0.6397   0.7111
     0.8396   0.8627   0.8697   0.9457   0.9591   0.9959   1.0173   1.1384
     1.1611   1.1854   1.3138   1.3492   1.4414   1.9523   1.9531   2.0121
     2.0126   3.5279   4.1282   4.1382   4.1556   4.1691   4.1947   4.2012
     4.2429   4.2564   4.3904   4.4112

     the Fermi energy is     3.6407 ev

!    total energy              =   -2975.23051142 Ry
     estimated scf accuracy    <       0.00000005 Ry
     smearing contrib. (-TS)   =      -0.02110571 Ry
     internal energy E=F+TS    =   -2975.20940571 Ry

     The total energy is F=E-TS. E is the sum of the following terms:
     one-electron contribution =  -23875.50142811 Ry
     hartree contribution      =   12035.12415345 Ry
     xc contribution           =    -494.92832275 Ry
     ewald contribution        =    9360.09367575 Ry
     electric field correction =       0.00251595 Ry

     convergence has been achieved in  75 iterations

     Forces acting on atoms (cartesian axes, Ry/au):

     atom    1 type  1   force =     0.00017093   -0.00022838    0.09945107
     atom    2 type  1   force =    -0.00014382   -0.00039080   -0.17310523
     atom    3 type  2   force =    -0.00006854   -0.00000080   -0.02912582
     atom    4 type  2   force =     0.00003941   -0.00102649    0.04892522
     atom    5 type  2   force =    -0.01224423    0.00099302    0.00048778
     atom    6 type  2   force =     0.01355341    0.00186651   -0.00110684
     atom    7 type  1   force =    -0.00136443   -0.00053131   -0.00302486
     atom    8 type  1   force =     0.00094869   -0.00608278    0.04539622
     atom    9 type  2   force =    -0.00000268   -0.00023197    0.00002066
     atom   10 type  2   force =    -0.00155621    0.00261726   -0.03093694
     atom   11 type  2   force =    -0.00015408   -0.00045129    0.00005143
     atom   12 type  2   force =     0.00006190   -0.00023750    0.00015542
     atom   13 type  1   force =    -0.00019709   -0.00054223   -0.00039041
     atom   14 type  1   force =     0.00031765   -0.00011089    0.00014812
     atom   15 type  2   force =     0.00000156   -0.00012917   -0.00026635
     atom   16 type  2   force =    -0.00023055    0.00007157    0.00047740
     atom   17 type  2   force =     0.00008322   -0.00037308    0.00023728
     atom   18 type  2   force =     0.00003783   -0.00044901    0.00011004
     atom   19 type  1   force =     0.00007885   -0.00025571    0.00036305
     atom   20 type  1   force =    -0.00001760   -0.00060492    0.00028083
     atom   21 type  2   force =     0.00008784   -0.00000514    0.10258635
     atom   22 type  2   force =     0.00008879   -0.00027162   -0.00019358
     atom   23 type  2   force =    -0.07249986   -0.00008872   -0.02847209
     atom   24 type  2   force =     0.07246314    0.00034299   -0.02845324
     atom   25 type  1   force =     0.00009101   -0.00027619    0.09895715
     atom   26 type  1   force =    -0.00005822   -0.00041355   -0.17329398
     atom   27 type  2   force =    -0.00003335    0.00000421   -0.02843169
     atom   28 type  2   force =     0.00009511   -0.00075922    0.04809043
     atom   29 type  2   force =    -0.01261481    0.00063127    0.00052316
     atom   30 type  2   force =     0.01384953    0.00095999   -0.00104483
     atom   31 type  1   force =    -0.00146120    0.00225875   -0.00573463
     atom   32 type  1   force =     0.00112392    0.00384291    0.04591632
     atom   33 type  2   force =    -0.00005972   -0.00026187   -0.00006831
     atom   34 type  2   force =    -0.00096410    0.00134090   -0.03378557
     atom   35 type  2   force =    -0.00026314    0.00004666   -0.00023630
     atom   36 type  2   force =     0.00046598    0.00010196   -0.00002691
     atom   37 type  1   force =    -0.00031920    0.00007668    0.00021036
     atom   38 type  1   force =     0.00019235   -0.00035659   -0.00004263
     atom   39 type  2   force =     0.00002755   -0.00050616    0.00041350
     atom   40 type  2   force =    -0.00005440    0.00017922   -0.00019552
     atom   41 type  2   force =    -0.00028452   -0.00004566    0.00026290
     atom   42 type  2   force =     0.00035403    0.00002796    0.00017541
     atom   43 type  1   force =     0.00010883    0.00017027   -0.00043093
     atom   44 type  1   force =    -0.00001180   -0.00009950    0.00008706
     atom   45 type  2   force =     0.00009547   -0.00001216    0.10257605
     atom   46 type  2   force =    -0.07251941   -0.00000776   -0.02846412
     atom   47 type  2   force =     0.07247798    0.00037902   -0.02845558
     atom   48 type  3   force =    -0.00026855   -0.00036232   -0.00054859
     atom   49 type  3   force =     0.00009586   -0.00066207   -0.00003912
     atom   50 type  4   force =     0.00024739   -0.00027647    0.00017818
     atom   51 type  5   force =     0.00015765   -0.00015557    0.00021579
     atom   52 type  5   force =    -0.00011873    0.00024652    0.00019375
     atom   53 type  5   force =    -0.00000469   -0.00012812    0.00012568
     atom   54 type  5   force =     0.00029443    0.00008662    0.00018972
     atom   55 type  2   force =     0.00036067    0.00374967   -0.00199126
     atom   56 type  5   force =     0.00140110   -0.00224368    0.00039449
     atom   57 type  5   force =    -0.00185716   -0.00141525    0.00066451

     Total force =     0.372109     Total SCF correction =     0.000544
  @ DRIVER MODE: Message from server: STATUS
  @ DRIVER MODE: Message from server: GETFORCE
  @ DRIVER MODE: Returning v,forces,stress,ensemble

     Writing output data file ./calc.save/
  @ DRIVER MODE: Message from server: EXIT
  @ DRIVE MODE: Exiting

     General routines

     Parallel routines

   This run was terminated on:   7:28:30  16Sep2021

   JOB DONE.