     Program PWSCF v.6.8 starts on 15Oct2021 at 16:12:46

     R & G space division:  proc/nbgrp/npool/nimage =       4

     Reading input from /storage/home/hcoda1/3/ntian30/research/carbon/Thiel_calc/ads_slab/H3N_perslab/Thiel_calc.log/pw.inp
Warning: card &CELL ignored
Warning: card   CELL_DYNAMICS='IPI', ignored
Warning: card / ignored

     Current dimensions of program PWSCF are:
     Max number of different atomic species (ntypx) = 10
     Max number of k-points (npk) =  40000
     Max angular momentum in pseudopotentials (lmaxx) =  4
     Presently no symmetry can be used with electric field

     Message from routine cell_base_init:
     DEPRECATED: use true lattice parameter, not A to a.u. conversion factor

     IMPORTANT: XC functional enforced from input :
     Exchange-correlation= BEEF-VDW
                           (   1   4  43  14   2   0   0)
     Any further DFT definition will be discarded
     Please, verify this is what you really want

  @ DRIVER MODE: Connecting to
 qe_1139763_3223927.sched-torque.pace.gatech.edu2k_4xz2f_scratch
  using UNIX socket
  @ DRIVER MODE: Message from server: STATUS
  @ DRIVER MODE: Message from server: INIT
  @ DRIVER MODE: Receiving replica           0          -1
  @ DRIVER MODE: Receiving encoded integer          25
  @ DRIVER MODE:  SCF:  T  FORCE:  T  STRESS:  F  VC:  F  ENSEMBLE:  F
  @ DRIVER MODE:  SCF:  T  FORCE:  T  STRESS:  F  VC:  F  ENSEMBLE:  F

     Using Slab Decomposition

     bravais-lattice index     =            0
     lattice parameter (alat)  =       1.8897  a.u.
     unit-cell volume          =    9988.4706 (a.u.)^3
     number of atoms/cell      =           57
     number of atomic types    =            4
     number of electrons       =       434.00
     number of Kohn-Sham states=          227
     kinetic-energy cutoff     =      29.3995  Ry
     charge density cutoff     =     293.9946  Ry
     scf convergence threshold =      7.3E-08
     mixing beta               =       0.0500
     number of iterations used =            8  plain     mixing
     Exchange-correlation= BEEF-VDW
                           (   1   4  43  14   2   0   0)

     celldm(1)=   1.889726  celldm(2)=   0.000000  celldm(3)=   0.000000
     celldm(4)=   0.000000  celldm(5)=   0.000000  celldm(6)=   0.000000

     crystal axes: (cart. coord. in units of alat)
               a(1) = (   6.579727   0.000000   0.000000 )
               a(2) = (  -0.001163   8.942395   0.000000 )
               a(3) = (   0.000000   0.000000  25.155947 )

     reciprocal axes: (cart. coord. in units 2 pi/alat)
               b(1) = (  0.151982  0.000020  0.000000 )
               b(2) = (  0.000000  0.111827  0.000000 )
               b(3) = (  0.000000  0.000000  0.039752 )

     PseudoPot. # 1 for O  read from file:
     /storage/coda1/p-amedford6/0/shared/rich_project_chbe-medford/medford-share/data/pseudos_module/espresso/nninc/pbe/van/O.UPF
     MD5 check sum: 78c19812648e8988a0fe644b0f25305e
     Pseudo is Ultrasoft, Zval =  6.0
     Generated by new atomic code, or converted to UPF format
     Using radial grid of  737 points,  4 beta functions with:
                l(1) =   0
                l(2) =   0
                l(3) =   1
                l(4) =   1
     Q(r) pseudized with  8 coefficients,  rinner =    0.800   0.800   0.800

     PseudoPot. # 2 for Ti read from file:
     /storage/coda1/p-amedford6/0/shared/rich_project_chbe-medford/medford-share/data/pseudos_module/espresso/nninc/pbe/van/Ti.UPF
     MD5 check sum: 8e4df49b7f0d34bbd5052bf3f5ea0213
     Pseudo is Ultrasoft, Zval = 12.0
     Generated by new atomic code, or converted to UPF format
     Using radial grid of  851 points,  6 beta functions with:
                l(1) =   0
                l(2) =   0
                l(3) =   1
                l(4) =   1
                l(5) =   2
                l(6) =   2
     Q(r) pseudized with  8 coefficients,  rinner =    1.000   1.000   1.000
                                                       1.000   1.000

     PseudoPot. # 3 for N  read from file:
     /storage/coda1/p-amedford6/0/shared/rich_project_chbe-medford/medford-share/data/pseudos_module/espresso/nninc/pbe/van/N.UPF
     MD5 check sum: 90d10febe142ad51ac9d5be1deb811c4
     Pseudo is Ultrasoft, Zval =  5.0
     Generated by new atomic code, or converted to UPF format
     Using radial grid of  729 points,  4 beta functions with:
                l(1) =   0
                l(2) =   0
                l(3) =   1
                l(4) =   1
     Q(r) pseudized with  8 coefficients,  rinner =    0.800   0.800   0.800

     PseudoPot. # 4 for H  read from file:
     /storage/coda1/p-amedford6/0/shared/rich_project_chbe-medford/medford-share/data/pseudos_module/espresso/nninc/pbe/van/H.UPF
     MD5 check sum: b5ee9d7bfd3a09ee7748110bda690ff7
     Pseudo is Ultrasoft, Zval =  1.0
     Generated by new atomic code, or converted to UPF format
     Using radial grid of  615 points,  1 beta functions with:
                l(1) =   0
     Q(r) pseudized with  8 coefficients,  rinner =    0.800

     atomic species   valence    mass     pseudopotential
        O1             6.00    15.99900     O ( 1.00)
        Ti1           12.00    47.86700     Ti( 1.00)
        N1             5.00    14.00700     N ( 1.00)
        H1             1.00     1.00800     H ( 1.00)

     No symmetry found

   Cartesian axes

     site n.     atom                  positions (alat units)
         1           O1  tau(   1) = (   0.0007354   0.0005023  10.5931620  )
         2           O1  tau(   2) = (   3.2905955   0.0005026  13.8824958  )
         3           O1  tau(   3) = (   0.0007284   0.0005029  17.1718295  )
         4           O1  tau(   4) = (   0.0006271   0.0005054   7.9858123  )
         5           O1  tau(   5) = (   3.2904872   0.0005057  11.2751460  )
         6           O1  tau(   6) = (   0.0006201   0.0005060  14.5644798  )
         7           O1  tau(   7) = (   1.9868534   1.4903216   9.2879459  )
         8           O1  tau(   8) = (   5.2767135   1.4903219  12.5772797  )
         9           O1  tau(   9) = (   1.9868463   1.4903222  15.8666135  )
        10           Ti1 tau(  10) = (   0.0007404   1.4906270   9.2895810  )
        11           Ti1 tau(  11) = (   3.2906005   1.4906273  12.5789147  )
        12           Ti1 tau(  12) = (   0.0007334   1.4906276  15.8682485  )
        13           O1  tau(  13) = (   4.5942328   1.4918067   9.2879030  )
        14           O1  tau(  14) = (   1.3043657   1.4918069  12.5772368  )
        15           O1  tau(  15) = (   4.5942258   1.4918072  15.8665706  )
        16           Ti1 tau(  16) = (   3.2902859   2.9801868   9.2893338  )
        17           Ti1 tau(  17) = (   0.0004188   2.9801870  12.5786675  )
        18           Ti1 tau(  18) = (   3.2902789   2.9801873  15.8680013  )
        19           O1  tau(  19) = (   0.0003479   2.9813005  10.5931620  )
        20           O1  tau(  20) = (   3.2902079   2.9813008  13.8824958  )
        21           O1  tau(  21) = (   0.0002396   2.9813036   7.9858123  )
        22           O1  tau(  22) = (   3.2900997   2.9813039  11.2751460  )
        23           O1  tau(  23) = (   0.0002325   2.9813042  14.5644798  )
        24           O1  tau(  24) = (   1.9864658   4.4711199   9.2879459  )
        25           O1  tau(  25) = (   5.2763259   4.4711201  12.5772797  )
        26           O1  tau(  26) = (   1.9864588   4.4711204  15.8666135  )
        27           Ti1 tau(  27) = (   0.0003529   4.4714252   9.2895810  )
        28           Ti1 tau(  28) = (   3.2902129   4.4714255  12.5789147  )
        29           Ti1 tau(  29) = (   0.0003458   4.4714258  15.8682485  )
        30           O1  tau(  30) = (   4.5938453   4.4726049   9.2879030  )
        31           O1  tau(  31) = (   1.3039782   4.4726052  12.5772368  )
        32           O1  tau(  32) = (   4.5938383   4.4726054  15.8665706  )
        33           Ti1 tau(  33) = (   3.2898983   5.9609850   9.2893338  )
        34           Ti1 tau(  34) = (   0.0000312   5.9609853  12.5786675  )
        35           Ti1 tau(  35) = (   3.2898913   5.9609855  15.8680013  )
        36           O1  tau(  36) = (  -0.0000397   5.9620987  10.5931620  )
        37           O1  tau(  37) = (   3.2898204   5.9620990  13.8824958  )
        38           O1  tau(  38) = (  -0.0000467   5.9620993  17.1718295  )
        39           O1  tau(  39) = (  -0.0001480   5.9621018   7.9858123  )
        40           O1  tau(  40) = (   3.2897121   5.9621021  11.2751460  )
        41           O1  tau(  41) = (  -0.0001550   5.9621024  14.5644798  )
        42           O1  tau(  42) = (   1.9860782   7.4519181   9.2879459  )
        43           O1  tau(  43) = (   5.2759383   7.4519184  12.5772797  )
        44           O1  tau(  44) = (   1.9860712   7.4519187  15.8666135  )
        45           Ti1 tau(  45) = (  -0.0000347   7.4522234   9.2895810  )
        46           Ti1 tau(  46) = (   3.2898254   7.4522237  12.5789147  )
        47           Ti1 tau(  47) = (  -0.0000417   7.4522240  15.8682485  )
        48           O1  tau(  48) = (   4.5934577   7.4534031   9.2879030  )
        49           O1  tau(  49) = (   1.3035906   7.4534034  12.5772368  )
        50           O1  tau(  50) = (   4.5934507   7.4534037  15.8665706  )
        51           Ti1 tau(  51) = (   3.2895107   8.9417832   9.2893338  )
        52           Ti1 tau(  52) = (  -0.0003564   8.9417835  12.5786675  )
        53           Ti1 tau(  53) = (   3.2895037   8.9417838  15.8680013  )
        54           N1  tau(  54) = (   0.0003408   2.9813011  17.9718295  )
        55           H1  tau(  55) = (   0.0003408   2.0415701  18.3601265  )
        56           H1  tau(  56) = (   5.7662370   3.4511661  18.3601265  )
        57           H1  tau(  57) = (   0.8141718   3.4511661  18.3601265  )

     number of k points=     1  Fermi-Dirac smearing, width (Ry)=  0.0073
                       cart. coord. in units 2pi/alat
        k(    1) = (   0.0000000   0.0000000   0.0000000), wk =   2.0000000

     Initial potential from superposition of free atoms

     starting charge  415.99912, renormalised to  434.00000

     negative rho (up, down):  3.612E-02 0.000E+00

     %%%%%%%%%%%%%%%%%%%%%%%%%%%%%%%%%%%%%%%%%%%%%%%%%%%%%%%%%%%%%%%%%%%%%%%%
     %                                                                      %
     % You are using vdW-DF, which was implemented by the Thonhauser group. %
     % Please cite the following two papers that made this development      %
     % possible and the two reviews that describe the various versions:     %
     %                                                                      %
     %   T. Thonhauser et al., PRL 115, 136402 (2015).                      %
     %   T. Thonhauser et al., PRB 76, 125112 (2007).                       %
     %   K. Berland et al., Rep. Prog. Phys. 78, 066501 (2015).             %
     %   D.C. Langreth et al., J. Phys.: Condens. Matter 21, 084203 (2009). %
     %                                                                      %
[...]
     atom   27 type  2   force =    -0.00004236    0.00101102   -0.15100552
     atom   28 type  2   force =    -0.00002546   -0.00102358   -0.01095962
     atom   29 type  2   force =    -0.00007017    0.16592005   -0.03573559
     atom   30 type  1   force =    -0.08192810    0.00013597   -0.03193124
     atom   31 type  1   force =     0.00670279   -0.00043024    0.00902375
     atom   32 type  1   force =    -0.00670924   -0.02373210    0.05824011
     atom   33 type  2   force =     0.00008053   -0.00046702    0.10893683
     atom   34 type  2   force =     0.00009380   -0.00222245   -0.06446337
     atom   35 type  2   force =     0.00008381    0.02995241   -0.12839115
     atom   36 type  1   force =     0.00000445   -0.00034139    0.06564749
     atom   37 type  1   force =     0.00001565   -0.00226597    0.04551243
     atom   38 type  1   force =     0.00004089   -0.04465550   -0.06372217
     atom   39 type  1   force =     0.00004759   -0.00007446    0.10037940
     atom   40 type  1   force =     0.00005107    0.00037675   -0.03077040
     atom   41 type  1   force =     0.00005698   -0.03644523    0.03612710
     atom   42 type  1   force =     0.08192000    0.00047770   -0.03197571
     atom   43 type  1   force =    -0.00635702    0.00052648    0.01039522
     atom   44 type  1   force =     0.04477643    0.00033645    0.03968120
     atom   45 type  2   force =    -0.00004717   -0.00031551   -0.15045596
     atom   46 type  2   force =    -0.00002376   -0.00025385   -0.01046536
     atom   47 type  2   force =    -0.00004137   -0.00256466    0.09417442
     atom   48 type  1   force =    -0.08201535    0.00016440   -0.03193750
     atom   49 type  1   force =     0.00625097    0.00010325    0.01042277
     atom   50 type  1   force =    -0.04488058   -0.00001847    0.03968590
     atom   51 type  2   force =     0.00007719   -0.00046660    0.10892264
     atom   52 type  2   force =     0.00007691    0.00135105   -0.06461176
     atom   53 type  2   force =     0.00013328   -0.02950166   -0.12817383
     atom   54 type  3   force =    -0.00000590    0.00365793   -0.00394399
     atom   55 type  4   force =    -0.00001275   -0.01526418   -0.00140157
     atom   56 type  4   force =    -0.00026301    0.00526717   -0.00101157
     atom   57 type  4   force =     0.00023246    0.00527021   -0.00100161

     Total force =     0.619356     Total SCF correction =     0.000638
  @ DRIVER MODE: Message from server: STATUS
  @ DRIVER MODE: Message from server: GETFORCE
  @ DRIVER MODE: Returning v,forces,stress,ensemble

     Writing config to output data dir ./calc.save/
     Message from routine punch:
     wavefunctions written to file
  @ DRIVER MODE: Message from server: STATUS
  @ DRIVER MODE: Message from server: INIT
  @ DRIVER MODE: Receiving replica           0           0
  @ DRIVER MODE: Receiving encoded integer          25
  @ DRIVER MODE:  SCF:  T  FORCE:  T  STRESS:  F  VC:  F  ENSEMBLE:  F
  @ DRIVER MODE:  SCF:  T  FORCE:  T  STRESS:  F  VC:  F  ENSEMBLE:  F
  @ DRIVER MODE: Message from server: STATUS
  @ DRIVER MODE: Message from server: POSDATA
  @ DRIVER MODE: Reading and sharing positions
  @ DRIVER MODE: Received positions
     NEW-OLD atomic charge density approx. for the potential

[...]

     Self-consistent Calculation

     iteration #  1     ecut=    29.40 Ry     beta= 0.05
     Davidson diagonalization with overlap
     c_bands:  2 eigenvalues not converged
     ethr =  2.41E-11,  avg # of iterations = 40.0

[...]

     total energy              =   -3271.98852719 Ry
     estimated scf accuracy    <       0.00000009 Ry

     iteration # 18     ecut=    29.40 Ry     beta= 0.05
     Davidson diagonalization with overlap
     ethr =  1.96E-11,  avg # of iterations = 11.0

[...]

     End of self-consistent calculation

          k = 0.0000 0.0000 0.0000 ( 26871 PWs)   bands (ev):

   -57.9575 -57.9275 -57.9095 -57.8843 -57.8840 -57.8834 -57.8700 -57.8501
   -57.8256 -57.7911 -57.7673 -57.7650 -57.7089 -57.6188 -57.4701 -57.0431
   -57.0202 -57.0121 -34.3764 -34.3494 -34.3476 -34.3317 -34.3220 -34.2940
   -34.2901 -34.2872 -34.2835 -34.2774 -34.2527 -34.2523 -34.2386 -34.1695
   -34.1681 -34.1612 -34.1608 -34.1603 -34.1593 -34.1041 -34.0960 -34.0817
   -34.0776 -34.0747 -34.0730 -34.0670 -34.0652 -34.0647 -34.0524 -34.0300
   -34.0272 -33.9929 -33.9860 -33.9809 -33.9803 -33.9550 -33.9259 -33.9190
   -33.9057 -33.9013 -33.8998 -33.8337 -33.7419 -33.7361 -33.6709 -33.3544
   -33.3508 -33.3459 -33.3366 -33.3293 -33.2650 -33.2043 -33.1953 -33.0641
   -18.8710 -18.4112 -18.2541 -18.2375 -18.2300 -18.1740 -18.0682 -18.0663
   -17.8405 -17.8198 -17.8147 -17.8126 -17.7961 -17.7659 -17.7265 -17.6887
   -17.6224 -17.5964 -17.5922 -17.5581 -17.5491 -17.5143 -17.4562 -17.3969
   -17.3822 -17.3352 -17.2956 -17.2762 -17.2699 -17.2684 -16.9845 -16.9621
   -16.8661 -15.4480 -15.3911 -15.3872  -7.5815  -7.4605  -6.2192  -5.9081
    -5.8638  -5.7734  -5.4741  -5.4602  -5.3760  -5.3458  -5.3204  -5.3180
    -5.3079  -5.2507  -5.2160  -5.2057  -5.1632  -5.1551  -5.0764  -4.9444
    -4.9440  -4.8961  -4.8712  -4.8522  -4.7723  -4.7613  -4.7384  -4.7237
    -4.7084  -4.6818  -4.6478  -4.6318  -4.5688  -4.5104  -4.4491  -4.3257
    -4.3157  -4.2825  -4.2569  -4.2215  -4.1614  -4.1377  -4.1132  -4.0533
    -3.9787  -3.9318  -3.9048  -3.8465  -3.8158  -3.8060  -3.7974  -3.6783
    -3.5712  -3.5461  -3.4507  -3.4293  -3.3500  -3.3363  -3.2764  -3.2606
    -3.2009  -3.1339  -3.1279  -3.1008  -3.0494  -2.9862  -2.9594  -2.9390
    -2.8819  -2.8024  -2.7235  -2.6848  -2.6826  -2.6171  -2.6007  -2.5950
    -2.5819  -2.5745  -2.5311  -2.4844  -2.4504  -2.4065  -2.4035  -2.3544
    -2.3339  -2.3122  -2.2554  -2.2150  -2.1966  -2.1755  -2.0671  -1.8603
    -1.8602  -1.8189  -1.8000  -1.7930  -1.7016  -1.6505  -1.6168  -1.4735
    -1.2333  -1.0342  -0.7309  -0.6966  -0.6950  -0.3959  -0.3902  -0.2527
     1.0262   1.2917   1.3278   1.4953   1.5016   1.5309   1.5723   1.6464
     1.6787   1.6915   1.7133

     the Fermi energy is     1.1065 ev

!    total energy              =   -3271.98852979 Ry
     estimated scf accuracy    <       0.00000005 Ry
     smearing contrib. (-TS)   =      -0.02562969 Ry
     internal energy E=F+TS    =   -3271.96290010 Ry

     The total energy is F=E-TS. E is the sum of the following terms:
     one-electron contribution =  -34296.21368504 Ry
     hartree contribution      =   17208.20078201 Ry
     xc contribution           =    -536.21212037 Ry
     ewald contribution        =   14352.26002493 Ry
     electric field correction =       0.00209838 Ry

     convergence has been achieved in  18 iterations

     Forces acting on atoms (cartesian axes, Ry/au):

     atom    1 type  1   force =     0.00003523    0.00412241    0.07088902
     atom    2 type  1   force =    -0.00001403    0.00034266    0.00063470
     atom    3 type  1   force =     0.00000045   -0.00028375    0.00033400
     atom    4 type  1   force =     0.00005283   -0.00069639    0.10846518
     atom    5 type  1   force =    -0.00002136    0.00039828   -0.00009309
     atom    6 type  1   force =     0.00000904   -0.00113372   -0.00099417
     atom    7 type  1   force =     0.05770052   -0.00018152   -0.03038707
     atom    8 type  1   force =     0.00052353    0.00033853   -0.00000561
     atom    9 type  1   force =    -0.00025236    0.00010375   -0.00030847
     atom   10 type  2   force =    -0.00005886   -0.00341731   -0.18862129
     atom   11 type  2   force =     0.00008887   -0.00053887    0.00005325
     atom   12 type  2   force =     0.00000955    0.00068571    0.00048806
     atom   13 type  1   force =    -0.05779708   -0.00054326   -0.03036340
     atom   14 type  1   force =    -0.00045120    0.00023765    0.00000076
     atom   15 type  1   force =     0.00024792    0.00009030   -0.00029386
     atom   16 type  2   force =     0.00013011   -0.00218382    0.07074932
     atom   17 type  2   force =    -0.00016539   -0.00015201   -0.00007659
     atom   18 type  2   force =    -0.00000104   -0.00020923    0.00107182
     atom   19 type  1   force =     0.00001184    0.00312106    0.07663614
     atom   20 type  1   force =    -0.00000944    0.00060329   -0.00042469
     atom   21 type  1   force =     0.00005526    0.00120657    0.10913799
     atom   22 type  1   force =    -0.00001753    0.00029584   -0.00045948
     atom   23 type  1   force =     0.00000055    0.00036727   -0.00114816
     atom   24 type  1   force =     0.05698806   -0.00013805   -0.03026760
     atom   25 type  1   force =     0.00065295   -0.00001989    0.00022822
     atom   26 type  1   force =    -0.00017137    0.00023115   -0.00017544
     atom   27 type  2   force =    -0.00007481   -0.00403561   -0.19417259
     atom   28 type  2   force =     0.00008826    0.00033805    0.00011924
     atom   29 type  2   force =     0.00000723   -0.00070401    0.00012757
     atom   30 type  1   force =    -0.05708340   -0.00050420   -0.03024711
     atom   31 type  1   force =    -0.00059693   -0.00011000    0.00024206
     atom   32 type  1   force =     0.00017524    0.00022321   -0.00015551
     atom   33 type  2   force =     0.00010957   -0.00195743    0.07107292
     atom   34 type  2   force =    -0.00014327    0.00075925   -0.00111098
     atom   35 type  2   force =    -0.00000940   -0.00000293   -0.00016740
     atom   36 type  1   force =     0.00004204    0.00184885    0.06913551
     atom   37 type  1   force =    -0.00001739   -0.00047500    0.00070187
     atom   38 type  1   force =    -0.00000655   -0.00108807    0.00028439
     atom   39 type  1   force =     0.00005614   -0.00052237    0.10942292
     atom   40 type  1   force =    -0.00002420    0.00044611   -0.00005334
     atom   41 type  1   force =     0.00001190    0.00034278    0.00005589
     atom   42 type  1   force =     0.05715860   -0.00079498   -0.03017444
     atom   43 type  1   force =     0.00000691   -0.00017917    0.00069789
     atom   44 type  1   force =     0.00062875   -0.00000722    0.00009752
     atom   45 type  2   force =    -0.00008692    0.00450784   -0.19193453
     atom   46 type  2   force =     0.00006760   -0.00017042    0.00028153
     atom   47 type  2   force =     0.00000232   -0.00047261    0.00003069
     atom   48 type  1   force =    -0.05725736   -0.00114903   -0.03015512
     atom   49 type  1   force =     0.00007988   -0.00027914    0.00070127
     atom   50 type  1   force =    -0.00062486   -0.00000907    0.00010308
     atom   51 type  2   force =     0.00011486   -0.00162995    0.07170321
     atom   52 type  2   force =    -0.00014631    0.00062014   -0.00073795
     atom   53 type  2   force =    -0.00000550    0.00074255    0.00003687
     atom   54 type  3   force =    -0.00002038    0.00010732   -0.00064989
     atom   55 type  4   force =     0.00000001    0.00031353   -0.00002096
     atom   56 type  4   force =    -0.00045114    0.00059613   -0.00016112
     atom   57 type  4   force =     0.00045208    0.00059882   -0.00014300

     Total force =     0.449419     Total SCF correction =     0.000768
  @ DRIVER MODE: Message from server: STATUS
  @ DRIVER MODE: Message from server: GETFORCE
  @ DRIVER MODE: Returning v,forces,stress,ensemble

     Writing config to output data dir ./calc.save/
     Message from routine punch:
     wavefunctions written to file
  @ DRIVER MODE: Message from server: STATUS
  @ DRIVER MODE: Message from server: INIT
  @ DRIVER MODE: Receiving replica           0           0
  @ DRIVER MODE: Receiving encoded integer           2
  @ DRIVER MODE:  SCF:  T  FORCE:  T  STRESS:  F  VC:  F  ENSEMBLE:  F
  @ DRIVER MODE:  SCF:  F  FORCE:  F  STRESS:  F  VC:  F  ENSEMBLE:  T
  @ DRIVER MODE: Message from server: STATUS
  @ DRIVER MODE: Message from server: POSDATA
  @ DRIVER MODE: Reading and sharing positions
  @ DRIVER MODE: Received positions
     NEW-OLD atomic charge density approx. for the potential

[...]

     Adding external electric field

     Computed dipole along edir(3) :
        Dipole                1.2915 Ry au,          3.2826 Debye
        Dipole field          0.0016 Ry au,

        Potential amp.       -0.1506 Ry
        Total length         46.3494 bohr

  @ DRIVER MODE: BEEF-vdw

[...]

     negative rho (up, down):  3.694E-02 0.000E+00

     negative rho (up, down):  3.694E-02 0.000E+00
 BEEFens 2000 ensemble energies
             -0.384994771855119E+02
             -0.224536695389156E+01
             -0.795364575800108E+01
              0.267221511797153E+02
             -0.132520273320497E+02
             -0.102475745260506E+02
             -0.267193895121596E+02
             -0.558743102683926E+02
             -0.239185195905393E+02
             -0.251270188474052E+02
             -0.232975213693568E+02
              0.474770950143461E+01
              0.220949101645246E+01
             -0.115406574818152E+01
              0.191945265452790E+01
              0.294225646184194E+02
             -0.113618468163894E+02
             -0.803485729659342E+01
              0.129752916278512E+02
             -0.687960351518619E+02
              0.344677963750320E+02
             -0.147746723006280E+02
             -0.266489142455339E+01
             -0.623448416608009E+01
             -0.108728183647440E+01
             -0.238521162276885E+01
              0.533431685798050E+02
             -0.166363016622935E+02
             -0.448987410392954E+01
             -0.336938703513592E+02
              0.436120617108808E+02
             -0.486691475216705E+01
             -0.237010732618362E+02
              0.125086883372648E+02
             -0.228259869012979E+01
              0.144074422702339E+02
             -0.607172531347771E+00
              0.308494606151919E+01
              0.209619660052639E+02
             -0.607229779451031E+02
              0.338130141734342E+02
              0.902823726750296E+01
             -0.692861010328534E+01
             -0.194515816306551E+02
              0.764046375321448E+01
             -0.121732175699175E+02
              0.276084389445657E+02
              0.221132083399038E+02
             -0.142547971504703E+02
             -0.181615837666017E+02
             -0.191628512134226E+02
             -0.230867983086553E+02
              0.116812946829025E+02
             -0.300896512587536E+02
              0.921365405688869E+01
              0.384734939606742E+02
              0.442838433498373E+02
              0.206754197268796E+02
              0.924759439022918E+01
              0.192455155209634E+02
[...]
             -0.452965096188342E+02
              0.306416276938904E+01
             -0.159078631549936E+01
             -0.630951014788303E+01
              0.655540900968674E-01
             -0.403378494208763E+02
             -0.781900891969988E+01
              0.545855738469374E+01
              0.822282721179138E+01
              0.301986294954754E+02
             -0.263906185809877E+02
              0.345437755585899E+02
             -0.246837671752202E+02
              0.158478414782323E+02
              0.249634085960051E+02

 BEEF-vdW xc energy contributions
           1 :   -454.438100083011
           2 :    395.806900818593
           3 :   -301.390146669572
           4 :    203.079255543083
           5 :   -126.013681734600
           6 :    79.9380985277217
           7 :   -60.5675247384547
           8 :    56.8689650187112
           9 :   -58.5763915247724
          10 :    59.9806362793479
          11 :   -59.6669259249137
          12 :    58.1243324198675
          13 :   -55.7229547888288
          14 :    52.1728566940828
          15 :   -47.1447513176896
          16 :    40.9655628145541
          17 :   -34.7211348216829
          18 :    29.7275105727722
          19 :   -26.8545987685006
          20 :    26.1586162747815
          21 :   -27.0193529141999
          22 :    28.5626119039886
          23 :   -30.0418500339242
          24 :    30.9659270187021
          25 :   -31.0399064971482
          26 :    30.0911456848557
          27 :   -28.0937756612227
          28 :    25.2529269513068
          29 :   -22.0502650480314
          30 :    19.1506654085496
          31 :   -53.2383104063239
          32 :   -36.0995938832844
  @ DRIVER MODE: Message from server: STATUS
  @ DRIVER MODE: Message from server: GETFORCE
  @ DRIVER MODE: Returning v,forces,stress,ensemble
  @ DRIVE MODE: Returning Ensemble Energies

     Writing config to output data dir ./calc.save/
     Message from routine punch:
     wavefunctions written to file
  @ DRIVER MODE: Message from server: EXIT
  @ DRIVE MODE: Exiting

     General routines

     Parallel routines

   This run was terminated on:  20:31:11  15Oct2021

   JOB DONE.