     Program PWSCF v.6.7GPU starts on 23Sep2021 at 16:42:27

     R & G space division:  proc/nbgrp/npool/nimage =       8
     Reading input from /storage/home/hcoda1/3/ntian30/research/carbon/CxH_vib/H2O_calc/ads_slab/CH3NHNHHO_a/out_0047/pw.inp
Warning: card &CELL ignored
Warning: card   CELL_DYNAMICS='IPI', ignored
Warning: card / ignored

     Current dimensions of program PWSCF are:
     Max number of different atomic species (ntypx) = 10
     Max number of k-points (npk) =  40000
     Max angular momentum in pseudopotentials (lmaxx) =  3
     Presently no symmetry can be used with electric field

     Message from routine cell_base_init:
     DEPRECATED: use true lattice parameter, not A to a.u. conversion factor

     IMPORTANT: XC functional enforced from input :
     Exchange-correlation= BEEF-VDW
                           (   1   4  43  14   2   0   0)
     Any further DFT definition will be discarded
     Please, verify this is what you really want

  @ DRIVER MODE: Connecting to
 qe_1139763_2941006.sched-torque.pace.gatech.edut_7y7ebi_scratch
  using UNIX socket
  @ DRIVER MODE: Message from server: STATUS
  @ DRIVER MODE: Message from server: INIT
  @ DRIVER MODE: Receiving replica           0          -1
  @ DRIVER MODE: Receiving encoded integer          25
  @ DRIVER MODE:  SCF:  T  FORCE:  T  STRESS:  F  VC:  F  ENSEMBLE:  F
  @ DRIVER MODE:  SCF:  T  FORCE:  T  STRESS:  F  VC:  F  ENSEMBLE:  F

     Using Slab Decomposition

     bravais-lattice index     =            0
     lattice parameter (alat)  =       1.8897  a.u.
     unit-cell volume          =    6658.9804 (a.u.)^3
     number of atoms/cell      =           57
     number of atomic types    =            5
     number of electrons       =       404.00
     number of Kohn-Sham states=          212
     kinetic-energy cutoff     =      29.3995  Ry
     charge density cutoff     =     293.9946  Ry
     scf convergence threshold =      7.3E-08
     mixing beta               =       0.0500
     number of iterations used =            8  plain     mixing
     Exchange-correlation= BEEF-VDW
                           (   1   4  43  14   2   0   0)

     celldm(1)=   1.889726  celldm(2)=   0.000000  celldm(3)=   0.000000
     celldm(4)=   0.000000  celldm(5)=   0.000000  celldm(6)=   0.000000

     crystal axes: (cart. coord. in units of alat)
               a(1) = (   6.579727   0.000000   0.000000 )
               a(2) = (  -0.000775   5.961596   0.000000 )
               a(3) = (   0.000000   0.000000  25.155947 )

     reciprocal axes: (cart. coord. in units 2 pi/alat)
               b(1) = (  0.151982  0.000020  0.000000 )
               b(2) = (  0.000000  0.167740  0.000000 )
               b(3) = (  0.000000  0.000000  0.039752 )

     PseudoPot. # 1 for Ti read from file:
     /storage/coda1/p-amedford6/0/shared/rich_project_chbe-medford/medford-share/data/pseudos_module/espresso/nninc/pbe/van/Ti.UPF
     MD5 check sum: 8e4df49b7f0d34bbd5052bf3f5ea0213
     Pseudo is Ultrasoft, Zval = 12.0
     Generated by new atomic code, or converted to UPF format
     Using radial grid of  851 points,  6 beta functions with:
                l(1) =   0
                l(2) =   0
                l(3) =   1
                l(4) =   1
                l(5) =   2
                l(6) =   2
     Q(r) pseudized with  8 coefficients,  rinner =    1.000   1.000   1.000
                                                       1.000   1.000

     PseudoPot. # 2 for O  read from file:
     /storage/coda1/p-amedford6/0/shared/rich_project_chbe-medford/medford-share/data/pseudos_module/espresso/nninc/pbe/van/O.UPF
     MD5 check sum: 78c19812648e8988a0fe644b0f25305e
     Pseudo is Ultrasoft, Zval =  6.0
     Generated by new atomic code, or converted to UPF format
     Using radial grid of  737 points,  4 beta functions with:
                l(1) =   0
                l(2) =   0
                l(3) =   1
                l(4) =   1
     Q(r) pseudized with  8 coefficients,  rinner =    0.800   0.800   0.800

     PseudoPot. # 3 for N  read from file:
     /storage/coda1/p-amedford6/0/shared/rich_project_chbe-medford/medford-share/data/pseudos_module/espresso/nninc/pbe/van/N.UPF
     MD5 check sum: 90d10febe142ad51ac9d5be1deb811c4
     Pseudo is Ultrasoft, Zval =  5.0
     Generated by new atomic code, or converted to UPF format
     Using radial grid of  729 points,  4 beta functions with:
                l(1) =   0
                l(2) =   0
                l(3) =   1
                l(4) =   1
     Q(r) pseudized with  8 coefficients,  rinner =    0.800   0.800   0.800

     PseudoPot. # 4 for C  read from file:
     /storage/coda1/p-amedford6/0/shared/rich_project_chbe-medford/medford-share/data/pseudos_module/espresso/nninc/pbe/van/C.UPF
     MD5 check sum: 1a69bf6b8db32088f5b2163dbdb77a27
     Pseudo is Ultrasoft, Zval =  4.0
     Generated by new atomic code, or converted to UPF format
     Using radial grid of  721 points,  4 beta functions with:
                l(1) =   0
                l(2) =   0
                l(3) =   1
                l(4) =   1
     Q(r) pseudized with  8 coefficients,  rinner =    0.800   0.800   0.800

     PseudoPot. # 5 for H  read from file:
     /storage/coda1/p-amedford6/0/shared/rich_project_chbe-medford/medford-share/data/pseudos_module/espresso/nninc/pbe/van/H.UPF
     MD5 check sum: b5ee9d7bfd3a09ee7748110bda690ff7
     Pseudo is Ultrasoft, Zval =  1.0
     Generated by new atomic code, or converted to UPF format
     Using radial grid of  615 points,  1 beta functions with:
                l(1) =   0
     Q(r) pseudized with  8 coefficients,  rinner =    0.800

     atomic species   valence    mass     pseudopotential
        Ti1           12.00    47.86700     Ti( 1.00)
        O1             6.00    15.99900     O ( 1.00)
        N1             5.00    14.00700     N ( 1.00)
        C1             4.00    12.01100     C ( 1.00)
        H1             1.00     1.00800     H ( 1.00)

     No symmetry found

   Cartesian axes

     site n.     atom                  positions (alat units)
         1           Ti1 tau(   1) = (   0.0004258   2.9801865   6.0000000  )
         2           Ti1 tau(   2) = (   3.2906075   1.4906267   6.0002472  )
         3           O1  tau(   3) = (   0.0006271   0.0005054   7.9858123  )
         4           O1  tau(   4) = (   3.2906025   0.0005020   7.3038282  )
         5           O1  tau(   5) = (   4.5942328   1.4918067   9.2879030  )
         6           O1  tau(   6) = (   1.9868534   1.4903216   9.2879459  )
         7           Ti1 tau(   7) = (   3.2907910   2.8959150   9.1758416  )
         8           Ti1 tau(   8) = (   0.0015273   1.4827037   9.2680791  )
         9           O1  tau(   9) = (   3.2953096   5.9421394  11.2884464  )
        10           O1  tau(  10) = (   0.0116148   5.9584955  10.6183126  )
        11           O1  tau(  11) = (   1.3041449   1.4755329  12.6321863  )
        12           O1  tau(  12) = (   5.3089623   1.4871430  12.6059879  )
        13           Ti1 tau(  13) = (   6.5683417   3.1096339  12.6902584  )
        14           Ti1 tau(  14) = (   3.3171551   1.3050273  12.6602886  )
        15           O1  tau(  15) = (   6.5441980   0.0188234  14.6400653  )
        16           O1  tau(  16) = (   3.3305379   0.0354930  13.9003223  )
        17           O1  tau(  17) = (   4.5569828   1.5958521  16.0354584  )
        18           O1  tau(  18) = (   2.0254723   1.5302355  15.9749146  )
        19           Ti1 tau(  19) = (   3.2479256   3.0467527  15.6517507  )
        20           Ti1 tau(  20) = (   6.4631478   1.5268535  15.8454044  )
        21           O1  tau(  21) = (   3.2904802   0.0005063   4.7018136  )
        22           O1  tau(  22) = (   6.5640117   0.0389496  17.1838934  )
        23           O1  tau(  23) = (   1.3043587   1.4918075   6.0039043  )
        24           O1  tau(  24) = (   5.2767064   1.4903225   6.0039473  )
        25           Ti1 tau(  25) = (   0.0000382   5.9609847   6.0000000  )
        26           Ti1 tau(  26) = (   3.2902200   4.4714249   6.0002472  )
        27           O1  tau(  27) = (   0.0002396   2.9813036   7.9858123  )
        28           O1  tau(  28) = (   3.2902150   2.9813002   7.3038282  )
        29           O1  tau(  29) = (   4.5938453   4.4726049   9.2879030  )
        30           O1  tau(  30) = (   1.9864658   4.4711199   9.2879459  )
        31           Ti1 tau(  31) = (   3.2891106   5.8743827   9.1763621  )
        32           Ti1 tau(  32) = (   0.0006254   4.4649316   9.2693709  )
        33           O1  tau(  33) = (   3.2909858   3.0116154  11.2527998  )
        34           O1  tau(  34) = (   0.0092240   2.9805883  10.6323155  )
        35           O1  tau(  35) = (   1.2990260   4.4726261  12.6330189  )
        36           O1  tau(  36) = (   5.2946483   4.4606482  12.6134978  )
        37           Ti1 tau(  37) = (   0.0333947   0.1262769  12.6104238  )
        38           Ti1 tau(  38) = (   3.2900473   4.3917186  12.4086616  )
        39           O1  tau(  39) = (   6.5591047   2.9728048  14.6463482  )
        40           O1  tau(  40) = (   3.3071982   2.9909887  13.8663713  )
        41           O1  tau(  41) = (   4.5374868   4.4330245  16.1128471  )
        42           O1  tau(  42) = (   2.0037144   4.4952966  15.9584979  )
        43           Ti1 tau(  43) = (   3.1911318   0.0573200  16.2061952  )
        44           Ti1 tau(  44) = (   6.5299348   4.6473693  16.0672121  )
        45           O1  tau(  45) = (   3.2900926   2.9813045   4.7018136  )
        46           O1  tau(  46) = (   1.3039711   4.4726057   6.0039043  )
        47           O1  tau(  47) = (   5.2763189   4.4711207   6.0039473  )
        48           N1  tau(  48) = (   1.2509970   2.8552009  18.3001485  )
        49           N1  tau(  49) = (   0.1090600   2.9410495  17.4585617  )
        50           C1  tau(  50) = (   1.1117997   3.5424446  19.5707766  )
        51           H1  tau(  51) = (   0.2696121   3.1616043  20.1716506  )
        52           H1  tau(  52) = (   2.0314425   3.4001925  20.1392599  )
        53           H1  tau(  53) = (   0.9679189   4.6079482  19.3970517  )
        54           H1  tau(  54) = (   1.5306055   1.8840965  18.4148701  )
        55           H1  tau(  55) = (   5.8389999   2.9001924  18.0225661  )
        56           O1  tau(  56) = (   3.2424369   0.1001929  18.0579484  )
        57           H1  tau(  57) = (   3.9792659   5.6040190  18.4897823  )

     number of k points=    10  Fermi-Dirac smearing, width (Ry)=  0.0073
                       cart. coord. in units 2pi/alat
        k(    1) = (   0.0000000   0.0000000   0.0000000), wk =   0.1250000
        k(    2) = (   0.0000000   0.0419351   0.0000000), wk =   0.2500000
        k(    3) = (   0.0000000  -0.0838702   0.0000000), wk =   0.1250000
        k(    4) = (   0.0379955   0.0000049   0.0000000), wk =   0.2500000
        k(    5) = (   0.0379955   0.0419400   0.0000000), wk =   0.2500000
        k(    6) = (   0.0379955  -0.0838652   0.0000000), wk =   0.2500000
        k(    7) = (   0.0379955  -0.0419301   0.0000000), wk =   0.2500000
        k(    8) = (  -0.0759910  -0.0000099   0.0000000), wk =   0.1250000
        k(    9) = (  -0.0759910   0.0419252   0.0000000), wk =   0.2500000
        k(   10) = (  -0.0759910  -0.0838800   0.0000000), wk =   0.1250000

     Initial potential from superposition of free atoms

     starting charge  387.99913, renormalised to  404.00000

     negative rho (up, down):  1.467E-02 0.000E+00

     %%%%%%%%%%%%%%%%%%%%%%%%%%%%%%%%%%%%%%%%%%%%%%%%%%%%%%%%%%%%%%%%%%%%%%%%
     %                                                                      %
     % You are using vdW-DF, which was implemented by the Thonhauser group. %
     % Please cite the following two papers that made this development      %
     % possible and the two reviews that describe the various versions:     %
     %                                                                      %
     %   T. Thonhauser et al., PRL 115, 136402 (2015).                      %
     %   T. Thonhauser et al., PRB 76, 125112 (2007).                       %
     %   K. Berland et al., Rep. Prog. Phys. 78, 066501 (2015).             %
     %   D.C. Langreth et al., J. Phys.: Condens. Matter 21, 084203 (2009). %
     %                                                                      %
     %                                                                      %
     % If you are calculating the stress with vdW-DF, please also cite:     %
     %                                                                      %
     %   R. Sabatini et al., J. Phys.: Condens. Matter 24, 424209 (2012).   %
     %                                                                      %
     %%%%%%%%%%%%%%%%%%%%%%%%%%%%%%%%%%%%%%%%%%%%%%%%%%%%%%%%%%%%%%%%%%%%%%%%

     Adding external electric field

     Computed dipole along edir(3) :
        Dipole              -12.7307 Ry au,        -32.3582 Debye
        Dipole field         -0.0240 Ry au,

        Potential amp.        2.2270 Ry
        Total length         46.3494 bohr

     Starting wfcs are  306 atomic wfcs
  @ DRIVER MODE: Message from server: STATUS
  @ DRIVER MODE: Message from server: POSDATA
  @ DRIVER MODE: Reading and sharing cell
  @ DRIVER MODE: Reading and sharing positions
  @ DRIVER MODE: Received positions

     Self-consistent Calculation

     iteration #  1     ecut=    29.40 Ry     beta= 0.05
     Davidson diagonalization with overlap
     c_bands:  4 eigenvalues not converged
     c_bands:  5 eigenvalues not converged
     c_bands:  5 eigenvalues not converged
     c_bands:  5 eigenvalues not converged
     c_bands:  1 eigenvalues not converged
     c_bands:  3 eigenvalues not converged
     c_bands:  4 eigenvalues not converged
     c_bands:  4 eigenvalues not converged
     ethr =  1.00E-05,  avg # of iterations = 24.4

[...]

     total energy              =   -2345.45370937 Ry
     estimated scf accuracy    <    7121.27266128 Ry

     iteration #  2     ecut=    29.40 Ry     beta= 0.05
     Davidson diagonalization with overlap
     ethr =  1.00E-02,  avg # of iterations = 24.3

[...]

     iteration # 66     ecut=    29.40 Ry     beta= 0.05
     Davidson diagonalization with overlap
     c_bands:  1 eigenvalues not converged
     ethr =  9.02E-11,  avg # of iterations =  6.8

[...]

     total energy              =   -2975.25031869 Ry
     estimated scf accuracy    <       0.00000026 Ry

     iteration # 71     ecut=    29.40 Ry     beta= 0.05
     Davidson diagonalization with overlap
     ethr =  3.33E-11,  avg # of iterations =  5.1

     negative rho (up, down):  1.542E-02 0.000E+00

     Adding external electric field

     Computed dipole along edir(3) :
        Dipole                0.5361 Ry au,          1.3626 Debye
        Dipole field          0.0010 Ry au,

        Potential amp.       -0.0938 Ry
        Total length         46.3494 bohr

     End of self-consistent calculation

          k = 0.0000 0.0000 0.0000 ( 18029 PWs)   bands (ev):

   -56.4286 -56.3950 -55.7725 -55.7377 -55.5406 -55.4795 -55.3670 -55.2116
   -55.2074 -55.1390 -55.1041 -55.0911 -55.0572 -55.0499 -54.9848 -54.8649
   -32.8616 -32.7130 -32.6850 -32.5963 -32.5049 -32.4872 -32.2526 -32.0187
   -31.9919 -31.9691 -31.9162 -31.9107 -31.8812 -31.7686 -31.7567 -31.7467
   -31.7055 -31.6961 -31.6818 -31.6415 -31.6349 -31.6248 -31.5759 -31.5552
   -31.5135 -31.4828 -31.4815 -31.4310 -31.4179 -31.4107 -31.4069 -31.3868
   -31.3670 -31.3665 -31.3295 -31.3114 -31.3054 -31.3014 -31.2825 -31.2371
   -31.2347 -31.2185 -31.2052 -31.1846 -31.1134 -31.1090 -31.1068 -31.0578
   -16.6182 -16.5711 -16.1904 -16.1733 -15.8662 -15.8024 -15.7768 -15.7420
   -15.6805 -15.5568 -15.4390 -15.3939 -15.3853 -15.3371 -15.1779 -15.0807
   -14.9849 -14.9135 -14.9060 -14.8590 -14.8509 -14.8221 -14.8099 -14.8022
   -14.7361 -14.7013 -14.5932 -14.5486 -14.4521 -14.2575 -14.1782 -13.5889
   -13.4791 -11.5522  -8.6700  -5.0550  -4.2576  -4.1690  -3.7817  -3.6938
    -3.5217  -3.4445  -3.2935  -3.2632  -3.1753  -3.0738  -3.0125  -2.9552
    -2.9441  -2.8391  -2.6904  -2.6387  -2.6338  -2.6111  -2.6044  -2.5129
    -2.4449  -2.4116  -2.3439  -2.2741  -2.2421  -2.1566  -2.1514  -2.1256
    -2.1046  -2.0757  -2.0276  -1.9787  -1.9554  -1.9356  -1.8243  -1.7822
    -1.7557  -1.7105  -1.6793  -1.6047  -1.5690  -1.5223  -1.4438  -1.3836
    -1.2610  -1.2340  -1.1684  -1.1547  -1.1253  -0.9971  -0.9623  -0.9278
    -0.8666  -0.8327  -0.7679  -0.7448  -0.7121  -0.6743  -0.6657  -0.6256
    -0.5190  -0.4890  -0.3631  -0.3461  -0.2929  -0.2229  -0.2132  -0.1585
    -0.1370  -0.1003  -0.0555  -0.0187   0.0233   0.0921   0.1300   0.2176
     0.2607   0.3239   0.4196   0.4490   0.4705   0.5334   0.5511   0.5845
     0.6299   0.7237   0.7326   0.7937   0.8693   0.9143   0.9317   0.9933
     1.0528   1.0722   1.1708   1.1986   1.2098   1.2648   1.4718   1.5121
     1.6900   2.4456   2.8358   2.9825   3.2683   3.3001   3.5605   3.7951
     3.8251   3.8271   3.9100   4.0188

[...]

          k = 0.0380-0.0419 0.0000 ( 17876 PWs)   bands (ev):

[...]

          k =-0.0760-0.0000 0.0000 ( 17886 PWs)   bands (ev):

[...]

          k =-0.0760-0.0839 0.0000 ( 17948 PWs)   bands (ev):

   -56.4119 -56.4115 -55.7598 -55.7502 -55.5354 -55.4846 -55.3656 -55.2128
   -55.2027 -55.1434 -55.1019 -55.0747 -55.0735 -55.0485 -54.9871 -54.8662
   -32.6988 -32.6984 -32.6785 -32.6779 -32.5491 -32.5489 -32.0777 -32.0693
   -31.9538 -31.9464 -31.9427 -31.9403 -31.8386 -31.7998 -31.7627 -31.7545
   -31.7101 -31.7048 -31.6651 -31.6160 -31.5835 -31.5646 -31.5400 -31.5001
   -31.4875 -31.4849 -31.4341 -31.4320 -31.4203 -31.4195 -31.4172 -31.3960
   -31.3828 -31.3570 -31.3351 -31.3231 -31.3094 -31.2992 -31.2978 -31.2972
   -31.2607 -31.2597 -31.2417 -31.2343 -31.1917 -31.1752 -31.1145 -31.0894
   -16.5461 -16.1764 -15.9989 -15.9950 -15.9155 -15.9129 -15.7047 -15.6991
   -15.5281 -15.4989 -15.4241 -15.3060 -15.2545 -15.1980 -15.1897 -15.1477
   -15.0931 -15.0738 -15.0313 -15.0139 -14.9513 -14.9079 -14.8590 -14.8133
   -14.7944 -14.7553 -14.6344 -14.5856 -14.5784 -14.3919 -14.3592 -13.5831
   -13.5824 -11.5589  -8.6766  -5.0631  -4.2551  -3.7534  -3.3986  -3.1008
    -3.0828  -3.0374  -3.0283  -2.8126  -2.7920  -2.7661  -2.6931  -2.6803
    -2.6304  -2.6231  -2.5312  -2.4905  -2.4484  -2.4340  -2.4194  -2.3643
    -2.3367  -2.2931  -2.2896  -2.2537  -2.2186  -2.1848  -2.1597  -2.1180
    -2.0942  -2.0801  -2.0409  -2.0098  -1.9828  -1.9331  -1.9127  -1.8812
    -1.8714  -1.8497  -1.6921  -1.6382  -1.5823  -1.5390  -1.5087  -1.4427
    -1.4330  -1.3776  -1.3190  -1.2852  -1.2573  -1.2390  -1.1525  -1.1212
    -1.1048  -1.0689  -1.0269  -0.9663  -0.9078  -0.8594  -0.7825  -0.6881
    -0.6594  -0.6420  -0.6149  -0.6073  -0.5662  -0.5140  -0.4256  -0.3736
    -0.3214  -0.3047  -0.2610  -0.2548  -0.2248  -0.1869  -0.1182   0.0041
     0.0697   0.1055   0.1609   0.2172   0.2736   0.3376   0.3802   0.4618
     0.5409   0.5626   0.6482   0.6819   0.8068   0.8484   0.9642   1.0052
     1.0431   1.0878   1.1570   1.2543   1.2793   1.3229   1.3246   1.3415
     1.3561   2.4707   3.4027   3.4056   3.4561   3.4635   3.7380   3.7462
     3.8797   3.8815   4.0064   4.0190

     the Fermi energy is     2.7169 ev

!    total energy              =   -2975.25033613 Ry
     estimated scf accuracy    <       0.00000007 Ry
     smearing contrib. (-TS)   =      -0.00754013 Ry
     internal energy E=F+TS    =   -2975.24279600 Ry

     The total energy is F=E-TS. E is the sum of the following terms:
     one-electron contribution =  -23774.12073228 Ry
     hartree contribution      =   11982.68445670 Ry
     xc contribution           =    -494.81379351 Ry
     ewald contribution        =    9311.00673073 Ry
     electric field correction =       0.00054236 Ry

     convergence has been achieved in  71 iterations

     Forces acting on atoms (cartesian axes, Ry/au):

     atom    1 type  1   force =     0.00002029   -0.00034741    0.11624512
     atom    2 type  1   force =    -0.00014250    0.00031834   -0.16018628
     atom    3 type  2   force =     0.00004586    0.00032684   -0.05320852
     atom    4 type  2   force =     0.00007146   -0.00041713    0.02649704
     atom    5 type  2   force =    -0.00502613   -0.00225937   -0.01002548
     atom    6 type  2   force =     0.00671018   -0.00183303   -0.01075723
     atom    7 type  1   force =    -0.00038525   -0.00640062    0.04568838
     atom    8 type  1   force =     0.00057118    0.01079034    0.08184995
     atom    9 type  2   force =    -0.00001690    0.00036044   -0.00015931
     atom   10 type  2   force =    -0.00139973    0.00154985   -0.05458022
     atom   11 type  2   force =     0.00074493    0.00028387   -0.00024430
     atom   12 type  2   force =    -0.00116416    0.00020862    0.00017558
     atom   13 type  1   force =    -0.00022202   -0.00093420    0.00045542
     atom   14 type  1   force =     0.00047111    0.00126183   -0.00025877
     atom   15 type  2   force =     0.00001881   -0.00053027    0.00032300
     atom   16 type  2   force =    -0.00029619    0.00061316    0.00094029
     atom   17 type  2   force =    -0.00071282   -0.00039067    0.00025327
     atom   18 type  2   force =     0.00080306   -0.00023874    0.00019425
     atom   19 type  1   force =    -0.00073175   -0.00056658   -0.00049966
     atom   20 type  1   force =     0.00063409   -0.00029676   -0.00035832
     atom   21 type  2   force =     0.00007596    0.00015041    0.09916130
     atom   22 type  2   force =     0.00027321   -0.00039091    0.00079277
     atom   23 type  2   force =    -0.07949868   -0.00002232   -0.03161665
     atom   24 type  2   force =     0.07941839    0.00040726   -0.03165021
     atom   25 type  1   force =     0.00017543   -0.00036518    0.11650750
     atom   26 type  1   force =    -0.00009021   -0.00142156   -0.16032361
     atom   27 type  2   force =     0.00013483   -0.00011869   -0.05159304
     atom   28 type  2   force =     0.00003119    0.00129611    0.02168512
     atom   29 type  2   force =    -0.00384212    0.00422720   -0.01242602
     atom   30 type  2   force =     0.00542633    0.00483983   -0.01301870
     atom   31 type  1   force =    -0.00015195    0.00313810    0.03066552
     atom   32 type  1   force =     0.00051450   -0.01302172    0.08271663
     atom   33 type  2   force =     0.00017955   -0.00051252    0.00023305
     atom   34 type  2   force =    -0.00049752    0.00168197   -0.06794683
     atom   35 type  2   force =    -0.00043440   -0.00064524   -0.00011377
     atom   36 type  2   force =     0.00006163   -0.00002724   -0.00003051
     atom   37 type  1   force =    -0.00012188   -0.00122082   -0.00011088
     atom   38 type  1   force =     0.00047495   -0.00033098    0.00016531
     atom   39 type  2   force =     0.00012750    0.00033620   -0.00015309
     atom   40 type  2   force =    -0.00012786   -0.00024241    0.00022445
     atom   41 type  2   force =     0.00117211   -0.00009288    0.00025496
     atom   42 type  2   force =    -0.00098110   -0.00035485    0.00022005
     atom   43 type  1   force =     0.00000917   -0.00077552    0.00003591
     atom   44 type  1   force =     0.00062245    0.00050721   -0.00050938
     atom   45 type  2   force =     0.00007480   -0.00002870    0.09899047
     atom   46 type  2   force =    -0.07951190   -0.00001535   -0.03163134
     atom   47 type  2   force =     0.07945043    0.00042999   -0.03165412
     atom   48 type  3   force =    -0.00187158    0.00037923   -0.00039294
     atom   49 type  3   force =     0.00565905    0.00063260   -0.00659432
     atom   50 type  4   force =    -0.00070029    0.00076391    0.00014427
     atom   51 type  5   force =    -0.00103782    0.00024922   -0.00019709
     atom   52 type  5   force =    -0.00000236   -0.00043113    0.00018267
     atom   53 type  5   force =     0.00051767    0.00021820   -0.00059564
     atom   54 type  5   force =    -0.00016625   -0.00165686    0.00009066
     atom   55 type  5   force =    -0.00632688   -0.00029519    0.00656883
     atom   56 type  2   force =     0.00112372   -0.00021562    0.00000664
     atom   57 type  5   force =    -0.00015357    0.00142975   -0.00043221

     Total force =     0.399279     Total SCF correction =     0.000828
  @ DRIVER MODE: Message from server: STATUS
  @ DRIVER MODE: Message from server: GETFORCE
  @ DRIVER MODE: Returning v,forces,stress,ensemble

     Writing output data file ./calc.save/
  @ DRIVER MODE: Message from server: EXIT
  @ DRIVE MODE: Exiting

     General routines

     Parallel routines

   This run was terminated on:  17: 5: 4  23Sep2021

   JOB DONE.