     Program PWSCF v.6.7GPU starts on 24Sep2021 at  1:13:24

     R & G space division:  proc/nbgrp/npool/nimage =       8
     Reading input from /storage/home/hcoda1/3/ntian30/research/carbon/CxH_vib/H2O_calc/ads_slab/CH3ON2HO_a/out_0029/pw.inp
Warning: card &CELL ignored
Warning: card   CELL_DYNAMICS='IPI', ignored
Warning: card / ignored

     Current dimensions of program PWSCF are:
     Max number of different atomic species (ntypx) = 10
     Max number of k-points (npk) =  40000
     Max angular momentum in pseudopotentials (lmaxx) =  3
     Presently no symmetry can be used with electric field

     Message from routine cell_base_init:
     DEPRECATED: use true lattice parameter, not A to a.u. conversion factor

     IMPORTANT: XC functional enforced from input :
     Exchange-correlation= BEEF-VDW
                           (   1   4  43  14   2   0   0)
     Any further DFT definition will be discarded
     Please, verify this is what you really want

  @ DRIVER MODE: Connecting to
 qe_1139763_2947306.sched-torque.pace.gatech.eduprgsm084_scratch
  using UNIX socket
  @ DRIVER MODE: Message from server: STATUS
  @ DRIVER MODE: Message from server: INIT
  @ DRIVER MODE: Receiving replica           0          -1
  @ DRIVER MODE: Receiving encoded integer          25
  @ DRIVER MODE:  SCF:  T  FORCE:  T  STRESS:  F  VC:  F  ENSEMBLE:  F
  @ DRIVER MODE:  SCF:  T  FORCE:  T  STRESS:  F  VC:  F  ENSEMBLE:  F

     Using Slab Decomposition

     bravais-lattice index     =            0
     lattice parameter (alat)  =       1.8897  a.u.
     unit-cell volume          =    6658.9804 (a.u.)^3
     number of atoms/cell      =           56
     number of atomic types    =            5
     number of electrons       =       408.00
     number of Kohn-Sham states=          214
     kinetic-energy cutoff     =      29.3995  Ry
     charge density cutoff     =     293.9946  Ry
     scf convergence threshold =      7.3E-08
     mixing beta               =       0.0500
     number of iterations used =            8  plain     mixing
     Exchange-correlation= BEEF-VDW
                           (   1   4  43  14   2   0   0)

     celldm(1)=   1.889726  celldm(2)=   0.000000  celldm(3)=   0.000000
     celldm(4)=   0.000000  celldm(5)=   0.000000  celldm(6)=   0.000000

     crystal axes: (cart. coord. in units of alat)
               a(1) = (   6.579727   0.000000   0.000000 )
               a(2) = (  -0.000775   5.961596   0.000000 )
               a(3) = (   0.000000   0.000000  25.155947 )

     reciprocal axes: (cart. coord. in units 2 pi/alat)
               b(1) = (  0.151982  0.000020  0.000000 )
               b(2) = (  0.000000  0.167740  0.000000 )
               b(3) = (  0.000000  0.000000  0.039752 )

     PseudoPot. # 1 for Ti read from file:
     /storage/coda1/p-amedford6/0/shared/rich_project_chbe-medford/medford-share/data/pseudos_module/espresso/nninc/pbe/van/Ti.UPF
     MD5 check sum: 8e4df49b7f0d34bbd5052bf3f5ea0213
     Pseudo is Ultrasoft, Zval = 12.0
     Generated by new atomic code, or converted to UPF format
     Using radial grid of  851 points,  6 beta functions with:
                l(1) =   0
                l(2) =   0
                l(3) =   1
                l(4) =   1
                l(5) =   2
                l(6) =   2
     Q(r) pseudized with  8 coefficients,  rinner =    1.000   1.000   1.000
                                                       1.000   1.000

     PseudoPot. # 2 for O  read from file:
     /storage/coda1/p-amedford6/0/shared/rich_project_chbe-medford/medford-share/data/pseudos_module/espresso/nninc/pbe/van/O.UPF
     MD5 check sum: 78c19812648e8988a0fe644b0f25305e
     Pseudo is Ultrasoft, Zval =  6.0
     Generated by new atomic code, or converted to UPF format
     Using radial grid of  737 points,  4 beta functions with:
                l(1) =   0
                l(2) =   0
                l(3) =   1
                l(4) =   1
     Q(r) pseudized with  8 coefficients,  rinner =    0.800   0.800   0.800

     PseudoPot. # 3 for C  read from file:
     /storage/coda1/p-amedford6/0/shared/rich_project_chbe-medford/medford-share/data/pseudos_module/espresso/nninc/pbe/van/C.UPF
     MD5 check sum: 1a69bf6b8db32088f5b2163dbdb77a27
     Pseudo is Ultrasoft, Zval =  4.0
     Generated by new atomic code, or converted to UPF format
     Using radial grid of  721 points,  4 beta functions with:
                l(1) =   0
                l(2) =   0
                l(3) =   1
                l(4) =   1
     Q(r) pseudized with  8 coefficients,  rinner =    0.800   0.800   0.800

     PseudoPot. # 4 for H  read from file:
     /storage/coda1/p-amedford6/0/shared/rich_project_chbe-medford/medford-share/data/pseudos_module/espresso/nninc/pbe/van/H.UPF
     MD5 check sum: b5ee9d7bfd3a09ee7748110bda690ff7
     Pseudo is Ultrasoft, Zval =  1.0
     Generated by new atomic code, or converted to UPF format
     Using radial grid of  615 points,  1 beta functions with:
                l(1) =   0
     Q(r) pseudized with  8 coefficients,  rinner =    0.800

     PseudoPot. # 5 for N  read from file:
     /storage/coda1/p-amedford6/0/shared/rich_project_chbe-medford/medford-share/data/pseudos_module/espresso/nninc/pbe/van/N.UPF
     MD5 check sum: 90d10febe142ad51ac9d5be1deb811c4
     Pseudo is Ultrasoft, Zval =  5.0
     Generated by new atomic code, or converted to UPF format
     Using radial grid of  729 points,  4 beta functions with:
                l(1) =   0
                l(2) =   0
                l(3) =   1
                l(4) =   1
     Q(r) pseudized with  8 coefficients,  rinner =    0.800   0.800   0.800

     atomic species   valence    mass     pseudopotential
        Ti1           12.00    47.86700     Ti( 1.00)
        O1             6.00    15.99900     O ( 1.00)
        C1             4.00    12.01100     C ( 1.00)
        H1             1.00     1.00800     H ( 1.00)
        N1             5.00    14.00700     N ( 1.00)

     No symmetry found

   Cartesian axes

     site n.     atom                  positions (alat units)
         1           Ti1 tau(   1) = (   0.0004258   2.9801865   6.0000000  )
         2           Ti1 tau(   2) = (   3.2906075   1.4906267   6.0002472  )
         3           O1  tau(   3) = (   0.0006271   0.0005054   7.9858123  )
         4           O1  tau(   4) = (   3.2906025   0.0005020   7.3038282  )
         5           O1  tau(   5) = (   4.5942328   1.4918067   9.2879030  )
         6           O1  tau(   6) = (   1.9868534   1.4903216   9.2879459  )
         7           Ti1 tau(   7) = (   3.3138730   3.1023225   9.2183157  )
         8           Ti1 tau(   8) = (   0.0392070   1.5780841   9.3433077  )
         9           O1  tau(   9) = (   3.2868017   0.0212601  11.3135411  )
        10           O1  tau(  10) = (   0.0022550   0.0140515  10.5858881  )
        11           O1  tau(  11) = (   1.2767464   1.5002397  12.6205121  )
        12           O1  tau(  12) = (   5.2993684   1.4943797  12.6172415  )
        13           Ti1 tau(  13) = (   0.0200588   3.0780815  12.7918821  )
        14           Ti1 tau(  14) = (   3.2574684   1.5637424  12.4212484  )
        15           O1  tau(  15) = (   6.5768379   0.0158506  14.6682411  )
        16           O1  tau(  16) = (   3.2886937   5.9311801  13.9109749  )
        17           O1  tau(  17) = (   4.5620935   1.5260772  16.0398494  )
        18           O1  tau(  18) = (   2.0292830   1.5431627  16.0187044  )
        19           Ti1 tau(  19) = (   3.3027642   2.9567202  15.6520962  )
        20           Ti1 tau(  20) = (   0.0552782   1.4362356  15.9688716  )
        21           O1  tau(  21) = (   3.2904802   0.0005063   4.7018136  )
        22           O1  tau(  22) = (   0.0488089   0.0211857  17.1900833  )
        23           O1  tau(  23) = (   1.3043587   1.4918075   6.0039043  )
        24           O1  tau(  24) = (   5.2767064   1.4903225   6.0039473  )
        25           Ti1 tau(  25) = (   0.0000382   5.9609847   6.0000000  )
        26           Ti1 tau(  26) = (   3.2902200   4.4714249   6.0002472  )
        27           O1  tau(  27) = (   0.0002396   2.9813036   7.9858123  )
        28           O1  tau(  28) = (   3.2902150   2.9813002   7.3038282  )
        29           O1  tau(  29) = (   4.5938453   4.4726049   9.2879030  )
        30           O1  tau(  30) = (   1.9864658   4.4711199   9.2879459  )
        31           Ti1 tau(  31) = (   3.3219941   0.1169887   9.1790125  )
        32           Ti1 tau(  32) = (   0.0373256   4.5280481   9.3594506  )
        33           O1  tau(  33) = (   3.2887547   2.9594671  11.2851190  )
        34           O1  tau(  34) = (   0.0046902   2.9985155  10.5475055  )
        35           O1  tau(  35) = (   1.2817606   4.4707209  12.6310527  )
        36           O1  tau(  36) = (   5.3098963   4.4869072  12.6241852  )
        37           Ti1 tau(  37) = (   6.5328698   0.0937101  12.6083326  )
        38           Ti1 tau(  38) = (   3.2790761   4.6595539  12.6693962  )
        39           O1  tau(  39) = (   0.0062896   2.9920245  14.6683812  )
        40           O1  tau(  40) = (   3.3079832   2.9813091  13.8732900  )
        41           O1  tau(  41) = (   4.5514670   4.4448635  16.0695425  )
        42           O1  tau(  42) = (   2.0242163   4.4286948  16.0089506  )
        43           Ti1 tau(  43) = (   3.3772342   5.9382356  16.2476532  )
        44           Ti1 tau(  44) = (   0.0845355   4.5653432  16.0322982  )
        45           O1  tau(  45) = (   3.2900926   2.9813045   4.7018136  )
        46           O1  tau(  46) = (   1.3039711   4.4726057   6.0039043  )
        47           O1  tau(  47) = (   5.2763189   4.4711207   6.0039473  )
        48           C1  tau(  48) = (   6.0101766   2.9784267  18.6088694  )
        49           O1  tau(  49) = (   6.5649008   2.9952511  17.2928482  )
        50           H1  tau(  50) = (   4.9185495   2.9407445  18.5675634  )
        51           H1  tau(  51) = (   6.3703738   2.0936667  19.1370987  )
        52           H1  tau(  52) = (   6.3118891   3.8824302  19.1299426  )
        53           N1  tau(  53) = (   6.0262039   3.1690275  22.5535725  )
        54           N1  tau(  54) = (   5.1417247   3.1052473  21.8962875  )
        55           O1  tau(  55) = (   3.2068502   5.9581871  18.0710493  )
        56           H1  tau(  56) = (   2.3500504   0.2277792  18.4614507  )

     number of k points=    10  Fermi-Dirac smearing, width (Ry)=  0.0073
                       cart. coord. in units 2pi/alat
        k(    1) = (   0.0000000   0.0000000   0.0000000), wk =   0.1250000
        k(    2) = (   0.0000000   0.0419351   0.0000000), wk =   0.2500000
        k(    3) = (   0.0000000  -0.0838702   0.0000000), wk =   0.1250000
        k(    4) = (   0.0379955   0.0000049   0.0000000), wk =   0.2500000
        k(    5) = (   0.0379955   0.0419400   0.0000000), wk =   0.2500000
        k(    6) = (   0.0379955  -0.0838652   0.0000000), wk =   0.2500000
        k(    7) = (   0.0379955  -0.0419301   0.0000000), wk =   0.2500000
        k(    8) = (  -0.0759910  -0.0000099   0.0000000), wk =   0.1250000
        k(    9) = (  -0.0759910   0.0419252   0.0000000), wk =   0.2500000
        k(   10) = (  -0.0759910  -0.0838800   0.0000000), wk =   0.1250000

     Initial potential from superposition of free atoms

     starting charge  391.99915, renormalised to  408.00000

     negative rho (up, down):  9.976E-03 0.000E+00

     %%%%%%%%%%%%%%%%%%%%%%%%%%%%%%%%%%%%%%%%%%%%%%%%%%%%%%%%%%%%%%%%%%%%%%%%
     %                                                                      %
     % You are using vdW-DF, which was implemented by the Thonhauser group. %
     % Please cite the following two papers that made this development      %
     % possible and the two reviews that describe the various versions:     %
     %                                                                      %
     %   T. Thonhauser et al., PRL 115, 136402 (2015).                      %
     %   T. Thonhauser et al., PRB 76, 125112 (2007).                       %
     %   K. Berland et al., Rep. Prog. Phys. 78, 066501 (2015).             %
     %   D.C. Langreth et al., J. Phys.: Condens. Matter 21, 084203 (2009). %
     %                                                                      %
     %                                                                      %
     % If you are calculating the stress with vdW-DF, please also cite:     %
     %                                                                      %
     %   R. Sabatini et al., J. Phys.: Condens. Matter 24, 424209 (2012).   %
     %                                                                      %
     %%%%%%%%%%%%%%%%%%%%%%%%%%%%%%%%%%%%%%%%%%%%%%%%%%%%%%%%%%%%%%%%%%%%%%%%

     Adding external electric field

     Computed dipole along edir(3) :
        Dipole              -16.8144 Ry au,        -42.7380 Debye
        Dipole field         -0.0317 Ry au,

        Potential amp.        2.9414 Ry
        Total length         46.3494 bohr

     Starting wfcs are  308 atomic wfcs
  @ DRIVER MODE: Message from server: STATUS
  @ DRIVER MODE: Message from server: POSDATA
  @ DRIVER MODE: Reading and sharing cell
  @ DRIVER MODE: Reading and sharing positions
  @ DRIVER MODE: Received positions

     Self-consistent Calculation

     iteration #  1     ecut=    29.40 Ry     beta= 0.05
     Davidson diagonalization with overlap
     c_bands:  4 eigenvalues not converged
     c_bands:  1 eigenvalues not converged
     c_bands:  5 eigenvalues not converged
     c_bands:  1 eigenvalues not converged
     c_bands:  2 eigenvalues not converged
     c_bands:  2 eigenvalues not converged
     c_bands:  1 eigenvalues not converged
     c_bands:  5 eigenvalues not converged
     ethr =  1.00E-05,  avg # of iterations = 27.4

[...]

     total energy              =   -2248.46167514 Ry
     estimated scf accuracy    <    8688.93037619 Ry

     iteration #  2     ecut=    29.40 Ry     beta= 0.05
     Davidson diagonalization with overlap
     ethr =  1.00E-02,  avg # of iterations = 29.1

[...]

     iteration # 63     ecut=    29.40 Ry     beta= 0.05
     Davidson diagonalization with overlap
     c_bands:  1 eigenvalues not converged
     c_bands:  1 eigenvalues not converged
     c_bands:  1 eigenvalues not converged
     ethr =  2.24E-07,  avg # of iterations = 14.2

[...]

     total energy              =   -3005.28914660 Ry
     estimated scf accuracy    <       0.00000033 Ry

     iteration # 84     ecut=    29.40 Ry     beta= 0.05
     Davidson diagonalization with overlap
     ethr =  1.96E-11,  avg # of iterations =  6.0

     negative rho (up, down):  1.141E-02 0.000E+00

     Adding external electric field

     Computed dipole along edir(3) :
        Dipole                0.5475 Ry au,          1.3917 Debye
        Dipole field          0.0010 Ry au,

        Potential amp.       -0.0958 Ry
        Total length         46.3494 bohr

     End of self-consistent calculation

          k = 0.0000 0.0000 0.0000 ( 18029 PWs)   bands (ev):

   -56.1294 -56.0819 -55.5717 -55.5519 -55.5383 -55.5142 -55.4806 -55.4570
   -55.4225 -55.3964 -55.3625 -55.3209 -55.3198 -55.1835 -54.7423 -54.7084
   -32.5423 -32.3936 -32.3432 -32.3089 -32.2142 -32.1687 -32.0747 -32.0186
   -32.0103 -31.9039 -31.8600 -31.8426 -31.8372 -31.8151 -31.8129 -31.7748
   -31.7722 -31.7587 -31.7382 -31.7313 -31.7274 -31.6861 -31.6767 -31.6616
   -31.6585 -31.6407 -31.6377 -31.6279 -31.6205 -31.6111 -31.6041 -31.5867
   -31.5719 -31.5667 -31.5605 -31.5255 -31.5169 -31.5137 -31.4833 -31.4382
   -31.4003 -31.3887 -31.1367 -31.0825 -31.0581 -30.9536 -30.8687 -30.7578
   -20.8579 -17.3366 -16.3426 -16.2863 -16.1451 -15.9085 -15.7641 -15.6866
   -15.4570 -15.4465 -15.3319 -15.3247 -15.2899 -15.1589 -15.1414 -15.1339
   -15.0828 -15.0681 -15.0452 -15.0431 -15.0392 -15.0308 -14.9733 -14.9541
   -14.9146 -14.8556 -14.7796 -14.7594 -14.7102 -14.6996 -14.6576 -14.4319
   -13.2438 -13.1351  -9.0954  -6.0184  -4.1068  -3.9926  -3.9820  -3.9305
    -3.8128  -3.7818  -3.5879  -3.4892  -3.4628  -3.3877  -3.2910  -3.1859
    -2.9717  -2.8205  -2.7571  -2.7192  -2.7168  -2.6761  -2.6349  -2.5731
    -2.5186  -2.4766  -2.4426  -2.4086  -2.3487  -2.3359  -2.3201  -2.2897
    -2.2699  -2.2492  -2.2128  -2.2011  -2.0701  -2.0334  -2.0039  -1.9922
    -1.9390  -1.9206  -1.9017  -1.8916  -1.8469  -1.7507  -1.6524  -1.6385
    -1.5947  -1.4093  -1.3327  -1.2877  -1.2086  -1.1429  -1.0656  -1.0450
    -1.0351  -0.9804  -0.9423  -0.8414  -0.8070  -0.7682  -0.7004  -0.6956
    -0.6558  -0.5979  -0.5716  -0.5098  -0.4820  -0.4482  -0.3099  -0.2740
    -0.2563  -0.1941  -0.1934  -0.1015  -0.0424   0.0108   0.0299   0.0854
     0.1254   0.1474   0.1988   0.2294   0.2432   0.3267   0.3758   0.3828
     0.4170   0.4562   0.4748   0.5066   0.5949   0.6432   0.6695   0.6954
     0.8394   0.8532   0.9078   1.0143   1.0247   1.2057   1.2752   1.3108
     1.4974   1.5356   1.8269   1.8727   3.1708   3.3339   3.6132   3.7258
     3.7698   3.8097   3.8852   3.9122   4.0667   4.0893

[...]

          k = 0.0380-0.0419 0.0000 ( 17876 PWs)   bands (ev):

[...]

          k =-0.0760-0.0000 0.0000 ( 17886 PWs)   bands (ev):

[...]

          k =-0.0760-0.0839 0.0000 ( 17948 PWs)   bands (ev):

   -56.1224 -56.0888 -55.5697 -55.5470 -55.5372 -55.5082 -55.4851 -55.4628
   -55.4244 -55.3977 -55.3539 -55.3289 -55.3182 -55.1855 -54.7253 -54.7252
   -32.3890 -32.3735 -32.3472 -32.3449 -32.2744 -32.2458 -31.9632 -31.8835
   -31.8546 -31.8373 -31.8145 -31.8050 -31.7916 -31.7858 -31.7764 -31.7615
   -31.7562 -31.7465 -31.7461 -31.7383 -31.7290 -31.7202 -31.7072 -31.7053
   -31.7035 -31.6865 -31.6815 -31.6565 -31.6482 -31.6469 -31.6295 -31.6231
   -31.6003 -31.5935 -31.5779 -31.5661 -31.5632 -31.5358 -31.5210 -31.5029
   -31.4387 -31.3922 -31.0712 -31.0711 -30.9523 -30.9506 -30.9108 -30.9100
   -20.8578 -17.2991 -16.3167 -15.6929 -15.6032 -15.5939 -15.5865 -15.5535
   -15.5177 -15.4530 -15.4384 -15.3704 -15.2983 -15.2677 -15.2270 -15.2020
   -15.1860 -15.1491 -15.1447 -15.0826 -15.0390 -15.0300 -15.0155 -15.0017
   -14.9570 -14.9492 -14.9403 -14.9242 -14.9158 -14.8543 -14.7544 -14.5767
   -13.2395 -13.2382  -9.0956  -6.0199  -4.0450  -3.9990  -3.9755  -3.8568
    -3.7206  -3.4598  -2.9258  -2.8459  -2.7668  -2.7646  -2.7036  -2.6758
    -2.6280  -2.6050  -2.5686  -2.5533  -2.5317  -2.4657  -2.4410  -2.4266
    -2.4230  -2.4144  -2.3982  -2.3794  -2.3371  -2.3278  -2.3149  -2.3054
    -2.2865  -2.2820  -2.2694  -2.2483  -2.2079  -2.1459  -2.0887  -1.9479
    -1.9397  -1.9140  -1.8948  -1.8705  -1.8452  -1.7944  -1.7128  -1.6928
    -1.6742  -1.5990  -1.5397  -1.3349  -1.3138  -1.2958  -1.2262  -1.1577
    -1.0914  -1.0736  -1.0390  -1.0047  -0.9814  -0.9416  -0.8847  -0.8506
    -0.8073  -0.7945  -0.7565  -0.7191  -0.6762  -0.6086  -0.6006  -0.5676
    -0.5178  -0.4941  -0.4039  -0.3957  -0.3715  -0.3540  -0.3210  -0.2290
    -0.1764  -0.1309  -0.0418  -0.0029   0.0379   0.1706   0.2370   0.2730
     0.3455   0.3875   0.4937   0.5155   0.5946   0.6167   0.6458   0.6711
     0.7372   0.8074   0.8589   0.9080   0.9486   0.9634   1.0144   1.0646
     1.6686   1.6711   1.6789   1.6851   3.7136   3.7399   3.7477   3.7810
     3.9852   4.0151   4.0883   4.1049   4.1254   4.1803

     the Fermi energy is     2.5790 ev

!    total energy              =   -3005.28915708 Ry
     estimated scf accuracy    <       0.00000007 Ry
     smearing contrib. (-TS)   =      -0.00015439 Ry
     internal energy E=F+TS    =   -3005.28900269 Ry

     The total energy is F=E-TS. E is the sum of the following terms:
     one-electron contribution =  -22582.34991362 Ry
     hartree contribution      =   11387.47323342 Ry
     xc contribution           =    -500.24510227 Ry
     ewald contribution        =    8689.83221403 Ry
     electric field correction =       0.00056574 Ry

     convergence has been achieved in  84 iterations

     Forces acting on atoms (cartesian axes, Ry/au):

     atom    1 type  1   force =     0.00012260    0.00011232    0.13280392
     atom    2 type  1   force =    -0.00010766    0.00822087   -0.15824922
     atom    3 type  2   force =     0.00029917   -0.00362761   -0.05307846
     atom    4 type  2   force =     0.00059149    0.00104492    0.04010058
     atom    5 type  2   force =    -0.00786093   -0.00195047   -0.00034431
     atom    6 type  2   force =     0.00845872   -0.00490225   -0.00004950
     atom    7 type  1   force =    -0.00017599   -0.00031050   -0.00005953
     atom    8 type  1   force =    -0.00000691   -0.00026466    0.00020711
     atom    9 type  2   force =     0.00013078    0.00009386    0.00002770
     atom   10 type  2   force =    -0.00003328    0.00020193    0.00008697
     atom   11 type  2   force =    -0.00004587    0.00012841   -0.00000770
     atom   12 type  2   force =     0.00036714   -0.00011099   -0.00005348
     atom   13 type  1   force =    -0.00017994    0.00003227    0.00018027
     atom   14 type  1   force =     0.00011712    0.00057548    0.00009002
     atom   15 type  2   force =    -0.00011470    0.00009313   -0.00005143
     atom   16 type  2   force =     0.00002256    0.00004945   -0.00041792
     atom   17 type  2   force =     0.00011770   -0.00047180    0.00022981
     atom   18 type  2   force =    -0.00006731   -0.00056788    0.00011996
     atom   19 type  1   force =    -0.00039485    0.00030266   -0.00005905
     atom   20 type  1   force =     0.00044456    0.00020870   -0.00004597
     atom   21 type  2   force =    -0.00006760    0.00009284    0.09917102
     atom   22 type  2   force =    -0.00024597    0.00010378    0.00014005
     atom   23 type  2   force =    -0.08059709    0.00058590   -0.03416380
     atom   24 type  2   force =     0.08036781    0.00110638   -0.03420491
     atom   25 type  1   force =    -0.00021773   -0.00017695    0.14171427
     atom   26 type  1   force =    -0.00019147   -0.00687847   -0.15775346
     atom   27 type  2   force =     0.00043793    0.00017919   -0.05212121
     atom   28 type  2   force =     0.00043792    0.00036245    0.04187959
     atom   29 type  2   force =    -0.00940222    0.00598025    0.00164789
     atom   30 type  2   force =     0.00931021    0.00235319    0.00175769
     atom   31 type  1   force =    -0.00003417    0.00010154    0.00013256
     atom   32 type  1   force =     0.00001966   -0.00012748   -0.00011331
     atom   33 type  2   force =    -0.00006639   -0.00032752    0.00028893
     atom   34 type  2   force =    -0.00009882   -0.00005223    0.00002383
     atom   35 type  2   force =     0.00062034    0.00026233   -0.00007142
     atom   36 type  2   force =    -0.00019130    0.00015609    0.00004988
     atom   37 type  1   force =    -0.00039299    0.00046510   -0.00061029
     atom   38 type  1   force =     0.00024475   -0.00034239   -0.00012265
     atom   39 type  2   force =    -0.00002551    0.00000099    0.00026049
     atom   40 type  2   force =     0.00012799   -0.00007742   -0.00032730
     atom   41 type  2   force =     0.00072658    0.00016310    0.00019302
     atom   42 type  2   force =    -0.00037918    0.00037026    0.00001103
     atom   43 type  1   force =    -0.00059099   -0.00032924   -0.00005068
     atom   44 type  1   force =     0.00003130   -0.00052145   -0.00048708
     atom   45 type  2   force =    -0.00007739    0.00018230    0.09876176
     atom   46 type  2   force =    -0.08055675   -0.00156917   -0.03411740
     atom   47 type  2   force =     0.08035790   -0.00103675   -0.03420339
     atom   48 type  3   force =    -0.00107987   -0.00358164   -0.00313529
     atom   49 type  2   force =    -0.00015066   -0.00123846   -0.00078006
     atom   50 type  4   force =    -0.00048810    0.00005936   -0.00029938
     atom   51 type  4   force =     0.00003422    0.00034200    0.00043886
     atom   52 type  4   force =     0.00142635    0.00445909    0.00417439
     atom   53 type  5   force =     0.00101864    0.00011616    0.00075139
     atom   54 type  5   force =    -0.00132350    0.00000262   -0.00087381
     atom   55 type  2   force =    -0.00109260    0.00081928    0.00033159
     atom   56 type  4   force =     0.00042430   -0.00086288    0.00027742

     Total force =     0.383802     Total SCF correction =     0.000665
  @ DRIVER MODE: Message from server: STATUS
  @ DRIVER MODE: Message from server: GETFORCE
  @ DRIVER MODE: Returning v,forces,stress,ensemble

     Writing output data file ./calc.save/
  @ DRIVER MODE: Message from server: EXIT
  @ DRIVE MODE: Exiting

     General routines

     Parallel routines

   This run was terminated on:   1:41:57  24Sep2021

   JOB DONE.