     Program PWSCF v.6.7GPU starts on 24Aug2021 at  8: 0:57

     R & G space division:  proc/nbgrp/npool/nimage =       6
     Reading input from /storage/home/hcoda1/3/ntian30/research/carbon/CH2_vib/ads_slab/CH2NNHHH_a/out_0036/pw.inp
Warning: card &CELL ignored
Warning: card   CELL_DYNAMICS='IPI', ignored
Warning: card / ignored

     Current dimensions of program PWSCF are:
     Max number of different atomic species (ntypx) = 10
     Max number of k-points (npk) =  40000
     Max angular momentum in pseudopotentials (lmaxx) =  3
     Presently no symmetry can be used with electric field

     Message from routine cell_base_init:
     DEPRECATED: use true lattice parameter, not A to a.u. conversion factor

     IMPORTANT: XC functional enforced from input :
     Exchange-correlation= BEEF-VDW
                           (   1   4  43  14   2   0   0)
     Any further DFT definition will be discarded
     Please, verify this is what you really want

  @ DRIVER MODE: Connecting to
 qe_1139763_2632806.sched-torque.pace.gatech.eduipc8o_a2_scratch
  using UNIX socket
  @ DRIVER MODE: Message from server: STATUS
  @ DRIVER MODE: Message from server: INIT
  @ DRIVER MODE: Receiving replica           0          -1
  @ DRIVER MODE: Receiving encoded integer          25
  @ DRIVER MODE:  SCF:  T  FORCE:  T  STRESS:  F  VC:  F  ENSEMBLE:  F
  @ DRIVER MODE:  SCF:  T  FORCE:  T  STRESS:  F  VC:  F  ENSEMBLE:  F

     Using Slab Decomposition

     bravais-lattice index     =            0
     lattice parameter (alat)  =       1.8897  a.u.
     unit-cell volume          =    6658.9804 (a.u.)^3
     number of atoms/cell      =           55
     number of atomic types    =            5
     number of electrons       =       397.00
     number of Kohn-Sham states=          208
     kinetic-energy cutoff     =      29.3995  Ry
     charge density cutoff     =     293.9946  Ry
     scf convergence threshold =      7.3E-08
     mixing beta               =       0.0500
     number of iterations used =            8  plain     mixing
     Exchange-correlation= BEEF-VDW
                           (   1   4  43  14   2   0   0)

     celldm(1)=   1.889726  celldm(2)=   0.000000  celldm(3)=   0.000000
     celldm(4)=   0.000000  celldm(5)=   0.000000  celldm(6)=   0.000000

     crystal axes: (cart. coord. in units of alat)
               a(1) = (   6.579727   0.000000   0.000000 )
               a(2) = (  -0.000775   5.961596   0.000000 )
               a(3) = (   0.000000   0.000000  25.155947 )

     reciprocal axes: (cart. coord. in units 2 pi/alat)
               b(1) = (  0.151982  0.000020  0.000000 )
               b(2) = (  0.000000  0.167740  0.000000 )
               b(3) = (  0.000000  0.000000  0.039752 )

     PseudoPot. # 1 for Ti read from file:
     /storage/coda1/p-amedford6/0/shared/rich_project_chbe-medford/medford-share/data/pseudos_module/espresso/nninc/pbe/van/Ti.UPF
     MD5 check sum: 8e4df49b7f0d34bbd5052bf3f5ea0213
     Pseudo is Ultrasoft, Zval = 12.0
     Generated by new atomic code, or converted to UPF format
     Using radial grid of  851 points,  6 beta functions with:
                l(1) =   0
                l(2) =   0
                l(3) =   1
                l(4) =   1
                l(5) =   2
                l(6) =   2
     Q(r) pseudized with  8 coefficients,  rinner =    1.000   1.000   1.000
                                                       1.000   1.000

     PseudoPot. # 2 for O  read from file:
     /storage/coda1/p-amedford6/0/shared/rich_project_chbe-medford/medford-share/data/pseudos_module/espresso/nninc/pbe/van/O.UPF
     MD5 check sum: 78c19812648e8988a0fe644b0f25305e
     Pseudo is Ultrasoft, Zval =  6.0
     Generated by new atomic code, or converted to UPF format
     Using radial grid of  737 points,  4 beta functions with:
                l(1) =   0
                l(2) =   0
                l(3) =   1
                l(4) =   1
     Q(r) pseudized with  8 coefficients,  rinner =    0.800   0.800   0.800

     PseudoPot. # 3 for N  read from file:
     /storage/coda1/p-amedford6/0/shared/rich_project_chbe-medford/medford-share/data/pseudos_module/espresso/nninc/pbe/van/N.UPF
     MD5 check sum: 90d10febe142ad51ac9d5be1deb811c4
     Pseudo is Ultrasoft, Zval =  5.0
     Generated by new atomic code, or converted to UPF format
     Using radial grid of  729 points,  4 beta functions with:
                l(1) =   0
                l(2) =   0
                l(3) =   1
                l(4) =   1
     Q(r) pseudized with  8 coefficients,  rinner =    0.800   0.800   0.800

     PseudoPot. # 4 for C  read from file:
     /storage/coda1/p-amedford6/0/shared/rich_project_chbe-medford/medford-share/data/pseudos_module/espresso/nninc/pbe/van/C.UPF
     MD5 check sum: 1a69bf6b8db32088f5b2163dbdb77a27
     Pseudo is Ultrasoft, Zval =  4.0
     Generated by new atomic code, or converted to UPF format
     Using radial grid of  721 points,  4 beta functions with:
                l(1) =   0
                l(2) =   0
                l(3) =   1
                l(4) =   1
     Q(r) pseudized with  8 coefficients,  rinner =    0.800   0.800   0.800

     PseudoPot. # 5 for H  read from file:
     /storage/coda1/p-amedford6/0/shared/rich_project_chbe-medford/medford-share/data/pseudos_module/espresso/nninc/pbe/van/H.UPF
     MD5 check sum: b5ee9d7bfd3a09ee7748110bda690ff7
     Pseudo is Ultrasoft, Zval =  1.0
     Generated by new atomic code, or converted to UPF format
     Using radial grid of  615 points,  1 beta functions with:
                l(1) =   0
     Q(r) pseudized with  8 coefficients,  rinner =    0.800

     atomic species   valence    mass     pseudopotential
        Ti1           12.00    47.86700     Ti( 1.00)
        O1             6.00    15.99900     O ( 1.00)
        N1             5.00    14.00700     N ( 1.00)
        C1             4.00    12.01100     C ( 1.00)
        H1             1.00     1.00800     H ( 1.00)

     No symmetry found

   Cartesian axes

     site n.     atom                  positions (alat units)
         1           Ti1 tau(   1) = (   0.0004258   2.9801865   6.0000000  )
         2           Ti1 tau(   2) = (   3.2906075   1.4906267   6.0002472  )
         3           O1  tau(   3) = (   0.0006271   0.0005054   7.9858123  )
         4           O1  tau(   4) = (   3.2906025   0.0005020   7.3038282  )
         5           O1  tau(   5) = (   4.5942328   1.4918067   9.2879030  )
         6           O1  tau(   6) = (   1.9868534   1.4903216   9.2879459  )
         7           Ti1 tau(   7) = (   3.2907910   2.8959150   9.1758416  )
         8           Ti1 tau(   8) = (   0.0015273   1.4827037   9.2680791  )
         9           O1  tau(   9) = (   3.2797308   5.9473376  11.3602069  )
        10           O1  tau(  10) = (   0.0116148   5.9584955  10.6183126  )
        11           O1  tau(  11) = (   1.2902197   1.4970218  12.6485984  )
        12           O1  tau(  12) = (   5.2825647   1.4998509  12.6204812  )
        13           Ti1 tau(  13) = (   6.5707130   2.9731531  12.5352273  )
        14           Ti1 tau(  14) = (   3.2824754   1.4851695  12.4964603  )
        15           O1  tau(  15) = (   6.5335774   0.0914421  14.6722524  )
        16           O1  tau(  16) = (   3.3157438   0.0180770  13.9903400  )
        17           O1  tau(  17) = (   4.5084513   1.5196572  16.2619966  )
        18           O1  tau(  18) = (   2.0062152   1.4815140  16.1839734  )
        19           Ti1 tau(  19) = (   3.2259906   2.9465836  15.7211513  )
        20           Ti1 tau(  20) = (   6.5090593   1.4075841  16.1508600  )
        21           O1  tau(  21) = (   3.2904802   0.0005063   4.7018136  )
        22           O1  tau(  22) = (   6.5630310   5.8123487  17.2302531  )
        23           O1  tau(  23) = (   1.3043587   1.4918075   6.0039043  )
        24           O1  tau(  24) = (   5.2767064   1.4903225   6.0039473  )
        25           Ti1 tau(  25) = (   0.0000382   5.9609847   6.0000000  )
        26           Ti1 tau(  26) = (   3.2902200   4.4714249   6.0002472  )
        27           O1  tau(  27) = (   0.0002396   2.9813036   7.9858123  )
        28           O1  tau(  28) = (   3.2902150   2.9813002   7.3038282  )
        29           O1  tau(  29) = (   4.5938453   4.4726049   9.2879030  )
        30           O1  tau(  30) = (   1.9864658   4.4711199   9.2879459  )
        31           Ti1 tau(  31) = (   3.2891106   5.8743827   9.1763621  )
        32           Ti1 tau(  32) = (   0.0006254   4.4649316   9.2693709  )
        33           O1  tau(  33) = (   3.2783824   2.9878764  11.3535400  )
        34           O1  tau(  34) = (   0.0092240   2.9805883  10.6323155  )
        35           O1  tau(  35) = (   1.2857266   4.4729298  12.7006550  )
        36           O1  tau(  36) = (   5.2845514   4.4687958  12.6640455  )
        37           Ti1 tau(  37) = (   6.5734551   0.0101047  12.5124135  )
        38           Ti1 tau(  38) = (   3.2852174   4.4611384  12.5175569  )
        39           O1  tau(  39) = (   6.5279837   2.9480221  14.9030702  )
        40           O1  tau(  40) = (   3.2956390   2.9588503  13.9390168  )
        41           O1  tau(  41) = (   4.4992944   4.4159585  16.2207858  )
        42           O1  tau(  42) = (   2.0104883   4.4624356  16.0673450  )
        43           Ti1 tau(  43) = (   3.2790961   0.0058003  15.7788240  )
        44           Ti1 tau(  44) = (   0.0606790   4.6093333  15.7554573  )
        45           O1  tau(  45) = (   3.2900926   2.9813045   4.7018136  )
        46           O1  tau(  46) = (   1.3039711   4.4726057   6.0039043  )
        47           O1  tau(  47) = (   5.2763189   4.4711207   6.0039473  )
        48           N1  tau(  48) = (   0.0403274   2.7191540  18.0026804  )
        49           C1  tau(  49) = (   0.9398849   2.4944932  18.9664025  )
        50           H1  tau(  50) = (   0.9073005   3.0183022  19.9142263  )
        51           H1  tau(  51) = (   1.7098349   1.7704235  18.7615287  )
        52           N1  tau(  52) = (   5.5765855   3.6054979  18.4816711  )
        53           H1  tau(  53) = (   5.9881759   4.5320851  18.7247717  )
        54           H1  tau(  54) = (   4.9344470   3.8465857  17.6610935  )
        55           H1  tau(  55) = (   5.0674124   3.1947177  19.2767304  )

     number of k points=    10  Fermi-Dirac smearing, width (Ry)=  0.0073
                       cart. coord. in units 2pi/alat
        k(    1) = (   0.0000000   0.0000000   0.0000000), wk =   0.1250000
        k(    2) = (   0.0000000   0.0419351   0.0000000), wk =   0.2500000
        k(    3) = (   0.0000000  -0.0838702   0.0000000), wk =   0.1250000
        k(    4) = (   0.0379955   0.0000049   0.0000000), wk =   0.2500000
        k(    5) = (   0.0379955   0.0419400   0.0000000), wk =   0.2500000
        k(    6) = (   0.0379955  -0.0838652   0.0000000), wk =   0.2500000
        k(    7) = (   0.0379955  -0.0419301   0.0000000), wk =   0.2500000
        k(    8) = (  -0.0759910  -0.0000099   0.0000000), wk =   0.1250000
        k(    9) = (  -0.0759910   0.0419252   0.0000000), wk =   0.2500000
        k(   10) = (  -0.0759910  -0.0838800   0.0000000), wk =   0.1250000

     Initial potential from superposition of free atoms

     starting charge  380.99914, renormalised to  397.00000

     negative rho (up, down):  1.588E-02 0.000E+00

     %%%%%%%%%%%%%%%%%%%%%%%%%%%%%%%%%%%%%%%%%%%%%%%%%%%%%%%%%%%%%%%%%%%%%%%%
     %                                                                      %
     % You are using vdW-DF, which was implemented by the Thonhauser group. %
     % Please cite the following two papers that made this development      %
     % possible and the two reviews that describe the various versions:     %
     %                                                                      %
     %   T. Thonhauser et al., PRL 115, 136402 (2015).                      %
     %   T. Thonhauser et al., PRB 76, 125112 (2007).                       %
     %   K. Berland et al., Rep. Prog. Phys. 78, 066501 (2015).             %
     %   D.C. Langreth et al., J. Phys.: Condens. Matter 21, 084203 (2009). %
     %                                                                      %
     %                                                                      %
     % If you are calculating the stress with vdW-DF, please also cite:     %
     %                                                                      %
     %   R. Sabatini et al., J. Phys.: Condens. Matter 24, 424209 (2012).   %
     %                                                                      %
     %%%%%%%%%%%%%%%%%%%%%%%%%%%%%%%%%%%%%%%%%%%%%%%%%%%%%%%%%%%%%%%%%%%%%%%%

     Adding external electric field

     Computed dipole along edir(3) :
        Dipole              -10.3130 Ry au,        -26.2131 Debye
        Dipole field         -0.0195 Ry au,

        Potential amp.        1.8041 Ry
        Total length         46.3494 bohr

     Starting wfcs are  301 atomic wfcs
  @ DRIVER MODE: Message from server: STATUS
  @ DRIVER MODE: Message from server: POSDATA
  @ DRIVER MODE: Reading and sharing cell
  @ DRIVER MODE: Reading and sharing positions
  @ DRIVER MODE: Received positions

     Self-consistent Calculation

     iteration #  1     ecut=    29.40 Ry     beta= 0.05
     Davidson diagonalization with overlap
     c_bands:  3 eigenvalues not converged
     c_bands:  2 eigenvalues not converged
     c_bands:  3 eigenvalues not converged
     c_bands:  2 eigenvalues not converged
     c_bands:  3 eigenvalues not converged
     c_bands:  2 eigenvalues not converged
     c_bands:  3 eigenvalues not converged
     c_bands:  2 eigenvalues not converged
     c_bands:  2 eigenvalues not converged
     c_bands:  3 eigenvalues not converged
     ethr =  1.00E-05,  avg # of iterations = 20.0

[...]

     total energy              =   -2480.07167703 Ry
     estimated scf accuracy    <    5159.18634529 Ry

     iteration #  2     ecut=    29.40 Ry     beta= 0.05
     Davidson diagonalization with overlap
     ethr =  1.00E-02,  avg # of iterations = 22.5

[...]

     iteration # 66     ecut=    29.40 Ry     beta= 0.05
     Davidson diagonalization with overlap
     ethr =  3.39E-11,  avg # of iterations =  9.3

[...]

     total energy              =   -2941.49083918 Ry
     estimated scf accuracy    <       0.00000009 Ry

     iteration # 67     ecut=    29.40 Ry     beta= 0.05
     Davidson diagonalization with overlap
     c_bands:  1 eigenvalues not converged
     c_bands:  1 eigenvalues not converged
     ethr =  2.29E-11,  avg # of iterations = 11.3

     negative rho (up, down):  1.343E-02 0.000E+00

     Adding external electric field

     Computed dipole along edir(3) :
        Dipole                1.3633 Ry au,          3.4650 Debye
        Dipole field          0.0026 Ry au,

        Potential amp.       -0.2385 Ry
        Total length         46.3494 bohr

     End of self-consistent calculation

          k = 0.0000 0.0000 0.0000 ( 18029 PWs)   bands (ev):

   -55.2841 -55.2451 -55.2451 -55.2110 -55.1597 -55.1575 -55.1209 -55.0943
   -55.0770 -55.0759 -55.0596 -55.0426 -54.9563 -54.7902 -54.2631 -54.2290
   -31.8562 -31.7358 -31.6458 -31.6109 -31.5841 -31.5816 -31.5790 -31.5348
   -31.5320 -31.4919 -31.4902 -31.4895 -31.4567 -31.4545 -31.4404 -31.4189
   -31.4035 -31.3988 -31.3944 -31.3932 -31.3573 -31.3518 -31.3382 -31.3249
   -31.3019 -31.2969 -31.2903 -31.2865 -31.2741 -31.2708 -31.2609 -31.2511
   -31.2444 -31.2388 -31.2094 -31.2048 -31.1979 -31.1857 -31.1474 -31.1051
   -31.0611 -30.9315 -30.6719 -30.5792 -30.5571 -30.4884 -30.4017 -30.2907
   -19.2211 -16.1255 -15.8633 -15.7353 -15.5438 -15.4779 -15.3822 -15.2442
   -15.1930 -15.1311 -15.0826 -15.0419 -15.0292 -14.9636 -14.9064 -14.8180
   -14.8165 -14.7987 -14.7891 -14.7765 -14.7742 -14.7120 -14.7087 -14.6820
   -14.6673 -14.6572 -14.5164 -14.4326 -14.3711 -14.2746 -14.0232 -12.7658
   -12.6486  -9.1502  -7.7723  -7.0705  -6.0028  -3.8226  -3.4633  -3.2905
    -3.2436  -3.2034  -3.1787  -3.0101  -2.9284  -2.6610  -2.5929  -2.5534
    -2.5059  -2.4946  -2.4690  -2.2968  -2.2662  -2.2265  -2.1900  -2.1663
    -2.1264  -2.0988  -2.0828  -2.0535  -2.0403  -2.0382  -1.8561  -1.7850
    -1.7632  -1.7015  -1.6844  -1.6684  -1.6110  -1.5823  -1.5691  -1.5668
    -1.5435  -1.5267  -1.5041  -1.4611  -1.3739  -1.2825  -1.2381  -1.2162
    -1.1027  -1.0390  -0.9152  -0.8726  -0.8587  -0.8314  -0.7598  -0.6929
    -0.6656  -0.6298  -0.4892  -0.4845  -0.4004  -0.3899  -0.3174  -0.3007
    -0.2611  -0.2143  -0.1038  -0.0705  -0.0490   0.0033   0.0664   0.0884
     0.1699   0.2243   0.2809   0.2948   0.3745   0.4150   0.4523   0.4736
     0.5614   0.6024   0.6619   0.6683   0.7056   0.7087   0.7346   0.8212
     0.8340   0.8532   0.8943   1.0637   1.2661   1.3161   1.3366   1.6694
     1.6886   1.7595   1.9448   2.3342   2.3817   3.8171   3.8826   3.9532
     3.9676   3.9780   4.0495   4.0946   4.2845   4.3136   4.3166   4.3380

[...]

          k = 0.0380-0.0419 0.0000 ( 17876 PWs)   bands (ev):

[...]

          k =-0.0760-0.0000 0.0000 ( 17886 PWs)   bands (ev):

[...]

          k =-0.0760-0.0839 0.0000 ( 17948 PWs)   bands (ev):

   -55.2720 -55.2570 -55.2280 -55.2279 -55.1559 -55.1456 -55.1328 -55.0806
   -55.0781 -55.0751 -55.0599 -55.0591 -54.9547 -54.7917 -54.2461 -54.2460
   -31.6657 -31.6527 -31.5788 -31.5509 -31.5509 -31.5472 -31.5202 -31.5201
   -31.4925 -31.4842 -31.4795 -31.4758 -31.4214 -31.4126 -31.4124 -31.4090
   -31.4069 -31.4026 -31.3961 -31.3808 -31.3688 -31.3582 -31.3539 -31.3473
   -31.3472 -31.3450 -31.3436 -31.3280 -31.3114 -31.3084 -31.2921 -31.2894
   -31.2845 -31.2829 -31.2827 -31.2513 -31.2402 -31.2387 -31.1647 -31.0920
   -31.0619 -31.0091 -30.5697 -30.5697 -30.4845 -30.4844 -30.4451 -30.4450
   -19.2174 -15.5907 -15.5141 -15.4580 -15.3679 -15.2904 -15.2706 -15.2605
   -15.2271 -15.1602 -15.1368 -15.0718 -15.0369 -14.9915 -14.9886 -14.9733
   -14.8888 -14.8696 -14.8544 -14.8502 -14.7893 -14.7879 -14.7610 -14.7385
   -14.7319 -14.7282 -14.6283 -14.6273 -14.4624 -14.4277 -14.1959 -12.7501
   -12.7501  -9.1373  -7.7823  -7.0545  -6.0131  -3.8457  -2.8519  -2.7653
    -2.6757  -2.5194  -2.4822  -2.4722  -2.4172  -2.3259  -2.2998  -2.2870
    -2.2666  -2.2595  -2.1866  -2.1813  -2.1373  -2.1158  -2.1048  -2.0990
    -2.0652  -2.0517  -2.0380  -2.0017  -1.9932  -1.9770  -1.9426  -1.9231
    -1.8986  -1.8707  -1.8567  -1.8274  -1.7037  -1.6746  -1.6307  -1.5686
    -1.5429  -1.4769  -1.4716  -1.3689  -1.3573  -1.3461  -1.3052  -1.2912
    -1.2699  -1.1079  -1.0634  -1.0283  -1.0169  -1.0108  -0.8548  -0.8383
    -0.7704  -0.7543  -0.7397  -0.6632  -0.6218  -0.6047  -0.5255  -0.4861
    -0.4560  -0.4352  -0.2932  -0.2802  -0.2549  -0.2407  -0.2340  -0.1414
    -0.1210  -0.0850  -0.0509  -0.0128   0.0035   0.0628   0.2163   0.2427
     0.2802   0.4248   0.4390   0.5249   0.5722   0.6990   0.7640   0.7658
     0.8470   0.9172   1.0191   1.0313   1.0528   1.1366   1.1828   1.1877
     1.1889   2.1175   2.1183   2.2017   2.2020   3.6938   3.9567   4.0790
     4.0853   4.1276   4.2506   4.3339   4.3575   4.3953   4.3974   4.4731

     the Fermi energy is     3.8721 ev

!    total energy              =   -2941.49087519 Ry
     estimated scf accuracy    <       0.00000005 Ry
     smearing contrib. (-TS)   =      -0.04231674 Ry
     internal energy E=F+TS    =   -2941.44855845 Ry

     The total energy is F=E-TS. E is the sum of the following terms:
     one-electron contribution =  -23921.48251736 Ry
     hartree contribution      =   12053.92081287 Ry
     xc contribution           =    -486.85742209 Ry
     ewald contribution        =    9412.96706098 Ry
     electric field correction =       0.00350717 Ry

     convergence has been achieved in  67 iterations

     Forces acting on atoms (cartesian axes, Ry/au):

     atom    1 type  1   force =     0.00017360   -0.00017124    0.09405004
     atom    2 type  1   force =    -0.00005828   -0.00043180   -0.17754681
     atom    3 type  2   force =     0.00006675   -0.00004640   -0.02100047
     atom    4 type  2   force =     0.00001792   -0.00180462    0.05731915
     atom    5 type  2   force =    -0.01085834   -0.00090678    0.00782665
     atom    6 type  2   force =     0.01206806   -0.00034007    0.00622404
     atom    7 type  1   force =    -0.00065834    0.00290480   -0.01529752
     atom    8 type  1   force =     0.00059420    0.00233519    0.00234797
     atom    9 type  2   force =    -0.00010251    0.00013365    0.00092572
     atom   10 type  2   force =    -0.00165451   -0.00049511   -0.00379219
     atom   11 type  2   force =    -0.00004812   -0.00023617    0.00021085
     atom   12 type  2   force =    -0.00019048   -0.00039572    0.00027882
     atom   13 type  1   force =     0.00042902    0.00109427    0.00064440
     atom   14 type  1   force =     0.00020247   -0.00062873    0.00037476
     atom   15 type  2   force =    -0.00018281    0.00037937    0.00049051
     atom   16 type  2   force =    -0.00016450   -0.00024733   -0.00119826
     atom   17 type  2   force =     0.00006259   -0.00024942    0.00013406
     atom   18 type  2   force =    -0.00076817   -0.00032792    0.00007231
     atom   19 type  1   force =    -0.00056006    0.00111103   -0.00046730
     atom   20 type  1   force =    -0.00036956    0.00107376   -0.00102909
     atom   21 type  2   force =     0.00010825   -0.00004414    0.10376855
     atom   22 type  2   force =     0.00016345    0.00049432    0.00012611
     atom   23 type  2   force =    -0.07063618   -0.00018478   -0.02706584
     atom   24 type  2   force =     0.07058154    0.00028965   -0.02710352
     atom   25 type  1   force =     0.00015187   -0.00024569    0.09337896
     atom   26 type  1   force =    -0.00000918   -0.00037348   -0.17776835
     atom   27 type  2   force =     0.00010924   -0.00039972   -0.02001630
     atom   28 type  2   force =     0.00003446   -0.00146828    0.05680088
     atom   29 type  2   force =    -0.01075863   -0.00066250    0.00674493
     atom   30 type  2   force =     0.01187694   -0.00016955    0.00510043
     atom   31 type  1   force =    -0.00063534    0.00410392   -0.01559861
     atom   32 type  1   force =     0.00067197   -0.00279136    0.00212804
     atom   33 type  2   force =     0.00015821   -0.00021990   -0.00057817
     atom   34 type  2   force =    -0.00109004    0.00272002   -0.00201554
     atom   35 type  2   force =     0.00009352    0.00019730    0.00009684
     atom   36 type  2   force =    -0.00033229    0.00033813   -0.00007124
     atom   37 type  1   force =     0.00046721   -0.00008616    0.00033499
     atom   38 type  1   force =     0.00009127    0.00089890    0.00017173
     atom   39 type  2   force =    -0.00003584   -0.00098151    0.00036611
     atom   40 type  2   force =    -0.00023403   -0.00043334    0.00061981
     atom   41 type  2   force =    -0.00032317   -0.00012137   -0.00020315
     atom   42 type  2   force =     0.00016465    0.00000321    0.00021133
     atom   43 type  1   force =     0.00000877   -0.00149012    0.00095328
     atom   44 type  1   force =    -0.00011033   -0.00074014   -0.00108776
     atom   45 type  2   force =     0.00009593   -0.00008203    0.10375535
     atom   46 type  2   force =    -0.07065368   -0.00008931   -0.02707404
     atom   47 type  2   force =     0.07060549    0.00029150   -0.02711132
     atom   48 type  3   force =    -0.00088306    0.00017044    0.00023393
     atom   49 type  4   force =     0.00035662   -0.00072286    0.00129040
     atom   50 type  5   force =     0.00083058    0.00007154   -0.00100890
     atom   51 type  5   force =    -0.00018882    0.00059476   -0.00014425
     atom   52 type  3   force =     0.00099836    0.00272681    0.00288011
     atom   53 type  5   force =    -0.00079534   -0.00432920   -0.00331845
     atom   54 type  5   force =     0.00091050    0.00067884    0.00128072
     atom   55 type  5   force =     0.00020814   -0.00069466   -0.00064473

     Total force =     0.365776     Total SCF correction =     0.000474
  @ DRIVER MODE: Message from server: STATUS
  @ DRIVER MODE: Message from server: GETFORCE
  @ DRIVER MODE: Returning v,forces,stress,ensemble

     Writing output data file ./calc.save/
  @ DRIVER MODE: Message from server: EXIT
  @ DRIVE MODE: Exiting

     General routines

     Parallel routines

   This run was terminated on:   8:29: 8  24Aug2021

   JOB DONE.