     Program PWSCF v.6.7GPU starts on 21Sep2021 at 23:52:33

     R & G space division:  proc/nbgrp/npool/nimage =      10
     Reading input from /storage/home/hcoda1/3/ntian30/research/carbon/CxH_vib/CH_calc/ads_slab/CHNHNHH2O_b/out_0005/pw.inp
Warning: card &CELL ignored
Warning: card   CELL_DYNAMICS='IPI', ignored
Warning: card / ignored

     Current dimensions of program PWSCF are:
     Max number of different atomic species (ntypx) = 10
     Max number of k-points (npk) =  40000
     Max angular momentum in pseudopotentials (lmaxx) =  3
     Presently no symmetry can be used with electric field

     Message from routine cell_base_init:
     DEPRECATED: use true lattice parameter, not A to a.u. conversion factor

     IMPORTANT: XC functional enforced from input :
     Exchange-correlation= BEEF-VDW
                           (   1   4  43  14   2   0   0)
     Any further DFT definition will be discarded
     Please, verify this is what you really want

  @ DRIVER MODE: Connecting to
 qe_1139763_2927424.sched-torque.pace.gatech.edudek6kssl_scratch
  using UNIX socket
  @ DRIVER MODE: Message from server: STATUS
  @ DRIVER MODE: Message from server: INIT
  @ DRIVER MODE: Receiving replica           0          -1
  @ DRIVER MODE: Receiving encoded integer          25
  @ DRIVER MODE:  SCF:  T  FORCE:  T  STRESS:  F  VC:  F  ENSEMBLE:  F
  @ DRIVER MODE:  SCF:  T  FORCE:  T  STRESS:  F  VC:  F  ENSEMBLE:  F

     Using Slab Decomposition

     bravais-lattice index     =            0
     lattice parameter (alat)  =       1.8897  a.u.
     unit-cell volume          =    6658.9804 (a.u.)^3
     number of atoms/cell      =           56
     number of atomic types    =            5
     number of electrons       =       403.00
     number of Kohn-Sham states=          211
     kinetic-energy cutoff     =      29.3995  Ry
     charge density cutoff     =     293.9946  Ry
     scf convergence threshold =      7.3E-08
     mixing beta               =       0.0500
     number of iterations used =            8  plain     mixing
     Exchange-correlation= BEEF-VDW
                           (   1   4  43  14   2   0   0)

     celldm(1)=   1.889726  celldm(2)=   0.000000  celldm(3)=   0.000000
     celldm(4)=   0.000000  celldm(5)=   0.000000  celldm(6)=   0.000000

     crystal axes: (cart. coord. in units of alat)
               a(1) = (   6.579727   0.000000   0.000000 )
               a(2) = (  -0.000775   5.961596   0.000000 )
               a(3) = (   0.000000   0.000000  25.155947 )

     reciprocal axes: (cart. coord. in units 2 pi/alat)
               b(1) = (  0.151982  0.000020  0.000000 )
               b(2) = (  0.000000  0.167740  0.000000 )
               b(3) = (  0.000000  0.000000  0.039752 )

     PseudoPot. # 1 for Ti read from file:
     /storage/coda1/p-amedford6/0/shared/rich_project_chbe-medford/medford-share/data/pseudos_module/espresso/nninc/pbe/van/Ti.UPF
     MD5 check sum: 8e4df49b7f0d34bbd5052bf3f5ea0213
     Pseudo is Ultrasoft, Zval = 12.0
     Generated by new atomic code, or converted to UPF format
     Using radial grid of  851 points,  6 beta functions with:
                l(1) =   0
                l(2) =   0
                l(3) =   1
                l(4) =   1
                l(5) =   2
                l(6) =   2
     Q(r) pseudized with  8 coefficients,  rinner =    1.000   1.000   1.000
                                                       1.000   1.000

     PseudoPot. # 2 for O  read from file:
     /storage/coda1/p-amedford6/0/shared/rich_project_chbe-medford/medford-share/data/pseudos_module/espresso/nninc/pbe/van/O.UPF
     MD5 check sum: 78c19812648e8988a0fe644b0f25305e
     Pseudo is Ultrasoft, Zval =  6.0
     Generated by new atomic code, or converted to UPF format
     Using radial grid of  737 points,  4 beta functions with:
                l(1) =   0
                l(2) =   0
                l(3) =   1
                l(4) =   1
     Q(r) pseudized with  8 coefficients,  rinner =    0.800   0.800   0.800

     PseudoPot. # 3 for N  read from file:
     /storage/coda1/p-amedford6/0/shared/rich_project_chbe-medford/medford-share/data/pseudos_module/espresso/nninc/pbe/van/N.UPF
     MD5 check sum: 90d10febe142ad51ac9d5be1deb811c4
     Pseudo is Ultrasoft, Zval =  5.0
     Generated by new atomic code, or converted to UPF format
     Using radial grid of  729 points,  4 beta functions with:
                l(1) =   0
                l(2) =   0
                l(3) =   1
                l(4) =   1
     Q(r) pseudized with  8 coefficients,  rinner =    0.800   0.800   0.800

     PseudoPot. # 4 for C  read from file:
     /storage/coda1/p-amedford6/0/shared/rich_project_chbe-medford/medford-share/data/pseudos_module/espresso/nninc/pbe/van/C.UPF
     MD5 check sum: 1a69bf6b8db32088f5b2163dbdb77a27
     Pseudo is Ultrasoft, Zval =  4.0
     Generated by new atomic code, or converted to UPF format
     Using radial grid of  721 points,  4 beta functions with:
                l(1) =   0
                l(2) =   0
                l(3) =   1
                l(4) =   1
     Q(r) pseudized with  8 coefficients,  rinner =    0.800   0.800   0.800

     PseudoPot. # 5 for H  read from file:
     /storage/coda1/p-amedford6/0/shared/rich_project_chbe-medford/medford-share/data/pseudos_module/espresso/nninc/pbe/van/H.UPF
     MD5 check sum: b5ee9d7bfd3a09ee7748110bda690ff7
     Pseudo is Ultrasoft, Zval =  1.0
     Generated by new atomic code, or converted to UPF format
     Using radial grid of  615 points,  1 beta functions with:
                l(1) =   0
     Q(r) pseudized with  8 coefficients,  rinner =    0.800

     atomic species   valence    mass     pseudopotential
        Ti1           12.00    47.86700     Ti( 1.00)
        O1             6.00    15.99900     O ( 1.00)
        N1             5.00    14.00700     N ( 1.00)
        C1             4.00    12.01100     C ( 1.00)
        H1             1.00     1.00800     H ( 1.00)

     No symmetry found

   Cartesian axes

     site n.     atom                  positions (alat units)
         1           Ti1 tau(   1) = (   0.0004258   2.9801865   6.0000000  )
         2           Ti1 tau(   2) = (   3.2906075   1.4906267   6.0002472  )
         3           O1  tau(   3) = (   0.0006271   0.0005054   7.9858123  )
         4           O1  tau(   4) = (   3.2906025   0.0005020   7.3038282  )
         5           O1  tau(   5) = (   4.5942328   1.4918067   9.2879030  )
         6           O1  tau(   6) = (   1.9868534   1.4903216   9.2879459  )
         7           Ti1 tau(   7) = (   3.2907910   2.8959150   9.1758416  )
         8           Ti1 tau(   8) = (   0.0015273   1.4827037   9.2680791  )
         9           O1  tau(   9) = (   3.2780774   5.9605562  11.3537357  )
        10           O1  tau(  10) = (   0.0116148   5.9584955  10.6183126  )
        11           O1  tau(  11) = (   1.2922713   1.4781662  12.6511241  )
        12           O1  tau(  12) = (   5.2965393   1.5043564  12.6031353  )
        13           Ti1 tau(  13) = (   6.5273184   3.0207086  12.5807821  )
        14           Ti1 tau(  14) = (   3.2344070   1.4559942  12.5004267  )
        15           O1  tau(  15) = (   6.4759410   0.0295824  14.6525783  )
        16           O1  tau(  16) = (   3.3604338   0.0238249  13.9383540  )
        17           O1  tau(  17) = (   4.5324113   1.5808541  16.1066768  )
        18           O1  tau(  18) = (   1.9684897   1.4712893  15.8817925  )
        19           Ti1 tau(  19) = (   3.2566353   3.0739815  15.8599551  )
        20           Ti1 tau(  20) = (   6.5466614   1.5318677  15.7800735  )
        21           O1  tau(  21) = (   3.2904802   0.0005063   4.7018136  )
        22           O1  tau(  22) = (   6.5744325   0.0155309  17.2227980  )
        23           O1  tau(  23) = (   1.3043587   1.4918075   6.0039043  )
        24           O1  tau(  24) = (   5.2767064   1.4903225   6.0039473  )
        25           Ti1 tau(  25) = (   0.0000382   5.9609847   6.0000000  )
        26           Ti1 tau(  26) = (   3.2902200   4.4714249   6.0002472  )
        27           O1  tau(  27) = (   0.0002396   2.9813036   7.9858123  )
        28           O1  tau(  28) = (   3.2902150   2.9813002   7.3038282  )
        29           O1  tau(  29) = (   4.5938453   4.4726049   9.2879030  )
        30           O1  tau(  30) = (   1.9864658   4.4711199   9.2879459  )
        31           Ti1 tau(  31) = (   3.2891106   5.8743827   9.1763621  )
        32           Ti1 tau(  32) = (   0.0006254   4.4649316   9.2693709  )
        33           O1  tau(  33) = (   3.2727763   2.9788165  11.3438337  )
        34           O1  tau(  34) = (   0.0092240   2.9805883  10.6323155  )
        35           O1  tau(  35) = (   1.2865780   4.4896361  12.6556599  )
        36           O1  tau(  36) = (   5.2967437   4.4749066  12.6066920  )
        37           Ti1 tau(  37) = (   6.5467059   0.0356701  12.5108493  )
        38           Ti1 tau(  38) = (   3.2305653   4.4019604  12.5605372  )
        39           O1  tau(  39) = (   6.5199767   2.9846217  14.6905747  )
        40           O1  tau(  40) = (   3.2851694   3.0254550  13.9321539  )
        41           O1  tau(  41) = (   4.5310495   4.4602642  16.1636806  )
        42           O1  tau(  42) = (   1.9842988   4.5744318  15.9411167  )
        43           Ti1 tau(  43) = (   3.2691225   0.1036042  15.7405456  )
        44           Ti1 tau(  44) = (   6.5697781   4.6877429  16.0360384  )
        45           O1  tau(  45) = (   3.2900926   2.9813045   4.7018136  )
        46           O1  tau(  46) = (   1.3039711   4.4726057   6.0039043  )
        47           O1  tau(  47) = (   5.2763189   4.4711207   6.0039473  )
        48           N1  tau(  48) = (   1.2792381   2.8578196  18.3596018  )
        49           N1  tau(  49) = (   0.1888888   2.9646215  17.5057353  )
        50           C1  tau(  50) = (   2.5352320   2.9081513  18.0382144  )
        51           H1  tau(  51) = (   3.1442446   2.7411670  18.9317345  )
        52           H1  tau(  52) = (   1.0014291   2.6635404  19.3302151  )
        53           H1  tau(  53) = (   5.9397212   2.8571719  18.0851170  )
        54           O1  tau(  54) = (   3.2630597   0.0341043  18.2348460  )
        55           H1  tau(  55) = (   4.0455299   5.4198958  18.2485053  )
        56           H1  tau(  56) = (   2.4923979   5.4091459  18.3156537  )

     number of k points=    10  Fermi-Dirac smearing, width (Ry)=  0.0073
                       cart. coord. in units 2pi/alat
        k(    1) = (   0.0000000   0.0000000   0.0000000), wk =   0.1250000
        k(    2) = (   0.0000000   0.0419351   0.0000000), wk =   0.2500000
        k(    3) = (   0.0000000  -0.0838702   0.0000000), wk =   0.1250000
        k(    4) = (   0.0379955   0.0000049   0.0000000), wk =   0.2500000
        k(    5) = (   0.0379955   0.0419400   0.0000000), wk =   0.2500000
        k(    6) = (   0.0379955  -0.0838652   0.0000000), wk =   0.2500000
        k(    7) = (   0.0379955  -0.0419301   0.0000000), wk =   0.2500000
        k(    8) = (  -0.0759910  -0.0000099   0.0000000), wk =   0.1250000
        k(    9) = (  -0.0759910   0.0419252   0.0000000), wk =   0.2500000
        k(   10) = (  -0.0759910  -0.0838800   0.0000000), wk =   0.1250000

     Initial potential from superposition of free atoms

     starting charge  386.99914, renormalised to  403.00000

     negative rho (up, down):  1.738E-02 0.000E+00

     %%%%%%%%%%%%%%%%%%%%%%%%%%%%%%%%%%%%%%%%%%%%%%%%%%%%%%%%%%%%%%%%%%%%%%%%
     %                                                                      %
     % You are using vdW-DF, which was implemented by the Thonhauser group. %
     % Please cite the following two papers that made this development      %
     % possible and the two reviews that describe the various versions:     %
     %                                                                      %
     %   T. Thonhauser et al., PRL 115, 136402 (2015).                      %
     %   T. Thonhauser et al., PRB 76, 125112 (2007).                       %
     %   K. Berland et al., Rep. Prog. Phys. 78, 066501 (2015).             %
     %   D.C. Langreth et al., J. Phys.: Condens. Matter 21, 084203 (2009). %
     %                                                                      %
     %                                                                      %
     % If you are calculating the stress with vdW-DF, please also cite:     %
     %                                                                      %
     %   R. Sabatini et al., J. Phys.: Condens. Matter 24, 424209 (2012).   %
     %                                                                      %
     %%%%%%%%%%%%%%%%%%%%%%%%%%%%%%%%%%%%%%%%%%%%%%%%%%%%%%%%%%%%%%%%%%%%%%%%

     Adding external electric field

     Computed dipole along edir(3) :
        Dipole              -12.3424 Ry au,        -31.3711 Debye
        Dipole field         -0.0233 Ry au,

        Potential amp.        2.1591 Ry
        Total length         46.3494 bohr

     Starting wfcs are  305 atomic wfcs
  @ DRIVER MODE: Message from server: STATUS
  @ DRIVER MODE: Message from server: POSDATA
  @ DRIVER MODE: Reading and sharing cell
  @ DRIVER MODE: Reading and sharing positions
  @ DRIVER MODE: Received positions

     Self-consistent Calculation

     iteration #  1     ecut=    29.40 Ry     beta= 0.05
     Davidson diagonalization with overlap
     c_bands:  5 eigenvalues not converged
     c_bands:  3 eigenvalues not converged
     c_bands:  3 eigenvalues not converged
     c_bands:  1 eigenvalues not converged
     c_bands:  2 eigenvalues not converged
     c_bands:  2 eigenvalues not converged
     c_bands:  5 eigenvalues not converged
     c_bands:  2 eigenvalues not converged
     c_bands:  4 eigenvalues not converged
     ethr =  1.00E-05,  avg # of iterations = 29.3

[...]

     total energy              =   -2358.73402914 Ry
     estimated scf accuracy    <    6971.09769462 Ry

     iteration #  2     ecut=    29.40 Ry     beta= 0.05
     Davidson diagonalization with overlap
     ethr =  1.00E-02,  avg # of iterations = 26.5

[...]

     iteration # 57     ecut=    29.40 Ry     beta= 0.05
     Davidson diagonalization with overlap
     c_bands:  1 eigenvalues not converged
     ethr =  3.04E-10,  avg # of iterations =  9.0

[...]

     total energy              =   -2973.93985917 Ry
     estimated scf accuracy    <       0.00000007 Ry

     iteration # 64     ecut=    29.40 Ry     beta= 0.05
     Davidson diagonalization with overlap
     ethr =  1.86E-11,  avg # of iterations =  9.8

     negative rho (up, down):  1.724E-02 0.000E+00

     Adding external electric field

     Computed dipole along edir(3) :
        Dipole                1.3991 Ry au,          3.5560 Debye
        Dipole field          0.0026 Ry au,

        Potential amp.       -0.2447 Ry
        Total length         46.3494 bohr

     End of self-consistent calculation

          k = 0.0000 0.0000 0.0000 ( 18029 PWs)   bands (ev):

   -55.3189 -55.2848 -55.2100 -55.1860 -55.1670 -55.1555 -55.1399 -55.1182
   -55.1061 -55.1019 -55.0971 -55.0626 -54.9934 -54.8364 -54.2993 -54.2653
   -31.8030 -31.7310 -31.6562 -31.6499 -31.6397 -31.6110 -31.5868 -31.5642
   -31.5199 -31.5029 -31.4713 -31.4638 -31.4554 -31.4405 -31.4249 -31.4210
   -31.3979 -31.3800 -31.3762 -31.3648 -31.3340 -31.3326 -31.3286 -31.3257
   -31.3227 -31.3189 -31.3149 -31.2967 -31.2886 -31.2787 -31.2719 -31.2708
   -31.2609 -31.2584 -31.2516 -31.2478 -31.2418 -31.2158 -31.2097 -31.0929
   -31.0775 -31.0515 -30.7062 -30.6181 -30.5957 -30.5232 -30.4367 -30.3254
   -18.8809 -18.6964 -15.9777 -15.7939 -15.6130 -15.4736 -15.3920 -15.1603
   -15.1023 -15.0635 -14.9823 -14.9601 -14.8584 -14.8402 -14.8388 -14.8203
   -14.8174 -14.7621 -14.7478 -14.7424 -14.6942 -14.6873 -14.6620 -14.6465
   -14.5947 -14.5154 -14.5064 -14.4599 -14.4150 -14.3684 -14.0256 -13.4477
   -12.8001 -12.6836  -8.7308  -7.3102  -6.6181  -4.3628  -3.8186  -3.3618
    -3.2859  -3.2490  -3.2238  -3.0884  -2.9719  -2.8740  -2.7528  -2.6715
    -2.5848  -2.4802  -2.4236  -2.3780  -2.3170  -2.2575  -2.2313  -2.1456
    -2.1261  -2.1060  -2.0845  -2.0575  -2.0284  -1.9922  -1.8685  -1.8580
    -1.7759  -1.7200  -1.6807  -1.6632  -1.6395  -1.6332  -1.6021  -1.5806
    -1.5718  -1.5602  -1.5586  -1.5237  -1.3844  -1.3593  -1.3321  -1.3113
    -1.1640  -1.0255  -0.9376  -0.9342  -0.8249  -0.7601  -0.7569  -0.7183
    -0.7029  -0.6015  -0.5150  -0.4789  -0.4542  -0.3734  -0.3162  -0.2632
    -0.2113  -0.1754  -0.1082  -0.0850  -0.0681  -0.0513   0.0171   0.0801
     0.1411   0.2268   0.2697   0.2946   0.3852   0.3993   0.4231   0.4871
     0.5197   0.5643   0.5999   0.6291   0.6529   0.6829   0.7081   0.7513
     0.7902   0.9148   0.9327   0.9619   0.9825   1.1572   1.2061   1.3179
     1.3408   1.4361   1.4845   1.6636   1.7246   1.8035   1.9164   2.2948
     2.3406   3.7901   3.9014   3.9356   3.9601   3.9993   4.0510   4.2579
     4.3303   4.3716   4.4336

[...]

          k = 0.0380-0.0419 0.0000 ( 17876 PWs)   bands (ev):

[...]

          k =-0.0760-0.0000 0.0000 ( 17886 PWs)   bands (ev):

[...]

          k =-0.0760-0.0839 0.0000 ( 17948 PWs)   bands (ev):

   -55.3021 -55.3015 -55.2006 -55.1827 -55.1757 -55.1441 -55.1299 -55.1230
   -55.1223 -55.1054 -55.0839 -55.0759 -54.9917 -54.8381 -54.2823 -54.2822
   -31.6185 -31.6181 -31.5966 -31.5961 -31.5652 -31.5334 -31.5025 -31.4897
   -31.4827 -31.4673 -31.4486 -31.4422 -31.4393 -31.4300 -31.4249 -31.4247
   -31.4216 -31.4212 -31.4162 -31.4007 -31.3903 -31.3758 -31.3643 -31.3616
   -31.3577 -31.3532 -31.3441 -31.3314 -31.3254 -31.3239 -31.3087 -31.2996
   -31.2963 -31.2955 -31.2938 -31.2912 -31.2583 -31.2350 -31.2209 -31.1484
   -31.0954 -31.0805 -30.6084 -30.6084 -30.5190 -30.5189 -30.4800 -30.4799
   -18.8679 -18.7051 -15.3557 -15.3202 -15.2818 -15.2545 -15.2390 -15.1177
   -15.1044 -15.0689 -15.0272 -15.0136 -14.9836 -14.9549 -14.9063 -14.8974
   -14.8630 -14.8434 -14.8045 -14.7780 -14.7585 -14.7542 -14.7374 -14.7159
   -14.6722 -14.6504 -14.6378 -14.6335 -14.5820 -14.4886 -14.2114 -13.4702
   -12.7854 -12.7853  -8.7260  -7.2368  -6.6192  -4.5700  -3.6093  -2.8673
    -2.6653  -2.6309  -2.5785  -2.4875  -2.4404  -2.3190  -2.3126  -2.2896
    -2.2442  -2.2315  -2.1912  -2.1507  -2.1444  -2.1164  -2.1044  -2.0595
    -2.0483  -2.0456  -2.0310  -1.9974  -1.9916  -1.9710  -1.9474  -1.9437
    -1.9340  -1.9172  -1.8843  -1.8772  -1.8509  -1.8314  -1.6804  -1.6061
    -1.5633  -1.4854  -1.4622  -1.4455  -1.4266  -1.3914  -1.3713  -1.3457
    -1.3176  -1.1726  -1.0311  -0.9962  -0.9711  -0.8724  -0.8581  -0.8389
    -0.7893  -0.7493  -0.7152  -0.6571  -0.6463  -0.6025  -0.5801  -0.4603
    -0.4229  -0.3235  -0.2877  -0.2865  -0.2682  -0.2533  -0.2371  -0.2110
    -0.1602  -0.0898  -0.0744  -0.0257  -0.0018   0.0008   0.0138   0.1590
     0.2306   0.2514   0.3519   0.3832   0.5577   0.7221   0.7342   0.8019
     0.8648   0.9186   0.9540   0.9939   1.0047   1.0694   1.0955   1.2004
     1.2098   1.2579   1.2681   1.3383   1.3545   2.0883   2.0900   2.1605
     2.1607   4.1531   4.1716   4.1974   4.2608   4.3045   4.3161   4.3537
     4.3573   4.4600   4.4765

     the Fermi energy is     3.8082 ev

!    total energy              =   -2973.93989322 Ry
     estimated scf accuracy    <       0.00000004 Ry
     smearing contrib. (-TS)   =      -0.02072275 Ry
     internal energy E=F+TS    =   -2973.91917048 Ry

     The total energy is F=E-TS. E is the sum of the following terms:
     one-electron contribution =  -24341.62067701 Ry
     hartree contribution      =   12268.51592300 Ry
     xc contribution           =    -494.11945506 Ry
     ewald contribution        =    9593.30134483 Ry
     electric field correction =       0.00369376 Ry

     convergence has been achieved in  64 iterations

     Forces acting on atoms (cartesian axes, Ry/au):

     atom    1 type  1   force =     0.00002392   -0.00010137    0.09505960
     atom    2 type  1   force =     0.00017844   -0.00069763   -0.17564783
     atom    3 type  2   force =     0.00008762   -0.00004544   -0.02292836
     atom    4 type  2   force =     0.00002216   -0.00143424    0.05291979
     atom    5 type  2   force =    -0.01001859   -0.00031494    0.00381206
     atom    6 type  2   force =     0.01114152    0.00020245    0.00206952
     atom    7 type  1   force =    -0.00021445    0.00178822   -0.00590316
     atom    8 type  1   force =     0.00081877    0.01008734    0.01602946
     atom    9 type  2   force =    -0.00015616    0.00087398    0.00032259
     atom   10 type  2   force =    -0.00227394    0.00217988   -0.01800396
     atom   11 type  2   force =     0.00022247   -0.00003978    0.00007724
     atom   12 type  2   force =    -0.00033778   -0.00019433    0.00056112
     atom   13 type  1   force =    -0.00002570    0.00124991    0.00013175
     atom   14 type  1   force =    -0.00012231    0.00012877   -0.00002277
     atom   15 type  2   force =     0.00011934    0.00020496    0.00008951
     atom   16 type  2   force =    -0.00036448    0.00044291   -0.00022026
     atom   17 type  2   force =    -0.00004107   -0.00028205    0.00000141
     atom   18 type  2   force =    -0.00021499   -0.00001454    0.00032040
     atom   19 type  1   force =    -0.00024197    0.00031962    0.00001210
     atom   20 type  1   force =    -0.00045262   -0.00024324   -0.00043639
     atom   21 type  2   force =     0.00009038   -0.00008455    0.10319137
     atom   22 type  2   force =     0.00041314    0.00007331    0.00068352
     atom   23 type  2   force =    -0.07158862   -0.00016564   -0.02756856
     atom   24 type  2   force =     0.07154562    0.00024876   -0.02761477
     atom   25 type  1   force =     0.00024310   -0.00040650    0.09518148
     atom   26 type  1   force =    -0.00003190   -0.00020136   -0.17581339
     atom   27 type  2   force =     0.00012088   -0.00012437   -0.02195473
     atom   28 type  2   force =     0.00001341   -0.00139863    0.05324664
     atom   29 type  2   force =    -0.01036558   -0.00022549    0.00365400
     atom   30 type  2   force =     0.01140215    0.00042526    0.00192016
     atom   31 type  1   force =    -0.00030269    0.00266706   -0.00010229
     atom   32 type  1   force =     0.00067346   -0.01114719    0.01690492
     atom   33 type  2   force =     0.00037047   -0.00027869   -0.00000823
     atom   34 type  2   force =    -0.00033987    0.00143913   -0.01893768
     atom   35 type  2   force =    -0.00002585   -0.00034794   -0.00016800
     atom   36 type  2   force =     0.00001404   -0.00023927    0.00043426
     atom   37 type  1   force =    -0.00003204   -0.00122390    0.00027802
     atom   38 type  1   force =    -0.00038589    0.00083545    0.00006201
     atom   39 type  2   force =     0.00011416    0.00004293    0.00011460
     atom   40 type  2   force =    -0.00053141   -0.00061301   -0.00024062
     atom   41 type  2   force =     0.00032903   -0.00008372    0.00032751
     atom   42 type  2   force =    -0.00038723   -0.00034929   -0.00018987
     atom   43 type  1   force =    -0.00025352   -0.00015857    0.00043381
     atom   44 type  1   force =    -0.00012051   -0.00020326   -0.00037582
     atom   45 type  2   force =     0.00009773   -0.00010142    0.10320894
     atom   46 type  2   force =    -0.07157304   -0.00017088   -0.02755819
     atom   47 type  2   force =     0.07157372    0.00024290   -0.02757301
     atom   48 type  3   force =    -0.00366752   -0.00421094    0.02513245
     atom   49 type  3   force =    -0.00290820    0.00075716   -0.00614091
     atom   50 type  4   force =     0.00478767    0.00049828   -0.00489039
     atom   51 type  5   force =    -0.00151646   -0.00051228   -0.00031591
     atom   52 type  5   force =     0.00299146    0.00140078   -0.01350791
     atom   53 type  5   force =     0.00101151   -0.00046894   -0.00036700
     atom   54 type  2   force =    -0.00004183    0.00107618   -0.00004952
     atom   55 type  5   force =     0.00010784   -0.00025911   -0.00002935
     atom   56 type  5   force =     0.00002224   -0.00084274    0.00038866

     Total force =     0.366487     Total SCF correction =     0.000607
  @ DRIVER MODE: Message from server: STATUS
  @ DRIVER MODE: Message from server: GETFORCE
  @ DRIVER MODE: Returning v,forces,stress,ensemble

     Writing output data file ./calc.save/
  @ DRIVER MODE: Message from server: EXIT
  @ DRIVE MODE: Exiting

     General routines

     Parallel routines

   This run was terminated on:   0:13:21  22Sep2021

   JOB DONE.