     Program PWSCF v.6.7GPU starts on  5Oct2021 at 13:14:53

     R & G space division:  proc/nbgrp/npool/nimage =       8
     Reading input from /storage/home/hcoda1/3/ntian30/research/carbon/CxH_vib/pristine/ads_slab/CH2N2_a/out_0007/pw.inp
Warning: card &CELL ignored
Warning: card   CELL_DYNAMICS='IPI', ignored
Warning: card / ignored

     Current dimensions of program PWSCF are:
     Max number of different atomic species (ntypx) = 10
     Max number of k-points (npk) =  40000
     Max angular momentum in pseudopotentials (lmaxx) =  3
     Presently no symmetry can be used with electric field

     Message from routine cell_base_init:
     DEPRECATED: use true lattice parameter, not A to a.u. conversion factor

     IMPORTANT: XC functional enforced from input :
     Exchange-correlation= BEEF-VDW
                           (   1   4  43  14   2   0   0)
     Any further DFT definition will be discarded
     Please, verify this is what you really want

  @ DRIVER MODE: Connecting to
 qe_1139763_3091261.sched-torque.pace.gatech.edutr19ecfa_scratch
  using UNIX socket
  @ DRIVER MODE: Message from server: STATUS
  @ DRIVER MODE: Message from server: INIT
  @ DRIVER MODE: Receiving replica           0          -1
  @ DRIVER MODE: Receiving encoded integer          25
  @ DRIVER MODE:  SCF:  T  FORCE:  T  STRESS:  F  VC:  F  ENSEMBLE:  F
  @ DRIVER MODE:  SCF:  T  FORCE:  T  STRESS:  F  VC:  F  ENSEMBLE:  F

     Using Slab Decomposition

     bravais-lattice index     =            0
     lattice parameter (alat)  =       1.8897  a.u.
     unit-cell volume          =    6658.9804 (a.u.)^3
     number of atoms/cell      =           53
     number of atomic types    =            5
     number of electrons       =       400.00
     number of Kohn-Sham states=          210
     kinetic-energy cutoff     =      29.3995  Ry
     charge density cutoff     =     293.9946  Ry
     scf convergence threshold =      7.3E-08
     mixing beta               =       0.0500
     number of iterations used =            8  plain     mixing
     Exchange-correlation= BEEF-VDW
                           (   1   4  43  14   2   0   0)

     celldm(1)=   1.889726  celldm(2)=   0.000000  celldm(3)=   0.000000
     celldm(4)=   0.000000  celldm(5)=   0.000000  celldm(6)=   0.000000

     crystal axes: (cart. coord. in units of alat)
               a(1) = (   6.579727   0.000000   0.000000 )
               a(2) = (  -0.000775   5.961596   0.000000 )
               a(3) = (   0.000000   0.000000  25.155947 )

     reciprocal axes: (cart. coord. in units 2 pi/alat)
               b(1) = (  0.151982  0.000020  0.000000 )
               b(2) = (  0.000000  0.167740  0.000000 )
               b(3) = (  0.000000  0.000000  0.039752 )

     PseudoPot. # 1 for Ti read from file:
     /storage/coda1/p-amedford6/0/shared/rich_project_chbe-medford/medford-share/data/pseudos_module/espresso/nninc/pbe/van/Ti.UPF
     MD5 check sum: 8e4df49b7f0d34bbd5052bf3f5ea0213
     Pseudo is Ultrasoft, Zval = 12.0
     Generated by new atomic code, or converted to UPF format
     Using radial grid of  851 points,  6 beta functions with:
                l(1) =   0
                l(2) =   0
                l(3) =   1
                l(4) =   1
                l(5) =   2
                l(6) =   2
     Q(r) pseudized with  8 coefficients,  rinner =    1.000   1.000   1.000
                                                       1.000   1.000

     PseudoPot. # 2 for O  read from file:
     /storage/coda1/p-amedford6/0/shared/rich_project_chbe-medford/medford-share/data/pseudos_module/espresso/nninc/pbe/van/O.UPF
     MD5 check sum: 78c19812648e8988a0fe644b0f25305e
     Pseudo is Ultrasoft, Zval =  6.0
     Generated by new atomic code, or converted to UPF format
     Using radial grid of  737 points,  4 beta functions with:
                l(1) =   0
                l(2) =   0
                l(3) =   1
                l(4) =   1
     Q(r) pseudized with  8 coefficients,  rinner =    0.800   0.800   0.800

     PseudoPot. # 3 for N  read from file:
     /storage/coda1/p-amedford6/0/shared/rich_project_chbe-medford/medford-share/data/pseudos_module/espresso/nninc/pbe/van/N.UPF
     MD5 check sum: 90d10febe142ad51ac9d5be1deb811c4
     Pseudo is Ultrasoft, Zval =  5.0
     Generated by new atomic code, or converted to UPF format
     Using radial grid of  729 points,  4 beta functions with:
                l(1) =   0
                l(2) =   0
                l(3) =   1
                l(4) =   1
     Q(r) pseudized with  8 coefficients,  rinner =    0.800   0.800   0.800

     PseudoPot. # 4 for C  read from file:
     /storage/coda1/p-amedford6/0/shared/rich_project_chbe-medford/medford-share/data/pseudos_module/espresso/nninc/pbe/van/C.UPF
     MD5 check sum: 1a69bf6b8db32088f5b2163dbdb77a27
     Pseudo is Ultrasoft, Zval =  4.0
     Generated by new atomic code, or converted to UPF format
     Using radial grid of  721 points,  4 beta functions with:
                l(1) =   0
                l(2) =   0
                l(3) =   1
                l(4) =   1
     Q(r) pseudized with  8 coefficients,  rinner =    0.800   0.800   0.800

     PseudoPot. # 5 for H  read from file:
     /storage/coda1/p-amedford6/0/shared/rich_project_chbe-medford/medford-share/data/pseudos_module/espresso/nninc/pbe/van/H.UPF
     MD5 check sum: b5ee9d7bfd3a09ee7748110bda690ff7
     Pseudo is Ultrasoft, Zval =  1.0
     Generated by new atomic code, or converted to UPF format
     Using radial grid of  615 points,  1 beta functions with:
                l(1) =   0
     Q(r) pseudized with  8 coefficients,  rinner =    0.800

     atomic species   valence    mass     pseudopotential
        Ti1           12.00    47.86700     Ti( 1.00)
        O1             6.00    15.99900     O ( 1.00)
        N1             5.00    14.00700     N ( 1.00)
        C1             4.00    12.01100     C ( 1.00)
        H1             1.00     1.00800     H ( 1.00)

     No symmetry found

   Cartesian axes

     site n.     atom                  positions (alat units)
         1           Ti1 tau(   1) = (   0.0004258   2.9801865   6.0000000  )
         2           Ti1 tau(   2) = (   3.2906075   1.4906267   6.0002472  )
         3           O1  tau(   3) = (   0.0006271   0.0005054   7.9858123  )
         4           O1  tau(   4) = (   3.2906025   0.0005020   7.3038282  )
         5           O1  tau(   5) = (   4.5942328   1.4918067   9.2879030  )
         6           O1  tau(   6) = (   1.9868534   1.4903216   9.2879459  )
         7           Ti1 tau(   7) = (   3.2967797   2.8647345   9.1688538  )
         8           Ti1 tau(   8) = (   0.0139078   1.4260134   9.3797207  )
         9           O1  tau(   9) = (   3.2818202   5.9426219  11.3413624  )
        10           O1  tau(  10) = (  -0.0006713   5.9438105  10.5613913  )
        11           O1  tau(  11) = (   1.2629550   1.4689526  12.6431422  )
        12           O1  tau(  12) = (   5.2627372   1.4724369  12.6244454  )
        13           Ti1 tau(  13) = (   0.0649248   2.9521173  12.8162972  )
        14           Ti1 tau(  14) = (   3.3900010   1.4623865  12.4921655  )
        15           O1  tau(  15) = (   6.5612248   5.9427239  14.6529025  )
        16           O1  tau(  16) = (   3.2707349   5.9499158  13.9186396  )
        17           O1  tau(  17) = (   4.5120437   1.4930778  16.0516072  )
        18           O1  tau(  18) = (   2.0188724   1.4901805  16.0528637  )
        19           Ti1 tau(  19) = (   3.2526435   2.9656207  15.7242400  )
        20           Ti1 tau(  20) = (   6.5390660   1.5270114  16.1581541  )
        21           O1  tau(  21) = (   3.2904802   0.0005063   4.7018136  )
        22           O1  tau(  22) = (   6.5517350   0.0054997  17.2382445  )
        23           O1  tau(  23) = (   1.3043587   1.4918075   6.0039043  )
        24           O1  tau(  24) = (   5.2767064   1.4903225   6.0039473  )
        25           Ti1 tau(  25) = (   0.0000382   5.9609847   6.0000000  )
        26           Ti1 tau(  26) = (   3.2902200   4.4714249   6.0002472  )
        27           O1  tau(  27) = (   0.0002396   2.9813036   7.9858123  )
        28           O1  tau(  28) = (   3.2902150   2.9813002   7.3038282  )
        29           O1  tau(  29) = (   4.5938453   4.4726049   9.2879030  )
        30           O1  tau(  30) = (   1.9864658   4.4711199   9.2879459  )
        31           Ti1 tau(  31) = (   3.2991641   5.8454459   9.1677744  )
        32           Ti1 tau(  32) = (   0.0142928   4.4069258   9.3804372  )
        33           O1  tau(  33) = (   3.2794024   2.9620648  11.3429404  )
        34           O1  tau(  34) = (   0.0008107   2.9631099  10.5617750  )
        35           O1  tau(  35) = (   1.2628400   4.4505553  12.6449227  )
        36           O1  tau(  36) = (   5.2621040   4.4508628  12.6271667  )
        37           Ti1 tau(  37) = (   0.0634051   5.9337149  12.8176510  )
        38           Ti1 tau(  38) = (   3.3888395   4.4462795  12.4902329  )
        39           O1  tau(  39) = (   6.5643088   2.9532696  14.6533357  )
        40           O1  tau(  40) = (   3.2687884   2.9653797  13.9163527  )
        41           O1  tau(  41) = (   4.5138939   4.4677068  16.0260545  )
        42           O1  tau(  42) = (   2.0159196   4.4685127  16.0260682  )
        43           Ti1 tau(  43) = (   3.2551286   5.9518885  15.7372992  )
        44           Ti1 tau(  44) = (   6.5382561   4.5045293  16.1449140  )
        45           O1  tau(  45) = (   3.2900926   2.9813045   4.7018136  )
        46           O1  tau(  46) = (   6.5520679   2.9954315  17.2342401  )
        47           O1  tau(  47) = (   1.3039711   4.4726057   6.0039043  )
        48           O1  tau(  48) = (   5.2763189   4.4711207   6.0039473  )
        49           N1  tau(  49) = (   3.2718132   4.4933032  18.6889481  )
        50           N1  tau(  50) = (   3.2519367   3.3563452  18.5802627  )
        51           C1  tau(  51) = (   3.2831389   5.7900214  18.6539038  )
        52           H1  tau(  52) = (   2.3406966   0.3270794  18.8225995  )
        53           H1  tau(  53) = (   4.2401870   0.3074325  18.8013464  )

     number of k points=    10  Fermi-Dirac smearing, width (Ry)=  0.0073
                       cart. coord. in units 2pi/alat
        k(    1) = (   0.0000000   0.0000000   0.0000000), wk =   0.1250000
        k(    2) = (   0.0000000   0.0419351   0.0000000), wk =   0.2500000
        k(    3) = (   0.0000000  -0.0838702   0.0000000), wk =   0.1250000
        k(    4) = (   0.0379955   0.0000049   0.0000000), wk =   0.2500000
        k(    5) = (   0.0379955   0.0419400   0.0000000), wk =   0.2500000
        k(    6) = (   0.0379955  -0.0838652   0.0000000), wk =   0.2500000
        k(    7) = (   0.0379955  -0.0419301   0.0000000), wk =   0.2500000
        k(    8) = (  -0.0759910  -0.0000099   0.0000000), wk =   0.1250000
        k(    9) = (  -0.0759910   0.0419252   0.0000000), wk =   0.2500000
        k(   10) = (  -0.0759910  -0.0838800   0.0000000), wk =   0.1250000

     Initial potential from superposition of free atoms

     starting charge  383.99917, renormalised to  400.00000

     negative rho (up, down):  1.829E-02 0.000E+00

     %%%%%%%%%%%%%%%%%%%%%%%%%%%%%%%%%%%%%%%%%%%%%%%%%%%%%%%%%%%%%%%%%%%%%%%%
     %                                                                      %
     % You are using vdW-DF, which was implemented by the Thonhauser group. %
     % Please cite the following two papers that made this development      %
     % possible and the two reviews that describe the various versions:     %
     %                                                                      %
     %   T. Thonhauser et al., PRL 115, 136402 (2015).                      %
     %   T. Thonhauser et al., PRB 76, 125112 (2007).                       %
     %   K. Berland et al., Rep. Prog. Phys. 78, 066501 (2015).             %
     %   D.C. Langreth et al., J. Phys.: Condens. Matter 21, 084203 (2009). %
     %                                                                      %
     %                                                                      %
     % If you are calculating the stress with vdW-DF, please also cite:     %
     %                                                                      %
     %   R. Sabatini et al., J. Phys.: Condens. Matter 24, 424209 (2012).   %
     %                                                                      %
     %%%%%%%%%%%%%%%%%%%%%%%%%%%%%%%%%%%%%%%%%%%%%%%%%%%%%%%%%%%%%%%%%%%%%%%%

     Adding external electric field

     Computed dipole along edir(3) :
        Dipole               -9.8398 Ry au,        -25.0102 Debye
        Dipole field         -0.0186 Ry au,

        Potential amp.        1.7213 Ry
        Total length         46.3494 bohr

     Starting wfcs are  302 atomic wfcs
  @ DRIVER MODE: Message from server: STATUS
  @ DRIVER MODE: Message from server: POSDATA
  @ DRIVER MODE: Reading and sharing cell
  @ DRIVER MODE: Reading and sharing positions
  @ DRIVER MODE: Received positions

     Self-consistent Calculation

     iteration #  1     ecut=    29.40 Ry     beta= 0.05
     Davidson diagonalization with overlap
     c_bands:  1 eigenvalues not converged
     c_bands:  2 eigenvalues not converged
     c_bands:  1 eigenvalues not converged
     c_bands:  2 eigenvalues not converged
     c_bands:  2 eigenvalues not converged
     c_bands:  2 eigenvalues not converged
     c_bands:  1 eigenvalues not converged
     c_bands:  3 eigenvalues not converged
     ethr =  1.00E-05,  avg # of iterations = 20.0

[...]

     total energy              =   -2519.78197374 Ry
     estimated scf accuracy    <    5013.08304891 Ry

     iteration #  2     ecut=    29.40 Ry     beta= 0.05
     Davidson diagonalization with overlap
     ethr =  1.00E-02,  avg # of iterations = 25.1

[...]

     iteration # 56     ecut=    29.40 Ry     beta= 0.05
     Davidson diagonalization with overlap
     c_bands:  1 eigenvalues not converged
     ethr =  2.91E-07,  avg # of iterations =  7.0

[...]

     total energy              =   -2970.35089465 Ry
     estimated scf accuracy    <       0.00000008 Ry

     iteration # 96     ecut=    29.40 Ry     beta= 0.05
     Davidson diagonalization with overlap
     ethr =  1.98E-11,  avg # of iterations =  5.0

     negative rho (up, down):  1.789E-02 0.000E+00

     Adding external electric field

     Computed dipole along edir(3) :
        Dipole                0.5372 Ry au,          1.3653 Debye
        Dipole field          0.0010 Ry au,

        Potential amp.       -0.0940 Ry
        Total length         46.3494 bohr

     End of self-consistent calculation

          k = 0.0000 0.0000 0.0000 ( 18029 PWs)   bands (ev):

   -56.2390 -56.2054 -55.8895 -55.8538 -55.7651 -55.7301 -55.6313 -55.6078
   -55.5967 -55.5738 -55.5270 -55.4920 -55.4812 -55.4445 -55.0120 -54.9780
   -32.6658 -32.4867 -32.4588 -32.4303 -32.4245 -32.3393 -32.2928 -32.2392
   -32.1858 -32.1343 -32.1035 -32.0998 -32.0687 -32.0674 -32.0511 -32.0458
   -32.0322 -32.0125 -32.0072 -31.9914 -31.9059 -31.8828 -31.8719 -31.8606
   -31.8515 -31.8466 -31.8229 -31.8140 -31.8007 -31.7725 -31.7657 -31.7437
   -31.7375 -31.7241 -31.7060 -31.7043 -31.7042 -31.6876 -31.6848 -31.6571
   -31.6310 -31.5521 -31.4113 -31.3392 -31.3153 -31.2297 -31.1448 -31.0329
   -21.0509 -16.5567 -16.3930 -16.1720 -16.0185 -15.9294 -15.7983 -15.6030
   -15.5776 -15.4847 -15.4822 -15.4587 -15.3878 -15.3873 -15.3539 -15.3487
   -15.3200 -15.2991 -15.2593 -15.2425 -15.2402 -15.1976 -15.1376 -15.1123
   -15.0195 -14.9725 -14.8670 -14.8619 -14.8315 -14.7471 -14.7161 -14.2803
   -13.5060 -13.3926  -6.8088  -5.8716  -5.0998  -3.9841  -3.9282  -3.8933
    -3.7785  -3.7593  -3.6330  -3.3549  -3.2997  -3.0487  -2.9937  -2.9770
    -2.9315  -2.9096  -2.8421  -2.8309  -2.7376  -2.7332  -2.6869  -2.6799
    -2.6467  -2.6443  -2.6278  -2.5673  -2.5464  -2.4616  -2.4531  -2.4214
    -2.3930  -2.2798  -2.2353  -2.1905  -2.1887  -2.1600  -2.0606  -2.0530
    -2.0394  -2.0099  -1.9276  -1.8766  -1.7496  -1.6492  -1.6330  -1.5879
    -1.5268  -1.4942  -1.2952  -1.2478  -1.2445  -1.2233  -1.2009  -1.1883
    -1.1197  -1.0531  -0.9304  -0.8561  -0.8295  -0.7748  -0.7543  -0.7483
    -0.7290  -0.6508  -0.6214  -0.6149  -0.5919  -0.4508  -0.3053  -0.2663
    -0.2440  -0.2293  -0.2076  -0.1285  -0.1121  -0.0760  -0.0348  -0.0177
     0.0029   0.0512   0.0798   0.0885   0.1927   0.2129   0.2744   0.2958
     0.3056   0.3411   0.3850   0.5308   0.6177   0.7312   0.7404   0.8196
     0.9678   0.9745   1.0154   1.2198   1.2298   1.2771   1.6009   1.6741
     3.0330   3.2165   3.4480   3.5188   3.5392   3.6317   3.7373   3.7673
     3.8341   3.9127

[...]

          k = 0.0380-0.0419 0.0000 ( 17876 PWs)   bands (ev):

[...]

          k =-0.0760-0.0000 0.0000 ( 17886 PWs)   bands (ev):

[...]

          k =-0.0760-0.0839 0.0000 ( 17948 PWs)   bands (ev):

   -56.2222 -56.2221 -55.8719 -55.8713 -55.7498 -55.7453 -55.6147 -55.6132
   -55.5911 -55.5902 -55.5101 -55.5088 -55.4632 -55.4624 -54.9950 -54.9949
   -32.4834 -32.4833 -32.4723 -32.4723 -32.3831 -32.3831 -32.2308 -32.2264
   -32.1357 -32.1309 -32.0779 -32.0770 -32.0677 -32.0570 -32.0372 -32.0287
   -31.9550 -31.9476 -31.9359 -31.9342 -31.9211 -31.9203 -31.8545 -31.8541
   -31.8429 -31.8416 -31.8363 -31.8358 -31.8296 -31.8292 -31.8013 -31.8005
   -31.7903 -31.7840 -31.7261 -31.7251 -31.7166 -31.7155 -31.6995 -31.6983
   -31.6829 -31.6820 -31.3283 -31.3282 -31.2256 -31.2255 -31.1874 -31.1873
   -21.0498 -15.9776 -15.9659 -15.7723 -15.7674 -15.7043 -15.7041 -15.6639
   -15.6615 -15.6115 -15.6101 -15.4720 -15.4691 -15.4678 -15.4641 -15.3879
   -15.3865 -15.3726 -15.3714 -15.3206 -15.3189 -15.1845 -15.1833 -15.0972
   -15.0963 -15.0525 -15.0517 -14.9955 -14.9948 -14.8958 -14.8821 -14.2926
   -13.4950 -13.4950  -6.6515  -5.8422  -5.0883  -4.1522  -3.2633  -3.2501
    -2.9840  -2.9781  -2.8841  -2.8630  -2.8486  -2.8260  -2.8245  -2.7391
    -2.7308  -2.7076  -2.7020  -2.6747  -2.6706  -2.6132  -2.6118  -2.5894
    -2.5835  -2.5737  -2.5727  -2.5673  -2.5651  -2.4757  -2.4723  -2.4589
    -2.4569  -2.3846  -2.3782  -2.3443  -2.3319  -2.1235  -2.1231  -2.0535
    -2.0525  -1.9345  -1.9332  -1.9169  -1.9129  -1.8769  -1.8372  -1.5984
    -1.5962  -1.5389  -1.5362  -1.4873  -1.4730  -1.3671  -1.3380  -1.2105
    -1.1913  -1.1751  -1.1676  -1.0174  -1.0139  -1.0120  -1.0084  -0.9847
    -0.9813  -0.8654  -0.8518  -0.7656  -0.7585  -0.7417  -0.7381  -0.7001
    -0.6825  -0.5322  -0.5318  -0.5087  -0.5030  -0.3615  -0.3604  -0.3013
    -0.2947  -0.0528  -0.0446   0.0677   0.0680   0.2973   0.3314   0.3525
     0.3635   0.5062   0.5147   0.5283   0.5372   0.6626   0.6671   0.6840
     0.6899   0.7771   0.7771   1.2165   1.4031   1.4036   1.4555   1.4556
     3.5739   3.5784   3.5830   3.5873   3.6278   3.6293   3.6748   3.6766
     3.9326   3.9564

     the Fermi energy is     2.4058 ev

!    total energy              =   -2970.35089669 Ry
     estimated scf accuracy    <       0.00000004 Ry
     smearing contrib. (-TS)   =      -0.00009810 Ry
     internal energy E=F+TS    =   -2970.35079859 Ry

     The total energy is F=E-TS. E is the sum of the following terms:
     one-electron contribution =  -24066.88605954 Ry
     hartree contribution      =   12123.75205918 Ry
     xc contribution           =    -491.48415666 Ry
     ewald contribution        =    9464.26681390 Ry
     electric field correction =       0.00054453 Ry

     convergence has been achieved in  96 iterations

     Forces acting on atoms (cartesian axes, Ry/au):

     atom    1 type  1   force =     0.00011993   -0.00011013    0.14847748
     atom    2 type  1   force =    -0.00010428   -0.00048090   -0.16836912
     atom    3 type  2   force =     0.00013880    0.00223243   -0.05993982
     atom    4 type  2   force =     0.00015593   -0.00146700    0.03993653
     atom    5 type  2   force =    -0.02120235   -0.00097392    0.00399984
     atom    6 type  2   force =     0.02100031    0.00033023    0.00313113
     atom    7 type  1   force =    -0.00012208   -0.00020483   -0.00002493
     atom    8 type  1   force =    -0.00022032    0.00002204    0.00005485
     atom    9 type  2   force =    -0.00023439   -0.00005900    0.00013513
     atom   10 type  2   force =     0.00001850    0.00000236    0.00005659
     atom   11 type  2   force =    -0.00001159   -0.00006627   -0.00012688
     atom   12 type  2   force =    -0.00009241   -0.00013827   -0.00007029
     atom   13 type  1   force =    -0.00007511   -0.00001175   -0.00009758
     atom   14 type  1   force =     0.00005397   -0.00002889    0.00002603
     atom   15 type  2   force =     0.00010152    0.00000815   -0.00002993
     atom   16 type  2   force =     0.00007189   -0.00004613    0.00013185
     atom   17 type  2   force =     0.00004495   -0.00009825    0.00025580
     atom   18 type  2   force =     0.00019819   -0.00010917   -0.00010751
     atom   19 type  1   force =     0.00009441    0.00008439   -0.00003278
     atom   20 type  1   force =    -0.00010500   -0.00003234   -0.00016311
     atom   21 type  2   force =     0.00004323   -0.00004553    0.10203944
     atom   22 type  2   force =     0.00007700   -0.00005403   -0.00005788
     atom   23 type  2   force =    -0.07526775    0.00015667   -0.03466596
     atom   24 type  2   force =     0.07519981    0.00058216   -0.03473881
     atom   25 type  1   force =     0.00012217   -0.00012797    0.14839843
     atom   26 type  1   force =    -0.00014282   -0.00085292   -0.16861191
     atom   27 type  2   force =     0.00012159    0.00218231   -0.05989128
     atom   28 type  2   force =     0.00009194   -0.00146016    0.04021572
     atom   29 type  2   force =    -0.02100010   -0.00107559    0.00397929
     atom   30 type  2   force =     0.02119219    0.00041077    0.00312820
     atom   31 type  1   force =    -0.00020377   -0.00010691   -0.00001709
     atom   32 type  1   force =    -0.00012244   -0.00004617   -0.00007257
     atom   33 type  2   force =     0.00013167    0.00008046    0.00005551
     atom   34 type  2   force =    -0.00008346    0.00003211   -0.00001968
     atom   35 type  2   force =    -0.00004019    0.00002664    0.00003320
     atom   36 type  2   force =    -0.00014067    0.00022228   -0.00015013
     atom   37 type  1   force =    -0.00006367   -0.00013856   -0.00006736
     atom   38 type  1   force =     0.00004791    0.00004451    0.00018925
     atom   39 type  2   force =    -0.00007806   -0.00001294   -0.00017513
     atom   40 type  2   force =     0.00011275    0.00001669    0.00006897
     atom   41 type  2   force =     0.00023640   -0.00017586    0.00013003
     atom   42 type  2   force =     0.00021011    0.00001767    0.00018311
     atom   43 type  1   force =    -0.00014141    0.00030261    0.00018919
     atom   44 type  1   force =    -0.00005858    0.00005415   -0.00000710
     atom   45 type  2   force =     0.00003773   -0.00004870    0.10203993
     atom   46 type  2   force =     0.00000601    0.00002433   -0.00014096
     atom   47 type  2   force =    -0.07527290    0.00019932   -0.03466523
     atom   48 type  2   force =     0.07520841    0.00063081   -0.03473350
     atom   49 type  3   force =    -0.00190662   -0.00082091   -0.00123562
     atom   50 type  3   force =     0.00122877    0.00109110    0.00113982
     atom   51 type  4   force =     0.00022357   -0.00013383   -0.00058050
     atom   52 type  5   force =    -0.00004815   -0.00026620    0.00028060
     atom   53 type  5   force =     0.00044846    0.00043895    0.00051677

     Total force =     0.401726     Total SCF correction =     0.000791
  @ DRIVER MODE: Message from server: STATUS
  @ DRIVER MODE: Message from server: GETFORCE
  @ DRIVER MODE: Returning v,forces,stress,ensemble

     Writing output data file ./calc.save/
  @ DRIVER MODE: Message from server: EXIT
  @ DRIVE MODE: Exiting

     General routines

     Parallel routines

   This run was terminated on:  13:44: 5   5Oct2021

   JOB DONE.