     Program PWSCF v.6.7GPU starts on 12Oct2021 at  8:43:52

     R & G space division:  proc/nbgrp/npool/nimage =       8
     Reading input from /storage/home/hcoda1/3/ntian30/research/carbon/ACS_vib/ads_slab/N2H/out_0000/pw.inp
Warning: card &CELL ignored
Warning: card   CELL_DYNAMICS='IPI', ignored
Warning: card / ignored

     Current dimensions of program PWSCF are:
     Max number of different atomic species (ntypx) = 10
     Max number of k-points (npk) =  40000
     Max angular momentum in pseudopotentials (lmaxx) =  3
     Presently no symmetry can be used with electric field

     Message from routine cell_base_init:
     DEPRECATED: use true lattice parameter, not A to a.u. conversion factor

     IMPORTANT: XC functional enforced from input :
     Exchange-correlation= BEEF-VDW
                           (   1   4  43  14   2   0   0)
     Any further DFT definition will be discarded
     Please, verify this is what you really want

  @ DRIVER MODE: Connecting to
 qe_1139763_3181314.sched-torque.pace.gatech.edunbq2oqlr_scratch
  using UNIX socket
  @ DRIVER MODE: Message from server: STATUS
  @ DRIVER MODE: Message from server: INIT
  @ DRIVER MODE: Receiving replica           0          -1
  @ DRIVER MODE: Receiving encoded integer          25
  @ DRIVER MODE:  SCF:  T  FORCE:  T  STRESS:  F  VC:  F  ENSEMBLE:  F
  @ DRIVER MODE:  SCF:  T  FORCE:  T  STRESS:  F  VC:  F  ENSEMBLE:  F

     Using Slab Decomposition

     bravais-lattice index     =            0
     lattice parameter (alat)  =       1.8897  a.u.
     unit-cell volume          =    6658.9804 (a.u.)^3
     number of atoms/cell      =           50
     number of atomic types    =            4
     number of electrons       =       389.00
     number of Kohn-Sham states=          204
     kinetic-energy cutoff     =      29.3995  Ry
     charge density cutoff     =     293.9946  Ry
     scf convergence threshold =      7.3E-08
     mixing beta               =       0.0500
     number of iterations used =            8  plain     mixing
     Exchange-correlation= BEEF-VDW
                           (   1   4  43  14   2   0   0)

     celldm(1)=   1.889726  celldm(2)=   0.000000  celldm(3)=   0.000000
     celldm(4)=   0.000000  celldm(5)=   0.000000  celldm(6)=   0.000000

     crystal axes: (cart. coord. in units of alat)
               a(1) = (   6.579727   0.000000   0.000000 )
               a(2) = (  -0.000775   5.961596   0.000000 )
               a(3) = (   0.000000   0.000000  25.155947 )

     reciprocal axes: (cart. coord. in units 2 pi/alat)
               b(1) = (  0.151982  0.000020  0.000000 )
               b(2) = (  0.000000  0.167740  0.000000 )
               b(3) = (  0.000000  0.000000  0.039752 )

     PseudoPot. # 1 for Ti read from file:
     /storage/coda1/p-amedford6/0/shared/rich_project_chbe-medford/medford-share/data/pseudos_module/espresso/nninc/pbe/van/Ti.UPF
     MD5 check sum: 8e4df49b7f0d34bbd5052bf3f5ea0213
     Pseudo is Ultrasoft, Zval = 12.0
     Generated by new atomic code, or converted to UPF format
     Using radial grid of  851 points,  6 beta functions with:
                l(1) =   0
                l(2) =   0
                l(3) =   1
                l(4) =   1
                l(5) =   2
                l(6) =   2
     Q(r) pseudized with  8 coefficients,  rinner =    1.000   1.000   1.000
                                                       1.000   1.000

     PseudoPot. # 2 for O  read from file:
     /storage/coda1/p-amedford6/0/shared/rich_project_chbe-medford/medford-share/data/pseudos_module/espresso/nninc/pbe/van/O.UPF
     MD5 check sum: 78c19812648e8988a0fe644b0f25305e
     Pseudo is Ultrasoft, Zval =  6.0
     Generated by new atomic code, or converted to UPF format
     Using radial grid of  737 points,  4 beta functions with:
                l(1) =   0
                l(2) =   0
                l(3) =   1
                l(4) =   1
     Q(r) pseudized with  8 coefficients,  rinner =    0.800   0.800   0.800

     PseudoPot. # 3 for N  read from file:
     /storage/coda1/p-amedford6/0/shared/rich_project_chbe-medford/medford-share/data/pseudos_module/espresso/nninc/pbe/van/N.UPF
     MD5 check sum: 90d10febe142ad51ac9d5be1deb811c4
     Pseudo is Ultrasoft, Zval =  5.0
     Generated by new atomic code, or converted to UPF format
     Using radial grid of  729 points,  4 beta functions with:
                l(1) =   0
                l(2) =   0
                l(3) =   1
                l(4) =   1
     Q(r) pseudized with  8 coefficients,  rinner =    0.800   0.800   0.800

     PseudoPot. # 4 for H  read from file:
     /storage/coda1/p-amedford6/0/shared/rich_project_chbe-medford/medford-share/data/pseudos_module/espresso/nninc/pbe/van/H.UPF
     MD5 check sum: b5ee9d7bfd3a09ee7748110bda690ff7
     Pseudo is Ultrasoft, Zval =  1.0
     Generated by new atomic code, or converted to UPF format
     Using radial grid of  615 points,  1 beta functions with:
                l(1) =   0
     Q(r) pseudized with  8 coefficients,  rinner =    0.800

     atomic species   valence    mass     pseudopotential
        Ti1           12.00    47.86700     Ti( 1.00)
        O1             6.00    15.99900     O ( 1.00)
        N1             5.00    14.00700     N ( 1.00)
        H1             1.00     1.00800     H ( 1.00)

     No symmetry found

   Cartesian axes

     site n.     atom                  positions (alat units)
         1           Ti1 tau(   1) = (   0.0004258   2.9801865   6.0000000  )
         2           Ti1 tau(   2) = (   3.2906075   1.4906267   6.0002472  )
         3           O1  tau(   3) = (   0.0006271   0.0005054   7.9858123  )
         4           O1  tau(   4) = (   3.2906025   0.0005020   7.3038282  )
         5           O1  tau(   5) = (   4.5942328   1.4918067   9.2879030  )
         6           O1  tau(   6) = (   1.9868534   1.4903216   9.2879459  )
         7           Ti1 tau(   7) = (   3.2913060   3.0378612   9.1552972  )
         8           Ti1 tau(   8) = (   0.0009381   1.5839581   9.3521326  )
         9           O1  tau(   9) = (   3.2925928   0.0151421  11.3436145  )
        10           O1  tau(  10) = (   0.0015930   0.0098544  10.5931849  )
        11           O1  tau(  11) = (   1.2954366   1.5088831  12.6205452  )
        12           O1  tau(  12) = (   5.2873992   1.5081763  12.6209847  )
        13           Ti1 tau(  13) = (   0.0062007   3.0223002  12.7522649  )
        14           Ti1 tau(  14) = (   3.2997597   1.5103467  12.4821987  )
        15           O1  tau(  15) = (   0.0040346   0.0184607  14.6317695  )
        16           O1  tau(  16) = (   3.2910281   0.0168284  13.9441510  )
        17           O1  tau(  17) = (   4.5375602   1.5179921  16.0890948  )
        18           O1  tau(  18) = (   2.0457139   1.5162684  16.0851288  )
        19           Ti1 tau(  19) = (   3.2874297   2.9968575  15.7108406  )
        20           Ti1 tau(  20) = (   6.5695515   1.3443907  16.0039228  )
        21           O1  tau(  21) = (   3.2904802   0.0005063   4.7018136  )
        22           O1  tau(  22) = (   0.0014600   0.0364584  17.1914435  )
        23           O1  tau(  23) = (   1.3043587   1.4918075   6.0039043  )
        24           O1  tau(  24) = (   5.2767064   1.4903225   6.0039473  )
        25           Ti1 tau(  25) = (   0.0000382   5.9609847   6.0000000  )
        26           Ti1 tau(  26) = (   3.2902200   4.4714249   6.0002472  )
        27           O1  tau(  27) = (   0.0002396   2.9813036   7.9858123  )
        28           O1  tau(  28) = (   3.2902150   2.9813002   7.3038282  )
        29           O1  tau(  29) = (   4.5938453   4.4726049   9.2879030  )
        30           O1  tau(  30) = (   1.9864658   4.4711199   9.2879459  )
        31           Ti1 tau(  31) = (   3.2910671   0.0593156   9.1538314  )
        32           Ti1 tau(  32) = (   0.0005551   4.5317022   9.3016378  )
        33           O1  tau(  33) = (   3.2922260   2.9941798  11.3385902  )
        34           O1  tau(  34) = (   0.0008704   2.9922752  10.5694424  )
        35           O1  tau(  35) = (   1.2972379   4.4863578  12.6167950  )
        36           O1  tau(  36) = (   5.2846861   4.4861696  12.6173214  )
        37           Ti1 tau(  37) = (   0.0087596   0.0398615  12.5729301  )
        38           Ti1 tau(  38) = (   3.2994502   4.4862820  12.4776038  )
        39           O1  tau(  39) = (   0.0007913   3.0275094  14.6627896  )
        40           O1  tau(  40) = (   3.2912693   2.9957722  13.9146565  )
        41           O1  tau(  41) = (   4.5447272   4.4665429  16.0834370  )
        42           O1  tau(  42) = (   2.0408322   4.4687941  16.0798044  )
        43           Ti1 tau(  43) = (   3.2813896   0.0196903  15.7368506  )
        44           Ti1 tau(  44) = (   6.5682818   4.5002177  15.9516634  )
        45           O1  tau(  45) = (   3.2900926   2.9813045   4.7018136  )
        46           O1  tau(  46) = (   1.3039711   4.4726057   6.0039043  )
        47           O1  tau(  47) = (   5.2763189   4.4711207   6.0039473  )
        48           N1  tau(  48) = (   0.0702777   2.9930733  18.6664031  )
        49           N1  tau(  49) = (   0.0230277   3.0528524  17.4426018  )
        50           H1  tau(  50) = (   0.0865168   1.9966355  18.9942200  )

     number of k points=    10  Fermi-Dirac smearing, width (Ry)=  0.0073
                       cart. coord. in units 2pi/alat
        k(    1) = (   0.0000000   0.0000000   0.0000000), wk =   0.1250000
        k(    2) = (   0.0000000   0.0419351   0.0000000), wk =   0.2500000
        k(    3) = (   0.0000000  -0.0838702   0.0000000), wk =   0.1250000
        k(    4) = (   0.0379955   0.0000049   0.0000000), wk =   0.2500000
        k(    5) = (   0.0379955   0.0419400   0.0000000), wk =   0.2500000
        k(    6) = (   0.0379955  -0.0838652   0.0000000), wk =   0.2500000
        k(    7) = (   0.0379955  -0.0419301   0.0000000), wk =   0.2500000
        k(    8) = (  -0.0759910  -0.0000099   0.0000000), wk =   0.1250000
        k(    9) = (  -0.0759910   0.0419252   0.0000000), wk =   0.2500000
        k(   10) = (  -0.0759910  -0.0838800   0.0000000), wk =   0.1250000

     Initial potential from superposition of free atoms

     starting charge  372.99922, renormalised to  389.00000

     negative rho (up, down):  2.004E-02 0.000E+00

     %%%%%%%%%%%%%%%%%%%%%%%%%%%%%%%%%%%%%%%%%%%%%%%%%%%%%%%%%%%%%%%%%%%%%%%%
     %                                                                      %
     % You are using vdW-DF, which was implemented by the Thonhauser group. %
     % Please cite the following two papers that made this development      %
     % possible and the two reviews that describe the various versions:     %
     %                                                                      %
     %   T. Thonhauser et al., PRL 115, 136402 (2015).                      %
     %   T. Thonhauser et al., PRB 76, 125112 (2007).                       %
     %   K. Berland et al., Rep. Prog. Phys. 78, 066501 (2015).             %
     %   D.C. Langreth et al., J. Phys.: Condens. Matter 21, 084203 (2009). %
     %                                                                      %
     %                                                                      %
     % If you are calculating the stress with vdW-DF, please also cite:     %
     %                                                                      %
     %   R. Sabatini et al., J. Phys.: Condens. Matter 24, 424209 (2012).   %
     %                                                                      %
     %%%%%%%%%%%%%%%%%%%%%%%%%%%%%%%%%%%%%%%%%%%%%%%%%%%%%%%%%%%%%%%%%%%%%%%%

     Adding external electric field

     Computed dipole along edir(3) :
        Dipole               -4.3819 Ry au,        -11.1376 Debye
        Dipole field         -0.0083 Ry au,

        Potential amp.        0.7665 Ry
        Total length         46.3494 bohr

     Starting wfcs are  293 atomic wfcs
  @ DRIVER MODE: Message from server: STATUS
  @ DRIVER MODE: Message from server: POSDATA
  @ DRIVER MODE: Reading and sharing cell
  @ DRIVER MODE: Reading and sharing positions
  @ DRIVER MODE: Received positions

     Self-consistent Calculation

     iteration #  1     ecut=    29.40 Ry     beta= 0.05
     Davidson diagonalization with overlap
     ethr =  1.00E-02,  avg # of iterations =  2.1

[...]

     total energy              =   -2893.65430056 Ry
     estimated scf accuracy    <     377.80261424 Ry

[...]

     iteration #  6     ecut=    29.40 Ry     beta= 0.05
     Davidson diagonalization with overlap
     c_bands:  1 eigenvalues not converged
     ethr =  2.41E-03,  avg # of iterations = 13.3

[...]

     iteration # 74     ecut=    29.40 Ry     beta= 0.05
     Davidson diagonalization with overlap
     c_bands:  1 eigenvalues not converged
     ethr =  2.58E-11,  avg # of iterations =  9.4

[...]

     total energy              =   -2925.19966788 Ry
     estimated scf accuracy    <       0.00000058 Ry

     iteration # 75     ecut=    29.40 Ry     beta= 0.05
     Davidson diagonalization with overlap
     ethr =  2.58E-11,  avg # of iterations = 13.1

     negative rho (up, down):  1.932E-02 0.000E+00

     Adding external electric field

     Computed dipole along edir(3) :
        Dipole                0.3732 Ry au,          0.9486 Debye
        Dipole field          0.0007 Ry au,

        Potential amp.       -0.0653 Ry
        Total length         46.3494 bohr

     End of self-consistent calculation

          k = 0.0000 0.0000 0.0000 ( 18029 PWs)   bands (ev):

   -56.2554 -56.2200 -56.2199 -56.1835 -56.1339 -56.0904 -56.0465 -56.0246
   -55.9919 -55.9752 -55.9416 -55.9100 -55.7785 -55.6024 -55.2496 -55.2155
   -32.7856 -32.7174 -32.5670 -32.5594 -32.5405 -32.5390 -32.5161 -32.4668
   -32.4635 -32.4538 -32.4251 -32.4197 -32.4011 -32.3933 -32.3659 -32.3572
   -32.3506 -32.3403 -32.3250 -32.3000 -32.2950 -32.2784 -32.2591 -32.2327
   -32.2304 -32.2298 -32.2163 -32.2100 -32.2014 -32.1903 -32.1638 -32.1487
   -32.1190 -32.1164 -32.0897 -32.0869 -32.0726 -32.0392 -31.9401 -31.8469
   -31.8443 -31.8018 -31.6587 -31.5630 -31.5405 -31.4756 -31.3897 -31.2783
   -18.7006 -16.9601 -16.6630 -16.5075 -16.3683 -16.3389 -16.2292 -16.0123
   -15.9037 -15.8332 -15.8124 -15.7907 -15.7713 -15.7594 -15.7458 -15.7420
   -15.7166 -15.6791 -15.6430 -15.6381 -15.6313 -15.5902 -15.4950 -15.4457
   -15.4133 -15.3628 -15.3528 -15.2551 -15.2120 -15.0041 -13.7497 -13.6317
    -9.0899  -5.3003  -4.3222  -4.1523  -4.1236  -4.0493  -4.0219  -3.7744
    -3.7658  -3.4801  -3.4195  -3.3635  -3.3522  -3.3314  -3.2443  -3.2202
    -3.0904  -3.0626  -3.0397  -3.0058  -2.9976  -2.9803  -2.9681  -2.9534
    -2.9334  -2.8754  -2.7557  -2.6858  -2.6347  -2.6226  -2.5670  -2.5430
    -2.4961  -2.4713  -2.4670  -2.4502  -2.4397  -2.4153  -2.3674  -2.2494
    -2.1959  -2.1322  -2.0341  -2.0139  -1.9303  -1.7783  -1.7209  -1.6574
    -1.6389  -1.6214  -1.5572  -1.5468  -1.4420  -1.4089  -1.4037  -1.3307
    -1.2361  -1.2173  -1.1209  -1.0701  -0.9953  -0.9768  -0.9555  -0.9425
    -0.9175  -0.7243  -0.6909  -0.6672  -0.6290  -0.5951  -0.5237  -0.5049
    -0.4177  -0.4081  -0.3805  -0.3293  -0.3226  -0.2542  -0.2315  -0.2299
    -0.1684  -0.1428   0.0077   0.0280   0.0392   0.1379   0.1460   0.3235
     0.3410   0.4253   0.5370   0.6819   0.7751   0.8814   0.9472   1.3664
     1.4294   2.1967   2.9456   2.9662   2.9982   3.1044   3.1283   3.2203
     3.2660   3.3942   3.4088   3.4502

[...]

          k = 0.0380-0.0419 0.0000 ( 17876 PWs)   bands (ev):

[...]

          k =-0.0760-0.0000 0.0000 ( 17886 PWs)   bands (ev):

[...]

          k =-0.0760-0.0839 0.0000 ( 17948 PWs)   bands (ev):

   -56.2428 -56.2324 -56.2038 -56.1994 -56.1311 -56.0826 -56.0542 -56.0273
   -55.9875 -55.9604 -55.9567 -55.9138 -55.7768 -55.6040 -55.2328 -55.2322
   -32.5890 -32.5849 -32.5387 -32.5307 -32.5281 -32.5143 -32.5125 -32.4699
   -32.4257 -32.4232 -32.4173 -32.4035 -32.3742 -32.3736 -32.3664 -32.3407
   -32.3340 -32.3298 -32.3237 -32.3220 -32.2902 -32.2894 -32.2822 -32.2771
   -32.2632 -32.2607 -32.2356 -32.2300 -32.2153 -32.2136 -32.1923 -32.1915
   -32.1664 -32.1640 -32.1582 -32.1336 -32.1023 -32.0425 -31.9344 -31.9098
   -31.8473 -31.8374 -31.5535 -31.5528 -31.4720 -31.4715 -31.4330 -31.4325
   -18.6956 -16.4008 -16.3697 -16.1481 -16.1288 -16.1264 -16.0499 -15.9516
   -15.9489 -15.9455 -15.9413 -15.8811 -15.8527 -15.8391 -15.7987 -15.7435
   -15.7352 -15.7251 -15.7242 -15.6748 -15.6738 -15.6196 -15.5589 -15.5463
   -15.5441 -15.5423 -15.5287 -15.4486 -15.4156 -15.1588 -13.7338 -13.7321
    -9.0906  -5.2489  -3.6982  -3.6592  -3.3802  -3.3701  -3.3620  -3.3365
    -3.2483  -3.1566  -3.1331  -3.0992  -3.0705  -3.0636  -3.0616  -3.0243
    -3.0184  -2.9817  -2.9684  -2.9508  -2.9338  -2.8884  -2.8632  -2.8530
    -2.8418  -2.8321  -2.8238  -2.7924  -2.7795  -2.7665  -2.7462  -2.7427
    -2.5879  -2.5317  -2.4505  -2.4501  -2.3391  -2.3300  -2.3219  -2.3118
    -2.2847  -2.2770  -2.2443  -2.1076  -2.0428  -1.9415  -1.9289  -1.9215
    -1.8292  -1.7737  -1.6498  -1.6045  -1.5873  -1.5409  -1.4778  -1.4707
    -1.4403  -1.4338  -1.3249  -1.3015  -1.2749  -1.1989  -1.1906  -1.1850
    -1.0868  -1.0536  -1.0135  -0.9787  -0.9477  -0.9058  -0.8515  -0.8076
    -0.7822  -0.7465  -0.7387  -0.6563  -0.5838  -0.5281  -0.2640  -0.2084
    -0.1954  -0.1272  -0.0331   0.0313   0.0479   0.0971   0.1537   0.2126
     0.2631   0.3216   0.3243   0.3686   0.4150   1.1379   1.1389   1.2287
     1.2352   2.1442   3.0840   3.1920   3.2030   3.2517   3.3257   3.4177
     3.4281   3.4290   3.4317   3.6091

     the Fermi energy is     2.9025 ev

!    total energy              =   -2925.19967568 Ry
     estimated scf accuracy    <       0.00000007 Ry
     smearing contrib. (-TS)   =      -0.02326591 Ry
     internal energy E=F+TS    =   -2925.17640977 Ry

     The total energy is F=E-TS. E is the sum of the following terms:
     one-electron contribution =  -24764.15371104 Ry
     hartree contribution      =   12463.21471613 Ry
     xc contribution           =    -479.96359490 Ry
     ewald contribution        =    9855.72591716 Ry
     electric field correction =       0.00026287 Ry

     convergence has been achieved in  75 iterations

     Forces acting on atoms (cartesian axes, Ry/au):

     atom    1 type  1   force =     0.00007519   -0.00095774    0.11384411
     atom    2 type  1   force =    -0.00009386    0.00025861   -0.17943669
     atom    3 type  2   force =    -0.00000020   -0.00523810   -0.03559006
     atom    4 type  2   force =     0.00003610    0.00060763    0.04439372
     atom    5 type  2   force =    -0.02018648   -0.00081496    0.00349653
     atom    6 type  2   force =     0.02027692   -0.00038589    0.00350734
     atom    7 type  1   force =    -0.00022607    0.00018320    0.00021070
     atom    8 type  1   force =     0.00022290    0.00174188   -0.00007396
     atom    9 type  2   force =    -0.00005650    0.00026830   -0.00038356
     atom   10 type  2   force =    -0.00000898    0.00011688    0.00035290
     atom   11 type  2   force =    -0.00019986   -0.00002119    0.00029496
     atom   12 type  2   force =    -0.00007991   -0.00004276    0.00029835
     atom   13 type  1   force =     0.00032985    0.00056262    0.00078830
     atom   14 type  1   force =     0.00030570   -0.00004910    0.00120569
     atom   15 type  2   force =     0.00010080   -0.00028188   -0.00057870
     atom   16 type  2   force =     0.00001051   -0.00038518   -0.00101455
     atom   17 type  2   force =     0.00120851   -0.00023962   -0.00048149
     atom   18 type  2   force =    -0.00079586   -0.00029066   -0.00047916
     atom   19 type  1   force =    -0.00017399    0.00001014    0.00056648
     atom   20 type  1   force =    -0.00012874   -0.00011569    0.00042652
     atom   21 type  2   force =     0.00003864    0.00008235    0.10409341
     atom   22 type  2   force =    -0.00003224   -0.00018745    0.00058146
     atom   23 type  2   force =    -0.06903321    0.00034071   -0.03031111
     atom   24 type  2   force =     0.06890313    0.00077709   -0.03035170
     atom   25 type  1   force =     0.00016106    0.00086799    0.12100860
     atom   26 type  1   force =    -0.00010545    0.00040964   -0.17938535
     atom   27 type  2   force =     0.00002485    0.00096606   -0.03232568
     atom   28 type  2   force =     0.00003957    0.00070795    0.04484773
     atom   29 type  2   force =    -0.01921214    0.00046482    0.00324495
     atom   30 type  2   force =     0.01934081    0.00087852    0.00324224
     atom   31 type  1   force =    -0.00046078    0.00023928    0.00032223
     atom   32 type  1   force =     0.00023293    0.00062298   -0.00090256
     atom   33 type  2   force =    -0.00001513   -0.00008481   -0.00069119
     atom   34 type  2   force =    -0.00005878    0.00026482   -0.00016001
     atom   35 type  2   force =    -0.00034930    0.00016180   -0.00005580
     atom   36 type  2   force =     0.00004115    0.00014593   -0.00005670
     atom   37 type  1   force =     0.00044556    0.00017624   -0.00136280
     atom   38 type  1   force =     0.00033801    0.00038195    0.00128823
     atom   39 type  2   force =     0.00006905   -0.00005628    0.00017065
     atom   40 type  2   force =     0.00000516    0.00003481   -0.00036221
     atom   41 type  2   force =     0.00089862   -0.00034517    0.00009417
     atom   42 type  2   force =    -0.00031830   -0.00032804    0.00000476
     atom   43 type  1   force =    -0.00058700   -0.00012220    0.00064228
     atom   44 type  1   force =    -0.00040069   -0.00021122    0.00098304
     atom   45 type  2   force =     0.00004252    0.00005951    0.10415089
     atom   46 type  2   force =    -0.06883104   -0.00102400   -0.03036224
     atom   47 type  2   force =     0.06870923   -0.00058280   -0.03040322
     atom   48 type  3   force =    -0.00004613   -0.00147862    0.00037655
     atom   49 type  3   force =    -0.00000466    0.00019895   -0.00017526
     atom   50 type  4   force =    -0.00045152    0.00171267    0.00050720

     Total force =     0.379848     Total SCF correction =     0.000758
  @ DRIVER MODE: Message from server: STATUS
  @ DRIVER MODE: Message from server: GETFORCE
  @ DRIVER MODE: Returning v,forces,stress,ensemble

     Writing output data file ./calc.save/
  @ DRIVER MODE: Message from server: EXIT
  @ DRIVE MODE: Exiting

     General routines

     Parallel routines

   This run was terminated on:   9: 6:53  12Oct2021

   JOB DONE.