     Program PWSCF v.6.7GPU starts on 15Sep2021 at 16:55: 2

     R & G space division:  proc/nbgrp/npool/nimage =      10
     Reading input from /storage/home/hcoda1/3/ntian30/research/carbon/CxH_vib/H2O_calc/ads_slab/CH3N2HH2O_a/out_0004/pw.inp
Warning: card &CELL ignored
Warning: card   CELL_DYNAMICS='IPI', ignored
Warning: card / ignored

     Current dimensions of program PWSCF are:
     Max number of different atomic species (ntypx) = 10
     Max number of k-points (npk) =  40000
     Max angular momentum in pseudopotentials (lmaxx) =  3
     Presently no symmetry can be used with electric field

     Message from routine cell_base_init:
     DEPRECATED: use true lattice parameter, not A to a.u. conversion factor

     IMPORTANT: XC functional enforced from input :
     Exchange-correlation= BEEF-VDW
                           (   1   4  43  14   2   0   0)
     Any further DFT definition will be discarded
     Please, verify this is what you really want

  @ DRIVER MODE: Connecting to
 qe_1139763_2852617.sched-torque.pace.gatech.edukbbo3cie_scratch
  using UNIX socket
  @ DRIVER MODE: Message from server: STATUS
  @ DRIVER MODE: Message from server: INIT
  @ DRIVER MODE: Receiving replica           0          -1
  @ DRIVER MODE: Receiving encoded integer          25
  @ DRIVER MODE:  SCF:  T  FORCE:  T  STRESS:  F  VC:  F  ENSEMBLE:  F
  @ DRIVER MODE:  SCF:  T  FORCE:  T  STRESS:  F  VC:  F  ENSEMBLE:  F

     Using Slab Decomposition

     bravais-lattice index     =            0
     lattice parameter (alat)  =       1.8897  a.u.
     unit-cell volume          =    6658.9804 (a.u.)^3
     number of atoms/cell      =           57
     number of atomic types    =            5
     number of electrons       =       404.00
     number of Kohn-Sham states=          212
     kinetic-energy cutoff     =      29.3995  Ry
     charge density cutoff     =     293.9946  Ry
     scf convergence threshold =      7.3E-08
     mixing beta               =       0.0500
     number of iterations used =            8  plain     mixing
     Exchange-correlation= BEEF-VDW
                           (   1   4  43  14   2   0   0)

     celldm(1)=   1.889726  celldm(2)=   0.000000  celldm(3)=   0.000000
     celldm(4)=   0.000000  celldm(5)=   0.000000  celldm(6)=   0.000000

     crystal axes: (cart. coord. in units of alat)
               a(1) = (   6.579727   0.000000   0.000000 )
               a(2) = (  -0.000775   5.961596   0.000000 )
               a(3) = (   0.000000   0.000000  25.155947 )

     reciprocal axes: (cart. coord. in units 2 pi/alat)
               b(1) = (  0.151982  0.000020  0.000000 )
               b(2) = (  0.000000  0.167740  0.000000 )
               b(3) = (  0.000000  0.000000  0.039752 )

     PseudoPot. # 1 for Ti read from file:
     /storage/coda1/p-amedford6/0/shared/rich_project_chbe-medford/medford-share/data/pseudos_module/espresso/nninc/pbe/van/Ti.UPF
     MD5 check sum: 8e4df49b7f0d34bbd5052bf3f5ea0213
     Pseudo is Ultrasoft, Zval = 12.0
     Generated by new atomic code, or converted to UPF format
     Using radial grid of  851 points,  6 beta functions with:
                l(1) =   0
                l(2) =   0
                l(3) =   1
                l(4) =   1
                l(5) =   2
                l(6) =   2
     Q(r) pseudized with  8 coefficients,  rinner =    1.000   1.000   1.000
                                                       1.000   1.000

     PseudoPot. # 2 for O  read from file:
     /storage/coda1/p-amedford6/0/shared/rich_project_chbe-medford/medford-share/data/pseudos_module/espresso/nninc/pbe/van/O.UPF
     MD5 check sum: 78c19812648e8988a0fe644b0f25305e
     Pseudo is Ultrasoft, Zval =  6.0
     Generated by new atomic code, or converted to UPF format
     Using radial grid of  737 points,  4 beta functions with:
                l(1) =   0
                l(2) =   0
                l(3) =   1
                l(4) =   1
     Q(r) pseudized with  8 coefficients,  rinner =    0.800   0.800   0.800

     PseudoPot. # 3 for N  read from file:
     /storage/coda1/p-amedford6/0/shared/rich_project_chbe-medford/medford-share/data/pseudos_module/espresso/nninc/pbe/van/N.UPF
     MD5 check sum: 90d10febe142ad51ac9d5be1deb811c4
     Pseudo is Ultrasoft, Zval =  5.0
     Generated by new atomic code, or converted to UPF format
     Using radial grid of  729 points,  4 beta functions with:
                l(1) =   0
                l(2) =   0
                l(3) =   1
                l(4) =   1
     Q(r) pseudized with  8 coefficients,  rinner =    0.800   0.800   0.800

     PseudoPot. # 4 for C  read from file:
     /storage/coda1/p-amedford6/0/shared/rich_project_chbe-medford/medford-share/data/pseudos_module/espresso/nninc/pbe/van/C.UPF
     MD5 check sum: 1a69bf6b8db32088f5b2163dbdb77a27
     Pseudo is Ultrasoft, Zval =  4.0
     Generated by new atomic code, or converted to UPF format
     Using radial grid of  721 points,  4 beta functions with:
                l(1) =   0
                l(2) =   0
                l(3) =   1
                l(4) =   1
     Q(r) pseudized with  8 coefficients,  rinner =    0.800   0.800   0.800

     PseudoPot. # 5 for H  read from file:
     /storage/coda1/p-amedford6/0/shared/rich_project_chbe-medford/medford-share/data/pseudos_module/espresso/nninc/pbe/van/H.UPF
     MD5 check sum: b5ee9d7bfd3a09ee7748110bda690ff7
     Pseudo is Ultrasoft, Zval =  1.0
     Generated by new atomic code, or converted to UPF format
     Using radial grid of  615 points,  1 beta functions with:
                l(1) =   0
     Q(r) pseudized with  8 coefficients,  rinner =    0.800

     atomic species   valence    mass     pseudopotential
        Ti1           12.00    47.86700     Ti( 1.00)
        O1             6.00    15.99900     O ( 1.00)
        N1             5.00    14.00700     N ( 1.00)
        C1             4.00    12.01100     C ( 1.00)
        H1             1.00     1.00800     H ( 1.00)

     No symmetry found

   Cartesian axes

     site n.     atom                  positions (alat units)
         1           Ti1 tau(   1) = (   0.0004258   2.9801865   6.0000000  )
         2           Ti1 tau(   2) = (   3.2906075   1.4906267   6.0002472  )
         3           O1  tau(   3) = (   0.0006271   0.0005054   7.9858123  )
         4           O1  tau(   4) = (   3.2906025   0.0005020   7.3038282  )
         5           O1  tau(   5) = (   4.5942328   1.4918067   9.2879030  )
         6           O1  tau(   6) = (   1.9868534   1.4903216   9.2879459  )
         7           Ti1 tau(   7) = (   3.2907910   2.8959150   9.1758416  )
         8           Ti1 tau(   8) = (   0.0015273   1.4827037   9.2680791  )
         9           O1  tau(   9) = (   3.2846840   0.0164488  11.3171736  )
        10           O1  tau(  10) = (   0.0116148   5.9584955  10.6183126  )
        11           O1  tau(  11) = (   1.2780696   1.4966870  12.6228330  )
        12           O1  tau(  12) = (   5.2671132   1.5021727  12.6038655  )
        13           Ti1 tau(  13) = (   0.0814623   2.9703834  12.6092300  )
        14           Ti1 tau(  14) = (   3.3984034   1.5042134  12.4754612  )
        15           O1  tau(  15) = (   6.5611900   5.9602394  14.6246442  )
        16           O1  tau(  16) = (   3.2847170   0.0117735  13.9091713  )
        17           O1  tau(  17) = (   4.5127615   1.5439160  15.9886145  )
        18           O1  tau(  18) = (   2.0245574   1.5486524  15.9865356  )
        19           Ti1 tau(  19) = (   3.2678410   3.0292036  15.6627315  )
        20           Ti1 tau(  20) = (   6.5437773   1.5790868  15.8036792  )
        21           O1  tau(  21) = (   3.2904802   0.0005063   4.7018136  )
        22           O1  tau(  22) = (   6.5616667   0.0409992  17.2467836  )
        23           O1  tau(  23) = (   1.3043587   1.4918075   6.0039043  )
        24           O1  tau(  24) = (   5.2767064   1.4903225   6.0039473  )
        25           Ti1 tau(  25) = (   0.0000382   5.9609847   6.0000000  )
        26           Ti1 tau(  26) = (   3.2902200   4.4714249   6.0002472  )
        27           O1  tau(  27) = (   0.0002396   2.9813036   7.9858123  )
        28           O1  tau(  28) = (   3.2902150   2.9813002   7.3038282  )
        29           O1  tau(  29) = (   4.5938453   4.4726049   9.2879030  )
        30           O1  tau(  30) = (   1.9864658   4.4711199   9.2879459  )
        31           Ti1 tau(  31) = (   3.2891106   5.8743827   9.1763621  )
        32           Ti1 tau(  32) = (   0.0006254   4.4649316   9.2693709  )
        33           O1  tau(  33) = (   3.2886753   2.9955121  11.3174028  )
        34           O1  tau(  34) = (   0.0092240   2.9805883  10.6323155  )
        35           O1  tau(  35) = (   1.2771457   4.4765085  12.6200386  )
        36           O1  tau(  36) = (   5.2716127   4.4859779  12.5990880  )
        37           Ti1 tau(  37) = (   0.0719143   5.9417653  12.6408960  )
        38           Ti1 tau(  38) = (   3.4009286   4.4967646  12.4819834  )
        39           O1  tau(  39) = (   6.5633752   2.9851081  14.6229342  )
        40           O1  tau(  40) = (   3.2806164   3.0132077  13.8636590  )
        41           O1  tau(  41) = (   4.5054435   4.4842064  16.0752605  )
        42           O1  tau(  42) = (   2.0287922   4.4846499  16.0567397  )
        43           Ti1 tau(  43) = (   3.2585180   0.0608266  15.7494983  )
        44           Ti1 tau(  44) = (   6.5556145   4.6328118  16.1363011  )
        45           O1  tau(  45) = (   3.2900926   2.9813045   4.7018136  )
        46           O1  tau(  46) = (   1.3039711   4.4726057   6.0039043  )
        47           O1  tau(  47) = (   5.2763189   4.4711207   6.0039473  )
        48           N1  tau(  48) = (   6.4582227   2.6363240  18.5734135  )
        49           N1  tau(  49) = (   6.5493832   2.9496485  17.3103279  )
        50           C1  tau(  50) = (   0.1600853   3.5596473  19.6455425  )
        51           H1  tau(  51) = (   6.1911903   4.4878083  19.4849519  )
        52           H1  tau(  52) = (   6.4401482   3.1080517  20.5902855  )
        53           H1  tau(  53) = (   1.2308410   3.8049764  19.6956042  )
        54           H1  tau(  54) = (   6.5044843   1.6253530  18.7706356  )
        55           O1  tau(  55) = (   3.2415852   0.0755412  18.2049893  )
        56           H1  tau(  56) = (   4.0109045   5.4607113  18.3409029  )
        57           H1  tau(  57) = (   2.4534619   5.4803556  18.3240773  )

     number of k points=    10  Fermi-Dirac smearing, width (Ry)=  0.0073
                       cart. coord. in units 2pi/alat
        k(    1) = (   0.0000000   0.0000000   0.0000000), wk =   0.1250000
        k(    2) = (   0.0000000   0.0419351   0.0000000), wk =   0.2500000
        k(    3) = (   0.0000000  -0.0838702   0.0000000), wk =   0.1250000
        k(    4) = (   0.0379955   0.0000049   0.0000000), wk =   0.2500000
        k(    5) = (   0.0379955   0.0419400   0.0000000), wk =   0.2500000
        k(    6) = (   0.0379955  -0.0838652   0.0000000), wk =   0.2500000
        k(    7) = (   0.0379955  -0.0419301   0.0000000), wk =   0.2500000
        k(    8) = (  -0.0759910  -0.0000099   0.0000000), wk =   0.1250000
        k(    9) = (  -0.0759910   0.0419252   0.0000000), wk =   0.2500000
        k(   10) = (  -0.0759910  -0.0838800   0.0000000), wk =   0.1250000

     Initial potential from superposition of free atoms

     starting charge  387.99913, renormalised to  404.00000

     negative rho (up, down):  1.445E-02 0.000E+00

     %%%%%%%%%%%%%%%%%%%%%%%%%%%%%%%%%%%%%%%%%%%%%%%%%%%%%%%%%%%%%%%%%%%%%%%%
     %                                                                      %
     % You are using vdW-DF, which was implemented by the Thonhauser group. %
     % Please cite the following two papers that made this development      %
     % possible and the two reviews that describe the various versions:     %
     %                                                                      %
     %   T. Thonhauser et al., PRL 115, 136402 (2015).                      %
     %   T. Thonhauser et al., PRB 76, 125112 (2007).                       %
     %   K. Berland et al., Rep. Prog. Phys. 78, 066501 (2015).             %
     %   D.C. Langreth et al., J. Phys.: Condens. Matter 21, 084203 (2009). %
     %                                                                      %
     %                                                                      %
     % If you are calculating the stress with vdW-DF, please also cite:     %
     %                                                                      %
     %   R. Sabatini et al., J. Phys.: Condens. Matter 24, 424209 (2012).   %
     %                                                                      %
     %%%%%%%%%%%%%%%%%%%%%%%%%%%%%%%%%%%%%%%%%%%%%%%%%%%%%%%%%%%%%%%%%%%%%%%%

     Adding external electric field

     Computed dipole along edir(3) :
        Dipole              -13.5668 Ry au,        -34.4835 Debye
        Dipole field         -0.0256 Ry au,

        Potential amp.        2.3733 Ry
        Total length         46.3494 bohr

     Starting wfcs are  306 atomic wfcs
  @ DRIVER MODE: Message from server: STATUS
  @ DRIVER MODE: Message from server: POSDATA
  @ DRIVER MODE: Reading and sharing cell
  @ DRIVER MODE: Reading and sharing positions
  @ DRIVER MODE: Received positions

     Self-consistent Calculation

     iteration #  1     ecut=    29.40 Ry     beta= 0.05
     Davidson diagonalization with overlap
     c_bands:  4 eigenvalues not converged
     c_bands:  4 eigenvalues not converged
     c_bands:  4 eigenvalues not converged
     c_bands:  4 eigenvalues not converged
     c_bands:  3 eigenvalues not converged
     c_bands:  3 eigenvalues not converged
     ethr =  1.00E-05,  avg # of iterations = 25.3

[...]

     total energy              =   -2340.59703689 Ry
     estimated scf accuracy    <    7235.74237260 Ry

     iteration #  2     ecut=    29.40 Ry     beta= 0.05
     Davidson diagonalization with overlap
     ethr =  1.00E-02,  avg # of iterations = 23.4

[...]

     iteration # 53     ecut=    29.40 Ry     beta= 0.05
     Davidson diagonalization with overlap
     c_bands:  1 eigenvalues not converged
     ethr =  2.92E-10,  avg # of iterations =  8.2

[...]

     total energy              =   -2975.23022269 Ry
     estimated scf accuracy    <       0.00000012 Ry

     iteration # 58     ecut=    29.40 Ry     beta= 0.05
     Davidson diagonalization with overlap
     ethr =  3.01E-11,  avg # of iterations =  3.1

     negative rho (up, down):  1.507E-02 0.000E+00

     Adding external electric field

     Computed dipole along edir(3) :
        Dipole                1.1637 Ry au,          2.9578 Debye
        Dipole field          0.0022 Ry au,

        Potential amp.       -0.2036 Ry
        Total length         46.3494 bohr

     End of self-consistent calculation

          k = 0.0000 0.0000 0.0000 ( 18029 PWs)   bands (ev):

   -55.5014 -55.4674 -55.3298 -55.2933 -55.2587 -55.2250 -55.1994 -55.1978
   -55.1841 -55.1618 -55.1498 -55.0132 -54.5526 -54.4321 -54.3981 -54.3880
   -31.9744 -31.8651 -31.7956 -31.7807 -31.7176 -31.7095 -31.6732 -31.6548
   -31.6189 -31.6033 -31.5968 -31.5710 -31.5604 -31.5163 -31.5090 -31.4980
   -31.4798 -31.4775 -31.4528 -31.4345 -31.4243 -31.4139 -31.4106 -31.3947
   -31.3888 -31.3813 -31.3715 -31.3642 -31.3627 -31.3606 -31.3379 -31.3271
   -31.3146 -31.2966 -31.2053 -31.1782 -31.0464 -30.8372 -30.7769 -30.7623
   -30.7539 -30.7312 -30.7239 -30.6541 -30.5984 -30.5680 -30.5676 -30.4569
   -18.7912 -17.7875 -16.0710 -15.8786 -15.6064 -15.4852 -15.4564 -15.2724
   -15.1959 -15.1436 -15.0113 -14.9654 -14.9351 -14.9059 -14.8922 -14.8354
   -14.8088 -14.7817 -14.7546 -14.7473 -14.7277 -14.7079 -14.6673 -14.6062
   -14.5830 -14.5209 -14.4706 -14.4486 -14.3583 -14.3515 -13.9301 -12.9337
   -12.8181 -11.9537  -8.7479  -6.5611  -5.6290  -4.3432  -4.1187  -3.4557
    -3.3793  -3.3210  -3.2054  -3.1270  -2.9863  -2.9506  -2.8775  -2.7753
    -2.6017  -2.5439  -2.5188  -2.4892  -2.4053  -2.2709  -2.2591  -2.2124
    -2.1837  -2.1630  -2.1495  -2.1328  -2.0390  -1.9991  -1.9614  -1.8558
    -1.8176  -1.7916  -1.7760  -1.7674  -1.7518  -1.6862  -1.6547  -1.6361
    -1.6251  -1.5876  -1.5546  -1.5453  -1.4145  -1.3957  -1.2796  -1.1530
    -1.1280  -1.0705  -1.0433  -0.8841  -0.8799  -0.8593  -0.8161  -0.8084
    -0.7375  -0.6638  -0.6245  -0.5469  -0.4295  -0.4192  -0.3857  -0.2388
    -0.2355  -0.2123  -0.1738  -0.1625  -0.1131  -0.1044  -0.0574   0.0021
     0.0994   0.1686   0.2743   0.2786   0.3305   0.3706   0.3822   0.4404
     0.4580   0.5076   0.5197   0.5271   0.5788   0.6134   0.6262   0.6827
     0.7341   0.8518   0.9211   0.9465   0.9926   1.1153   1.1909   1.2370
     1.2432   1.4108   1.5352   1.5580   1.5902   1.7904   1.8210   2.1571
     2.2009   3.6725   3.6890   3.7789   3.8378   3.9517   4.0227   4.1123
     4.1887   4.2604   4.3532   4.4117

[...]

          k = 0.0380-0.0419 0.0000 ( 17876 PWs)   bands (ev):

[...]

          k =-0.0760-0.0000 0.0000 ( 17886 PWs)   bands (ev):

[...]

          k =-0.0760-0.0839 0.0000 ( 17948 PWs)   bands (ev):

   -55.4845 -55.4841 -55.3152 -55.3076 -55.2418 -55.2416 -55.1961 -55.1879
   -55.1732 -55.1702 -55.1637 -55.0148 -54.5511 -54.4151 -54.4149 -54.3894
   -31.7899 -31.7898 -31.7809 -31.7808 -31.6782 -31.6610 -31.6056 -31.6051
   -31.5675 -31.5630 -31.5594 -31.5538 -31.5512 -31.5463 -31.5131 -31.5081
   -31.4871 -31.4796 -31.4756 -31.4696 -31.4351 -31.4328 -31.4247 -31.4221
   -31.4121 -31.4116 -31.3984 -31.3963 -31.3924 -31.3866 -31.3856 -31.3797
   -31.3530 -31.3288 -31.3152 -31.2130 -30.9561 -30.8000 -30.7654 -30.7456
   -30.7440 -30.7439 -30.6503 -30.6502 -30.6172 -30.6111 -30.6111 -30.5985
   -18.7902 -17.7817 -15.4949 -15.4283 -15.3567 -15.3527 -15.2486 -15.1956
   -15.1006 -15.0904 -15.0833 -15.0803 -14.9789 -14.9756 -14.9111 -14.9021
   -14.8630 -14.8550 -14.8515 -14.8349 -14.8213 -14.8152 -14.8013 -14.7557
   -14.7354 -14.7296 -14.5669 -14.5427 -14.4269 -14.4091 -14.0546 -12.9203
   -12.9201 -11.9551  -8.7586  -6.5449  -5.6207  -4.2945  -4.1381  -2.9257
    -2.9175  -2.7861  -2.6594  -2.5250  -2.5127  -2.4926  -2.4560  -2.2893
    -2.2767  -2.2610  -2.2513  -2.2106  -2.1991  -2.1803  -2.1663  -2.1124
    -2.0951  -2.0754  -2.0717  -2.0606  -2.0559  -2.0443  -2.0355  -2.0267
    -2.0028  -1.9575  -1.9359  -1.8554  -1.7692  -1.7595  -1.6829  -1.5517
    -1.5445  -1.5323  -1.5307  -1.5192  -1.5096  -1.4685  -1.4348  -1.3780
    -1.2727  -1.1515  -1.0988  -1.0806  -1.0281  -1.0079  -0.9191  -0.8386
    -0.8030  -0.7847  -0.6995  -0.6506  -0.5725  -0.5574  -0.5203  -0.4699
    -0.4451  -0.4313  -0.4140  -0.4060  -0.3450  -0.3009  -0.2327  -0.2191
    -0.1619  -0.1308  -0.1029  -0.0802  -0.0390   0.0548   0.0622   0.0881
     0.1178   0.1328   0.2058   0.3573   0.3978   0.6379   0.6473   0.7171
     0.8460   0.8703   0.8771   0.9522   0.9656   1.0024   1.0242   1.1457
     1.1689   1.1903   1.3211   1.3562   1.4427   1.9600   1.9609   2.0199
     2.0204   3.5357   4.1355   4.1457   4.1632   4.1767   4.2025   4.2089
     4.2503   4.2637   4.3975   4.4189

     the Fermi energy is     3.6484 ev

!    total energy              =   -2975.23028011 Ry
     estimated scf accuracy    <       0.00000007 Ry
     smearing contrib. (-TS)   =      -0.02111211 Ry
     internal energy E=F+TS    =   -2975.20916800 Ry

     The total energy is F=E-TS. E is the sum of the following terms:
     one-electron contribution =  -23878.78388558 Ry
     hartree contribution      =   12036.82460723 Ry
     xc contribution           =    -494.92818522 Ry
     ewald contribution        =    9361.67574002 Ry
     electric field correction =       0.00255555 Ry

     convergence has been achieved in  58 iterations

     Forces acting on atoms (cartesian axes, Ry/au):

     atom    1 type  1   force =     0.00017372   -0.00022625    0.09947591
     atom    2 type  1   force =    -0.00013942   -0.00038142   -0.17307437
     atom    3 type  2   force =    -0.00006609   -0.00000212   -0.02912110
     atom    4 type  2   force =     0.00003844   -0.00102591    0.04891988
     atom    5 type  2   force =    -0.01225538    0.00099334    0.00049447
     atom    6 type  2   force =     0.01356268    0.00186568   -0.00109923
     atom    7 type  1   force =    -0.00136260   -0.00050880   -0.00303991
     atom    8 type  1   force =     0.00093895   -0.00609417    0.04537321
     atom    9 type  2   force =     0.00000172   -0.00023361    0.00003239
     atom   10 type  2   force =    -0.00155425    0.00262080   -0.03088962
     atom   11 type  2   force =    -0.00016773   -0.00045435    0.00006030
     atom   12 type  2   force =     0.00009353   -0.00023835    0.00016499
     atom   13 type  1   force =    -0.00019925   -0.00054067   -0.00049443
     atom   14 type  1   force =     0.00031042   -0.00017138    0.00015369
     atom   15 type  2   force =    -0.00000325    0.00006833   -0.00013520
     atom   16 type  2   force =    -0.00022094    0.00004784    0.00023914
     atom   17 type  2   force =     0.00021093   -0.00025713    0.00021585
     atom   18 type  2   force =    -0.00008179   -0.00032518    0.00007844
     atom   19 type  1   force =     0.00007124   -0.00020043    0.00020067
     atom   20 type  1   force =    -0.00005145   -0.00072883    0.00031681
     atom   21 type  2   force =     0.00008310   -0.00000642    0.10260026
     atom   22 type  2   force =     0.00008322    0.00004442    0.00030133
     atom   23 type  2   force =    -0.07249174   -0.00008972   -0.02847252
     atom   24 type  2   force =     0.07245461    0.00034598   -0.02845395
     atom   25 type  1   force =     0.00009175   -0.00026311    0.09897260
     atom   26 type  1   force =    -0.00005754   -0.00041767   -0.17324998
     atom   27 type  2   force =    -0.00003287    0.00000407   -0.02842743
     atom   28 type  2   force =     0.00009497   -0.00075897    0.04808409
     atom   29 type  2   force =    -0.01262408    0.00063075    0.00053005
     atom   30 type  2   force =     0.01386140    0.00095857   -0.00103804
     atom   31 type  1   force =    -0.00146843    0.00227366   -0.00576999
     atom   32 type  1   force =     0.00112691    0.00383593    0.04589345
     atom   33 type  2   force =    -0.00006039   -0.00026516   -0.00005228
     atom   34 type  2   force =    -0.00096350    0.00134290   -0.03374185
     atom   35 type  2   force =    -0.00028108    0.00004670   -0.00022508
     atom   36 type  2   force =     0.00050002    0.00010286   -0.00001607
     atom   37 type  1   force =    -0.00031847    0.00007609    0.00006567
     atom   38 type  1   force =     0.00019105   -0.00029043   -0.00004736
     atom   39 type  2   force =     0.00003289   -0.00048073    0.00050449
     atom   40 type  2   force =    -0.00005327    0.00017227   -0.00017192
     atom   41 type  2   force =    -0.00004288   -0.00027669    0.00015646
     atom   42 type  2   force =     0.00015807   -0.00019805    0.00001937
     atom   43 type  1   force =     0.00009071    0.00004412   -0.00027684
     atom   44 type  1   force =     0.00002258    0.00008496   -0.00065194
     atom   45 type  2   force =     0.00009311   -0.00001202    0.10259670
     atom   46 type  2   force =    -0.07251510   -0.00001103   -0.02846439
     atom   47 type  2   force =     0.07246949    0.00037608   -0.02845786
     atom   48 type  3   force =    -0.00147662   -0.02606761    0.00079515
     atom   49 type  3   force =     0.00058253    0.00351891   -0.00287035
     atom   50 type  4   force =     0.00102342    0.00586027    0.00227625
     atom   51 type  5   force =     0.00055985    0.00093797    0.00129826
     atom   52 type  5   force =    -0.00024686   -0.00014373   -0.00028564
     atom   53 type  5   force =     0.00048911    0.00036501    0.00063025
     atom   54 type  5   force =    -0.00060516    0.01361810   -0.00155174
     atom   55 type  2   force =     0.00062353    0.00060206   -0.00023386
     atom   56 type  5   force =    -0.00019318   -0.00037288   -0.00024681
     atom   57 type  5   force =    -0.00050061    0.00020515    0.00010962

     Total force =     0.373289     Total SCF correction =     0.000777
  @ DRIVER MODE: Message from server: STATUS
  @ DRIVER MODE: Message from server: GETFORCE
  @ DRIVER MODE: Returning v,forces,stress,ensemble

     Writing output data file ./calc.save/
  @ DRIVER MODE: Message from server: EXIT
  @ DRIVE MODE: Exiting

     General routines

     Parallel routines

   This run was terminated on:  17:11: 8  15Sep2021

   JOB DONE.