     Program PWSCF v.6.7GPU starts on 12Oct2021 at 12:44:31

     R & G space division:  proc/nbgrp/npool/nimage =       8
     Reading input from /storage/home/hcoda1/3/ntian30/research/carbon/ACS_vib/ads_slab/H2NNH2/out_0007/pw.inp
Warning: card &CELL ignored
Warning: card   CELL_DYNAMICS='IPI', ignored
Warning: card / ignored

     Current dimensions of program PWSCF are:
     Max number of different atomic species (ntypx) = 10
     Max number of k-points (npk) =  40000
     Max angular momentum in pseudopotentials (lmaxx) =  3
     Presently no symmetry can be used with electric field

     Message from routine cell_base_init:
     DEPRECATED: use true lattice parameter, not A to a.u. conversion factor

     IMPORTANT: XC functional enforced from input :
     Exchange-correlation= BEEF-VDW
                           (   1   4  43  14   2   0   0)
     Any further DFT definition will be discarded
     Please, verify this is what you really want

  @ DRIVER MODE: Connecting to
 qe_1139763_3181310.sched-torque.pace.gatech.edu9yetm3t8_scratch
  using UNIX socket
  @ DRIVER MODE: Message from server: STATUS
  @ DRIVER MODE: Message from server: INIT
  @ DRIVER MODE: Receiving replica           0          -1
  @ DRIVER MODE: Receiving encoded integer          25
  @ DRIVER MODE:  SCF:  T  FORCE:  T  STRESS:  F  VC:  F  ENSEMBLE:  F
  @ DRIVER MODE:  SCF:  T  FORCE:  T  STRESS:  F  VC:  F  ENSEMBLE:  F

     Using Slab Decomposition

     bravais-lattice index     =            0
     lattice parameter (alat)  =       1.8897  a.u.
     unit-cell volume          =    6658.9804 (a.u.)^3
     number of atoms/cell      =           53
     number of atomic types    =            4
     number of electrons       =       392.00
     number of Kohn-Sham states=          206
     kinetic-energy cutoff     =      29.3995  Ry
     charge density cutoff     =     293.9946  Ry
     scf convergence threshold =      7.3E-08
     mixing beta               =       0.0500
     number of iterations used =            8  plain     mixing
     Exchange-correlation= BEEF-VDW
                           (   1   4  43  14   2   0   0)

     celldm(1)=   1.889726  celldm(2)=   0.000000  celldm(3)=   0.000000
     celldm(4)=   0.000000  celldm(5)=   0.000000  celldm(6)=   0.000000

     crystal axes: (cart. coord. in units of alat)
               a(1) = (   6.579727   0.000000   0.000000 )
               a(2) = (  -0.000775   5.961596   0.000000 )
               a(3) = (   0.000000   0.000000  25.155947 )

     reciprocal axes: (cart. coord. in units 2 pi/alat)
               b(1) = (  0.151982  0.000020  0.000000 )
               b(2) = (  0.000000  0.167740  0.000000 )
               b(3) = (  0.000000  0.000000  0.039752 )

     PseudoPot. # 1 for Ti read from file:
     /storage/coda1/p-amedford6/0/shared/rich_project_chbe-medford/medford-share/data/pseudos_module/espresso/nninc/pbe/van/Ti.UPF
     MD5 check sum: 8e4df49b7f0d34bbd5052bf3f5ea0213
     Pseudo is Ultrasoft, Zval = 12.0
     Generated by new atomic code, or converted to UPF format
     Using radial grid of  851 points,  6 beta functions with:
                l(1) =   0
                l(2) =   0
                l(3) =   1
                l(4) =   1
                l(5) =   2
                l(6) =   2
     Q(r) pseudized with  8 coefficients,  rinner =    1.000   1.000   1.000
                                                       1.000   1.000

     PseudoPot. # 2 for O  read from file:
     /storage/coda1/p-amedford6/0/shared/rich_project_chbe-medford/medford-share/data/pseudos_module/espresso/nninc/pbe/van/O.UPF
     MD5 check sum: 78c19812648e8988a0fe644b0f25305e
     Pseudo is Ultrasoft, Zval =  6.0
     Generated by new atomic code, or converted to UPF format
     Using radial grid of  737 points,  4 beta functions with:
                l(1) =   0
                l(2) =   0
                l(3) =   1
                l(4) =   1
     Q(r) pseudized with  8 coefficients,  rinner =    0.800   0.800   0.800

     PseudoPot. # 3 for H  read from file:
     /storage/coda1/p-amedford6/0/shared/rich_project_chbe-medford/medford-share/data/pseudos_module/espresso/nninc/pbe/van/H.UPF
     MD5 check sum: b5ee9d7bfd3a09ee7748110bda690ff7
     Pseudo is Ultrasoft, Zval =  1.0
     Generated by new atomic code, or converted to UPF format
     Using radial grid of  615 points,  1 beta functions with:
                l(1) =   0
     Q(r) pseudized with  8 coefficients,  rinner =    0.800

     PseudoPot. # 4 for N  read from file:
     /storage/coda1/p-amedford6/0/shared/rich_project_chbe-medford/medford-share/data/pseudos_module/espresso/nninc/pbe/van/N.UPF
     MD5 check sum: 90d10febe142ad51ac9d5be1deb811c4
     Pseudo is Ultrasoft, Zval =  5.0
     Generated by new atomic code, or converted to UPF format
     Using radial grid of  729 points,  4 beta functions with:
                l(1) =   0
                l(2) =   0
                l(3) =   1
                l(4) =   1
     Q(r) pseudized with  8 coefficients,  rinner =    0.800   0.800   0.800

     atomic species   valence    mass     pseudopotential
        Ti1           12.00    47.86700     Ti( 1.00)
        O1             6.00    15.99900     O ( 1.00)
        H1             1.00     1.00800     H ( 1.00)
        N1             5.00    14.00700     N ( 1.00)

     No symmetry found

   Cartesian axes

     site n.     atom                  positions (alat units)
         1           Ti1 tau(   1) = (   0.0004258   2.9801865   6.0000000  )
         2           Ti1 tau(   2) = (   3.2906075   1.4906267   6.0002472  )
         3           O1  tau(   3) = (   0.0006271   0.0005054   7.9858123  )
         4           O1  tau(   4) = (   3.2906025   0.0005020   7.3038282  )
         5           O1  tau(   5) = (   4.5942328   1.4918067   9.2879030  )
         6           O1  tau(   6) = (   1.9868534   1.4903216   9.2879459  )
         7           Ti1 tau(   7) = (   3.2907910   2.8959150   9.1758416  )
         8           Ti1 tau(   8) = (   0.0001184   1.4796821   9.2618995  )
         9           O1  tau(   9) = (   3.3033009   5.9571037  11.3689245  )
        10           O1  tau(  10) = (   0.0046093   5.9606512  10.6148452  )
        11           O1  tau(  11) = (   1.3031693   1.4924284  12.6635891  )
        12           O1  tau(  12) = (   5.3048943   1.4931164  12.6630676  )
        13           Ti1 tau(  13) = (   0.0220873   2.9701805  12.5026553  )
        14           Ti1 tau(  14) = (   3.3209497   1.4853901  12.5165241  )
        15           O1  tau(  15) = (   0.0111090   5.9548334  14.6950652  )
        16           O1  tau(  16) = (   3.3059555   5.9578033  13.9930857  )
        17           O1  tau(  17) = (   4.5400856   1.4977043  16.1996482  )
        18           O1  tau(  18) = (   2.0449602   1.5055634  16.1912035  )
        19           Ti1 tau(  19) = (   3.3033294   2.9754315  15.7369611  )
        20           Ti1 tau(  20) = (   0.0669189   1.3514287  15.9855452  )
        21           O1  tau(  21) = (   3.2904802   0.0005063   4.7018136  )
        22           O1  tau(  22) = (   0.0169155   5.9572437  17.2386537  )
        23           O1  tau(  23) = (   1.3043587   1.4918075   6.0039043  )
        24           O1  tau(  24) = (   5.2767064   1.4903225   6.0039473  )
        25           Ti1 tau(  25) = (   0.0000382   5.9609847   6.0000000  )
        26           Ti1 tau(  26) = (   3.2902200   4.4714249   6.0002472  )
        27           O1  tau(  27) = (   0.0002396   2.9813036   7.9858123  )
        28           O1  tau(  28) = (   3.2902150   2.9813002   7.3038282  )
        29           O1  tau(  29) = (   4.5938453   4.4726049   9.2879030  )
        30           O1  tau(  30) = (   1.9864658   4.4711199   9.2879459  )
        31           Ti1 tau(  31) = (   3.2891106   5.8743827   9.1763621  )
        32           Ti1 tau(  32) = (  -0.0005703   4.4645639   9.2621285  )
        33           O1  tau(  33) = (   3.3036452   2.9764387  11.3618117  )
        34           O1  tau(  34) = (   0.0064946   2.9800876  10.6274040  )
        35           O1  tau(  35) = (   1.3025983   4.4627906  12.6614389  )
        36           O1  tau(  36) = (   5.3044333   4.4622094  12.6652126  )
        37           Ti1 tau(  37) = (   0.0242538   5.9517307  12.5043500  )
        38           Ti1 tau(  38) = (   3.3173473   4.4639239  12.5158395  )
        39           O1  tau(  39) = (   0.0133908   2.9741471  14.9664594  )
        40           O1  tau(  40) = (   3.3068033   2.9766936  13.9537582  )
        41           O1  tau(  41) = (   4.5624531   4.4468677  16.1922021  )
        42           O1  tau(  42) = (   2.0658021   4.4533190  16.1937748  )
        43           Ti1 tau(  43) = (   3.3070936   5.9559909  15.7859554  )
        44           Ti1 tau(  44) = (   6.5464735   4.5686029  15.9538643  )
        45           O1  tau(  45) = (   3.2900926   2.9813045   4.7018136  )
        46           O1  tau(  46) = (   1.3039711   4.4726057   6.0039043  )
        47           O1  tau(  47) = (   5.2763189   4.4711207   6.0039473  )
        48           H1  tau(  48) = (   6.1991321   4.2482542  18.7414658  )
        49           H1  tau(  49) = (   1.1183133   3.8395711  18.1715982  )
        50           N1  tau(  50) = (   0.1317752   3.6792193  18.0720352  )
        51           N1  tau(  51) = (   6.4315599   2.2892659  18.0961467  )
        52           H1  tau(  52) = (   5.4285218   2.1347736  18.1483859  )
        53           H1  tau(  53) = (   0.3235236   1.7579878  18.8239140  )

     number of k points=    10  Fermi-Dirac smearing, width (Ry)=  0.0073
                       cart. coord. in units 2pi/alat
        k(    1) = (   0.0000000   0.0000000   0.0000000), wk =   0.1250000
        k(    2) = (   0.0000000   0.0419351   0.0000000), wk =   0.2500000
        k(    3) = (   0.0000000  -0.0838702   0.0000000), wk =   0.1250000
        k(    4) = (   0.0379955   0.0000049   0.0000000), wk =   0.2500000
        k(    5) = (   0.0379955   0.0419400   0.0000000), wk =   0.2500000
        k(    6) = (   0.0379955  -0.0838652   0.0000000), wk =   0.2500000
        k(    7) = (   0.0379955  -0.0419301   0.0000000), wk =   0.2500000
        k(    8) = (  -0.0759910  -0.0000099   0.0000000), wk =   0.1250000
        k(    9) = (  -0.0759910   0.0419252   0.0000000), wk =   0.2500000
        k(   10) = (  -0.0759910  -0.0838800   0.0000000), wk =   0.1250000

     Initial potential from superposition of free atoms

     starting charge  375.99919, renormalised to  392.00000

     negative rho (up, down):  1.865E-02 0.000E+00

     %%%%%%%%%%%%%%%%%%%%%%%%%%%%%%%%%%%%%%%%%%%%%%%%%%%%%%%%%%%%%%%%%%%%%%%%
     %                                                                      %
     % You are using vdW-DF, which was implemented by the Thonhauser group. %
     % Please cite the following two papers that made this development      %
     % possible and the two reviews that describe the various versions:     %
     %                                                                      %
     %   T. Thonhauser et al., PRL 115, 136402 (2015).                      %
     %   T. Thonhauser et al., PRB 76, 125112 (2007).                       %
     %   K. Berland et al., Rep. Prog. Phys. 78, 066501 (2015).             %
     %   D.C. Langreth et al., J. Phys.: Condens. Matter 21, 084203 (2009). %
     %                                                                      %
     %                                                                      %
     % If you are calculating the stress with vdW-DF, please also cite:     %
     %                                                                      %
     %   R. Sabatini et al., J. Phys.: Condens. Matter 24, 424209 (2012).   %
     %                                                                      %
     %%%%%%%%%%%%%%%%%%%%%%%%%%%%%%%%%%%%%%%%%%%%%%%%%%%%%%%%%%%%%%%%%%%%%%%%

     Adding external electric field

     Computed dipole along edir(3) :
        Dipole               -7.0277 Ry au,        -17.8625 Debye
        Dipole field         -0.0133 Ry au,

        Potential amp.        1.2294 Ry
        Total length         46.3494 bohr

     Starting wfcs are  296 atomic wfcs
  @ DRIVER MODE: Message from server: STATUS
  @ DRIVER MODE: Message from server: POSDATA
  @ DRIVER MODE: Reading and sharing cell
  @ DRIVER MODE: Reading and sharing positions
  @ DRIVER MODE: Received positions

     Self-consistent Calculation

     iteration #  1     ecut=    29.40 Ry     beta= 0.05
     Davidson diagonalization with overlap
     c_bands:  1 eigenvalues not converged
     c_bands:  1 eigenvalues not converged
     c_bands:  2 eigenvalues not converged
     c_bands:  1 eigenvalues not converged
     c_bands:  1 eigenvalues not converged
     c_bands:  1 eigenvalues not converged
     ethr =  1.00E-05,  avg # of iterations = 19.6

[...]

     total energy              =   -2685.29956519 Ry
     estimated scf accuracy    <    2688.05963215 Ry

[...]

     iteration #  3     ecut=    29.40 Ry     beta= 0.05
     Davidson diagonalization with overlap
     ethr =  1.00E-02,  avg # of iterations = 15.8

[...]

     iteration # 61     ecut=    29.40 Ry     beta= 0.05
     Davidson diagonalization with overlap
     ethr =  1.33E-09,  avg # of iterations = 11.1

[...]

     total energy              =   -2928.89039494 Ry
     estimated scf accuracy    <       0.00000016 Ry

     iteration # 68     ecut=    29.40 Ry     beta= 0.05
     Davidson diagonalization with overlap
     c_bands:  2 eigenvalues not converged
     ethr =  3.97E-11,  avg # of iterations =  7.2

     negative rho (up, down):  1.641E-02 0.000E+00

     Adding external electric field

     Computed dipole along edir(3) :
        Dipole                1.6259 Ry au,          4.1326 Debye
        Dipole field          0.0031 Ry au,

        Potential amp.       -0.2844 Ry
        Total length         46.3494 bohr

     End of self-consistent calculation

          k = 0.0000 0.0000 0.0000 ( 18029 PWs)   bands (ev):

   -55.3064 -55.2704 -55.2550 -55.2209 -55.1809 -55.1749 -55.1466 -55.1198
   -55.0985 -55.0883 -55.0852 -55.0805 -55.0545 -55.0258 -54.2845 -54.2504
   -31.8786 -31.7488 -31.6945 -31.6684 -31.6234 -31.6098 -31.6042 -31.5964
   -31.5465 -31.5454 -31.5167 -31.5150 -31.5009 -31.4791 -31.4634 -31.4502
   -31.4439 -31.4243 -31.4184 -31.4067 -31.3976 -31.3719 -31.3700 -31.3594
   -31.3512 -31.3228 -31.3116 -31.3113 -31.3042 -31.2978 -31.2933 -31.2891
   -31.2834 -31.2742 -31.2721 -31.2680 -31.2621 -31.2342 -31.2189 -31.2156
   -31.2003 -31.1303 -30.6938 -30.6000 -30.5779 -30.5102 -30.4234 -30.3125
   -18.6367 -16.1475 -15.8857 -15.7507 -15.5960 -15.5042 -15.4000 -15.3426
   -15.2364 -15.1546 -15.0676 -15.0548 -15.0305 -15.0036 -14.9646 -14.9313
   -14.8467 -14.8420 -14.8191 -14.7991 -14.7973 -14.7491 -14.7402 -14.7212
   -14.7013 -14.6804 -14.5461 -14.4610 -14.3929 -14.1315 -13.3543 -12.7873
   -12.6699  -7.5654  -7.0131  -5.5434  -3.4846  -3.3198  -3.2955  -3.2375
    -3.1990  -3.0588  -2.9448  -2.7260  -2.7123  -2.6222  -2.5861  -2.5381
    -2.5161  -2.4974  -2.3315  -2.3022  -2.2890  -2.2326  -2.1719  -2.1174
    -2.1026  -2.0984  -2.0877  -2.0691  -2.0638  -1.9444  -1.8693  -1.7954
    -1.7319  -1.6989  -1.6622  -1.6535  -1.6349  -1.5946  -1.5868  -1.5565
    -1.5420  -1.4963  -1.4683  -1.3385  -1.2862  -1.2150  -1.0292  -0.9409
    -0.8953  -0.8810  -0.8475  -0.8017  -0.7880  -0.6839  -0.6720  -0.6491
    -0.6039  -0.5402  -0.4840  -0.4327  -0.3631  -0.3038  -0.2951  -0.1914
    -0.0942  -0.0846  -0.0634   0.0338   0.0691   0.1167   0.1956   0.2124
     0.2243   0.3105   0.3531   0.3894   0.4282   0.4527   0.5761   0.6201
     0.6336   0.6479   0.6521   0.6778   0.7042   0.7692   0.7998   0.8692
     0.9947   1.0984   1.1680   1.2664   1.3091   1.6415   1.6451   1.7381
     1.9219   2.3127   2.3596   3.7944   3.8633   3.9375   3.9468   3.9566
     4.0287   4.1134   4.2677   4.2916   4.2998   4.3158

[...]

          k = 0.0380-0.0419 0.0000 ( 17876 PWs)   bands (ev):

[...]

          k =-0.0760-0.0000 0.0000 ( 17886 PWs)   bands (ev):

[...]

          k =-0.0760-0.0839 0.0000 ( 17948 PWs)   bands (ev):

   -55.2885 -55.2880 -55.2382 -55.2376 -55.1707 -55.1638 -55.1636 -55.1045
   -55.1023 -55.1000 -55.0736 -55.0729 -55.0702 -55.0328 -54.2674 -54.2673
   -31.6825 -31.6806 -31.6022 -31.5902 -31.5701 -31.5641 -31.5634 -31.5316
   -31.5300 -31.5101 -31.5074 -31.5054 -31.4991 -31.4438 -31.4411 -31.4380
   -31.4333 -31.4323 -31.4306 -31.4272 -31.3966 -31.3844 -31.3807 -31.3703
   -31.3569 -31.3566 -31.3563 -31.3559 -31.3427 -31.3384 -31.3337 -31.3257
   -31.3183 -31.3138 -31.3023 -31.2983 -31.2980 -31.2894 -31.2699 -31.2552
   -31.2535 -31.2354 -30.5906 -30.5905 -30.5063 -30.5062 -30.4668 -30.4668
   -18.6218 -15.5920 -15.5712 -15.5298 -15.3354 -15.3252 -15.3122 -15.3091
   -15.2065 -15.1921 -15.1198 -15.0951 -15.0474 -15.0281 -15.0126 -15.0110
   -14.9182 -14.8987 -14.8930 -14.8907 -14.8201 -14.8119 -14.8036 -14.7946
   -14.7643 -14.7575 -14.6556 -14.6529 -14.6237 -14.6060 -13.1825 -12.7715
   -12.7713  -7.5646  -7.0382  -5.5940  -3.0678  -2.8598  -2.7861  -2.7105
    -2.5529  -2.5323  -2.4921  -2.3820  -2.3429  -2.3287  -2.3218  -2.2902
    -2.2376  -2.2188  -2.2080  -2.1471  -2.1448  -2.1248  -2.1158  -2.0901
    -2.0796  -2.0349  -2.0262  -2.0072  -1.9701  -1.9532  -1.9291  -1.9042
    -1.8989  -1.8811  -1.8231  -1.7906  -1.6823  -1.6688  -1.6055  -1.5122
    -1.5048  -1.4231  -1.3954  -1.3607  -1.3387  -1.3365  -1.2171  -1.1353
    -1.0810  -1.0496  -1.0427  -0.9336  -0.8972  -0.8155  -0.8023  -0.7890
    -0.7312  -0.6476  -0.6255  -0.6094  -0.5246  -0.4630  -0.4543  -0.3595
    -0.3370  -0.2747  -0.2608  -0.2591  -0.2170  -0.1984  -0.1720  -0.1123
    -0.0762  -0.0391  -0.0174   0.0222   0.2190   0.2397   0.2633   0.3931
     0.5114   0.5335   0.5676   0.6049   0.6997   0.7646   0.8045   0.8507
     0.9015   0.9870   0.9962   1.0909   1.0972   1.1525   1.1590   2.0947
     2.0956   2.1805   2.1813   3.9642   4.0064   4.0667   4.0964   4.1798
     4.3079   4.3235   4.3775   4.3793   4.4481   4.4514

     the Fermi energy is     3.8575 ev

!    total energy              =   -2928.89041533 Ry
     estimated scf accuracy    <       0.00000006 Ry
     smearing contrib. (-TS)   =      -0.03700614 Ry
     internal energy E=F+TS    =   -2928.85340919 Ry

     The total energy is F=E-TS. E is the sum of the following terms:
     one-electron contribution =  -24387.07439485 Ry
     hartree contribution      =   12285.06421364 Ry
     xc contribution           =    -482.75251793 Ry
     ewald contribution        =    9655.90430132 Ry
     electric field correction =       0.00498863 Ry

     convergence has been achieved in  68 iterations

     Forces acting on atoms (cartesian axes, Ry/au):

     atom    1 type  1   force =     0.00008087   -0.00017926    0.09194091
     atom    2 type  1   force =    -0.00017937   -0.00022014   -0.17805266
     atom    3 type  2   force =     0.00000696   -0.00050218   -0.02213359
     atom    4 type  2   force =     0.00003070   -0.00184367    0.05827175
     atom    5 type  2   force =    -0.01041260   -0.00081779    0.00668610
     atom    6 type  2   force =     0.01170972   -0.00037468    0.00700918
     atom    7 type  1   force =    -0.00031549    0.00237150   -0.01477951
     atom    8 type  1   force =     0.00006400    0.00000579    0.00015066
     atom    9 type  2   force =    -0.00010527   -0.00011403   -0.00082336
     atom   10 type  2   force =     0.00012588   -0.00004812    0.00052676
     atom   11 type  2   force =     0.00011447   -0.00006258   -0.00027453
     atom   12 type  2   force =    -0.00032105   -0.00005327   -0.00018902
     atom   13 type  1   force =     0.00006175    0.00020174    0.00010759
     atom   14 type  1   force =    -0.00009279   -0.00010118   -0.00013023
     atom   15 type  2   force =     0.00022449    0.00013718    0.00080338
     atom   16 type  2   force =    -0.00009608    0.00008225   -0.00030225
     atom   17 type  2   force =    -0.00029676   -0.00009860    0.00028287
     atom   18 type  2   force =     0.00060632   -0.00013719    0.00036175
     atom   19 type  1   force =    -0.00009520    0.00004338    0.00047981
     atom   20 type  1   force =    -0.00082379   -0.00048088    0.00051636
     atom   21 type  2   force =     0.00000629   -0.00002752    0.10388703
     atom   22 type  2   force =     0.00001214    0.00029264   -0.00110344
     atom   23 type  2   force =    -0.07046502   -0.00020135   -0.02663660
     atom   24 type  2   force =     0.07031028    0.00021742   -0.02669255
     atom   25 type  1   force =     0.00003446   -0.00013277    0.09064725
     atom   26 type  1   force =    -0.00018118   -0.00036678   -0.17821513
     atom   27 type  2   force =     0.00000763   -0.00018268   -0.02113147
     atom   28 type  2   force =     0.00006240   -0.00153113    0.05748303
     atom   29 type  2   force =    -0.01049014   -0.00097635    0.00673856
     atom   30 type  2   force =     0.01165655   -0.00039832    0.00704507
     atom   31 type  1   force =    -0.00036575    0.00548855   -0.01571906
     atom   32 type  1   force =     0.00003983    0.00001496    0.00008498
     atom   33 type  2   force =    -0.00010601   -0.00008821   -0.00052693
     atom   34 type  2   force =    -0.00003089    0.00000391    0.00022635
     atom   35 type  2   force =     0.00015008   -0.00021496   -0.00014717
     atom   36 type  2   force =    -0.00036296   -0.00019145   -0.00014536
     atom   37 type  1   force =     0.00003232   -0.00007141    0.00073472
     atom   38 type  1   force =    -0.00015891   -0.00038301   -0.00009839
     atom   39 type  2   force =    -0.00000020    0.00002709   -0.00006598
     atom   40 type  2   force =    -0.00038945   -0.00004998   -0.00027623
     atom   41 type  2   force =    -0.00055558    0.00005754    0.00029170
     atom   42 type  2   force =     0.00030011    0.00006520    0.00054106
     atom   43 type  1   force =    -0.00019481   -0.00018728   -0.00012443
     atom   44 type  1   force =     0.00022956    0.00103217    0.00113840
     atom   45 type  2   force =     0.00000721   -0.00004374    0.10385575
     atom   46 type  2   force =    -0.07046766   -0.00002568   -0.02666732
     atom   47 type  2   force =     0.07031978    0.00043851   -0.02670067
     atom   48 type  3   force =     0.00012441   -0.00066231    0.00003666
     atom   49 type  3   force =     0.01751360    0.00212281    0.00145906
     atom   50 type  4   force =    -0.01745536   -0.00256061    0.00000181
     atom   51 type  4   force =    -0.00147876    0.00038560    0.00000503
     atom   52 type  3   force =     0.00155180    0.00051798   -0.00009534
     atom   53 type  3   force =     0.00005748   -0.00017712   -0.00028236

     Total force =     0.365848     Total SCF correction =     0.000629
  @ DRIVER MODE: Message from server: STATUS
  @ DRIVER MODE: Message from server: GETFORCE
  @ DRIVER MODE: Returning v,forces,stress,ensemble

     Writing output data file ./calc.save/
  @ DRIVER MODE: Message from server: EXIT
  @ DRIVE MODE: Exiting

     General routines

     Parallel routines

   This run was terminated on:  13:34: 3  12Oct2021

   JOB DONE.