     Program PWSCF v.6.7GPU starts on 26Sep2021 at 19:42:31

     R & G space division:  proc/nbgrp/npool/nimage =       8
     Reading input from /storage/home/hcoda1/3/ntian30/research/carbon/CxH_vib/CH_calc/ads_slab/CHONHNH_a/out_0016/pw.inp
Warning: card &CELL ignored
Warning: card   CELL_DYNAMICS='IPI', ignored
Warning: card / ignored

     Current dimensions of program PWSCF are:
     Max number of different atomic species (ntypx) = 10
     Max number of k-points (npk) =  40000
     Max angular momentum in pseudopotentials (lmaxx) =  3
     Presently no symmetry can be used with electric field

     Message from routine cell_base_init:
     DEPRECATED: use true lattice parameter, not A to a.u. conversion factor

     IMPORTANT: XC functional enforced from input :
     Exchange-correlation= BEEF-VDW
                           (   1   4  43  14   2   0   0)
     Any further DFT definition will be discarded
     Please, verify this is what you really want

  @ DRIVER MODE: Connecting to
 qe_1139763_2982671.sched-torque.pace.gatech.edu3hxga_0a_scratch
  using UNIX socket
  @ DRIVER MODE: Message from server: STATUS
  @ DRIVER MODE: Message from server: INIT
  @ DRIVER MODE: Receiving replica           0          -1
  @ DRIVER MODE: Receiving encoded integer          25
  @ DRIVER MODE:  SCF:  T  FORCE:  T  STRESS:  F  VC:  F  ENSEMBLE:  F
  @ DRIVER MODE:  SCF:  T  FORCE:  T  STRESS:  F  VC:  F  ENSEMBLE:  F

     Using Slab Decomposition

     bravais-lattice index     =            0
     lattice parameter (alat)  =       1.8897  a.u.
     unit-cell volume          =    6658.9804 (a.u.)^3
     number of atoms/cell      =           54
     number of atomic types    =            5
     number of electrons       =       401.00
     number of Kohn-Sham states=          210
     kinetic-energy cutoff     =      29.3995  Ry
     charge density cutoff     =     293.9946  Ry
     scf convergence threshold =      7.3E-08
     mixing beta               =       0.0500
     number of iterations used =            8  plain     mixing
     Exchange-correlation= BEEF-VDW
                           (   1   4  43  14   2   0   0)

     celldm(1)=   1.889726  celldm(2)=   0.000000  celldm(3)=   0.000000
     celldm(4)=   0.000000  celldm(5)=   0.000000  celldm(6)=   0.000000

     crystal axes: (cart. coord. in units of alat)
               a(1) = (   6.579727   0.000000   0.000000 )
               a(2) = (  -0.000775   5.961596   0.000000 )
               a(3) = (   0.000000   0.000000  25.155947 )

     reciprocal axes: (cart. coord. in units 2 pi/alat)
               b(1) = (  0.151982  0.000020  0.000000 )
               b(2) = (  0.000000  0.167740  0.000000 )
               b(3) = (  0.000000  0.000000  0.039752 )

     PseudoPot. # 1 for O  read from file:
     /storage/coda1/p-amedford6/0/shared/rich_project_chbe-medford/medford-share/data/pseudos_module/espresso/nninc/pbe/van/O.UPF
     MD5 check sum: 78c19812648e8988a0fe644b0f25305e
     Pseudo is Ultrasoft, Zval =  6.0
     Generated by new atomic code, or converted to UPF format
     Using radial grid of  737 points,  4 beta functions with:
                l(1) =   0
                l(2) =   0
                l(3) =   1
                l(4) =   1
     Q(r) pseudized with  8 coefficients,  rinner =    0.800   0.800   0.800

     PseudoPot. # 2 for Ti read from file:
     /storage/coda1/p-amedford6/0/shared/rich_project_chbe-medford/medford-share/data/pseudos_module/espresso/nninc/pbe/van/Ti.UPF
     MD5 check sum: 8e4df49b7f0d34bbd5052bf3f5ea0213
     Pseudo is Ultrasoft, Zval = 12.0
     Generated by new atomic code, or converted to UPF format
     Using radial grid of  851 points,  6 beta functions with:
                l(1) =   0
                l(2) =   0
                l(3) =   1
                l(4) =   1
                l(5) =   2
                l(6) =   2
     Q(r) pseudized with  8 coefficients,  rinner =    1.000   1.000   1.000
                                                       1.000   1.000

     PseudoPot. # 3 for N  read from file:
     /storage/coda1/p-amedford6/0/shared/rich_project_chbe-medford/medford-share/data/pseudos_module/espresso/nninc/pbe/van/N.UPF
     MD5 check sum: 90d10febe142ad51ac9d5be1deb811c4
     Pseudo is Ultrasoft, Zval =  5.0
     Generated by new atomic code, or converted to UPF format
     Using radial grid of  729 points,  4 beta functions with:
                l(1) =   0
                l(2) =   0
                l(3) =   1
                l(4) =   1
     Q(r) pseudized with  8 coefficients,  rinner =    0.800   0.800   0.800

     PseudoPot. # 4 for C  read from file:
     /storage/coda1/p-amedford6/0/shared/rich_project_chbe-medford/medford-share/data/pseudos_module/espresso/nninc/pbe/van/C.UPF
     MD5 check sum: 1a69bf6b8db32088f5b2163dbdb77a27
     Pseudo is Ultrasoft, Zval =  4.0
     Generated by new atomic code, or converted to UPF format
     Using radial grid of  721 points,  4 beta functions with:
                l(1) =   0
                l(2) =   0
                l(3) =   1
                l(4) =   1
     Q(r) pseudized with  8 coefficients,  rinner =    0.800   0.800   0.800

     PseudoPot. # 5 for H  read from file:
     /storage/coda1/p-amedford6/0/shared/rich_project_chbe-medford/medford-share/data/pseudos_module/espresso/nninc/pbe/van/H.UPF
     MD5 check sum: b5ee9d7bfd3a09ee7748110bda690ff7
     Pseudo is Ultrasoft, Zval =  1.0
     Generated by new atomic code, or converted to UPF format
     Using radial grid of  615 points,  1 beta functions with:
                l(1) =   0
     Q(r) pseudized with  8 coefficients,  rinner =    0.800

     atomic species   valence    mass     pseudopotential
        O1             6.00    15.99900     O ( 1.00)
        Ti1           12.00    47.86700     Ti( 1.00)
        N1             5.00    14.00700     N ( 1.00)
        C1             4.00    12.01100     C ( 1.00)
        H1             1.00     1.00800     H ( 1.00)

     No symmetry found

   Cartesian axes

     site n.     atom                  positions (alat units)
         1           O1  tau(   1) = (   3.2904802   0.0005063   4.7018136  )
         2           O1  tau(   2) = (   3.2900926   2.9813045   4.7018136  )
         3           Ti1 tau(   3) = (   0.0004258   2.9801865   6.0000000  )
         4           Ti1 tau(   4) = (   0.0000382   5.9609847   6.0000000  )
         5           Ti1 tau(   5) = (   3.2906075   1.4906267   6.0002472  )
         6           Ti1 tau(   6) = (   3.2902200   4.4714249   6.0002472  )
         7           O1  tau(   7) = (   1.3043587   1.4918075   6.0039043  )
         8           O1  tau(   8) = (   1.3039711   4.4726057   6.0039043  )
         9           O1  tau(   9) = (   5.2767064   1.4903225   6.0039473  )
        10           O1  tau(  10) = (   5.2763189   4.4711207   6.0039473  )
        11           O1  tau(  11) = (   3.2906025   0.0005020   7.3038282  )
        12           O1  tau(  12) = (   3.2902150   2.9813002   7.3038282  )
        13           O1  tau(  13) = (   0.0006271   0.0005054   7.9858123  )
        14           O1  tau(  14) = (   0.0002396   2.9813036   7.9858123  )
        15           Ti1 tau(  15) = (   3.2907910   2.8959150   9.1758416  )
        16           Ti1 tau(  16) = (   3.2891106   5.8743827   9.1763621  )
        17           Ti1 tau(  17) = (   0.0015273   1.4827037   9.2680791  )
        18           Ti1 tau(  18) = (   0.0006254   4.4649316   9.2693709  )
        19           O1  tau(  19) = (   4.5942328   1.4918067   9.2879030  )
        20           O1  tau(  20) = (   4.5938453   4.4726049   9.2879030  )
        21           O1  tau(  21) = (   1.9868534   1.4903216   9.2879459  )
        22           O1  tau(  22) = (   1.9864658   4.4711199   9.2879459  )
        23           O1  tau(  23) = (   0.0116148   5.9584955  10.6183126  )
        24           O1  tau(  24) = (   0.0092240   2.9805883  10.6323155  )
        25           O1  tau(  25) = (   3.2531556   2.9620241  11.3322950  )
        26           O1  tau(  26) = (   3.2474763   5.9435521  11.3438280  )
        27           Ti1 tau(  27) = (   3.3237694   4.3814390  12.5572636  )
        28           Ti1 tau(  28) = (   0.0094504   0.0092305  12.5172013  )
        29           Ti1 tau(  29) = (   3.3224445   1.4452456  12.4745429  )
        30           Ti1 tau(  30) = (   0.0090234   2.9988230  12.5821063  )
        31           O1  tau(  31) = (   5.2496676   1.4726344  12.6006421  )
        32           O1  tau(  32) = (   5.2531746   4.4496067  12.6010712  )
        33           O1  tau(  33) = (   1.2410339   1.4659728  12.6671891  )
        34           O1  tau(  34) = (   1.2387123   4.4686174  12.6665250  )
        35           O1  tau(  35) = (   3.3067986   5.9564546  13.9007842  )
        36           O1  tau(  36) = (   3.2420318   3.0005841  13.9279729  )
        37           O1  tau(  37) = (   6.4209026   5.9439257  14.7021623  )
        38           O1  tau(  38) = (   6.4587925   2.9577525  14.6988961  )
        39           Ti1 tau(  39) = (   3.2423495   0.0283394  15.6829305  )
        40           Ti1 tau(  40) = (   6.4236859   1.5154006  15.7784978  )
        41           Ti1 tau(  41) = (   3.0799157   3.0146384  15.8599260  )
        42           O1  tau(  42) = (   1.9357555   1.4358950  15.9107064  )
        43           O1  tau(  43) = (   1.9271111   4.5447382  15.9660097  )
        44           Ti1 tau(  44) = (   6.4519450   4.6669281  16.1370820  )
        45           O1  tau(  45) = (   4.4443926   1.5071054  16.1134243  )
        46           O1  tau(  46) = (   4.4397279   4.4733020  16.1527106  )
        47           O1  tau(  47) = (   6.5167551   0.0277669  17.2715591  )
        48           N1  tau(  48) = (   0.3759035   2.6095042  18.6336219  )
        49           C1  tau(  49) = (   2.8136782   2.9081565  18.1516972  )
        50           H1  tau(  50) = (   0.1656462   1.6087175  18.7006542  )
        51           N1  tau(  51) = (   1.8163940   2.6652851  18.9293397  )
        52           H1  tau(  52) = (   3.7261332   2.9868749  18.7514029  )
        53           H1  tau(  53) = (   1.8928842   2.5952305  19.9427491  )
        54           O1  tau(  54) = (   0.0982553   2.9165792  17.3165359  )

     number of k points=    10  Fermi-Dirac smearing, width (Ry)=  0.0073
                       cart. coord. in units 2pi/alat
        k(    1) = (   0.0000000   0.0000000   0.0000000), wk =   0.1250000
        k(    2) = (   0.0000000   0.0419351   0.0000000), wk =   0.2500000
        k(    3) = (   0.0000000  -0.0838702   0.0000000), wk =   0.1250000
        k(    4) = (   0.0379955   0.0000049   0.0000000), wk =   0.2500000
        k(    5) = (   0.0379955   0.0419400   0.0000000), wk =   0.2500000
        k(    6) = (   0.0379955  -0.0838652   0.0000000), wk =   0.2500000
        k(    7) = (   0.0379955  -0.0419301   0.0000000), wk =   0.2500000
        k(    8) = (  -0.0759910  -0.0000099   0.0000000), wk =   0.1250000
        k(    9) = (  -0.0759910   0.0419252   0.0000000), wk =   0.2500000
        k(   10) = (  -0.0759910  -0.0838800   0.0000000), wk =   0.1250000

     Initial potential from superposition of free atoms

     starting charge  384.99916, renormalised to  401.00000

     negative rho (up, down):  1.631E-02 0.000E+00

     %%%%%%%%%%%%%%%%%%%%%%%%%%%%%%%%%%%%%%%%%%%%%%%%%%%%%%%%%%%%%%%%%%%%%%%%
     %                                                                      %
     % You are using vdW-DF, which was implemented by the Thonhauser group. %
     % Please cite the following two papers that made this development      %
     % possible and the two reviews that describe the various versions:     %
     %                                                                      %
     %   T. Thonhauser et al., PRL 115, 136402 (2015).                      %
     %   T. Thonhauser et al., PRB 76, 125112 (2007).                       %
     %   K. Berland et al., Rep. Prog. Phys. 78, 066501 (2015).             %
     %   D.C. Langreth et al., J. Phys.: Condens. Matter 21, 084203 (2009). %
     %                                                                      %
     %                                                                      %
     % If you are calculating the stress with vdW-DF, please also cite:     %
     %                                                                      %
     %   R. Sabatini et al., J. Phys.: Condens. Matter 24, 424209 (2012).   %
     %                                                                      %
     %%%%%%%%%%%%%%%%%%%%%%%%%%%%%%%%%%%%%%%%%%%%%%%%%%%%%%%%%%%%%%%%%%%%%%%%

     Adding external electric field

     Computed dipole along edir(3) :
        Dipole              -11.6315 Ry au,        -29.5642 Debye
        Dipole field         -0.0220 Ry au,

        Potential amp.        2.0347 Ry
        Total length         46.3494 bohr

     Starting wfcs are  303 atomic wfcs
  @ DRIVER MODE: Message from server: STATUS
  @ DRIVER MODE: Message from server: POSDATA
  @ DRIVER MODE: Reading and sharing cell
  @ DRIVER MODE: Reading and sharing positions
  @ DRIVER MODE: Received positions

     Self-consistent Calculation

     iteration #  1     ecut=    29.40 Ry     beta= 0.05
     Davidson diagonalization with overlap
     c_bands:  3 eigenvalues not converged
     c_bands:  3 eigenvalues not converged
     c_bands:  5 eigenvalues not converged
     c_bands:  4 eigenvalues not converged
     c_bands:  4 eigenvalues not converged
     c_bands:  3 eigenvalues not converged
     c_bands:  1 eigenvalues not converged
     c_bands:  3 eigenvalues not converged
     ethr =  1.00E-05,  avg # of iterations = 22.1

[...]

     total energy              =   -2394.30809889 Ry
     estimated scf accuracy    <    6494.79735083 Ry

     iteration #  2     ecut=    29.40 Ry     beta= 0.05
     Davidson diagonalization with overlap
     ethr =  1.00E-02,  avg # of iterations = 24.3

[...]

     iteration # 72     ecut=    29.40 Ry     beta= 0.05
     Davidson diagonalization with overlap
     c_bands:  1 eigenvalues not converged
     ethr =  1.34E-09,  avg # of iterations = 13.7

[...]

     total energy              =   -2971.36028445 Ry
     estimated scf accuracy    <       0.00000009 Ry

     iteration # 81     ecut=    29.40 Ry     beta= 0.05
     Davidson diagonalization with overlap
     ethr =  2.16E-11,  avg # of iterations = 12.4

     negative rho (up, down):  1.695E-02 0.000E+00

     Adding external electric field

     Computed dipole along edir(3) :
        Dipole                1.3771 Ry au,          3.5001 Debye
        Dipole field          0.0026 Ry au,

        Potential amp.       -0.2409 Ry
        Total length         46.3494 bohr

     End of self-consistent calculation

          k = 0.0000 0.0000 0.0000 ( 18029 PWs)   bands (ev):

   -55.3628 -55.3288 -55.2832 -55.2388 -55.2329 -55.2231 -55.1955 -55.1837
   -55.1498 -55.1416 -55.1289 -55.1064 -55.0322 -54.9922 -54.3423 -54.3083
   -31.8472 -31.8078 -31.7315 -31.6841 -31.6787 -31.6546 -31.6319 -31.6081
   -31.5972 -31.5681 -31.5400 -31.5152 -31.5016 -31.4949 -31.4691 -31.4658
   -31.4619 -31.4482 -31.4365 -31.4200 -31.4016 -31.3981 -31.3930 -31.3815
   -31.3772 -31.3764 -31.3726 -31.3633 -31.3407 -31.3400 -31.3330 -31.3235
   -31.3205 -31.3142 -31.2960 -31.2929 -31.2853 -31.2545 -31.2331 -31.2222
   -31.2065 -31.1769 -30.7491 -30.6613 -30.6389 -30.5662 -30.4798 -30.3683
   -20.2103 -17.3512 -16.0536 -15.8415 -15.6370 -15.5283 -15.4800 -15.2476
   -15.1301 -15.1002 -15.0133 -14.9428 -14.9267 -14.9025 -14.8914 -14.8727
   -14.8139 -14.8012 -14.7898 -14.7869 -14.7586 -14.7374 -14.7143 -14.7019
   -14.5808 -14.5677 -14.5386 -14.5065 -14.4843 -14.4235 -14.1626 -12.8431
   -12.7656 -12.7266  -9.0758  -7.2594  -5.7245  -4.9670  -3.4267  -3.3130
    -3.2888  -3.2692  -3.1911  -3.1444  -3.0215  -2.8050  -2.6573  -2.5572
    -2.5318  -2.4520  -2.3811  -2.3579  -2.3143  -2.2592  -2.2049  -2.1584
    -2.1336  -2.1095  -2.1014  -2.0955  -2.0030  -1.9828  -1.9429  -1.8912
    -1.8559  -1.7593  -1.7422  -1.6856  -1.6775  -1.6363  -1.6260  -1.6166
    -1.6076  -1.5892  -1.5060  -1.4890  -1.4421  -1.3657  -1.1766  -1.1235
    -1.0255  -0.9709  -0.8679  -0.8431  -0.8007  -0.7715  -0.7642  -0.7557
    -0.7101  -0.6147  -0.5729  -0.5207  -0.4598  -0.3814  -0.3116  -0.2716
    -0.1618  -0.1484  -0.1217  -0.1139  -0.0817   0.0591   0.1191   0.1696
     0.1935   0.2307   0.2965   0.3577   0.3717   0.4172   0.4416   0.5073
     0.5440   0.5633   0.5832   0.6109   0.6244   0.6534   0.6688   0.7179
     0.8434   0.8543   0.9020   0.9452   1.0039   1.1222   1.1295   1.2907
     1.3759   1.5588   1.6195   1.6817   1.7435   1.8733   2.2515   2.2971
     3.7430   3.8578   3.8901   3.9182   4.0018   4.0413   4.2113   4.2763
     4.2992   4.3370

[...]

          k = 0.0380-0.0419 0.0000 ( 17876 PWs)   bands (ev):

[...]

          k =-0.0760-0.0000 0.0000 ( 17886 PWs)   bands (ev):

[...]

          k =-0.0760-0.0839 0.0000 ( 17948 PWs)   bands (ev):

   -55.3460 -55.3455 -55.2772 -55.2302 -55.2302 -55.2287 -55.2041 -55.1669
   -55.1663 -55.1315 -55.1293 -55.1189 -55.0244 -54.9999 -54.3253 -54.3252
   -31.6627 -31.6623 -31.6492 -31.6402 -31.6398 -31.5901 -31.5673 -31.5484
   -31.5410 -31.5249 -31.5034 -31.4946 -31.4911 -31.4848 -31.4789 -31.4712
   -31.4654 -31.4652 -31.4624 -31.4589 -31.4551 -31.4386 -31.4368 -31.4296
   -31.4207 -31.4152 -31.4034 -31.3837 -31.3705 -31.3684 -31.3562 -31.3455
   -31.3453 -31.3425 -31.3403 -31.3397 -31.3366 -31.3293 -31.2606 -31.2470
   -31.2291 -31.2083 -30.6516 -30.6516 -30.5619 -30.5618 -30.5231 -30.5229
   -20.2053 -17.3487 -15.4854 -15.3731 -15.3692 -15.3025 -15.2481 -15.1769
   -15.1276 -15.0970 -15.0577 -15.0396 -15.0129 -14.9716 -14.9315 -14.9202
   -14.8954 -14.8866 -14.8651 -14.8212 -14.8125 -14.8043 -14.7981 -14.7715
   -14.7313 -14.7048 -14.6827 -14.6781 -14.6486 -14.5108 -14.3618 -12.8285
   -12.8284 -12.7702  -9.0686  -7.2037  -5.7349  -4.9882  -3.3327  -2.7504
    -2.6593  -2.5734  -2.5025  -2.4307  -2.3922  -2.3694  -2.3111  -2.3063
    -2.2775  -2.2169  -2.1976  -2.1819  -2.1663  -2.1358  -2.1280  -2.1057
    -2.0956  -2.0883  -2.0473  -2.0443  -2.0194  -2.0173  -1.9919  -1.9842
    -1.9546  -1.9260  -1.9050  -1.8668  -1.8221  -1.7218  -1.6360  -1.5651
    -1.5111  -1.4999  -1.4904  -1.4357  -1.4185  -1.3872  -1.3600  -1.3238
    -1.1889  -1.0510  -1.0410  -1.0057  -0.9414  -0.9092  -0.8706  -0.8486
    -0.7739  -0.7578  -0.7235  -0.6969  -0.6270  -0.5355  -0.4911  -0.4511
    -0.4197  -0.3647  -0.3370  -0.3171  -0.3002  -0.2860  -0.2509  -0.1864
    -0.1405  -0.1168  -0.0845  -0.0583  -0.0364  -0.0118   0.1607   0.1785
     0.2769   0.3454   0.4048   0.5392   0.6401   0.6790   0.7212   0.7813
     0.8476   0.9002   0.9339   0.9508   0.9693   1.0325   1.0888   1.1556
     1.1712   1.2039   1.2823   1.4452   2.0453   2.0477   2.1172   2.1173
     4.1138   4.1625   4.1869   4.1974   4.2648   4.2892   4.3061   4.3097
     4.4145   4.4319

     the Fermi energy is     3.7632 ev

!    total energy              =   -2971.36029284 Ry
     estimated scf accuracy    <       0.00000004 Ry
     smearing contrib. (-TS)   =      -0.02057573 Ry
     internal energy E=F+TS    =   -2971.33971711 Ry

     The total energy is F=E-TS. E is the sum of the following terms:
     one-electron contribution =  -24168.92956682 Ry
     hartree contribution      =   12180.11602436 Ry
     xc contribution           =    -492.43702475 Ry
     ewald contribution        =    9509.90727154 Ry
     electric field correction =       0.00357856 Ry

     convergence has been achieved in  81 iterations

     Forces acting on atoms (cartesian axes, Ry/au):

     atom    1 type  1   force =     0.00007367   -0.00012163    0.10310959
     atom    2 type  1   force =     0.00007533   -0.00010382    0.10314194
     atom    3 type  2   force =     0.00002778   -0.00019285    0.09530514
     atom    4 type  2   force =     0.00007678   -0.00048168    0.09487938
     atom    5 type  2   force =    -0.00021525   -0.00071491   -0.17563625
     atom    6 type  2   force =    -0.00004917   -0.00023481   -0.17576253
     atom    7 type  1   force =    -0.07168654   -0.00018760   -0.02757003
     atom    8 type  1   force =    -0.07166667   -0.00021015   -0.02749946
     atom    9 type  1   force =     0.07155278    0.00025561   -0.02757393
     atom   10 type  1   force =     0.07151846    0.00026467   -0.02754882
     atom   11 type  1   force =    -0.00007877   -0.00143896    0.05241960
     atom   12 type  1   force =    -0.00000343   -0.00150169    0.05288405
     atom   13 type  1   force =    -0.00013300   -0.00018135   -0.02268253
     atom   14 type  1   force =    -0.00005933   -0.00028678   -0.02180442
     atom   15 type  2   force =    -0.00221853    0.00205057   -0.00874925
     atom   16 type  2   force =    -0.00226575    0.00206463   -0.00153356
     atom   17 type  2   force =     0.00139925    0.00933122    0.01491147
     atom   18 type  2   force =     0.00155191   -0.01043094    0.01569062
     atom   19 type  1   force =    -0.01011389   -0.00094267    0.00484811
     atom   20 type  1   force =    -0.01049018   -0.00075652    0.00459378
     atom   21 type  1   force =     0.01028381   -0.00001123    0.00094333
     atom   22 type  1   force =     0.01055967   -0.00053557    0.00075898
     atom   23 type  1   force =    -0.00214309    0.00036616   -0.01186763
     atom   24 type  1   force =    -0.00061664   -0.00078123   -0.01486728
     atom   25 type  1   force =     0.00002292    0.00040154   -0.00001356
     atom   26 type  1   force =     0.00010375   -0.00026150   -0.00045895
     atom   27 type  2   force =     0.00053622   -0.00011418   -0.00071322
     atom   28 type  2   force =    -0.00021009   -0.00021201   -0.00001499
     atom   29 type  2   force =     0.00020338    0.00075990    0.00011474
     atom   30 type  2   force =    -0.00030886   -0.00026956    0.00001548
     atom   31 type  1   force =     0.00023724    0.00057201    0.00024747
     atom   32 type  1   force =    -0.00064214    0.00046523    0.00003346
     atom   33 type  1   force =     0.00044147    0.00052208    0.00010472
     atom   34 type  1   force =     0.00071520    0.00022892   -0.00016453
     atom   35 type  1   force =    -0.00010154   -0.00034784   -0.00000565
     atom   36 type  1   force =     0.00080998    0.00057429   -0.00067883
     atom   37 type  1   force =     0.00038618    0.00026972    0.00019249
     atom   38 type  1   force =     0.00057979    0.00065186    0.00067453
     atom   39 type  2   force =     0.00041515   -0.00022934   -0.00029930
     atom   40 type  2   force =    -0.00022966   -0.00044461    0.00004254
     atom   41 type  2   force =     0.00063499    0.00022490    0.00003387
     atom   42 type  1   force =     0.00037651    0.00017794    0.00009106
     atom   43 type  1   force =     0.00038877    0.00011813    0.00022210
     atom   44 type  2   force =    -0.00024730    0.00093133   -0.00021793
     atom   45 type  1   force =     0.00004607   -0.00005140   -0.00050978
     atom   46 type  1   force =     0.00006571    0.00068444    0.00019746
     atom   47 type  1   force =    -0.00034186    0.00020415   -0.00021385
     atom   48 type  3   force =     0.00217193    0.01236542   -0.00078700
     atom   49 type  4   force =    -0.00006559   -0.00050811    0.00001192
     atom   50 type  5   force =    -0.00211550   -0.01251887    0.00083019
     atom   51 type  3   force =    -0.00025139    0.00019166   -0.00073674
     atom   52 type  5   force =     0.00134118   -0.00007165    0.00083228
     atom   53 type  5   force =    -0.00026921   -0.00004107    0.00111152
     atom   54 type  1   force =    -0.00007249    0.00050814   -0.00033179

     Total force =     0.364867     Total SCF correction =     0.000371
  @ DRIVER MODE: Message from server: STATUS
  @ DRIVER MODE: Message from server: GETFORCE
  @ DRIVER MODE: Returning v,forces,stress,ensemble

     Writing output data file ./calc.save/
  @ DRIVER MODE: Message from server: EXIT
  @ DRIVE MODE: Exiting

     General routines

     Parallel routines

   This run was terminated on:  20:30:11  26Sep2021

   JOB DONE.