     Program PWSCF v.6.7GPU starts on 11Oct2021 at 19:19:54

     R & G space division:  proc/nbgrp/npool/nimage =       8
     Reading input from /storage/home/hcoda1/3/ntian30/research/carbon/CxH_vib/CH2_calc/ads_slab/CH2NHH_b/out_0007/pw.inp
Warning: card &CELL ignored
Warning: card   CELL_DYNAMICS='IPI', ignored
Warning: card / ignored

     Current dimensions of program PWSCF are:
     Max number of different atomic species (ntypx) = 10
     Max number of k-points (npk) =  40000
     Max angular momentum in pseudopotentials (lmaxx) =  3
     Presently no symmetry can be used with electric field

     Message from routine cell_base_init:
     DEPRECATED: use true lattice parameter, not A to a.u. conversion factor

     IMPORTANT: XC functional enforced from input :
     Exchange-correlation= BEEF-VDW
                           (   1   4  43  14   2   0   0)
     Any further DFT definition will be discarded
     Please, verify this is what you really want

  @ DRIVER MODE: Connecting to
 qe_1139763_3171005.sched-torque.pace.gatech.edusafrxt2z_scratch
  using UNIX socket
  @ DRIVER MODE: Message from server: STATUS
  @ DRIVER MODE: Message from server: INIT
  @ DRIVER MODE: Receiving replica           0          -1
  @ DRIVER MODE: Receiving encoded integer          25
  @ DRIVER MODE:  SCF:  T  FORCE:  T  STRESS:  F  VC:  F  ENSEMBLE:  F
  @ DRIVER MODE:  SCF:  T  FORCE:  T  STRESS:  F  VC:  F  ENSEMBLE:  F

     Using Slab Decomposition

     bravais-lattice index     =            0
     lattice parameter (alat)  =       1.8897  a.u.
     unit-cell volume          =    6658.9804 (a.u.)^3
     number of atoms/cell      =           53
     number of atomic types    =            5
     number of electrons       =       391.00
     number of Kohn-Sham states=          205
     kinetic-energy cutoff     =      29.3995  Ry
     charge density cutoff     =     293.9946  Ry
     scf convergence threshold =      7.3E-08
     mixing beta               =       0.0500
     number of iterations used =            8  plain     mixing
     Exchange-correlation= BEEF-VDW
                           (   1   4  43  14   2   0   0)

     celldm(1)=   1.889726  celldm(2)=   0.000000  celldm(3)=   0.000000
     celldm(4)=   0.000000  celldm(5)=   0.000000  celldm(6)=   0.000000

     crystal axes: (cart. coord. in units of alat)
               a(1) = (   6.579727   0.000000   0.000000 )
               a(2) = (  -0.000775   5.961596   0.000000 )
               a(3) = (   0.000000   0.000000  25.155947 )

     reciprocal axes: (cart. coord. in units 2 pi/alat)
               b(1) = (  0.151982  0.000020  0.000000 )
               b(2) = (  0.000000  0.167740  0.000000 )
               b(3) = (  0.000000  0.000000  0.039752 )

     PseudoPot. # 1 for Ti read from file:
     /storage/coda1/p-amedford6/0/shared/rich_project_chbe-medford/medford-share/data/pseudos_module/espresso/nninc/pbe/van/Ti.UPF
     MD5 check sum: 8e4df49b7f0d34bbd5052bf3f5ea0213
     Pseudo is Ultrasoft, Zval = 12.0
     Generated by new atomic code, or converted to UPF format
     Using radial grid of  851 points,  6 beta functions with:
                l(1) =   0
                l(2) =   0
                l(3) =   1
                l(4) =   1
                l(5) =   2
                l(6) =   2
     Q(r) pseudized with  8 coefficients,  rinner =    1.000   1.000   1.000
                                                       1.000   1.000

     PseudoPot. # 2 for O  read from file:
     /storage/coda1/p-amedford6/0/shared/rich_project_chbe-medford/medford-share/data/pseudos_module/espresso/nninc/pbe/van/O.UPF
     MD5 check sum: 78c19812648e8988a0fe644b0f25305e
     Pseudo is Ultrasoft, Zval =  6.0
     Generated by new atomic code, or converted to UPF format
     Using radial grid of  737 points,  4 beta functions with:
                l(1) =   0
                l(2) =   0
                l(3) =   1
                l(4) =   1
     Q(r) pseudized with  8 coefficients,  rinner =    0.800   0.800   0.800

     PseudoPot. # 3 for H  read from file:
     /storage/coda1/p-amedford6/0/shared/rich_project_chbe-medford/medford-share/data/pseudos_module/espresso/nninc/pbe/van/H.UPF
     MD5 check sum: b5ee9d7bfd3a09ee7748110bda690ff7
     Pseudo is Ultrasoft, Zval =  1.0
     Generated by new atomic code, or converted to UPF format
     Using radial grid of  615 points,  1 beta functions with:
                l(1) =   0
     Q(r) pseudized with  8 coefficients,  rinner =    0.800

     PseudoPot. # 4 for N  read from file:
     /storage/coda1/p-amedford6/0/shared/rich_project_chbe-medford/medford-share/data/pseudos_module/espresso/nninc/pbe/van/N.UPF
     MD5 check sum: 90d10febe142ad51ac9d5be1deb811c4
     Pseudo is Ultrasoft, Zval =  5.0
     Generated by new atomic code, or converted to UPF format
     Using radial grid of  729 points,  4 beta functions with:
                l(1) =   0
                l(2) =   0
                l(3) =   1
                l(4) =   1
     Q(r) pseudized with  8 coefficients,  rinner =    0.800   0.800   0.800

     PseudoPot. # 5 for C  read from file:
     /storage/coda1/p-amedford6/0/shared/rich_project_chbe-medford/medford-share/data/pseudos_module/espresso/nninc/pbe/van/C.UPF
     MD5 check sum: 1a69bf6b8db32088f5b2163dbdb77a27
     Pseudo is Ultrasoft, Zval =  4.0
     Generated by new atomic code, or converted to UPF format
     Using radial grid of  721 points,  4 beta functions with:
                l(1) =   0
                l(2) =   0
                l(3) =   1
                l(4) =   1
     Q(r) pseudized with  8 coefficients,  rinner =    0.800   0.800   0.800

     atomic species   valence    mass     pseudopotential
        Ti1           12.00    47.86700     Ti( 1.00)
        O1             6.00    15.99900     O ( 1.00)
        H1             1.00     1.00800     H ( 1.00)
        N1             5.00    14.00700     N ( 1.00)
        C1             4.00    12.01100     C ( 1.00)

     No symmetry found

   Cartesian axes

     site n.     atom                  positions (alat units)
         1           Ti1 tau(   1) = (   0.0004258   2.9801865   6.0000000  )
         2           Ti1 tau(   2) = (   3.2906075   1.4906267   6.0002472  )
         3           O1  tau(   3) = (   0.0006271   0.0005054   7.9858123  )
         4           O1  tau(   4) = (   3.2906025   0.0005020   7.3038282  )
         5           O1  tau(   5) = (   4.5942328   1.4918067   9.2879030  )
         6           O1  tau(   6) = (   1.9868534   1.4903216   9.2879459  )
         7           Ti1 tau(   7) = (   3.2907910   2.8959150   9.1758416  )
         8           Ti1 tau(   8) = (   0.0015273   1.4827037   9.2680791  )
         9           O1  tau(   9) = (   3.3750462   0.0034689  11.3324641  )
        10           O1  tau(  10) = (   0.0116148   5.9584955  10.6183126  )
        11           O1  tau(  11) = (   1.3977860   1.4758343  12.6375763  )
        12           O1  tau(  12) = (   5.4232152   1.4913549  12.6657899  )
        13           Ti1 tau(  13) = (   0.0691229   2.9530050  12.5389017  )
        14           Ti1 tau(  14) = (   3.3643908   1.4039863  12.4577757  )
        15           O1  tau(  15) = (   0.1477665   0.0132832  14.6652528  )
        16           O1  tau(  16) = (   3.5189244   0.0045933  13.9158019  )
        17           O1  tau(  17) = (   4.7861523   1.5333885  16.1913275  )
        18           O1  tau(  18) = (   2.2541876   1.4026900  15.9427082  )
        19           Ti1 tau(  19) = (   3.5811307   2.9972434  16.0687679  )
        20           Ti1 tau(  20) = (   0.2998503   1.4255696  15.8726171  )
        21           O1  tau(  21) = (   3.2904802   0.0005063   4.7018136  )
        22           O1  tau(  22) = (   0.2643450   0.0038197  17.1846268  )
        23           O1  tau(  23) = (   1.3043587   1.4918075   6.0039043  )
        24           O1  tau(  24) = (   5.2767064   1.4903225   6.0039473  )
        25           Ti1 tau(  25) = (   0.0000382   5.9609847   6.0000000  )
        26           Ti1 tau(  26) = (   3.2902200   4.4714249   6.0002472  )
        27           O1  tau(  27) = (   0.0002396   2.9813036   7.9858123  )
        28           O1  tau(  28) = (   3.2902150   2.9813002   7.3038282  )
        29           O1  tau(  29) = (   4.5938453   4.4726049   9.2879030  )
        30           O1  tau(  30) = (   1.9864658   4.4711199   9.2879459  )
        31           Ti1 tau(  31) = (   3.2891106   5.8743827   9.1763621  )
        32           Ti1 tau(  32) = (   0.0006254   4.4649316   9.2693709  )
        33           O1  tau(  33) = (   3.3836021   2.9593565  11.3526375  )
        34           O1  tau(  34) = (   0.0092240   2.9805883  10.6323155  )
        35           O1  tau(  35) = (   1.3957467   4.4736095  12.6396340  )
        36           O1  tau(  36) = (   5.4261019   4.4541359  12.6685409  )
        37           Ti1 tau(  37) = (   0.0939275   5.9312067  12.4916740  )
        38           Ti1 tau(  38) = (   3.3665170   4.3046527  12.6650499  )
        39           O1  tau(  39) = (   0.1734719   2.9828917  14.8532074  )
        40           O1  tau(  40) = (   3.4150578   3.0309863  13.9715028  )
        41           O1  tau(  41) = (   4.7877001   4.4493464  16.1994792  )
        42           O1  tau(  42) = (   2.2536850   4.5881152  15.9586447  )
        43           Ti1 tau(  43) = (   3.5332629   0.0183730  15.6991940  )
        44           Ti1 tau(  44) = (   0.2986595   4.6220906  15.9451660  )
        45           O1  tau(  45) = (   3.2900926   2.9813045   4.7018136  )
        46           O1  tau(  46) = (   1.3039711   4.4726057   6.0039043  )
        47           O1  tau(  47) = (   5.2763189   4.4711207   6.0039473  )
        48           H1  tau(  48) = (   0.6716682   3.7174429  18.3617054  )
        49           H1  tau(  49) = (   0.7199512   2.1188458  18.2939656  )
        50           N1  tau(  50) = (   1.0883034   2.9530349  17.8291855  )
        51           C1  tau(  51) = (   2.6610371   2.9951180  18.0825860  )
        52           H1  tau(  52) = (   2.6895649   3.8224559  18.7561578  )
        53           H1  tau(  53) = (   2.7295784   2.2142559  18.8115579  )

     number of k points=    10  Fermi-Dirac smearing, width (Ry)=  0.0073
                       cart. coord. in units 2pi/alat
        k(    1) = (   0.0000000   0.0000000   0.0000000), wk =   0.1250000
        k(    2) = (   0.0000000   0.0419351   0.0000000), wk =   0.2500000
        k(    3) = (   0.0000000  -0.0838702   0.0000000), wk =   0.1250000
        k(    4) = (   0.0379955   0.0000049   0.0000000), wk =   0.2500000
        k(    5) = (   0.0379955   0.0419400   0.0000000), wk =   0.2500000
        k(    6) = (   0.0379955  -0.0838652   0.0000000), wk =   0.2500000
        k(    7) = (   0.0379955  -0.0419301   0.0000000), wk =   0.2500000
        k(    8) = (  -0.0759910  -0.0000099   0.0000000), wk =   0.1250000
        k(    9) = (  -0.0759910   0.0419252   0.0000000), wk =   0.2500000
        k(   10) = (  -0.0759910  -0.0838800   0.0000000), wk =   0.1250000

     Initial potential from superposition of free atoms

     starting charge  374.99916, renormalised to  391.00000

     negative rho (up, down):  1.820E-02 0.000E+00

     %%%%%%%%%%%%%%%%%%%%%%%%%%%%%%%%%%%%%%%%%%%%%%%%%%%%%%%%%%%%%%%%%%%%%%%%
     %                                                                      %
     % You are using vdW-DF, which was implemented by the Thonhauser group. %
     % Please cite the following two papers that made this development      %
     % possible and the two reviews that describe the various versions:     %
     %                                                                      %
     %   T. Thonhauser et al., PRL 115, 136402 (2015).                      %
     %   T. Thonhauser et al., PRB 76, 125112 (2007).                       %
     %   K. Berland et al., Rep. Prog. Phys. 78, 066501 (2015).             %
     %   D.C. Langreth et al., J. Phys.: Condens. Matter 21, 084203 (2009). %
     %                                                                      %
     %                                                                      %
     % If you are calculating the stress with vdW-DF, please also cite:     %
     %                                                                      %
     %   R. Sabatini et al., J. Phys.: Condens. Matter 24, 424209 (2012).   %
     %                                                                      %
     %%%%%%%%%%%%%%%%%%%%%%%%%%%%%%%%%%%%%%%%%%%%%%%%%%%%%%%%%%%%%%%%%%%%%%%%

     Adding external electric field

     Computed dipole along edir(3) :
        Dipole               -5.7422 Ry au,        -14.5952 Debye
        Dipole field         -0.0108 Ry au,

        Potential amp.        1.0045 Ry
        Total length         46.3494 bohr

     Starting wfcs are  296 atomic wfcs
  @ DRIVER MODE: Message from server: STATUS
  @ DRIVER MODE: Message from server: POSDATA
  @ DRIVER MODE: Reading and sharing cell
  @ DRIVER MODE: Reading and sharing positions
  @ DRIVER MODE: Received positions

     Self-consistent Calculation

     iteration #  1     ecut=    29.40 Ry     beta= 0.05
     Davidson diagonalization with overlap
     c_bands:  3 eigenvalues not converged
     c_bands:  1 eigenvalues not converged
     c_bands:  5 eigenvalues not converged
     c_bands:  2 eigenvalues not converged
     c_bands:  2 eigenvalues not converged
     c_bands:  2 eigenvalues not converged
     c_bands:  2 eigenvalues not converged
     ethr =  1.00E-05,  avg # of iterations = 20.9

[...]

     total energy              =   -2766.80416425 Ry
     estimated scf accuracy    <    1684.98096919 Ry

[...]

     iteration #  3     ecut=    29.40 Ry     beta= 0.05
     Davidson diagonalization with overlap
     ethr =  1.00E-02,  avg # of iterations = 14.7

[...]

     iteration # 47     ecut=    29.40 Ry     beta= 0.05
     Davidson diagonalization with overlap
     c_bands:  1 eigenvalues not converged
     ethr =  9.79E-09,  avg # of iterations = 12.0

[...]

     total energy              =   -2920.27070142 Ry
     estimated scf accuracy    <       0.00000013 Ry

     iteration # 63     ecut=    29.40 Ry     beta= 0.05
     Davidson diagonalization with overlap
     ethr =  3.24E-11,  avg # of iterations = 10.3

     negative rho (up, down):  1.844E-02 0.000E+00

     Adding external electric field

     Computed dipole along edir(3) :
        Dipole                0.8707 Ry au,          2.2132 Debye
        Dipole field          0.0016 Ry au,

        Potential amp.       -0.1523 Ry
        Total length         46.3494 bohr

     End of self-consistent calculation

          k = 0.0000 0.0000 0.0000 ( 18029 PWs)   bands (ev):

   -55.8840 -55.8499 -55.7539 -55.7156 -55.7108 -55.7082 -55.6968 -55.6768
   -55.6699 -55.6320 -55.6302 -55.6274 -55.5935 -55.5628 -54.8648 -54.8308
   -32.3698 -32.2808 -32.2439 -32.2132 -32.1770 -32.1748 -32.1567 -32.1558
   -32.1296 -32.0774 -32.0367 -32.0185 -32.0091 -31.9961 -31.9943 -31.9917
   -31.9791 -31.9481 -31.9416 -31.9308 -31.9221 -31.9104 -31.8996 -31.8906
   -31.8791 -31.8757 -31.8545 -31.8535 -31.8472 -31.8456 -31.8388 -31.8292
   -31.8227 -31.8225 -31.8207 -31.8051 -31.7921 -31.7808 -31.7796 -31.7677
   -31.7122 -31.6264 -31.2713 -31.1840 -31.1616 -31.0887 -31.0023 -30.8906
   -16.5735 -16.4027 -16.1957 -16.0689 -16.0512 -15.8577 -15.7649 -15.6875
   -15.4930 -15.4536 -15.4256 -15.4100 -15.3984 -15.3968 -15.3801 -15.3605
   -15.3405 -15.3307 -15.3094 -15.2566 -15.2500 -15.2353 -15.2169 -15.2137
   -15.0294 -15.0163 -14.9806 -14.9447 -14.8661 -14.5657 -13.3642 -13.2477
    -8.9244  -5.6049  -3.9597  -3.8908  -3.8169  -3.7916  -3.7776  -3.6574
    -3.4841  -3.2964  -3.2080  -3.1738  -3.0583  -3.0124  -2.9166  -2.8386
    -2.8246  -2.7626  -2.7216  -2.6994  -2.6726  -2.6607  -2.6083  -2.5851
    -2.5779  -2.4436  -2.3863  -2.3669  -2.3037  -2.2779  -2.2503  -2.2069
    -2.2012  -2.1873  -2.1706  -2.1336  -2.1048  -2.0879  -2.0067  -1.9361
    -1.8961  -1.8566  -1.6297  -1.5259  -1.5005  -1.4655  -1.4111  -1.3797
    -1.3351  -1.2962  -1.2804  -1.2616  -1.1931  -1.1034  -1.0224  -1.0148
    -0.9131  -0.8883  -0.8016  -0.7262  -0.7077  -0.6456  -0.6231  -0.6187
    -0.6144  -0.5214  -0.4710  -0.3880  -0.3386  -0.3012  -0.2355  -0.1694
    -0.1124  -0.1016  -0.0627  -0.0202   0.0224   0.0329   0.0580   0.0877
     0.1261   0.1640   0.2033   0.2849   0.3271   0.3622   0.4079   0.4204
     0.5227   0.7332   0.7730   0.9121   1.0924   1.1609   1.1867   1.2074
     1.3525   1.7293   1.7751   3.1978   3.3426   3.3602   3.4320   3.4622
     3.5148   3.6857   3.7720   3.8131   3.8693

[...]

          k = 0.0380-0.0419 0.0000 ( 17876 PWs)   bands (ev):

[...]

          k =-0.0760-0.0000 0.0000 ( 17886 PWs)   bands (ev):

[...]

          k =-0.0760-0.0839 0.0000 ( 17948 PWs)   bands (ev):

   -55.8670 -55.8668 -55.7427 -55.7265 -55.7057 -55.6938 -55.6935 -55.6923
   -55.6617 -55.6358 -55.6352 -55.6223 -55.6031 -55.5645 -54.8480 -54.8475
   -32.2050 -32.1851 -32.1850 -32.1604 -32.1601 -32.0999 -32.0671 -32.0490
   -32.0336 -32.0271 -32.0238 -32.0172 -32.0017 -31.9873 -31.9866 -31.9849
   -31.9768 -31.9689 -31.9616 -31.9476 -31.9459 -31.9367 -31.9335 -31.9253
   -31.9119 -31.9035 -31.8993 -31.8947 -31.8820 -31.8783 -31.8701 -31.8692
   -31.8687 -31.8608 -31.8575 -31.8472 -31.8442 -31.8321 -31.8131 -31.8130
   -31.7977 -31.6267 -31.1744 -31.1741 -31.0845 -31.0838 -31.0458 -31.0453
   -16.1459 -15.9773 -15.8684 -15.8536 -15.7903 -15.6795 -15.6673 -15.6406
   -15.6213 -15.5844 -15.5652 -15.5520 -15.5038 -15.4645 -15.4275 -15.4029
   -15.3993 -15.3524 -15.3481 -15.3385 -15.3164 -15.2819 -15.2733 -15.2091
   -15.2004 -15.0986 -15.0830 -15.0680 -15.0151 -14.8980 -13.3495 -13.3494
    -8.9305  -5.5748  -3.8137  -3.3044  -3.2067  -3.0703  -3.0024  -2.9621
    -2.9138  -2.8808  -2.8594  -2.8409  -2.7908  -2.7769  -2.7456  -2.7020
    -2.6840  -2.6669  -2.6469  -2.6200  -2.5990  -2.5873  -2.5688  -2.5511
    -2.5185  -2.5033  -2.4768  -2.4618  -2.4516  -2.4396  -2.4310  -2.4202
    -2.2350  -2.1434  -2.0519  -2.0430  -2.0333  -2.0076  -1.9802  -1.9652
    -1.9481  -1.9259  -1.9008  -1.8714  -1.8408  -1.5888  -1.5587  -1.5238
    -1.4657  -1.4280  -1.3806  -1.3666  -1.3342  -1.3049  -1.2238  -1.1879
    -1.1604  -1.0826  -1.0110  -0.9462  -0.9006  -0.8633  -0.8328  -0.8210
    -0.7811  -0.7427  -0.7336  -0.7093  -0.6933  -0.5866  -0.5846  -0.5819
    -0.4363  -0.3983  -0.3791  -0.2868  -0.2669  -0.0877  -0.0250   0.0020
     0.1357   0.1465   0.1835   0.2928   0.3202   0.3655   0.4219   0.4431
     0.5295   0.5818   0.6235   0.6631   0.6868   0.7035   1.1662   1.5233
     1.5291   1.5953   1.5954   3.5986   3.6397   3.7058   3.7317   3.7519
     3.7873   3.8100   3.8212   3.8664   3.8764

     the Fermi energy is     3.2366 ev

!    total energy              =   -2920.27073163 Ry
     estimated scf accuracy    <       0.00000005 Ry
     smearing contrib. (-TS)   =      -0.01952841 Ry
     internal energy E=F+TS    =   -2920.25120321 Ry

     The total energy is F=E-TS. E is the sum of the following terms:
     one-electron contribution =  -24543.64067401 Ry
     hartree contribution      =   12357.61688227 Ry
     xc contribution           =    -480.80941945 Ry
     ewald contribution        =    9746.58057723 Ry
     electric field correction =       0.00143075 Ry

     convergence has been achieved in  63 iterations

     Forces acting on atoms (cartesian axes, Ry/au):

     atom    1 type  1   force =     0.00006948   -0.00038169    0.09442430
     atom    2 type  1   force =    -0.00007553   -0.00122547   -0.17583889
     atom    3 type  2   force =     0.00046649   -0.00020649   -0.02136713
     atom    4 type  2   force =     0.00017548   -0.00092775    0.05145763
     atom    5 type  2   force =    -0.00541601    0.00099804   -0.00035584
     atom    6 type  2   force =     0.00990624    0.00143073    0.00527590
     atom    7 type  1   force =     0.00311983    0.00406158   -0.00383203
     atom    8 type  1   force =    -0.00264371    0.00537356    0.00462753
     atom    9 type  2   force =     0.00031822    0.00017679    0.00041567
     atom   10 type  2   force =     0.00290106    0.00077515   -0.01334678
     atom   11 type  2   force =     0.00011367    0.00027861   -0.00000634
     atom   12 type  2   force =    -0.00018038   -0.00005380   -0.00007720
     atom   13 type  1   force =    -0.00028186   -0.00029391    0.00138563
     atom   14 type  1   force =    -0.00061680    0.00042353   -0.00123151
     atom   15 type  2   force =     0.00027364    0.00001406   -0.00006357
     atom   16 type  2   force =     0.00005240   -0.00016024    0.00022879
     atom   17 type  2   force =     0.00033294   -0.00085353    0.00072808
     atom   18 type  2   force =     0.00020516    0.00009538   -0.00022029
     atom   19 type  1   force =    -0.00028053    0.00032276   -0.00101326
     atom   20 type  1   force =     0.00003008    0.00186573   -0.00044886
     atom   21 type  2   force =     0.00005056   -0.00009432    0.10309183
     atom   22 type  2   force =    -0.00068597    0.00076560    0.00082237
     atom   23 type  2   force =    -0.07168346   -0.00014519   -0.02717227
     atom   24 type  2   force =     0.07174546    0.00035000   -0.02731927
     atom   25 type  1   force =    -0.00009107   -0.00021731    0.09390635
     atom   26 type  1   force =     0.00003926    0.00039664   -0.17580292
     atom   27 type  2   force =     0.00046570   -0.00026454   -0.02045774
     atom   28 type  2   force =     0.00023839   -0.00170765    0.05408236
     atom   29 type  2   force =    -0.00646794   -0.00170477    0.00028303
     atom   30 type  2   force =     0.01070784   -0.00156215    0.00559603
     atom   31 type  1   force =     0.00345666    0.00044307    0.00536361
     atom   32 type  1   force =    -0.00266889   -0.00668651    0.00503969
     atom   33 type  2   force =     0.00024702    0.00031116    0.00054538
     atom   34 type  2   force =     0.00503785   -0.00079143   -0.00877197
     atom   35 type  2   force =     0.00013011   -0.00000983    0.00001064
     atom   36 type  2   force =    -0.00013838   -0.00002093   -0.00001112
     atom   37 type  1   force =     0.00075100   -0.00042130    0.00090430
     atom   38 type  1   force =    -0.00028111   -0.00119071    0.00000804
     atom   39 type  2   force =    -0.00076397   -0.00016375    0.00041936
     atom   40 type  2   force =     0.00037335    0.00040006   -0.00004062
     atom   41 type  2   force =     0.00020909    0.00152211    0.00074828
     atom   42 type  2   force =     0.00058408    0.00036543    0.00003310
     atom   43 type  1   force =     0.00070200    0.00010148    0.00007059
     atom   44 type  1   force =     0.00004828   -0.00185953   -0.00059497
     atom   45 type  2   force =     0.00005357   -0.00002097    0.10326869
     atom   46 type  2   force =    -0.07166725   -0.00015218   -0.02720098
     atom   47 type  2   force =     0.07170605    0.00030433   -0.02730942
     atom   48 type  3   force =     0.00053235    0.00035000   -0.00069443
     atom   49 type  3   force =     0.00376559    0.00278952   -0.00228594
     atom   50 type  4   force =    -0.00317482   -0.00235996    0.00246252
     atom   51 type  5   force =    -0.08592466   -0.00464183   -0.00003836
     atom   52 type  3   force =     0.03096583    0.05165595    0.00009777
     atom   53 type  3   force =     0.03326760   -0.04745352    0.00020424

     Total force =     0.382315     Total SCF correction =     0.000742
  @ DRIVER MODE: Message from server: STATUS
  @ DRIVER MODE: Message from server: GETFORCE
  @ DRIVER MODE: Returning v,forces,stress,ensemble

     Writing output data file ./calc.save/
  @ DRIVER MODE: Message from server: EXIT
  @ DRIVE MODE: Exiting

     General routines

     Parallel routines

   This run was terminated on:  19:41: 8  11Oct2021

   JOB DONE.