     Program PWSCF v.6.7GPU starts on 20Sep2021 at 15: 7:47

     R & G space division:  proc/nbgrp/npool/nimage =      10
     Reading input from /storage/home/hcoda1/3/ntian30/research/carbon/CxH_vib/CH3_calc/ads_slab/CH3O_a/out_0021/pw.inp
Warning: card &CELL ignored
Warning: card   CELL_DYNAMICS='IPI', ignored
Warning: card / ignored

     Current dimensions of program PWSCF are:
     Max number of different atomic species (ntypx) = 10
     Max number of k-points (npk) =  40000
     Max angular momentum in pseudopotentials (lmaxx) =  3
     Presently no symmetry can be used with electric field

     Message from routine cell_base_init:
     DEPRECATED: use true lattice parameter, not A to a.u. conversion factor

     IMPORTANT: XC functional enforced from input :
     Exchange-correlation= BEEF-VDW
                           (   1   4  43  14   2   0   0)
     Any further DFT definition will be discarded
     Please, verify this is what you really want

  @ DRIVER MODE: Connecting to
 qe_1139763_2907627.sched-torque.pace.gatech.eduix2jzvk3_scratch
  using UNIX socket
  @ DRIVER MODE: Message from server: STATUS
  @ DRIVER MODE: Message from server: INIT
  @ DRIVER MODE: Receiving replica           0          -1
  @ DRIVER MODE: Receiving encoded integer          25
  @ DRIVER MODE:  SCF:  T  FORCE:  T  STRESS:  F  VC:  F  ENSEMBLE:  F
  @ DRIVER MODE:  SCF:  T  FORCE:  T  STRESS:  F  VC:  F  ENSEMBLE:  F

     Using Slab Decomposition

     bravais-lattice index     =            0
     lattice parameter (alat)  =       1.8897  a.u.
     unit-cell volume          =    6658.9804 (a.u.)^3
     number of atoms/cell      =           52
     number of atomic types    =            4
     number of electrons       =       391.00
     number of Kohn-Sham states=          205
     kinetic-energy cutoff     =      29.3995  Ry
     charge density cutoff     =     293.9946  Ry
     scf convergence threshold =      7.3E-08
     mixing beta               =       0.0500
     number of iterations used =            8  plain     mixing
     Exchange-correlation= BEEF-VDW
                           (   1   4  43  14   2   0   0)

     celldm(1)=   1.889726  celldm(2)=   0.000000  celldm(3)=   0.000000
     celldm(4)=   0.000000  celldm(5)=   0.000000  celldm(6)=   0.000000

     crystal axes: (cart. coord. in units of alat)
               a(1) = (   6.579727   0.000000   0.000000 )
               a(2) = (  -0.000775   5.961596   0.000000 )
               a(3) = (   0.000000   0.000000  25.155947 )

     reciprocal axes: (cart. coord. in units 2 pi/alat)
               b(1) = (  0.151982  0.000020  0.000000 )
               b(2) = (  0.000000  0.167740  0.000000 )
               b(3) = (  0.000000  0.000000  0.039752 )

     PseudoPot. # 1 for Ti read from file:
     /storage/coda1/p-amedford6/0/shared/rich_project_chbe-medford/medford-share/data/pseudos_module/espresso/nninc/pbe/van/Ti.UPF
     MD5 check sum: 8e4df49b7f0d34bbd5052bf3f5ea0213
     Pseudo is Ultrasoft, Zval = 12.0
     Generated by new atomic code, or converted to UPF format
     Using radial grid of  851 points,  6 beta functions with:
                l(1) =   0
                l(2) =   0
                l(3) =   1
                l(4) =   1
                l(5) =   2
                l(6) =   2
     Q(r) pseudized with  8 coefficients,  rinner =    1.000   1.000   1.000
                                                       1.000   1.000

     PseudoPot. # 2 for O  read from file:
     /storage/coda1/p-amedford6/0/shared/rich_project_chbe-medford/medford-share/data/pseudos_module/espresso/nninc/pbe/van/O.UPF
     MD5 check sum: 78c19812648e8988a0fe644b0f25305e
     Pseudo is Ultrasoft, Zval =  6.0
     Generated by new atomic code, or converted to UPF format
     Using radial grid of  737 points,  4 beta functions with:
                l(1) =   0
                l(2) =   0
                l(3) =   1
                l(4) =   1
     Q(r) pseudized with  8 coefficients,  rinner =    0.800   0.800   0.800

     PseudoPot. # 3 for C  read from file:
     /storage/coda1/p-amedford6/0/shared/rich_project_chbe-medford/medford-share/data/pseudos_module/espresso/nninc/pbe/van/C.UPF
     MD5 check sum: 1a69bf6b8db32088f5b2163dbdb77a27
     Pseudo is Ultrasoft, Zval =  4.0
     Generated by new atomic code, or converted to UPF format
     Using radial grid of  721 points,  4 beta functions with:
                l(1) =   0
                l(2) =   0
                l(3) =   1
                l(4) =   1
     Q(r) pseudized with  8 coefficients,  rinner =    0.800   0.800   0.800

     PseudoPot. # 4 for H  read from file:
     /storage/coda1/p-amedford6/0/shared/rich_project_chbe-medford/medford-share/data/pseudos_module/espresso/nninc/pbe/van/H.UPF
     MD5 check sum: b5ee9d7bfd3a09ee7748110bda690ff7
     Pseudo is Ultrasoft, Zval =  1.0
     Generated by new atomic code, or converted to UPF format
     Using radial grid of  615 points,  1 beta functions with:
                l(1) =   0
     Q(r) pseudized with  8 coefficients,  rinner =    0.800

     atomic species   valence    mass     pseudopotential
        Ti1           12.00    47.86700     Ti( 1.00)
        O1             6.00    15.99900     O ( 1.00)
        C1             4.00    12.01100     C ( 1.00)
        H1             1.00     1.00800     H ( 1.00)

     No symmetry found

   Cartesian axes

     site n.     atom                  positions (alat units)
         1           Ti1 tau(   1) = (   0.0004258   2.9801865   6.0000000  )
         2           Ti1 tau(   2) = (   3.2906075   1.4906267   6.0002472  )
         3           O1  tau(   3) = (   0.0006271   0.0005054   7.9858123  )
         4           O1  tau(   4) = (   3.2906025   0.0005020   7.3038282  )
         5           O1  tau(   5) = (   4.5942328   1.4918067   9.2879030  )
         6           O1  tau(   6) = (   1.9868534   1.4903216   9.2879459  )
         7           Ti1 tau(   7) = (   3.3187032   3.0312427   9.1575206  )
         8           Ti1 tau(   8) = (   0.0282419   1.6147502   9.3704053  )
         9           O1  tau(   9) = (   3.3236385   0.0141534  11.3532293  )
        10           O1  tau(  10) = (   0.0104197   0.0125229  10.6127740  )
        11           O1  tau(  11) = (   1.3245732   1.5021988  12.6430083  )
        12           O1  tau(  12) = (   5.3244981   1.5061434  12.6562219  )
        13           Ti1 tau(  13) = (   0.0403031   3.0097444  12.8244759  )
        14           Ti1 tau(  14) = (   3.3296682   1.5108177  12.4986020  )
        15           O1  tau(  15) = (   0.0398480   0.0117783  14.7343716  )
        16           O1  tau(  16) = (   3.3300567   0.0146708  13.9469669  )
        17           O1  tau(  17) = (   4.5805658   1.5026465  16.1145873  )
        18           O1  tau(  18) = (   2.0880061   1.5021997  16.1152651  )
        19           Ti1 tau(  19) = (   3.3307167   2.9906167  15.7324548  )
        20           Ti1 tau(  20) = (   0.0579274   1.3843852  16.1188819  )
        21           O1  tau(  21) = (   3.2904802   0.0005063   4.7018136  )
        22           O1  tau(  22) = (   0.0436517   5.9586681  17.2572535  )
        23           O1  tau(  23) = (   1.3043587   1.4918075   6.0039043  )
        24           O1  tau(  24) = (   5.2767064   1.4903225   6.0039473  )
        25           Ti1 tau(  25) = (   0.0000382   5.9609847   6.0000000  )
        26           Ti1 tau(  26) = (   3.2902200   4.4714249   6.0002472  )
        27           O1  tau(  27) = (   0.0002396   2.9813036   7.9858123  )
        28           O1  tau(  28) = (   3.2902150   2.9813002   7.3038282  )
        29           O1  tau(  29) = (   4.5938453   4.4726049   9.2879030  )
        30           O1  tau(  30) = (   1.9864658   4.4711199   9.2879459  )
        31           Ti1 tau(  31) = (   3.3083866   0.0539517   9.1541167  )
        32           Ti1 tau(  32) = (   0.0315341   4.5377404   9.2709708  )
        33           O1  tau(  33) = (   3.3215087   2.9954721  11.3555336  )
        34           O1  tau(  34) = (   0.0112336   2.9957203  10.5730616  )
        35           O1  tau(  35) = (   1.3257220   4.4896437  12.6447561  )
        36           O1  tau(  36) = (   5.3225596   4.4851362  12.6583724  )
        37           Ti1 tau(  37) = (   0.0354833   0.0274604  12.5282598  )
        38           Ti1 tau(  38) = (   3.3297026   4.4921445  12.4963722  )
        39           O1  tau(  39) = (   0.0599690   3.0154325  14.7102929  )
        40           O1  tau(  40) = (   3.3251099   2.9889739  13.9402376  )
        41           O1  tau(  41) = (   4.5781535   4.4756942  16.0984728  )
        42           O1  tau(  42) = (   2.0867977   4.4764083  16.0997756  )
        43           Ti1 tau(  43) = (   3.3478802   0.0108728  15.7387323  )
        44           Ti1 tau(  44) = (   0.0598937   4.5429110  15.9843511  )
        45           O1  tau(  45) = (   3.2900926   2.9813045   4.7018136  )
        46           O1  tau(  46) = (   1.3039711   4.4726057   6.0039043  )
        47           O1  tau(  47) = (   5.2763189   4.4711207   6.0039473  )
        48           C1  tau(  48) = (   6.0696523   3.0631652  18.6664891  )
        49           O1  tau(  49) = (   0.0149881   2.9985468  17.3426271  )
        50           H1  tau(  50) = (   4.9903245   2.8753800  18.6581135  )
        51           H1  tau(  51) = (   6.5502243   2.2963723  19.2898855  )
        52           H1  tau(  52) = (   6.2508803   4.0560215  19.0798806  )

     number of k points=    10  Fermi-Dirac smearing, width (Ry)=  0.0073
                       cart. coord. in units 2pi/alat
        k(    1) = (   0.0000000   0.0000000   0.0000000), wk =   0.1250000
        k(    2) = (   0.0000000   0.0419351   0.0000000), wk =   0.2500000
        k(    3) = (   0.0000000  -0.0838702   0.0000000), wk =   0.1250000
        k(    4) = (   0.0379955   0.0000049   0.0000000), wk =   0.2500000
        k(    5) = (   0.0379955   0.0419400   0.0000000), wk =   0.2500000
        k(    6) = (   0.0379955  -0.0838652   0.0000000), wk =   0.2500000
        k(    7) = (   0.0379955  -0.0419301   0.0000000), wk =   0.2500000
        k(    8) = (  -0.0759910  -0.0000099   0.0000000), wk =   0.1250000
        k(    9) = (  -0.0759910   0.0419252   0.0000000), wk =   0.2500000
        k(   10) = (  -0.0759910  -0.0838800   0.0000000), wk =   0.1250000

     Initial potential from superposition of free atoms

     starting charge  374.99918, renormalised to  391.00000

     negative rho (up, down):  1.818E-02 0.000E+00

     %%%%%%%%%%%%%%%%%%%%%%%%%%%%%%%%%%%%%%%%%%%%%%%%%%%%%%%%%%%%%%%%%%%%%%%%
     %                                                                      %
     % You are using vdW-DF, which was implemented by the Thonhauser group. %
     % Please cite the following two papers that made this development      %
     % possible and the two reviews that describe the various versions:     %
     %                                                                      %
     %   T. Thonhauser et al., PRL 115, 136402 (2015).                      %
     %   T. Thonhauser et al., PRB 76, 125112 (2007).                       %
     %   K. Berland et al., Rep. Prog. Phys. 78, 066501 (2015).             %
     %   D.C. Langreth et al., J. Phys.: Condens. Matter 21, 084203 (2009). %
     %                                                                      %
     %                                                                      %
     % If you are calculating the stress with vdW-DF, please also cite:     %
     %                                                                      %
     %   R. Sabatini et al., J. Phys.: Condens. Matter 24, 424209 (2012).   %
     %                                                                      %
     %%%%%%%%%%%%%%%%%%%%%%%%%%%%%%%%%%%%%%%%%%%%%%%%%%%%%%%%%%%%%%%%%%%%%%%%

     Adding external electric field

     Computed dipole along edir(3) :
        Dipole               -5.5401 Ry au,        -14.0815 Debye
        Dipole field         -0.0105 Ry au,

        Potential amp.        0.9692 Ry
        Total length         46.3494 bohr

     Starting wfcs are  295 atomic wfcs
  @ DRIVER MODE: Message from server: STATUS
  @ DRIVER MODE: Message from server: POSDATA
  @ DRIVER MODE: Reading and sharing cell
  @ DRIVER MODE: Reading and sharing positions
  @ DRIVER MODE: Received positions

     Self-consistent Calculation

     iteration #  1     ecut=    29.40 Ry     beta= 0.05
     Davidson diagonalization with overlap
     c_bands:  3 eigenvalues not converged
     c_bands:  2 eigenvalues not converged
     c_bands:  3 eigenvalues not converged
     c_bands:  2 eigenvalues not converged
     c_bands:  3 eigenvalues not converged
     c_bands:  2 eigenvalues not converged
     c_bands:  1 eigenvalues not converged
     c_bands:  1 eigenvalues not converged
     c_bands:  2 eigenvalues not converged
     ethr =  1.00E-05,  avg # of iterations = 19.7

[...]

     total energy              =   -2791.63927012 Ry
     estimated scf accuracy    <    1532.24240339 Ry

     iteration #  2     ecut=    29.40 Ry     beta= 0.05
     Davidson diagonalization with overlap
     ethr =  1.00E-02,  avg # of iterations = 17.8

[...]

     iteration # 66     ecut=    29.40 Ry     beta= 0.05
     Davidson diagonalization with overlap
     c_bands:  1 eigenvalues not converged
     c_bands:  2 eigenvalues not converged
     c_bands:  1 eigenvalues not converged
     c_bands:  1 eigenvalues not converged
     ethr =  4.42E-11,  avg # of iterations = 17.7

[...]

     total energy              =   -2931.50279383 Ry
     estimated scf accuracy    <       0.00000017 Ry

     iteration # 67     ecut=    29.40 Ry     beta= 0.05
     Davidson diagonalization with overlap
     ethr =  4.32E-11,  avg # of iterations = 10.1

     negative rho (up, down):  1.842E-02 0.000E+00

     Adding external electric field

     Computed dipole along edir(3) :
        Dipole                0.7520 Ry au,          1.9114 Debye
        Dipole field          0.0014 Ry au,

        Potential amp.       -0.1316 Ry
        Total length         46.3494 bohr

     End of self-consistent calculation

          k = 0.0000 0.0000 0.0000 ( 18029 PWs)   bands (ev):

   -55.9547 -55.9401 -55.9181 -55.9039 -55.8395 -55.8352 -55.8139 -55.7839
   -55.7798 -55.7289 -55.7193 -55.7134 -55.6794 -55.5966 -54.9681 -54.9340
   -32.5057 -32.4220 -32.3504 -32.2978 -32.2726 -32.2530 -32.2455 -32.2230
   -32.1919 -32.1792 -32.1593 -32.1539 -32.1504 -32.1207 -32.1154 -32.0935
   -32.0878 -32.0860 -32.0703 -32.0449 -32.0439 -32.0202 -32.0141 -31.9962
   -31.9959 -31.9951 -31.9665 -31.9661 -31.9542 -31.9442 -31.9375 -31.9347
   -31.9271 -31.9152 -31.8898 -31.8870 -31.8780 -31.8569 -31.8211 -31.8156
   -31.7931 -31.7851 -31.3781 -31.2807 -31.2583 -31.1947 -31.1086 -30.9975
   -17.6729 -16.6827 -16.3969 -16.2332 -16.1008 -16.0649 -15.9615 -15.7772
   -15.6384 -15.6210 -15.5572 -15.5180 -15.5025 -15.4765 -15.4728 -15.4596
   -15.4568 -15.4076 -15.3722 -15.3710 -15.3558 -15.3335 -15.2724 -15.2312
   -15.1493 -15.0959 -15.0713 -15.0162 -14.9542 -14.9352 -13.4689 -13.3506
    -9.4837  -4.3963  -4.1478  -4.0414  -3.8700  -3.8530  -3.8375  -3.8106
    -3.7539  -3.5033  -3.4882  -3.1688  -3.1097  -3.0855  -3.0716  -3.0652
    -2.8268  -2.8079  -2.7793  -2.7690  -2.7608  -2.7316  -2.7037  -2.6943
    -2.6706  -2.6546  -2.5549  -2.4795  -2.4705  -2.3621  -2.3164  -2.3051
    -2.2549  -2.2166  -2.2090  -2.1893  -2.1645  -2.1475  -2.1192  -2.1163
    -2.0199  -1.8905  -1.7855  -1.7554  -1.7136  -1.6547  -1.4483  -1.4029
    -1.3677  -1.3545  -1.2972  -1.2646  -1.2552  -1.1819  -1.1444  -1.1277
    -1.0206  -0.9599  -0.9323  -0.9078  -0.8451  -0.8096  -0.7619  -0.6905
    -0.6717  -0.6567  -0.4437  -0.4189  -0.4129  -0.4018  -0.2899  -0.2382
    -0.1823  -0.1710  -0.1589  -0.1277  -0.0562   0.0085   0.0198   0.0417
     0.0748   0.1013   0.1783   0.2056   0.2307   0.2549   0.2889   0.3752
     0.4222   0.5633   0.6924   0.7155   0.8154   0.9582   1.0562   1.1288
     1.2265   1.6457   1.7059   3.2308   3.2501   3.2949   3.3244   3.3829
     3.5042   3.6235   3.6587   3.6937   3.7157

[...]

          k = 0.0380-0.0419 0.0000 ( 17876 PWs)   bands (ev):

[...]

          k =-0.0760-0.0000 0.0000 ( 17886 PWs)   bands (ev):

[...]

          k =-0.0760-0.0839 0.0000 ( 17948 PWs)   bands (ev):

   -55.9432 -55.9294 -55.9222 -55.9216 -55.8342 -55.8323 -55.7973 -55.7965
   -55.7891 -55.7262 -55.7219 -55.6996 -55.6934 -55.5987 -54.9516 -54.9504
   -32.3098 -32.3054 -32.2502 -32.2457 -32.2347 -32.2309 -32.2132 -32.2080
   -32.2044 -32.1615 -32.1406 -32.1337 -32.1297 -32.0927 -32.0837 -32.0779
   -32.0700 -32.0663 -32.0632 -32.0609 -32.0507 -32.0386 -32.0347 -32.0286
   -32.0207 -32.0161 -32.0129 -32.0006 -31.9955 -31.9942 -31.9689 -31.9516
   -31.9495 -31.9461 -31.9398 -31.9230 -31.9203 -31.9091 -31.9032 -31.8914
   -31.8288 -31.7932 -31.2717 -31.2703 -31.1915 -31.1906 -31.1522 -31.1512
   -17.6355 -16.1234 -16.1072 -15.8734 -15.8678 -15.8634 -15.7938 -15.7087
   -15.6890 -15.6736 -15.6679 -15.6128 -15.5985 -15.5871 -15.5259 -15.4883
   -15.4621 -15.4542 -15.4506 -15.4020 -15.3980 -15.3448 -15.3266 -15.3121
   -15.3012 -15.2854 -15.2779 -15.1818 -15.1805 -15.1105 -13.4530 -13.4507
    -9.4844  -4.2655  -4.1168  -3.8531  -3.4135  -3.3956  -3.1144  -3.0821
    -3.0786  -2.9896  -2.9037  -2.8614  -2.8253  -2.7933  -2.7889  -2.7868
    -2.7667  -2.7374  -2.7337  -2.7128  -2.6930  -2.6820  -2.6278  -2.5920
    -2.5837  -2.5816  -2.5703  -2.5402  -2.5252  -2.5036  -2.4948  -2.4852
    -2.4645  -2.3665  -2.2374  -2.2047  -2.0926  -2.0845  -2.0478  -2.0345
    -2.0069  -1.9976  -1.9785  -1.8694  -1.8049  -1.6777  -1.6739  -1.6550
    -1.5975  -1.5280  -1.4570  -1.3884  -1.3665  -1.3513  -1.2534  -1.2414
    -1.1728  -1.1529  -1.0956  -1.0641  -1.0531  -0.9533  -0.9198  -0.9053
    -0.8908  -0.8166  -0.7993  -0.7789  -0.7497  -0.6890  -0.6781  -0.6087
    -0.5739  -0.5298  -0.4663  -0.4421  -0.3936  -0.3047  -0.1284  -0.0479
     0.0548   0.0979   0.1569   0.1699   0.2614   0.3056   0.3204   0.3279
     0.4170   0.4812   0.5085   0.5716   0.5849   0.6108   0.6727   1.4158
     1.4176   1.5083   1.5185   3.4386   3.4693   3.4832   3.5316   3.6909
     3.6960   3.7160   3.7209   3.7950   3.8850

     the Fermi energy is     3.2003 ev

!    total energy              =   -2931.50281626 Ry
     estimated scf accuracy    <       0.00000006 Ry
     smearing contrib. (-TS)   =      -0.02313158 Ry
     internal energy E=F+TS    =   -2931.47968469 Ry

     The total energy is F=E-TS. E is the sum of the following terms:
     one-electron contribution =  -24510.20079464 Ry
     hartree contribution      =   12340.10053333 Ry
     xc contribution           =    -482.04790407 Ry
     ewald contribution        =    9720.66741351 Ry
     electric field correction =       0.00106720 Ry

     convergence has been achieved in  67 iterations

     Forces acting on atoms (cartesian axes, Ry/au):

     atom    1 type  1   force =    -0.00013603   -0.00172201    0.10701637
     atom    2 type  1   force =    -0.00041287    0.00039401   -0.17994479
     atom    3 type  2   force =     0.00029680   -0.00714173   -0.03305270
     atom    4 type  2   force =     0.00067505    0.00051953    0.04596474
     atom    5 type  2   force =    -0.01814256    0.00044009    0.00392394
     atom    6 type  2   force =     0.02136765   -0.00104100    0.00544525
     atom    7 type  1   force =    -0.00015403   -0.00030237   -0.00015893
     atom    8 type  1   force =    -0.00008549   -0.00029604   -0.00176851
     atom    9 type  2   force =    -0.00030490   -0.00018184    0.00033642
     atom   10 type  2   force =    -0.00014420   -0.00052416    0.00016065
     atom   11 type  2   force =    -0.00033881    0.00014043    0.00060750
     atom   12 type  2   force =    -0.00019393    0.00021803    0.00021672
     atom   13 type  1   force =    -0.00018088   -0.00038778   -0.00100606
     atom   14 type  1   force =     0.00029219    0.00022100   -0.00049510
     atom   15 type  2   force =    -0.00016074    0.00018244   -0.00117718
     atom   16 type  2   force =    -0.00039910   -0.00027620   -0.00087780
     atom   17 type  2   force =    -0.00126897    0.00044027   -0.00074441
     atom   18 type  2   force =     0.00008798    0.00023623   -0.00078320
     atom   19 type  1   force =    -0.00006835   -0.00002596    0.00016781
     atom   20 type  1   force =    -0.00083017   -0.00087459    0.00105714
     atom   21 type  2   force =    -0.00005712    0.00009435    0.10422358
     atom   22 type  2   force =     0.00011531    0.00027291   -0.00083990
     atom   23 type  2   force =    -0.06895903    0.00066721   -0.02969763
     atom   24 type  2   force =     0.06866826    0.00113826   -0.02975494
     atom   25 type  1   force =    -0.00011835    0.00159402    0.11782713
     atom   26 type  1   force =    -0.00016180    0.00002751   -0.17999422
     atom   27 type  2   force =     0.00043639    0.00401836   -0.02694505
     atom   28 type  2   force =     0.00078182    0.00082593    0.04758668
     atom   29 type  2   force =    -0.01696219    0.00166944    0.00319387
     atom   30 type  2   force =     0.01945103    0.00119033    0.00454498
     atom   31 type  1   force =    -0.00025235    0.00053826   -0.00020817
     atom   32 type  1   force =    -0.00001082    0.00018727   -0.00097608
     atom   33 type  2   force =    -0.00030402   -0.00006775   -0.00004866
     atom   34 type  2   force =    -0.00012375    0.00069692    0.00049521
     atom   35 type  2   force =    -0.00029977   -0.00002562    0.00014476
     atom   36 type  2   force =    -0.00021514   -0.00003644   -0.00020734
     atom   37 type  1   force =    -0.00012506    0.00061793    0.00082006
     atom   38 type  1   force =     0.00020051   -0.00030364   -0.00049745
     atom   39 type  2   force =    -0.00026190   -0.00021997    0.00032575
     atom   40 type  2   force =    -0.00034426    0.00023879   -0.00035382
     atom   41 type  2   force =    -0.00076029   -0.00009461   -0.00041556
     atom   42 type  2   force =     0.00029553    0.00011557   -0.00061323
     atom   43 type  1   force =    -0.00012131    0.00020394    0.00056461
     atom   44 type  1   force =    -0.00067782    0.00069579    0.00130518
     atom   45 type  2   force =    -0.00006237    0.00006122    0.10425949
     atom   46 type  2   force =    -0.06850844   -0.00129518   -0.02972535
     atom   47 type  2   force =     0.06832297   -0.00085656   -0.02980383
     atom   48 type  3   force =     0.00298689   -0.00775541    0.00286810
     atom   49 type  2   force =    -0.00123432    0.00050788    0.00087023
     atom   50 type  4   force =     0.00033064   -0.00002998   -0.00022216
     atom   51 type  4   force =    -0.00302811    0.00614811   -0.00445290
     atom   52 type  4   force =     0.00110024   -0.00084321    0.00083880

     Total force =     0.377093     Total SCF correction =     0.000771
  @ DRIVER MODE: Message from server: STATUS
  @ DRIVER MODE: Message from server: GETFORCE
  @ DRIVER MODE: Returning v,forces,stress,ensemble

     Writing output data file ./calc.save/
  @ DRIVER MODE: Message from server: EXIT
  @ DRIVE MODE: Exiting

     General routines

     Parallel routines

   This run was terminated on:  15:25:33  20Sep2021

   JOB DONE.