     Program PWSCF v.6.7GPU starts on 15Sep2021 at 23: 6:49

     R & G space division:  proc/nbgrp/npool/nimage =      10
     Reading input from /storage/home/hcoda1/3/ntian30/research/carbon/CxH_vib/H2O_calc/ads_slab/CH2NH2O_a/out_0023/pw.inp
Warning: card &CELL ignored
Warning: card   CELL_DYNAMICS='IPI', ignored
Warning: card / ignored

     Current dimensions of program PWSCF are:
     Max number of different atomic species (ntypx) = 10
     Max number of k-points (npk) =  40000
     Max angular momentum in pseudopotentials (lmaxx) =  3
     Presently no symmetry can be used with electric field

     Message from routine cell_base_init:
     DEPRECATED: use true lattice parameter, not A to a.u. conversion factor

     IMPORTANT: XC functional enforced from input :
     Exchange-correlation= BEEF-VDW
                           (   1   4  43  14   2   0   0)
     Any further DFT definition will be discarded
     Please, verify this is what you really want

  @ DRIVER MODE: Connecting to
 qe_1139763_2852607.sched-torque.pace.gatech.eduxifemr63_scratch
  using UNIX socket
  @ DRIVER MODE: Message from server: STATUS
  @ DRIVER MODE: Message from server: INIT
  @ DRIVER MODE: Receiving replica           0          -1
  @ DRIVER MODE: Receiving encoded integer          25
  @ DRIVER MODE:  SCF:  T  FORCE:  T  STRESS:  F  VC:  F  ENSEMBLE:  F
  @ DRIVER MODE:  SCF:  T  FORCE:  T  STRESS:  F  VC:  F  ENSEMBLE:  F

     Using Slab Decomposition

     bravais-lattice index     =            0
     lattice parameter (alat)  =       1.8897  a.u.
     unit-cell volume          =    6658.9804 (a.u.)^3
     number of atoms/cell      =           54
     number of atomic types    =            5
     number of electrons       =       397.00
     number of Kohn-Sham states=          208
     kinetic-energy cutoff     =      29.3995  Ry
     charge density cutoff     =     293.9946  Ry
     scf convergence threshold =      7.3E-08
     mixing beta               =       0.0500
     number of iterations used =            8  plain     mixing
     Exchange-correlation= BEEF-VDW
                           (   1   4  43  14   2   0   0)

     celldm(1)=   1.889726  celldm(2)=   0.000000  celldm(3)=   0.000000
     celldm(4)=   0.000000  celldm(5)=   0.000000  celldm(6)=   0.000000

     crystal axes: (cart. coord. in units of alat)
               a(1) = (   6.579727   0.000000   0.000000 )
               a(2) = (  -0.000775   5.961596   0.000000 )
               a(3) = (   0.000000   0.000000  25.155947 )

     reciprocal axes: (cart. coord. in units 2 pi/alat)
               b(1) = (  0.151982  0.000020  0.000000 )
               b(2) = (  0.000000  0.167740  0.000000 )
               b(3) = (  0.000000  0.000000  0.039752 )

     PseudoPot. # 1 for Ti read from file:
     /storage/coda1/p-amedford6/0/shared/rich_project_chbe-medford/medford-share/data/pseudos_module/espresso/nninc/pbe/van/Ti.UPF
     MD5 check sum: 8e4df49b7f0d34bbd5052bf3f5ea0213
     Pseudo is Ultrasoft, Zval = 12.0
     Generated by new atomic code, or converted to UPF format
     Using radial grid of  851 points,  6 beta functions with:
                l(1) =   0
                l(2) =   0
                l(3) =   1
                l(4) =   1
                l(5) =   2
                l(6) =   2
     Q(r) pseudized with  8 coefficients,  rinner =    1.000   1.000   1.000
                                                       1.000   1.000

     PseudoPot. # 2 for O  read from file:
     /storage/coda1/p-amedford6/0/shared/rich_project_chbe-medford/medford-share/data/pseudos_module/espresso/nninc/pbe/van/O.UPF
     MD5 check sum: 78c19812648e8988a0fe644b0f25305e
     Pseudo is Ultrasoft, Zval =  6.0
     Generated by new atomic code, or converted to UPF format
     Using radial grid of  737 points,  4 beta functions with:
                l(1) =   0
                l(2) =   0
                l(3) =   1
                l(4) =   1
     Q(r) pseudized with  8 coefficients,  rinner =    0.800   0.800   0.800

     PseudoPot. # 3 for N  read from file:
     /storage/coda1/p-amedford6/0/shared/rich_project_chbe-medford/medford-share/data/pseudos_module/espresso/nninc/pbe/van/N.UPF
     MD5 check sum: 90d10febe142ad51ac9d5be1deb811c4
     Pseudo is Ultrasoft, Zval =  5.0
     Generated by new atomic code, or converted to UPF format
     Using radial grid of  729 points,  4 beta functions with:
                l(1) =   0
                l(2) =   0
                l(3) =   1
                l(4) =   1
     Q(r) pseudized with  8 coefficients,  rinner =    0.800   0.800   0.800

     PseudoPot. # 4 for C  read from file:
     /storage/coda1/p-amedford6/0/shared/rich_project_chbe-medford/medford-share/data/pseudos_module/espresso/nninc/pbe/van/C.UPF
     MD5 check sum: 1a69bf6b8db32088f5b2163dbdb77a27
     Pseudo is Ultrasoft, Zval =  4.0
     Generated by new atomic code, or converted to UPF format
     Using radial grid of  721 points,  4 beta functions with:
                l(1) =   0
                l(2) =   0
                l(3) =   1
                l(4) =   1
     Q(r) pseudized with  8 coefficients,  rinner =    0.800   0.800   0.800

     PseudoPot. # 5 for H  read from file:
     /storage/coda1/p-amedford6/0/shared/rich_project_chbe-medford/medford-share/data/pseudos_module/espresso/nninc/pbe/van/H.UPF
     MD5 check sum: b5ee9d7bfd3a09ee7748110bda690ff7
     Pseudo is Ultrasoft, Zval =  1.0
     Generated by new atomic code, or converted to UPF format
     Using radial grid of  615 points,  1 beta functions with:
                l(1) =   0
     Q(r) pseudized with  8 coefficients,  rinner =    0.800

     atomic species   valence    mass     pseudopotential
        Ti1           12.00    47.86700     Ti( 1.00)
        O1             6.00    15.99900     O ( 1.00)
        N1             5.00    14.00700     N ( 1.00)
        C1             4.00    12.01100     C ( 1.00)
        H1             1.00     1.00800     H ( 1.00)

     No symmetry found

   Cartesian axes

     site n.     atom                  positions (alat units)
         1           Ti1 tau(   1) = (   0.0004258   2.9801865   6.0000000  )
         2           Ti1 tau(   2) = (   3.2906075   1.4906267   6.0002472  )
         3           O1  tau(   3) = (   0.0006271   0.0005054   7.9858123  )
         4           O1  tau(   4) = (   3.2906025   0.0005020   7.3038282  )
         5           O1  tau(   5) = (   4.5942328   1.4918067   9.2879030  )
         6           O1  tau(   6) = (   1.9868534   1.4903216   9.2879459  )
         7           Ti1 tau(   7) = (   3.2907910   2.8959150   9.1758416  )
         8           Ti1 tau(   8) = (   0.0015273   1.4827037   9.2680791  )
         9           O1  tau(   9) = (   3.3024300   0.0156651  11.3362489  )
        10           O1  tau(  10) = (   0.0116148   5.9584955  10.6183126  )
        11           O1  tau(  11) = (   1.3202942   1.5021919  12.6211084  )
        12           O1  tau(  12) = (   5.3089492   1.4933221  12.6244093  )
        13           Ti1 tau(  13) = (   6.5318549   2.9554166  12.6004298  )
        14           Ti1 tau(  14) = (   3.2163550   1.4959796  12.4995714  )
        15           O1  tau(  15) = (   0.0198598   0.0281632  14.6562685  )
        16           O1  tau(  16) = (   3.3115091   0.0214956  13.9462002  )
        17           O1  tau(  17) = (   4.5768415   1.5604546  16.0171077  )
        18           O1  tau(  18) = (   2.0579415   1.5629007  16.0064375  )
        19           Ti1 tau(  19) = (   3.3180608   3.0267156  15.6839788  )
        20           Ti1 tau(  20) = (   0.0373526   1.5614015  15.8096867  )
        21           O1  tau(  21) = (   3.2904802   0.0005063   4.7018136  )
        22           O1  tau(  22) = (   0.0417102   0.0258274  17.2400240  )
        23           O1  tau(  23) = (   1.3043587   1.4918075   6.0039043  )
        24           O1  tau(  24) = (   5.2767064   1.4903225   6.0039473  )
        25           Ti1 tau(  25) = (   0.0000382   5.9609847   6.0000000  )
        26           Ti1 tau(  26) = (   3.2902200   4.4714249   6.0002472  )
        27           O1  tau(  27) = (   0.0002396   2.9813036   7.9858123  )
        28           O1  tau(  28) = (   3.2902150   2.9813002   7.3038282  )
        29           O1  tau(  29) = (   4.5938453   4.4726049   9.2879030  )
        30           O1  tau(  30) = (   1.9864658   4.4711199   9.2879459  )
        31           Ti1 tau(  31) = (   3.2891106   5.8743827   9.1763621  )
        32           Ti1 tau(  32) = (   0.0006254   4.4649316   9.2693709  )
        33           O1  tau(  33) = (   3.2972593   2.9937737  11.3378417  )
        34           O1  tau(  34) = (   0.0092240   2.9805883  10.6323155  )
        35           O1  tau(  35) = (   1.3143161   4.4928581  12.6237603  )
        36           O1  tau(  36) = (   5.3098643   4.4818631  12.6293382  )
        37           Ti1 tau(  37) = (   6.5333161   5.9285706  12.5502982  )
        38           Ti1 tau(  38) = (   3.2144982   4.4885123  12.4917375  )
        39           O1  tau(  39) = (   0.0198576   2.9709144  14.6477637  )
        40           O1  tau(  40) = (   3.3145585   3.0140958  13.8917140  )
        41           O1  tau(  41) = (   4.5688195   4.4932876  16.0791699  )
        42           O1  tau(  42) = (   2.0650477   4.4875755  16.0663885  )
        43           Ti1 tau(  43) = (   3.3331689   0.0560974  15.7812046  )
        44           Ti1 tau(  44) = (   0.0348837   4.6827776  16.0884590  )
        45           O1  tau(  45) = (   3.2900926   2.9813045   4.7018136  )
        46           O1  tau(  46) = (   1.3039711   4.4726057   6.0039043  )
        47           O1  tau(  47) = (   5.2763189   4.4711207   6.0039473  )
        48           N1  tau(  48) = (   0.0359943   2.9709886  17.3934402  )
        49           C1  tau(  49) = (   0.0487696   2.8543938  18.6443550  )
        50           H1  tau(  50) = (   0.0551173   3.7295775  19.3121947  )
        51           H1  tau(  51) = (   0.0550652   1.8705629  19.1211967  )
        52           O1  tau(  52) = (   3.2796845   0.1561466  18.1797653  )
        53           H1  tau(  53) = (   4.0301203   5.5808867  18.4795516  )
        54           H1  tau(  54) = (   2.4663764   5.6445902  18.4210942  )

     number of k points=    10  Fermi-Dirac smearing, width (Ry)=  0.0073
                       cart. coord. in units 2pi/alat
        k(    1) = (   0.0000000   0.0000000   0.0000000), wk =   0.1250000
        k(    2) = (   0.0000000   0.0419351   0.0000000), wk =   0.2500000
        k(    3) = (   0.0000000  -0.0838702   0.0000000), wk =   0.1250000
        k(    4) = (   0.0379955   0.0000049   0.0000000), wk =   0.2500000
        k(    5) = (   0.0379955   0.0419400   0.0000000), wk =   0.2500000
        k(    6) = (   0.0379955  -0.0838652   0.0000000), wk =   0.2500000
        k(    7) = (   0.0379955  -0.0419301   0.0000000), wk =   0.2500000
        k(    8) = (  -0.0759910  -0.0000099   0.0000000), wk =   0.1250000
        k(    9) = (  -0.0759910   0.0419252   0.0000000), wk =   0.2500000
        k(   10) = (  -0.0759910  -0.0838800   0.0000000), wk =   0.1250000

     Initial potential from superposition of free atoms

     starting charge  380.99916, renormalised to  397.00000

     negative rho (up, down):  1.695E-02 0.000E+00

     %%%%%%%%%%%%%%%%%%%%%%%%%%%%%%%%%%%%%%%%%%%%%%%%%%%%%%%%%%%%%%%%%%%%%%%%
     %                                                                      %
     % You are using vdW-DF, which was implemented by the Thonhauser group. %
     % Please cite the following two papers that made this development      %
     % possible and the two reviews that describe the various versions:     %
     %                                                                      %
     %   T. Thonhauser et al., PRL 115, 136402 (2015).                      %
     %   T. Thonhauser et al., PRB 76, 125112 (2007).                       %
     %   K. Berland et al., Rep. Prog. Phys. 78, 066501 (2015).             %
     %   D.C. Langreth et al., J. Phys.: Condens. Matter 21, 084203 (2009). %
     %                                                                      %
     %                                                                      %
     % If you are calculating the stress with vdW-DF, please also cite:     %
     %                                                                      %
     %   R. Sabatini et al., J. Phys.: Condens. Matter 24, 424209 (2012).   %
     %                                                                      %
     %%%%%%%%%%%%%%%%%%%%%%%%%%%%%%%%%%%%%%%%%%%%%%%%%%%%%%%%%%%%%%%%%%%%%%%%

     Adding external electric field

     Computed dipole along edir(3) :
        Dipole               -9.2257 Ry au,        -23.4493 Debye
        Dipole field         -0.0174 Ry au,

        Potential amp.        1.6139 Ry
        Total length         46.3494 bohr

     Starting wfcs are  300 atomic wfcs
  @ DRIVER MODE: Message from server: STATUS
  @ DRIVER MODE: Message from server: POSDATA
  @ DRIVER MODE: Reading and sharing cell
  @ DRIVER MODE: Reading and sharing positions
  @ DRIVER MODE: Received positions

     Self-consistent Calculation

     iteration #  1     ecut=    29.40 Ry     beta= 0.05
     Davidson diagonalization with overlap
     c_bands:  1 eigenvalues not converged
     c_bands:  1 eigenvalues not converged
     c_bands:  1 eigenvalues not converged
     c_bands:  1 eigenvalues not converged
     c_bands:  1 eigenvalues not converged
     c_bands:  1 eigenvalues not converged
     c_bands:  1 eigenvalues not converged
     ethr =  1.00E-05,  avg # of iterations = 19.0

[...]

     total energy              =   -2550.54894047 Ry
     estimated scf accuracy    <    4467.32302883 Ry

     iteration #  2     ecut=    29.40 Ry     beta= 0.05
     Davidson diagonalization with overlap
     ethr =  1.00E-02,  avg # of iterations = 25.6

[...]

     iteration # 57     ecut=    29.40 Ry     beta= 0.05
     Davidson diagonalization with overlap
     c_bands:  1 eigenvalues not converged
     ethr =  7.30E-11,  avg # of iterations = 13.6

[...]

     total energy              =   -2952.76136806 Ry
     estimated scf accuracy    <       0.00000011 Ry

     iteration # 59     ecut=    29.40 Ry     beta= 0.05
     Davidson diagonalization with overlap
     ethr =  2.67E-11,  avg # of iterations = 13.9

     negative rho (up, down):  1.682E-02 0.000E+00

     Adding external electric field

     Computed dipole along edir(3) :
        Dipole                1.0249 Ry au,          2.6049 Debye
        Dipole field          0.0019 Ry au,

        Potential amp.       -0.1793 Ry
        Total length         46.3494 bohr

     End of self-consistent calculation

          k = 0.0000 0.0000 0.0000 ( 18029 PWs)   bands (ev):

   -55.6868 -55.6558 -55.6527 -55.6270 -55.6199 -55.5344 -55.5005 -55.4993
   -55.4683 -55.4665 -55.4627 -55.4290 -55.2126 -54.9957 -54.6663 -54.6322
   -32.2000 -32.1700 -32.0412 -32.0376 -31.9989 -31.9794 -31.9600 -31.9529
   -31.9305 -31.8903 -31.8811 -31.8505 -31.8390 -31.8380 -31.8336 -31.8134
   -31.7919 -31.7852 -31.7816 -31.7489 -31.7439 -31.7365 -31.7022 -31.6913
   -31.6910 -31.6898 -31.6799 -31.6622 -31.6620 -31.6537 -31.6487 -31.6398
   -31.6315 -31.6304 -31.6162 -31.6087 -31.5750 -31.4614 -31.4085 -31.2687
   -31.2480 -31.2096 -31.0734 -30.9850 -30.9626 -30.8901 -30.8036 -30.6925
   -19.1490 -16.4032 -16.1605 -15.9428 -15.8433 -15.8064 -15.6086 -15.5061
   -15.4190 -15.3095 -15.2449 -15.2240 -15.2177 -15.1976 -15.1871 -15.1460
   -15.1326 -15.1285 -15.1089 -15.0916 -15.0386 -15.0286 -15.0209 -14.9317
   -14.8583 -14.8235 -14.8134 -14.8054 -14.7891 -14.7450 -14.2995 -13.1684
   -13.0520  -7.5011  -6.9592  -4.2981  -3.8217  -3.7456  -3.6424  -3.5938
    -3.5526  -3.4098  -3.3485  -3.2593  -3.1452  -2.9335  -2.8740  -2.8342
    -2.8064  -2.7456  -2.5951  -2.5510  -2.4991  -2.4892  -2.4777  -2.4645
    -2.4371  -2.4224  -2.3268  -2.2856  -2.2390  -2.2290  -2.0894  -2.0763
    -2.0493  -2.0000  -1.9655  -1.9518  -1.9462  -1.9344  -1.9205  -1.8974
    -1.8723  -1.7695  -1.6795  -1.6104  -1.4987  -1.4539  -1.4043  -1.3102
    -1.3013  -1.2317  -1.1531  -1.1407  -1.1165  -1.0869  -1.0788  -0.9641
    -0.8581  -0.8445  -0.7443  -0.6913  -0.6084  -0.5795  -0.5249  -0.4797
    -0.4499  -0.4462  -0.4301  -0.3795  -0.2363  -0.2106  -0.1722  -0.0926
    -0.0335  -0.0219   0.0223   0.0636   0.1171   0.1427   0.1972   0.2048
     0.2390   0.2831   0.2865   0.3053   0.3226   0.3481   0.5222   0.5633
     0.5750   0.6507   0.6602   0.8282   0.8407   0.9679   1.0784   1.2830
     1.3562   1.4425   1.5484   1.6504   1.9273   1.9730   3.4417   3.5334
     3.5761   3.6069   3.6860   3.6892   3.8996   3.9166   3.9378   4.0899

[...]

          k = 0.0380-0.0419 0.0000 ( 17876 PWs)   bands (ev):

[...]

          k =-0.0760-0.0000 0.0000 ( 17886 PWs)   bands (ev):

[...]

          k =-0.0760-0.0839 0.0000 ( 17948 PWs)   bands (ev):

   -55.6701 -55.6693 -55.6388 -55.6367 -55.6250 -55.5198 -55.5140 -55.4834
   -55.4830 -55.4701 -55.4472 -55.4447 -55.2113 -54.9968 -54.6493 -54.6491
   -32.0123 -31.9978 -31.9856 -31.9849 -31.9652 -31.9643 -31.9216 -31.9159
   -31.9037 -31.8812 -31.8729 -31.8512 -31.8338 -31.8196 -31.8054 -31.8021
   -31.7988 -31.7954 -31.7897 -31.7889 -31.7861 -31.7832 -31.7717 -31.7375
   -31.7301 -31.7182 -31.7079 -31.6842 -31.6829 -31.6776 -31.6727 -31.6698
   -31.6628 -31.6599 -31.6574 -31.6550 -31.5825 -31.4649 -31.4032 -31.3427
   -31.2497 -31.2312 -30.9753 -30.9752 -30.8862 -30.8860 -30.8469 -30.8469
   -19.1481 -15.8547 -15.7565 -15.6417 -15.6110 -15.5600 -15.4954 -15.4831
   -15.4164 -15.3716 -15.3684 -15.2985 -15.2916 -15.2583 -15.2483 -15.2140
   -15.2134 -15.2067 -15.1562 -15.1432 -15.1276 -15.1254 -15.1188 -15.0420
   -15.0064 -15.0015 -14.9933 -14.9101 -14.8309 -14.7686 -14.4590 -13.1538
   -13.1537  -7.4980  -6.9521  -4.2729  -3.5215  -3.4445  -3.1395  -2.9694
    -2.8835  -2.8174  -2.7919  -2.7672  -2.6166  -2.5952  -2.5421  -2.5383
    -2.5143  -2.5119  -2.5079  -2.4893  -2.4817  -2.4564  -2.4304  -2.3892
    -2.3640  -2.3574  -2.3451  -2.3325  -2.3084  -2.2955  -2.2865  -2.2388
    -2.2364  -2.2174  -2.1248  -2.0537  -1.9105  -1.8921  -1.8488  -1.8273
    -1.8144  -1.7806  -1.7543  -1.7368  -1.6842  -1.6049  -1.5131  -1.4205
    -1.3794  -1.3670  -1.3002  -1.2817  -1.1898  -1.1648  -1.0893  -1.0698
    -0.9925  -0.9736  -0.8836  -0.8403  -0.8198  -0.7855  -0.7523  -0.7404
    -0.7107  -0.6541  -0.6419  -0.5902  -0.5631  -0.5001  -0.4379  -0.4170
    -0.4052  -0.3685  -0.3488  -0.3228  -0.1835  -0.1521  -0.1362  -0.0983
     0.0392   0.0699   0.2801   0.3667   0.3877   0.4657   0.5169   0.5979
     0.6218   0.6302   0.6466   0.6828   0.7736   0.8456   0.8569   0.8894
     0.9899   1.4945   1.7197   1.7207   1.7928   1.7929   3.7316   3.7747
     3.8102   3.8323   3.9283   3.9598   3.9807   3.9826   4.0346   4.1142

     the Fermi energy is     3.4453 ev

!    total energy              =   -2952.76142168 Ry
     estimated scf accuracy    <       0.00000007 Ry
     smearing contrib. (-TS)   =      -0.02154641 Ry
     internal energy E=F+TS    =   -2952.73987527 Ry

     The total energy is F=E-TS. E is the sum of the following terms:
     one-electron contribution =  -24473.27654112 Ry
     hartree contribution      =   12327.76057617 Ry
     xc contribution           =    -488.06775993 Ry
     ewald contribution        =    9680.84186749 Ry
     electric field correction =       0.00198212 Ry

     convergence has been achieved in  59 iterations

     Forces acting on atoms (cartesian axes, Ry/au):

     atom    1 type  1   force =    -0.00000715   -0.00029463    0.09612983
     atom    2 type  1   force =     0.00008002   -0.00044647   -0.17559783
     atom    3 type  2   force =     0.00011310   -0.00005180   -0.02419734
     atom    4 type  2   force =     0.00000701   -0.00136982    0.05326497
     atom    5 type  2   force =    -0.01132837    0.00005768    0.00282923
     atom    6 type  2   force =     0.01307739    0.00040317    0.00283509
     atom    7 type  1   force =     0.00079471    0.00048532   -0.00791634
     atom    8 type  1   force =     0.00007879    0.00682571    0.02438580
     atom    9 type  2   force =    -0.00025337   -0.00080538    0.00032041
     atom   10 type  2   force =    -0.00266011    0.00235199   -0.01481780
     atom   11 type  2   force =    -0.00019705   -0.00011567   -0.00056363
     atom   12 type  2   force =     0.00055014   -0.00001859   -0.00063220
     atom   13 type  1   force =    -0.00055703   -0.00159589    0.00049771
     atom   14 type  1   force =     0.00043360   -0.00022187   -0.00027750
     atom   15 type  2   force =     0.00000109   -0.00076106   -0.00072089
     atom   16 type  2   force =    -0.00005735   -0.00043838   -0.00031022
     atom   17 type  2   force =    -0.00108281   -0.00070148    0.00004842
     atom   18 type  2   force =     0.00150827   -0.00045054    0.00009792
     atom   19 type  1   force =    -0.00039023    0.00058841    0.00013384
     atom   20 type  1   force =     0.00040807   -0.00064151   -0.00059983
     atom   21 type  2   force =     0.00005185   -0.00001683    0.10318899
     atom   22 type  2   force =    -0.00008544   -0.00024432    0.00114855
     atom   23 type  2   force =    -0.07151962   -0.00012153   -0.02769297
     atom   24 type  2   force =     0.07143690    0.00035662   -0.02776784
     atom   25 type  1   force =     0.00018092   -0.00025429    0.09584512
     atom   26 type  1   force =     0.00006185   -0.00033552   -0.17581053
     atom   27 type  2   force =     0.00014691   -0.00004268   -0.02328197
     atom   28 type  2   force =     0.00000833   -0.00107119    0.05287106
     atom   29 type  2   force =    -0.01166682    0.00075598    0.00297084
     atom   30 type  2   force =     0.01329749    0.00126837    0.00299826
     atom   31 type  1   force =     0.00070795    0.00395837   -0.01082468
     atom   32 type  1   force =     0.00010135   -0.00903196    0.02486296
     atom   33 type  2   force =    -0.00007292    0.00060845   -0.00012858
     atom   34 type  2   force =    -0.00202733    0.00169551   -0.02186595
     atom   35 type  2   force =     0.00005111   -0.00025790   -0.00027428
     atom   36 type  2   force =    -0.00005941   -0.00007077   -0.00061141
     atom   37 type  1   force =    -0.00029117    0.00156801    0.00008967
     atom   38 type  1   force =     0.00051796    0.00040527    0.00022358
     atom   39 type  2   force =    -0.00009205   -0.00007829   -0.00119439
     atom   40 type  2   force =     0.00012537    0.00012518    0.00033696
     atom   41 type  2   force =     0.00011236   -0.00022228    0.00006243
     atom   42 type  2   force =     0.00045542   -0.00031021    0.00011631
     atom   43 type  1   force =    -0.00105800   -0.00057110    0.00042622
     atom   44 type  1   force =     0.00039177   -0.00008154    0.00002486
     atom   45 type  2   force =     0.00004442   -0.00005520    0.10318206
     atom   46 type  2   force =    -0.07154157   -0.00006395   -0.02771168
     atom   47 type  2   force =     0.07145596    0.00036968   -0.02777344
     atom   48 type  3   force =    -0.00035867    0.00098998   -0.00121103
     atom   49 type  4   force =    -0.00017056    0.00277256   -0.00240519
     atom   50 type  5   force =    -0.00014365   -0.00018085    0.00050682
     atom   51 type  5   force =    -0.00012606   -0.00396412    0.00482066
     atom   52 type  2   force =     0.00152366    0.00042211   -0.00033558
     atom   53 type  5   force =    -0.00047776   -0.00044056   -0.00005409
     atom   54 type  5   force =    -0.00149931   -0.00068017    0.00035861

     Total force =     0.367063     Total SCF correction =     0.000748
  @ DRIVER MODE: Message from server: STATUS
  @ DRIVER MODE: Message from server: GETFORCE
  @ DRIVER MODE: Returning v,forces,stress,ensemble

     Writing output data file ./calc.save/
  @ DRIVER MODE: Message from server: EXIT
  @ DRIVE MODE: Exiting

     General routines

     Parallel routines

   This run was terminated on:  23:24:31  15Sep2021

   JOB DONE.