     Program PWSCF v.6.7GPU starts on 23Sep2021 at  2: 6:50

     R & G space division:  proc/nbgrp/npool/nimage =       8
     Reading input from /storage/home/hcoda1/3/ntian30/research/carbon/CxH_vib/H2O_calc/ads_slab/CH3HO_a/out_0012/pw.inp
Warning: card &CELL ignored
Warning: card   CELL_DYNAMICS='IPI', ignored
Warning: card / ignored

     Current dimensions of program PWSCF are:
     Max number of different atomic species (ntypx) = 10
     Max number of k-points (npk) =  40000
     Max angular momentum in pseudopotentials (lmaxx) =  3
     Presently no symmetry can be used with electric field

     Message from routine cell_base_init:
     DEPRECATED: use true lattice parameter, not A to a.u. conversion factor

     IMPORTANT: XC functional enforced from input :
     Exchange-correlation= BEEF-VDW
                           (   1   4  43  14   2   0   0)
     Any further DFT definition will be discarded
     Please, verify this is what you really want

  @ DRIVER MODE: Connecting to
 qe_1139763_2941010.sched-torque.pace.gatech.edu_mirs3xc_scratch
  using UNIX socket
  @ DRIVER MODE: Message from server: STATUS
  @ DRIVER MODE: Message from server: INIT
  @ DRIVER MODE: Receiving replica           0          -1
  @ DRIVER MODE: Receiving encoded integer          25
  @ DRIVER MODE:  SCF:  T  FORCE:  T  STRESS:  F  VC:  F  ENSEMBLE:  F
  @ DRIVER MODE:  SCF:  T  FORCE:  T  STRESS:  F  VC:  F  ENSEMBLE:  F

     Using Slab Decomposition

     bravais-lattice index     =            0
     lattice parameter (alat)  =       1.8897  a.u.
     unit-cell volume          =    6658.9804 (a.u.)^3
     number of atoms/cell      =           53
     number of atomic types    =            4
     number of electrons       =       392.00
     number of Kohn-Sham states=          206
     kinetic-energy cutoff     =      29.3995  Ry
     charge density cutoff     =     293.9946  Ry
     scf convergence threshold =      7.3E-08
     mixing beta               =       0.0500
     number of iterations used =            8  plain     mixing
     Exchange-correlation= BEEF-VDW
                           (   1   4  43  14   2   0   0)

     celldm(1)=   1.889726  celldm(2)=   0.000000  celldm(3)=   0.000000
     celldm(4)=   0.000000  celldm(5)=   0.000000  celldm(6)=   0.000000

     crystal axes: (cart. coord. in units of alat)
               a(1) = (   6.579727   0.000000   0.000000 )
               a(2) = (  -0.000775   5.961596   0.000000 )
               a(3) = (   0.000000   0.000000  25.155947 )

     reciprocal axes: (cart. coord. in units 2 pi/alat)
               b(1) = (  0.151982  0.000020  0.000000 )
               b(2) = (  0.000000  0.167740  0.000000 )
               b(3) = (  0.000000  0.000000  0.039752 )

     PseudoPot. # 1 for Ti read from file:
     /storage/coda1/p-amedford6/0/shared/rich_project_chbe-medford/medford-share/data/pseudos_module/espresso/nninc/pbe/van/Ti.UPF
     MD5 check sum: 8e4df49b7f0d34bbd5052bf3f5ea0213
     Pseudo is Ultrasoft, Zval = 12.0
     Generated by new atomic code, or converted to UPF format
     Using radial grid of  851 points,  6 beta functions with:
                l(1) =   0
                l(2) =   0
                l(3) =   1
                l(4) =   1
                l(5) =   2
                l(6) =   2
     Q(r) pseudized with  8 coefficients,  rinner =    1.000   1.000   1.000
                                                       1.000   1.000

     PseudoPot. # 2 for O  read from file:
     /storage/coda1/p-amedford6/0/shared/rich_project_chbe-medford/medford-share/data/pseudos_module/espresso/nninc/pbe/van/O.UPF
     MD5 check sum: 78c19812648e8988a0fe644b0f25305e
     Pseudo is Ultrasoft, Zval =  6.0
     Generated by new atomic code, or converted to UPF format
     Using radial grid of  737 points,  4 beta functions with:
                l(1) =   0
                l(2) =   0
                l(3) =   1
                l(4) =   1
     Q(r) pseudized with  8 coefficients,  rinner =    0.800   0.800   0.800

     PseudoPot. # 3 for C  read from file:
     /storage/coda1/p-amedford6/0/shared/rich_project_chbe-medford/medford-share/data/pseudos_module/espresso/nninc/pbe/van/C.UPF
     MD5 check sum: 1a69bf6b8db32088f5b2163dbdb77a27
     Pseudo is Ultrasoft, Zval =  4.0
     Generated by new atomic code, or converted to UPF format
     Using radial grid of  721 points,  4 beta functions with:
                l(1) =   0
                l(2) =   0
                l(3) =   1
                l(4) =   1
     Q(r) pseudized with  8 coefficients,  rinner =    0.800   0.800   0.800

     PseudoPot. # 4 for H  read from file:
     /storage/coda1/p-amedford6/0/shared/rich_project_chbe-medford/medford-share/data/pseudos_module/espresso/nninc/pbe/van/H.UPF
     MD5 check sum: b5ee9d7bfd3a09ee7748110bda690ff7
     Pseudo is Ultrasoft, Zval =  1.0
     Generated by new atomic code, or converted to UPF format
     Using radial grid of  615 points,  1 beta functions with:
                l(1) =   0
     Q(r) pseudized with  8 coefficients,  rinner =    0.800

     atomic species   valence    mass     pseudopotential
        Ti1           12.00    47.86700     Ti( 1.00)
        O1             6.00    15.99900     O ( 1.00)
        C1             4.00    12.01100     C ( 1.00)
        H1             1.00     1.00800     H ( 1.00)

     No symmetry found

   Cartesian axes

     site n.     atom                  positions (alat units)
         1           Ti1 tau(   1) = (   0.0004258   2.9801865   6.0000000  )
         2           Ti1 tau(   2) = (   3.2906075   1.4906267   6.0002472  )
         3           O1  tau(   3) = (   0.0006271   0.0005054   7.9858123  )
         4           O1  tau(   4) = (   3.2906025   0.0005020   7.3038282  )
         5           O1  tau(   5) = (   4.5942328   1.4918067   9.2879030  )
         6           O1  tau(   6) = (   1.9868534   1.4903216   9.2879459  )
         7           Ti1 tau(   7) = (   3.2776386   2.8603028   9.2190116  )
         8           Ti1 tau(   8) = (   6.5598479   1.4304724   9.3580194  )
         9           O1  tau(   9) = (   3.2889234   5.9509398  11.3217173  )
        10           O1  tau(  10) = (   6.5764018   5.9495644  10.5876710  )
        11           O1  tau(  11) = (   1.2812264   1.4943635  12.6442538  )
        12           O1  tau(  12) = (   5.3065913   1.4950901  12.6410841  )
        13           Ti1 tau(  13) = (   0.0201148   2.8652118  12.8170930  )
        14           Ti1 tau(  14) = (   3.2957237   1.3106547  12.6889287  )
        15           O1  tau(  15) = (   6.5548780   5.9443598  14.6367865  )
        16           O1  tau(  16) = (   3.2877845   0.0417723  13.9217912  )
        17           O1  tau(  17) = (   4.5532326   1.5761655  16.0783859  )
        18           O1  tau(  18) = (   2.0366504   1.5601698  16.0762102  )
        19           Ti1 tau(  19) = (   3.2678531   3.0297845  15.6708759  )
        20           Ti1 tau(  20) = (   6.4629285   1.5188837  16.1410570  )
        21           O1  tau(  21) = (   3.2904802   0.0005063   4.7018136  )
        22           O1  tau(  22) = (   6.5629482   0.0231895  17.1619738  )
        23           O1  tau(  23) = (   1.3043587   1.4918075   6.0039043  )
        24           O1  tau(  24) = (   5.2767064   1.4903225   6.0039473  )
        25           Ti1 tau(  25) = (   0.0000382   5.9609847   6.0000000  )
        26           Ti1 tau(  26) = (   3.2902200   4.4714249   6.0002472  )
        27           O1  tau(  27) = (   0.0002396   2.9813036   7.9858123  )
        28           O1  tau(  28) = (   3.2902150   2.9813002   7.3038282  )
        29           O1  tau(  29) = (   4.5938453   4.4726049   9.2879030  )
        30           O1  tau(  30) = (   1.9864658   4.4711199   9.2879459  )
        31           Ti1 tau(  31) = (   3.2699525   5.8470351   9.1790592  )
        32           Ti1 tau(  32) = (   6.5580068   4.3764721   9.3475679  )
        33           O1  tau(  33) = (   3.2877686   3.0124297  11.2895287  )
        34           O1  tau(  34) = (   0.0005883   2.9642609  10.5504472  )
        35           O1  tau(  35) = (   1.2748618   4.4645017  12.6259732  )
        36           O1  tau(  36) = (   5.2954498   4.4639995  12.6225180  )
        37           Ti1 tau(  37) = (   6.5558271   5.8472513  12.6028672  )
        38           Ti1 tau(  38) = (   3.2807834   4.4064534  12.4217905  )
        39           O1  tau(  39) = (   6.5786029   2.9813041  14.7145626  )
        40           O1  tau(  40) = (   3.2869290   2.9992676  13.8921391  )
        41           O1  tau(  41) = (   4.5413935   4.4541386  16.0960746  )
        42           O1  tau(  42) = (   2.0104822   4.4576224  16.0708021  )
        43           Ti1 tau(  43) = (   3.1667734   0.0431258  16.3165854  )
        44           Ti1 tau(  44) = (   6.5007865   4.6242813  15.9014112  )
        45           O1  tau(  45) = (   3.2900926   2.9813045   4.7018136  )
        46           O1  tau(  46) = (   1.3039711   4.4726057   6.0039043  )
        47           O1  tau(  47) = (   5.2763189   4.4711207   6.0039473  )
        48           C1  tau(  48) = (   0.0287742   2.9159372  17.8309569  )
        49           H1  tau(  49) = (   0.0209232   3.9694834  18.1211783  )
        50           H1  tau(  50) = (   0.9459818   2.5003430  18.2552837  )
        51           H1  tau(  51) = (   5.7514102   2.4667126  18.3442606  )
        52           O1  tau(  52) = (   3.2249103   0.0683284  18.1361362  )
        53           H1  tau(  53) = (   3.4857875   5.2839856  18.6954204  )

     number of k points=    10  Fermi-Dirac smearing, width (Ry)=  0.0073
                       cart. coord. in units 2pi/alat
        k(    1) = (   0.0000000   0.0000000   0.0000000), wk =   0.1250000
        k(    2) = (   0.0000000   0.0419351   0.0000000), wk =   0.2500000
        k(    3) = (   0.0000000  -0.0838702   0.0000000), wk =   0.1250000
        k(    4) = (   0.0379955   0.0000049   0.0000000), wk =   0.2500000
        k(    5) = (   0.0379955   0.0419400   0.0000000), wk =   0.2500000
        k(    6) = (   0.0379955  -0.0838652   0.0000000), wk =   0.2500000
        k(    7) = (   0.0379955  -0.0419301   0.0000000), wk =   0.2500000
        k(    8) = (  -0.0759910  -0.0000099   0.0000000), wk =   0.1250000
        k(    9) = (  -0.0759910   0.0419252   0.0000000), wk =   0.2500000
        k(   10) = (  -0.0759910  -0.0838800   0.0000000), wk =   0.1250000

     Initial potential from superposition of free atoms

     starting charge  375.99917, renormalised to  392.00000

     negative rho (up, down):  1.890E-02 0.000E+00

     %%%%%%%%%%%%%%%%%%%%%%%%%%%%%%%%%%%%%%%%%%%%%%%%%%%%%%%%%%%%%%%%%%%%%%%%
     %                                                                      %
     % You are using vdW-DF, which was implemented by the Thonhauser group. %
     % Please cite the following two papers that made this development      %
     % possible and the two reviews that describe the various versions:     %
     %                                                                      %
     %   T. Thonhauser et al., PRL 115, 136402 (2015).                      %
     %   T. Thonhauser et al., PRB 76, 125112 (2007).                       %
     %   K. Berland et al., Rep. Prog. Phys. 78, 066501 (2015).             %
     %   D.C. Langreth et al., J. Phys.: Condens. Matter 21, 084203 (2009). %
     %                                                                      %
     %                                                                      %
     % If you are calculating the stress with vdW-DF, please also cite:     %
     %                                                                      %
     %   R. Sabatini et al., J. Phys.: Condens. Matter 24, 424209 (2012).   %
     %                                                                      %
     %%%%%%%%%%%%%%%%%%%%%%%%%%%%%%%%%%%%%%%%%%%%%%%%%%%%%%%%%%%%%%%%%%%%%%%%

     Adding external electric field

     Computed dipole along edir(3) :
        Dipole               -5.0042 Ry au,        -12.7194 Debye
        Dipole field         -0.0094 Ry au,

        Potential amp.        0.8754 Ry
        Total length         46.3494 bohr

     Starting wfcs are  296 atomic wfcs
  @ DRIVER MODE: Message from server: STATUS
  @ DRIVER MODE: Message from server: POSDATA
  @ DRIVER MODE: Reading and sharing cell
  @ DRIVER MODE: Reading and sharing positions
  @ DRIVER MODE: Received positions

     Self-consistent Calculation

     iteration #  1     ecut=    29.40 Ry     beta= 0.05
     Davidson diagonalization with overlap
     c_bands:  5 eigenvalues not converged
     c_bands:  4 eigenvalues not converged
     c_bands:  5 eigenvalues not converged
     c_bands:  3 eigenvalues not converged
     c_bands:  2 eigenvalues not converged
     c_bands:  2 eigenvalues not converged
     c_bands:  1 eigenvalues not converged
     c_bands:  2 eigenvalues not converged
     c_bands:  3 eigenvalues not converged
     ethr =  1.00E-05,  avg # of iterations = 19.7

[...]

     total energy              =   -2842.21615858 Ry
     estimated scf accuracy    <     999.79583110 Ry

     iteration #  2     ecut=    29.40 Ry     beta= 0.05
     Davidson diagonalization with overlap
     ethr =  1.00E-02,  avg # of iterations = 16.2

[...]

     iteration # 42     ecut=    29.40 Ry     beta= 0.05
     Davidson diagonalization with overlap
     c_bands:  1 eigenvalues not converged
     c_bands:  1 eigenvalues not converged
     ethr =  2.10E-06,  avg # of iterations = 11.9

[...]

     total energy              =   -2932.63116619 Ry
     estimated scf accuracy    <       0.00000020 Ry

     iteration # 76     ecut=    29.40 Ry     beta= 0.05
     Davidson diagonalization with overlap
     ethr =  5.20E-11,  avg # of iterations =  3.9

     negative rho (up, down):  1.833E-02 0.000E+00

     Adding external electric field

     Computed dipole along edir(3) :
        Dipole                0.4036 Ry au,          1.0259 Debye
        Dipole field          0.0008 Ry au,

        Potential amp.       -0.0706 Ry
        Total length         46.3494 bohr

     End of self-consistent calculation

          k = 0.0000 0.0000 0.0000 ( 18029 PWs)   bands (ev):

   -56.6129 -56.5627 -56.0774 -56.0388 -56.0041 -55.9335 -55.9071 -55.8940
   -55.8523 -55.8474 -55.8050 -55.7818 -55.7296 -55.6345 -55.2245 -55.1906
   -33.0246 -32.8779 -32.8236 -32.7916 -32.6959 -32.6507 -32.5030 -32.4874
   -32.4497 -32.3431 -32.3238 -32.3181 -32.3120 -32.3046 -32.2854 -32.2681
   -32.2448 -32.2241 -32.2178 -32.1426 -32.1383 -32.1376 -32.1242 -32.1131
   -32.1067 -32.1029 -32.0918 -32.0889 -32.0843 -32.0532 -32.0393 -32.0382
   -32.0092 -32.0018 -31.9950 -31.9827 -31.9671 -31.9529 -31.8912 -31.8581
   -31.8444 -31.8404 -31.6190 -31.5647 -31.5403 -31.4358 -31.3510 -31.2401
   -16.9219 -16.7691 -16.6306 -16.4080 -16.2677 -16.1571 -15.9397 -15.9286
   -15.8068 -15.8025 -15.7610 -15.6357 -15.6209 -15.5847 -15.5730 -15.5490
   -15.5356 -15.5254 -15.5209 -15.4966 -15.4608 -15.4382 -15.3950 -15.3237
   -15.2582 -15.2411 -15.2023 -15.1391 -15.1057 -14.8718 -13.7259 -13.6173
    -9.3696  -4.6674  -4.2952  -4.0795  -3.9654  -3.9234  -3.7858  -3.6397
    -3.4616  -3.3653  -3.2401  -3.2330  -3.1633  -3.1213  -3.1101  -3.1007
    -3.0193  -2.9733  -2.9454  -2.9174  -2.9024  -2.8510  -2.8168  -2.7748
    -2.7528  -2.7521  -2.7081  -2.6777  -2.5350  -2.5045  -2.4878  -2.4797
    -2.4387  -2.4227  -2.3877  -2.3717  -2.2916  -2.2075  -2.1870  -2.1282
    -2.0638  -2.0173  -1.8267  -1.8148  -1.7155  -1.6377  -1.6151  -1.5685
    -1.5294  -1.4881  -1.4210  -1.3945  -1.3074  -1.2527  -1.1999  -1.1882
    -1.1555  -1.1212  -1.0796  -0.9747  -0.9257  -0.9199  -0.8098  -0.7572
    -0.6918  -0.6872  -0.6312  -0.5975  -0.4953  -0.4770  -0.4446  -0.4090
    -0.3770  -0.3535  -0.2956  -0.2753  -0.2454  -0.1846  -0.1455  -0.1258
    -0.0966  -0.0819  -0.0176   0.0392   0.0582   0.1644   0.1835   0.2193
     0.2904   0.3802   0.4336   0.5210   0.6941   0.7931   0.8270   0.9320
     1.0075   1.0538   1.3446   1.3906   2.6887   2.8508   3.1301   3.2826
     3.3050   3.3608   3.4078   3.4633   3.6224   3.6532

[...]

          k = 0.0380-0.0419 0.0000 ( 17876 PWs)   bands (ev):

[...]

          k =-0.0760-0.0000 0.0000 ( 17886 PWs)   bands (ev):

[...]

          k =-0.0760-0.0839 0.0000 ( 17948 PWs)   bands (ev):

   -56.6064 -56.5691 -56.0764 -56.0365 -55.9994 -55.9380 -55.9092 -55.8949
   -55.8502 -55.8389 -55.8134 -55.7799 -55.7317 -55.6363 -55.2078 -55.2072
   -32.8737 -32.8571 -32.8275 -32.8251 -32.7581 -32.7264 -32.3822 -32.3567
   -32.3434 -32.3223 -32.2918 -32.2896 -32.2668 -32.2624 -32.2492 -32.2420
   -32.2188 -32.2166 -32.2068 -32.1879 -32.1833 -32.1651 -32.1601 -32.1360
   -32.1329 -32.1321 -32.1185 -32.1031 -32.0993 -32.0698 -32.0613 -32.0482
   -32.0472 -32.0402 -32.0089 -32.0038 -31.9920 -31.9867 -31.9680 -31.8923
   -31.8849 -31.8478 -31.5535 -31.5532 -31.4347 -31.4329 -31.3931 -31.3922
   -16.9073 -16.1657 -16.0821 -16.0760 -16.0651 -16.0353 -15.9900 -15.9208
   -15.9179 -15.8249 -15.7929 -15.7576 -15.7234 -15.7076 -15.6539 -15.6492
   -15.6321 -15.5679 -15.5255 -15.4990 -15.4808 -15.4762 -15.4482 -15.4290
   -15.4172 -15.3981 -15.3326 -15.2980 -15.2220 -15.0119 -13.7216 -13.7203
    -9.3840  -4.6749  -3.3941  -3.3243  -3.2530  -3.2340  -3.1560  -3.1087
    -3.0973  -3.0737  -3.0455  -3.0149  -2.9878  -2.9680  -2.9239  -2.9136
    -2.9080  -2.9043  -2.8966  -2.8839  -2.8575  -2.8051  -2.7952  -2.7889
    -2.7682  -2.7618  -2.7454  -2.7234  -2.6799  -2.6630  -2.6213  -2.4582
    -2.4295  -2.4220  -2.3741  -2.3510  -2.3004  -2.2717  -2.1955  -2.1819
    -2.1740  -2.1430  -2.0259  -1.9062  -1.7797  -1.7702  -1.7339  -1.6639
    -1.6292  -1.5645  -1.5360  -1.5128  -1.4870  -1.4442  -1.4248  -1.3376
    -1.3289  -1.2869  -1.2724  -1.2567  -1.1743  -1.1128  -1.0844  -1.0618
    -1.0228  -0.9873  -0.9272  -0.8814  -0.8688  -0.8391  -0.8207  -0.7035
    -0.6695  -0.6393  -0.4912  -0.4550  -0.4499  -0.4006  -0.2498  -0.2070
    -0.1568  -0.1126  -0.0826   0.0472   0.0916   0.1385   0.1458   0.2006
     0.3194   0.3426   0.3869   0.4535   0.4769   0.4875   0.5272   1.0230
     1.1860   1.1889   1.1971   1.2024   3.2301   3.2545   3.2671   3.2982
     3.4706   3.5405   3.5753   3.6046   3.6506   3.7127

     the Fermi energy is     2.0977 ev

!    total energy              =   -2932.63118224 Ry
     estimated scf accuracy    <       0.00000006 Ry
     smearing contrib. (-TS)   =      -0.00015665 Ry
     internal energy E=F+TS    =   -2932.63102558 Ry

     The total energy is F=E-TS. E is the sum of the following terms:
     one-electron contribution =  -24307.55972459 Ry
     hartree contribution      =   12237.96367908 Ry
     xc contribution           =    -482.64912874 Ry
     ewald contribution        =    9619.61384122 Ry
     electric field correction =       0.00030744 Ry

     convergence has been achieved in  76 iterations

     Forces acting on atoms (cartesian axes, Ry/au):

     atom    1 type  1   force =     0.00035428   -0.00031866    0.13237101
     atom    2 type  1   force =     0.00005380    0.00687245   -0.15777476
     atom    3 type  2   force =     0.00014914    0.00441959   -0.05305864
     atom    4 type  2   force =    -0.00038302   -0.00086858    0.04047532
     atom    5 type  2   force =    -0.00906355   -0.00265333    0.00215524
     atom    6 type  2   force =     0.00916783   -0.00496556    0.00182552
     atom    7 type  1   force =     0.00068528    0.00106065    0.00047630
     atom    8 type  1   force =    -0.00078476   -0.00012718   -0.00010917
     atom    9 type  2   force =     0.00000669   -0.00016841    0.00051304
     atom   10 type  2   force =     0.00005036   -0.00006321   -0.00010193
     atom   11 type  2   force =    -0.00058281    0.00020531   -0.00038985
     atom   12 type  2   force =    -0.00051878   -0.00055613   -0.00059571
     atom   13 type  1   force =     0.00096392   -0.00087145   -0.00001394
     atom   14 type  1   force =    -0.00106095   -0.00094242    0.00007633
     atom   15 type  2   force =     0.00001825    0.00039496   -0.00081599
     atom   16 type  2   force =     0.00009518    0.00004434   -0.00041827
     atom   17 type  2   force =     0.00011089   -0.00013983    0.00010453
     atom   18 type  2   force =    -0.00015120   -0.00007140    0.00022237
     atom   19 type  1   force =     0.00008133   -0.00002962   -0.00092777
     atom   20 type  1   force =    -0.00015672   -0.00034968   -0.00003241
     atom   21 type  2   force =     0.00016289    0.00009022    0.09924004
     atom   22 type  2   force =     0.00014744    0.00019918   -0.00019038
     atom   23 type  2   force =    -0.08041178    0.00141683   -0.03416037
     atom   24 type  2   force =     0.08050198    0.00191497   -0.03420144
     atom   25 type  1   force =     0.00021136   -0.00004541    0.14217277
     atom   26 type  1   force =     0.00010074   -0.00846882   -0.15824161
     atom   27 type  2   force =    -0.00010807   -0.00043788   -0.05128329
     atom   28 type  2   force =    -0.00024855   -0.00030804    0.04226790
     atom   29 type  2   force =    -0.00856062    0.00487587    0.00032115
     atom   30 type  2   force =     0.00771029    0.00352509    0.00002437
     atom   31 type  1   force =     0.00053380   -0.00128894    0.00090010
     atom   32 type  1   force =    -0.00090713    0.00037621   -0.00076244
     atom   33 type  2   force =     0.00001958   -0.00028837   -0.00016569
     atom   34 type  2   force =     0.00000549   -0.00100385    0.00035165
     atom   35 type  2   force =    -0.00039385    0.00006532   -0.00019501
     atom   36 type  2   force =     0.00021916   -0.00020340   -0.00021946
     atom   37 type  1   force =     0.00101428    0.00080131    0.00044166
     atom   38 type  1   force =    -0.00047636    0.00001963    0.00019000
     atom   39 type  2   force =    -0.00025590   -0.00027665   -0.00023834
     atom   40 type  2   force =     0.00024788   -0.00028496   -0.00003922
     atom   41 type  2   force =     0.00006477   -0.00009775   -0.00009291
     atom   42 type  2   force =     0.00008851    0.00032678   -0.00003334
     atom   43 type  1   force =    -0.00003087    0.00027627   -0.00080546
     atom   44 type  1   force =     0.00027829   -0.00011858    0.00068185
     atom   45 type  2   force =     0.00015515    0.00004178    0.09877760
     atom   46 type  2   force =    -0.08044907   -0.00101115   -0.03416564
     atom   47 type  2   force =     0.08054126   -0.00053107   -0.03420034
     atom   48 type  3   force =    -0.00024399    0.00362175    0.00149097
     atom   49 type  4   force =    -0.00005092   -0.00234369   -0.00138836
     atom   50 type  4   force =     0.00011302   -0.00079822    0.00032987
     atom   51 type  4   force =    -0.00042734   -0.00074263    0.00003234
     atom   52 type  2   force =     0.00064569   -0.00165163   -0.00047100
     atom   53 type  4   force =     0.00076771    0.00147798   -0.00034917

     Total force =     0.383791     Total SCF correction =     0.001009
  @ DRIVER MODE: Message from server: STATUS
  @ DRIVER MODE: Message from server: GETFORCE
  @ DRIVER MODE: Returning v,forces,stress,ensemble

     Writing output data file ./calc.save/
  @ DRIVER MODE: Message from server: EXIT
  @ DRIVE MODE: Exiting

     General routines

     Parallel routines

   This run was terminated on:   2:30: 4  23Sep2021

   JOB DONE.