     Program PWSCF v.6.7GPU starts on  9Sep2021 at  6:38:20

     R & G space division:  proc/nbgrp/npool/nimage =      10
     Reading input from /storage/home/hcoda1/3/ntian30/research/carbon/CxH_vib/CH3_calc/ads_slab/CH3N2_c/out_0028/pw.inp
Warning: card &CELL ignored
Warning: card   CELL_DYNAMICS='IPI', ignored
Warning: card / ignored

     Current dimensions of program PWSCF are:
     Max number of different atomic species (ntypx) = 10
     Max number of k-points (npk) =  40000
     Max angular momentum in pseudopotentials (lmaxx) =  3
     Presently no symmetry can be used with electric field

     Message from routine cell_base_init:
     DEPRECATED: use true lattice parameter, not A to a.u. conversion factor

     IMPORTANT: XC functional enforced from input :
     Exchange-correlation= BEEF-VDW
                           (   1   4  43  14   2   0   0)
     Any further DFT definition will be discarded
     Please, verify this is what you really want

  @ DRIVER MODE: Connecting to
 qe_1139763_2767397.sched-torque.pace.gatech.edu1rcxbr8m_scratch
  using UNIX socket
  @ DRIVER MODE: Message from server: STATUS
  @ DRIVER MODE: Message from server: INIT
  @ DRIVER MODE: Receiving replica           0          -1
  @ DRIVER MODE: Receiving encoded integer          25
  @ DRIVER MODE:  SCF:  T  FORCE:  T  STRESS:  F  VC:  F  ENSEMBLE:  F
  @ DRIVER MODE:  SCF:  T  FORCE:  T  STRESS:  F  VC:  F  ENSEMBLE:  F

     Using Slab Decomposition

     bravais-lattice index     =            0
     lattice parameter (alat)  =       1.8897  a.u.
     unit-cell volume          =    6658.9804 (a.u.)^3
     number of atoms/cell      =           53
     number of atomic types    =            5
     number of electrons       =       395.00
     number of Kohn-Sham states=          207
     kinetic-energy cutoff     =      29.3995  Ry
     charge density cutoff     =     293.9946  Ry
     scf convergence threshold =      7.3E-08
     mixing beta               =       0.0500
     number of iterations used =            8  plain     mixing
     Exchange-correlation= BEEF-VDW
                           (   1   4  43  14   2   0   0)

     celldm(1)=   1.889726  celldm(2)=   0.000000  celldm(3)=   0.000000
     celldm(4)=   0.000000  celldm(5)=   0.000000  celldm(6)=   0.000000

     crystal axes: (cart. coord. in units of alat)
               a(1) = (   6.579727   0.000000   0.000000 )
               a(2) = (  -0.000775   5.961596   0.000000 )
               a(3) = (   0.000000   0.000000  25.155947 )

     reciprocal axes: (cart. coord. in units 2 pi/alat)
               b(1) = (  0.151982  0.000020  0.000000 )
               b(2) = (  0.000000  0.167740  0.000000 )
               b(3) = (  0.000000  0.000000  0.039752 )

     PseudoPot. # 1 for Ti read from file:
     /storage/coda1/p-amedford6/0/shared/rich_project_chbe-medford/medford-share/data/pseudos_module/espresso/nninc/pbe/van/Ti.UPF
     MD5 check sum: 8e4df49b7f0d34bbd5052bf3f5ea0213
     Pseudo is Ultrasoft, Zval = 12.0
     Generated by new atomic code, or converted to UPF format
     Using radial grid of  851 points,  6 beta functions with:
                l(1) =   0
                l(2) =   0
                l(3) =   1
                l(4) =   1
                l(5) =   2
                l(6) =   2
     Q(r) pseudized with  8 coefficients,  rinner =    1.000   1.000   1.000
                                                       1.000   1.000

     PseudoPot. # 2 for O  read from file:
     /storage/coda1/p-amedford6/0/shared/rich_project_chbe-medford/medford-share/data/pseudos_module/espresso/nninc/pbe/van/O.UPF
     MD5 check sum: 78c19812648e8988a0fe644b0f25305e
     Pseudo is Ultrasoft, Zval =  6.0
     Generated by new atomic code, or converted to UPF format
     Using radial grid of  737 points,  4 beta functions with:
                l(1) =   0
                l(2) =   0
                l(3) =   1
                l(4) =   1
     Q(r) pseudized with  8 coefficients,  rinner =    0.800   0.800   0.800

     PseudoPot. # 3 for N  read from file:
     /storage/coda1/p-amedford6/0/shared/rich_project_chbe-medford/medford-share/data/pseudos_module/espresso/nninc/pbe/van/N.UPF
     MD5 check sum: 90d10febe142ad51ac9d5be1deb811c4
     Pseudo is Ultrasoft, Zval =  5.0
     Generated by new atomic code, or converted to UPF format
     Using radial grid of  729 points,  4 beta functions with:
                l(1) =   0
                l(2) =   0
                l(3) =   1
                l(4) =   1
     Q(r) pseudized with  8 coefficients,  rinner =    0.800   0.800   0.800

     PseudoPot. # 4 for C  read from file:
     /storage/coda1/p-amedford6/0/shared/rich_project_chbe-medford/medford-share/data/pseudos_module/espresso/nninc/pbe/van/C.UPF
     MD5 check sum: 1a69bf6b8db32088f5b2163dbdb77a27
     Pseudo is Ultrasoft, Zval =  4.0
     Generated by new atomic code, or converted to UPF format
     Using radial grid of  721 points,  4 beta functions with:
                l(1) =   0
                l(2) =   0
                l(3) =   1
                l(4) =   1
     Q(r) pseudized with  8 coefficients,  rinner =    0.800   0.800   0.800

     PseudoPot. # 5 for H  read from file:
     /storage/coda1/p-amedford6/0/shared/rich_project_chbe-medford/medford-share/data/pseudos_module/espresso/nninc/pbe/van/H.UPF
     MD5 check sum: b5ee9d7bfd3a09ee7748110bda690ff7
     Pseudo is Ultrasoft, Zval =  1.0
     Generated by new atomic code, or converted to UPF format
     Using radial grid of  615 points,  1 beta functions with:
                l(1) =   0
     Q(r) pseudized with  8 coefficients,  rinner =    0.800

     atomic species   valence    mass     pseudopotential
        Ti1           12.00    47.86700     Ti( 1.00)
        O1             6.00    15.99900     O ( 1.00)
        N1             5.00    14.00700     N ( 1.00)
        C1             4.00    12.01100     C ( 1.00)
        H1             1.00     1.00800     H ( 1.00)

     No symmetry found

   Cartesian axes

     site n.     atom                  positions (alat units)
         1           Ti1 tau(   1) = (   0.0004258   2.9801865   6.0000000  )
         2           Ti1 tau(   2) = (   3.2906075   1.4906267   6.0002472  )
         3           O1  tau(   3) = (   0.0006271   0.0005054   7.9858123  )
         4           O1  tau(   4) = (   3.2906025   0.0005020   7.3038282  )
         5           O1  tau(   5) = (   4.5942328   1.4918067   9.2879030  )
         6           O1  tau(   6) = (   1.9868534   1.4903216   9.2879459  )
         7           Ti1 tau(   7) = (   3.2907910   2.8959150   9.1758416  )
         8           Ti1 tau(   8) = (   0.0015273   1.4827037   9.2680791  )
         9           O1  tau(   9) = (   3.2868105   5.9447858  11.3346005  )
        10           O1  tau(  10) = (   0.0116148   5.9584955  10.6183126  )
        11           O1  tau(  11) = (   1.2897616   1.4699164  12.6258314  )
        12           O1  tau(  12) = (   5.2713851   1.4716199  12.6109895  )
        13           Ti1 tau(  13) = (   0.0629619   2.9460495  12.6207869  )
        14           Ti1 tau(  14) = (   3.3778125   1.4702366  12.4807322  )
        15           O1  tau(  15) = (   6.5741670   5.9392046  14.6271830  )
        16           O1  tau(  16) = (   3.2925211   5.9405975  13.9303826  )
        17           O1  tau(  17) = (   4.5331425   1.4971777  16.0590535  )
        18           O1  tau(  18) = (   2.0416154   1.4974824  16.0477615  )
        19           Ti1 tau(  19) = (   3.2901388   2.9722967  15.7036181  )
        20           Ti1 tau(  20) = (   6.5714728   1.5019933  15.8140906  )
        21           O1  tau(  21) = (   3.2904802   0.0005063   4.7018136  )
        22           O1  tau(  22) = (   6.5775371   0.0159386  17.1814867  )
        23           O1  tau(  23) = (   1.3043587   1.4918075   6.0039043  )
        24           O1  tau(  24) = (   5.2767064   1.4903225   6.0039473  )
        25           Ti1 tau(  25) = (   0.0000382   5.9609847   6.0000000  )
        26           Ti1 tau(  26) = (   3.2902200   4.4714249   6.0002472  )
        27           O1  tau(  27) = (   0.0002396   2.9813036   7.9858123  )
        28           O1  tau(  28) = (   3.2902150   2.9813002   7.3038282  )
        29           O1  tau(  29) = (   4.5938453   4.4726049   9.2879030  )
        30           O1  tau(  30) = (   1.9864658   4.4711199   9.2879459  )
        31           Ti1 tau(  31) = (   3.2891106   5.8743827   9.1763621  )
        32           Ti1 tau(  32) = (   0.0006254   4.4649316   9.2693709  )
        33           O1  tau(  33) = (   3.2909631   2.9655588  11.3316111  )
        34           O1  tau(  34) = (   0.0092240   2.9805883  10.6323155  )
        35           O1  tau(  35) = (   1.2884032   4.4536117  12.6269208  )
        36           O1  tau(  36) = (   5.2752684   4.4605011  12.6109535  )
        37           Ti1 tau(  37) = (   0.0626277   5.9200555  12.5524633  )
        38           Ti1 tau(  38) = (   3.3797810   4.4486816  12.4846537  )
        39           O1  tau(  39) = (   6.5720240   2.9440667  14.6479771  )
        40           O1  tau(  40) = (   3.2941106   2.9728877  13.9057494  )
        41           O1  tau(  41) = (   4.5311790   4.4530262  16.1020043  )
        42           O1  tau(  42) = (   2.0427069   4.4534008  16.0946336  )
        43           Ti1 tau(  43) = (   3.2818950   5.9508925  15.7274921  )
        44           Ti1 tau(  44) = (   6.5750914   4.6476268  16.0792144  )
        45           O1  tau(  45) = (   3.2900926   2.9813045   4.7018136  )
        46           O1  tau(  46) = (   1.3039711   4.4726057   6.0039043  )
        47           O1  tau(  47) = (   5.2763189   4.4711207   6.0039473  )
        48           N1  tau(  48) = (   0.0795740   2.6614725  18.6386781  )
        49           N1  tau(  49) = (   0.0132033   2.8794178  17.4383708  )
        50           C1  tau(  50) = (   0.1510961   3.8031638  19.5808395  )
        51           H1  tau(  51) = (   6.4701351   4.7592986  19.1328852  )
        52           H1  tau(  52) = (   6.0910372   3.5704803  20.4266230  )
        53           H1  tau(  53) = (   1.1812797   3.8285794  19.9476819  )

     number of k points=    10  Fermi-Dirac smearing, width (Ry)=  0.0073
                       cart. coord. in units 2pi/alat
        k(    1) = (   0.0000000   0.0000000   0.0000000), wk =   0.1250000
        k(    2) = (   0.0000000   0.0419351   0.0000000), wk =   0.2500000
        k(    3) = (   0.0000000  -0.0838702   0.0000000), wk =   0.1250000
        k(    4) = (   0.0379955   0.0000049   0.0000000), wk =   0.2500000
        k(    5) = (   0.0379955   0.0419400   0.0000000), wk =   0.2500000
        k(    6) = (   0.0379955  -0.0838652   0.0000000), wk =   0.2500000
        k(    7) = (   0.0379955  -0.0419301   0.0000000), wk =   0.2500000
        k(    8) = (  -0.0759910  -0.0000099   0.0000000), wk =   0.1250000
        k(    9) = (  -0.0759910   0.0419252   0.0000000), wk =   0.2500000
        k(   10) = (  -0.0759910  -0.0838800   0.0000000), wk =   0.1250000

     Initial potential from superposition of free atoms

     starting charge  378.99916, renormalised to  395.00000

     negative rho (up, down):  1.506E-02 0.000E+00

     %%%%%%%%%%%%%%%%%%%%%%%%%%%%%%%%%%%%%%%%%%%%%%%%%%%%%%%%%%%%%%%%%%%%%%%%
     %                                                                      %
     % You are using vdW-DF, which was implemented by the Thonhauser group. %
     % Please cite the following two papers that made this development      %
     % possible and the two reviews that describe the various versions:     %
     %                                                                      %
     %   T. Thonhauser et al., PRL 115, 136402 (2015).                      %
     %   T. Thonhauser et al., PRB 76, 125112 (2007).                       %
     %   K. Berland et al., Rep. Prog. Phys. 78, 066501 (2015).             %
     %   D.C. Langreth et al., J. Phys.: Condens. Matter 21, 084203 (2009). %
     %                                                                      %
     %                                                                      %
     % If you are calculating the stress with vdW-DF, please also cite:     %
     %                                                                      %
     %   R. Sabatini et al., J. Phys.: Condens. Matter 24, 424209 (2012).   %
     %                                                                      %
     %%%%%%%%%%%%%%%%%%%%%%%%%%%%%%%%%%%%%%%%%%%%%%%%%%%%%%%%%%%%%%%%%%%%%%%%

     Adding external electric field

     Computed dipole along edir(3) :
        Dipole               -8.8495 Ry au,        -22.4931 Debye
        Dipole field         -0.0167 Ry au,

        Potential amp.        1.5481 Ry
        Total length         46.3494 bohr

     Starting wfcs are  299 atomic wfcs
  @ DRIVER MODE: Message from server: STATUS
  @ DRIVER MODE: Message from server: POSDATA
  @ DRIVER MODE: Reading and sharing cell
  @ DRIVER MODE: Reading and sharing positions
  @ DRIVER MODE: Received positions

     Self-consistent Calculation

     iteration #  1     ecut=    29.40 Ry     beta= 0.05
     Davidson diagonalization with overlap
     c_bands:  1 eigenvalues not converged
     c_bands:  2 eigenvalues not converged
     c_bands:  1 eigenvalues not converged
     c_bands:  3 eigenvalues not converged
     c_bands:  3 eigenvalues not converged
     c_bands:  1 eigenvalues not converged
     ethr =  1.00E-05,  avg # of iterations = 19.1

[...]

     total energy              =   -2605.57122127 Ry
     estimated scf accuracy    <    3700.15066976 Ry

     iteration #  2     ecut=    29.40 Ry     beta= 0.05
     Davidson diagonalization with overlap
     ethr =  1.00E-02,  avg # of iterations = 22.5

[...]

     iteration # 68     ecut=    29.40 Ry     beta= 0.05
     Davidson diagonalization with overlap
     c_bands:  1 eigenvalues not converged
     c_bands:  1 eigenvalues not converged
     c_bands:  1 eigenvalues not converged
     ethr =  2.81E-10,  avg # of iterations = 16.6

[...]

     total energy              =   -2939.15475251 Ry
     estimated scf accuracy    <       0.00000017 Ry

     iteration # 72     ecut=    29.40 Ry     beta= 0.05
     Davidson diagonalization with overlap
     ethr =  4.18E-11,  avg # of iterations =  9.3

     negative rho (up, down):  1.566E-02 0.000E+00

     Adding external electric field

     Computed dipole along edir(3) :
        Dipole                0.7075 Ry au,          1.7982 Debye
        Dipole field          0.0013 Ry au,

        Potential amp.       -0.1238 Ry
        Total length         46.3494 bohr

     End of self-consistent calculation

          k = 0.0000 0.0000 0.0000 ( 18029 PWs)   bands (ev):

   -55.8949 -55.8803 -55.8609 -55.8444 -55.7956 -55.7300 -55.7040 -55.7036
   -55.6934 -55.6696 -55.6687 -55.6351 -55.2859 -55.0948 -54.8724 -54.8384
   -32.4345 -32.3772 -32.2300 -32.2276 -32.2022 -32.1991 -32.1879 -32.1593
   -32.1374 -32.1243 -32.1025 -32.0665 -32.0610 -32.0473 -32.0336 -32.0201
   -32.0176 -31.9991 -31.9850 -31.9522 -31.9441 -31.9397 -31.8988 -31.8936
   -31.8915 -31.8878 -31.8797 -31.8750 -31.8708 -31.8439 -31.8434 -31.8344
   -31.8331 -31.8216 -31.8100 -31.7809 -31.7775 -31.5661 -31.4593 -31.3570
   -31.3551 -31.3107 -31.2796 -31.1912 -31.1688 -31.0963 -31.0098 -30.8987
   -18.4510 -16.6327 -16.3679 -16.1390 -16.0453 -16.0131 -15.8951 -15.7326
   -15.6151 -15.5603 -15.4628 -15.4433 -15.4303 -15.3984 -15.3801 -15.3746
   -15.3408 -15.3367 -15.3181 -15.3029 -15.2547 -15.2310 -15.2091 -15.1098
   -15.0636 -15.0298 -15.0145 -14.9515 -14.9463 -14.4411 -13.3749 -13.2585
   -11.3612  -6.9375  -4.3512  -4.0027  -3.8938  -3.8596  -3.8473  -3.8004
    -3.7438  -3.6238  -3.4989  -3.4368  -3.1259  -3.0781  -3.0621  -3.0449
    -3.0072  -2.7997  -2.7482  -2.7083  -2.6837  -2.6765  -2.6654  -2.6578
    -2.6462  -2.6077  -2.5053  -2.4360  -2.4293  -2.3433  -2.2934  -2.2700
    -2.2069  -2.1869  -2.1652  -2.1423  -2.1307  -2.1098  -2.0897  -2.0788
    -1.9741  -1.8827  -1.7496  -1.6943  -1.6737  -1.6599  -1.6422  -1.5026
    -1.3694  -1.3377  -1.3286  -1.3199  -1.2865  -1.2745  -1.1917  -1.0626
    -1.0519  -1.0118  -0.9600  -0.9019  -0.8768  -0.7749  -0.7381  -0.6611
    -0.6560  -0.6391  -0.5859  -0.5349  -0.3762  -0.3343  -0.3082  -0.2861
    -0.2616  -0.1909  -0.1693  -0.0527  -0.0356  -0.0180   0.0422   0.0655
     0.0784   0.0883   0.1061   0.1242   0.1416   0.3088   0.3812   0.4339
     0.4570   0.5151   0.6399   0.7091   0.7638   0.8643   1.0753   1.1495
     1.2423   1.3417   1.7209   1.7665   2.6488   3.2444   3.3252   3.3741
     3.3888   3.4858   3.5195   3.6962   3.6972   3.7258   3.7956

[...]

          k = 0.0380-0.0419 0.0000 ( 17876 PWs)   bands (ev):

[...]

          k =-0.0760-0.0000 0.0000 ( 17886 PWs)   bands (ev):

[...]

          k =-0.0760-0.0839 0.0000 ( 17948 PWs)   bands (ev):

   -55.8783 -55.8773 -55.8625 -55.8620 -55.7922 -55.7180 -55.7073 -55.7054
   -55.6875 -55.6851 -55.6526 -55.6514 -55.2845 -55.0961 -54.8554 -54.8553
   -32.2391 -32.2372 -32.1928 -32.1921 -32.1737 -32.1728 -32.1695 -32.1341
   -32.0886 -32.0856 -32.0795 -32.0790 -32.0422 -32.0128 -32.0051 -32.0045
   -31.9981 -31.9980 -31.9973 -31.9970 -31.9931 -31.9914 -31.9890 -31.9377
   -31.9239 -31.9118 -31.9108 -31.8995 -31.8866 -31.8861 -31.8836 -31.8827
   -31.8671 -31.8664 -31.8571 -31.8544 -31.6944 -31.5679 -31.4674 -31.4142
   -31.3569 -31.3362 -31.1816 -31.1814 -31.0924 -31.0922 -31.0531 -31.0530
   -18.4467 -16.0685 -16.0426 -15.8425 -15.8094 -15.8054 -15.7909 -15.6821
   -15.5972 -15.5902 -15.5874 -15.5210 -15.4909 -15.4751 -15.4344 -15.4218
   -15.4145 -15.4029 -15.3926 -15.3555 -15.3482 -15.3309 -15.3235 -15.2393
   -15.2115 -15.2074 -15.1816 -15.0637 -14.9323 -14.6172 -13.3604 -13.3602
   -11.3589  -6.9492  -4.2608  -3.9033  -3.8322  -3.3580  -3.3292  -3.0888
    -3.0502  -3.0365  -2.9831  -2.8215  -2.7912  -2.7655  -2.7539  -2.7223
    -2.7170  -2.7049  -2.6998  -2.6799  -2.6385  -2.6177  -2.5998  -2.5817
    -2.5624  -2.5485  -2.5327  -2.5159  -2.5063  -2.4669  -2.4434  -2.4319
    -2.4132  -2.4015  -2.2447  -2.1220  -2.0876  -2.0331  -2.0228  -2.0013
    -1.9613  -1.9575  -1.9457  -1.8814  -1.8099  -1.6514  -1.6146  -1.5942
    -1.5761  -1.5547  -1.5002  -1.4600  -1.3726  -1.2987  -1.2748  -1.2702
    -1.2017  -1.1147  -1.1075  -1.0599  -1.0168  -1.0078  -0.9527  -0.8879
    -0.8573  -0.8531  -0.8002  -0.7306  -0.7133  -0.6633  -0.6564  -0.6120
    -0.5571  -0.5493  -0.5280  -0.4868  -0.4049  -0.3813  -0.2428  -0.1630
    -0.0401   0.0739   0.1682   0.1825   0.2624   0.3144   0.3981   0.4157
     0.4262   0.4354   0.4785   0.5621   0.6373   0.6520   0.6979   0.8189
     1.5132   1.5140   1.5862   1.5865   2.7058   3.4914   3.5361   3.5783
     3.6105   3.7170   3.7493   3.7729   3.7741   3.8020   3.9145

     the Fermi energy is     3.2396 ev

!    total energy              =   -2939.15476729 Ry
     estimated scf accuracy    <       0.00000005 Ry
     smearing contrib. (-TS)   =      -0.02245336 Ry
     internal energy E=F+TS    =   -2939.13231393 Ry

     The total energy is F=E-TS. E is the sum of the following terms:
     one-electron contribution =  -24176.17748187 Ry
     hartree contribution      =   12175.33177076 Ry
     xc contribution           =    -485.18561115 Ry
     ewald contribution        =    9546.89806379 Ry
     electric field correction =       0.00094454 Ry

     convergence has been achieved in  72 iterations

     Forces acting on atoms (cartesian axes, Ry/au):

     atom    1 type  1   force =     0.00011954   -0.00025023    0.09664745
     atom    2 type  1   force =    -0.00012460   -0.00049781   -0.17525096
     atom    3 type  2   force =     0.00000237   -0.00010231   -0.02499697
     atom    4 type  2   force =     0.00005273   -0.00150269    0.05300100
     atom    5 type  2   force =    -0.01216079   -0.00108650    0.00361265
     atom    6 type  2   force =     0.01371295   -0.00027670    0.00228731
     atom    7 type  1   force =    -0.00117406    0.00036925   -0.01149552
     atom    8 type  1   force =     0.00056017    0.00940701    0.02852562
     atom    9 type  2   force =     0.00019911    0.00053028   -0.00013179
     atom   10 type  2   force =    -0.00114679    0.00028110   -0.01822019
     atom   11 type  2   force =    -0.00012730    0.00000256   -0.00013438
     atom   12 type  2   force =     0.00013602    0.00021622    0.00018212
     atom   13 type  1   force =     0.00009249   -0.00029421    0.00015529
     atom   14 type  1   force =     0.00021979    0.00016852    0.00019849
     atom   15 type  2   force =     0.00022231   -0.00004458   -0.00012024
     atom   16 type  2   force =    -0.00032966    0.00033836    0.00037704
     atom   17 type  2   force =    -0.00014087    0.00042505   -0.00015590
     atom   18 type  2   force =     0.00013425    0.00016527    0.00020973
     atom   19 type  1   force =    -0.00008407    0.00015957    0.00007316
     atom   20 type  1   force =    -0.00058263   -0.00029925    0.00020451
     atom   21 type  2   force =     0.00008729    0.00001348    0.10325253
     atom   22 type  2   force =    -0.00020206    0.00027726    0.00069690
     atom   23 type  2   force =    -0.07146620   -0.00008178   -0.02770773
     atom   24 type  2   force =     0.07143298    0.00034044   -0.02771625
     atom   25 type  1   force =     0.00007218   -0.00021854    0.09638259
     atom   26 type  1   force =    -0.00022718   -0.00026108   -0.17565695
     atom   27 type  2   force =     0.00007142   -0.00025015   -0.02399297
     atom   28 type  2   force =     0.00009554   -0.00126298    0.05287238
     atom   29 type  2   force =    -0.01240366    0.00003789    0.00352726
     atom   30 type  2   force =     0.01387088    0.00033144    0.00217044
     atom   31 type  1   force =    -0.00113715    0.00332687   -0.01190884
     atom   32 type  1   force =     0.00065370   -0.01116955    0.02912714
     atom   33 type  2   force =     0.00010954   -0.00020188   -0.00038767
     atom   34 type  2   force =    -0.00089664   -0.00093310   -0.02481877
     atom   35 type  2   force =    -0.00040069    0.00027243    0.00002295
     atom   36 type  2   force =     0.00072693    0.00029375    0.00034173
     atom   37 type  1   force =    -0.00000901   -0.00023171    0.00004987
     atom   38 type  1   force =    -0.00001272    0.00010237   -0.00001065
     atom   39 type  2   force =     0.00032857    0.00033373   -0.00045148
     atom   40 type  2   force =    -0.00030452    0.00010323    0.00016211
     atom   41 type  2   force =    -0.00044692    0.00052232    0.00011150
     atom   42 type  2   force =     0.00003869    0.00044879    0.00040950
     atom   43 type  1   force =    -0.00005949    0.00037313    0.00042479
     atom   44 type  1   force =    -0.00041693    0.00029182    0.00078721
     atom   45 type  2   force =     0.00008221   -0.00002860    0.10325317
     atom   46 type  2   force =    -0.07149533   -0.00002722   -0.02771962
     atom   47 type  2   force =     0.07146126    0.00039693   -0.02774778
     atom   48 type  3   force =    -0.00029266   -0.00113334    0.00049757
     atom   49 type  3   force =     0.00066235    0.00033650   -0.00008350
     atom   50 type  4   force =     0.00319524    0.00291315   -0.00245942
     atom   51 type  5   force =     0.00080774    0.00078424   -0.00112837
     atom   52 type  5   force =    -0.00271934   -0.00328192    0.00280696
     atom   53 type  5   force =    -0.00078699   -0.00012684   -0.00007503

     Total force =     0.368415     Total SCF correction =     0.000501
  @ DRIVER MODE: Message from server: STATUS
  @ DRIVER MODE: Message from server: GETFORCE
  @ DRIVER MODE: Returning v,forces,stress,ensemble

     Writing output data file ./calc.save/
  @ DRIVER MODE: Message from server: EXIT
  @ DRIVE MODE: Exiting

     General routines

     Parallel routines

   This run was terminated on:   6:57: 3   9Sep2021

   JOB DONE.