     Program PWSCF v.6.7GPU starts on 23Aug2021 at 15:56:42

     R & G space division:  proc/nbgrp/npool/nimage =       6
     Reading input from /storage/home/hcoda1/3/ntian30/research/carbon/CH_vib/ads_slab/CHNHH_a/out_0007/pw.inp
Warning: card &CELL ignored
Warning: card   CELL_DYNAMICS='IPI', ignored
Warning: card / ignored

     Current dimensions of program PWSCF are:
     Max number of different atomic species (ntypx) = 10
     Max number of k-points (npk) =  40000
     Max angular momentum in pseudopotentials (lmaxx) =  3
     Presently no symmetry can be used with electric field

     Message from routine cell_base_init:
     DEPRECATED: use true lattice parameter, not A to a.u. conversion factor

     IMPORTANT: XC functional enforced from input :
     Exchange-correlation= BEEF-VDW
                           (   1   4  43  14   2   0   0)
     Any further DFT definition will be discarded
     Please, verify this is what you really want

  @ DRIVER MODE: Connecting to
 qe_1139763_2632797.sched-torque.pace.gatech.educ0iskqzk_scratch
  using UNIX socket
  @ DRIVER MODE: Message from server: STATUS
  @ DRIVER MODE: Message from server: INIT
  @ DRIVER MODE: Receiving replica           0          -1
  @ DRIVER MODE: Receiving encoded integer          25
  @ DRIVER MODE:  SCF:  T  FORCE:  T  STRESS:  F  VC:  F  ENSEMBLE:  F
  @ DRIVER MODE:  SCF:  T  FORCE:  T  STRESS:  F  VC:  F  ENSEMBLE:  F

     Using Slab Decomposition

     bravais-lattice index     =            0
     lattice parameter (alat)  =       1.8897  a.u.
     unit-cell volume          =    6658.9804 (a.u.)^3
     number of atoms/cell      =           52
     number of atomic types    =            5
     number of electrons       =       390.00
     number of Kohn-Sham states=          205
     kinetic-energy cutoff     =      29.3995  Ry
     charge density cutoff     =     293.9946  Ry
     scf convergence threshold =      7.3E-08
     mixing beta               =       0.0500
     number of iterations used =            8  plain     mixing
     Exchange-correlation= BEEF-VDW
                           (   1   4  43  14   2   0   0)

     celldm(1)=   1.889726  celldm(2)=   0.000000  celldm(3)=   0.000000
     celldm(4)=   0.000000  celldm(5)=   0.000000  celldm(6)=   0.000000

     crystal axes: (cart. coord. in units of alat)
               a(1) = (   6.579727   0.000000   0.000000 )
               a(2) = (  -0.000775   5.961596   0.000000 )
               a(3) = (   0.000000   0.000000  25.155947 )

     reciprocal axes: (cart. coord. in units 2 pi/alat)
               b(1) = (  0.151982  0.000020  0.000000 )
               b(2) = (  0.000000  0.167740  0.000000 )
               b(3) = (  0.000000  0.000000  0.039752 )

     PseudoPot. # 1 for Ti read from file:
     /storage/coda1/p-amedford6/0/shared/rich_project_chbe-medford/medford-share/data/pseudos_module/espresso/nninc/pbe/van/Ti.UPF
     MD5 check sum: 8e4df49b7f0d34bbd5052bf3f5ea0213
     Pseudo is Ultrasoft, Zval = 12.0
     Generated by new atomic code, or converted to UPF format
     Using radial grid of  851 points,  6 beta functions with:
                l(1) =   0
                l(2) =   0
                l(3) =   1
                l(4) =   1
                l(5) =   2
                l(6) =   2
     Q(r) pseudized with  8 coefficients,  rinner =    1.000   1.000   1.000
                                                       1.000   1.000

     PseudoPot. # 2 for O  read from file:
     /storage/coda1/p-amedford6/0/shared/rich_project_chbe-medford/medford-share/data/pseudos_module/espresso/nninc/pbe/van/O.UPF
     MD5 check sum: 78c19812648e8988a0fe644b0f25305e
     Pseudo is Ultrasoft, Zval =  6.0
     Generated by new atomic code, or converted to UPF format
     Using radial grid of  737 points,  4 beta functions with:
                l(1) =   0
                l(2) =   0
                l(3) =   1
                l(4) =   1
     Q(r) pseudized with  8 coefficients,  rinner =    0.800   0.800   0.800

     PseudoPot. # 3 for N  read from file:
     /storage/coda1/p-amedford6/0/shared/rich_project_chbe-medford/medford-share/data/pseudos_module/espresso/nninc/pbe/van/N.UPF
     MD5 check sum: 90d10febe142ad51ac9d5be1deb811c4
     Pseudo is Ultrasoft, Zval =  5.0
     Generated by new atomic code, or converted to UPF format
     Using radial grid of  729 points,  4 beta functions with:
                l(1) =   0
                l(2) =   0
                l(3) =   1
                l(4) =   1
     Q(r) pseudized with  8 coefficients,  rinner =    0.800   0.800   0.800

     PseudoPot. # 4 for C  read from file:
     /storage/coda1/p-amedford6/0/shared/rich_project_chbe-medford/medford-share/data/pseudos_module/espresso/nninc/pbe/van/C.UPF
     MD5 check sum: 1a69bf6b8db32088f5b2163dbdb77a27
     Pseudo is Ultrasoft, Zval =  4.0
     Generated by new atomic code, or converted to UPF format
     Using radial grid of  721 points,  4 beta functions with:
                l(1) =   0
                l(2) =   0
                l(3) =   1
                l(4) =   1
     Q(r) pseudized with  8 coefficients,  rinner =    0.800   0.800   0.800

     PseudoPot. # 5 for H  read from file:
     /storage/coda1/p-amedford6/0/shared/rich_project_chbe-medford/medford-share/data/pseudos_module/espresso/nninc/pbe/van/H.UPF
     MD5 check sum: b5ee9d7bfd3a09ee7748110bda690ff7
     Pseudo is Ultrasoft, Zval =  1.0
     Generated by new atomic code, or converted to UPF format
     Using radial grid of  615 points,  1 beta functions with:
                l(1) =   0
     Q(r) pseudized with  8 coefficients,  rinner =    0.800

     atomic species   valence    mass     pseudopotential
        Ti1           12.00    47.86700     Ti( 1.00)
        O1             6.00    15.99900     O ( 1.00)
        N1             5.00    14.00700     N ( 1.00)
        C1             4.00    12.01100     C ( 1.00)
        H1             1.00     1.00800     H ( 1.00)

     No symmetry found

   Cartesian axes

     site n.     atom                  positions (alat units)
         1           Ti1 tau(   1) = (   0.0004258   2.9801865   6.0000000  )
         2           Ti1 tau(   2) = (   3.2906075   1.4906267   6.0002472  )
         3           O1  tau(   3) = (   0.0006271   0.0005054   7.9858123  )
         4           O1  tau(   4) = (   3.2906025   0.0005020   7.3038282  )
         5           O1  tau(   5) = (   4.5942328   1.4918067   9.2879030  )
         6           O1  tau(   6) = (   1.9868534   1.4903216   9.2879459  )
         7           Ti1 tau(   7) = (   3.2907910   2.8959150   9.1758416  )
         8           Ti1 tau(   8) = (   0.0015273   1.4827037   9.2680791  )
         9           O1  tau(   9) = (   3.2768318   5.9518058  11.3501096  )
        10           O1  tau(  10) = (   0.0116148   5.9584955  10.6183126  )
        11           O1  tau(  11) = (   1.2820894   1.4890407  12.6429483  )
        12           O1  tau(  12) = (   5.2701592   1.4861355  12.6244956  )
        13           Ti1 tau(  13) = (   0.0263608   2.9732685  12.5725065  )
        14           Ti1 tau(  14) = (   3.3311081   1.4825583  12.4934812  )
        15           O1  tau(  15) = (   6.5448050   0.0382128  14.6485099  )
        16           O1  tau(  16) = (   3.2835306   5.9556129  13.9684075  )
        17           O1  tau(  17) = (   4.5065730   1.5084740  16.1486978  )
        18           O1  tau(  18) = (   2.0110176   1.4968469  16.1316129  )
        19           Ti1 tau(  19) = (   3.2365874   2.9692752  15.7101938  )
        20           Ti1 tau(  20) = (   6.5183500   1.5288441  15.9766389  )
        21           O1  tau(  21) = (   3.2904802   0.0005063   4.7018136  )
        22           O1  tau(  22) = (   6.5552815   5.8936090  17.2115513  )
        23           O1  tau(  23) = (   1.3043587   1.4918075   6.0039043  )
        24           O1  tau(  24) = (   5.2767064   1.4903225   6.0039473  )
        25           Ti1 tau(  25) = (   0.0000382   5.9609847   6.0000000  )
        26           Ti1 tau(  26) = (   3.2902200   4.4714249   6.0002472  )
        27           O1  tau(  27) = (   0.0002396   2.9813036   7.9858123  )
        28           O1  tau(  28) = (   3.2902150   2.9813002   7.3038282  )
        29           O1  tau(  29) = (   4.5938453   4.4726049   9.2879030  )
        30           O1  tau(  30) = (   1.9864658   4.4711199   9.2879459  )
        31           Ti1 tau(  31) = (   3.2891106   5.8743827   9.1763621  )
        32           Ti1 tau(  32) = (   0.0006254   4.4649316   9.2693709  )
        33           O1  tau(  33) = (   3.2825058   2.9767457  11.3441782  )
        34           O1  tau(  34) = (   0.0092240   2.9805883  10.6323155  )
        35           O1  tau(  35) = (   1.2778777   4.4660374  12.6604661  )
        36           O1  tau(  36) = (   5.2710664   4.4675109  12.6369154  )
        37           Ti1 tau(  37) = (   0.0243246   5.9574881  12.5203091  )
        38           Ti1 tau(  38) = (   3.3318591   4.4611298  12.5006215  )
        39           O1  tau(  39) = (   6.5359656   2.9584677  14.7835642  )
        40           O1  tau(  40) = (   3.2771955   2.9708399  13.9242642  )
        41           O1  tau(  41) = (   4.4981441   4.4410618  16.1740548  )
        42           O1  tau(  42) = (   2.0042129   4.4512231  16.1075086  )
        43           Ti1 tau(  43) = (   3.2538698   5.9555144  15.7617387  )
        44           Ti1 tau(  44) = (   6.5531130   4.6830099  15.9084494  )
        45           O1  tau(  45) = (   3.2900926   2.9813045   4.7018136  )
        46           O1  tau(  46) = (   1.3039711   4.4726057   6.0039043  )
        47           O1  tau(  47) = (   5.2763189   4.4711207   6.0039473  )
        48           N1  tau(  48) = (   5.6690603   3.2568973  18.6585782  )
        49           C1  tau(  49) = (   6.5788826   2.6844975  17.9068455  )
        50           H1  tau(  50) = (   0.8805123   2.3964943  18.5001670  )
        51           H1  tau(  51) = (   4.8619660   3.6873350  18.2178346  )
        52           H1  tau(  52) = (   5.8095507   3.4768026  19.6356901  )

     number of k points=    10  Fermi-Dirac smearing, width (Ry)=  0.0073
                       cart. coord. in units 2pi/alat
        k(    1) = (   0.0000000   0.0000000   0.0000000), wk =   0.1250000
        k(    2) = (   0.0000000   0.0419351   0.0000000), wk =   0.2500000
        k(    3) = (   0.0000000  -0.0838702   0.0000000), wk =   0.1250000
        k(    4) = (   0.0379955   0.0000049   0.0000000), wk =   0.2500000
        k(    5) = (   0.0379955   0.0419400   0.0000000), wk =   0.2500000
        k(    6) = (   0.0379955  -0.0838652   0.0000000), wk =   0.2500000
        k(    7) = (   0.0379955  -0.0419301   0.0000000), wk =   0.2500000
        k(    8) = (  -0.0759910  -0.0000099   0.0000000), wk =   0.1250000
        k(    9) = (  -0.0759910   0.0419252   0.0000000), wk =   0.2500000
        k(   10) = (  -0.0759910  -0.0838800   0.0000000), wk =   0.1250000

     Initial potential from superposition of free atoms

     starting charge  373.99917, renormalised to  390.00000

     negative rho (up, down):  1.782E-02 0.000E+00

     %%%%%%%%%%%%%%%%%%%%%%%%%%%%%%%%%%%%%%%%%%%%%%%%%%%%%%%%%%%%%%%%%%%%%%%%
     %                                                                      %
     % You are using vdW-DF, which was implemented by the Thonhauser group. %
     % Please cite the following two papers that made this development      %
     % possible and the two reviews that describe the various versions:     %
     %                                                                      %
     %   T. Thonhauser et al., PRL 115, 136402 (2015).                      %
     %   T. Thonhauser et al., PRB 76, 125112 (2007).                       %
     %   K. Berland et al., Rep. Prog. Phys. 78, 066501 (2015).             %
     %   D.C. Langreth et al., J. Phys.: Condens. Matter 21, 084203 (2009). %
     %                                                                      %
     %                                                                      %
     % If you are calculating the stress with vdW-DF, please also cite:     %
     %                                                                      %
     %   R. Sabatini et al., J. Phys.: Condens. Matter 24, 424209 (2012).   %
     %                                                                      %
     %%%%%%%%%%%%%%%%%%%%%%%%%%%%%%%%%%%%%%%%%%%%%%%%%%%%%%%%%%%%%%%%%%%%%%%%

     Adding external electric field

     Computed dipole along edir(3) :
        Dipole               -5.8555 Ry au,        -14.8831 Debye
        Dipole field         -0.0111 Ry au,

        Potential amp.        1.0243 Ry
        Total length         46.3494 bohr

     Starting wfcs are  295 atomic wfcs
  @ DRIVER MODE: Message from server: STATUS
  @ DRIVER MODE: Message from server: POSDATA
  @ DRIVER MODE: Reading and sharing cell
  @ DRIVER MODE: Reading and sharing positions
  @ DRIVER MODE: Received positions

     Self-consistent Calculation

     iteration #  1     ecut=    29.40 Ry     beta= 0.05
     Davidson diagonalization with overlap
     c_bands:  4 eigenvalues not converged
     c_bands:  1 eigenvalues not converged
     c_bands:  2 eigenvalues not converged
     c_bands:  3 eigenvalues not converged
     c_bands:  3 eigenvalues not converged
     c_bands:  3 eigenvalues not converged
     c_bands:  3 eigenvalues not converged
     c_bands:  3 eigenvalues not converged
     c_bands:  3 eigenvalues not converged
     c_bands:  5 eigenvalues not converged
     ethr =  1.00E-05,  avg # of iterations = 20.0

[...]

     total energy              =   -2777.39124853 Ry
     estimated scf accuracy    <    1559.85359073 Ry

     iteration #  2     ecut=    29.40 Ry     beta= 0.05
     Davidson diagonalization with overlap
     ethr =  1.00E-02,  avg # of iterations = 18.1

[...]

     iteration # 69     ecut=    29.40 Ry     beta= 0.05
     Davidson diagonalization with overlap
     c_bands:  1 eigenvalues not converged
     ethr =  5.33E-11,  avg # of iterations = 10.7

[...]

     total energy              =   -2919.04270928 Ry
     estimated scf accuracy    <       0.00000013 Ry

     iteration # 71     ecut=    29.40 Ry     beta= 0.05
     Davidson diagonalization with overlap
     ethr =  3.40E-11,  avg # of iterations =  8.6

     negative rho (up, down):  1.801E-02 0.000E+00

     Adding external electric field

     Computed dipole along edir(3) :
        Dipole                1.3918 Ry au,          3.5375 Debye
        Dipole field          0.0026 Ry au,

        Potential amp.       -0.2435 Ry
        Total length         46.3494 bohr

     End of self-consistent calculation

          k = 0.0000 0.0000 0.0000 ( 18029 PWs)   bands (ev):

   -55.5014 -55.4763 -55.4651 -55.4422 -55.4156 -55.3704 -55.3284 -55.3203
   -55.3012 -55.2942 -55.2648 -55.2627 -55.0492 -54.9428 -54.4797 -54.4457
   -32.0684 -31.9640 -31.8620 -31.8402 -31.8300 -31.7966 -31.7890 -31.7667
   -31.7567 -31.7201 -31.7161 -31.7114 -31.6779 -31.6529 -31.6431 -31.6410
   -31.6292 -31.6043 -31.5943 -31.5856 -31.5752 -31.5592 -31.5337 -31.5296
   -31.5293 -31.5090 -31.5059 -31.5014 -31.5000 -31.4910 -31.4770 -31.4614
   -31.4506 -31.4502 -31.4270 -31.4160 -31.4004 -31.3523 -31.2864 -31.1872
   -31.1771 -31.0887 -30.8879 -30.7969 -30.7747 -30.7047 -30.6180 -30.5068
   -17.1013 -16.3016 -16.0176 -15.8552 -15.7102 -15.6789 -15.5686 -15.3933
   -15.3164 -15.2408 -15.2212 -15.1413 -15.1272 -15.1127 -15.0904 -15.0310
   -15.0232 -14.9780 -14.9734 -14.9403 -14.9190 -14.8877 -14.8701 -14.8626
   -14.8102 -14.7681 -14.7043 -14.6378 -14.5826 -14.1173 -12.9826 -12.8657
    -9.4726  -7.2679  -4.6038  -3.6585  -3.4888  -3.4084  -3.3987  -3.3790
    -3.1886  -3.1127  -2.8388  -2.7436  -2.7089  -2.7024  -2.6754  -2.6194
    -2.5667  -2.4443  -2.3803  -2.3438  -2.3237  -2.3207  -2.3091  -2.2902
    -2.2793  -2.2479  -2.1786  -2.1225  -2.0469  -1.9631  -1.8877  -1.8731
    -1.8115  -1.7837  -1.7689  -1.7626  -1.7558  -1.7322  -1.7251  -1.6338
    -1.5491  -1.5055  -1.4055  -1.3823  -1.2892  -1.1561  -1.1235  -1.0199
    -1.0127  -0.9565  -0.9336  -0.8882  -0.8421  -0.8305  -0.8135  -0.6698
    -0.6032  -0.5422  -0.4850  -0.4568  -0.4396  -0.3541  -0.2851  -0.2768
    -0.2594  -0.2386  -0.0650  -0.0319  -0.0127   0.0113   0.0265   0.1159
     0.1480   0.2220   0.3018   0.3164   0.3217   0.3990   0.4224   0.4663
     0.4684   0.4956   0.5011   0.6720   0.6829   0.7091   0.7372   0.8158
     0.9034   1.1067   1.1322   1.1709   1.4579   1.5243   1.5425   1.7302
     2.1159   2.1629   3.5888   3.6937   3.7261   3.7420   3.7702   3.8390
     3.9062   4.0844   4.0916   4.1224   4.1276

[...]

          k = 0.0380-0.0419 0.0000 ( 17876 PWs)   bands (ev):

[...]

          k =-0.0760-0.0000 0.0000 ( 17886 PWs)   bands (ev):

[...]

          k =-0.0760-0.0839 0.0000 ( 17948 PWs)   bands (ev):

   -55.4856 -55.4807 -55.4595 -55.4589 -55.4123 -55.3615 -55.3372 -55.3234
   -55.2825 -55.2809 -55.2806 -55.2786 -55.0464 -54.9456 -54.4627 -54.4626
   -31.8739 -31.8699 -31.8049 -31.7794 -31.7788 -31.7676 -31.7524 -31.7518
   -31.7121 -31.7068 -31.7052 -31.6978 -31.6688 -31.6317 -31.6227 -31.6187
   -31.6182 -31.6156 -31.6116 -31.6099 -31.5998 -31.5792 -31.5786 -31.5658
   -31.5625 -31.5519 -31.5393 -31.5234 -31.5157 -31.5133 -31.4972 -31.4964
   -31.4957 -31.4947 -31.4730 -31.4595 -31.4560 -31.3569 -31.2816 -31.2062
   -31.1800 -31.1726 -30.7874 -30.7873 -30.7006 -30.7004 -30.6614 -30.6614
   -17.0967 -15.7592 -15.6974 -15.5625 -15.4806 -15.4588 -15.4463 -15.4232
   -15.2866 -15.2696 -15.2518 -15.2013 -15.1972 -15.1944 -15.1570 -15.0999
   -15.0649 -15.0624 -15.0537 -15.0282 -14.9925 -14.9872 -14.9530 -14.9444
   -14.9309 -14.8414 -14.8360 -14.8337 -14.6643 -14.3424 -12.9674 -12.9672
    -9.4772  -7.2693  -4.5857  -3.0419  -2.9684  -2.8083  -2.7058  -2.6756
    -2.6438  -2.5046  -2.4672  -2.4632  -2.4523  -2.4225  -2.3990  -2.3763
    -2.3469  -2.3330  -2.3283  -2.3113  -2.2994  -2.2866  -2.2444  -2.2019
    -2.2002  -2.1893  -2.1594  -2.1383  -2.1265  -2.0977  -2.0787  -2.0629
    -2.0493  -2.0037  -1.8271  -1.7950  -1.6969  -1.6740  -1.6650  -1.6476
    -1.5769  -1.5498  -1.5177  -1.4804  -1.4296  -1.3061  -1.2381  -1.2165
    -1.1886  -1.1793  -1.1273  -1.0041  -0.9684  -0.9455  -0.8991  -0.8623
    -0.8204  -0.8075  -0.6882  -0.6838  -0.6376  -0.5954  -0.4810  -0.4634
    -0.4539  -0.4439  -0.4288  -0.2984  -0.2887  -0.2822  -0.2645  -0.2207
    -0.2036  -0.0988  -0.0019   0.0161   0.1171   0.1686   0.2952   0.3562
     0.4529   0.4997   0.5244   0.6141   0.6513   0.7324   0.7519   0.8102
     0.8217   0.9127   0.9715   0.9906   0.9986   1.0661   1.9025   1.9033
     1.9828   1.9829   3.7489   3.8445   3.8833   3.9052   3.9513   4.1091
     4.1256   4.1727   4.1757   4.1896   4.2716

     the Fermi energy is     3.6466 ev

!    total energy              =   -2919.04272527 Ry
     estimated scf accuracy    <       0.00000006 Ry
     smearing contrib. (-TS)   =      -0.03613239 Ry
     internal energy E=F+TS    =   -2919.00659288 Ry

     The total energy is F=E-TS. E is the sum of the following terms:
     one-electron contribution =  -24479.51171700 Ry
     hartree contribution      =   12327.98685664 Ry
     xc contribution           =    -480.00285625 Ry
     ewald contribution        =    9712.51746839 Ry
     electric field correction =       0.00365535 Ry

     convergence has been achieved in  71 iterations

     Forces acting on atoms (cartesian axes, Ry/au):

     atom    1 type  1   force =     0.00009275   -0.00020083    0.09493890
     atom    2 type  1   force =    -0.00023250   -0.00036117   -0.17674745
     atom    3 type  2   force =    -0.00004506   -0.00006980   -0.02293023
     atom    4 type  2   force =    -0.00004408   -0.00167775    0.05578266
     atom    5 type  2   force =    -0.01135227   -0.00123209    0.00625738
     atom    6 type  2   force =     0.01252934   -0.00035013    0.00442067
     atom    7 type  1   force =    -0.00113695    0.00152630   -0.01378154
     atom    8 type  1   force =     0.00062819    0.00693442    0.01264588
     atom    9 type  2   force =     0.00020298   -0.00004948    0.00011926
     atom   10 type  2   force =    -0.00163919    0.00009901   -0.00994592
     atom   11 type  2   force =    -0.00021156    0.00002656    0.00017741
     atom   12 type  2   force =     0.00026005    0.00011390   -0.00004386
     atom   13 type  1   force =     0.00006383   -0.00000159    0.00018756
     atom   14 type  1   force =     0.00000849   -0.00015341    0.00016669
     atom   15 type  2   force =    -0.00005492    0.00001264    0.00013962
     atom   16 type  2   force =     0.00025489    0.00027732    0.00006717
     atom   17 type  2   force =    -0.00023481   -0.00027903    0.00023833
     atom   18 type  2   force =     0.00002161    0.00024480    0.00041622
     atom   19 type  1   force =     0.00046471   -0.00012630   -0.00040035
     atom   20 type  1   force =    -0.00003979   -0.00021331   -0.00025568
     atom   21 type  2   force =     0.00004557   -0.00004251    0.10358791
     atom   22 type  2   force =     0.00003813    0.00007828    0.00054427
     atom   23 type  2   force =    -0.07099249   -0.00016529   -0.02732159
     atom   24 type  2   force =     0.07084342    0.00031638   -0.02733565
     atom   25 type  1   force =    -0.00012186   -0.00020588    0.09463895
     atom   26 type  1   force =    -0.00019619   -0.00046853   -0.17690271
     atom   27 type  2   force =     0.00006938   -0.00035073   -0.02195061
     atom   28 type  2   force =     0.00003594   -0.00138999    0.05533509
     atom   29 type  2   force =    -0.01157389   -0.00009231    0.00586517
     atom   30 type  2   force =     0.01264383    0.00012847    0.00408043
     atom   31 type  1   force =    -0.00124816    0.00416686   -0.01465550
     atom   32 type  1   force =     0.00055377   -0.00776553    0.01250643
     atom   33 type  2   force =    -0.00001549    0.00009337    0.00003057
     atom   34 type  2   force =    -0.00126967    0.00083615   -0.00834711
     atom   35 type  2   force =     0.00011190    0.00019967    0.00001407
     atom   36 type  2   force =     0.00013247    0.00003936    0.00020185
     atom   37 type  1   force =     0.00001817    0.00000256   -0.00011339
     atom   38 type  1   force =    -0.00004133   -0.00016550   -0.00019786
     atom   39 type  2   force =    -0.00012954   -0.00015024    0.00009062
     atom   40 type  2   force =     0.00023113   -0.00001512   -0.00008598
     atom   41 type  2   force =     0.00040371   -0.00011756    0.00036083
     atom   42 type  2   force =    -0.00042847    0.00001223   -0.00017822
     atom   43 type  1   force =    -0.00018583    0.00010985   -0.00001602
     atom   44 type  1   force =     0.00036209   -0.00003894   -0.00055777
     atom   45 type  2   force =     0.00003371   -0.00004950    0.10355752
     atom   46 type  2   force =    -0.07099479   -0.00007078   -0.02730872
     atom   47 type  2   force =     0.07085184    0.00032782   -0.02734011
     atom   48 type  3   force =    -0.00962070    0.00624874    0.00400531
     atom   49 type  4   force =     0.01818291   -0.00755858   -0.00031769
     atom   50 type  5   force =    -0.00701621    0.00166290   -0.00540600
     atom   51 type  5   force =    -0.00039769    0.00006339    0.00044858
     atom   52 type  5   force =     0.00013864   -0.00015911    0.00131463

     Total force =     0.366866     Total SCF correction =     0.000605
  @ DRIVER MODE: Message from server: STATUS
  @ DRIVER MODE: Message from server: GETFORCE
  @ DRIVER MODE: Returning v,forces,stress,ensemble

     Writing output data file ./calc.save/
  @ DRIVER MODE: Message from server: EXIT
  @ DRIVE MODE: Exiting

     General routines

     Parallel routines

   This run was terminated on:  16:26:22  23Aug2021

   JOB DONE.