     Program PWSCF v.6.7GPU starts on 15Sep2021 at 19:39:57

     R & G space division:  proc/nbgrp/npool/nimage =      10
     Reading input from /storage/home/hcoda1/3/ntian30/research/carbon/CxH_vib/H2O_calc/ads_slab/CHNNHHH2O_a/out_0012/pw.inp
Warning: card &CELL ignored
Warning: card   CELL_DYNAMICS='IPI', ignored
Warning: card / ignored

     Current dimensions of program PWSCF are:
     Max number of different atomic species (ntypx) = 10
     Max number of k-points (npk) =  40000
     Max angular momentum in pseudopotentials (lmaxx) =  3
     Presently no symmetry can be used with electric field

     Message from routine cell_base_init:
     DEPRECATED: use true lattice parameter, not A to a.u. conversion factor

     IMPORTANT: XC functional enforced from input :
     Exchange-correlation= BEEF-VDW
                           (   1   4  43  14   2   0   0)
     Any further DFT definition will be discarded
     Please, verify this is what you really want

  @ DRIVER MODE: Connecting to
 qe_1139763_2852630.sched-torque.pace.gatech.edu0rw88bwl_scratch
  using UNIX socket
  @ DRIVER MODE: Message from server: STATUS
  @ DRIVER MODE: Message from server: INIT
  @ DRIVER MODE: Receiving replica           0          -1
  @ DRIVER MODE: Receiving encoded integer          25
  @ DRIVER MODE:  SCF:  T  FORCE:  T  STRESS:  F  VC:  F  ENSEMBLE:  F
  @ DRIVER MODE:  SCF:  T  FORCE:  T  STRESS:  F  VC:  F  ENSEMBLE:  F

     Using Slab Decomposition

     bravais-lattice index     =            0
     lattice parameter (alat)  =       1.8897  a.u.
     unit-cell volume          =    6658.9804 (a.u.)^3
     number of atoms/cell      =           56
     number of atomic types    =            5
     number of electrons       =       403.00
     number of Kohn-Sham states=          211
     kinetic-energy cutoff     =      29.3995  Ry
     charge density cutoff     =     293.9946  Ry
     scf convergence threshold =      7.3E-08
     mixing beta               =       0.0500
     number of iterations used =            8  plain     mixing
     Exchange-correlation= BEEF-VDW
                           (   1   4  43  14   2   0   0)

     celldm(1)=   1.889726  celldm(2)=   0.000000  celldm(3)=   0.000000
     celldm(4)=   0.000000  celldm(5)=   0.000000  celldm(6)=   0.000000

     crystal axes: (cart. coord. in units of alat)
               a(1) = (   6.579727   0.000000   0.000000 )
               a(2) = (  -0.000775   5.961596   0.000000 )
               a(3) = (   0.000000   0.000000  25.155947 )

     reciprocal axes: (cart. coord. in units 2 pi/alat)
               b(1) = (  0.151982  0.000020  0.000000 )
               b(2) = (  0.000000  0.167740  0.000000 )
               b(3) = (  0.000000  0.000000  0.039752 )

     PseudoPot. # 1 for Ti read from file:
     /storage/coda1/p-amedford6/0/shared/rich_project_chbe-medford/medford-share/data/pseudos_module/espresso/nninc/pbe/van/Ti.UPF
     MD5 check sum: 8e4df49b7f0d34bbd5052bf3f5ea0213
     Pseudo is Ultrasoft, Zval = 12.0
     Generated by new atomic code, or converted to UPF format
     Using radial grid of  851 points,  6 beta functions with:
                l(1) =   0
                l(2) =   0
                l(3) =   1
                l(4) =   1
                l(5) =   2
                l(6) =   2
     Q(r) pseudized with  8 coefficients,  rinner =    1.000   1.000   1.000
                                                       1.000   1.000

     PseudoPot. # 2 for O  read from file:
     /storage/coda1/p-amedford6/0/shared/rich_project_chbe-medford/medford-share/data/pseudos_module/espresso/nninc/pbe/van/O.UPF
     MD5 check sum: 78c19812648e8988a0fe644b0f25305e
     Pseudo is Ultrasoft, Zval =  6.0
     Generated by new atomic code, or converted to UPF format
     Using radial grid of  737 points,  4 beta functions with:
                l(1) =   0
                l(2) =   0
                l(3) =   1
                l(4) =   1
     Q(r) pseudized with  8 coefficients,  rinner =    0.800   0.800   0.800

     PseudoPot. # 3 for N  read from file:
     /storage/coda1/p-amedford6/0/shared/rich_project_chbe-medford/medford-share/data/pseudos_module/espresso/nninc/pbe/van/N.UPF
     MD5 check sum: 90d10febe142ad51ac9d5be1deb811c4
     Pseudo is Ultrasoft, Zval =  5.0
     Generated by new atomic code, or converted to UPF format
     Using radial grid of  729 points,  4 beta functions with:
                l(1) =   0
                l(2) =   0
                l(3) =   1
                l(4) =   1
     Q(r) pseudized with  8 coefficients,  rinner =    0.800   0.800   0.800

     PseudoPot. # 4 for C  read from file:
     /storage/coda1/p-amedford6/0/shared/rich_project_chbe-medford/medford-share/data/pseudos_module/espresso/nninc/pbe/van/C.UPF
     MD5 check sum: 1a69bf6b8db32088f5b2163dbdb77a27
     Pseudo is Ultrasoft, Zval =  4.0
     Generated by new atomic code, or converted to UPF format
     Using radial grid of  721 points,  4 beta functions with:
                l(1) =   0
                l(2) =   0
                l(3) =   1
                l(4) =   1
     Q(r) pseudized with  8 coefficients,  rinner =    0.800   0.800   0.800

     PseudoPot. # 5 for H  read from file:
     /storage/coda1/p-amedford6/0/shared/rich_project_chbe-medford/medford-share/data/pseudos_module/espresso/nninc/pbe/van/H.UPF
     MD5 check sum: b5ee9d7bfd3a09ee7748110bda690ff7
     Pseudo is Ultrasoft, Zval =  1.0
     Generated by new atomic code, or converted to UPF format
     Using radial grid of  615 points,  1 beta functions with:
                l(1) =   0
     Q(r) pseudized with  8 coefficients,  rinner =    0.800

     atomic species   valence    mass     pseudopotential
        Ti1           12.00    47.86700     Ti( 1.00)
        O1             6.00    15.99900     O ( 1.00)
        N1             5.00    14.00700     N ( 1.00)
        C1             4.00    12.01100     C ( 1.00)
        H1             1.00     1.00800     H ( 1.00)

     No symmetry found

   Cartesian axes

     site n.     atom                  positions (alat units)
         1           Ti1 tau(   1) = (   0.0004258   2.9801865   6.0000000  )
         2           Ti1 tau(   2) = (   3.2906075   1.4906267   6.0002472  )
         3           O1  tau(   3) = (   0.0006271   0.0005054   7.9858123  )
         4           O1  tau(   4) = (   3.2906025   0.0005020   7.3038282  )
         5           O1  tau(   5) = (   4.5942328   1.4918067   9.2879030  )
         6           O1  tau(   6) = (   1.9868534   1.4903216   9.2879459  )
         7           Ti1 tau(   7) = (   3.2907910   2.8959150   9.1758416  )
         8           Ti1 tau(   8) = (   0.0015273   1.4827037   9.2680791  )
         9           O1  tau(   9) = (   3.3295752   5.9394884  11.3365386  )
        10           O1  tau(  10) = (   0.0116148   5.9584955  10.6183126  )
        11           O1  tau(  11) = (   1.3416459   1.4853116  12.6004455  )
        12           O1  tau(  12) = (   5.3426426   1.4786053  12.6369034  )
        13           Ti1 tau(  13) = (   0.0116414   2.9353973  12.6160321  )
        14           Ti1 tau(  14) = (   3.2634613   1.4579052  12.5012998  )
        15           O1  tau(  15) = (   0.1064876   0.0498873  14.6156690  )
        16           O1  tau(  16) = (   3.3207907   0.0021492  13.9347054  )
        17           O1  tau(  17) = (   4.6463059   1.4619937  15.9920056  )
        18           O1  tau(  18) = (   2.1466462   1.4989335  16.1123926  )
        19           Ti1 tau(  19) = (   3.4306617   2.9592634  15.6863987  )
        20           Ti1 tau(  20) = (   0.1411245   1.4409179  16.1562347  )
        21           O1  tau(  21) = (   3.2904802   0.0005063   4.7018136  )
        22           O1  tau(  22) = (   0.1093408   5.8617090  17.1288626  )
        23           O1  tau(  23) = (   1.3043587   1.4918075   6.0039043  )
        24           O1  tau(  24) = (   5.2767064   1.4903225   6.0039473  )
        25           Ti1 tau(  25) = (   0.0000382   5.9609847   6.0000000  )
        26           Ti1 tau(  26) = (   3.2902200   4.4714249   6.0002472  )
        27           O1  tau(  27) = (   0.0002396   2.9813036   7.9858123  )
        28           O1  tau(  28) = (   3.2902150   2.9813002   7.3038282  )
        29           O1  tau(  29) = (   4.5938453   4.4726049   9.2879030  )
        30           O1  tau(  30) = (   1.9864658   4.4711199   9.2879459  )
        31           Ti1 tau(  31) = (   3.2891106   5.8743827   9.1763621  )
        32           Ti1 tau(  32) = (   0.0006254   4.4649316   9.2693709  )
        33           O1  tau(  33) = (   3.3252478   2.9725824  11.3426849  )
        34           O1  tau(  34) = (   0.0092240   2.9805883  10.6323155  )
        35           O1  tau(  35) = (   1.3395427   4.4601989  12.6346899  )
        36           O1  tau(  36) = (   5.3460148   4.4586474  12.6692756  )
        37           Ti1 tau(  37) = (   6.5637397   5.9322234  12.5160321  )
        38           Ti1 tau(  38) = (   3.2635149   4.4558096  12.5102435  )
        39           O1  tau(  39) = (   0.1109093   2.9345503  14.7784033  )
        40           O1  tau(  40) = (   3.3425673   2.9461413  13.8942005  )
        41           O1  tau(  41) = (   4.6672108   4.4449251  15.9191901  )
        42           O1  tau(  42) = (   2.1284166   4.4082335  15.9970045  )
        43           Ti1 tau(  43) = (   3.3925976   5.9399099  15.7906296  )
        44           Ti1 tau(  44) = (   0.1175887   4.6074924  15.7225956  )
        45           O1  tau(  45) = (   3.2900926   2.9813045   4.7018136  )
        46           O1  tau(  46) = (   1.3039711   4.4726057   6.0039043  )
        47           O1  tau(  47) = (   5.2763189   4.4711207   6.0039473  )
        48           N1  tau(  48) = (   6.3322197   2.6896666  17.8857888  )
        49           C1  tau(  49) = (   0.7408832   3.1023054  18.6149742  )
        50           H1  tau(  50) = (   1.6825283   2.9574642  18.0630083  )
        51           N1  tau(  51) = (   5.0062801   2.8267163  18.4728511  )
        52           H1  tau(  52) = (   5.1803530   3.0494745  19.4549233  )
        53           H1  tau(  53) = (   4.5789568   1.9025856  18.4370215  )
        54           O1  tau(  54) = (   3.4803961   5.7297960  18.1507158  )
        55           H1  tau(  55) = (   4.0125945   4.9267423  18.3304466  )
        56           H1  tau(  56) = (   2.5980622   5.5532332  18.5227279  )

     number of k points=    10  Fermi-Dirac smearing, width (Ry)=  0.0073
                       cart. coord. in units 2pi/alat
        k(    1) = (   0.0000000   0.0000000   0.0000000), wk =   0.1250000
        k(    2) = (   0.0000000   0.0419351   0.0000000), wk =   0.2500000
        k(    3) = (   0.0000000  -0.0838702   0.0000000), wk =   0.1250000
        k(    4) = (   0.0379955   0.0000049   0.0000000), wk =   0.2500000
        k(    5) = (   0.0379955   0.0419400   0.0000000), wk =   0.2500000
        k(    6) = (   0.0379955  -0.0838652   0.0000000), wk =   0.2500000
        k(    7) = (   0.0379955  -0.0419301   0.0000000), wk =   0.2500000
        k(    8) = (  -0.0759910  -0.0000099   0.0000000), wk =   0.1250000
        k(    9) = (  -0.0759910   0.0419252   0.0000000), wk =   0.2500000
        k(   10) = (  -0.0759910  -0.0838800   0.0000000), wk =   0.1250000

     Initial potential from superposition of free atoms

     starting charge  386.99914, renormalised to  403.00000

     negative rho (up, down):  1.682E-02 0.000E+00

     %%%%%%%%%%%%%%%%%%%%%%%%%%%%%%%%%%%%%%%%%%%%%%%%%%%%%%%%%%%%%%%%%%%%%%%%
     %                                                                      %
     % You are using vdW-DF, which was implemented by the Thonhauser group. %
     % Please cite the following two papers that made this development      %
     % possible and the two reviews that describe the various versions:     %
     %                                                                      %
     %   T. Thonhauser et al., PRL 115, 136402 (2015).                      %
     %   T. Thonhauser et al., PRB 76, 125112 (2007).                       %
     %   K. Berland et al., Rep. Prog. Phys. 78, 066501 (2015).             %
     %   D.C. Langreth et al., J. Phys.: Condens. Matter 21, 084203 (2009). %
     %                                                                      %
     %                                                                      %
     % If you are calculating the stress with vdW-DF, please also cite:     %
     %                                                                      %
     %   R. Sabatini et al., J. Phys.: Condens. Matter 24, 424209 (2012).   %
     %                                                                      %
     %%%%%%%%%%%%%%%%%%%%%%%%%%%%%%%%%%%%%%%%%%%%%%%%%%%%%%%%%%%%%%%%%%%%%%%%

     Adding external electric field

     Computed dipole along edir(3) :
        Dipole              -12.6689 Ry au,        -32.2011 Debye
        Dipole field         -0.0239 Ry au,

        Potential amp.        2.2162 Ry
        Total length         46.3494 bohr

     Starting wfcs are  305 atomic wfcs
  @ DRIVER MODE: Message from server: STATUS
  @ DRIVER MODE: Message from server: POSDATA
  @ DRIVER MODE: Reading and sharing cell
  @ DRIVER MODE: Reading and sharing positions
  @ DRIVER MODE: Received positions

     Self-consistent Calculation

     iteration #  1     ecut=    29.40 Ry     beta= 0.05
     Davidson diagonalization with overlap
     c_bands:  3 eigenvalues not converged
     c_bands:  2 eigenvalues not converged
     c_bands:  5 eigenvalues not converged
     c_bands:  1 eigenvalues not converged
     c_bands:  1 eigenvalues not converged
     c_bands:  4 eigenvalues not converged
     c_bands:  1 eigenvalues not converged
     c_bands:  2 eigenvalues not converged
     ethr =  1.00E-05,  avg # of iterations = 28.2

[...]

     total energy              =   -2337.53396511 Ry
     estimated scf accuracy    <    7211.49270087 Ry

     iteration #  2     ecut=    29.40 Ry     beta= 0.05
     Davidson diagonalization with overlap
     ethr =  1.00E-02,  avg # of iterations = 23.2

[...]

     iteration # 67     ecut=    29.40 Ry     beta= 0.05
     Davidson diagonalization with overlap
     ethr =  3.57E-11,  avg # of iterations =  4.1

[...]

     total energy              =   -2973.87557756 Ry
     estimated scf accuracy    <       0.00000008 Ry

     iteration # 68     ecut=    29.40 Ry     beta= 0.05
     Davidson diagonalization with overlap
     c_bands:  1 eigenvalues not converged
     ethr =  2.01E-11,  avg # of iterations = 13.9

     negative rho (up, down):  1.574E-02 0.000E+00

     Adding external electric field

     Computed dipole along edir(3) :
        Dipole                0.4331 Ry au,          1.1008 Debye
        Dipole field          0.0008 Ry au,

        Potential amp.       -0.0758 Ry
        Total length         46.3494 bohr

     End of self-consistent calculation

          k = 0.0000 0.0000 0.0000 ( 18029 PWs)   bands (ev):

   -55.9138 -55.8797 -55.8777 -55.8402 -55.7980 -55.7972 -55.7416 -55.7309
   -55.7032 -55.6969 -55.6964 -55.6629 -55.4766 -55.3830 -54.8964 -54.8623
   -32.4185 -32.3979 -32.2849 -32.2398 -32.2309 -32.2058 -32.1871 -32.1677
   -32.1583 -32.1159 -32.0669 -32.0661 -32.0520 -32.0410 -32.0310 -32.0305
   -32.0198 -32.0155 -32.0113 -32.0008 -31.9935 -31.9795 -31.9709 -31.9373
   -31.9283 -31.9250 -31.9232 -31.9179 -31.8946 -31.8939 -31.8856 -31.8737
   -31.8639 -31.8506 -31.8423 -31.8366 -31.8091 -31.7637 -31.7063 -31.6444
   -31.5968 -31.5263 -31.3035 -31.2150 -31.1926 -31.1204 -31.0339 -30.9227
   -18.8428 -17.1506 -16.6277 -16.3914 -16.1533 -16.0755 -16.0504 -15.8212
   -15.7259 -15.6707 -15.5727 -15.5117 -15.4831 -15.4537 -15.4305 -15.4071
   -15.3685 -15.3558 -15.3364 -15.3350 -15.3081 -15.2984 -15.2623 -15.2564
   -15.2075 -15.0858 -15.0524 -15.0467 -15.0150 -14.9792 -14.5338 -13.3983
   -13.2818 -12.7802  -7.1002  -6.5592  -5.4761  -4.0077  -3.8742  -3.8527
    -3.8226  -3.7566  -3.5914  -3.5767  -3.3779  -3.2292  -3.1746  -3.1006
    -3.0828  -3.0443  -3.0193  -2.9146  -2.8301  -2.7906  -2.7271  -2.7116
    -2.6860  -2.6783  -2.6492  -2.6207  -2.5396  -2.5189  -2.4767  -2.4452
    -2.3283  -2.3089  -2.2570  -2.2291  -2.2206  -2.1995  -2.1768  -2.1694
    -2.1537  -2.1427  -2.0831  -2.0485  -1.9722  -1.8998  -1.8353  -1.7079
    -1.5660  -1.5271  -1.5067  -1.4135  -1.3889  -1.3538  -1.3335  -1.3107
    -1.2892  -1.1719  -1.0927  -1.0280  -1.0221  -0.9519  -0.8592  -0.7984
    -0.7400  -0.6845  -0.6784  -0.6568  -0.6519  -0.6176  -0.5427  -0.4087
    -0.3702  -0.3304  -0.2959  -0.2083  -0.1991  -0.1549  -0.1227  -0.1021
    -0.0701   0.0081   0.0198   0.0506   0.0728   0.0935   0.1162   0.1749
     0.3041   0.3251   0.3432   0.4007   0.4393   0.5971   0.7367   0.7821
     0.8835   1.0553   1.1264   1.1753   1.2219   1.3180   1.6974   1.7432
     2.7487   3.2022   3.3059   3.3398   3.3472   3.4482   3.4740   3.6637
     3.7083   3.7451   3.7761

[...]

          k = 0.0380-0.0419 0.0000 ( 17876 PWs)   bands (ev):

[...]

          k =-0.0760-0.0000 0.0000 ( 17886 PWs)   bands (ev):

[...]

          k =-0.0760-0.0839 0.0000 ( 17948 PWs)   bands (ev):

   -55.8971 -55.8962 -55.8645 -55.8531 -55.7947 -55.7913 -55.7474 -55.7156
   -55.7116 -55.7063 -55.6801 -55.6796 -55.4740 -55.3855 -54.8794 -54.8792
   -32.2350 -32.2134 -32.2129 -32.2129 -32.1915 -32.1909 -32.1334 -32.1254
   -32.1050 -32.0981 -32.0946 -32.0426 -32.0421 -32.0336 -32.0304 -32.0293
   -32.0238 -32.0201 -32.0180 -32.0165 -32.0153 -32.0122 -32.0000 -31.9975
   -31.9806 -31.9589 -31.9577 -31.9181 -31.9162 -31.9089 -31.9079 -31.9057
   -31.8986 -31.8960 -31.8954 -31.8896 -31.8868 -31.7804 -31.7044 -31.6505
   -31.6005 -31.5928 -31.2053 -31.2052 -31.1163 -31.1161 -31.0772 -31.0771
   -18.8405 -17.1416 -16.0543 -15.9695 -15.9313 -15.8425 -15.7959 -15.7626
   -15.7027 -15.6299 -15.5915 -15.5866 -15.5603 -15.5013 -15.4867 -15.4596
   -15.4416 -15.4301 -15.4249 -15.3740 -15.3678 -15.3584 -15.3535 -15.3400
   -15.3381 -15.3123 -15.2380 -15.2351 -15.1127 -14.8991 -14.8750 -13.3836
   -13.3834 -12.7963  -7.0609  -6.5493  -5.4136  -3.6402  -3.3750  -3.3342
    -3.2308  -3.1175  -3.0195  -3.0117  -2.9765  -2.9281  -2.8601  -2.8363
    -2.7796  -2.7514  -2.7458  -2.7298  -2.7254  -2.7131  -2.6811  -2.6585
    -2.6018  -2.5971  -2.5906  -2.5817  -2.5695  -2.5612  -2.5398  -2.5340
    -2.5064  -2.4819  -2.4429  -2.4087  -2.3275  -2.2494  -2.1732  -2.1168
    -2.0877  -2.0640  -2.0580  -2.0098  -1.9932  -1.9821  -1.9647  -1.8999
    -1.7983  -1.6766  -1.6223  -1.6018  -1.5514  -1.5156  -1.4931  -1.3843
    -1.3359  -1.3224  -1.2196  -1.1978  -1.1707  -1.1192  -1.0551  -1.0399
    -0.9984  -0.9543  -0.9122  -0.8724  -0.8672  -0.8160  -0.7702  -0.7426
    -0.6630  -0.6529  -0.6082  -0.5988  -0.5862  -0.5480  -0.4978  -0.4199
    -0.3243  -0.2785  -0.2270  -0.0729   0.0004   0.1349   0.1870   0.2532
     0.2693   0.3703   0.3965   0.3987   0.4819   0.5263   0.5814   0.6135
     0.6179   0.6305   0.7956   1.1274   1.4899   1.4910   1.5629   1.5634
     2.7053   3.5355   3.5929   3.6066   3.6322   3.7184   3.7423   3.7524
     3.7542   3.8735   3.8893

     the Fermi energy is     3.2148 ev

!    total energy              =   -2973.87560430 Ry
     estimated scf accuracy    <       0.00000006 Ry
     smearing contrib. (-TS)   =      -0.02172427 Ry
     internal energy E=F+TS    =   -2973.85388003 Ry

     The total energy is F=E-TS. E is the sum of the following terms:
     one-electron contribution =  -24182.91275900 Ry
     hartree contribution      =   12182.93985224 Ry
     xc contribution           =    -493.98939412 Ry
     ewald contribution        =    9520.10806692 Ry
     electric field correction =       0.00035394 Ry

     convergence has been achieved in  68 iterations

     Forces acting on atoms (cartesian axes, Ry/au):

     atom    1 type  1   force =     0.00015983   -0.00030929    0.09559200
     atom    2 type  1   force =     0.00004473   -0.00045715   -0.17579831
     atom    3 type  2   force =     0.00023116    0.00002062   -0.02350103
     atom    4 type  2   force =     0.00008452   -0.00152728    0.05313608
     atom    5 type  2   force =    -0.01025377   -0.00136817    0.00262199
     atom    6 type  2   force =     0.01292391   -0.00101713    0.00440259
     atom    7 type  1   force =     0.00139846    0.00128696   -0.00565416
     atom    8 type  1   force =    -0.00059818    0.01375043    0.01967515
     atom    9 type  2   force =     0.00024327   -0.00056682    0.00101579
     atom   10 type  2   force =    -0.00153518   -0.00072091   -0.01582544
     atom   11 type  2   force =    -0.00104985    0.00026324   -0.00023935
     atom   12 type  2   force =     0.00040941    0.00000170    0.00011624
     atom   13 type  1   force =     0.00055869    0.00083004    0.00039971
     atom   14 type  1   force =    -0.00022379   -0.00006794    0.00050937
     atom   15 type  2   force =    -0.00031001    0.00012288   -0.00050795
     atom   16 type  2   force =     0.00000660   -0.00084651   -0.00050393
     atom   17 type  2   force =    -0.00047773   -0.00020763   -0.00029899
     atom   18 type  2   force =    -0.00012491   -0.00029703   -0.00050327
     atom   19 type  1   force =     0.00068154   -0.00036688   -0.00061056
     atom   20 type  1   force =    -0.00071617   -0.00075887    0.00001404
     atom   21 type  2   force =     0.00007341    0.00001876    0.10319109
     atom   22 type  2   force =    -0.00011077    0.00128806    0.00016699
     atom   23 type  2   force =    -0.07147582   -0.00007744   -0.02757356
     atom   24 type  2   force =     0.07144261    0.00038054   -0.02762667
     atom   25 type  1   force =     0.00009304   -0.00026191    0.09540302
     atom   26 type  1   force =     0.00004072   -0.00022159   -0.17585909
     atom   27 type  2   force =     0.00024769   -0.00036599   -0.02225585
     atom   28 type  2   force =     0.00008206   -0.00122028    0.05318757
     atom   29 type  2   force =    -0.01029613    0.00029982    0.00173123
     atom   30 type  2   force =     0.01288629    0.00085859    0.00359177
     atom   31 type  1   force =     0.00161535    0.00306443   -0.01050727
     atom   32 type  1   force =    -0.00067380   -0.01565724    0.01965741
     atom   33 type  2   force =     0.00053657    0.00065003    0.00016559
     atom   34 type  2   force =    -0.00085207    0.00099564   -0.01352250
     atom   35 type  2   force =     0.00110995    0.00005408   -0.00045944
     atom   36 type  2   force =    -0.00118838    0.00014528   -0.00021914
     atom   37 type  1   force =    -0.00031506   -0.00044942    0.00015109
     atom   38 type  1   force =    -0.00092534    0.00036625   -0.00034630
     atom   39 type  2   force =    -0.00046941   -0.00055637   -0.00003789
     atom   40 type  2   force =     0.00010073    0.00094831    0.00006204
     atom   41 type  2   force =    -0.00127045    0.00049644    0.00043438
     atom   42 type  2   force =     0.00113237   -0.00018965    0.00033211
     atom   43 type  1   force =    -0.00018922    0.00070481   -0.00010625
     atom   44 type  1   force =    -0.00043421    0.00022593   -0.00108562
     atom   45 type  2   force =     0.00007304    0.00001103    0.10319222
     atom   46 type  2   force =    -0.07147049   -0.00004019   -0.02756973
     atom   47 type  2   force =     0.07143840    0.00038309   -0.02760807
     atom   48 type  3   force =     0.00581935    0.00406862    0.00689424
     atom   49 type  4   force =    -0.00185238   -0.00406740   -0.01048260
     atom   50 type  5   force =    -0.00458089    0.00037039    0.00387964
     atom   51 type  3   force =     0.00037728   -0.00028568   -0.00232205
     atom   52 type  5   force =    -0.00019560   -0.00020348    0.00084398
     atom   53 type  5   force =    -0.00085719   -0.00099296    0.00152994
     atom   54 type  2   force =    -0.00099541   -0.00033741    0.00094719
     atom   55 type  5   force =    -0.00079081    0.00140329   -0.00071747
     atom   56 type  5   force =     0.00042209    0.00042934   -0.00110198

     Total force =     0.366389     Total SCF correction =     0.000589
  @ DRIVER MODE: Message from server: STATUS
  @ DRIVER MODE: Message from server: GETFORCE
  @ DRIVER MODE: Returning v,forces,stress,ensemble

     Writing output data file ./calc.save/
  @ DRIVER MODE: Message from server: EXIT
  @ DRIVE MODE: Exiting

     General routines

     Parallel routines

   This run was terminated on:  19:59:17  15Sep2021

   JOB DONE.