     Program PWSCF v.6.7GPU starts on 15Sep2021 at 21:18:29

     R & G space division:  proc/nbgrp/npool/nimage =      10
     Reading input from /storage/home/hcoda1/3/ntian30/research/carbon/CxH_vib/H2O_calc/ads_slab/CH3OHH2O_e/out_0018/pw.inp
Warning: card &CELL ignored
Warning: card   CELL_DYNAMICS='IPI', ignored
Warning: card / ignored

     Current dimensions of program PWSCF are:
     Max number of different atomic species (ntypx) = 10
     Max number of k-points (npk) =  40000
     Max angular momentum in pseudopotentials (lmaxx) =  3
     Presently no symmetry can be used with electric field

     Message from routine cell_base_init:
     DEPRECATED: use true lattice parameter, not A to a.u. conversion factor

     IMPORTANT: XC functional enforced from input :
     Exchange-correlation= BEEF-VDW
                           (   1   4  43  14   2   0   0)
     Any further DFT definition will be discarded
     Please, verify this is what you really want

  @ DRIVER MODE: Connecting to
 qe_1139763_2852623.sched-torque.pace.gatech.eduzvtwjffj_scratch
  using UNIX socket
  @ DRIVER MODE: Message from server: STATUS
  @ DRIVER MODE: Message from server: INIT
  @ DRIVER MODE: Receiving replica           0          -1
  @ DRIVER MODE: Receiving encoded integer          25
  @ DRIVER MODE:  SCF:  T  FORCE:  T  STRESS:  F  VC:  F  ENSEMBLE:  F
  @ DRIVER MODE:  SCF:  T  FORCE:  T  STRESS:  F  VC:  F  ENSEMBLE:  F

     Using Slab Decomposition

     bravais-lattice index     =            0
     lattice parameter (alat)  =       1.8897  a.u.
     unit-cell volume          =    6658.9804 (a.u.)^3
     number of atoms/cell      =           56
     number of atomic types    =            4
     number of electrons       =       400.00
     number of Kohn-Sham states=          210
     kinetic-energy cutoff     =      29.3995  Ry
     charge density cutoff     =     293.9946  Ry
     scf convergence threshold =      7.3E-08
     mixing beta               =       0.0500
     number of iterations used =            8  plain     mixing
     Exchange-correlation= BEEF-VDW
                           (   1   4  43  14   2   0   0)

     celldm(1)=   1.889726  celldm(2)=   0.000000  celldm(3)=   0.000000
     celldm(4)=   0.000000  celldm(5)=   0.000000  celldm(6)=   0.000000

     crystal axes: (cart. coord. in units of alat)
               a(1) = (   6.579727   0.000000   0.000000 )
               a(2) = (  -0.000775   5.961596   0.000000 )
               a(3) = (   0.000000   0.000000  25.155947 )

     reciprocal axes: (cart. coord. in units 2 pi/alat)
               b(1) = (  0.151982  0.000020  0.000000 )
               b(2) = (  0.000000  0.167740  0.000000 )
               b(3) = (  0.000000  0.000000  0.039752 )

     PseudoPot. # 1 for Ti read from file:
     /storage/coda1/p-amedford6/0/shared/rich_project_chbe-medford/medford-share/data/pseudos_module/espresso/nninc/pbe/van/Ti.UPF
     MD5 check sum: 8e4df49b7f0d34bbd5052bf3f5ea0213
     Pseudo is Ultrasoft, Zval = 12.0
     Generated by new atomic code, or converted to UPF format
     Using radial grid of  851 points,  6 beta functions with:
                l(1) =   0
                l(2) =   0
                l(3) =   1
                l(4) =   1
                l(5) =   2
                l(6) =   2
     Q(r) pseudized with  8 coefficients,  rinner =    1.000   1.000   1.000
                                                       1.000   1.000

     PseudoPot. # 2 for O  read from file:
     /storage/coda1/p-amedford6/0/shared/rich_project_chbe-medford/medford-share/data/pseudos_module/espresso/nninc/pbe/van/O.UPF
     MD5 check sum: 78c19812648e8988a0fe644b0f25305e
     Pseudo is Ultrasoft, Zval =  6.0
     Generated by new atomic code, or converted to UPF format
     Using radial grid of  737 points,  4 beta functions with:
                l(1) =   0
                l(2) =   0
                l(3) =   1
                l(4) =   1
     Q(r) pseudized with  8 coefficients,  rinner =    0.800   0.800   0.800

     PseudoPot. # 3 for C  read from file:
     /storage/coda1/p-amedford6/0/shared/rich_project_chbe-medford/medford-share/data/pseudos_module/espresso/nninc/pbe/van/C.UPF
     MD5 check sum: 1a69bf6b8db32088f5b2163dbdb77a27
     Pseudo is Ultrasoft, Zval =  4.0
     Generated by new atomic code, or converted to UPF format
     Using radial grid of  721 points,  4 beta functions with:
                l(1) =   0
                l(2) =   0
                l(3) =   1
                l(4) =   1
     Q(r) pseudized with  8 coefficients,  rinner =    0.800   0.800   0.800

     PseudoPot. # 4 for H  read from file:
     /storage/coda1/p-amedford6/0/shared/rich_project_chbe-medford/medford-share/data/pseudos_module/espresso/nninc/pbe/van/H.UPF
     MD5 check sum: b5ee9d7bfd3a09ee7748110bda690ff7
     Pseudo is Ultrasoft, Zval =  1.0
     Generated by new atomic code, or converted to UPF format
     Using radial grid of  615 points,  1 beta functions with:
                l(1) =   0
     Q(r) pseudized with  8 coefficients,  rinner =    0.800

     atomic species   valence    mass     pseudopotential
        Ti1           12.00    47.86700     Ti( 1.00)
        O1             6.00    15.99900     O ( 1.00)
        C1             4.00    12.01100     C ( 1.00)
        H1             1.00     1.00800     H ( 1.00)

     No symmetry found

   Cartesian axes

     site n.     atom                  positions (alat units)
         1           Ti1 tau(   1) = (   0.0004258   2.9801865   6.0000000  )
         2           Ti1 tau(   2) = (   3.2906075   1.4906267   6.0002472  )
         3           O1  tau(   3) = (   0.0006271   0.0005054   7.9858123  )
         4           O1  tau(   4) = (   3.2906025   0.0005020   7.3038282  )
         5           O1  tau(   5) = (   4.5942328   1.4918067   9.2879030  )
         6           O1  tau(   6) = (   1.9868534   1.4903216   9.2879459  )
         7           Ti1 tau(   7) = (   3.3179988   2.9667087   9.1587561  )
         8           Ti1 tau(   8) = (   0.0368451   1.4888401   9.2646154  )
         9           O1  tau(   9) = (   3.2981896   5.9413050  11.3756853  )
        10           O1  tau(  10) = (   0.0022081   5.9550161  10.6068466  )
        11           O1  tau(  11) = (   1.2930414   1.4711740  12.6526869  )
        12           O1  tau(  12) = (   5.2963464   1.4745835  12.6500758  )
        13           Ti1 tau(  13) = (   0.0229324   2.9590759  12.5385950  )
        14           Ti1 tau(  14) = (   3.3157970   1.4644123  12.5194148  )
        15           O1  tau(  15) = (   6.5691168   5.9481840  14.6869282  )
        16           O1  tau(  16) = (   3.2964787   5.9455965  14.0277316  )
        17           O1  tau(  17) = (   4.5665908   1.5027878  16.2081754  )
        18           O1  tau(  18) = (   2.0283028   1.5092035  16.1774433  )
        19           Ti1 tau(  19) = (   3.2999954   2.9453206  15.7178785  )
        20           Ti1 tau(  20) = (   6.5724188   1.3235339  15.9896992  )
        21           O1  tau(  21) = (   3.2904802   0.0005063   4.7018136  )
        22           O1  tau(  22) = (   0.0286320   5.9425150  17.2304330  )
        23           O1  tau(  23) = (   1.3043587   1.4918075   6.0039043  )
        24           O1  tau(  24) = (   5.2767064   1.4903225   6.0039473  )
        25           Ti1 tau(  25) = (   0.0000382   5.9609847   6.0000000  )
        26           Ti1 tau(  26) = (   3.2902200   4.4714249   6.0002472  )
        27           O1  tau(  27) = (   0.0002396   2.9813036   7.9858123  )
        28           O1  tau(  28) = (   3.2902150   2.9813002   7.3038282  )
        29           O1  tau(  29) = (   4.5938453   4.4726049   9.2879030  )
        30           O1  tau(  30) = (   1.9864658   4.4711199   9.2879459  )
        31           Ti1 tau(  31) = (   3.3176359   5.9492212   9.1540102  )
        32           Ti1 tau(  32) = (   0.0367062   4.4560090   9.2708352  )
        33           O1  tau(  33) = (   3.2951800   2.9650663  11.3684769  )
        34           O1  tau(  34) = (   0.0080098   2.9764013  10.6279654  )
        35           O1  tau(  35) = (   1.2931912   4.4560454  12.6592269  )
        36           O1  tau(  36) = (   5.2946864   4.4524020  12.6579832  )
        37           Ti1 tau(  37) = (   0.0159028   5.9413441  12.4831893  )
        38           Ti1 tau(  38) = (   3.3151975   4.4500431  12.5204281  )
        39           O1  tau(  39) = (   0.0034497   2.9621527  14.8596962  )
        40           O1  tau(  40) = (   3.2989893   2.9535984  13.9376031  )
        41           O1  tau(  41) = (   4.5724332   4.4114593  16.1445292  )
        42           O1  tau(  42) = (   2.0255208   4.3883007  16.1585022  )
        43           Ti1 tau(  43) = (   3.2821299   5.9114753  15.8432964  )
        44           Ti1 tau(  44) = (   6.5414858   4.5242847  15.8739915  )
        45           O1  tau(  45) = (   3.2900926   2.9813045   4.7018136  )
        46           O1  tau(  46) = (   1.3039711   4.4726057   6.0039043  )
        47           O1  tau(  47) = (   5.2763189   4.4711207   6.0039473  )
        48           C1  tau(  48) = (   5.9754720   3.1749164  18.9278073  )
        49           O1  tau(  49) = (   0.1533887   3.0270296  17.7012840  )
        50           H1  tau(  50) = (   4.9293134   3.0706859  18.6684277  )
        51           H1  tau(  51) = (   1.0910173   3.2466920  17.8500278  )
        52           H1  tau(  52) = (   6.2690755   2.3937635  19.6305738  )
        53           H1  tau(  53) = (   6.1431946   4.1694627  19.3379575  )
        54           O1  tau(  54) = (   3.1723115   5.9428592  18.3689464  )
        55           H1  tau(  55) = (   3.8852673   0.6353712  18.4582360  )
        56           H1  tau(  56) = (   2.3406934   0.4831942  18.3201771  )

     number of k points=    10  Fermi-Dirac smearing, width (Ry)=  0.0073
                       cart. coord. in units 2pi/alat
        k(    1) = (   0.0000000   0.0000000   0.0000000), wk =   0.1250000
        k(    2) = (   0.0000000   0.0419351   0.0000000), wk =   0.2500000
        k(    3) = (   0.0000000  -0.0838702   0.0000000), wk =   0.1250000
        k(    4) = (   0.0379955   0.0000049   0.0000000), wk =   0.2500000
        k(    5) = (   0.0379955   0.0419400   0.0000000), wk =   0.2500000
        k(    6) = (   0.0379955  -0.0838652   0.0000000), wk =   0.2500000
        k(    7) = (   0.0379955  -0.0419301   0.0000000), wk =   0.2500000
        k(    8) = (  -0.0759910  -0.0000099   0.0000000), wk =   0.1250000
        k(    9) = (  -0.0759910   0.0419252   0.0000000), wk =   0.2500000
        k(   10) = (  -0.0759910  -0.0838800   0.0000000), wk =   0.1250000

     Initial potential from superposition of free atoms

     starting charge  383.99915, renormalised to  400.00000

     negative rho (up, down):  1.599E-02 0.000E+00

     %%%%%%%%%%%%%%%%%%%%%%%%%%%%%%%%%%%%%%%%%%%%%%%%%%%%%%%%%%%%%%%%%%%%%%%%
     %                                                                      %
     % You are using vdW-DF, which was implemented by the Thonhauser group. %
     % Please cite the following two papers that made this development      %
     % possible and the two reviews that describe the various versions:     %
     %                                                                      %
     %   T. Thonhauser et al., PRL 115, 136402 (2015).                      %
     %   T. Thonhauser et al., PRB 76, 125112 (2007).                       %
     %   K. Berland et al., Rep. Prog. Phys. 78, 066501 (2015).             %
     %   D.C. Langreth et al., J. Phys.: Condens. Matter 21, 084203 (2009). %
     %                                                                      %
     %                                                                      %
     % If you are calculating the stress with vdW-DF, please also cite:     %
     %                                                                      %
     %   R. Sabatini et al., J. Phys.: Condens. Matter 24, 424209 (2012).   %
     %                                                                      %
     %%%%%%%%%%%%%%%%%%%%%%%%%%%%%%%%%%%%%%%%%%%%%%%%%%%%%%%%%%%%%%%%%%%%%%%%

     Adding external electric field

     Computed dipole along edir(3) :
        Dipole              -11.7408 Ry au,        -29.8422 Debye
        Dipole field         -0.0222 Ry au,

        Potential amp.        2.0539 Ry
        Total length         46.3494 bohr

     Starting wfcs are  302 atomic wfcs
  @ DRIVER MODE: Message from server: STATUS
  @ DRIVER MODE: Message from server: POSDATA
  @ DRIVER MODE: Reading and sharing cell
  @ DRIVER MODE: Reading and sharing positions
  @ DRIVER MODE: Received positions

     Self-consistent Calculation

     iteration #  1     ecut=    29.40 Ry     beta= 0.05
     Davidson diagonalization with overlap
     c_bands:  2 eigenvalues not converged
     c_bands:  2 eigenvalues not converged
     c_bands:  4 eigenvalues not converged
     c_bands:  3 eigenvalues not converged
     c_bands:  4 eigenvalues not converged
     c_bands:  4 eigenvalues not converged
     c_bands:  3 eigenvalues not converged
     c_bands:  2 eigenvalues not converged
     ethr =  1.00E-05,  avg # of iterations = 21.3

[...]

     total energy              =   -2420.21946846 Ry
     estimated scf accuracy    <    6189.17445724 Ry

     iteration #  2     ecut=    29.40 Ry     beta= 0.05
     Davidson diagonalization with overlap
     ethr =  1.00E-02,  avg # of iterations = 28.9

[...]

     iteration # 74     ecut=    29.40 Ry     beta= 0.05
     Davidson diagonalization with overlap
     c_bands:  1 eigenvalues not converged
     c_bands:  1 eigenvalues not converged
     ethr =  7.28E-11,  avg # of iterations = 11.6

[...]

     total energy              =   -2967.47597566 Ry
     estimated scf accuracy    <       0.00000010 Ry

     iteration # 81     ecut=    29.40 Ry     beta= 0.05
     Davidson diagonalization with overlap
     ethr =  2.49E-11,  avg # of iterations =  8.6

     negative rho (up, down):  1.587E-02 0.000E+00

     Adding external electric field

     Computed dipole along edir(3) :
        Dipole                1.3790 Ry au,          3.5051 Debye
        Dipole field          0.0026 Ry au,

        Potential amp.       -0.2412 Ry
        Total length         46.3494 bohr

     End of self-consistent calculation

          k = 0.0000 0.0000 0.0000 ( 18029 PWs)   bands (ev):

   -55.2501 -55.2227 -55.2140 -55.1883 -55.1565 -55.1486 -55.1431 -55.0962
   -55.0959 -55.0896 -55.0554 -55.0376 -55.0078 -55.0036 -54.3117 -54.2776
   -31.8167 -31.7664 -31.7178 -31.6275 -31.5651 -31.5549 -31.5502 -31.5477
   -31.5114 -31.4819 -31.4657 -31.4634 -31.4524 -31.4424 -31.4282 -31.4138
   -31.3965 -31.3905 -31.3871 -31.3828 -31.3768 -31.3678 -31.3450 -31.3404
   -31.3387 -31.3186 -31.3159 -31.3141 -31.2933 -31.2799 -31.2640 -31.2434
   -31.2420 -31.2413 -31.2300 -31.2208 -31.2026 -31.1890 -31.1770 -31.1725
   -31.1594 -31.1488 -30.7238 -30.6213 -30.5997 -30.5400 -30.4536 -30.3426
   -20.1708 -19.0864 -16.0796 -15.8325 -15.6926 -15.5942 -15.4733 -15.3398
   -15.2796 -15.1648 -15.0738 -14.9833 -14.9688 -14.9505 -14.9211 -14.8982
   -14.8735 -14.8353 -14.8091 -14.7653 -14.7565 -14.7401 -14.7333 -14.6966
   -14.6933 -14.6485 -14.6401 -14.4831 -14.4129 -14.3528 -14.1308 -12.8127
   -12.6933 -11.1953  -6.9277  -6.8534  -5.1499  -5.0176  -3.4192  -3.2626
    -3.2272  -3.2020  -3.1831  -3.1436  -3.0581  -2.9604  -2.7891  -2.6791
    -2.5415  -2.5345  -2.4881  -2.4611  -2.4040  -2.3221  -2.2338  -2.2072
    -2.1721  -2.1390  -2.1357  -2.1198  -2.1095  -2.0536  -2.0180  -1.9600
    -1.8638  -1.8140  -1.7736  -1.7555  -1.6951  -1.6512  -1.6171  -1.5889
    -1.5822  -1.5758  -1.5173  -1.5152  -1.5072  -1.4958  -1.4779  -1.2895
    -1.2498  -1.1171  -1.0261  -0.9860  -0.9719  -0.8177  -0.8108  -0.7666
    -0.7334  -0.6991  -0.6585  -0.6009  -0.5035  -0.4731  -0.4214  -0.3832
    -0.2751  -0.2430  -0.2121  -0.1574  -0.0500  -0.0417  -0.0159   0.0033
     0.0775   0.1732   0.2026   0.2237   0.3006   0.3058   0.3670   0.4077
     0.4415   0.5163   0.5615   0.5728   0.6645   0.6813   0.6950   0.7215
     0.7250   0.8235   0.8596   0.9042   0.9227   1.0742   1.1687   1.3081
     1.3368   1.6033   1.6987   1.7140   1.8744   2.2999   2.3547   3.8410
     3.9094   3.9477   3.9555   3.9688   4.0484   4.3321   4.3473   4.3593
     4.3689   4.3870

[...]

          k = 0.0380-0.0419 0.0000 ( 17876 PWs)   bands (ev):

[...]

          k =-0.0760-0.0000 0.0000 ( 17886 PWs)   bands (ev):

[...]

          k =-0.0760-0.0839 0.0000 ( 17948 PWs)   bands (ev):

   -55.2330 -55.2309 -55.2075 -55.2034 -55.1534 -55.1427 -55.1358 -55.1036
   -55.1026 -55.0737 -55.0710 -55.0225 -55.0189 -55.0097 -54.2946 -54.2945
   -31.6833 -31.6238 -31.6168 -31.5347 -31.5308 -31.5170 -31.5054 -31.5005
   -31.4929 -31.4723 -31.4540 -31.4485 -31.4444 -31.4309 -31.4051 -31.4028
   -31.3911 -31.3886 -31.3815 -31.3806 -31.3771 -31.3738 -31.3611 -31.3472
   -31.3393 -31.3341 -31.3335 -31.3273 -31.3240 -31.3239 -31.3233 -31.3051
   -31.2979 -31.2951 -31.2767 -31.2722 -31.2715 -31.2475 -31.2437 -31.2087
   -31.2044 -31.1914 -30.6122 -30.6122 -30.5365 -30.5363 -30.4969 -30.4968
   -20.1674 -19.0857 -15.6380 -15.5392 -15.3889 -15.2657 -15.2534 -15.2407
   -15.1886 -15.1240 -15.1106 -15.0602 -15.0476 -15.0167 -15.0008 -14.9948
   -14.9588 -14.8504 -14.8463 -14.8360 -14.8153 -14.7703 -14.7593 -14.7522
   -14.7399 -14.7039 -14.6954 -14.6811 -14.6707 -14.5791 -14.4401 -12.7946
   -12.7939 -11.1971  -6.9239  -6.8537  -5.1511  -4.9966  -3.1821  -2.9852
    -2.8073  -2.7285  -2.6309  -2.4836  -2.4689  -2.3878  -2.3759  -2.3255
    -2.2546  -2.2516  -2.2480  -2.1667  -2.1545  -2.1544  -2.1332  -2.1137
    -2.0733  -2.0647  -2.0411  -2.0307  -1.9893  -1.9587  -1.9456  -1.9284
    -1.9181  -1.9142  -1.8832  -1.8685  -1.8531  -1.8113  -1.7885  -1.7283
    -1.6412  -1.6032  -1.4804  -1.4778  -1.4415  -1.4132  -1.3873  -1.3469
    -1.3269  -1.2790  -1.2595  -1.2333  -1.0498  -1.0338  -0.9794  -0.9394
    -0.9197  -0.9063  -0.8443  -0.7724  -0.7456  -0.7142  -0.6482  -0.5753
    -0.4793  -0.4550  -0.4465  -0.3408  -0.2884  -0.2488  -0.2445  -0.2351
    -0.2111  -0.1627  -0.1430  -0.0810  -0.0420   0.0016   0.0271   0.0440
     0.2250   0.2635   0.3219   0.4131   0.4420   0.5871   0.6357   0.6874
     0.7480   0.8244   0.8354   0.9014   1.0157   1.0279   1.0578   1.1348
     1.1782   1.1839   1.2090   2.0653   2.0674   2.1689   2.1720   3.9708
     4.0783   4.0969   4.1758   4.2421   4.3502   4.3633   4.3925   4.4029
     4.4478   4.4798

     the Fermi energy is     3.8974 ev

!    total energy              =   -2967.47598999 Ry
     estimated scf accuracy    <       0.00000006 Ry
     smearing contrib. (-TS)   =      -0.03654016 Ry
     internal energy E=F+TS    =   -2967.43944984 Ry

     The total energy is F=E-TS. E is the sum of the following terms:
     one-electron contribution =  -23962.33300013 Ry
     hartree contribution      =   12076.76777499 Ry
     xc contribution           =    -491.86097558 Ry
     ewald contribution        =    9409.98316217 Ry
     electric field correction =       0.00358871 Ry

     convergence has been achieved in  81 iterations

     Forces acting on atoms (cartesian axes, Ry/au):

     atom    1 type  1   force =    -0.00026919    0.00019832    0.09242001
     atom    2 type  1   force =    -0.00035716    0.00104908   -0.18341137
     atom    3 type  2   force =     0.00050677   -0.00072112   -0.02349060
     atom    4 type  2   force =     0.00072367   -0.00018718    0.05069543
     atom    5 type  2   force =    -0.01403998   -0.00131281    0.00495316
     atom    6 type  2   force =     0.01520949   -0.00064847    0.00509508
     atom    7 type  1   force =    -0.00048361    0.00105976   -0.00012492
     atom    8 type  1   force =     0.00016039   -0.00053781    0.00040167
     atom    9 type  2   force =    -0.00044029    0.00016992    0.00040101
     atom   10 type  2   force =     0.00040974    0.00016390    0.00048390
     atom   11 type  2   force =     0.00036832    0.00043516    0.00035219
     atom   12 type  2   force =     0.00005045    0.00013616    0.00028090
     atom   13 type  1   force =    -0.00088206   -0.00118903   -0.00010097
     atom   14 type  1   force =     0.00059657   -0.00004751    0.00021777
     atom   15 type  2   force =     0.00051790    0.00075640    0.00007091
     atom   16 type  2   force =    -0.00061687   -0.00037093    0.00006224
     atom   17 type  2   force =     0.00005453    0.00019409   -0.00038381
     atom   18 type  2   force =    -0.00016979    0.00029574   -0.00013458
     atom   19 type  1   force =     0.00070261   -0.00005259   -0.00028297
     atom   20 type  1   force =    -0.00007105    0.00017455   -0.00016735
     atom   21 type  2   force =    -0.00004244    0.00015824    0.10496514
     atom   22 type  2   force =    -0.00034215    0.00057986   -0.00089488
     atom   23 type  2   force =    -0.06797494    0.00012264   -0.02679448
     atom   24 type  2   force =     0.06769352    0.00052230   -0.02685944
     atom   25 type  1   force =    -0.00038800   -0.00009050    0.09621058
     atom   26 type  1   force =    -0.00035942   -0.00099990   -0.18320742
     atom   27 type  2   force =     0.00041753   -0.00125394   -0.02225599
     atom   28 type  2   force =     0.00070337   -0.00033205    0.05101569
     atom   29 type  2   force =    -0.01422935   -0.00106559    0.00466078
     atom   30 type  2   force =     0.01518051    0.00021138    0.00484545
     atom   31 type  1   force =    -0.00049934   -0.00145831    0.00016880
     atom   32 type  1   force =     0.00012821    0.00071618   -0.00026559
     atom   33 type  2   force =     0.00002176   -0.00020331    0.00006499
     atom   34 type  2   force =     0.00002497   -0.00006729   -0.00007437
     atom   35 type  2   force =     0.00022634    0.00008663    0.00031838
     atom   36 type  2   force =     0.00038453    0.00045393    0.00006433
     atom   37 type  1   force =    -0.00106697    0.00125379   -0.00005221
     atom   38 type  1   force =     0.00038313    0.00011008   -0.00043466
     atom   39 type  2   force =     0.00039546    0.00022060   -0.00034035
     atom   40 type  2   force =    -0.00008245    0.00019855    0.00006519
     atom   41 type  2   force =    -0.00021030    0.00021175   -0.00051034
     atom   42 type  2   force =     0.00008885   -0.00003572    0.00023400
     atom   43 type  1   force =    -0.00055379    0.00012671    0.00019085
     atom   44 type  1   force =    -0.00008247    0.00003921   -0.00088528
     atom   45 type  2   force =    -0.00005632    0.00015229    0.10490110
     atom   46 type  2   force =    -0.06801704   -0.00038081   -0.02679785
     atom   47 type  2   force =     0.06774154    0.00006276   -0.02688375
     atom   48 type  3   force =     0.00309028    0.00082414    0.00228633
     atom   49 type  2   force =    -0.00261521    0.00018397    0.00087740
     atom   50 type  4   force =    -0.00211839    0.00025213   -0.00277539
     atom   51 type  4   force =     0.00062907    0.00091987    0.00015220
     atom   52 type  4   force =     0.00024922    0.00074170   -0.00011198
     atom   53 type  4   force =     0.00020728   -0.00026898    0.00017248
     atom   54 type  2   force =     0.00087166   -0.00019728    0.00106340
     atom   55 type  4   force =    -0.00083858   -0.00038192   -0.00060816
     atom   56 type  4   force =    -0.00093047   -0.00097874    0.00015736

     Total force =     0.368199     Total SCF correction =     0.000658
  @ DRIVER MODE: Message from server: STATUS
  @ DRIVER MODE: Message from server: GETFORCE
  @ DRIVER MODE: Returning v,forces,stress,ensemble

     Writing output data file ./calc.save/
  @ DRIVER MODE: Message from server: EXIT
  @ DRIVE MODE: Exiting

     General routines

     Parallel routines

   This run was terminated on:  21:40:36  15Sep2021

   JOB DONE.