     Program PWSCF v.6.7GPU starts on 15Sep2021 at 20:29:57

     R & G space division:  proc/nbgrp/npool/nimage =      10
     Reading input from /storage/home/hcoda1/3/ntian30/research/carbon/CxH_vib/H2O_calc/ads_slab/CHN2HH2O_a/out_0016/pw.inp
Warning: card &CELL ignored
Warning: card   CELL_DYNAMICS='IPI', ignored
Warning: card / ignored

     Current dimensions of program PWSCF are:
     Max number of different atomic species (ntypx) = 10
     Max number of k-points (npk) =  40000
     Max angular momentum in pseudopotentials (lmaxx) =  3
     Presently no symmetry can be used with electric field

     Message from routine cell_base_init:
     DEPRECATED: use true lattice parameter, not A to a.u. conversion factor

     IMPORTANT: XC functional enforced from input :
     Exchange-correlation= BEEF-VDW
                           (   1   4  43  14   2   0   0)
     Any further DFT definition will be discarded
     Please, verify this is what you really want

  @ DRIVER MODE: Connecting to
 qe_1139763_2852626.sched-torque.pace.gatech.edu4nhvrgcq_scratch
  using UNIX socket
  @ DRIVER MODE: Message from server: STATUS
  @ DRIVER MODE: Message from server: INIT
  @ DRIVER MODE: Receiving replica           0          -1
  @ DRIVER MODE: Receiving encoded integer          25
  @ DRIVER MODE:  SCF:  T  FORCE:  T  STRESS:  F  VC:  F  ENSEMBLE:  F
  @ DRIVER MODE:  SCF:  T  FORCE:  T  STRESS:  F  VC:  F  ENSEMBLE:  F

     Using Slab Decomposition

     bravais-lattice index     =            0
     lattice parameter (alat)  =       1.8897  a.u.
     unit-cell volume          =    6658.9804 (a.u.)^3
     number of atoms/cell      =           55
     number of atomic types    =            5
     number of electrons       =       402.00
     number of Kohn-Sham states=          211
     kinetic-energy cutoff     =      29.3995  Ry
     charge density cutoff     =     293.9946  Ry
     scf convergence threshold =      7.3E-08
     mixing beta               =       0.0500
     number of iterations used =            8  plain     mixing
     Exchange-correlation= BEEF-VDW
                           (   1   4  43  14   2   0   0)

     celldm(1)=   1.889726  celldm(2)=   0.000000  celldm(3)=   0.000000
     celldm(4)=   0.000000  celldm(5)=   0.000000  celldm(6)=   0.000000

     crystal axes: (cart. coord. in units of alat)
               a(1) = (   6.579727   0.000000   0.000000 )
               a(2) = (  -0.000775   5.961596   0.000000 )
               a(3) = (   0.000000   0.000000  25.155947 )

     reciprocal axes: (cart. coord. in units 2 pi/alat)
               b(1) = (  0.151982  0.000020  0.000000 )
               b(2) = (  0.000000  0.167740  0.000000 )
               b(3) = (  0.000000  0.000000  0.039752 )

     PseudoPot. # 1 for Ti read from file:
     /storage/coda1/p-amedford6/0/shared/rich_project_chbe-medford/medford-share/data/pseudos_module/espresso/nninc/pbe/van/Ti.UPF
     MD5 check sum: 8e4df49b7f0d34bbd5052bf3f5ea0213
     Pseudo is Ultrasoft, Zval = 12.0
     Generated by new atomic code, or converted to UPF format
     Using radial grid of  851 points,  6 beta functions with:
                l(1) =   0
                l(2) =   0
                l(3) =   1
                l(4) =   1
                l(5) =   2
                l(6) =   2
     Q(r) pseudized with  8 coefficients,  rinner =    1.000   1.000   1.000
                                                       1.000   1.000

     PseudoPot. # 2 for O  read from file:
     /storage/coda1/p-amedford6/0/shared/rich_project_chbe-medford/medford-share/data/pseudos_module/espresso/nninc/pbe/van/O.UPF
     MD5 check sum: 78c19812648e8988a0fe644b0f25305e
     Pseudo is Ultrasoft, Zval =  6.0
     Generated by new atomic code, or converted to UPF format
     Using radial grid of  737 points,  4 beta functions with:
                l(1) =   0
                l(2) =   0
                l(3) =   1
                l(4) =   1
     Q(r) pseudized with  8 coefficients,  rinner =    0.800   0.800   0.800

     PseudoPot. # 3 for N  read from file:
     /storage/coda1/p-amedford6/0/shared/rich_project_chbe-medford/medford-share/data/pseudos_module/espresso/nninc/pbe/van/N.UPF
     MD5 check sum: 90d10febe142ad51ac9d5be1deb811c4
     Pseudo is Ultrasoft, Zval =  5.0
     Generated by new atomic code, or converted to UPF format
     Using radial grid of  729 points,  4 beta functions with:
                l(1) =   0
                l(2) =   0
                l(3) =   1
                l(4) =   1
     Q(r) pseudized with  8 coefficients,  rinner =    0.800   0.800   0.800

     PseudoPot. # 4 for C  read from file:
     /storage/coda1/p-amedford6/0/shared/rich_project_chbe-medford/medford-share/data/pseudos_module/espresso/nninc/pbe/van/C.UPF
     MD5 check sum: 1a69bf6b8db32088f5b2163dbdb77a27
     Pseudo is Ultrasoft, Zval =  4.0
     Generated by new atomic code, or converted to UPF format
     Using radial grid of  721 points,  4 beta functions with:
                l(1) =   0
                l(2) =   0
                l(3) =   1
                l(4) =   1
     Q(r) pseudized with  8 coefficients,  rinner =    0.800   0.800   0.800

     PseudoPot. # 5 for H  read from file:
     /storage/coda1/p-amedford6/0/shared/rich_project_chbe-medford/medford-share/data/pseudos_module/espresso/nninc/pbe/van/H.UPF
     MD5 check sum: b5ee9d7bfd3a09ee7748110bda690ff7
     Pseudo is Ultrasoft, Zval =  1.0
     Generated by new atomic code, or converted to UPF format
     Using radial grid of  615 points,  1 beta functions with:
                l(1) =   0
     Q(r) pseudized with  8 coefficients,  rinner =    0.800

     atomic species   valence    mass     pseudopotential
        Ti1           12.00    47.86700     Ti( 1.00)
        O1             6.00    15.99900     O ( 1.00)
        N1             5.00    14.00700     N ( 1.00)
        C1             4.00    12.01100     C ( 1.00)
        H1             1.00     1.00800     H ( 1.00)

     No symmetry found

   Cartesian axes

     site n.     atom                  positions (alat units)
         1           Ti1 tau(   1) = (   0.0004258   2.9801865   6.0000000  )
         2           Ti1 tau(   2) = (   3.2906075   1.4906267   6.0002472  )
         3           O1  tau(   3) = (   0.0006271   0.0005054   7.9858123  )
         4           O1  tau(   4) = (   3.2906025   0.0005020   7.3038282  )
         5           O1  tau(   5) = (   4.5942328   1.4918067   9.2879030  )
         6           O1  tau(   6) = (   1.9868534   1.4903216   9.2879459  )
         7           Ti1 tau(   7) = (   3.2907910   2.8959150   9.1758416  )
         8           Ti1 tau(   8) = (   0.0015273   1.4827037   9.2680791  )
         9           O1  tau(   9) = (   3.2768631   0.0039008  11.3091060  )
        10           O1  tau(  10) = (   0.0116148   5.9584955  10.6183126  )
        11           O1  tau(  11) = (   1.2710838   1.4709840  12.6395574  )
        12           O1  tau(  12) = (   5.2772223   1.5075092  12.6020671  )
        13           Ti1 tau(  13) = (   0.0276258   2.9086511  12.7028215  )
        14           Ti1 tau(  14) = (   3.3492493   1.4375301  12.4845766  )
        15           O1  tau(  15) = (   6.5006329   5.9509897  14.6081112  )
        16           O1  tau(  16) = (   3.3450391   0.0041935  13.9069437  )
        17           O1  tau(  17) = (   4.5555219   1.5659029  16.0522165  )
        18           O1  tau(  18) = (   1.9836904   1.4119734  15.8927236  )
        19           Ti1 tau(  19) = (   3.2827818   2.9316656  15.8555152  )
        20           Ti1 tau(  20) = (   6.5629331   1.3437128  15.9803530  )
        21           O1  tau(  21) = (   3.2904802   0.0005063   4.7018136  )
        22           O1  tau(  22) = (   6.5074089   5.9525318  17.1494500  )
        23           O1  tau(  23) = (   1.3043587   1.4918075   6.0039043  )
        24           O1  tau(  24) = (   5.2767064   1.4903225   6.0039473  )
        25           Ti1 tau(  25) = (   0.0000382   5.9609847   6.0000000  )
        26           Ti1 tau(  26) = (   3.2902200   4.4714249   6.0002472  )
        27           O1  tau(  27) = (   0.0002396   2.9813036   7.9858123  )
        28           O1  tau(  28) = (   3.2902150   2.9813002   7.3038282  )
        29           O1  tau(  29) = (   4.5938453   4.4726049   9.2879030  )
        30           O1  tau(  30) = (   1.9864658   4.4711199   9.2879459  )
        31           Ti1 tau(  31) = (   3.2891106   5.8743827   9.1763621  )
        32           Ti1 tau(  32) = (   0.0006254   4.4649316   9.2693709  )
        33           O1  tau(  33) = (   3.2854303   2.9668816  11.2996989  )
        34           O1  tau(  34) = (   0.0092240   2.9805883  10.6323155  )
        35           O1  tau(  35) = (   1.2743094   4.4851408  12.6236879  )
        36           O1  tau(  36) = (   5.2782958   4.4707264  12.5946799  )
        37           Ti1 tau(  37) = (   0.0481499   5.8920156  12.5607908  )
        38           Ti1 tau(  38) = (   3.3544845   4.3749597  12.5572158  )
        39           O1  tau(  39) = (   6.5410016   3.0017514  14.6365314  )
        40           O1  tau(  40) = (   3.2441134   3.0029108  13.8718978  )
        41           O1  tau(  41) = (   4.5385932   4.4028810  16.0550583  )
        42           O1  tau(  42) = (   1.9619458   4.5383001  15.8611175  )
        43           Ti1 tau(  43) = (   3.2178196   5.9097812  15.7399460  )
        44           Ti1 tau(  44) = (   6.5330930   4.4908980  15.8705378  )
        45           O1  tau(  45) = (   3.2900926   2.9813045   4.7018136  )
        46           O1  tau(  46) = (   1.3039711   4.4726057   6.0039043  )
        47           O1  tau(  47) = (   5.2763189   4.4711207   6.0039473  )
        48           N1  tau(  48) = (   1.2867840   3.0293760  18.3347772  )
        49           C1  tau(  49) = (   2.5003166   3.0326976  17.9707196  )
        50           H1  tau(  50) = (   3.2053588   3.1891635  18.8000936  )
        51           N1  tau(  51) = (   0.2138509   2.9871109  17.4421441  )
        52           H1  tau(  52) = (   5.9621615   2.9869774  18.0311354  )
        53           O1  tau(  53) = (   3.4290693   5.9360351  18.0748810  )
        54           H1  tau(  54) = (   4.3780305   0.1327944  18.2306609  )
        55           H1  tau(  55) = (   2.9458904   0.7245148  18.4607207  )

     number of k points=    10  Fermi-Dirac smearing, width (Ry)=  0.0073
                       cart. coord. in units 2pi/alat
        k(    1) = (   0.0000000   0.0000000   0.0000000), wk =   0.1250000
        k(    2) = (   0.0000000   0.0419351   0.0000000), wk =   0.2500000
        k(    3) = (   0.0000000  -0.0838702   0.0000000), wk =   0.1250000
        k(    4) = (   0.0379955   0.0000049   0.0000000), wk =   0.2500000
        k(    5) = (   0.0379955   0.0419400   0.0000000), wk =   0.2500000
        k(    6) = (   0.0379955  -0.0838652   0.0000000), wk =   0.2500000
        k(    7) = (   0.0379955  -0.0419301   0.0000000), wk =   0.2500000
        k(    8) = (  -0.0759910  -0.0000099   0.0000000), wk =   0.1250000
        k(    9) = (  -0.0759910   0.0419252   0.0000000), wk =   0.2500000
        k(   10) = (  -0.0759910  -0.0838800   0.0000000), wk =   0.1250000

     Initial potential from superposition of free atoms

     starting charge  385.99915, renormalised to  402.00000

     negative rho (up, down):  1.831E-02 0.000E+00

     %%%%%%%%%%%%%%%%%%%%%%%%%%%%%%%%%%%%%%%%%%%%%%%%%%%%%%%%%%%%%%%%%%%%%%%%
     %                                                                      %
     % You are using vdW-DF, which was implemented by the Thonhauser group. %
     % Please cite the following two papers that made this development      %
     % possible and the two reviews that describe the various versions:     %
     %                                                                      %
     %   T. Thonhauser et al., PRL 115, 136402 (2015).                      %
     %   T. Thonhauser et al., PRB 76, 125112 (2007).                       %
     %   K. Berland et al., Rep. Prog. Phys. 78, 066501 (2015).             %
     %   D.C. Langreth et al., J. Phys.: Condens. Matter 21, 084203 (2009). %
     %                                                                      %
     %                                                                      %
     % If you are calculating the stress with vdW-DF, please also cite:     %
     %                                                                      %
     %   R. Sabatini et al., J. Phys.: Condens. Matter 24, 424209 (2012).   %
     %                                                                      %
     %%%%%%%%%%%%%%%%%%%%%%%%%%%%%%%%%%%%%%%%%%%%%%%%%%%%%%%%%%%%%%%%%%%%%%%%

     Adding external electric field

     Computed dipole along edir(3) :
        Dipole              -11.0899 Ry au,        -28.1877 Debye
        Dipole field         -0.0209 Ry au,

        Potential amp.        1.9400 Ry
        Total length         46.3494 bohr

     Starting wfcs are  304 atomic wfcs
  @ DRIVER MODE: Message from server: STATUS
  @ DRIVER MODE: Message from server: POSDATA
  @ DRIVER MODE: Reading and sharing cell
  @ DRIVER MODE: Reading and sharing positions
  @ DRIVER MODE: Received positions

     Self-consistent Calculation

     iteration #  1     ecut=    29.40 Ry     beta= 0.05
     Davidson diagonalization with overlap
     c_bands:  5 eigenvalues not converged
     c_bands:  1 eigenvalues not converged
     c_bands:  3 eigenvalues not converged
     c_bands:  4 eigenvalues not converged
     c_bands:  1 eigenvalues not converged
     c_bands:  1 eigenvalues not converged
     c_bands:  1 eigenvalues not converged
     c_bands:  1 eigenvalues not converged
     ethr =  1.00E-05,  avg # of iterations = 28.9

[...]

     total energy              =   -2403.82146400 Ry
     estimated scf accuracy    <    6374.29010702 Ry

     iteration #  2     ecut=    29.40 Ry     beta= 0.05
     Davidson diagonalization with overlap
     ethr =  1.00E-02,  avg # of iterations = 25.1

[...]

     iteration # 48     ecut=    29.40 Ry     beta= 0.05
     Davidson diagonalization with overlap
     c_bands:  1 eigenvalues not converged
     c_bands:  1 eigenvalues not converged
     c_bands:  1 eigenvalues not converged
     c_bands:  1 eigenvalues not converged
     ethr =  2.70E-07,  avg # of iterations = 14.7

[...]

     total energy              =   -2972.69113031 Ry
     estimated scf accuracy    <       0.00000009 Ry

     iteration # 73     ecut=    29.40 Ry     beta= 0.05
     Davidson diagonalization with overlap
     ethr =  2.28E-11,  avg # of iterations =  6.1

     negative rho (up, down):  1.793E-02 0.000E+00

     Adding external electric field

     Computed dipole along edir(3) :
        Dipole                0.3633 Ry au,          0.9233 Debye
        Dipole field          0.0007 Ry au,

        Potential amp.       -0.0635 Ry
        Total length         46.3494 bohr

     End of self-consistent calculation

          k = 0.0000 0.0000 0.0000 ( 18029 PWs)   bands (ev):

   -56.3420 -56.3082 -55.9403 -55.9066 -55.7522 -55.7157 -55.5610 -55.5564
   -55.5478 -55.5244 -55.5145 -55.4523 -55.2539 -55.2402 -55.1458 -55.1119
   -32.7955 -32.6346 -32.6078 -32.5002 -32.4194 -32.4154 -32.4073 -32.2410
   -32.1578 -32.1536 -32.0951 -32.0824 -32.0686 -32.0436 -32.0382 -31.9789
   -31.9749 -31.9665 -31.9333 -31.9099 -31.9094 -31.8660 -31.8517 -31.8433
   -31.8188 -31.7809 -31.7597 -31.7323 -31.7292 -31.7103 -31.7083 -31.7054
   -31.6904 -31.6701 -31.6533 -31.6396 -31.5516 -31.5445 -31.5129 -31.4989
   -31.4765 -31.4705 -31.4530 -31.4415 -31.3626 -31.3337 -31.2777 -31.1661
   -18.7461 -16.9415 -16.6591 -16.3473 -16.1458 -15.9622 -15.8994 -15.8399
   -15.7873 -15.6664 -15.6051 -15.5763 -15.5044 -15.3993 -15.3797 -15.3533
   -15.3016 -15.2853 -15.2680 -15.2390 -15.1851 -15.1515 -15.1331 -15.0576
   -15.0361 -15.0239 -14.9002 -14.8323 -14.8078 -14.7730 -14.5213 -13.6445
   -13.5315 -12.2825  -6.7271  -6.5278  -4.1607  -4.0814  -3.9059  -3.7731
    -3.6668  -3.6185  -3.4630  -3.4103  -3.3647  -3.2653  -3.1197  -3.0878
    -3.0149  -2.9647  -2.9222  -2.8639  -2.8045  -2.7594  -2.7180  -2.6350
    -2.6298  -2.6173  -2.5994  -2.5802  -2.5634  -2.4485  -2.3563  -2.3382
    -2.3145  -2.2716  -2.2526  -2.2404  -2.1900  -2.1610  -2.0774  -2.0680
    -2.0212  -1.9631  -1.9165  -1.8084  -1.7968  -1.7210  -1.7024  -1.6606
    -1.5296  -1.4053  -1.3746  -1.3228  -1.3104  -1.2259  -1.2042  -1.1767
    -1.0791  -1.0666  -1.0227  -1.0009  -0.8765  -0.8504  -0.8027  -0.7955
    -0.7658  -0.6695  -0.6321  -0.5200  -0.4760  -0.4308  -0.4211  -0.3467
    -0.3176  -0.2732  -0.2229  -0.1700  -0.1681  -0.1401  -0.0576  -0.0159
     0.0299   0.0785   0.1142   0.2025   0.2559   0.2921   0.3068   0.3952
     0.4382   0.4534   0.5188   0.5873   0.6384   0.7049   0.7485   0.8626
     0.8779   0.8950   0.9766   1.1000   1.4089   1.4310   1.4714   1.6567
     2.6488   2.8813   3.0021   3.1660   3.3115   3.3606   3.6295   3.6848
     3.7282   3.7613   3.8358

[...]

          k = 0.0380-0.0419 0.0000 ( 17876 PWs)   bands (ev):

[...]

          k =-0.0760-0.0000 0.0000 ( 17886 PWs)   bands (ev):

[...]

          k =-0.0760-0.0839 0.0000 ( 17948 PWs)   bands (ev):

   -56.3256 -56.3245 -55.9252 -55.9215 -55.7407 -55.7270 -55.5561 -55.5451
   -55.5385 -55.5336 -55.5295 -55.4508 -55.2551 -55.2412 -55.1288 -55.1288
   -32.6207 -32.6195 -32.6117 -32.6111 -32.4525 -32.4512 -32.2408 -32.2367
   -32.1305 -32.1272 -32.1176 -32.1103 -32.0409 -32.0309 -31.9689 -31.9589
   -31.9495 -31.9467 -31.8985 -31.8885 -31.8673 -31.8653 -31.8588 -31.8286
   -31.8128 -31.7822 -31.7748 -31.7586 -31.7557 -31.7477 -31.7466 -31.7311
   -31.7261 -31.7167 -31.7058 -31.6364 -31.6091 -31.5560 -31.5264 -31.5112
   -31.4752 -31.4659 -31.4659 -31.3588 -31.3587 -31.3352 -31.3203 -31.3202
   -18.7437 -16.9200 -16.0635 -16.0511 -15.9333 -15.9283 -15.7498 -15.7313
   -15.6977 -15.6724 -15.6361 -15.5498 -15.4851 -15.4773 -15.4705 -15.4069
   -15.3617 -15.3525 -15.3333 -15.3056 -15.2795 -15.2535 -15.1615 -15.1355
   -15.1317 -15.1021 -15.0204 -15.0081 -14.9480 -14.8105 -14.7398 -13.6346
   -13.6341 -12.3038  -6.7107  -6.4478  -3.9953  -3.8292  -3.2341  -3.1850
    -3.1743  -3.0650  -3.0387  -2.9641  -2.8676  -2.8500  -2.8355  -2.8019
    -2.7768  -2.7684  -2.7522  -2.7082  -2.6604  -2.6386  -2.6229  -2.6143
    -2.6092  -2.5963  -2.5660  -2.5375  -2.4790  -2.4700  -2.4371  -2.4180
    -2.3901  -2.3130  -2.3049  -2.2887  -2.2873  -2.2319  -2.1325  -2.1168
    -2.1080  -2.0651  -2.0010  -1.9310  -1.8424  -1.8010  -1.7350  -1.6788
    -1.6222  -1.5935  -1.5814  -1.4822  -1.4227  -1.4126  -1.3650  -1.3126
    -1.2342  -1.1970  -1.1595  -1.1479  -1.1353  -1.0961  -1.0447  -0.9849
    -0.8701  -0.8459  -0.8354  -0.7722  -0.7679  -0.7579  -0.6487  -0.6180
    -0.5669  -0.5417  -0.5223  -0.4843  -0.4547  -0.3812  -0.2891  -0.2429
    -0.1146  -0.0988  -0.0444   0.0036   0.0155   0.1061   0.1953   0.2194
     0.3577   0.3718   0.4041   0.5365   0.6068   0.6574   0.6750   0.7978
     0.8171   0.8527   1.0197   1.2643   1.2687   1.2877   1.2888   1.6066
     2.6259   3.4204   3.4227   3.4525   3.4547   3.6644   3.6780   3.7558
     3.7933   3.8852   3.9064

     the Fermi energy is     2.8227 ev

!    total energy              =   -2972.69114943 Ry
     estimated scf accuracy    <       0.00000002 Ry
     smearing contrib. (-TS)   =      -0.01346056 Ry
     internal energy E=F+TS    =   -2972.67768888 Ry

     The total energy is F=E-TS. E is the sum of the following terms:
     one-electron contribution =  -24586.73633146 Ry
     hartree contribution      =   12385.38779500 Ry
     xc contribution           =    -493.17372473 Ry
     ewald contribution        =    9721.84432330 Ry
     electric field correction =       0.00024902 Ry

     convergence has been achieved in  73 iterations

     Forces acting on atoms (cartesian axes, Ry/au):

     atom    1 type  1   force =    -0.00001292   -0.00028881    0.10605148
     atom    2 type  1   force =    -0.00022002   -0.00076539   -0.16693072
     atom    3 type  2   force =    -0.00002425   -0.00013747   -0.03886893
     atom    4 type  2   force =    -0.00009913   -0.00038035    0.03650940
     atom    5 type  2   force =    -0.00757207   -0.00012587   -0.00577057
     atom    6 type  2   force =     0.00858587    0.00078239   -0.00745909
     atom    7 type  1   force =    -0.00079818   -0.00145796    0.01970129
     atom    8 type  1   force =     0.00110146    0.01828562    0.06308310
     atom    9 type  2   force =    -0.00008420   -0.00019792    0.00035324
     atom   10 type  2   force =    -0.00265000    0.00203265   -0.04758778
     atom   11 type  2   force =    -0.00023851   -0.00001246    0.00012117
     atom   12 type  2   force =     0.00037814   -0.00013194    0.00008811
     atom   13 type  1   force =     0.00006637   -0.00011580   -0.00046967
     atom   14 type  1   force =    -0.00049162    0.00000597    0.00001976
     atom   15 type  2   force =     0.00026122    0.00007364   -0.00026348
     atom   16 type  2   force =    -0.00012742   -0.00029656    0.00061822
     atom   17 type  2   force =     0.00007102   -0.00025486    0.00036892
     atom   18 type  2   force =     0.00012602    0.00006370   -0.00027380
     atom   19 type  1   force =     0.00006078   -0.00007256    0.00118703
     atom   20 type  1   force =     0.00024092    0.00021076   -0.00007856
     atom   21 type  2   force =     0.00004935   -0.00001941    0.10087876
     atom   22 type  2   force =     0.00030525    0.00026847    0.00057174
     atom   23 type  2   force =    -0.07580603   -0.00011772   -0.02986795
     atom   24 type  2   force =     0.07569537    0.00033732   -0.02987671
     atom   25 type  1   force =     0.00020075   -0.00056211    0.10641106
     atom   26 type  1   force =    -0.00006706   -0.00026656   -0.16736921
     atom   27 type  2   force =    -0.00006299   -0.00032014   -0.03752006
     atom   28 type  2   force =     0.00007126   -0.00045648    0.03696723
     atom   29 type  2   force =    -0.00854458    0.00126216   -0.00516607
     atom   30 type  2   force =     0.00949937    0.00122334   -0.00688256
     atom   31 type  1   force =    -0.00129613   -0.00008403    0.02602665
     atom   32 type  1   force =     0.00115660   -0.02138771    0.06365334
     atom   33 type  2   force =    -0.00002464    0.00024624   -0.00002842
     atom   34 type  2   force =    -0.00008278    0.00090880   -0.05938377
     atom   35 type  2   force =    -0.00008742    0.00009050   -0.00012690
     atom   36 type  2   force =    -0.00011101    0.00036605   -0.00014903
     atom   37 type  1   force =     0.00002183   -0.00031807   -0.00003209
     atom   38 type  1   force =    -0.00042599   -0.00009602   -0.00016358
     atom   39 type  2   force =    -0.00020515    0.00038636    0.00053842
     atom   40 type  2   force =     0.00045600    0.00013295   -0.00037164
     atom   41 type  2   force =    -0.00008143    0.00036385   -0.00004405
     atom   42 type  2   force =     0.00049164    0.00016323    0.00016212
     atom   43 type  1   force =    -0.00040504    0.00006432   -0.00015142
     atom   44 type  1   force =     0.00039737    0.00004174   -0.00042200
     atom   45 type  2   force =     0.00002625   -0.00000198    0.10091452
     atom   46 type  2   force =    -0.07581600   -0.00010660   -0.02982338
     atom   47 type  2   force =     0.07568482    0.00032086   -0.02985994
     atom   48 type  3   force =    -0.00019387    0.00068748   -0.00002312
     atom   49 type  4   force =     0.00192552    0.00184325    0.00205222
     atom   50 type  5   force =    -0.00129282   -0.00223294   -0.00139955
     atom   51 type  3   force =     0.00024533   -0.00020837   -0.00016745
     atom   52 type  5   force =     0.00000386    0.00018652    0.00026785
     atom   53 type  2   force =    -0.00054573    0.00001568   -0.00083133
     atom   54 type  5   force =    -0.00026335    0.00014241    0.00042960
     atom   55 type  5   force =     0.00050800   -0.00009017    0.00038759

     Total force =     0.383582     Total SCF correction =     0.000326
  @ DRIVER MODE: Message from server: STATUS
  @ DRIVER MODE: Message from server: GETFORCE
  @ DRIVER MODE: Returning v,forces,stress,ensemble

     Writing output data file ./calc.save/
  @ DRIVER MODE: Message from server: EXIT
  @ DRIVE MODE: Exiting

     General routines

     Parallel routines

   This run was terminated on:  20:48:47  15Sep2021

   JOB DONE.