     Program PWSCF v.6.7GPU starts on 16Sep2021 at  3:43:47

     R & G space division:  proc/nbgrp/npool/nimage =      10
     Reading input from /storage/home/hcoda1/3/ntian30/research/carbon/CxH_vib/H2O_calc/ads_slab/CH3NNH3H2O_a/out_0034/pw.inp
Warning: card &CELL ignored
Warning: card   CELL_DYNAMICS='IPI', ignored
Warning: card / ignored

     Current dimensions of program PWSCF are:
     Max number of different atomic species (ntypx) = 10
     Max number of k-points (npk) =  40000
     Max angular momentum in pseudopotentials (lmaxx) =  3
     Presently no symmetry can be used with electric field

     Message from routine cell_base_init:
     DEPRECATED: use true lattice parameter, not A to a.u. conversion factor

     IMPORTANT: XC functional enforced from input :
     Exchange-correlation= BEEF-VDW
                           (   1   4  43  14   2   0   0)
     Any further DFT definition will be discarded
     Please, verify this is what you really want

  @ DRIVER MODE: Connecting to
 qe_1139763_2852621.sched-torque.pace.gatech.edu4xp0ofc7_scratch
  using UNIX socket
  @ DRIVER MODE: Message from server: STATUS
  @ DRIVER MODE: Message from server: INIT
  @ DRIVER MODE: Receiving replica           0          -1
  @ DRIVER MODE: Receiving encoded integer          25
  @ DRIVER MODE:  SCF:  T  FORCE:  T  STRESS:  F  VC:  F  ENSEMBLE:  F
  @ DRIVER MODE:  SCF:  T  FORCE:  T  STRESS:  F  VC:  F  ENSEMBLE:  F

     Using Slab Decomposition

     bravais-lattice index     =            0
     lattice parameter (alat)  =       1.8897  a.u.
     unit-cell volume          =    6658.9804 (a.u.)^3
     number of atoms/cell      =           59
     number of atomic types    =            5
     number of electrons       =       406.00
     number of Kohn-Sham states=          213
     kinetic-energy cutoff     =      29.3995  Ry
     charge density cutoff     =     293.9946  Ry
     scf convergence threshold =      7.3E-08
     mixing beta               =       0.0500
     number of iterations used =            8  plain     mixing
     Exchange-correlation= BEEF-VDW
                           (   1   4  43  14   2   0   0)

     celldm(1)=   1.889726  celldm(2)=   0.000000  celldm(3)=   0.000000
     celldm(4)=   0.000000  celldm(5)=   0.000000  celldm(6)=   0.000000

     crystal axes: (cart. coord. in units of alat)
               a(1) = (   6.579727   0.000000   0.000000 )
               a(2) = (  -0.000775   5.961596   0.000000 )
               a(3) = (   0.000000   0.000000  25.155947 )

     reciprocal axes: (cart. coord. in units 2 pi/alat)
               b(1) = (  0.151982  0.000020  0.000000 )
               b(2) = (  0.000000  0.167740  0.000000 )
               b(3) = (  0.000000  0.000000  0.039752 )

     PseudoPot. # 1 for Ti read from file:
     /storage/coda1/p-amedford6/0/shared/rich_project_chbe-medford/medford-share/data/pseudos_module/espresso/nninc/pbe/van/Ti.UPF
     MD5 check sum: 8e4df49b7f0d34bbd5052bf3f5ea0213
     Pseudo is Ultrasoft, Zval = 12.0
     Generated by new atomic code, or converted to UPF format
     Using radial grid of  851 points,  6 beta functions with:
                l(1) =   0
                l(2) =   0
                l(3) =   1
                l(4) =   1
                l(5) =   2
                l(6) =   2
     Q(r) pseudized with  8 coefficients,  rinner =    1.000   1.000   1.000
                                                       1.000   1.000

     PseudoPot. # 2 for O  read from file:
     /storage/coda1/p-amedford6/0/shared/rich_project_chbe-medford/medford-share/data/pseudos_module/espresso/nninc/pbe/van/O.UPF
     MD5 check sum: 78c19812648e8988a0fe644b0f25305e
     Pseudo is Ultrasoft, Zval =  6.0
     Generated by new atomic code, or converted to UPF format
     Using radial grid of  737 points,  4 beta functions with:
                l(1) =   0
                l(2) =   0
                l(3) =   1
                l(4) =   1
     Q(r) pseudized with  8 coefficients,  rinner =    0.800   0.800   0.800

     PseudoPot. # 3 for N  read from file:
     /storage/coda1/p-amedford6/0/shared/rich_project_chbe-medford/medford-share/data/pseudos_module/espresso/nninc/pbe/van/N.UPF
     MD5 check sum: 90d10febe142ad51ac9d5be1deb811c4
     Pseudo is Ultrasoft, Zval =  5.0
     Generated by new atomic code, or converted to UPF format
     Using radial grid of  729 points,  4 beta functions with:
                l(1) =   0
                l(2) =   0
                l(3) =   1
                l(4) =   1
     Q(r) pseudized with  8 coefficients,  rinner =    0.800   0.800   0.800

     PseudoPot. # 4 for C  read from file:
     /storage/coda1/p-amedford6/0/shared/rich_project_chbe-medford/medford-share/data/pseudos_module/espresso/nninc/pbe/van/C.UPF
     MD5 check sum: 1a69bf6b8db32088f5b2163dbdb77a27
     Pseudo is Ultrasoft, Zval =  4.0
     Generated by new atomic code, or converted to UPF format
     Using radial grid of  721 points,  4 beta functions with:
                l(1) =   0
                l(2) =   0
                l(3) =   1
                l(4) =   1
     Q(r) pseudized with  8 coefficients,  rinner =    0.800   0.800   0.800

     PseudoPot. # 5 for H  read from file:
     /storage/coda1/p-amedford6/0/shared/rich_project_chbe-medford/medford-share/data/pseudos_module/espresso/nninc/pbe/van/H.UPF
     MD5 check sum: b5ee9d7bfd3a09ee7748110bda690ff7
     Pseudo is Ultrasoft, Zval =  1.0
     Generated by new atomic code, or converted to UPF format
     Using radial grid of  615 points,  1 beta functions with:
                l(1) =   0
     Q(r) pseudized with  8 coefficients,  rinner =    0.800

     atomic species   valence    mass     pseudopotential
        Ti1           12.00    47.86700     Ti( 1.00)
        O1             6.00    15.99900     O ( 1.00)
        N1             5.00    14.00700     N ( 1.00)
        C1             4.00    12.01100     C ( 1.00)
        H1             1.00     1.00800     H ( 1.00)

     No symmetry found

   Cartesian axes

     site n.     atom                  positions (alat units)
         1           Ti1 tau(   1) = (   0.0004258   2.9801865   6.0000000  )
         2           Ti1 tau(   2) = (   3.2906075   1.4906267   6.0002472  )
         3           O1  tau(   3) = (   0.0006271   0.0005054   7.9858123  )
         4           O1  tau(   4) = (   3.2906025   0.0005020   7.3038282  )
         5           O1  tau(   5) = (   4.5942328   1.4918067   9.2879030  )
         6           O1  tau(   6) = (   1.9868534   1.4903216   9.2879459  )
         7           Ti1 tau(   7) = (   3.2907910   2.8959150   9.1758416  )
         8           Ti1 tau(   8) = (   0.0015273   1.4827037   9.2680791  )
         9           O1  tau(   9) = (   3.2954490   0.0159868  11.2922163  )
        10           O1  tau(  10) = (   0.0116148   5.9584955  10.6183126  )
        11           O1  tau(  11) = (   1.3242731   1.5050266  12.6143764  )
        12           O1  tau(  12) = (   5.3073597   1.5103589  12.6267567  )
        13           Ti1 tau(  13) = (   6.4831477   3.0011104  12.7364612  )
        14           Ti1 tau(  14) = (   3.1751638   1.4975352  12.4748964  )
        15           O1  tau(  15) = (   0.0212859   5.9607631  14.5987152  )
        16           O1  tau(  16) = (   3.3058086   0.0238703  13.8910224  )
        17           O1  tau(  17) = (   4.5539421   1.5574750  15.9960573  )
        18           O1  tau(  18) = (   2.0731809   1.5597727  15.9888445  )
        19           Ti1 tau(  19) = (   3.3176354   3.0289328  15.6523405  )
        20           Ti1 tau(  20) = (   0.0198791   1.6227889  16.0606591  )
        21           O1  tau(  21) = (   3.2904802   0.0005063   4.7018136  )
        22           O1  tau(  22) = (   0.0290054   0.0533443  17.2129705  )
        23           O1  tau(  23) = (   1.3043587   1.4918075   6.0039043  )
        24           O1  tau(  24) = (   5.2767064   1.4903225   6.0039473  )
        25           Ti1 tau(  25) = (   0.0000382   5.9609847   6.0000000  )
        26           Ti1 tau(  26) = (   3.2902200   4.4714249   6.0002472  )
        27           O1  tau(  27) = (   0.0002396   2.9813036   7.9858123  )
        28           O1  tau(  28) = (   3.2902150   2.9813002   7.3038282  )
        29           O1  tau(  29) = (   4.5938453   4.4726049   9.2879030  )
        30           O1  tau(  30) = (   1.9864658   4.4711199   9.2879459  )
        31           Ti1 tau(  31) = (   3.2891106   5.8743827   9.1763621  )
        32           Ti1 tau(  32) = (   0.0006254   4.4649316   9.2693709  )
        33           O1  tau(  33) = (   3.2918316   2.9938763  11.2915017  )
        34           O1  tau(  34) = (   0.0092240   2.9805883  10.6323155  )
        35           O1  tau(  35) = (   1.3226278   4.4784642  12.6110361  )
        36           O1  tau(  36) = (   5.3078083   4.4770455  12.6250823  )
        37           Ti1 tau(  37) = (   6.5141033   0.0190828  12.7620745  )
        38           Ti1 tau(  38) = (   3.1722404   4.4939287  12.4712879  )
        39           O1  tau(  39) = (   0.0035410   2.9850241  14.6487316  )
        40           O1  tau(  40) = (   3.3118331   3.0109266  13.8519036  )
        41           O1  tau(  41) = (   4.5522870   4.5059159  16.0259181  )
        42           O1  tau(  42) = (   2.0778134   4.5048723  16.0185459  )
        43           Ti1 tau(  43) = (   3.3116469   0.0596163  15.7453941  )
        44           Ti1 tau(  44) = (   0.0183239   4.5967015  16.1059876  )
        45           O1  tau(  45) = (   3.2900926   2.9813045   4.7018136  )
        46           O1  tau(  46) = (   1.3039711   4.4726057   6.0039043  )
        47           O1  tau(  47) = (   5.2763189   4.4711207   6.0039473  )
        48           N1  tau(  48) = (   0.0600715   3.0265251  17.3188267  )
        49           N1  tau(  49) = (   6.2826239   2.5295367  22.6224490  )
        50           C1  tau(  50) = (   0.2859397   3.0149959  18.7399364  )
        51           H1  tau(  51) = (   0.1411154   4.0060466  19.1894648  )
        52           H1  tau(  52) = (   6.1913215   2.3105648  19.2421896  )
        53           H1  tau(  53) = (   1.3125146   2.6968920  18.9691123  )
        54           H1  tau(  54) = (   6.1000088   3.2491606  23.3142794  )
        55           H1  tau(  55) = (   0.1456284   1.7586669  23.1118534  )
        56           H1  tau(  56) = (   0.3974265   2.9048463  21.9856970  )
        57           O1  tau(  57) = (   3.2908421   0.1144680  18.1630233  )
        58           H1  tau(  58) = (   4.0679411   5.5688996  18.4486002  )
        59           H1  tau(  59) = (   2.5060966   5.5711546  18.4327789  )

     number of k points=    10  Fermi-Dirac smearing, width (Ry)=  0.0073
                       cart. coord. in units 2pi/alat
        k(    1) = (   0.0000000   0.0000000   0.0000000), wk =   0.1250000
        k(    2) = (   0.0000000   0.0419351   0.0000000), wk =   0.2500000
        k(    3) = (   0.0000000  -0.0838702   0.0000000), wk =   0.1250000
        k(    4) = (   0.0379955   0.0000049   0.0000000), wk =   0.2500000
        k(    5) = (   0.0379955   0.0419400   0.0000000), wk =   0.2500000
        k(    6) = (   0.0379955  -0.0838652   0.0000000), wk =   0.2500000
        k(    7) = (   0.0379955  -0.0419301   0.0000000), wk =   0.2500000
        k(    8) = (  -0.0759910  -0.0000099   0.0000000), wk =   0.1250000
        k(    9) = (  -0.0759910   0.0419252   0.0000000), wk =   0.2500000
        k(   10) = (  -0.0759910  -0.0838800   0.0000000), wk =   0.1250000

     Initial potential from superposition of free atoms

     starting charge  389.99912, renormalised to  406.00000

     negative rho (up, down):  6.917E-03 0.000E+00

     %%%%%%%%%%%%%%%%%%%%%%%%%%%%%%%%%%%%%%%%%%%%%%%%%%%%%%%%%%%%%%%%%%%%%%%%
     %                                                                      %
     % You are using vdW-DF, which was implemented by the Thonhauser group. %
     % Please cite the following two papers that made this development      %
     % possible and the two reviews that describe the various versions:     %
     %                                                                      %
     %   T. Thonhauser et al., PRL 115, 136402 (2015).                      %
     %   T. Thonhauser et al., PRB 76, 125112 (2007).                       %
     %   K. Berland et al., Rep. Prog. Phys. 78, 066501 (2015).             %
     %   D.C. Langreth et al., J. Phys.: Condens. Matter 21, 084203 (2009). %
     %                                                                      %
     %                                                                      %
     % If you are calculating the stress with vdW-DF, please also cite:     %
     %                                                                      %
     %   R. Sabatini et al., J. Phys.: Condens. Matter 24, 424209 (2012).   %
     %                                                                      %
     %%%%%%%%%%%%%%%%%%%%%%%%%%%%%%%%%%%%%%%%%%%%%%%%%%%%%%%%%%%%%%%%%%%%%%%%

     Adding external electric field

     Computed dipole along edir(3) :
        Dipole              -16.2336 Ry au,        -41.2616 Debye
        Dipole field         -0.0306 Ry au,

        Potential amp.        2.8398 Ry
        Total length         46.3494 bohr

     Starting wfcs are  308 atomic wfcs
  @ DRIVER MODE: Message from server: STATUS
  @ DRIVER MODE: Message from server: POSDATA
  @ DRIVER MODE: Reading and sharing cell
  @ DRIVER MODE: Reading and sharing positions
  @ DRIVER MODE: Received positions

     Self-consistent Calculation

     iteration #  1     ecut=    29.40 Ry     beta= 0.05
     Davidson diagonalization with overlap
     c_bands:  2 eigenvalues not converged
     c_bands:  3 eigenvalues not converged
     c_bands:  5 eigenvalues not converged
     c_bands:  3 eigenvalues not converged
     c_bands:  3 eigenvalues not converged
     c_bands:  3 eigenvalues not converged
     c_bands:  1 eigenvalues not converged
     c_bands:  5 eigenvalues not converged
     c_bands:  3 eigenvalues not converged
     ethr =  1.00E-05,  avg # of iterations = 20.6

[...]

     total energy              =   -2253.46366227 Ry
     estimated scf accuracy    <    8262.97535524 Ry

     iteration #  2     ecut=    29.40 Ry     beta= 0.05
     Davidson diagonalization with overlap
     ethr =  1.00E-02,  avg # of iterations = 25.6

[...]

     iteration # 58     ecut=    29.40 Ry     beta= 0.05
     Davidson diagonalization with overlap
     c_bands:  1 eigenvalues not converged
     c_bands:  1 eigenvalues not converged
     c_bands:  1 eigenvalues not converged
     ethr =  3.50E-06,  avg # of iterations = 16.1

[...]

     total energy              =   -2977.74438939 Ry
     estimated scf accuracy    <       0.00000008 Ry

     iteration #100     ecut=    29.40 Ry     beta= 0.05
     Davidson diagonalization with overlap
     ethr =  2.02E-11,  avg # of iterations =  6.3

     negative rho (up, down):  8.782E-03 0.000E+00

     Adding external electric field

     Computed dipole along edir(3) :
        Dipole                0.7647 Ry au,          1.9436 Debye
        Dipole field          0.0014 Ry au,

        Potential amp.       -0.1338 Ry
        Total length         46.3494 bohr

     End of self-consistent calculation

          k = 0.0000 0.0000 0.0000 ( 18029 PWs)   bands (ev):

   -56.2625 -56.2289 -55.3795 -55.3455 -55.3370 -55.3021 -55.1544 -55.1192
   -55.0321 -54.9120 -54.8933 -54.8917 -54.8781 -54.8067 -54.3901 -54.3405
   -32.6892 -32.5368 -32.5087 -32.4388 -32.3478 -32.3154 -31.8473 -31.8192
   -31.6898 -31.6452 -31.5965 -31.5783 -31.5484 -31.5391 -31.5102 -31.5051
   -31.4865 -31.4803 -31.4576 -31.4435 -31.4304 -31.3806 -31.3708 -31.3322
   -31.3197 -31.3030 -31.2938 -31.2807 -31.2562 -31.2554 -31.2515 -31.2273
   -31.1322 -31.1219 -31.0815 -31.0712 -31.0437 -31.0388 -31.0295 -31.0109
   -30.9803 -30.9280 -30.9048 -30.6337 -30.6116 -30.5804 -30.5597 -30.4508
   -18.4458 -16.4181 -15.9518 -15.7083 -15.6190 -15.5357 -15.4970 -15.4529
   -15.3002 -15.2333 -15.2108 -15.2102 -15.1394 -14.9912 -14.9442 -14.8463
   -14.7524 -14.6174 -14.6005 -14.5674 -14.5491 -14.5163 -14.5090 -14.4573
   -14.2942 -14.2586 -14.2107 -14.1471 -14.0622 -14.0401 -13.8365 -13.4105
   -13.3009 -12.6441  -7.4554  -6.2361  -4.1062  -4.0857  -3.9855  -3.4514
    -3.1820  -3.1546  -3.0261  -3.0212  -2.9760  -2.8351  -2.8232  -2.7531
    -2.7310  -2.6897  -2.6175  -2.6002  -2.5350  -2.4458  -2.4334  -2.4133
    -2.3986  -2.3841  -2.2624  -2.2208  -2.1687  -2.0653  -1.9569  -1.9135
    -1.8866  -1.8430  -1.8048  -1.7578  -1.7454  -1.7306  -1.7242  -1.6125
    -1.4990  -1.4658  -1.4509  -1.4049  -1.3862  -1.3779  -1.3556  -1.2702
    -1.1607  -1.0675  -1.0004  -0.9878  -0.9207  -0.9127  -0.8534  -0.7374
    -0.6768  -0.6720  -0.6565  -0.5530  -0.5259  -0.4546  -0.3915  -0.3337
    -0.2792  -0.2166  -0.1662  -0.1439  -0.1310  -0.0317   0.0397   0.0631
     0.1145   0.1236   0.1330   0.1533   0.2503   0.2858   0.3600   0.4041
     0.4404   0.4849   0.5681   0.6179   0.6857   0.7356   0.7583   0.8202
     0.8733   0.9290   1.0243   1.0729   1.0785   1.0870   1.1095   1.1700
     1.1839   1.2603   1.3432   1.3581   1.4311   1.4993   1.6596   1.6987
     1.9513   2.0205   2.6462   3.0147   3.1760   3.4712   3.6612   3.7988
     3.9940   4.0043   4.0114   4.2381   4.2614

[...]

          k = 0.0380-0.0419 0.0000 ( 17876 PWs)   bands (ev):

[...]

          k =-0.0760-0.0000 0.0000 ( 17886 PWs)   bands (ev):

[...]

          k =-0.0760-0.0839 0.0000 ( 17948 PWs)   bands (ev):

   -56.2458 -56.2454 -55.3645 -55.3601 -55.3244 -55.3148 -55.1379 -55.1356
   -55.0298 -54.8951 -54.8949 -54.8938 -54.8896 -54.8102 -54.3830 -54.3475
   -32.5227 -32.5224 -32.5062 -32.5060 -32.3920 -32.3916 -31.6709 -31.6651
   -31.6551 -31.6476 -31.5712 -31.5562 -31.5545 -31.5502 -31.5439 -31.5424
   -31.5364 -31.5277 -31.4959 -31.4795 -31.3834 -31.3813 -31.3477 -31.3419
   -31.3223 -31.2862 -31.2478 -31.2404 -31.2403 -31.2393 -31.2148 -31.1926
   -31.1498 -31.1199 -31.1197 -31.1158 -31.0928 -31.0806 -31.0805 -31.0655
   -31.0484 -31.0130 -30.7654 -30.7028 -30.6094 -30.5850 -30.5676 -30.5213
   -18.4449 -15.7687 -15.7667 -15.7316 -15.7308 -15.4639 -15.4605 -15.3670
   -15.3617 -15.2271 -15.1102 -15.0087 -14.9959 -14.9604 -14.9332 -14.8212
   -14.8003 -14.7910 -14.7809 -14.6691 -14.6491 -14.6037 -14.5927 -14.5762
   -14.5662 -14.2723 -14.2592 -14.1562 -14.1325 -14.0393 -13.9897 -13.4044
   -13.4044 -12.6627  -7.4492  -6.2286  -4.1161  -4.0874  -2.8654  -2.8581
    -2.8234  -2.8036  -2.8027  -2.7329  -2.6385  -2.6062  -2.5973  -2.5965
    -2.5184  -2.4470  -2.4390  -2.3673  -2.3347  -2.3154  -2.2573  -2.2459
    -2.1812  -2.1550  -2.1467  -2.1301  -2.1067  -2.1055  -2.0091  -1.9464
    -1.8945  -1.8911  -1.8234  -1.8055  -1.7414  -1.7208  -1.7094  -1.6778
    -1.6361  -1.6138  -1.5813  -1.5474  -1.5065  -1.4467  -1.2805  -1.2714
    -1.2619  -1.2403  -1.1151  -1.1083  -1.0773  -1.0473  -1.0415  -0.9675
    -0.9179  -0.8828  -0.8252  -0.7417  -0.7192  -0.6172  -0.5663  -0.5202
    -0.4640  -0.3576  -0.3403  -0.3295  -0.3203  -0.2898  -0.2238  -0.1942
    -0.1789  -0.0581  -0.0387   0.0147   0.0354   0.0917   0.1181   0.1825
     0.2094   0.2811   0.2927   0.3320   0.4065   0.4872   0.5222   0.5693
     0.5740   0.8504   0.9241   1.0545   1.0637   1.1223   1.1810   1.2524
     1.3122   1.3445   1.3712   1.4939   1.4982   1.5073   1.5079   1.5796
     1.5847   1.9289   2.5233   3.5907   3.5909   3.6575   3.6582   3.9789
     3.9851   4.0921   4.1024   4.2635   4.2786

     the Fermi energy is     2.8424 ev

!    total energy              =   -2977.74439204 Ry
     estimated scf accuracy    <       0.00000006 Ry
     smearing contrib. (-TS)   =      -0.00444836 Ry
     internal energy E=F+TS    =   -2977.73994368 Ry

     The total energy is F=E-TS. E is the sum of the following terms:
     one-electron contribution =  -22875.97702101 Ry
     hartree contribution      =   11535.70267608 Ry
     xc contribution           =    -496.32862467 Ry
     ewald contribution        =    8858.86192243 Ry
     electric field correction =       0.00110350 Ry

     convergence has been achieved in 100 iterations

     Forces acting on atoms (cartesian axes, Ry/au):

     atom    1 type  1   force =    -0.00003240   -0.00046325    0.12451401
     atom    2 type  1   force =    -0.00009007   -0.00048123   -0.15979489
     atom    3 type  2   force =     0.00019212   -0.00024270   -0.06793745
     atom    4 type  2   force =    -0.00000716   -0.00011507    0.02621427
     atom    5 type  2   force =    -0.01448585    0.00181756   -0.00991260
     atom    6 type  2   force =     0.01626476    0.00224272   -0.01025480
     atom    7 type  1   force =     0.00071034   -0.00388224    0.02890273
     atom    8 type  1   force =    -0.00035000   -0.00439481    0.10956046
     atom    9 type  2   force =     0.00023570   -0.00029041   -0.00054575
     atom   10 type  2   force =    -0.00231051    0.00256458   -0.07334934
     atom   11 type  2   force =    -0.00002207   -0.00033641   -0.00001043
     atom   12 type  2   force =    -0.00015831   -0.00082510    0.00001248
     atom   13 type  1   force =     0.00107586   -0.00040635    0.00015927
     atom   14 type  1   force =    -0.00065589    0.00064735   -0.00009895
     atom   15 type  2   force =    -0.00028130   -0.00039769   -0.00077595
     atom   16 type  2   force =    -0.00001618   -0.00011290    0.00066370
     atom   17 type  2   force =     0.00014665   -0.00091425   -0.00020620
     atom   18 type  2   force =     0.00051447   -0.00051801    0.00011584
     atom   19 type  1   force =    -0.00113226   -0.00011185   -0.00095417
     atom   20 type  1   force =     0.00080457   -0.00009833   -0.00034579
     atom   21 type  2   force =     0.00004510   -0.00003634    0.09942262
     atom   22 type  2   force =     0.00002076   -0.00024016   -0.00042871
     atom   23 type  2   force =    -0.07966800   -0.00005659   -0.03249261
     atom   24 type  2   force =     0.07951183    0.00038260   -0.03254080
     atom   25 type  1   force =    -0.00000430   -0.00057469    0.12417565
     atom   26 type  1   force =    -0.00008772   -0.00062783   -0.15994770
     atom   27 type  2   force =     0.00030122   -0.00036234   -0.06698888
     atom   28 type  2   force =    -0.00002054    0.00015123    0.02513206
     atom   29 type  2   force =    -0.01510894    0.00192702   -0.00984681
     atom   30 type  2   force =     0.01678449    0.00242669   -0.01016083
     atom   31 type  1   force =     0.00074093   -0.00076375    0.02408227
     atom   32 type  1   force =    -0.00027963    0.00204707    0.11017759
     atom   33 type  2   force =     0.00007492    0.00029377    0.00055049
     atom   34 type  2   force =    -0.00193294    0.00199973   -0.07167143
     atom   35 type  2   force =    -0.00001562    0.00034678   -0.00002171
     atom   36 type  2   force =    -0.00053768    0.00061394   -0.00006160
     atom   37 type  1   force =     0.00121593    0.00043321    0.00033119
     atom   38 type  1   force =    -0.00054860   -0.00087919   -0.00021733
     atom   39 type  2   force =    -0.00027256   -0.00013392    0.00086270
     atom   40 type  2   force =     0.00017925   -0.00012487    0.00022941
     atom   41 type  2   force =     0.00103608    0.00014695    0.00017408
     atom   42 type  2   force =    -0.00050140   -0.00024073    0.00055489
     atom   43 type  1   force =    -0.00158953    0.00002186   -0.00026971
     atom   44 type  1   force =     0.00091558   -0.00014716   -0.00035822
     atom   45 type  2   force =     0.00001948   -0.00004779    0.09938625
     atom   46 type  2   force =    -0.07968443    0.00000293   -0.03250434
     atom   47 type  2   force =     0.07953500    0.00043857   -0.03252889
     atom   48 type  3   force =    -0.00085658   -0.00086952   -0.00062867
     atom   49 type  3   force =    -0.00034460   -0.00048044    0.00131504
     atom   50 type  4   force =    -0.00270895    0.00233319   -0.00027136
     atom   51 type  5   force =    -0.00125592    0.00071149    0.00012626
     atom   52 type  5   force =     0.00068858   -0.00076407    0.00084982
     atom   53 type  5   force =     0.00323649   -0.00263522    0.00070235
     atom   54 type  5   force =     0.00006504   -0.00023087   -0.00059468
     atom   55 type  5   force =     0.00003061    0.00031412   -0.00029608
     atom   56 type  5   force =     0.00028682    0.00036301   -0.00182062
     atom   57 type  2   force =     0.00159331   -0.00049487   -0.00037413
     atom   58 type  5   force =    -0.00046041    0.00090421    0.00003100
     atom   59 type  5   force =    -0.00080556    0.00017037   -0.00003502

     Total force =     0.423567     Total SCF correction =     0.000712
  @ DRIVER MODE: Message from server: STATUS
  @ DRIVER MODE: Message from server: GETFORCE
  @ DRIVER MODE: Returning v,forces,stress,ensemble

     Writing output data file ./calc.save/
  @ DRIVER MODE: Message from server: EXIT
  @ DRIVE MODE: Exiting

     General routines

     Parallel routines

   This run was terminated on:   4: 9:17  16Sep2021

   JOB DONE.