     Program PWSCF v.6.7GPU starts on 23Sep2021 at  5:31:38

     R & G space division:  proc/nbgrp/npool/nimage =      10
     Reading input from /storage/home/hcoda1/3/ntian30/research/carbon/CxH_vib/H2O_calc/ads_slab/CH3OHO_a/out_0042/pw.inp
Warning: card &CELL ignored
Warning: card   CELL_DYNAMICS='IPI', ignored
Warning: card / ignored

     Current dimensions of program PWSCF are:
     Max number of different atomic species (ntypx) = 10
     Max number of k-points (npk) =  40000
     Max angular momentum in pseudopotentials (lmaxx) =  3
     Presently no symmetry can be used with electric field

     Message from routine cell_base_init:
     DEPRECATED: use true lattice parameter, not A to a.u. conversion factor

     IMPORTANT: XC functional enforced from input :
     Exchange-correlation= BEEF-VDW
                           (   1   4  43  14   2   0   0)
     Any further DFT definition will be discarded
     Please, verify this is what you really want

  @ DRIVER MODE: Connecting to
 qe_1139763_2937320.sched-torque.pace.gatech.edumlzuf9bo_scratch
  using UNIX socket
  @ DRIVER MODE: Message from server: STATUS
  @ DRIVER MODE: Message from server: INIT
  @ DRIVER MODE: Receiving replica           0          -1
  @ DRIVER MODE: Receiving encoded integer          25
  @ DRIVER MODE:  SCF:  T  FORCE:  T  STRESS:  F  VC:  F  ENSEMBLE:  F
  @ DRIVER MODE:  SCF:  T  FORCE:  T  STRESS:  F  VC:  F  ENSEMBLE:  F

     Using Slab Decomposition

     bravais-lattice index     =            0
     lattice parameter (alat)  =       1.8897  a.u.
     unit-cell volume          =    6658.9804 (a.u.)^3
     number of atoms/cell      =           54
     number of atomic types    =            4
     number of electrons       =       398.00
     number of Kohn-Sham states=          209
     kinetic-energy cutoff     =      29.3995  Ry
     charge density cutoff     =     293.9946  Ry
     scf convergence threshold =      7.3E-08
     mixing beta               =       0.0500
     number of iterations used =            8  plain     mixing
     Exchange-correlation= BEEF-VDW
                           (   1   4  43  14   2   0   0)

     celldm(1)=   1.889726  celldm(2)=   0.000000  celldm(3)=   0.000000
     celldm(4)=   0.000000  celldm(5)=   0.000000  celldm(6)=   0.000000

     crystal axes: (cart. coord. in units of alat)
               a(1) = (   6.579727   0.000000   0.000000 )
               a(2) = (  -0.000775   5.961596   0.000000 )
               a(3) = (   0.000000   0.000000  25.155947 )

     reciprocal axes: (cart. coord. in units 2 pi/alat)
               b(1) = (  0.151982  0.000020  0.000000 )
               b(2) = (  0.000000  0.167740  0.000000 )
               b(3) = (  0.000000  0.000000  0.039752 )

     PseudoPot. # 1 for Ti read from file:
     /storage/coda1/p-amedford6/0/shared/rich_project_chbe-medford/medford-share/data/pseudos_module/espresso/nninc/pbe/van/Ti.UPF
     MD5 check sum: 8e4df49b7f0d34bbd5052bf3f5ea0213
     Pseudo is Ultrasoft, Zval = 12.0
     Generated by new atomic code, or converted to UPF format
     Using radial grid of  851 points,  6 beta functions with:
                l(1) =   0
                l(2) =   0
                l(3) =   1
                l(4) =   1
                l(5) =   2
                l(6) =   2
     Q(r) pseudized with  8 coefficients,  rinner =    1.000   1.000   1.000
                                                       1.000   1.000

     PseudoPot. # 2 for O  read from file:
     /storage/coda1/p-amedford6/0/shared/rich_project_chbe-medford/medford-share/data/pseudos_module/espresso/nninc/pbe/van/O.UPF
     MD5 check sum: 78c19812648e8988a0fe644b0f25305e
     Pseudo is Ultrasoft, Zval =  6.0
     Generated by new atomic code, or converted to UPF format
     Using radial grid of  737 points,  4 beta functions with:
                l(1) =   0
                l(2) =   0
                l(3) =   1
                l(4) =   1
     Q(r) pseudized with  8 coefficients,  rinner =    0.800   0.800   0.800

     PseudoPot. # 3 for C  read from file:
     /storage/coda1/p-amedford6/0/shared/rich_project_chbe-medford/medford-share/data/pseudos_module/espresso/nninc/pbe/van/C.UPF
     MD5 check sum: 1a69bf6b8db32088f5b2163dbdb77a27
     Pseudo is Ultrasoft, Zval =  4.0
     Generated by new atomic code, or converted to UPF format
     Using radial grid of  721 points,  4 beta functions with:
                l(1) =   0
                l(2) =   0
                l(3) =   1
                l(4) =   1
     Q(r) pseudized with  8 coefficients,  rinner =    0.800   0.800   0.800

     PseudoPot. # 4 for H  read from file:
     /storage/coda1/p-amedford6/0/shared/rich_project_chbe-medford/medford-share/data/pseudos_module/espresso/nninc/pbe/van/H.UPF
     MD5 check sum: b5ee9d7bfd3a09ee7748110bda690ff7
     Pseudo is Ultrasoft, Zval =  1.0
     Generated by new atomic code, or converted to UPF format
     Using radial grid of  615 points,  1 beta functions with:
                l(1) =   0
     Q(r) pseudized with  8 coefficients,  rinner =    0.800

     atomic species   valence    mass     pseudopotential
        Ti1           12.00    47.86700     Ti( 1.00)
        O1             6.00    15.99900     O ( 1.00)
        C1             4.00    12.01100     C ( 1.00)
        H1             1.00     1.00800     H ( 1.00)

     No symmetry found

   Cartesian axes

     site n.     atom                  positions (alat units)
         1           Ti1 tau(   1) = (   0.0004258   2.9801865   6.0000000  )
         2           Ti1 tau(   2) = (   3.2906075   1.4906267   6.0002472  )
         3           O1  tau(   3) = (   0.0006271   0.0005054   7.9858123  )
         4           O1  tau(   4) = (   3.2906025   0.0005020   7.3038282  )
         5           O1  tau(   5) = (   4.5942328   1.4918067   9.2879030  )
         6           O1  tau(   6) = (   1.9868534   1.4903216   9.2879459  )
         7           Ti1 tau(   7) = (   3.2957662   3.1068914   9.2181075  )
         8           Ti1 tau(   8) = (   0.0157633   1.6119101   9.3474628  )
         9           O1  tau(   9) = (   3.3075722   0.0245345  11.3221904  )
        10           O1  tau(  10) = (   0.0080709   0.0223756  10.5933645  )
        11           O1  tau(  11) = (   1.2996580   1.5014007  12.6293879  )
        12           O1  tau(  12) = (   5.3220639   1.4985920  12.6296061  )
        13           Ti1 tau(  13) = (   0.0338638   3.0995910  12.8036746  )
        14           Ti1 tau(  14) = (   3.3037623   1.5692239  12.4279754  )
        15           O1  tau(  15) = (   0.0261714   0.0103614  14.6808343  )
        16           O1  tau(  16) = (   3.3158872   5.9294016  13.9235834  )
        17           O1  tau(  17) = (   4.5845781   1.5190771  16.0542726  )
        18           O1  tau(  18) = (   2.0543804   1.5366111  16.0227792  )
        19           Ti1 tau(  19) = (   3.3281905   2.9581697  15.6655982  )
        20           Ti1 tau(  20) = (   0.0947853   1.4300879  15.9722461  )
        21           O1  tau(  21) = (   3.2904802   0.0005063   4.7018136  )
        22           O1  tau(  22) = (   0.0746355   0.0166105  17.2029963  )
        23           O1  tau(  23) = (   1.3043587   1.4918075   6.0039043  )
        24           O1  tau(  24) = (   5.2767064   1.4903225   6.0039473  )
        25           Ti1 tau(  25) = (   0.0000382   5.9609847   6.0000000  )
        26           Ti1 tau(  26) = (   3.2902200   4.4714249   6.0002472  )
        27           O1  tau(  27) = (   0.0002396   2.9813036   7.9858123  )
        28           O1  tau(  28) = (   3.2902150   2.9813002   7.3038282  )
        29           O1  tau(  29) = (   4.5938453   4.4726049   9.2879030  )
        30           O1  tau(  30) = (   1.9864658   4.4711199   9.2879459  )
        31           Ti1 tau(  31) = (   3.3049890   0.1224192   9.1815931  )
        32           Ti1 tau(  32) = (   0.0115838   4.5621182   9.3618056  )
        33           O1  tau(  33) = (   3.3056077   2.9569042  11.2892548  )
        34           O1  tau(  34) = (   0.0073068   3.0072357  10.5542745  )
        35           O1  tau(  35) = (   1.3032543   4.4799722  12.6367586  )
        36           O1  tau(  36) = (   5.3275811   4.4862388  12.6364370  )
        37           Ti1 tau(  37) = (   0.0060541   0.1153383  12.6179110  )
        38           Ti1 tau(  38) = (   3.3135592   4.6638430  12.6816895  )
        39           O1  tau(  39) = (   0.0323206   2.9919573  14.6814448  )
        40           O1  tau(  40) = (   3.3290587   2.9835885  13.8850256  )
        41           O1  tau(  41) = (   4.5809508   4.4372854  16.0867525  )
        42           O1  tau(  42) = (   2.0525355   4.4234120  16.0327814  )
        43           Ti1 tau(  43) = (   3.4083040   5.9395600  16.2643712  )
        44           Ti1 tau(  44) = (   0.1061243   4.5568233  16.0547075  )
        45           O1  tau(  45) = (   3.2900926   2.9813045   4.7018136  )
        46           O1  tau(  46) = (   1.3039711   4.4726057   6.0039043  )
        47           O1  tau(  47) = (   5.2763189   4.4711207   6.0039473  )
        48           C1  tau(  48) = (   6.0247352   2.9430639  18.6208924  )
        49           O1  tau(  49) = (   0.0129984   2.9830681  17.3098104  )
        50           H1  tau(  50) = (   4.9427965   2.8012130  18.5644550  )
        51           H1  tau(  51) = (   6.4567215   2.1053551  19.1708771  )
        52           H1  tau(  52) = (   6.2362830   3.8810018  19.1352789  )
        53           O1  tau(  53) = (   3.2195589   0.0134334  18.0862892  )
        54           H1  tau(  54) = (   2.3313237   0.1261415  18.4690370  )

     number of k points=    10  Fermi-Dirac smearing, width (Ry)=  0.0073
                       cart. coord. in units 2pi/alat
        k(    1) = (   0.0000000   0.0000000   0.0000000), wk =   0.1250000
        k(    2) = (   0.0000000   0.0419351   0.0000000), wk =   0.2500000
        k(    3) = (   0.0000000  -0.0838702   0.0000000), wk =   0.1250000
        k(    4) = (   0.0379955   0.0000049   0.0000000), wk =   0.2500000
        k(    5) = (   0.0379955   0.0419400   0.0000000), wk =   0.2500000
        k(    6) = (   0.0379955  -0.0838652   0.0000000), wk =   0.2500000
        k(    7) = (   0.0379955  -0.0419301   0.0000000), wk =   0.2500000
        k(    8) = (  -0.0759910  -0.0000099   0.0000000), wk =   0.1250000
        k(    9) = (  -0.0759910   0.0419252   0.0000000), wk =   0.2500000
        k(   10) = (  -0.0759910  -0.0838800   0.0000000), wk =   0.1250000

     Initial potential from superposition of free atoms

     starting charge  381.99917, renormalised to  398.00000

     negative rho (up, down):  1.723E-02 0.000E+00

     %%%%%%%%%%%%%%%%%%%%%%%%%%%%%%%%%%%%%%%%%%%%%%%%%%%%%%%%%%%%%%%%%%%%%%%%
     %                                                                      %
     % You are using vdW-DF, which was implemented by the Thonhauser group. %
     % Please cite the following two papers that made this development      %
     % possible and the two reviews that describe the various versions:     %
     %                                                                      %
     %   T. Thonhauser et al., PRL 115, 136402 (2015).                      %
     %   T. Thonhauser et al., PRB 76, 125112 (2007).                       %
     %   K. Berland et al., Rep. Prog. Phys. 78, 066501 (2015).             %
     %   D.C. Langreth et al., J. Phys.: Condens. Matter 21, 084203 (2009). %
     %                                                                      %
     %                                                                      %
     % If you are calculating the stress with vdW-DF, please also cite:     %
     %                                                                      %
     %   R. Sabatini et al., J. Phys.: Condens. Matter 24, 424209 (2012).   %
     %                                                                      %
     %%%%%%%%%%%%%%%%%%%%%%%%%%%%%%%%%%%%%%%%%%%%%%%%%%%%%%%%%%%%%%%%%%%%%%%%

     Adding external electric field

     Computed dipole along edir(3) :
        Dipole               -8.3460 Ry au,        -21.2133 Debye
        Dipole field         -0.0157 Ry au,

        Potential amp.        1.4600 Ry
        Total length         46.3494 bohr

     Starting wfcs are  300 atomic wfcs
  @ DRIVER MODE: Message from server: STATUS
  @ DRIVER MODE: Message from server: POSDATA
  @ DRIVER MODE: Reading and sharing cell
  @ DRIVER MODE: Reading and sharing positions
  @ DRIVER MODE: Received positions

     Self-consistent Calculation

     iteration #  1     ecut=    29.40 Ry     beta= 0.05
     Davidson diagonalization with overlap
     c_bands:  1 eigenvalues not converged
     c_bands:  1 eigenvalues not converged
     c_bands:  1 eigenvalues not converged
     c_bands:  1 eigenvalues not converged
     c_bands:  1 eigenvalues not converged
     ethr =  1.00E-05,  avg # of iterations = 18.4

[...]

     total energy              =   -2613.37758273 Ry
     estimated scf accuracy    <    3887.28017935 Ry

     iteration #  2     ecut=    29.40 Ry     beta= 0.05
     Davidson diagonalization with overlap
     ethr =  1.00E-02,  avg # of iterations = 22.9

[...]

     iteration # 32     ecut=    29.40 Ry     beta= 0.05
     Davidson diagonalization with overlap
     c_bands:  1 eigenvalues not converged
     c_bands:  1 eigenvalues not converged
     ethr =  1.72E-06,  avg # of iterations =  8.7

[...]

     total energy              =   -2965.10865759 Ry
     estimated scf accuracy    <       0.00000013 Ry

     iteration # 73     ecut=    29.40 Ry     beta= 0.05
     Davidson diagonalization with overlap
     ethr =  1.89E-11,  avg # of iterations =  3.1

     negative rho (up, down):  1.731E-02 0.000E+00

     Adding external electric field

     Computed dipole along edir(3) :
        Dipole                0.5399 Ry au,          1.3722 Debye
        Dipole field          0.0010 Ry au,

        Potential amp.       -0.0944 Ry
        Total length         46.3494 bohr

     End of self-consistent calculation

          k = 0.0000 0.0000 0.0000 ( 18029 PWs)   bands (ev):

   -56.4397 -56.3929 -55.8675 -55.8356 -55.8265 -55.8146 -55.7707 -55.7337
   -55.7087 -55.6950 -55.6569 -55.6147 -55.6108 -55.4642 -55.0431 -55.0092
   -32.8522 -32.7046 -32.6552 -32.6192 -32.5247 -32.4787 -32.3592 -32.3131
   -32.3065 -32.1919 -32.1544 -32.1313 -32.1292 -32.1088 -32.1033 -32.0668
   -32.0636 -32.0494 -32.0321 -32.0266 -32.0138 -31.9765 -31.9656 -31.9492
   -31.9412 -31.9283 -31.9257 -31.9155 -31.9137 -31.9025 -31.8974 -31.8846
   -31.8606 -31.8590 -31.8534 -31.8201 -31.8086 -31.8078 -31.7787 -31.7200
   -31.6895 -31.6705 -31.4372 -31.3840 -31.3596 -31.2540 -31.1691 -31.0585
   -17.6008 -16.6089 -16.5795 -16.4377 -16.2005 -16.0537 -15.9734 -15.7541
   -15.7513 -15.6323 -15.6206 -15.5861 -15.4483 -15.4356 -15.4286 -15.3729
   -15.3577 -15.3470 -15.3409 -15.3331 -15.3205 -15.2723 -15.2594 -15.2076
   -15.1491 -15.0825 -15.0524 -15.0092 -14.9899 -14.9545 -14.7242 -13.5455
   -13.4371  -9.3515  -4.3285  -4.2431  -4.1195  -4.0351  -3.8790  -3.7773
    -3.7496  -3.6657  -3.5756  -3.4658  -3.2672  -3.1052  -3.0485  -3.0118
    -2.9789  -2.9252  -2.8703  -2.8116  -2.7664  -2.7376  -2.7085  -2.6413
    -2.6257  -2.6139  -2.5858  -2.5781  -2.5421  -2.5090  -2.4981  -2.3662
    -2.3367  -2.2990  -2.2940  -2.2349  -2.2156  -2.1910  -2.1846  -2.1339
    -2.0408  -1.9601  -1.9245  -1.8850  -1.6954  -1.6402  -1.5703  -1.5045
    -1.4259  -1.3788  -1.3593  -1.3366  -1.2654  -1.2378  -1.1260  -1.1041
    -1.0581  -0.9947  -0.9912  -0.9519  -0.8941  -0.8675  -0.8033  -0.7708
    -0.7454  -0.6023  -0.5732  -0.5468  -0.5063  -0.4978  -0.3993  -0.3353
    -0.2863  -0.2669  -0.2191  -0.1853  -0.1468  -0.0991  -0.0815  -0.0551
     0.0340   0.0597   0.0842   0.1288   0.1639   0.1868   0.2059   0.2990
     0.3471   0.3648   0.3809   0.5368   0.5756   0.5919   0.7206   0.7321
     0.9055   0.9734   1.0111   1.1906   1.2366   1.5233   1.5655   2.8620
     3.0203   3.2915   3.4390   3.5069   3.5459   3.5996   3.6169   3.7579
     3.7925

[...]

          k = 0.0380-0.0419 0.0000 ( 17876 PWs)   bands (ev):

[...]

          k =-0.0760-0.0000 0.0000 ( 17886 PWs)   bands (ev):

[...]

          k =-0.0760-0.0839 0.0000 ( 17948 PWs)   bands (ev):

   -56.4326 -56.3999 -55.8655 -55.8300 -55.8255 -55.8106 -55.7757 -55.7375
   -55.7104 -55.6964 -55.6484 -55.6231 -55.6089 -55.4660 -55.0263 -55.0258
   -32.7000 -32.6830 -32.6592 -32.6552 -32.5844 -32.5566 -32.2471 -32.1833
   -32.1569 -32.1251 -32.1023 -32.0988 -32.0878 -32.0732 -32.0655 -32.0511
   -32.0467 -32.0389 -32.0333 -32.0258 -32.0257 -32.0179 -31.9957 -31.9948
   -31.9923 -31.9770 -31.9658 -31.9506 -31.9426 -31.9361 -31.9154 -31.9025
   -31.8984 -31.8860 -31.8727 -31.8582 -31.8577 -31.8237 -31.8130 -31.7938
   -31.7223 -31.6740 -31.3727 -31.3725 -31.2528 -31.2511 -31.2114 -31.2105
   -17.5631 -16.5735 -15.9811 -15.9018 -15.8978 -15.8863 -15.8598 -15.8176
   -15.7402 -15.7334 -15.6621 -15.5955 -15.5621 -15.5165 -15.4941 -15.4828
   -15.4453 -15.4408 -15.3835 -15.3400 -15.3234 -15.3122 -15.2924 -15.2489
   -15.2434 -15.2407 -15.2171 -15.2011 -15.1513 -15.0510 -14.8649 -13.5415
   -13.5403  -9.3517  -4.2540  -4.1705  -3.9703  -3.7426  -3.2135  -3.1376
    -3.0632  -3.0553  -2.9806  -2.9208  -2.9061  -2.8613  -2.8542  -2.8225
    -2.7507  -2.7403  -2.7276  -2.7170  -2.7096  -2.7008  -2.6780  -2.6329
    -2.6199  -2.6126  -2.5968  -2.5881  -2.5763  -2.5728  -2.5459  -2.5069
    -2.4368  -2.3768  -2.2530  -2.2455  -2.2097  -2.1938  -2.1526  -2.1409
    -2.0869  -1.9950  -1.9829  -1.9802  -1.8913  -1.8348  -1.6216  -1.6064
    -1.5897  -1.5225  -1.4507  -1.3841  -1.3605  -1.3372  -1.3048  -1.2819
    -1.2327  -1.1833  -1.1491  -1.1128  -1.0964  -1.0577  -1.0042  -0.9567
    -0.9044  -0.9005  -0.8572  -0.8098  -0.7788  -0.6992  -0.6933  -0.6698
    -0.6465  -0.6072  -0.5220  -0.4701  -0.4271  -0.3330  -0.2901  -0.2576
    -0.1182  -0.0588  -0.0219   0.0548   0.0972   0.1985   0.2233   0.3006
     0.3120   0.3413   0.3657   0.4400   0.5081   0.5643   0.6059   0.6497
     0.6615   0.7106   0.7734   1.3674   1.3679   1.3752   1.3829   3.4074
     3.4322   3.4399   3.4698   3.6965   3.7141   3.7860   3.8160   3.8328
     3.8851

     the Fermi energy is     2.2716 ev

!    total energy              =   -2965.10866871 Ry
     estimated scf accuracy    <       0.00000006 Ry
     smearing contrib. (-TS)   =      -0.00015920 Ry
     internal energy E=F+TS    =   -2965.10850950 Ry

     The total energy is F=E-TS. E is the sum of the following terms:
     one-electron contribution =  -24222.48866529 Ry
     hartree contribution      =   12200.57682245 Ry
     xc contribution           =    -490.02458200 Ry
     ewald contribution        =    9546.82736534 Ry
     electric field correction =       0.00055000 Ry

     convergence has been achieved in  73 iterations

     Forces acting on atoms (cartesian axes, Ry/au):

     atom    1 type  1   force =    -0.00002148    0.00003300    0.13235950
     atom    2 type  1   force =    -0.00019370    0.00777789   -0.15737938
     atom    3 type  2   force =     0.00008502   -0.00480585   -0.05218461
     atom    4 type  2   force =     0.00035912    0.00109449    0.04044150
     atom    5 type  2   force =    -0.00611219   -0.00278451   -0.00018982
     atom    6 type  2   force =     0.00839997   -0.00338348    0.00078923
     atom    7 type  1   force =    -0.00002555   -0.00015210   -0.00001028
     atom    8 type  1   force =     0.00020685   -0.00056686    0.00041247
     atom    9 type  2   force =    -0.00004471    0.00019756   -0.00002661
     atom   10 type  2   force =    -0.00014494   -0.00037924   -0.00016669
     atom   11 type  2   force =     0.00043163    0.00026739   -0.00018813
     atom   12 type  2   force =    -0.00026554    0.00016529   -0.00005061
     atom   13 type  1   force =    -0.00069091    0.00048596   -0.00029133
     atom   14 type  1   force =     0.00007248   -0.00030846   -0.00022061
     atom   15 type  2   force =    -0.00021316    0.00002871   -0.00077089
     atom   16 type  2   force =    -0.00032398    0.00013424    0.00017110
     atom   17 type  2   force =     0.00009180    0.00001186    0.00001930
     atom   18 type  2   force =    -0.00066691    0.00024051   -0.00022827
     atom   19 type  1   force =    -0.00000823   -0.00043478   -0.00013727
     atom   20 type  1   force =     0.00002821   -0.00026375    0.00019617
     atom   21 type  2   force =    -0.00002473    0.00002050    0.09911432
     atom   22 type  2   force =    -0.00005550    0.00010767    0.00016844
     atom   23 type  2   force =    -0.08090127    0.00049116   -0.03408587
     atom   24 type  2   force =     0.08070294    0.00095620   -0.03414830
     atom   25 type  1   force =    -0.00001470   -0.00027551    0.14098187
     atom   26 type  1   force =    -0.00013646   -0.00646923   -0.15703187
     atom   27 type  2   force =     0.00016314    0.00109295   -0.05218244
     atom   28 type  2   force =     0.00018857    0.00033571    0.04177051
     atom   29 type  2   force =    -0.00752818    0.00512372    0.00202273
     atom   30 type  2   force =     0.00859880    0.00383097    0.00272489
     atom   31 type  1   force =    -0.00002282    0.00016873    0.00001535
     atom   32 type  1   force =     0.00030136   -0.00006124   -0.00050522
     atom   33 type  2   force =    -0.00005878    0.00039617    0.00023182
     atom   34 type  2   force =    -0.00011965    0.00019683    0.00039179
     atom   35 type  2   force =    -0.00049551   -0.00034555   -0.00006896
     atom   36 type  2   force =     0.00047937   -0.00043592    0.00016277
     atom   37 type  1   force =    -0.00056082   -0.00029827   -0.00010258
     atom   38 type  1   force =     0.00001100   -0.00005206   -0.00046426
     atom   39 type  2   force =    -0.00002210   -0.00013672   -0.00023274
     atom   40 type  2   force =    -0.00013674   -0.00014241   -0.00038010
     atom   41 type  2   force =    -0.00005193    0.00009493   -0.00040846
     atom   42 type  2   force =    -0.00004686    0.00029174   -0.00023215
     atom   43 type  1   force =    -0.00063513    0.00043409    0.00037331
     atom   44 type  1   force =     0.00004242   -0.00036684    0.00026991
     atom   45 type  2   force =    -0.00003063    0.00012532    0.09867406
     atom   46 type  2   force =    -0.08086234   -0.00164556   -0.03408376
     atom   47 type  2   force =     0.08066931   -0.00117579   -0.03415082
     atom   48 type  3   force =    -0.00010621    0.00032599   -0.00019880
     atom   49 type  2   force =     0.00006363    0.00027413   -0.00068581
     atom   50 type  4   force =    -0.00042018    0.00019001   -0.00004924
     atom   51 type  4   force =     0.00011453   -0.00006529    0.00015927
     atom   52 type  4   force =    -0.00007245    0.00040804    0.00026276
     atom   53 type  2   force =    -0.00616863    0.00054653    0.00193250
     atom   54 type  4   force =     0.00617279   -0.00129887   -0.00278970

     Total force =     0.382769     Total SCF correction =     0.000815
  @ DRIVER MODE: Message from server: STATUS
  @ DRIVER MODE: Message from server: GETFORCE
  @ DRIVER MODE: Returning v,forces,stress,ensemble

     Writing output data file ./calc.save/
  @ DRIVER MODE: Message from server: EXIT
  @ DRIVE MODE: Exiting

     General routines

     Parallel routines

   This run was terminated on:   5:51:44  23Sep2021

   JOB DONE.