     Program PWSCF v.6.7GPU starts on 19Oct2021 at 10:13:52

     R & G space division:  proc/nbgrp/npool/nimage =       8
     Reading input from /storage/home/hcoda1/3/ntian30/research/carbon/CxH_vib/Thiel_calc/ads_slab/NH2NH2HH_perslab/out_0046/pw.inp
Warning: card &CELL ignored
Warning: card   CELL_DYNAMICS='IPI', ignored
Warning: card / ignored

     Current dimensions of program PWSCF are:
     Max number of different atomic species (ntypx) = 10
     Max number of k-points (npk) =  40000
     Max angular momentum in pseudopotentials (lmaxx) =  3
     Presently no symmetry can be used with electric field

     Message from routine cell_base_init:
     DEPRECATED: use true lattice parameter, not A to a.u. conversion factor

     IMPORTANT: XC functional enforced from input :
     Exchange-correlation= BEEF-VDW
                           (   1   4  43  14   2   0   0)
     Any further DFT definition will be discarded
     Please, verify this is what you really want

  @ DRIVER MODE: Connecting to
 qe_1139763_3255137.sched-torque.pace.gatech.eduuhq7_055_scratch
  using UNIX socket
  @ DRIVER MODE: Message from server: STATUS
  @ DRIVER MODE: Message from server: INIT
  @ DRIVER MODE: Receiving replica           0          -1
  @ DRIVER MODE: Receiving encoded integer          25
  @ DRIVER MODE:  SCF:  T  FORCE:  T  STRESS:  F  VC:  F  ENSEMBLE:  F
  @ DRIVER MODE:  SCF:  T  FORCE:  T  STRESS:  F  VC:  F  ENSEMBLE:  F

     Using Slab Decomposition

     bravais-lattice index     =            0
     lattice parameter (alat)  =       1.8897  a.u.
     unit-cell volume          =    9988.4706 (a.u.)^3
     number of atoms/cell      =           61
     number of atomic types    =            4
     number of electrons       =       442.00
     number of Kohn-Sham states=          231
     kinetic-energy cutoff     =      29.3995  Ry
     charge density cutoff     =     293.9946  Ry
     scf convergence threshold =      7.3E-08
     mixing beta               =       0.0500
     number of iterations used =            8  plain     mixing
     Exchange-correlation= BEEF-VDW
                           (   1   4  43  14   2   0   0)

     celldm(1)=   1.889726  celldm(2)=   0.000000  celldm(3)=   0.000000
     celldm(4)=   0.000000  celldm(5)=   0.000000  celldm(6)=   0.000000

     crystal axes: (cart. coord. in units of alat)
               a(1) = (   6.579727   0.000000   0.000000 )
               a(2) = (  -0.001163   8.942395   0.000000 )
               a(3) = (   0.000000   0.000000  25.155947 )

     reciprocal axes: (cart. coord. in units 2 pi/alat)
               b(1) = (  0.151982  0.000020  0.000000 )
               b(2) = (  0.000000  0.111827  0.000000 )
               b(3) = (  0.000000  0.000000  0.039752 )

     PseudoPot. # 1 for O  read from file:
     /storage/coda1/p-amedford6/0/shared/rich_project_chbe-medford/medford-share/data/pseudos_module/espresso/nninc/pbe/van/O.UPF
     MD5 check sum: 78c19812648e8988a0fe644b0f25305e
     Pseudo is Ultrasoft, Zval =  6.0
     Generated by new atomic code, or converted to UPF format
     Using radial grid of  737 points,  4 beta functions with:
                l(1) =   0
                l(2) =   0
                l(3) =   1
                l(4) =   1
     Q(r) pseudized with  8 coefficients,  rinner =    0.800   0.800   0.800

     PseudoPot. # 2 for Ti read from file:
     /storage/coda1/p-amedford6/0/shared/rich_project_chbe-medford/medford-share/data/pseudos_module/espresso/nninc/pbe/van/Ti.UPF
     MD5 check sum: 8e4df49b7f0d34bbd5052bf3f5ea0213
     Pseudo is Ultrasoft, Zval = 12.0
     Generated by new atomic code, or converted to UPF format
     Using radial grid of  851 points,  6 beta functions with:
                l(1) =   0
                l(2) =   0
                l(3) =   1
                l(4) =   1
                l(5) =   2
                l(6) =   2
     Q(r) pseudized with  8 coefficients,  rinner =    1.000   1.000   1.000
                                                       1.000   1.000

     PseudoPot. # 3 for N  read from file:
     /storage/coda1/p-amedford6/0/shared/rich_project_chbe-medford/medford-share/data/pseudos_module/espresso/nninc/pbe/van/N.UPF
     MD5 check sum: 90d10febe142ad51ac9d5be1deb811c4
     Pseudo is Ultrasoft, Zval =  5.0
     Generated by new atomic code, or converted to UPF format
     Using radial grid of  729 points,  4 beta functions with:
                l(1) =   0
                l(2) =   0
                l(3) =   1
                l(4) =   1
     Q(r) pseudized with  8 coefficients,  rinner =    0.800   0.800   0.800

     PseudoPot. # 4 for H  read from file:
     /storage/coda1/p-amedford6/0/shared/rich_project_chbe-medford/medford-share/data/pseudos_module/espresso/nninc/pbe/van/H.UPF
     MD5 check sum: b5ee9d7bfd3a09ee7748110bda690ff7
     Pseudo is Ultrasoft, Zval =  1.0
     Generated by new atomic code, or converted to UPF format
     Using radial grid of  615 points,  1 beta functions with:
                l(1) =   0
     Q(r) pseudized with  8 coefficients,  rinner =    0.800

     atomic species   valence    mass     pseudopotential
        O1             6.00    15.99900     O ( 1.00)
        Ti1           12.00    47.86700     Ti( 1.00)
        N1             5.00    14.00700     N ( 1.00)
        H1             1.00     1.00800     H ( 1.00)

     No symmetry found

   Cartesian axes

     site n.     atom                  positions (alat units)
         1           O1  tau(   1) = (   0.0007354   0.0005023  10.5931620  )
         2           O1  tau(   2) = (   3.2456387   0.0208629  13.8623892  )
         3           O1  tau(   3) = (   6.5569189   0.0555649  17.3369326  )
         4           O1  tau(   4) = (   0.0006271   0.0005054   7.9858123  )
         5           O1  tau(   5) = (   3.2933513   8.9300833  11.1812556  )
         6           O1  tau(   6) = (   0.0337597   0.0712708  14.6279364  )
         7           O1  tau(   7) = (   1.9868534   1.4903216   9.2879459  )
         8           O1  tau(   8) = (   5.2215124   1.6184176  12.5791628  )
         9           O1  tau(   9) = (   1.9922958   1.5902288  16.0980526  )
        10           Ti1 tau(  10) = (   0.0007404   1.4906270   9.2895810  )
        11           Ti1 tau(  11) = (   3.2860490   1.3455809  12.4359399  )
        12           Ti1 tau(  12) = (   6.5618936   1.3602716  15.8812525  )
        13           O1  tau(  13) = (   4.5942328   1.4918067   9.2879030  )
        14           O1  tau(  14) = (   1.3307156   1.5887400  12.5381291  )
        15           O1  tau(  15) = (   4.5725103   1.6118788  16.0006659  )
        16           Ti1 tau(  16) = (   3.2902859   2.9801868   9.2893338  )
        17           Ti1 tau(  17) = (   0.0046584   2.8227806  12.4510757  )
        18           Ti1 tau(  18) = (   3.2555632   2.8898243  15.6661830  )
        19           O1  tau(  19) = (   0.0003479   2.9813005  10.5931620  )
        20           O1  tau(  20) = (   3.2279248   2.9553539  13.8813459  )
        21           O1  tau(  21) = (   0.0002396   2.9813036   7.9858123  )
        22           O1  tau(  22) = (   3.2889556   2.9859946  11.1941525  )
        23           O1  tau(  23) = (   0.0559812   2.9852445  14.6488683  )
        24           O1  tau(  24) = (   1.9864658   4.4711199   9.2879459  )
        25           O1  tau(  25) = (   5.2314886   4.5920767  12.6107679  )
        26           O1  tau(  26) = (   1.9969377   4.5324570  16.1535429  )
        27           Ti1 tau(  27) = (   0.0003529   4.4714252   9.2895810  )
        28           Ti1 tau(  28) = (   3.2845268   4.3564118  12.5295435  )
        29           Ti1 tau(  29) = (   6.5676402   4.3565080  15.8255799  )
        30           O1  tau(  30) = (   4.5938453   4.4726049   9.2879030  )
        31           O1  tau(  31) = (   1.3315080   4.5776727  12.5731030  )
        32           O1  tau(  32) = (   4.5871741   4.4544688  15.9274438  )
        33           Ti1 tau(  33) = (   3.2898983   5.9609850   9.2893338  )
        34           Ti1 tau(  34) = (   6.5783773   5.8108302  12.4536689  )
        35           Ti1 tau(  35) = (   3.3162440   5.8110762  16.0333210  )
        36           O1  tau(  36) = (  -0.0000397   5.9620987  10.5931620  )
        37           O1  tau(  37) = (   3.2636778   5.9869953  13.9790019  )
        38           O1  tau(  38) = (   6.4104969   6.0475349  17.2872242  )
        39           O1  tau(  39) = (  -0.0001480   5.9621018   7.9858123  )
        40           O1  tau(  40) = (   3.2905218   5.9516507  11.2202175  )
        41           O1  tau(  41) = (   0.0617018   5.9803669  14.6637187  )
        42           O1  tau(  42) = (   1.9860782   7.4519181   9.2879459  )
        43           O1  tau(  43) = (   5.2407037   7.5572870  12.6049163  )
        44           O1  tau(  44) = (   1.9881273   7.5959696  16.0809372  )
        45           Ti1 tau(  45) = (  -0.0000347   7.4522234   9.2895810  )
        46           Ti1 tau(  46) = (   3.2912638   7.2305267  12.6172466  )
        47           Ti1 tau(  47) = (   0.0232661   7.3094817  15.9177444  )
        48           O1  tau(  48) = (   4.5934577   7.4534031   9.2879030  )
        49           O1  tau(  49) = (   1.3287160   7.5404973  12.5734398  )
        50           O1  tau(  50) = (   4.6507959   7.6754627  15.9163669  )
        51           Ti1 tau(  51) = (   3.2895107   8.9417832   9.2893338  )
        52           Ti1 tau(  52) = (   0.0077981   8.7799231  12.4640552  )
        53           Ti1 tau(  53) = (   3.2910717   8.8534038  15.6608489  )
        54           N1  tau(  54) = (   3.7626148   6.0985185  18.0019073  )
        55           H1  tau(  55) = (   3.4663780   5.3841571  18.6619304  )
        56           H1  tau(  56) = (   3.5565419   6.9988739  18.4208443  )
        57           N1  tau(  57) = (   6.5319303   3.0529623  17.4095181  )
        58           H1  tau(  58) = (   5.7013393   3.0140474  17.9904383  )
        59           H1  tau(  59) = (   0.7603229   3.1006543  18.0203722  )
        60           H1  tau(  60) = (   5.4974376   6.0468821  17.7423635  )
        61           H1  tau(  61) = (   0.7324116   0.0779216  17.9402240  )

     number of k points=    10  Fermi-Dirac smearing, width (Ry)=  0.0073
                       cart. coord. in units 2pi/alat
        k(    1) = (   0.0000000   0.0000000   0.0000000), wk =   0.1250000
        k(    2) = (   0.0000000   0.0279567   0.0000000), wk =   0.2500000
        k(    3) = (   0.0000000  -0.0559134   0.0000000), wk =   0.1250000
        k(    4) = (   0.0379955   0.0000049   0.0000000), wk =   0.2500000
        k(    5) = (   0.0379955   0.0279617   0.0000000), wk =   0.2500000
        k(    6) = (   0.0379955  -0.0559085   0.0000000), wk =   0.2500000
        k(    7) = (   0.0379955  -0.0279518   0.0000000), wk =   0.2500000
        k(    8) = (  -0.0759910  -0.0000099   0.0000000), wk =   0.1250000
        k(    9) = (  -0.0759910   0.0279468   0.0000000), wk =   0.2500000
        k(   10) = (  -0.0759910  -0.0559233   0.0000000), wk =   0.1250000

     Initial potential from superposition of free atoms

     starting charge  423.99908, renormalised to  442.00000

     negative rho (up, down):  3.745E-02 0.000E+00

     %%%%%%%%%%%%%%%%%%%%%%%%%%%%%%%%%%%%%%%%%%%%%%%%%%%%%%%%%%%%%%%%%%%%%%%%
     %                                                                      %
     % You are using vdW-DF, which was implemented by the Thonhauser group. %
     % Please cite the following two papers that made this development      %
     % possible and the two reviews that describe the various versions:     %
     %                                                                      %
     %   T. Thonhauser et al., PRL 115, 136402 (2015).                      %
     %   T. Thonhauser et al., PRB 76, 125112 (2007).                       %
     %   K. Berland et al., Rep. Prog. Phys. 78, 066501 (2015).             %
     %   D.C. Langreth et al., J. Phys.: Condens. Matter 21, 084203 (2009). %
     %                                                                      %
     %                                                                      %
     % If you are calculating the stress with vdW-DF, please also cite:     %
     %                                                                      %
     %   R. Sabatini et al., J. Phys.: Condens. Matter 24, 424209 (2012).   %
     %                                                                      %
     %%%%%%%%%%%%%%%%%%%%%%%%%%%%%%%%%%%%%%%%%%%%%%%%%%%%%%%%%%%%%%%%%%%%%%%%

     Adding external electric field

     Computed dipole along edir(3) :
        Dipole               -5.9687 Ry au,        -15.1708 Debye
        Dipole field         -0.0075 Ry au,

        Potential amp.        0.6961 Ry
        Total length         46.3494 bohr

     Starting wfcs are  334 atomic wfcs
  @ DRIVER MODE: Message from server: STATUS
  @ DRIVER MODE: Message from server: POSDATA
  @ DRIVER MODE: Reading and sharing cell
  @ DRIVER MODE: Reading and sharing positions
  @ DRIVER MODE: Received positions

     Self-consistent Calculation

     iteration #  1     ecut=    29.40 Ry     beta= 0.05
     Davidson diagonalization with overlap
     c_bands:  1 eigenvalues not converged
     c_bands:  3 eigenvalues not converged
     c_bands:  5 eigenvalues not converged
     c_bands:  2 eigenvalues not converged
     c_bands:  4 eigenvalues not converged
     c_bands:  4 eigenvalues not converged
     c_bands:  4 eigenvalues not converged
     c_bands:  2 eigenvalues not converged
     c_bands:  5 eigenvalues not converged
     ethr =  1.00E-05,  avg # of iterations = 21.0

[...]

     total energy              =   -3277.93395850 Ry
     estimated scf accuracy    <     239.61708329 Ry

     iteration #  2     ecut=    29.40 Ry     beta= 0.05
     Davidson diagonalization with overlap
     ethr =  1.00E-02,  avg # of iterations = 16.8

[...]

     iteration # 28     ecut=    29.40 Ry     beta= 0.05
     Davidson diagonalization with overlap
     c_bands:  1 eigenvalues not converged
     ethr =  1.53E-07,  avg # of iterations = 16.5

[...]

     total energy              =   -3295.80744002 Ry
     estimated scf accuracy    <       0.00000008 Ry

     iteration # 48     ecut=    29.40 Ry     beta= 0.05
     Davidson diagonalization with overlap
     ethr =  1.72E-11,  avg # of iterations =  8.3

     negative rho (up, down):  3.606E-02 0.000E+00

     Adding external electric field

     Computed dipole along edir(3) :
        Dipole                1.5096 Ry au,          3.8370 Debye
        Dipole field          0.0019 Ry au,

        Potential amp.       -0.1761 Ry
        Total length         46.3494 bohr

     End of self-consistent calculation

          k = 0.0000 0.0000 0.0000 ( 26871 PWs)   bands (ev):

   -57.7250 -57.6994 -57.6889 -57.6622 -57.6538 -57.6204 -57.6064 -57.5987
   -57.5708 -57.5578 -57.5084 -57.4778 -57.4616 -57.4551 -57.4471 -56.7468
   -56.7227 -56.7182 -34.1066 -34.1035 -34.0947 -34.0858 -34.0734 -34.0570
   -34.0562 -34.0422 -34.0290 -34.0177 -33.9878 -33.9696 -33.9500 -33.9439
   -33.9361 -33.9178 -33.9122 -33.9110 -33.8926 -33.8874 -33.8655 -33.8632
   -33.8429 -33.8332 -33.8292 -33.8231 -33.8122 -33.8103 -33.8048 -33.7953
   -33.7839 -33.7819 -33.7677 -33.7322 -33.7229 -33.7188 -33.7042 -33.7033
   -33.6957 -33.6947 -33.6834 -33.6749 -33.6681 -33.6623 -33.6398 -33.0621
   -33.0610 -33.0565 -33.0450 -33.0408 -32.9729 -32.9109 -32.9056 -32.7727
   -19.3024 -18.7603 -18.5257 -18.2272 -18.0165 -17.9741 -17.9411 -17.8198
   -17.7842 -17.7602 -17.6627 -17.6512 -17.5879 -17.5342 -17.5060 -17.4573
   -17.4395 -17.3788 -17.3648 -17.3564 -17.3511 -17.3410 -17.3307 -17.2651
   -17.2382 -17.2101 -17.1710 -17.1553 -17.1488 -17.1413 -17.1188 -16.8462
   -15.5035 -15.2133 -15.1552 -15.1539 -15.0825  -6.9854  -6.8143  -6.6480
    -6.3413  -5.8605  -5.7869  -5.6375  -5.5136  -5.2215  -5.1940  -5.1423
    -5.1156  -5.0869  -5.0221  -5.0021  -4.9890  -4.9336  -4.9163  -4.8437
    -4.8209  -4.7790  -4.7556  -4.7298  -4.6852  -4.6446  -4.6176  -4.6055
    -4.5749  -4.5675  -4.5109  -4.4872  -4.4578  -4.4523  -4.4360  -4.3266
    -4.2936  -4.2379  -4.1691  -4.0933  -4.0394  -4.0317  -3.9749  -3.9557
    -3.9029  -3.8627  -3.8266  -3.8176  -3.7810  -3.7425  -3.6442  -3.6106
    -3.5883  -3.5224  -3.5004  -3.4314  -3.4142  -3.3807  -3.3393  -3.3334
    -3.2964  -3.1986  -3.1643  -3.0841  -3.0278  -2.9740  -2.9349  -2.8901
    -2.8439  -2.8107  -2.7855  -2.7033  -2.6277  -2.5437  -2.4934  -2.4806
    -2.4688  -2.4183  -2.4115  -2.4087  -2.3518  -2.3255  -2.3150  -2.2775
    -2.2256  -2.2032  -2.1409  -2.0965  -2.0609  -1.9933  -1.9777  -1.8969
    -1.8879  -1.8268  -1.7838  -1.7443  -1.6327  -1.5979  -1.5655  -1.5629
    -1.4441  -1.4078  -1.1461  -1.0047  -0.7865  -0.7539  -0.5004  -0.4515
    -0.4487  -0.1858  -0.1824  -0.0541   1.3220   1.5107   1.6443   1.6998
     1.7048   1.7381   1.8044   1.8909   1.9161   1.9634   2.0303

[...]

          k = 0.0380-0.0280 0.0000 ( 26873 PWs)   bands (ev):

[...]

          k =-0.0760-0.0000 0.0000 ( 26902 PWs)   bands (ev):

[...]

          k =-0.0760-0.0559 0.0000 ( 26868 PWs)   bands (ev):

   -57.7214 -57.7070 -57.6847 -57.6610 -57.6538 -57.6211 -57.6077 -57.5984
   -57.5702 -57.5576 -57.5087 -57.4728 -57.4653 -57.4611 -57.4424 -56.7406
   -56.7353 -56.7118 -34.1940 -34.1568 -34.1541 -34.0947 -34.0604 -34.0528
   -34.0419 -34.0393 -34.0018 -33.9680 -33.9340 -33.9203 -33.9150 -33.9135
   -33.9025 -33.9003 -33.8805 -33.8733 -33.8686 -33.8686 -33.8645 -33.8592
   -33.8540 -33.8458 -33.8315 -33.8266 -33.8239 -33.8189 -33.8146 -33.7937
   -33.7929 -33.7706 -33.7638 -33.7564 -33.7506 -33.7322 -33.7260 -33.7207
   -33.7008 -33.7007 -33.6986 -33.6953 -33.6862 -33.6679 -33.6512 -33.1509
   -33.0618 -33.0566 -33.0342 -32.9544 -32.9485 -32.8868 -32.8722 -32.8669
   -19.2889 -18.7345 -18.2721 -18.1353 -17.9637 -17.9220 -17.8480 -17.8350
   -17.8232 -17.7937 -17.7018 -17.6784 -17.6525 -17.5691 -17.5501 -17.5004
   -17.4566 -17.4433 -17.4251 -17.4142 -17.4060 -17.3893 -17.3554 -17.3234
   -17.2905 -17.2389 -17.1769 -17.1580 -17.1095 -17.0947 -17.0641 -16.8799
   -15.4982 -15.2113 -15.2092 -15.0925 -15.0838  -6.9902  -6.8460  -6.6401
    -6.3227  -5.5172  -5.4541  -5.3708  -5.3562  -5.2385  -5.2062  -5.0139
    -5.0043  -4.9898  -4.9576  -4.9256  -4.8895  -4.8627  -4.8385  -4.8250
    -4.8112  -4.7898  -4.7640  -4.7521  -4.7357  -4.6913  -4.6447  -4.6385
    -4.6274  -4.6049  -4.5506  -4.5056  -4.4780  -4.4253  -4.4222  -4.3417
    -4.3181  -4.3002  -4.2258  -4.2178  -4.0968  -3.9485  -3.8873  -3.8672
    -3.8432  -3.7948  -3.7860  -3.7334  -3.7107  -3.6934  -3.5553  -3.4745
    -3.4506  -3.4160  -3.3847  -3.3618  -3.3258  -3.2989  -3.2765  -3.2511
    -3.2350  -3.1821  -3.1658  -3.1230  -3.0803  -2.9992  -2.9546  -2.8970
    -2.8739  -2.8554  -2.8371  -2.8334  -2.8129  -2.7802  -2.7511  -2.6957
    -2.6862  -2.6560  -2.5842  -2.5298  -2.5018  -2.4770  -2.4350  -2.4279
    -2.2730  -2.2539  -2.2200  -2.2084  -2.1349  -2.0913  -1.9998  -1.9733
    -1.9508  -1.8792  -1.8075  -1.7641  -1.7079  -1.5112  -1.5025  -1.3834
    -1.3467  -1.2978  -1.2723  -1.2306  -1.0694  -0.7342  -0.6628  -0.3796
    -0.3684  -0.3424  -0.1870  -0.1807   1.4291   1.4528   1.5383   1.5942
     1.6130   1.6507   1.6635   1.7026   1.7231   1.7796   1.9153

     the Fermi energy is     1.3729 ev

!    total energy              =   -3295.80757553 Ry
     estimated scf accuracy    <       0.00000003 Ry
     smearing contrib. (-TS)   =      -0.03571568 Ry
     internal energy E=F+TS    =   -3295.77185985 Ry

     The total energy is F=E-TS. E is the sum of the following terms:
     one-electron contribution =  -34705.76868848 Ry
     hartree contribution      =   17418.79813456 Ry
     xc contribution           =    -543.86508042 Ry
     ewald contribution        =   14535.06090744 Ry
     electric field correction =       0.00286705 Ry

     convergence has been achieved in  48 iterations

     Forces acting on atoms (cartesian axes, Ry/au):

     atom    1 type  1   force =    -0.00168732    0.00376784    0.05471449
     atom    2 type  1   force =     0.00024430   -0.00249832   -0.00841850
     atom    3 type  1   force =     0.00068453   -0.00299318    0.00056893
     atom    4 type  1   force =     0.00004615   -0.00003323    0.10678942
     atom    5 type  1   force =    -0.00020395    0.00066894    0.00658950
     atom    6 type  1   force =     0.00001461   -0.00443448    0.00381419
     atom    7 type  1   force =     0.06649288    0.00079652   -0.02967092
     atom    8 type  1   force =     0.00659741   -0.02712925    0.00194882
     atom    9 type  1   force =     0.00659006   -0.02259475    0.00521275
     atom   10 type  2   force =    -0.00012030   -0.00450740   -0.18344517
     atom   11 type  2   force =     0.00067283    0.02087727   -0.00413144
     atom   12 type  2   force =    -0.00195033    0.02772927   -0.00695397
     atom   13 type  1   force =    -0.06655127    0.00044826   -0.02981775
     atom   14 type  1   force =    -0.00434186   -0.02770468    0.00253383
     atom   15 type  1   force =    -0.00663678   -0.02333447    0.00500950
     atom   16 type  2   force =     0.00008525    0.00069949    0.06698665
     atom   17 type  2   force =    -0.00237803    0.03352200    0.00351326
     atom   18 type  2   force =     0.00134529    0.02459872   -0.00368792
     atom   19 type  1   force =    -0.00169833    0.00675349    0.05326382
     atom   20 type  1   force =     0.00023515   -0.00116731   -0.00659875
     atom   21 type  1   force =     0.00003451    0.00109943    0.10725370
     atom   22 type  1   force =    -0.00025286   -0.00198310    0.00722611
     atom   23 type  1   force =     0.00071419   -0.00576324    0.00416818
     atom   24 type  1   force =     0.06752586    0.00137823   -0.02907127
     atom   25 type  1   force =     0.00528761   -0.03015876    0.00244745
     atom   26 type  1   force =     0.00675400   -0.02610504   -0.00414300
     atom   27 type  2   force =     0.00011555   -0.00121259   -0.18672294
     atom   28 type  2   force =     0.00007677    0.02386100   -0.00247698
     atom   29 type  2   force =    -0.00112861    0.02218183    0.00081573
     atom   30 type  1   force =    -0.06762916    0.00087484   -0.02892246
     atom   31 type  1   force =    -0.00538132   -0.02962035    0.00278914
     atom   32 type  1   force =    -0.00429989   -0.02249524    0.00258440
     atom   33 type  2   force =    -0.00004964    0.00129908    0.07476194
     atom   34 type  2   force =     0.00093192    0.03692581    0.00406670
     atom   35 type  2   force =    -0.00218414    0.03480840    0.00502681
     atom   36 type  1   force =    -0.00186582    0.00287575    0.05589219
     atom   37 type  1   force =     0.00132834    0.00401670   -0.01135244
     atom   38 type  1   force =     0.00013667   -0.00412176    0.00412950
     atom   39 type  1   force =     0.00002205   -0.00063743    0.10726799
     atom   40 type  1   force =     0.00015704   -0.00141134    0.00716050
     atom   41 type  1   force =    -0.00024734   -0.00394938    0.00187751
     atom   42 type  1   force =     0.06785670   -0.00221816   -0.02970961
     atom   43 type  1   force =     0.00369715   -0.02636181    0.00152677
     atom   44 type  1   force =     0.01008540   -0.01798240    0.00257964
     atom   45 type  2   force =     0.00002900    0.00217387   -0.18330833
     atom   46 type  2   force =    -0.00023600    0.01479232    0.00205714
     atom   47 type  2   force =     0.00315172    0.02641364   -0.00858984
     atom   48 type  1   force =    -0.06792296   -0.00284581   -0.02986245
     atom   49 type  1   force =    -0.00376385   -0.02550228    0.00182856
     atom   50 type  1   force =    -0.00786854   -0.02364668    0.00527997
     atom   51 type  2   force =     0.00045232   -0.00349056    0.06841871
     atom   52 type  2   force =    -0.00010454    0.03118418    0.00595130
     atom   53 type  2   force =    -0.00214709    0.02588125   -0.00056306
     atom   54 type  3   force =     0.00072703   -0.00197036   -0.00089428
     atom   55 type  4   force =    -0.00073705    0.00039699   -0.00050766
     atom   56 type  4   force =     0.00026958    0.00087930    0.00127323
     atom   57 type  3   force =     0.00133542   -0.00285645   -0.00020941
     atom   58 type  4   force =     0.00049157    0.00105784   -0.00006357
     atom   59 type  4   force =     0.00007267    0.00034008    0.00072242
     atom   60 type  4   force =    -0.00138721    0.00009951    0.00010509
     atom   61 type  4   force =    -0.00148733   -0.00167195    0.00096584

     Total force =     0.459552     Total SCF correction =     0.000439
  @ DRIVER MODE: Message from server: STATUS
  @ DRIVER MODE: Message from server: GETFORCE
  @ DRIVER MODE: Returning v,forces,stress,ensemble

     Writing output data file ./calc.save/
  @ DRIVER MODE: Message from server: EXIT
  @ DRIVE MODE: Exiting

     General routines

     Parallel routines

   This run was terminated on:  10:39:41  19Oct2021

   JOB DONE.