     Program PWSCF v.6.7GPU starts on 23Sep2021 at 15:53:16

     R & G space division:  proc/nbgrp/npool/nimage =       8
     Reading input from /storage/home/hcoda1/3/ntian30/research/carbon/CxH_vib/H2O_calc/ads_slab/CH2NNHHHO_a/out_0012/pw.inp
Warning: card &CELL ignored
Warning: card   CELL_DYNAMICS='IPI', ignored
Warning: card / ignored

     Current dimensions of program PWSCF are:
     Max number of different atomic species (ntypx) = 10
     Max number of k-points (npk) =  40000
     Max angular momentum in pseudopotentials (lmaxx) =  3
     Presently no symmetry can be used with electric field

     Message from routine cell_base_init:
     DEPRECATED: use true lattice parameter, not A to a.u. conversion factor

     IMPORTANT: XC functional enforced from input :
     Exchange-correlation= BEEF-VDW
                           (   1   4  43  14   2   0   0)
     Any further DFT definition will be discarded
     Please, verify this is what you really want

  @ DRIVER MODE: Connecting to
 qe_1139763_2947314.sched-torque.pace.gatech.edu1l7sr85y_scratch
  using UNIX socket
  @ DRIVER MODE: Message from server: STATUS
  @ DRIVER MODE: Message from server: INIT
  @ DRIVER MODE: Receiving replica           0          -1
  @ DRIVER MODE: Receiving encoded integer          25
  @ DRIVER MODE:  SCF:  T  FORCE:  T  STRESS:  F  VC:  F  ENSEMBLE:  F
  @ DRIVER MODE:  SCF:  T  FORCE:  T  STRESS:  F  VC:  F  ENSEMBLE:  F

     Using Slab Decomposition

     bravais-lattice index     =            0
     lattice parameter (alat)  =       1.8897  a.u.
     unit-cell volume          =    6658.9804 (a.u.)^3
     number of atoms/cell      =           56
     number of atomic types    =            5
     number of electrons       =       403.00
     number of Kohn-Sham states=          211
     kinetic-energy cutoff     =      29.3995  Ry
     charge density cutoff     =     293.9946  Ry
     scf convergence threshold =      7.3E-08
     mixing beta               =       0.0500
     number of iterations used =            8  plain     mixing
     Exchange-correlation= BEEF-VDW
                           (   1   4  43  14   2   0   0)

     celldm(1)=   1.889726  celldm(2)=   0.000000  celldm(3)=   0.000000
     celldm(4)=   0.000000  celldm(5)=   0.000000  celldm(6)=   0.000000

     crystal axes: (cart. coord. in units of alat)
               a(1) = (   6.579727   0.000000   0.000000 )
               a(2) = (  -0.000775   5.961596   0.000000 )
               a(3) = (   0.000000   0.000000  25.155947 )

     reciprocal axes: (cart. coord. in units 2 pi/alat)
               b(1) = (  0.151982  0.000020  0.000000 )
               b(2) = (  0.000000  0.167740  0.000000 )
               b(3) = (  0.000000  0.000000  0.039752 )

     PseudoPot. # 1 for Ti read from file:
     /storage/coda1/p-amedford6/0/shared/rich_project_chbe-medford/medford-share/data/pseudos_module/espresso/nninc/pbe/van/Ti.UPF
     MD5 check sum: 8e4df49b7f0d34bbd5052bf3f5ea0213
     Pseudo is Ultrasoft, Zval = 12.0
     Generated by new atomic code, or converted to UPF format
     Using radial grid of  851 points,  6 beta functions with:
                l(1) =   0
                l(2) =   0
                l(3) =   1
                l(4) =   1
                l(5) =   2
                l(6) =   2
     Q(r) pseudized with  8 coefficients,  rinner =    1.000   1.000   1.000
                                                       1.000   1.000

     PseudoPot. # 2 for O  read from file:
     /storage/coda1/p-amedford6/0/shared/rich_project_chbe-medford/medford-share/data/pseudos_module/espresso/nninc/pbe/van/O.UPF
     MD5 check sum: 78c19812648e8988a0fe644b0f25305e
     Pseudo is Ultrasoft, Zval =  6.0
     Generated by new atomic code, or converted to UPF format
     Using radial grid of  737 points,  4 beta functions with:
                l(1) =   0
                l(2) =   0
                l(3) =   1
                l(4) =   1
     Q(r) pseudized with  8 coefficients,  rinner =    0.800   0.800   0.800

     PseudoPot. # 3 for N  read from file:
     /storage/coda1/p-amedford6/0/shared/rich_project_chbe-medford/medford-share/data/pseudos_module/espresso/nninc/pbe/van/N.UPF
     MD5 check sum: 90d10febe142ad51ac9d5be1deb811c4
     Pseudo is Ultrasoft, Zval =  5.0
     Generated by new atomic code, or converted to UPF format
     Using radial grid of  729 points,  4 beta functions with:
                l(1) =   0
                l(2) =   0
                l(3) =   1
                l(4) =   1
     Q(r) pseudized with  8 coefficients,  rinner =    0.800   0.800   0.800

     PseudoPot. # 4 for C  read from file:
     /storage/coda1/p-amedford6/0/shared/rich_project_chbe-medford/medford-share/data/pseudos_module/espresso/nninc/pbe/van/C.UPF
     MD5 check sum: 1a69bf6b8db32088f5b2163dbdb77a27
     Pseudo is Ultrasoft, Zval =  4.0
     Generated by new atomic code, or converted to UPF format
     Using radial grid of  721 points,  4 beta functions with:
                l(1) =   0
                l(2) =   0
                l(3) =   1
                l(4) =   1
     Q(r) pseudized with  8 coefficients,  rinner =    0.800   0.800   0.800

     PseudoPot. # 5 for H  read from file:
     /storage/coda1/p-amedford6/0/shared/rich_project_chbe-medford/medford-share/data/pseudos_module/espresso/nninc/pbe/van/H.UPF
     MD5 check sum: b5ee9d7bfd3a09ee7748110bda690ff7
     Pseudo is Ultrasoft, Zval =  1.0
     Generated by new atomic code, or converted to UPF format
     Using radial grid of  615 points,  1 beta functions with:
                l(1) =   0
     Q(r) pseudized with  8 coefficients,  rinner =    0.800

     atomic species   valence    mass     pseudopotential
        Ti1           12.00    47.86700     Ti( 1.00)
        O1             6.00    15.99900     O ( 1.00)
        N1             5.00    14.00700     N ( 1.00)
        C1             4.00    12.01100     C ( 1.00)
        H1             1.00     1.00800     H ( 1.00)

     No symmetry found

   Cartesian axes

     site n.     atom                  positions (alat units)
         1           Ti1 tau(   1) = (   0.0004258   2.9801865   6.0000000  )
         2           Ti1 tau(   2) = (   3.2906075   1.4906267   6.0002472  )
         3           O1  tau(   3) = (   0.0006271   0.0005054   7.9858123  )
         4           O1  tau(   4) = (   3.2906025   0.0005020   7.3038282  )
         5           O1  tau(   5) = (   4.5942328   1.4918067   9.2879030  )
         6           O1  tau(   6) = (   1.9868534   1.4903216   9.2879459  )
         7           Ti1 tau(   7) = (   3.2907910   2.8959150   9.1758416  )
         8           Ti1 tau(   8) = (   0.0015273   1.4827037   9.2680791  )
         9           O1  tau(   9) = (   3.2834828   5.9254549  11.3560997  )
        10           O1  tau(  10) = (   0.0116148   5.9584955  10.6183126  )
        11           O1  tau(  11) = (   1.2632982   1.4794151  12.6467768  )
        12           O1  tau(  12) = (   5.2979234   1.4912170  12.6376735  )
        13           Ti1 tau(  13) = (   6.5593102   2.9584919  12.5255918  )
        14           Ti1 tau(  14) = (   3.2941082   1.2876829  12.7086691  )
        15           O1  tau(  15) = (   6.5459232   0.0848410  14.6672212  )
        16           O1  tau(  16) = (   3.2899079   0.0686032  13.9983899  )
        17           O1  tau(  17) = (   4.5347701   1.5447734  16.1667714  )
        18           O1  tau(  18) = (   1.9898569   1.5359154  16.1924900  )
        19           Ti1 tau(  19) = (   3.2532585   2.9792413  15.6887139  )
        20           Ti1 tau(  20) = (   6.5162390   1.4193964  16.0443711  )
        21           O1  tau(  21) = (   3.2904802   0.0005063   4.7018136  )
        22           O1  tau(  22) = (   6.5314393   5.8470953  17.1670503  )
        23           O1  tau(  23) = (   1.3043587   1.4918075   6.0039043  )
        24           O1  tau(  24) = (   5.2767064   1.4903225   6.0039473  )
        25           Ti1 tau(  25) = (   0.0000382   5.9609847   6.0000000  )
        26           Ti1 tau(  26) = (   3.2902200   4.4714249   6.0002472  )
        27           O1  tau(  27) = (   0.0002396   2.9813036   7.9858123  )
        28           O1  tau(  28) = (   3.2902150   2.9813002   7.3038282  )
        29           O1  tau(  29) = (   4.5938453   4.4726049   9.2879030  )
        30           O1  tau(  30) = (   1.9864658   4.4711199   9.2879459  )
        31           Ti1 tau(  31) = (   3.2891106   5.8743827   9.1763621  )
        32           Ti1 tau(  32) = (   0.0006254   4.4649316   9.2693709  )
        33           O1  tau(  33) = (   3.2801501   3.0037454  11.3162440  )
        34           O1  tau(  34) = (   0.0092240   2.9805883  10.6323155  )
        35           O1  tau(  35) = (   1.2628463   4.4620516  12.6871769  )
        36           O1  tau(  36) = (   5.2965349   4.4479299  12.6783795  )
        37           Ti1 tau(  37) = (   0.0245004   5.9521619  12.5031165  )
        38           Ti1 tau(  38) = (   3.2934334   4.3725749  12.4478892  )
        39           O1  tau(  39) = (   0.0012172   2.9324930  14.9038371  )
        40           O1  tau(  40) = (   3.2612729   2.9642313  13.9201381  )
        41           O1  tau(  41) = (   4.5459169   4.3864222  16.0774642  )
        42           O1  tau(  42) = (   2.0085495   4.4473877  16.1057765  )
        43           Ti1 tau(  43) = (   3.2275989   5.9528725  16.3079466  )
        44           Ti1 tau(  44) = (   6.5418721   4.6299905  15.7990834  )
        45           O1  tau(  45) = (   3.2900926   2.9813045   4.7018136  )
        46           O1  tau(  46) = (   1.3039711   4.4726057   6.0039043  )
        47           O1  tau(  47) = (   5.2763189   4.4711207   6.0039473  )
        48           N1  tau(  48) = (   6.5153795   2.7269917  18.1720481  )
        49           C1  tau(  49) = (   0.9714328   2.6352729  18.9276740  )
        50           H1  tau(  50) = (   0.9613011   2.9697384  19.9541300  )
        51           H1  tau(  51) = (   1.8619620   2.1844435  18.5121220  )
        52           N1  tau(  52) = (   5.3313596   3.1722530  18.7397816  )
        53           H1  tau(  53) = (   5.4931776   3.7097374  19.5894643  )
        54           H1  tau(  54) = (   4.8256156   3.7472006  18.0707398  )
        55           O1  tau(  55) = (   3.3867674   5.8992794  18.1610867  )
        56           H1  tau(  56) = (   4.0349165   0.5560778  18.5374839  )

     number of k points=    10  Fermi-Dirac smearing, width (Ry)=  0.0073
                       cart. coord. in units 2pi/alat
        k(    1) = (   0.0000000   0.0000000   0.0000000), wk =   0.1250000
        k(    2) = (   0.0000000   0.0419351   0.0000000), wk =   0.2500000
        k(    3) = (   0.0000000  -0.0838702   0.0000000), wk =   0.1250000
        k(    4) = (   0.0379955   0.0000049   0.0000000), wk =   0.2500000
        k(    5) = (   0.0379955   0.0419400   0.0000000), wk =   0.2500000
        k(    6) = (   0.0379955  -0.0838652   0.0000000), wk =   0.2500000
        k(    7) = (   0.0379955  -0.0419301   0.0000000), wk =   0.2500000
        k(    8) = (  -0.0759910  -0.0000099   0.0000000), wk =   0.1250000
        k(    9) = (  -0.0759910   0.0419252   0.0000000), wk =   0.2500000
        k(   10) = (  -0.0759910  -0.0838800   0.0000000), wk =   0.1250000

     Initial potential from superposition of free atoms

     starting charge  386.99914, renormalised to  403.00000

     negative rho (up, down):  1.546E-02 0.000E+00

     %%%%%%%%%%%%%%%%%%%%%%%%%%%%%%%%%%%%%%%%%%%%%%%%%%%%%%%%%%%%%%%%%%%%%%%%
     %                                                                      %
     % You are using vdW-DF, which was implemented by the Thonhauser group. %
     % Please cite the following two papers that made this development      %
     % possible and the two reviews that describe the various versions:     %
     %                                                                      %
     %   T. Thonhauser et al., PRL 115, 136402 (2015).                      %
     %   T. Thonhauser et al., PRB 76, 125112 (2007).                       %
     %   K. Berland et al., Rep. Prog. Phys. 78, 066501 (2015).             %
     %   D.C. Langreth et al., J. Phys.: Condens. Matter 21, 084203 (2009). %
     %                                                                      %
     %                                                                      %
     % If you are calculating the stress with vdW-DF, please also cite:     %
     %                                                                      %
     %   R. Sabatini et al., J. Phys.: Condens. Matter 24, 424209 (2012).   %
     %                                                                      %
     %%%%%%%%%%%%%%%%%%%%%%%%%%%%%%%%%%%%%%%%%%%%%%%%%%%%%%%%%%%%%%%%%%%%%%%%

     Adding external electric field

     Computed dipole along edir(3) :
        Dipole              -13.0260 Ry au,        -33.1087 Debye
        Dipole field         -0.0246 Ry au,

        Potential amp.        2.2787 Ry
        Total length         46.3494 bohr

     Starting wfcs are  305 atomic wfcs
  @ DRIVER MODE: Message from server: STATUS
  @ DRIVER MODE: Message from server: POSDATA
  @ DRIVER MODE: Reading and sharing cell
  @ DRIVER MODE: Reading and sharing positions
  @ DRIVER MODE: Received positions

     Self-consistent Calculation

     iteration #  1     ecut=    29.40 Ry     beta= 0.05
     Davidson diagonalization with overlap
     c_bands:  4 eigenvalues not converged
     c_bands:  5 eigenvalues not converged
     c_bands:  3 eigenvalues not converged
     c_bands:  1 eigenvalues not converged
     c_bands:  5 eigenvalues not converged
     c_bands:  2 eigenvalues not converged
     c_bands:  5 eigenvalues not converged
     ethr =  1.00E-05,  avg # of iterations = 28.6

[...]

     total energy              =   -2311.55500225 Ry
     estimated scf accuracy    <    7504.87296314 Ry

     iteration #  2     ecut=    29.40 Ry     beta= 0.05
     Davidson diagonalization with overlap
     ethr =  1.00E-02,  avg # of iterations = 24.4

[...]

     iteration # 61     ecut=    29.40 Ry     beta= 0.05
     Davidson diagonalization with overlap
     c_bands:  1 eigenvalues not converged
     ethr =  3.82E-08,  avg # of iterations = 14.8

[...]

     total energy              =   -2974.00135274 Ry
     estimated scf accuracy    <       0.00000008 Ry

     iteration # 76     ecut=    29.40 Ry     beta= 0.05
     Davidson diagonalization with overlap
     ethr =  2.11E-11,  avg # of iterations =  5.6

     negative rho (up, down):  1.592E-02 0.000E+00

     Adding external electric field

     Computed dipole along edir(3) :
        Dipole                1.0929 Ry au,          2.7780 Debye
        Dipole field          0.0021 Ry au,

        Potential amp.       -0.1912 Ry
        Total length         46.3494 bohr

     End of self-consistent calculation

          k = 0.0000 0.0000 0.0000 ( 18029 PWs)   bands (ev):

   -55.5938 -55.5285 -55.4944 -55.3774 -55.3715 -55.3552 -55.3411 -55.3286
   -55.3213 -55.2933 -55.2458 -55.1456 -55.1298 -55.0535 -54.4969 -54.4628
   -32.0128 -31.9309 -31.8955 -31.8627 -31.8581 -31.8231 -31.8193 -31.8052
   -31.7782 -31.7742 -31.7553 -31.6810 -31.6546 -31.6466 -31.6348 -31.6313
   -31.6194 -31.6094 -31.5860 -31.5858 -31.5792 -31.5518 -31.5411 -31.5358
   -31.5181 -31.5136 -31.5091 -31.4947 -31.4856 -31.4828 -31.4746 -31.4655
   -31.4654 -31.4421 -31.4196 -31.4010 -31.3422 -31.3345 -31.3018 -31.2914
   -31.2721 -31.2598 -30.9025 -30.8170 -30.7945 -30.7201 -30.6338 -30.5219
   -18.3612 -16.4365 -16.1651 -15.9979 -15.7853 -15.7053 -15.6666 -15.4736
   -15.3812 -15.3199 -15.0904 -15.0674 -15.0627 -15.0373 -15.0270 -15.0115
   -14.9945 -14.9551 -14.9464 -14.9378 -14.9142 -14.8995 -14.8675 -14.8155
   -14.7722 -14.7566 -14.6619 -14.5933 -14.5466 -14.3120 -14.2131 -13.4604
   -12.9950 -12.8787  -8.5765  -6.2548  -5.8576  -4.0355  -3.8341  -3.5270
    -3.4316  -3.4102  -3.3494  -3.2863  -3.0448  -2.9647  -2.8802  -2.8305
    -2.7593  -2.6442  -2.5949  -2.5248  -2.4538  -2.4443  -2.3970  -2.3677
    -2.3064  -2.2932  -2.2570  -2.2502  -2.1798  -2.1599  -2.0594  -2.0468
    -2.0320  -1.8977  -1.8844  -1.8420  -1.8342  -1.8341  -1.7954  -1.7766
    -1.7607  -1.7443  -1.6391  -1.6005  -1.5797  -1.5085  -1.4775  -1.1625
    -1.1281  -1.0979  -1.0653  -1.0133  -0.9622  -0.9393  -0.9164  -0.8516
    -0.8141  -0.7646  -0.7345  -0.6982  -0.6171  -0.5808  -0.5389  -0.4555
    -0.3814  -0.3065  -0.3014  -0.2569  -0.2290  -0.2029  -0.1043  -0.0789
    -0.0657   0.0337   0.0541   0.1292   0.1697   0.2129   0.2517   0.2993
     0.3642   0.3809   0.4069   0.4430   0.4505   0.5059   0.5263   0.5848
     0.6378   0.6527   0.7509   0.8088   0.8233   0.8430   0.9595   1.0287
     1.1477   1.1561   1.2568   1.4820   1.5300   1.5741   1.7233   2.0962
     2.1413   3.5581   3.7069   3.7235   3.7679   3.8146   3.8990   4.0450
     4.1077   4.2459   4.2622

[...]

          k = 0.0380-0.0419 0.0000 ( 17876 PWs)   bands (ev):

[...]

          k =-0.0760-0.0000 0.0000 ( 17886 PWs)   bands (ev):

[...]

          k =-0.0760-0.0839 0.0000 ( 17948 PWs)   bands (ev):

   -55.5930 -55.5116 -55.5111 -55.3702 -55.3641 -55.3542 -55.3383 -55.3379
   -55.3292 -55.2863 -55.2528 -55.1426 -55.1310 -55.0565 -54.4802 -54.4794
   -31.8765 -31.8283 -31.8280 -31.8261 -31.8142 -31.8050 -31.8046 -31.7979
   -31.7304 -31.6831 -31.6744 -31.6641 -31.6591 -31.6317 -31.6315 -31.6298
   -31.6275 -31.6132 -31.6108 -31.5958 -31.5835 -31.5741 -31.5644 -31.5538
   -31.5450 -31.5413 -31.5320 -31.5318 -31.5161 -31.5109 -31.5081 -31.5044
   -31.5040 -31.4760 -31.4719 -31.4135 -31.3947 -31.3708 -31.3447 -31.3382
   -31.3083 -31.2638 -30.8075 -30.8070 -30.7159 -30.7148 -30.6773 -30.6767
   -18.3582 -16.4210 -15.7460 -15.6205 -15.4955 -15.4912 -15.3705 -15.2929
   -15.2752 -15.2463 -15.2348 -15.2004 -15.1831 -15.1470 -15.1152 -15.0848
   -15.0447 -15.0239 -15.0104 -14.9712 -14.9604 -14.9433 -14.9337 -14.9108
   -14.8693 -14.8340 -14.8231 -14.6792 -14.6246 -14.5770 -14.4385 -13.4694
   -12.9808 -12.9804  -8.5534  -6.2209  -5.8757  -3.9895  -3.9077  -2.9713
    -2.9137  -2.8143  -2.7117  -2.6164  -2.5626  -2.5272  -2.4894  -2.4451
    -2.4228  -2.3727  -2.3316  -2.3116  -2.3030  -2.2703  -2.2616  -2.2464
    -2.2265  -2.2118  -2.1964  -2.1862  -2.1579  -2.1408  -2.1399  -2.1062
    -2.0949  -2.0674  -2.0592  -2.0068  -1.9089  -1.8803  -1.7869  -1.6870
    -1.6789  -1.6662  -1.6423  -1.6051  -1.5937  -1.5694  -1.5314  -1.4742
    -1.4643  -1.2984  -1.2453  -1.2198  -1.1415  -1.0856  -1.0553  -1.0275
    -0.9842  -0.9593  -0.8858  -0.8561  -0.7614  -0.7057  -0.6791  -0.6284
    -0.5433  -0.4792  -0.4707  -0.4654  -0.4375  -0.4152  -0.3888  -0.3602
    -0.3338  -0.2636  -0.2260  -0.2071  -0.1973  -0.1418  -0.0957   0.0066
     0.1332   0.2419   0.2586   0.2893   0.3279   0.4788   0.5227   0.5842
     0.6314   0.6625   0.6929   0.7862   0.7976   0.8809   0.9088   0.9512
     0.9902   1.0135   1.0458   1.0752   1.0840   1.8935   1.9008   1.9616
     1.9619   3.7762   4.0545   4.0794   4.0874   4.1034   4.1253   4.1400
     4.1609   4.2291   4.2366

     the Fermi energy is     3.5936 ev

!    total energy              =   -2974.00136740 Ry
     estimated scf accuracy    <       0.00000005 Ry
     smearing contrib. (-TS)   =      -0.01962651 Ry
     internal energy E=F+TS    =   -2973.98174089 Ry

     The total energy is F=E-TS. E is the sum of the following terms:
     one-electron contribution =  -23470.11134209 Ry
     hartree contribution      =   11830.49667922 Ry
     xc contribution           =    -494.06130207 Ry
     ewald contribution        =    9159.69196988 Ry
     electric field correction =       0.00225417 Ry

     convergence has been achieved in  76 iterations

     Forces acting on atoms (cartesian axes, Ry/au):

     atom    1 type  1   force =     0.00012701   -0.00019176    0.09455453
     atom    2 type  1   force =    -0.00003050    0.00034513   -0.17510706
     atom    3 type  2   force =    -0.00002557   -0.00002912   -0.02135737
     atom    4 type  2   force =     0.00001530   -0.00189353    0.05324214
     atom    5 type  2   force =    -0.00694645   -0.00239554    0.00356614
     atom    6 type  2   force =     0.00805696   -0.00193106    0.00204493
     atom    7 type  1   force =    -0.00070273   -0.00278112    0.01003574
     atom    8 type  1   force =     0.00060767    0.00276073    0.00502113
     atom    9 type  2   force =     0.00003210   -0.00046558    0.00022750
     atom   10 type  2   force =    -0.00253834   -0.00140706   -0.01077805
     atom   11 type  2   force =     0.00128630   -0.00017472    0.00055370
     atom   12 type  2   force =    -0.00081631   -0.00022670    0.00066051
     atom   13 type  1   force =    -0.00095417   -0.00096113    0.00048006
     atom   14 type  1   force =     0.00031768    0.00031917    0.00009975
     atom   15 type  2   force =     0.00011920    0.00031557   -0.00040001
     atom   16 type  2   force =    -0.00045816    0.00020137    0.00008926
     atom   17 type  2   force =    -0.00013307    0.00031083    0.00017555
     atom   18 type  2   force =     0.00098250   -0.00014960   -0.00022760
     atom   19 type  1   force =     0.00113116    0.00066642    0.00009078
     atom   20 type  1   force =    -0.00058911   -0.00001137    0.00011058
     atom   21 type  2   force =     0.00006446    0.00009756    0.10309179
     atom   22 type  2   force =     0.00056510    0.00071888    0.00048366
     atom   23 type  2   force =    -0.07211974   -0.00013642   -0.02733959
     atom   24 type  2   force =     0.07200569    0.00029485   -0.02733982
     atom   25 type  1   force =     0.00001822   -0.00014639    0.09405848
     atom   26 type  1   force =    -0.00015672   -0.00109160   -0.17520577
     atom   27 type  2   force =     0.00012230   -0.00024383   -0.02014338
     atom   28 type  2   force =    -0.00000280   -0.00026763    0.04931393
     atom   29 type  2   force =    -0.00564008    0.00192286    0.00158606
     atom   30 type  2   force =     0.00666629    0.00249390   -0.00001134
     atom   31 type  1   force =    -0.00072466    0.00677653   -0.00109571
     atom   32 type  1   force =     0.00050231   -0.00385271    0.00432603
     atom   33 type  2   force =     0.00016179   -0.00010709   -0.00081447
     atom   34 type  2   force =    -0.00187379    0.00170161   -0.01046464
     atom   35 type  2   force =     0.00117553    0.00029301   -0.00017574
     atom   36 type  2   force =    -0.00056624    0.00043372   -0.00026168
     atom   37 type  1   force =    -0.00064138    0.00045122   -0.00024958
     atom   38 type  1   force =     0.00055665    0.00013826    0.00013043
     atom   39 type  2   force =     0.00031827   -0.00040529    0.00037992
     atom   40 type  2   force =     0.00020553    0.00013380   -0.00037712
     atom   41 type  2   force =     0.00006502   -0.00013302   -0.00104735
     atom   42 type  2   force =     0.00038828   -0.00032391    0.00034974
     atom   43 type  1   force =     0.00008392   -0.00078490    0.00046358
     atom   44 type  1   force =    -0.00042192   -0.00011543    0.00021703
     atom   45 type  2   force =     0.00007671   -0.00006590    0.10287449
     atom   46 type  2   force =    -0.07216049   -0.00002491   -0.02734009
     atom   47 type  2   force =     0.07208134    0.00040982   -0.02737522
     atom   48 type  3   force =     0.00900207   -0.00024975    0.01004590
     atom   49 type  4   force =    -0.00364011   -0.00573430   -0.02470748
     atom   50 type  5   force =    -0.00065420    0.00284004    0.01066767
     atom   51 type  5   force =    -0.00360857    0.00215030    0.00387461
     atom   52 type  3   force =    -0.00099416   -0.00001991   -0.00035287
     atom   53 type  5   force =    -0.00023673   -0.00013147    0.00007951
     atom   54 type  5   force =    -0.00027921    0.00030336   -0.00054448
     atom   55 type  2   force =    -0.00015717    0.00086508    0.00004526
     atom   56 type  5   force =     0.00033699   -0.00049133   -0.00022396

     Total force =     0.363289     Total SCF correction =     0.000513
  @ DRIVER MODE: Message from server: STATUS
  @ DRIVER MODE: Message from server: GETFORCE
  @ DRIVER MODE: Returning v,forces,stress,ensemble

     Writing output data file ./calc.save/
  @ DRIVER MODE: Message from server: EXIT
  @ DRIVE MODE: Exiting

     General routines

     Parallel routines

   This run was terminated on:  16:20:47  23Sep2021

   JOB DONE.