     Program PWSCF v.6.7GPU starts on 23Sep2021 at  3:19:27

     R & G space division:  proc/nbgrp/npool/nimage =      10
     Reading input from /storage/home/hcoda1/3/ntian30/research/carbon/CxH_vib/H2O_calc/ads_slab/CHNHHHO_a/out_0036/pw.inp
Warning: card &CELL ignored
Warning: card   CELL_DYNAMICS='IPI', ignored
Warning: card / ignored

     Current dimensions of program PWSCF are:
     Max number of different atomic species (ntypx) = 10
     Max number of k-points (npk) =  40000
     Max angular momentum in pseudopotentials (lmaxx) =  3
     Presently no symmetry can be used with electric field

     Message from routine cell_base_init:
     DEPRECATED: use true lattice parameter, not A to a.u. conversion factor

     IMPORTANT: XC functional enforced from input :
     Exchange-correlation= BEEF-VDW
                           (   1   4  43  14   2   0   0)
     Any further DFT definition will be discarded
     Please, verify this is what you really want

  @ DRIVER MODE: Connecting to
 qe_1139763_2937313.sched-torque.pace.gatech.eduvoo2_ufi_scratch
  using UNIX socket
  @ DRIVER MODE: Message from server: STATUS
  @ DRIVER MODE: Message from server: INIT
  @ DRIVER MODE: Receiving replica           0          -1
  @ DRIVER MODE: Receiving encoded integer          25
  @ DRIVER MODE:  SCF:  T  FORCE:  T  STRESS:  F  VC:  F  ENSEMBLE:  F
  @ DRIVER MODE:  SCF:  T  FORCE:  T  STRESS:  F  VC:  F  ENSEMBLE:  F

     Using Slab Decomposition

     bravais-lattice index     =            0
     lattice parameter (alat)  =       1.8897  a.u.
     unit-cell volume          =    6658.9804 (a.u.)^3
     number of atoms/cell      =           54
     number of atomic types    =            5
     number of electrons       =       397.00
     number of Kohn-Sham states=          208
     kinetic-energy cutoff     =      29.3995  Ry
     charge density cutoff     =     293.9946  Ry
     scf convergence threshold =      7.3E-08
     mixing beta               =       0.0500
     number of iterations used =            8  plain     mixing
     Exchange-correlation= BEEF-VDW
                           (   1   4  43  14   2   0   0)

     celldm(1)=   1.889726  celldm(2)=   0.000000  celldm(3)=   0.000000
     celldm(4)=   0.000000  celldm(5)=   0.000000  celldm(6)=   0.000000

     crystal axes: (cart. coord. in units of alat)
               a(1) = (   6.579727   0.000000   0.000000 )
               a(2) = (  -0.000775   5.961596   0.000000 )
               a(3) = (   0.000000   0.000000  25.155947 )

     reciprocal axes: (cart. coord. in units 2 pi/alat)
               b(1) = (  0.151982  0.000020  0.000000 )
               b(2) = (  0.000000  0.167740  0.000000 )
               b(3) = (  0.000000  0.000000  0.039752 )

     PseudoPot. # 1 for Ti read from file:
     /storage/coda1/p-amedford6/0/shared/rich_project_chbe-medford/medford-share/data/pseudos_module/espresso/nninc/pbe/van/Ti.UPF
     MD5 check sum: 8e4df49b7f0d34bbd5052bf3f5ea0213
     Pseudo is Ultrasoft, Zval = 12.0
     Generated by new atomic code, or converted to UPF format
     Using radial grid of  851 points,  6 beta functions with:
                l(1) =   0
                l(2) =   0
                l(3) =   1
                l(4) =   1
                l(5) =   2
                l(6) =   2
     Q(r) pseudized with  8 coefficients,  rinner =    1.000   1.000   1.000
                                                       1.000   1.000

     PseudoPot. # 2 for O  read from file:
     /storage/coda1/p-amedford6/0/shared/rich_project_chbe-medford/medford-share/data/pseudos_module/espresso/nninc/pbe/van/O.UPF
     MD5 check sum: 78c19812648e8988a0fe644b0f25305e
     Pseudo is Ultrasoft, Zval =  6.0
     Generated by new atomic code, or converted to UPF format
     Using radial grid of  737 points,  4 beta functions with:
                l(1) =   0
                l(2) =   0
                l(3) =   1
                l(4) =   1
     Q(r) pseudized with  8 coefficients,  rinner =    0.800   0.800   0.800

     PseudoPot. # 3 for N  read from file:
     /storage/coda1/p-amedford6/0/shared/rich_project_chbe-medford/medford-share/data/pseudos_module/espresso/nninc/pbe/van/N.UPF
     MD5 check sum: 90d10febe142ad51ac9d5be1deb811c4
     Pseudo is Ultrasoft, Zval =  5.0
     Generated by new atomic code, or converted to UPF format
     Using radial grid of  729 points,  4 beta functions with:
                l(1) =   0
                l(2) =   0
                l(3) =   1
                l(4) =   1
     Q(r) pseudized with  8 coefficients,  rinner =    0.800   0.800   0.800

     PseudoPot. # 4 for C  read from file:
     /storage/coda1/p-amedford6/0/shared/rich_project_chbe-medford/medford-share/data/pseudos_module/espresso/nninc/pbe/van/C.UPF
     MD5 check sum: 1a69bf6b8db32088f5b2163dbdb77a27
     Pseudo is Ultrasoft, Zval =  4.0
     Generated by new atomic code, or converted to UPF format
     Using radial grid of  721 points,  4 beta functions with:
                l(1) =   0
                l(2) =   0
                l(3) =   1
                l(4) =   1
     Q(r) pseudized with  8 coefficients,  rinner =    0.800   0.800   0.800

     PseudoPot. # 5 for H  read from file:
     /storage/coda1/p-amedford6/0/shared/rich_project_chbe-medford/medford-share/data/pseudos_module/espresso/nninc/pbe/van/H.UPF
     MD5 check sum: b5ee9d7bfd3a09ee7748110bda690ff7
     Pseudo is Ultrasoft, Zval =  1.0
     Generated by new atomic code, or converted to UPF format
     Using radial grid of  615 points,  1 beta functions with:
                l(1) =   0
     Q(r) pseudized with  8 coefficients,  rinner =    0.800

     atomic species   valence    mass     pseudopotential
        Ti1           12.00    47.86700     Ti( 1.00)
        O1             6.00    15.99900     O ( 1.00)
        N1             5.00    14.00700     N ( 1.00)
        C1             4.00    12.01100     C ( 1.00)
        H1             1.00     1.00800     H ( 1.00)

     No symmetry found

   Cartesian axes

     site n.     atom                  positions (alat units)
         1           Ti1 tau(   1) = (   0.0004258   2.9801865   6.0000000  )
         2           Ti1 tau(   2) = (   3.2906075   1.4906267   6.0002472  )
         3           O1  tau(   3) = (   0.0006271   0.0005054   7.9858123  )
         4           O1  tau(   4) = (   3.2906025   0.0005020   7.3038282  )
         5           O1  tau(   5) = (   4.5942328   1.4918067   9.2879030  )
         6           O1  tau(   6) = (   1.9868534   1.4903216   9.2879459  )
         7           Ti1 tau(   7) = (   3.2907910   2.8959150   9.1758416  )
         8           Ti1 tau(   8) = (   0.0015273   1.4827037   9.2680791  )
         9           O1  tau(   9) = (   3.2973591   5.9237820  11.3497511  )
        10           O1  tau(  10) = (   0.0116148   5.9584955  10.6183126  )
        11           O1  tau(  11) = (   1.2811460   1.4768824  12.6391447  )
        12           O1  tau(  12) = (   5.3079631   1.4871840  12.6405626  )
        13           Ti1 tau(  13) = (   6.5754896   2.9244875  12.5445406  )
        14           Ti1 tau(  14) = (   3.3102182   1.2813077  12.7057081  )
        15           O1  tau(  15) = (   6.5763362   0.0566486  14.6337039  )
        16           O1  tau(  16) = (   3.2990834   0.0566264  13.9960278  )
        17           O1  tau(  17) = (   4.5749688   1.5338778  16.1314031  )
        18           O1  tau(  18) = (   2.0677763   1.5208417  16.2171153  )
        19           Ti1 tau(  19) = (   3.2830944   2.9922577  15.6820260  )
        20           Ti1 tau(  20) = (   6.5002293   1.4748383  16.0237708  )
        21           O1  tau(  21) = (   3.2904802   0.0005063   4.7018136  )
        22           O1  tau(  22) = (   0.0234767   5.8639946  17.1540191  )
        23           O1  tau(  23) = (   1.3043587   1.4918075   6.0039043  )
        24           O1  tau(  24) = (   5.2767064   1.4903225   6.0039473  )
        25           Ti1 tau(  25) = (   0.0000382   5.9609847   6.0000000  )
        26           Ti1 tau(  26) = (   3.2902200   4.4714249   6.0002472  )
        27           O1  tau(  27) = (   0.0002396   2.9813036   7.9858123  )
        28           O1  tau(  28) = (   3.2902150   2.9813002   7.3038282  )
        29           O1  tau(  29) = (   4.5938453   4.4726049   9.2879030  )
        30           O1  tau(  30) = (   1.9864658   4.4711199   9.2879459  )
        31           Ti1 tau(  31) = (   3.2891106   5.8743827   9.1763621  )
        32           Ti1 tau(  32) = (   0.0006254   4.4649316   9.2693709  )
        33           O1  tau(  33) = (   3.2952530   2.9960894  11.3054589  )
        34           O1  tau(  34) = (   0.0092240   2.9805883  10.6323155  )
        35           O1  tau(  35) = (   1.2848436   4.4566134  12.6628561  )
        36           O1  tau(  36) = (   5.3073415   4.4462911  12.6631571  )
        37           Ti1 tau(  37) = (   0.0411484   5.9123939  12.5136797  )
        38           Ti1 tau(  38) = (   3.3147701   4.3652790  12.4361622  )
        39           O1  tau(  39) = (   0.0290229   2.9306538  14.8412286  )
        40           O1  tau(  40) = (   3.2875986   2.9640914  13.9120161  )
        41           O1  tau(  41) = (   4.5659564   4.3862643  16.1232528  )
        42           O1  tau(  42) = (   2.0245242   4.4195217  16.0560026  )
        43           Ti1 tau(  43) = (   3.2475481   5.9608109  16.2864591  )
        44           Ti1 tau(  44) = (   0.0132903   4.6514137  15.7972829  )
        45           O1  tau(  45) = (   3.2900926   2.9813045   4.7018136  )
        46           O1  tau(  46) = (   1.3039711   4.4726057   6.0039043  )
        47           O1  tau(  47) = (   5.2763189   4.4711207   6.0039473  )
        48           N1  tau(  48) = (   5.7184149   3.3872802  18.6644769  )
        49           C1  tau(  49) = (   6.5536674   2.6142045  18.0347456  )
        50           H1  tau(  50) = (   0.7520291   2.2354638  18.7052436  )
        51           H1  tau(  51) = (   4.9873861   3.8928837  18.1615307  )
        52           H1  tau(  52) = (   5.8197376   3.6397576  19.6419508  )
        53           O1  tau(  53) = (   3.3578172   5.8156178  18.1713732  )
        54           H1  tau(  54) = (   2.9124532   0.5526369  18.6599525  )

     number of k points=    10  Fermi-Dirac smearing, width (Ry)=  0.0073
                       cart. coord. in units 2pi/alat
        k(    1) = (   0.0000000   0.0000000   0.0000000), wk =   0.1250000
        k(    2) = (   0.0000000   0.0419351   0.0000000), wk =   0.2500000
        k(    3) = (   0.0000000  -0.0838702   0.0000000), wk =   0.1250000
        k(    4) = (   0.0379955   0.0000049   0.0000000), wk =   0.2500000
        k(    5) = (   0.0379955   0.0419400   0.0000000), wk =   0.2500000
        k(    6) = (   0.0379955  -0.0838652   0.0000000), wk =   0.2500000
        k(    7) = (   0.0379955  -0.0419301   0.0000000), wk =   0.2500000
        k(    8) = (  -0.0759910  -0.0000099   0.0000000), wk =   0.1250000
        k(    9) = (  -0.0759910   0.0419252   0.0000000), wk =   0.2500000
        k(   10) = (  -0.0759910  -0.0838800   0.0000000), wk =   0.1250000

     Initial potential from superposition of free atoms

     starting charge  380.99916, renormalised to  397.00000

     negative rho (up, down):  1.674E-02 0.000E+00

     %%%%%%%%%%%%%%%%%%%%%%%%%%%%%%%%%%%%%%%%%%%%%%%%%%%%%%%%%%%%%%%%%%%%%%%%
     %                                                                      %
     % You are using vdW-DF, which was implemented by the Thonhauser group. %
     % Please cite the following two papers that made this development      %
     % possible and the two reviews that describe the various versions:     %
     %                                                                      %
     %   T. Thonhauser et al., PRL 115, 136402 (2015).                      %
     %   T. Thonhauser et al., PRB 76, 125112 (2007).                       %
     %   K. Berland et al., Rep. Prog. Phys. 78, 066501 (2015).             %
     %   D.C. Langreth et al., J. Phys.: Condens. Matter 21, 084203 (2009). %
     %                                                                      %
     %                                                                      %
     % If you are calculating the stress with vdW-DF, please also cite:     %
     %                                                                      %
     %   R. Sabatini et al., J. Phys.: Condens. Matter 24, 424209 (2012).   %
     %                                                                      %
     %%%%%%%%%%%%%%%%%%%%%%%%%%%%%%%%%%%%%%%%%%%%%%%%%%%%%%%%%%%%%%%%%%%%%%%%

     Adding external electric field

     Computed dipole along edir(3) :
        Dipole               -9.3136 Ry au,        -23.6729 Debye
        Dipole field         -0.0176 Ry au,

        Potential amp.        1.6293 Ry
        Total length         46.3494 bohr

     Starting wfcs are  300 atomic wfcs
  @ DRIVER MODE: Message from server: STATUS
  @ DRIVER MODE: Message from server: POSDATA
  @ DRIVER MODE: Reading and sharing cell
  @ DRIVER MODE: Reading and sharing positions
  @ DRIVER MODE: Received positions

     Self-consistent Calculation

     iteration #  1     ecut=    29.40 Ry     beta= 0.05
     Davidson diagonalization with overlap
     c_bands:  1 eigenvalues not converged
     c_bands:  2 eigenvalues not converged
     c_bands:  1 eigenvalues not converged
     c_bands:  1 eigenvalues not converged
     c_bands:  1 eigenvalues not converged
     c_bands:  2 eigenvalues not converged
     c_bands:  1 eigenvalues not converged
     c_bands:  1 eigenvalues not converged
     c_bands:  2 eigenvalues not converged
     ethr =  1.00E-05,  avg # of iterations = 19.6

[...]

     total energy              =   -2539.08944200 Ry
     estimated scf accuracy    <    4593.72130852 Ry

     iteration #  2     ecut=    29.40 Ry     beta= 0.05
     Davidson diagonalization with overlap
     ethr =  1.00E-02,  avg # of iterations = 24.1

[...]

     iteration # 53     ecut=    29.40 Ry     beta= 0.05
     Davidson diagonalization with overlap
     c_bands:  1 eigenvalues not converged
     ethr =  5.14E-07,  avg # of iterations = 13.9

[...]

     total energy              =   -2952.67087145 Ry
     estimated scf accuracy    <       0.00000009 Ry

     iteration # 74     ecut=    29.40 Ry     beta= 0.05
     Davidson diagonalization with overlap
     ethr =  2.16E-11,  avg # of iterations = 12.4

     negative rho (up, down):  1.681E-02 0.000E+00

     Adding external electric field

     Computed dipole along edir(3) :
        Dipole                1.2938 Ry au,          3.2884 Debye
        Dipole field          0.0024 Ry au,

        Potential amp.       -0.2263 Ry
        Total length         46.3494 bohr

     End of self-consistent calculation

          k = 0.0000 0.0000 0.0000 ( 18029 PWs)   bands (ev):

   -55.6386 -55.5542 -55.5202 -55.3715 -55.3475 -55.3374 -55.3121 -55.3057
   -55.2873 -55.2369 -55.1502 -55.1156 -55.0396 -55.0129 -54.5057 -54.4717
   -32.0356 -31.9700 -31.8735 -31.8618 -31.8460 -31.8339 -31.8299 -31.7991
   -31.7710 -31.7283 -31.7067 -31.6784 -31.6577 -31.6348 -31.6304 -31.6176
   -31.6119 -31.5949 -31.5610 -31.5458 -31.5319 -31.5260 -31.5128 -31.5109
   -31.4995 -31.4891 -31.4844 -31.4841 -31.4555 -31.4443 -31.4343 -31.4120
   -31.3950 -31.3941 -31.3925 -31.3157 -31.3056 -31.2853 -31.2530 -31.2440
   -31.2322 -31.1613 -30.9105 -30.8270 -30.8044 -30.7283 -30.6421 -30.5301
   -17.3044 -16.4785 -16.1397 -15.9755 -15.7786 -15.6738 -15.6044 -15.4153
   -15.3310 -15.2742 -15.0844 -15.0791 -15.0499 -15.0301 -15.0040 -14.9750
   -14.9671 -14.9611 -14.9345 -14.9010 -14.8845 -14.8558 -14.8382 -14.7807
   -14.7543 -14.7367 -14.6757 -14.5799 -14.5167 -14.3057 -14.1547 -13.0039
   -12.8880  -9.6349  -7.3129  -4.7788  -4.0252  -3.5086  -3.4414  -3.3806
    -3.3322  -3.2559  -3.0251  -2.8767  -2.7711  -2.7431  -2.6557  -2.6245
    -2.5782  -2.5003  -2.4331  -2.4098  -2.3640  -2.3262  -2.2948  -2.2739
    -2.2476  -2.2257  -2.1709  -2.1316  -2.0548  -2.0056  -1.9384  -1.9151
    -1.8575  -1.8191  -1.8168  -1.8017  -1.7650  -1.7597  -1.7509  -1.7310
    -1.6230  -1.5922  -1.5419  -1.5001  -1.3358  -1.1454  -1.1281  -1.0330
    -0.9959  -0.9587  -0.9311  -0.9155  -0.8887  -0.8552  -0.7717  -0.7481
    -0.6718  -0.6070  -0.5648  -0.5149  -0.4125  -0.3472  -0.3176  -0.2736
    -0.2673  -0.2377  -0.2212  -0.1338  -0.0559  -0.0063   0.0033   0.0554
     0.1452   0.1638   0.2140   0.2512   0.2859   0.3276   0.3921   0.4187
     0.4409   0.4520   0.4700   0.5271   0.5659   0.5990   0.6700   0.7702
     0.7786   0.8524   0.8551   0.8650   1.0656   1.1540   1.1741   1.2557
     1.4797   1.5208   1.6120   1.7169   2.0854   2.1297   3.5488   3.6923
     3.7101   3.7746   3.8228   3.9347   3.9469   4.0336   4.1606   4.2434

[...]

          k = 0.0380-0.0419 0.0000 ( 17876 PWs)   bands (ev):

[...]

          k =-0.0760-0.0000 0.0000 ( 17886 PWs)   bands (ev):

[...]

          k =-0.0760-0.0839 0.0000 ( 17948 PWs)   bands (ev):

   -55.6379 -55.5374 -55.5368 -55.3546 -55.3541 -55.3340 -55.3255 -55.3062
   -55.2808 -55.2433 -55.1480 -55.1119 -55.0432 -55.0150 -54.4891 -54.4882
   -31.9157 -31.8511 -31.8508 -31.8505 -31.8330 -31.8317 -31.8312 -31.7094
   -31.6797 -31.6734 -31.6574 -31.6567 -31.6513 -31.6425 -31.6292 -31.6103
   -31.6042 -31.6020 -31.5667 -31.5662 -31.5487 -31.5467 -31.5325 -31.5303
   -31.5238 -31.5187 -31.5111 -31.5097 -31.4990 -31.4932 -31.4669 -31.4610
   -31.4158 -31.3976 -31.3901 -31.3729 -31.3196 -31.3092 -31.2930 -31.2528
   -31.2479 -31.2344 -30.8175 -30.8168 -30.7242 -30.7229 -30.6856 -30.6849
   -17.3001 -16.4686 -15.6025 -15.5918 -15.4807 -15.4641 -15.3622 -15.2948
   -15.2628 -15.2385 -15.2179 -15.1861 -15.1810 -15.1352 -15.0885 -15.0735
   -15.0419 -15.0160 -14.9990 -14.9616 -14.9313 -14.9151 -14.8910 -14.8531
   -14.8470 -14.8315 -14.8182 -14.6498 -14.6024 -14.4557 -14.4328 -12.9902
   -12.9897  -9.6365  -7.3124  -4.7736  -4.0214  -2.8663  -2.8080  -2.6901
    -2.6478  -2.5942  -2.5185  -2.4857  -2.4726  -2.3857  -2.3747  -2.3705
    -2.3325  -2.3072  -2.2892  -2.2611  -2.2571  -2.2478  -2.2130  -2.2061
    -2.1883  -2.1675  -2.1512  -2.1361  -2.1214  -2.1124  -2.0893  -2.0663
    -2.0404  -1.9973  -1.8393  -1.7990  -1.7748  -1.6577  -1.6483  -1.6303
    -1.6191  -1.6059  -1.5742  -1.5076  -1.4899  -1.4815  -1.3202  -1.2386
    -1.1989  -1.1335  -1.1116  -1.0843  -0.9950  -0.9818  -0.9530  -0.9165
    -0.8657  -0.7906  -0.6973  -0.6903  -0.6329  -0.5329  -0.4868  -0.4753
    -0.4709  -0.4221  -0.4117  -0.3942  -0.3533  -0.2828  -0.2671  -0.2407
    -0.2085  -0.1914  -0.1497  -0.0843   0.0193   0.1044   0.2071   0.2418
     0.3255   0.3520   0.3701   0.5217   0.5793   0.6218   0.6683   0.6747
     0.7771   0.7880   0.8025   0.8843   0.9812   1.0002   1.0611   1.0779
     1.0977   1.1356   1.8862   1.8942   1.9499   1.9502   3.7359   4.0225
     4.0757   4.0854   4.1065   4.1214   4.1266   4.1559   4.2124   4.2429

     the Fermi energy is     3.5736 ev

!    total energy              =   -2952.67088230 Ry
     estimated scf accuracy    <       0.00000005 Ry
     smearing contrib. (-TS)   =      -0.02002515 Ry
     internal energy E=F+TS    =   -2952.65085715 Ry

     The total energy is F=E-TS. E is the sum of the following terms:
     one-electron contribution =  -23939.93308491 Ry
     hartree contribution      =   12062.81098197 Ry
     xc contribution           =    -487.97682178 Ry
     ewald contribution        =    9412.44490882 Ry
     electric field correction =       0.00315874 Ry

     convergence has been achieved in  74 iterations

     Forces acting on atoms (cartesian axes, Ry/au):

     atom    1 type  1   force =     0.00003603   -0.00030840    0.09542529
     atom    2 type  1   force =    -0.00013674    0.00031312   -0.17424597
     atom    3 type  2   force =    -0.00001968   -0.00015714   -0.02259233
     atom    4 type  2   force =     0.00003705   -0.00185780    0.05176731
     atom    5 type  2   force =    -0.00668333   -0.00270437    0.00170948
     atom    6 type  2   force =     0.00823600   -0.00219662    0.00118902
     atom    7 type  1   force =    -0.00012278   -0.00382286    0.01178868
     atom    8 type  1   force =     0.00015819    0.00376859    0.01273845
     atom    9 type  2   force =     0.00021208    0.00040166    0.00091202
     atom   10 type  2   force =    -0.00197699   -0.00130152   -0.01608952
     atom   11 type  2   force =     0.00120832   -0.00021728   -0.00028255
     atom   12 type  2   force =    -0.00065467    0.00011914   -0.00024044
     atom   13 type  1   force =    -0.00022093   -0.00144725    0.00050655
     atom   14 type  1   force =     0.00009515   -0.00030458   -0.00023460
     atom   15 type  2   force =     0.00009822    0.00035394   -0.00094919
     atom   16 type  2   force =     0.00004157    0.00098629   -0.00008453
     atom   17 type  2   force =    -0.00037577   -0.00006539    0.00018224
     atom   18 type  2   force =     0.00025619   -0.00009325   -0.00004769
     atom   19 type  1   force =    -0.00018195    0.00000599    0.00030157
     atom   20 type  1   force =     0.00019605    0.00010644   -0.00034497
     atom   21 type  2   force =     0.00005984    0.00010140    0.10286832
     atom   22 type  2   force =    -0.00033171    0.00054048    0.00015789
     atom   23 type  2   force =    -0.07250458   -0.00013677   -0.02754613
     atom   24 type  2   force =     0.07240894    0.00027200   -0.02757405
     atom   25 type  1   force =     0.00009172   -0.00013562    0.09503402
     atom   26 type  1   force =    -0.00010369   -0.00128459   -0.17428291
     atom   27 type  2   force =     0.00015715   -0.00025800   -0.02134751
     atom   28 type  2   force =     0.00005057   -0.00015060    0.04737501
     atom   29 type  2   force =    -0.00545925    0.00230178   -0.00001839
     atom   30 type  2   force =     0.00703583    0.00273670   -0.00052942
     atom   31 type  1   force =    -0.00016659    0.00659734    0.00047681
     atom   32 type  1   force =     0.00008095   -0.00557673    0.01180000
     atom   33 type  2   force =    -0.00014306   -0.00039710    0.00019224
     atom   34 type  2   force =    -0.00121598    0.00016411   -0.01562206
     atom   35 type  2   force =    -0.00035128    0.00042904    0.00015844
     atom   36 type  2   force =     0.00100222    0.00058821    0.00042170
     atom   37 type  1   force =    -0.00024265    0.00177247    0.00017576
     atom   38 type  1   force =    -0.00005378    0.00018335    0.00031096
     atom   39 type  2   force =    -0.00009092    0.00004272   -0.00024786
     atom   40 type  2   force =     0.00037462   -0.00033721   -0.00017630
     atom   41 type  2   force =    -0.00070075    0.00065459    0.00042988
     atom   42 type  2   force =     0.00087478    0.00049579    0.00038769
     atom   43 type  1   force =     0.00051005   -0.00021615    0.00529977
     atom   44 type  1   force =     0.00029178    0.00029359    0.00096658
     atom   45 type  2   force =     0.00006156   -0.00008807    0.10265441
     atom   46 type  2   force =    -0.07255582   -0.00005025   -0.02757360
     atom   47 type  2   force =     0.07247987    0.00040378   -0.02759723
     atom   48 type  3   force =     0.00055026   -0.00069662   -0.00086098
     atom   49 type  4   force =    -0.00033731    0.00020383   -0.00027394
     atom   50 type  5   force =    -0.00059849   -0.00037751   -0.00016477
     atom   51 type  5   force =     0.00030620    0.00019051    0.00015109
     atom   52 type  5   force =    -0.00027960    0.00056723    0.00035625
     atom   53 type  2   force =     0.00449335   -0.00720263   -0.01228953
     atom   54 type  5   force =    -0.00589626    0.00679021    0.00547904

     Total force =     0.362777     Total SCF correction =     0.000644
  @ DRIVER MODE: Message from server: STATUS
  @ DRIVER MODE: Message from server: GETFORCE
  @ DRIVER MODE: Returning v,forces,stress,ensemble

     Writing output data file ./calc.save/
  @ DRIVER MODE: Message from server: EXIT
  @ DRIVE MODE: Exiting

     General routines

     Parallel routines

   This run was terminated on:   3:38:32  23Sep2021

   JOB DONE.