     Program PWSCF v.6.7GPU starts on 23Aug2021 at 16:11:51

     R & G space division:  proc/nbgrp/npool/nimage =       6
     Reading input from /storage/home/hcoda1/3/ntian30/research/carbon/CH_vib/ads_slab/CHN2_b/out_0007/pw.inp
Warning: card &CELL ignored
Warning: card   CELL_DYNAMICS='IPI', ignored
Warning: card / ignored

     Current dimensions of program PWSCF are:
     Max number of different atomic species (ntypx) = 10
     Max number of k-points (npk) =  40000
     Max angular momentum in pseudopotentials (lmaxx) =  3
     Presently no symmetry can be used with electric field

     Message from routine cell_base_init:
     DEPRECATED: use true lattice parameter, not A to a.u. conversion factor

     IMPORTANT: XC functional enforced from input :
     Exchange-correlation= BEEF-VDW
                           (   1   4  43  14   2   0   0)
     Any further DFT definition will be discarded
     Please, verify this is what you really want

  @ DRIVER MODE: Connecting to
 qe_1139763_2632794.sched-torque.pace.gatech.edu453g8lqe_scratch
  using UNIX socket
  @ DRIVER MODE: Message from server: STATUS
  @ DRIVER MODE: Message from server: INIT
  @ DRIVER MODE: Receiving replica           0          -1
  @ DRIVER MODE: Receiving encoded integer          25
  @ DRIVER MODE:  SCF:  T  FORCE:  T  STRESS:  F  VC:  F  ENSEMBLE:  F
  @ DRIVER MODE:  SCF:  T  FORCE:  T  STRESS:  F  VC:  F  ENSEMBLE:  F

     Using Slab Decomposition

     bravais-lattice index     =            0
     lattice parameter (alat)  =       1.8897  a.u.
     unit-cell volume          =    6658.9804 (a.u.)^3
     number of atoms/cell      =           51
     number of atomic types    =            5
     number of electrons       =       393.00
     number of Kohn-Sham states=          206
     kinetic-energy cutoff     =      29.3995  Ry
     charge density cutoff     =     293.9946  Ry
     scf convergence threshold =      7.3E-08
     mixing beta               =       0.0500
     number of iterations used =            8  plain     mixing
     Exchange-correlation= BEEF-VDW
                           (   1   4  43  14   2   0   0)

     celldm(1)=   1.889726  celldm(2)=   0.000000  celldm(3)=   0.000000
     celldm(4)=   0.000000  celldm(5)=   0.000000  celldm(6)=   0.000000

     crystal axes: (cart. coord. in units of alat)
               a(1) = (   6.579727   0.000000   0.000000 )
               a(2) = (  -0.000775   5.961596   0.000000 )
               a(3) = (   0.000000   0.000000  25.155947 )

     reciprocal axes: (cart. coord. in units 2 pi/alat)
               b(1) = (  0.151982  0.000020  0.000000 )
               b(2) = (  0.000000  0.167740  0.000000 )
               b(3) = (  0.000000  0.000000  0.039752 )

     PseudoPot. # 1 for Ti read from file:
     /storage/coda1/p-amedford6/0/shared/rich_project_chbe-medford/medford-share/data/pseudos_module/espresso/nninc/pbe/van/Ti.UPF
     MD5 check sum: 8e4df49b7f0d34bbd5052bf3f5ea0213
     Pseudo is Ultrasoft, Zval = 12.0
     Generated by new atomic code, or converted to UPF format
     Using radial grid of  851 points,  6 beta functions with:
                l(1) =   0
                l(2) =   0
                l(3) =   1
                l(4) =   1
                l(5) =   2
                l(6) =   2
     Q(r) pseudized with  8 coefficients,  rinner =    1.000   1.000   1.000
                                                       1.000   1.000

     PseudoPot. # 2 for O  read from file:
     /storage/coda1/p-amedford6/0/shared/rich_project_chbe-medford/medford-share/data/pseudos_module/espresso/nninc/pbe/van/O.UPF
     MD5 check sum: 78c19812648e8988a0fe644b0f25305e
     Pseudo is Ultrasoft, Zval =  6.0
     Generated by new atomic code, or converted to UPF format
     Using radial grid of  737 points,  4 beta functions with:
                l(1) =   0
                l(2) =   0
                l(3) =   1
                l(4) =   1
     Q(r) pseudized with  8 coefficients,  rinner =    0.800   0.800   0.800

     PseudoPot. # 3 for N  read from file:
     /storage/coda1/p-amedford6/0/shared/rich_project_chbe-medford/medford-share/data/pseudos_module/espresso/nninc/pbe/van/N.UPF
     MD5 check sum: 90d10febe142ad51ac9d5be1deb811c4
     Pseudo is Ultrasoft, Zval =  5.0
     Generated by new atomic code, or converted to UPF format
     Using radial grid of  729 points,  4 beta functions with:
                l(1) =   0
                l(2) =   0
                l(3) =   1
                l(4) =   1
     Q(r) pseudized with  8 coefficients,  rinner =    0.800   0.800   0.800

     PseudoPot. # 4 for C  read from file:
     /storage/coda1/p-amedford6/0/shared/rich_project_chbe-medford/medford-share/data/pseudos_module/espresso/nninc/pbe/van/C.UPF
     MD5 check sum: 1a69bf6b8db32088f5b2163dbdb77a27
     Pseudo is Ultrasoft, Zval =  4.0
     Generated by new atomic code, or converted to UPF format
     Using radial grid of  721 points,  4 beta functions with:
                l(1) =   0
                l(2) =   0
                l(3) =   1
                l(4) =   1
     Q(r) pseudized with  8 coefficients,  rinner =    0.800   0.800   0.800

     PseudoPot. # 5 for H  read from file:
     /storage/coda1/p-amedford6/0/shared/rich_project_chbe-medford/medford-share/data/pseudos_module/espresso/nninc/pbe/van/H.UPF
     MD5 check sum: b5ee9d7bfd3a09ee7748110bda690ff7
     Pseudo is Ultrasoft, Zval =  1.0
     Generated by new atomic code, or converted to UPF format
     Using radial grid of  615 points,  1 beta functions with:
                l(1) =   0
     Q(r) pseudized with  8 coefficients,  rinner =    0.800

     atomic species   valence    mass     pseudopotential
        Ti1           12.00    47.86700     Ti( 1.00)
        O1             6.00    15.99900     O ( 1.00)
        N1             5.00    14.00700     N ( 1.00)
        C1             4.00    12.01100     C ( 1.00)
        H1             1.00     1.00800     H ( 1.00)

     No symmetry found

   Cartesian axes

     site n.     atom                  positions (alat units)
         1           Ti1 tau(   1) = (   0.0004258   2.9801865   6.0000000  )
         2           Ti1 tau(   2) = (   3.2906075   1.4906267   6.0002472  )
         3           O1  tau(   3) = (   0.0006271   0.0005054   7.9858123  )
         4           O1  tau(   4) = (   3.2906025   0.0005020   7.3038282  )
         5           O1  tau(   5) = (   4.5942328   1.4918067   9.2879030  )
         6           O1  tau(   6) = (   1.9868534   1.4903216   9.2879459  )
         7           Ti1 tau(   7) = (   3.2907910   2.8959150   9.1758416  )
         8           Ti1 tau(   8) = (   0.0015273   1.4827037   9.2680791  )
         9           O1  tau(   9) = (   3.2950996   0.0139504  11.3317891  )
        10           O1  tau(  10) = (   0.0116148   5.9584955  10.6183126  )
        11           O1  tau(  11) = (   1.2919129   1.4990403  12.6236220  )
        12           O1  tau(  12) = (   5.2764399   1.5074276  12.6212280  )
        13           Ti1 tau(  13) = (   0.0528816   2.9532107  12.6238214  )
        14           Ti1 tau(  14) = (   3.3640876   1.5054642  12.4823551  )
        15           O1  tau(  15) = (   0.0126464   0.0517330  14.6735668  )
        16           O1  tau(  16) = (   3.2893787   0.0313947  13.9162352  )
        17           O1  tau(  17) = (   4.5455072   1.5470193  16.0571763  )
        18           O1  tau(  18) = (   2.0683839   1.5479149  16.0688871  )
        19           Ti1 tau(  19) = (   3.3004933   3.0285056  15.7062229  )
        20           Ti1 tau(  20) = (   6.5748692   1.5544668  15.8636821  )
        21           O1  tau(  21) = (   3.2904802   0.0005063   4.7018136  )
        22           O1  tau(  22) = (   0.0156978   0.0568370  17.2307755  )
        23           O1  tau(  23) = (   1.3043587   1.4918075   6.0039043  )
        24           O1  tau(  24) = (   5.2767064   1.4903225   6.0039473  )
        25           Ti1 tau(  25) = (   0.0000382   5.9609847   6.0000000  )
        26           Ti1 tau(  26) = (   3.2902200   4.4714249   6.0002472  )
        27           O1  tau(  27) = (   0.0002396   2.9813036   7.9858123  )
        28           O1  tau(  28) = (   3.2902150   2.9813002   7.3038282  )
        29           O1  tau(  29) = (   4.5938453   4.4726049   9.2879030  )
        30           O1  tau(  30) = (   1.9864658   4.4711199   9.2879459  )
        31           Ti1 tau(  31) = (   3.2891106   5.8743827   9.1763621  )
        32           Ti1 tau(  32) = (   0.0006254   4.4649316   9.2693709  )
        33           O1  tau(  33) = (   3.2930415   3.0011583  11.3325650  )
        34           O1  tau(  34) = (   0.0092240   2.9805883  10.6323155  )
        35           O1  tau(  35) = (   1.2898468   4.4882246  12.6384491  )
        36           O1  tau(  36) = (   5.2806636   4.4975927  12.6358184  )
        37           Ti1 tau(  37) = (   0.0525728   5.9296047  12.5528222  )
        38           Ti1 tau(  38) = (   3.3636738   4.4864912  12.4891182  )
        39           O1  tau(  39) = (   0.0107234   2.9627607  14.6747216  )
        40           O1  tau(  40) = (   3.2927234   3.0099296  13.9079960  )
        41           O1  tau(  41) = (   4.5395255   4.5218754  16.0742521  )
        42           O1  tau(  42) = (   2.0629885   4.5199598  16.0715304  )
        43           Ti1 tau(  43) = (   3.2878121   0.0461507  15.7166771  )
        44           Ti1 tau(  44) = (   0.0020781   4.6962996  16.1098215  )
        45           O1  tau(  45) = (   3.2900926   2.9813045   4.7018136  )
        46           O1  tau(  46) = (   1.3039711   4.4726057   6.0039043  )
        47           O1  tau(  47) = (   5.2763189   4.4711207   6.0039473  )
        48           N1  tau(  48) = (   0.1203982   2.9607606  18.6152809  )
        49           N1  tau(  49) = (   0.0057770   3.0106383  17.4001577  )
        50           C1  tau(  50) = (   0.0651646   2.9076078  19.8026698  )
        51           H1  tau(  51) = (   0.7310076   2.8879977  20.6380856  )

     number of k points=    10  Fermi-Dirac smearing, width (Ry)=  0.0073
                       cart. coord. in units 2pi/alat
        k(    1) = (   0.0000000   0.0000000   0.0000000), wk =   0.1250000
        k(    2) = (   0.0000000   0.0419351   0.0000000), wk =   0.2500000
        k(    3) = (   0.0000000  -0.0838702   0.0000000), wk =   0.1250000
        k(    4) = (   0.0379955   0.0000049   0.0000000), wk =   0.2500000
        k(    5) = (   0.0379955   0.0419400   0.0000000), wk =   0.2500000
        k(    6) = (   0.0379955  -0.0838652   0.0000000), wk =   0.2500000
        k(    7) = (   0.0379955  -0.0419301   0.0000000), wk =   0.2500000
        k(    8) = (  -0.0759910  -0.0000099   0.0000000), wk =   0.1250000
        k(    9) = (  -0.0759910   0.0419252   0.0000000), wk =   0.2500000
        k(   10) = (  -0.0759910  -0.0838800   0.0000000), wk =   0.1250000

     Initial potential from superposition of free atoms

     starting charge  376.99918, renormalised to  393.00000

     negative rho (up, down):  1.565E-02 0.000E+00

     %%%%%%%%%%%%%%%%%%%%%%%%%%%%%%%%%%%%%%%%%%%%%%%%%%%%%%%%%%%%%%%%%%%%%%%%
     %                                                                      %
     % You are using vdW-DF, which was implemented by the Thonhauser group. %
     % Please cite the following two papers that made this development      %
     % possible and the two reviews that describe the various versions:     %
     %                                                                      %
     %   T. Thonhauser et al., PRL 115, 136402 (2015).                      %
     %   T. Thonhauser et al., PRB 76, 125112 (2007).                       %
     %   K. Berland et al., Rep. Prog. Phys. 78, 066501 (2015).             %
     %   D.C. Langreth et al., J. Phys.: Condens. Matter 21, 084203 (2009). %
     %                                                                      %
     %                                                                      %
     % If you are calculating the stress with vdW-DF, please also cite:     %
     %                                                                      %
     %   R. Sabatini et al., J. Phys.: Condens. Matter 24, 424209 (2012).   %
     %                                                                      %
     %%%%%%%%%%%%%%%%%%%%%%%%%%%%%%%%%%%%%%%%%%%%%%%%%%%%%%%%%%%%%%%%%%%%%%%%

     Adding external electric field

     Computed dipole along edir(3) :
        Dipole               -7.5501 Ry au,        -19.1904 Debye
        Dipole field         -0.0142 Ry au,

        Potential amp.        1.3208 Ry
        Total length         46.3494 bohr

     Starting wfcs are  297 atomic wfcs
  @ DRIVER MODE: Message from server: STATUS
  @ DRIVER MODE: Message from server: POSDATA
  @ DRIVER MODE: Reading and sharing cell
  @ DRIVER MODE: Reading and sharing positions
  @ DRIVER MODE: Received positions

     Self-consistent Calculation

     iteration #  1     ecut=    29.40 Ry     beta= 0.05
     Davidson diagonalization with overlap
     c_bands:  1 eigenvalues not converged
     c_bands:  1 eigenvalues not converged
     c_bands:  1 eigenvalues not converged
     ethr =  1.00E-05,  avg # of iterations = 18.4

[...]

     total energy              =   -2707.50614979 Ry
     estimated scf accuracy    <    2541.63600929 Ry

[...]

     iteration #  3     ecut=    29.40 Ry     beta= 0.05
     Davidson diagonalization with overlap
     ethr =  1.00E-02,  avg # of iterations = 15.9

[...]

     iteration # 47     ecut=    29.40 Ry     beta= 0.05
     Davidson diagonalization with overlap
     c_bands:  1 eigenvalues not converged
     ethr =  9.66E-08,  avg # of iterations = 12.5

[...]

     total energy              =   -2936.63951920 Ry
     estimated scf accuracy    <       0.00000020 Ry

     iteration # 68     ecut=    29.40 Ry     beta= 0.05
     Davidson diagonalization with overlap
     ethr =  3.61E-11,  avg # of iterations =  6.8

     negative rho (up, down):  1.607E-02 0.000E+00

     Adding external electric field

     Computed dipole along edir(3) :
        Dipole                0.7511 Ry au,          1.9090 Debye
        Dipole field          0.0014 Ry au,

        Potential amp.       -0.1314 Ry
        Total length         46.3494 bohr

     End of self-consistent calculation

          k = 0.0000 0.0000 0.0000 ( 18029 PWs)   bands (ev):

   -55.9078 -55.9068 -55.8737 -55.8702 -55.7670 -55.7540 -55.7318 -55.7172
   -55.7163 -55.6834 -55.6831 -55.6496 -55.4666 -55.2222 -54.8866 -54.8525
   -32.4608 -32.3903 -32.2643 -32.2163 -32.2144 -32.2079 -32.2005 -32.1738
   -32.1506 -32.1255 -32.0949 -32.0852 -32.0804 -32.0600 -32.0530 -32.0466
   -32.0122 -31.9999 -31.9925 -31.9711 -31.9687 -31.9650 -31.9463 -31.9209
   -31.9142 -31.9064 -31.9035 -31.8945 -31.8928 -31.8852 -31.8797 -31.8584
   -31.8481 -31.8365 -31.8239 -31.8215 -31.7953 -31.6877 -31.6805 -31.4999
   -31.4522 -31.4512 -31.2937 -31.2053 -31.1829 -31.1105 -31.0240 -30.9129
   -19.2598 -16.6477 -16.3825 -16.1370 -16.0557 -16.0265 -15.9110 -15.7490
   -15.6318 -15.5710 -15.4707 -15.4646 -15.4443 -15.4116 -15.3814 -15.3569
   -15.3520 -15.3419 -15.3251 -15.2934 -15.2692 -15.2478 -15.2238 -15.1347
   -15.0776 -15.0421 -14.9826 -14.9746 -14.9651 -14.5037 -13.9290 -13.3889
   -13.2725  -6.6626  -5.3120  -4.2177  -4.0221  -3.9208  -3.8631  -3.8142
    -3.7595  -3.6561  -3.5184  -3.4493  -3.1357  -3.0835  -3.0715  -3.0469
    -3.0224  -2.8092  -2.7437  -2.7206  -2.6871  -2.6820  -2.6793  -2.6707
    -2.6539  -2.6213  -2.5000  -2.4436  -2.3697  -2.3338  -2.3026  -2.2950
    -2.2200  -2.1813  -2.1698  -2.1455  -2.1437  -2.1202  -2.1106  -2.0933
    -1.9561  -1.8892  -1.7671  -1.7023  -1.6685  -1.5168  -1.4898  -1.3859
    -1.3603  -1.3369  -1.3005  -1.2698  -1.2109  -1.0767  -1.0693  -1.0583
    -1.0262  -0.9275  -0.8749  -0.8018  -0.7461  -0.7276  -0.6769  -0.6651
    -0.6613  -0.6175  -0.4585  -0.3825  -0.3232  -0.3139  -0.2692  -0.2085
    -0.1785  -0.1003  -0.0579  -0.0280  -0.0144   0.0288   0.0661   0.0898
     0.1001   0.1096   0.1235   0.3089   0.3513   0.3694   0.4275   0.4450
     0.6171   0.6627   0.7476   0.8425   1.0610   1.1357   1.2191   1.3276
     1.3341   1.5823   1.7070   1.7527   3.2235   3.3131   3.3496   3.3583
     3.4655   3.5375   3.6802   3.6921   3.7126   3.7556

[...]

          k = 0.0380-0.0419 0.0000 ( 17876 PWs)   bands (ev):

[...]

          k =-0.0760-0.0000 0.0000 ( 17886 PWs)   bands (ev):

[...]

          k =-0.0760-0.0839 0.0000 ( 17948 PWs)   bands (ev):

   -55.8921 -55.8912 -55.8901 -55.8847 -55.7536 -55.7451 -55.7425 -55.7276
   -55.7011 -55.6988 -55.6681 -55.6650 -55.4654 -55.2233 -54.8695 -54.8694
   -32.2669 -32.2600 -32.2059 -32.2052 -32.1864 -32.1855 -32.1582 -32.1537
   -32.1137 -32.1062 -32.0804 -32.0782 -32.0387 -32.0314 -32.0232 -32.0207
   -32.0135 -32.0133 -32.0108 -32.0097 -32.0063 -32.0033 -31.9698 -31.9588
   -31.9504 -31.9441 -31.9301 -31.9268 -31.9015 -31.9008 -31.8990 -31.8965
   -31.8827 -31.8808 -31.8770 -31.8747 -31.8436 -31.6905 -31.6760 -31.5701
   -31.4733 -31.4540 -31.1956 -31.1955 -31.1066 -31.1064 -31.0673 -31.0672
   -19.2573 -16.0757 -16.0623 -15.8583 -15.8246 -15.8122 -15.8049 -15.6884
   -15.6093 -15.6009 -15.5998 -15.4985 -15.4869 -15.4780 -15.4459 -15.4362
   -15.4167 -15.4150 -15.3769 -15.3699 -15.3639 -15.3465 -15.3389 -15.2532
   -15.2268 -15.2226 -15.1913 -15.0779 -14.9430 -14.6840 -13.9348 -13.3743
   -13.3742  -6.6615  -5.2802  -4.1807  -3.9211  -3.3652  -3.3488  -3.0938
    -3.0625  -3.0534  -2.9980  -2.8258  -2.8084  -2.7847  -2.7627  -2.7321
    -2.7256  -2.7182  -2.7112  -2.6923  -2.6483  -2.6240  -2.5934  -2.5792
    -2.5647  -2.5643  -2.5335  -2.5206  -2.4793  -2.4650  -2.4544  -2.4320
    -2.4075  -2.3972  -2.2450  -2.1510  -2.1197  -2.0473  -2.0406  -1.9992
    -1.9727  -1.9577  -1.9348  -1.8990  -1.7573  -1.6426  -1.6068  -1.5921
    -1.5121  -1.4683  -1.3917  -1.3326  -1.2886  -1.2819  -1.2256  -1.1764
    -1.1156  -1.1044  -1.0410  -1.0080  -0.9704  -0.9377  -0.8973  -0.8667
    -0.8614  -0.7763  -0.7258  -0.7173  -0.6660  -0.6621  -0.6323  -0.5753
    -0.5562  -0.5281  -0.4053  -0.3854  -0.2783  -0.1961  -0.1349   0.0596
     0.1408   0.1658   0.2193   0.2898   0.3793   0.3932   0.4087   0.4144
     0.4629   0.5143   0.6209   0.6318   0.6702   0.8006   1.2540   1.4652
     1.4992   1.5000   1.5723   1.5726   3.5367   3.5462   3.5643   3.5807
     3.7364   3.7392   3.7591   3.7605   3.8945   3.9066

     the Fermi energy is     3.2249 ev

!    total energy              =   -2936.63954253 Ry
     estimated scf accuracy    <       0.00000005 Ry
     smearing contrib. (-TS)   =      -0.02146793 Ry
     internal energy E=F+TS    =   -2936.61807461 Ry

     The total energy is F=E-TS. E is the sum of the following terms:
     one-electron contribution =  -24291.82144621 Ry
     hartree contribution      =   12231.49678192 Ry
     xc contribution           =    -483.56510475 Ry
     ewald contribution        =    9607.27062987 Ry
     electric field correction =       0.00106456 Ry

     convergence has been achieved in  68 iterations

     Forces acting on atoms (cartesian axes, Ry/au):

     atom    1 type  1   force =     0.00009436   -0.00014366    0.09653713
     atom    2 type  1   force =    -0.00014553   -0.00057274   -0.17553194
     atom    3 type  2   force =    -0.00000048    0.00006167   -0.02460725
     atom    4 type  2   force =     0.00005328   -0.00130368    0.05297784
     atom    5 type  2   force =    -0.01199013    0.00009959    0.00367058
     atom    6 type  2   force =     0.01364161    0.00068995    0.00267692
     atom    7 type  1   force =    -0.00091928    0.00089455   -0.01123527
     atom    8 type  1   force =     0.00035851    0.00992558    0.02718657
     atom    9 type  2   force =    -0.00018510   -0.00023250    0.00016921
     atom   10 type  2   force =    -0.00142586    0.00227658   -0.01251531
     atom   11 type  2   force =    -0.00012525    0.00025129   -0.00024480
     atom   12 type  2   force =     0.00033023    0.00000129   -0.00055801
     atom   13 type  1   force =     0.00035075   -0.00122895   -0.00056396
     atom   14 type  1   force =     0.00042443    0.00001768    0.00000204
     atom   15 type  2   force =    -0.00012519   -0.00080458   -0.00040041
     atom   16 type  2   force =     0.00007754   -0.00047813    0.00007143
     atom   17 type  2   force =    -0.00085004   -0.00077285   -0.00019461
     atom   18 type  2   force =    -0.00065081   -0.00047401    0.00006656
     atom   19 type  1   force =     0.00028236   -0.00030952   -0.00001047
     atom   20 type  1   force =    -0.00003352   -0.00008318   -0.00010890
     atom   21 type  2   force =     0.00003623   -0.00004045    0.10326454
     atom   22 type  2   force =    -0.00022287   -0.00083457   -0.00097762
     atom   23 type  2   force =    -0.07147536   -0.00010337   -0.02767734
     atom   24 type  2   force =     0.07138888    0.00031863   -0.02768542
     atom   25 type  1   force =     0.00006214   -0.00012923    0.09605669
     atom   26 type  1   force =    -0.00022815   -0.00022084   -0.17569654
     atom   27 type  2   force =     0.00006322   -0.00012801   -0.02362816
     atom   28 type  2   force =     0.00005786   -0.00109144    0.05316096
     atom   29 type  2   force =    -0.01211486    0.00086705    0.00327480
     atom   30 type  2   force =     0.01367407    0.00133745    0.00233216
     atom   31 type  1   force =    -0.00082253    0.00332354   -0.01193139
     atom   32 type  1   force =     0.00043320   -0.01207448    0.02751411
     atom   33 type  2   force =     0.00021883    0.00015717    0.00012143
     atom   34 type  2   force =    -0.00106820    0.00252835   -0.02034903
     atom   35 type  2   force =     0.00016231   -0.00086659   -0.00028017
     atom   36 type  2   force =     0.00038801   -0.00059029   -0.00057849
     atom   37 type  1   force =     0.00004478    0.00116440   -0.00028924
     atom   38 type  1   force =     0.00033166    0.00031656   -0.00011220
     atom   39 type  2   force =    -0.00001054    0.00038937   -0.00081518
     atom   40 type  2   force =    -0.00002316    0.00005795   -0.00053613
     atom   41 type  2   force =     0.00008376    0.00014251   -0.00036390
     atom   42 type  2   force =    -0.00085684   -0.00008167    0.00107552
     atom   43 type  1   force =     0.00011305   -0.00035923    0.00019747
     atom   44 type  1   force =    -0.00024896   -0.00025709    0.00001488
     atom   45 type  2   force =     0.00004933   -0.00005537    0.10326864
     atom   46 type  2   force =    -0.07147199   -0.00006505   -0.02768008
     atom   47 type  2   force =     0.07140213    0.00034298   -0.02768883
     atom   48 type  3   force =    -0.00181011   -0.00054086   -0.00403710
     atom   49 type  3   force =     0.00248492   -0.00053956    0.00222814
     atom   50 type  4   force =    -0.00040669   -0.00036297    0.00053055
     atom   51 type  5   force =     0.00060400   -0.00041929   -0.00010041

     Total force =     0.367683     Total SCF correction =     0.000623
  @ DRIVER MODE: Message from server: STATUS
  @ DRIVER MODE: Message from server: GETFORCE
  @ DRIVER MODE: Returning v,forces,stress,ensemble

     Writing output data file ./calc.save/
  @ DRIVER MODE: Message from server: EXIT
  @ DRIVE MODE: Exiting

     General routines

     Parallel routines

   This run was terminated on:  16:40:44  23Aug2021

   JOB DONE.