     Program PWSCF v.6.7GPU starts on  9Sep2021 at  1:56:51

     R & G space division:  proc/nbgrp/npool/nimage =      10
     Reading input from /storage/home/hcoda1/3/ntian30/research/carbon/CxH_vib/CH2_calc/ads_slab/CH2_a/out_0015/pw.inp
Warning: card &CELL ignored
Warning: card   CELL_DYNAMICS='IPI', ignored
Warning: card / ignored

     Current dimensions of program PWSCF are:
     Max number of different atomic species (ntypx) = 10
     Max number of k-points (npk) =  40000
     Max angular momentum in pseudopotentials (lmaxx) =  3
     Presently no symmetry can be used with electric field

     Message from routine cell_base_init:
     DEPRECATED: use true lattice parameter, not A to a.u. conversion factor

     IMPORTANT: XC functional enforced from input :
     Exchange-correlation= BEEF-VDW
                           (   1   4  43  14   2   0   0)
     Any further DFT definition will be discarded
     Please, verify this is what you really want

  @ DRIVER MODE: Connecting to
 qe_1139763_2767395.sched-torque.pace.gatech.edunu9xark__scratch
  using UNIX socket
  @ DRIVER MODE: Message from server: STATUS
  @ DRIVER MODE: Message from server: INIT
  @ DRIVER MODE: Receiving replica           0          -1
  @ DRIVER MODE: Receiving encoded integer          25
  @ DRIVER MODE:  SCF:  T  FORCE:  T  STRESS:  F  VC:  F  ENSEMBLE:  F
  @ DRIVER MODE:  SCF:  T  FORCE:  T  STRESS:  F  VC:  F  ENSEMBLE:  F

     Using Slab Decomposition

     bravais-lattice index     =            0
     lattice parameter (alat)  =       1.8897  a.u.
     unit-cell volume          =    6658.9804 (a.u.)^3
     number of atoms/cell      =           50
     number of atomic types    =            4
     number of electrons       =       384.00
     number of Kohn-Sham states=          202
     kinetic-energy cutoff     =      29.3995  Ry
     charge density cutoff     =     293.9946  Ry
     scf convergence threshold =      7.3E-08
     mixing beta               =       0.0500
     number of iterations used =            8  plain     mixing
     Exchange-correlation= BEEF-VDW
                           (   1   4  43  14   2   0   0)

     celldm(1)=   1.889726  celldm(2)=   0.000000  celldm(3)=   0.000000
     celldm(4)=   0.000000  celldm(5)=   0.000000  celldm(6)=   0.000000

     crystal axes: (cart. coord. in units of alat)
               a(1) = (   6.579727   0.000000   0.000000 )
               a(2) = (  -0.000775   5.961596   0.000000 )
               a(3) = (   0.000000   0.000000  25.155947 )

     reciprocal axes: (cart. coord. in units 2 pi/alat)
               b(1) = (  0.151982  0.000020  0.000000 )
               b(2) = (  0.000000  0.167740  0.000000 )
               b(3) = (  0.000000  0.000000  0.039752 )

     PseudoPot. # 1 for Ti read from file:
     /storage/coda1/p-amedford6/0/shared/rich_project_chbe-medford/medford-share/data/pseudos_module/espresso/nninc/pbe/van/Ti.UPF
     MD5 check sum: 8e4df49b7f0d34bbd5052bf3f5ea0213
     Pseudo is Ultrasoft, Zval = 12.0
     Generated by new atomic code, or converted to UPF format
     Using radial grid of  851 points,  6 beta functions with:
                l(1) =   0
                l(2) =   0
                l(3) =   1
                l(4) =   1
                l(5) =   2
                l(6) =   2
     Q(r) pseudized with  8 coefficients,  rinner =    1.000   1.000   1.000
                                                       1.000   1.000

     PseudoPot. # 2 for O  read from file:
     /storage/coda1/p-amedford6/0/shared/rich_project_chbe-medford/medford-share/data/pseudos_module/espresso/nninc/pbe/van/O.UPF
     MD5 check sum: 78c19812648e8988a0fe644b0f25305e
     Pseudo is Ultrasoft, Zval =  6.0
     Generated by new atomic code, or converted to UPF format
     Using radial grid of  737 points,  4 beta functions with:
                l(1) =   0
                l(2) =   0
                l(3) =   1
                l(4) =   1
     Q(r) pseudized with  8 coefficients,  rinner =    0.800   0.800   0.800

     PseudoPot. # 3 for C  read from file:
     /storage/coda1/p-amedford6/0/shared/rich_project_chbe-medford/medford-share/data/pseudos_module/espresso/nninc/pbe/van/C.UPF
     MD5 check sum: 1a69bf6b8db32088f5b2163dbdb77a27
     Pseudo is Ultrasoft, Zval =  4.0
     Generated by new atomic code, or converted to UPF format
     Using radial grid of  721 points,  4 beta functions with:
                l(1) =   0
                l(2) =   0
                l(3) =   1
                l(4) =   1
     Q(r) pseudized with  8 coefficients,  rinner =    0.800   0.800   0.800

     PseudoPot. # 4 for H  read from file:
     /storage/coda1/p-amedford6/0/shared/rich_project_chbe-medford/medford-share/data/pseudos_module/espresso/nninc/pbe/van/H.UPF
     MD5 check sum: b5ee9d7bfd3a09ee7748110bda690ff7
     Pseudo is Ultrasoft, Zval =  1.0
     Generated by new atomic code, or converted to UPF format
     Using radial grid of  615 points,  1 beta functions with:
                l(1) =   0
     Q(r) pseudized with  8 coefficients,  rinner =    0.800

     atomic species   valence    mass     pseudopotential
        Ti1           12.00    47.86700     Ti( 1.00)
        O1             6.00    15.99900     O ( 1.00)
        C1             4.00    12.01100     C ( 1.00)
        H1             1.00     1.00800     H ( 1.00)

     No symmetry found

   Cartesian axes

     site n.     atom                  positions (alat units)
         1           Ti1 tau(   1) = (   0.0004258   2.9801865   6.0000000  )
         2           Ti1 tau(   2) = (   3.2906075   1.4906267   6.0002472  )
         3           O1  tau(   3) = (   0.0006271   0.0005054   7.9858123  )
         4           O1  tau(   4) = (   3.2906025   0.0005020   7.3038282  )
         5           O1  tau(   5) = (   4.5942328   1.4918067   9.2879030  )
         6           O1  tau(   6) = (   1.9868534   1.4903216   9.2879459  )
         7           Ti1 tau(   7) = (   3.2756478   2.8760420   9.1630771  )
         8           Ti1 tau(   8) = (   6.5651030   1.4385007   9.3790407  )
         9           O1  tau(   9) = (   3.2651923   0.0045787  11.3553482  )
        10           O1  tau(  10) = (   6.5766178   5.9492394  10.5646413  )
        11           O1  tau(  11) = (   1.2591847   1.4977620  12.6679731  )
        12           O1  tau(  12) = (   5.2482661   1.4982983  12.6347741  )
        13           Ti1 tau(  13) = (   0.0651775   2.9654633  12.8696618  )
        14           Ti1 tau(  14) = (   3.3800656   1.4924449  12.4946823  )
        15           O1  tau(  15) = (   6.5296085   5.9207011  14.6097682  )
        16           O1  tau(  16) = (   3.2682314   0.0147111  13.9481481  )
        17           O1  tau(  17) = (   4.4912147   1.5408453  16.1034427  )
        18           O1  tau(  18) = (   2.0062121   1.5430191  16.1010343  )
        19           Ti1 tau(  19) = (   3.2584153   3.0188911  15.7272741  )
        20           Ti1 tau(  20) = (   6.5595668   1.6180917  16.2090303  )
        21           O1  tau(  21) = (   3.2904802   0.0005063   4.7018136  )
        22           O1  tau(  22) = (   6.5447935   0.0528136  17.2578995  )
        23           O1  tau(  23) = (   1.3043587   1.4918075   6.0039043  )
        24           O1  tau(  24) = (   5.2767064   1.4903225   6.0039473  )
        25           Ti1 tau(  25) = (   0.0000382   5.9609847   6.0000000  )
        26           Ti1 tau(  26) = (   3.2902200   4.4714249   6.0002472  )
        27           O1  tau(  27) = (   0.0002396   2.9813036   7.9858123  )
        28           O1  tau(  28) = (   3.2902150   2.9813002   7.3038282  )
        29           O1  tau(  29) = (   4.5938453   4.4726049   9.2879030  )
        30           O1  tau(  30) = (   1.9864658   4.4711199   9.2879459  )
        31           Ti1 tau(  31) = (   3.2806623   5.8565216   9.1617982  )
        32           Ti1 tau(  32) = (   6.5670484   4.4138833   9.3856844  )
        33           O1  tau(  33) = (   3.2704644   2.9808095  11.3502114  )
        34           O1  tau(  34) = (   6.5770050   2.9672111  10.5601139  )
        35           O1  tau(  35) = (   1.2614422   4.4490125  12.6594447  )
        36           O1  tau(  36) = (   5.2451530   4.4578719  12.6250501  )
        37           Ti1 tau(  37) = (   0.0436288   5.9429386  12.8080954  )
        38           Ti1 tau(  38) = (   3.3780510   4.4695497  12.4860242  )
        39           O1  tau(  39) = (   6.5513063   2.9765972  14.7162787  )
        40           O1  tau(  40) = (   3.2682626   2.9952000  13.9367060  )
        41           O1  tau(  41) = (   4.4851171   4.5114873  16.1027694  )
        42           O1  tau(  42) = (   2.0082088   4.5103763  16.0975713  )
        43           Ti1 tau(  43) = (   3.2690221   0.0357551  15.7449602  )
        44           Ti1 tau(  44) = (   6.5655258   4.6249605  16.1704562  )
        45           O1  tau(  45) = (   3.2900926   2.9813045   4.7018136  )
        46           O1  tau(  46) = (   1.3039711   4.4726057   6.0039043  )
        47           O1  tau(  47) = (   5.2763189   4.4711207   6.0039473  )
        48           C1  tau(  48) = (   6.5259393   3.0234738  17.6125649  )
        49           H1  tau(  49) = (   0.8472112   3.1395175  18.2203151  )
        50           H1  tau(  50) = (   5.6209537   3.1060310  18.2142257  )

     number of k points=    10  Fermi-Dirac smearing, width (Ry)=  0.0073
                       cart. coord. in units 2pi/alat
        k(    1) = (   0.0000000   0.0000000   0.0000000), wk =   0.1250000
        k(    2) = (   0.0000000   0.0419351   0.0000000), wk =   0.2500000
        k(    3) = (   0.0000000  -0.0838702   0.0000000), wk =   0.1250000
        k(    4) = (   0.0379955   0.0000049   0.0000000), wk =   0.2500000
        k(    5) = (   0.0379955   0.0419400   0.0000000), wk =   0.2500000
        k(    6) = (   0.0379955  -0.0838652   0.0000000), wk =   0.2500000
        k(    7) = (   0.0379955  -0.0419301   0.0000000), wk =   0.2500000
        k(    8) = (  -0.0759910  -0.0000099   0.0000000), wk =   0.1250000
        k(    9) = (  -0.0759910   0.0419252   0.0000000), wk =   0.2500000
        k(   10) = (  -0.0759910  -0.0838800   0.0000000), wk =   0.1250000

     Initial potential from superposition of free atoms

     starting charge  367.99919, renormalised to  384.00000

     negative rho (up, down):  2.116E-02 0.000E+00

     %%%%%%%%%%%%%%%%%%%%%%%%%%%%%%%%%%%%%%%%%%%%%%%%%%%%%%%%%%%%%%%%%%%%%%%%
     %                                                                      %
     % You are using vdW-DF, which was implemented by the Thonhauser group. %
     % Please cite the following two papers that made this development      %
     % possible and the two reviews that describe the various versions:     %
     %                                                                      %
     %   T. Thonhauser et al., PRL 115, 136402 (2015).                      %
     %   T. Thonhauser et al., PRB 76, 125112 (2007).                       %
     %   K. Berland et al., Rep. Prog. Phys. 78, 066501 (2015).             %
     %   D.C. Langreth et al., J. Phys.: Condens. Matter 21, 084203 (2009). %
     %                                                                      %
     %                                                                      %
     % If you are calculating the stress with vdW-DF, please also cite:     %
     %                                                                      %
     %   R. Sabatini et al., J. Phys.: Condens. Matter 24, 424209 (2012).   %
     %                                                                      %
     %%%%%%%%%%%%%%%%%%%%%%%%%%%%%%%%%%%%%%%%%%%%%%%%%%%%%%%%%%%%%%%%%%%%%%%%

     Adding external electric field

     Computed dipole along edir(3) :
        Dipole               -0.5194 Ry au,         -1.3201 Debye
        Dipole field         -0.0010 Ry au,

        Potential amp.        0.0909 Ry
        Total length         46.3494 bohr

     Starting wfcs are  290 atomic wfcs
  @ DRIVER MODE: Message from server: STATUS
  @ DRIVER MODE: Message from server: POSDATA
  @ DRIVER MODE: Reading and sharing cell
  @ DRIVER MODE: Reading and sharing positions
  @ DRIVER MODE: Received positions

     Self-consistent Calculation

     iteration #  1     ecut=    29.40 Ry     beta= 0.05
     Davidson diagonalization with overlap
     c_bands:  1 eigenvalues not converged
     c_bands:  2 eigenvalues not converged
     c_bands:  4 eigenvalues not converged
     c_bands:  1 eigenvalues not converged
     c_bands:  1 eigenvalues not converged
     c_bands:  2 eigenvalues not converged
     c_bands:  1 eigenvalues not converged
     c_bands:  2 eigenvalues not converged
     c_bands:  1 eigenvalues not converged
     c_bands:  2 eigenvalues not converged
     ethr =  1.00E-05,  avg # of iterations = 22.0

[...]

     total energy              =   -2899.22836914 Ry
     estimated scf accuracy    <      12.10213242 Ry

     iteration #  2     ecut=    29.40 Ry     beta= 0.05
     Davidson diagonalization with overlap
     ethr =  3.15E-03,  avg # of iterations =  1.0

[...]

     iteration # 42     ecut=    29.40 Ry     beta= 0.05
     Davidson diagonalization with overlap
     c_bands:  1 eigenvalues not converged
     c_bands:  2 eigenvalues not converged
     ethr =  2.73E-07,  avg # of iterations =  5.2

[...]

     total energy              =   -2897.72463263 Ry
     estimated scf accuracy    <       0.00000014 Ry

     iteration # 60     ecut=    29.40 Ry     beta= 0.05
     Davidson diagonalization with overlap
     ethr =  3.69E-11,  avg # of iterations =  5.0

     negative rho (up, down):  2.038E-02 0.000E+00

     Adding external electric field

     Computed dipole along edir(3) :
        Dipole                0.2838 Ry au,          0.7213 Debye
        Dipole field          0.0005 Ry au,

        Potential amp.       -0.0496 Ry
        Total length         46.3494 bohr

     End of self-consistent calculation

          k = 0.0000 0.0000 0.0000 ( 18029 PWs)   bands (ev):

   -56.6527 -56.6187 -56.3989 -56.3622 -56.3258 -56.2732 -56.0914 -56.0855
   -56.0516 -55.9841 -55.9585 -55.9203 -55.5533 -55.4711 -55.4371 -55.4281
   -33.0822 -32.9451 -32.9016 -32.8728 -32.8431 -32.7766 -32.7516 -32.7229
   -32.7088 -32.6433 -32.6250 -32.5987 -32.5906 -32.5670 -32.5616 -32.5515
   -32.5481 -32.5303 -32.4589 -32.4540 -32.3874 -32.3488 -32.3372 -32.3259
   -32.3085 -32.3080 -32.2366 -32.2242 -32.2152 -32.1962 -32.1951 -32.1589
   -32.1500 -32.1366 -32.1126 -32.0574 -32.0207 -31.8725 -31.8614 -31.8072
   -31.7946 -31.7710 -31.7466 -31.6909 -31.6058 -31.6056 -31.4937 -31.4750
   -17.0501 -16.8382 -16.6269 -16.4779 -16.3964 -16.3440 -16.0507 -16.0332
   -16.0243 -15.9243 -15.9128 -15.8600 -15.8260 -15.8230 -15.8137 -15.8071
   -15.7724 -15.7288 -15.6969 -15.6615 -15.6283 -15.5946 -15.5042 -15.4656
   -15.4470 -15.3223 -15.2647 -15.2306 -15.0954 -13.9642 -13.8497  -8.3927
    -4.4327  -4.3835  -4.2310  -4.2224  -4.1029  -3.8884  -3.7064  -3.5187
    -3.4873  -3.4580  -3.4520  -3.3481  -3.2950  -3.1846  -3.1838  -3.1529
    -3.1382  -3.1062  -3.0847  -3.0801  -3.0399  -3.0229  -2.9560  -2.9147
    -2.9051  -2.8481  -2.7680  -2.6749  -2.6551  -2.6267  -2.5940  -2.5557
    -2.5375  -2.4395  -2.4324  -2.3672  -2.2336  -2.2094  -2.1615  -2.1334
    -2.1012  -2.0619  -1.9244  -1.7859  -1.7420  -1.7256  -1.6950  -1.6848
    -1.6547  -1.5321  -1.4898  -1.3904  -1.3590  -1.2475  -1.2348  -1.2173
    -1.2018  -1.1713  -1.1025  -1.0755  -1.0404  -0.9605  -0.8973  -0.7673
    -0.7346  -0.7154  -0.6864  -0.6789  -0.6206  -0.5788  -0.5208  -0.5105
    -0.4515  -0.4092  -0.3924  -0.3764  -0.3514  -0.2926  -0.2166  -0.1956
    -0.1321  -0.0949   0.1024   0.1406   0.1674   0.1875   0.2691   0.3019
     0.4792   0.4932   0.5577   0.7604   0.7992   1.1510   1.2304   1.7151
     2.6108   2.7909   2.9851   3.0432   3.0876   3.1674   3.2218   3.3000
     3.3328   3.4544

[...]

          k = 0.0380-0.0419 0.0000 ( 17876 PWs)   bands (ev):

[...]

          k =-0.0760-0.0000 0.0000 ( 17886 PWs)   bands (ev):

[...]

          k =-0.0760-0.0839 0.0000 ( 17948 PWs)   bands (ev):

   -56.6384 -56.6328 -56.3843 -56.3767 -56.3194 -56.2794 -56.0885 -56.0693
   -56.0676 -55.9868 -55.9470 -55.9317 -55.5509 -55.4541 -55.4540 -55.4304
   -32.9019 -32.8973 -32.8902 -32.8834 -32.7979 -32.7933 -32.7529 -32.7465
   -32.6865 -32.6734 -32.6163 -32.6096 -32.5859 -32.5782 -32.5710 -32.5633
   -32.5188 -32.4824 -32.4087 -32.3919 -32.3911 -32.3319 -32.3229 -32.3198
   -32.3080 -32.2930 -32.2878 -32.2842 -32.2620 -32.2532 -32.2339 -32.2174
   -32.1593 -32.1583 -32.1474 -32.1446 -31.9293 -31.8597 -31.8109 -31.7838
   -31.7838 -31.7313 -31.6988 -31.6866 -31.6865 -31.6485 -31.6484 -31.4947
   -16.5192 -16.4920 -16.2734 -16.2598 -16.1499 -16.1472 -16.1350 -16.1339
   -16.0456 -16.0412 -15.9950 -15.9747 -15.9170 -15.9047 -15.8634 -15.8619
   -15.8400 -15.8386 -15.7970 -15.7944 -15.6520 -15.6503 -15.5380 -15.5304
   -15.4928 -15.4509 -15.4108 -15.3982 -15.2359 -13.9519 -13.9515  -8.3946
    -3.8227  -3.7854  -3.4876  -3.4792  -3.2793  -3.2760  -3.2573  -3.2487
    -3.2286  -3.2013  -3.1986  -3.1858  -3.1478  -3.1070  -3.0841  -3.0657
    -3.0546  -3.0468  -3.0421  -3.0411  -3.0211  -3.0020  -2.9868  -2.9624
    -2.9026  -2.8916  -2.8679  -2.8587  -2.7761  -2.6316  -2.5642  -2.5583
    -2.5506  -2.5289  -2.4875  -2.3980  -2.3934  -2.3566  -2.3495  -2.3307
    -2.1383  -2.0726  -2.0693  -2.0075  -1.9787  -1.8752  -1.7286  -1.6951
    -1.6708  -1.6482  -1.5661  -1.5269  -1.5126  -1.4894  -1.4815  -1.4542
    -1.4440  -1.3584  -1.3497  -1.3169  -1.2712  -1.2095  -1.2056  -1.1839
    -1.1634  -1.0647  -0.9955  -0.9793  -0.9649  -0.9230  -0.8570  -0.8035
    -0.7632  -0.6751  -0.6595  -0.3906  -0.3887  -0.2531  -0.2398  -0.1129
    -0.1012  -0.0078   0.0232   0.0671   0.1821   0.1958   0.2007   0.2264
     0.3276   0.3289   0.3623   0.9413   0.9416   1.0070   1.0082   1.9899
     3.0335   3.0504   3.1320   3.1493   3.1538   3.1714   3.2154   3.2179
     3.5240   3.5643

     the Fermi energy is     2.3273 ev

!    total energy              =   -2897.72468514 Ry
     estimated scf accuracy    <       0.00000007 Ry
     smearing contrib. (-TS)   =      -0.00186248 Ry
     internal energy E=F+TS    =   -2897.72282267 Ry

     The total energy is F=E-TS. E is the sum of the following terms:
     one-electron contribution =  -24685.00246083 Ry
     hartree contribution      =   12420.45809741 Ry
     xc contribution           =    -473.85638909 Ry
     ewald contribution        =    9840.67777787 Ry
     electric field correction =       0.00015197 Ry

     convergence has been achieved in  60 iterations

     Forces acting on atoms (cartesian axes, Ry/au):

     atom    1 type  1   force =     0.00029995   -0.00003806    0.14819589
     atom    2 type  1   force =     0.00005512   -0.00032743   -0.17142520
     atom    3 type  2   force =    -0.00004584    0.00265297   -0.05988369
     atom    4 type  2   force =    -0.00032610   -0.00141067    0.04061430
     atom    5 type  2   force =    -0.02537017    0.00094102    0.00494550
     atom    6 type  2   force =     0.02287850    0.00011607    0.00299375
     atom    7 type  1   force =    -0.00050948   -0.00071241   -0.00013534
     atom    8 type  1   force =     0.00074096   -0.00041930    0.00040766
     atom    9 type  2   force =     0.00089777   -0.00028359    0.00035086
     atom   10 type  2   force =    -0.00010664   -0.00000842   -0.00022932
     atom   11 type  2   force =    -0.00016752    0.00004645    0.00015893
     atom   12 type  2   force =     0.00018144    0.00012945    0.00010715
     atom   13 type  1   force =     0.00003133   -0.00099766    0.00030545
     atom   14 type  1   force =    -0.00004323   -0.00115079   -0.00030930
     atom   15 type  2   force =     0.00022576   -0.00035071   -0.00050511
     atom   16 type  2   force =     0.00002075    0.00015358    0.00038002
     atom   17 type  2   force =     0.00108998    0.00007954    0.00029617
     atom   18 type  2   force =    -0.00071457   -0.00019804    0.00031118
     atom   19 type  1   force =     0.00055198   -0.00024762    0.00008890
     atom   20 type  1   force =     0.00020654   -0.00032186    0.00017822
     atom   21 type  2   force =     0.00014032   -0.00010275    0.10275460
     atom   22 type  2   force =     0.00006779    0.00000191   -0.00028094
     atom   23 type  2   force =    -0.07352907    0.00029589   -0.03461568
     atom   24 type  2   force =     0.07357851    0.00074181   -0.03466631
     atom   25 type  1   force =     0.00007825   -0.00018458    0.14939430
     atom   26 type  1   force =    -0.00000278   -0.00105090   -0.17158369
     atom   27 type  2   force =    -0.00006969    0.00192217   -0.05887286
     atom   28 type  2   force =    -0.00039774   -0.00137276    0.04058626
     atom   29 type  2   force =    -0.02528955    0.00191273    0.00523351
     atom   30 type  2   force =     0.02337925    0.00034435    0.00328086
     atom   31 type  1   force =    -0.00048112   -0.00019295   -0.00007913
     atom   32 type  1   force =     0.00062436   -0.00027784   -0.00000056
     atom   33 type  2   force =     0.00005391   -0.00037599    0.00043197
     atom   34 type  2   force =     0.00007261   -0.00014685    0.00004799
     atom   35 type  2   force =    -0.00019578   -0.00037518   -0.00035512
     atom   36 type  2   force =     0.00053233   -0.00063351   -0.00014073
     atom   37 type  1   force =     0.00088611    0.00031681   -0.00001493
     atom   38 type  1   force =    -0.00035232   -0.00015552    0.00022128
     atom   39 type  2   force =     0.00008161    0.00009361   -0.00103442
     atom   40 type  2   force =     0.00000095    0.00030123   -0.00082437
     atom   41 type  2   force =     0.00025264    0.00021621    0.00025894
     atom   42 type  2   force =     0.00020552    0.00050702    0.00037078
     atom   43 type  1   force =     0.00042082    0.00078944   -0.00080608
     atom   44 type  1   force =    -0.00051700    0.00013952    0.00020513
     atom   45 type  2   force =     0.00013734   -0.00009438    0.10271708
     atom   46 type  2   force =    -0.07355738   -0.00012355   -0.03460581
     atom   47 type  2   force =     0.07361476    0.00034130   -0.03468384
     atom   48 type  3   force =     0.00234516   -0.00028528   -0.00019824
     atom   49 type  4   force =    -0.00125552   -0.00054081   -0.00010386
     atom   50 type  4   force =    -0.00072080    0.00033630    0.00051785

     Total force =     0.404336     Total SCF correction =     0.000543
  @ DRIVER MODE: Message from server: STATUS
  @ DRIVER MODE: Message from server: GETFORCE
  @ DRIVER MODE: Returning v,forces,stress,ensemble

     Writing output data file ./calc.save/
  @ DRIVER MODE: Message from server: EXIT
  @ DRIVE MODE: Exiting

     General routines

     Parallel routines

   This run was terminated on:   2:10:58   9Sep2021

   JOB DONE.