     Program PWSCF v.6.7GPU starts on 23Sep2021 at 11:10:55

     R & G space division:  proc/nbgrp/npool/nimage =      10
     Reading input from /storage/home/hcoda1/3/ntian30/research/carbon/CxH_vib/H2O_calc/ads_slab/CH2NHNHH2O_b/out_0054/pw.inp
Warning: card &CELL ignored
Warning: card   CELL_DYNAMICS='IPI', ignored
Warning: card / ignored

     Current dimensions of program PWSCF are:
     Max number of different atomic species (ntypx) = 10
     Max number of k-points (npk) =  40000
     Max angular momentum in pseudopotentials (lmaxx) =  3
     Presently no symmetry can be used with electric field

     Message from routine cell_base_init:
     DEPRECATED: use true lattice parameter, not A to a.u. conversion factor

     IMPORTANT: XC functional enforced from input :
     Exchange-correlation= BEEF-VDW
                           (   1   4  43  14   2   0   0)
     Any further DFT definition will be discarded
     Please, verify this is what you really want

  @ DRIVER MODE: Connecting to
 qe_1139763_2937310.sched-torque.pace.gatech.edu1jzk1t2q_scratch
  using UNIX socket
  @ DRIVER MODE: Message from server: STATUS
  @ DRIVER MODE: Message from server: INIT
  @ DRIVER MODE: Receiving replica           0          -1
  @ DRIVER MODE: Receiving encoded integer          25
  @ DRIVER MODE:  SCF:  T  FORCE:  T  STRESS:  F  VC:  F  ENSEMBLE:  F
  @ DRIVER MODE:  SCF:  T  FORCE:  T  STRESS:  F  VC:  F  ENSEMBLE:  F

     Using Slab Decomposition

     bravais-lattice index     =            0
     lattice parameter (alat)  =       1.8897  a.u.
     unit-cell volume          =    6658.9804 (a.u.)^3
     number of atoms/cell      =           57
     number of atomic types    =            5
     number of electrons       =       404.00
     number of Kohn-Sham states=          212
     kinetic-energy cutoff     =      29.3995  Ry
     charge density cutoff     =     293.9946  Ry
     scf convergence threshold =      7.3E-08
     mixing beta               =       0.0500
     number of iterations used =            8  plain     mixing
     Exchange-correlation= BEEF-VDW
                           (   1   4  43  14   2   0   0)

     celldm(1)=   1.889726  celldm(2)=   0.000000  celldm(3)=   0.000000
     celldm(4)=   0.000000  celldm(5)=   0.000000  celldm(6)=   0.000000

     crystal axes: (cart. coord. in units of alat)
               a(1) = (   6.579727   0.000000   0.000000 )
               a(2) = (  -0.000775   5.961596   0.000000 )
               a(3) = (   0.000000   0.000000  25.155947 )

     reciprocal axes: (cart. coord. in units 2 pi/alat)
               b(1) = (  0.151982  0.000020  0.000000 )
               b(2) = (  0.000000  0.167740  0.000000 )
               b(3) = (  0.000000  0.000000  0.039752 )

     PseudoPot. # 1 for Ti read from file:
     /storage/coda1/p-amedford6/0/shared/rich_project_chbe-medford/medford-share/data/pseudos_module/espresso/nninc/pbe/van/Ti.UPF
     MD5 check sum: 8e4df49b7f0d34bbd5052bf3f5ea0213
     Pseudo is Ultrasoft, Zval = 12.0
     Generated by new atomic code, or converted to UPF format
     Using radial grid of  851 points,  6 beta functions with:
                l(1) =   0
                l(2) =   0
                l(3) =   1
                l(4) =   1
                l(5) =   2
                l(6) =   2
     Q(r) pseudized with  8 coefficients,  rinner =    1.000   1.000   1.000
                                                       1.000   1.000

     PseudoPot. # 2 for O  read from file:
     /storage/coda1/p-amedford6/0/shared/rich_project_chbe-medford/medford-share/data/pseudos_module/espresso/nninc/pbe/van/O.UPF
     MD5 check sum: 78c19812648e8988a0fe644b0f25305e
     Pseudo is Ultrasoft, Zval =  6.0
     Generated by new atomic code, or converted to UPF format
     Using radial grid of  737 points,  4 beta functions with:
                l(1) =   0
                l(2) =   0
                l(3) =   1
                l(4) =   1
     Q(r) pseudized with  8 coefficients,  rinner =    0.800   0.800   0.800

     PseudoPot. # 3 for N  read from file:
     /storage/coda1/p-amedford6/0/shared/rich_project_chbe-medford/medford-share/data/pseudos_module/espresso/nninc/pbe/van/N.UPF
     MD5 check sum: 90d10febe142ad51ac9d5be1deb811c4
     Pseudo is Ultrasoft, Zval =  5.0
     Generated by new atomic code, or converted to UPF format
     Using radial grid of  729 points,  4 beta functions with:
                l(1) =   0
                l(2) =   0
                l(3) =   1
                l(4) =   1
     Q(r) pseudized with  8 coefficients,  rinner =    0.800   0.800   0.800

     PseudoPot. # 4 for C  read from file:
     /storage/coda1/p-amedford6/0/shared/rich_project_chbe-medford/medford-share/data/pseudos_module/espresso/nninc/pbe/van/C.UPF
     MD5 check sum: 1a69bf6b8db32088f5b2163dbdb77a27
     Pseudo is Ultrasoft, Zval =  4.0
     Generated by new atomic code, or converted to UPF format
     Using radial grid of  721 points,  4 beta functions with:
                l(1) =   0
                l(2) =   0
                l(3) =   1
                l(4) =   1
     Q(r) pseudized with  8 coefficients,  rinner =    0.800   0.800   0.800

     PseudoPot. # 5 for H  read from file:
     /storage/coda1/p-amedford6/0/shared/rich_project_chbe-medford/medford-share/data/pseudos_module/espresso/nninc/pbe/van/H.UPF
     MD5 check sum: b5ee9d7bfd3a09ee7748110bda690ff7
     Pseudo is Ultrasoft, Zval =  1.0
     Generated by new atomic code, or converted to UPF format
     Using radial grid of  615 points,  1 beta functions with:
                l(1) =   0
     Q(r) pseudized with  8 coefficients,  rinner =    0.800

     atomic species   valence    mass     pseudopotential
        Ti1           12.00    47.86700     Ti( 1.00)
        O1             6.00    15.99900     O ( 1.00)
        N1             5.00    14.00700     N ( 1.00)
        C1             4.00    12.01100     C ( 1.00)
        H1             1.00     1.00800     H ( 1.00)

     No symmetry found

   Cartesian axes

     site n.     atom                  positions (alat units)
         1           Ti1 tau(   1) = (   0.0004258   2.9801865   6.0000000  )
         2           Ti1 tau(   2) = (   3.2906075   1.4906267   6.0002472  )
         3           O1  tau(   3) = (   0.0006271   0.0005054   7.9858123  )
         4           O1  tau(   4) = (   3.2906025   0.0005020   7.3038282  )
         5           O1  tau(   5) = (   4.5942328   1.4918067   9.2879030  )
         6           O1  tau(   6) = (   1.9868534   1.4903216   9.2879459  )
         7           Ti1 tau(   7) = (   3.2907910   2.8959150   9.1758416  )
         8           Ti1 tau(   8) = (   0.0015273   1.4827037   9.2680791  )
         9           O1  tau(   9) = (   3.2740695   5.9399032  11.3612631  )
        10           O1  tau(  10) = (   0.0116148   5.9584955  10.6183126  )
        11           O1  tau(  11) = (   1.2665466   1.4659349  12.6457467  )
        12           O1  tau(  12) = (   5.2636777   1.4644475  12.6520517  )
        13           Ti1 tau(  13) = (   0.0254019   2.9535957  12.5508080  )
        14           Ti1 tau(  14) = (   3.3235577   1.4585364  12.5144190  )
        15           O1  tau(  15) = (   0.0066209   5.9388471  14.7046414  )
        16           O1  tau(  16) = (   3.2471877   5.9405099  14.0100224  )
        17           O1  tau(  17) = (   4.5302733   1.5208160  16.0462967  )
        18           O1  tau(  18) = (   1.9955500   1.4995475  16.2009832  )
        19           Ti1 tau(  19) = (   3.2567830   2.9699832  15.6929747  )
        20           Ti1 tau(  20) = (   6.4949666   1.4732860  15.8443191  )
        21           O1  tau(  21) = (   3.2904802   0.0005063   4.7018136  )
        22           O1  tau(  22) = (   6.4419287   5.8812218  17.2824568  )
        23           O1  tau(  23) = (   1.3043587   1.4918075   6.0039043  )
        24           O1  tau(  24) = (   5.2767064   1.4903225   6.0039473  )
        25           Ti1 tau(  25) = (   0.0000382   5.9609847   6.0000000  )
        26           Ti1 tau(  26) = (   3.2902200   4.4714249   6.0002472  )
        27           O1  tau(  27) = (   0.0002396   2.9813036   7.9858123  )
        28           O1  tau(  28) = (   3.2902150   2.9813002   7.3038282  )
        29           O1  tau(  29) = (   4.5938453   4.4726049   9.2879030  )
        30           O1  tau(  30) = (   1.9864658   4.4711199   9.2879459  )
        31           Ti1 tau(  31) = (   3.2891106   5.8743827   9.1763621  )
        32           Ti1 tau(  32) = (   0.0006254   4.4649316   9.2693709  )
        33           O1  tau(  33) = (   3.2800166   2.9600013  11.3546200  )
        34           O1  tau(  34) = (   0.0092240   2.9805883  10.6323155  )
        35           O1  tau(  35) = (   1.2663080   4.4508225  12.6496728  )
        36           O1  tau(  36) = (   5.2650692   4.4524444  12.6537221  )
        37           Ti1 tau(  37) = (   0.0180281   5.9297397  12.5120547  )
        38           Ti1 tau(  38) = (   3.3242103   4.4456960  12.5094407  )
        39           O1  tau(  39) = (   0.0028395   2.9305241  14.7702868  )
        40           O1  tau(  40) = (   3.2369197   2.9632653  13.9133312  )
        41           O1  tau(  41) = (   4.5259019   4.3784886  16.1008109  )
        42           O1  tau(  42) = (   2.0017919   4.4285960  16.1845674  )
        43           Ti1 tau(  43) = (   3.2453488   5.9423767  15.8283900  )
        44           Ti1 tau(  44) = (   6.5728488   4.6138345  16.0446011  )
        45           O1  tau(  45) = (   3.2900926   2.9813045   4.7018136  )
        46           O1  tau(  46) = (   1.3039711   4.4726057   6.0039043  )
        47           O1  tau(  47) = (   5.2763189   4.4711207   6.0039473  )
        48           N1  tau(  48) = (   0.9567011   2.5879941  18.4848429  )
        49           N1  tau(  49) = (   6.5185693   2.8362889  17.6364570  )
        50           C1  tau(  50) = (   1.0658718   2.8740630  19.7563100  )
        51           H1  tau(  51) = (   1.9437682   2.5238050  20.2723566  )
        52           H1  tau(  52) = (   0.2809834   3.4210577  20.2544045  )
        53           H1  tau(  53) = (   1.7014144   2.0656717  17.9989220  )
        54           H1  tau(  54) = (   5.6742842   3.0275795  18.1730567  )
        55           O1  tau(  55) = (   3.7618585   0.1297276  18.3074903  )
        56           H1  tau(  56) = (   4.7330396   0.0541995  18.1389380  )
        57           H1  tau(  57) = (   3.4892521   5.2388606  18.6788193  )

     number of k points=    10  Fermi-Dirac smearing, width (Ry)=  0.0073
                       cart. coord. in units 2pi/alat
        k(    1) = (   0.0000000   0.0000000   0.0000000), wk =   0.1250000
        k(    2) = (   0.0000000   0.0419351   0.0000000), wk =   0.2500000
        k(    3) = (   0.0000000  -0.0838702   0.0000000), wk =   0.1250000
        k(    4) = (   0.0379955   0.0000049   0.0000000), wk =   0.2500000
        k(    5) = (   0.0379955   0.0419400   0.0000000), wk =   0.2500000
        k(    6) = (   0.0379955  -0.0838652   0.0000000), wk =   0.2500000
        k(    7) = (   0.0379955  -0.0419301   0.0000000), wk =   0.2500000
        k(    8) = (  -0.0759910  -0.0000099   0.0000000), wk =   0.1250000
        k(    9) = (  -0.0759910   0.0419252   0.0000000), wk =   0.2500000
        k(   10) = (  -0.0759910  -0.0838800   0.0000000), wk =   0.1250000

     Initial potential from superposition of free atoms

     starting charge  387.99913, renormalised to  404.00000

     negative rho (up, down):  1.394E-02 0.000E+00

     %%%%%%%%%%%%%%%%%%%%%%%%%%%%%%%%%%%%%%%%%%%%%%%%%%%%%%%%%%%%%%%%%%%%%%%%
     %                                                                      %
     % You are using vdW-DF, which was implemented by the Thonhauser group. %
     % Please cite the following two papers that made this development      %
     % possible and the two reviews that describe the various versions:     %
     %                                                                      %
     %   T. Thonhauser et al., PRL 115, 136402 (2015).                      %
     %   T. Thonhauser et al., PRB 76, 125112 (2007).                       %
     %   K. Berland et al., Rep. Prog. Phys. 78, 066501 (2015).             %
     %   D.C. Langreth et al., J. Phys.: Condens. Matter 21, 084203 (2009). %
     %                                                                      %
     %                                                                      %
     % If you are calculating the stress with vdW-DF, please also cite:     %
     %                                                                      %
     %   R. Sabatini et al., J. Phys.: Condens. Matter 24, 424209 (2012).   %
     %                                                                      %
     %%%%%%%%%%%%%%%%%%%%%%%%%%%%%%%%%%%%%%%%%%%%%%%%%%%%%%%%%%%%%%%%%%%%%%%%

     Adding external electric field

     Computed dipole along edir(3) :
        Dipole              -14.1780 Ry au,        -36.0369 Debye
        Dipole field         -0.0268 Ry au,

        Potential amp.        2.4802 Ry
        Total length         46.3494 bohr

     Starting wfcs are  306 atomic wfcs
  @ DRIVER MODE: Message from server: STATUS
  @ DRIVER MODE: Message from server: POSDATA
  @ DRIVER MODE: Reading and sharing cell
  @ DRIVER MODE: Reading and sharing positions
  @ DRIVER MODE: Received positions

     Self-consistent Calculation

     iteration #  1     ecut=    29.40 Ry     beta= 0.05
     Davidson diagonalization with overlap
     c_bands:  4 eigenvalues not converged
     c_bands:  1 eigenvalues not converged
     c_bands:  2 eigenvalues not converged
     c_bands:  2 eigenvalues not converged
     c_bands:  1 eigenvalues not converged
     c_bands:  1 eigenvalues not converged
     c_bands:  4 eigenvalues not converged
     c_bands:  1 eigenvalues not converged
     c_bands:  1 eigenvalues not converged
     ethr =  1.00E-05,  avg # of iterations = 30.9

[...]

     total energy              =   -2249.24387957 Ry
     estimated scf accuracy    <    8255.85457201 Ry

     iteration #  2     ecut=    29.40 Ry     beta= 0.05
     Davidson diagonalization with overlap
     ethr =  1.00E-02,  avg # of iterations = 26.4

[...]

     iteration # 67     ecut=    29.40 Ry     beta= 0.05
     Davidson diagonalization with overlap
     c_bands:  1 eigenvalues not converged
     ethr =  1.79E-10,  avg # of iterations = 12.4

[...]

     total energy              =   -2975.20161506 Ry
     estimated scf accuracy    <       0.00000010 Ry

     iteration # 71     ecut=    29.40 Ry     beta= 0.05
     Davidson diagonalization with overlap
     ethr =  2.49E-11,  avg # of iterations =  3.5

     negative rho (up, down):  1.354E-02 0.000E+00

     Adding external electric field

     Computed dipole along edir(3) :
        Dipole                1.4226 Ry au,          3.6159 Debye
        Dipole field          0.0027 Ry au,

        Potential amp.       -0.2489 Ry
        Total length         46.3494 bohr

     End of self-consistent calculation

          k = 0.0000 0.0000 0.0000 ( 18029 PWs)   bands (ev):

   -55.1437 -55.1154 -55.1071 -55.0813 -55.0789 -55.0298 -54.9879 -54.9552
   -54.9401 -54.9240 -54.9199 -54.9165 -54.9070 -54.8341 -54.1285 -54.0944
   -31.7067 -31.6051 -31.5229 -31.4798 -31.4591 -31.4545 -31.4443 -31.4422
   -31.4051 -31.3851 -31.3631 -31.3597 -31.3434 -31.3211 -31.3045 -31.2906
   -31.2848 -31.2681 -31.2656 -31.2563 -31.2267 -31.2138 -31.2099 -31.1848
   -31.1778 -31.1723 -31.1629 -31.1571 -31.1555 -31.1483 -31.1368 -31.1348
   -31.1128 -31.1044 -31.1006 -31.0917 -31.0840 -31.0714 -31.0688 -31.0505
   -31.0482 -31.0143 -30.5370 -30.4449 -30.4227 -30.3535 -30.2668 -30.1558
   -19.2622 -18.6093 -15.9608 -15.6960 -15.5649 -15.3993 -15.3357 -15.1644
   -15.0837 -15.0185 -14.9329 -14.8741 -14.8601 -14.8537 -14.7620 -14.7438
   -14.6909 -14.6787 -14.6720 -14.6410 -14.6328 -14.5753 -14.5707 -14.5654
   -14.5315 -14.5187 -14.4888 -14.3710 -14.2904 -14.2336 -14.0210 -13.6694
   -12.6310 -12.5139 -10.0203  -6.8260  -6.4843  -6.3689  -4.0749  -3.9015
    -3.3126  -3.1724  -3.1509  -3.0697  -3.0447  -2.9319  -2.8670  -2.7076
    -2.5981  -2.4994  -2.4096  -2.3403  -2.3318  -2.3037  -2.1867  -2.1245
    -2.0783  -2.0352  -2.0174  -2.0042  -1.9554  -1.9195  -1.9171  -1.8516
    -1.8489  -1.7111  -1.6174  -1.6124  -1.5782  -1.5622  -1.4738  -1.4507
    -1.4413  -1.4351  -1.4286  -1.4212  -1.3870  -1.3427  -1.3175  -1.2352
    -1.1801  -1.1366  -1.0056  -0.9038  -0.8316  -0.7736  -0.6851  -0.6818
    -0.6141  -0.5488  -0.5343  -0.5326  -0.4720  -0.3507  -0.3053  -0.2546
    -0.2332  -0.2083  -0.1187  -0.1018  -0.0319   0.0408   0.0694   0.0794
     0.1008   0.2745   0.2822   0.3113   0.3301   0.4197   0.4721   0.5137
     0.5202   0.5428   0.6091   0.6475   0.7389   0.7864   0.7972   0.8179
     0.8395   0.8790   0.9558   0.9659   1.0065   1.0298   1.1716   1.2070
     1.2602   1.4762   1.4781   1.8071   1.8475   1.8942   2.0804   2.4686
     2.5160   3.9556   4.0453   4.0845   4.0862   4.1051   4.1907   4.3244
     4.4367   4.4472   4.4593   4.4813

[...]

          k = 0.0380-0.0419 0.0000 ( 17876 PWs)   bands (ev):

[...]

          k =-0.0760-0.0000 0.0000 ( 17886 PWs)   bands (ev):

[...]

          k =-0.0760-0.0839 0.0000 ( 17948 PWs)   bands (ev):

   -55.1290 -55.1216 -55.0985 -55.0980 -55.0769 -55.0208 -54.9969 -54.9402
   -54.9339 -54.9254 -54.9244 -54.9234 -54.9133 -54.8376 -54.1115 -54.1113
   -31.5151 -31.5068 -31.4218 -31.4205 -31.4200 -31.4048 -31.3908 -31.3902
   -31.3662 -31.3638 -31.3591 -31.3523 -31.3412 -31.3109 -31.2810 -31.2742
   -31.2736 -31.2732 -31.2687 -31.2632 -31.2562 -31.2380 -31.2240 -31.2214
   -31.2182 -31.2179 -31.2174 -31.1962 -31.1734 -31.1649 -31.1631 -31.1540
   -31.1481 -31.1456 -31.1435 -31.1424 -31.1407 -31.1112 -31.1051 -31.1032
   -31.0883 -31.0578 -30.4354 -30.4353 -30.3497 -30.3495 -30.3102 -30.3102
   -19.2596 -18.6089 -15.4550 -15.2980 -15.2847 -15.1330 -15.1190 -15.1107
   -15.0859 -15.0106 -14.9919 -14.9280 -14.9151 -14.8713 -14.8451 -14.8322
   -14.8211 -14.7278 -14.7205 -14.7143 -14.6984 -14.6478 -14.6357 -14.6186
   -14.5953 -14.5912 -14.5544 -14.4900 -14.4868 -14.4544 -14.2215 -13.6803
   -12.6155 -12.6154 -10.0232  -6.8198  -6.4878  -6.3607  -4.0504  -3.8883
    -2.9525  -2.7202  -2.5274  -2.5068  -2.4637  -2.3663  -2.3251  -2.2845
    -2.1882  -2.1389  -2.1234  -2.1014  -2.0876  -2.0286  -2.0242  -2.0217
    -1.9852  -1.9771  -1.9627  -1.9378  -1.9153  -1.8820  -1.8681  -1.8568
    -1.8440  -1.8050  -1.7859  -1.7572  -1.7442  -1.7145  -1.6983  -1.6290
    -1.5253  -1.4952  -1.4418  -1.3491  -1.3305  -1.3248  -1.2398  -1.2088
    -1.1943  -1.1791  -1.1651  -1.1028  -0.9679  -0.8791  -0.8690  -0.8172
    -0.7518  -0.7179  -0.6752  -0.6479  -0.6199  -0.5656  -0.5164  -0.4921
    -0.4187  -0.3657  -0.3595  -0.3269  -0.1812  -0.1570  -0.1098  -0.1075
    -0.0931  -0.0842   0.0056   0.0223   0.0666   0.0865   0.1263   0.1448
     0.2177   0.2342   0.3537   0.4234   0.4855   0.5916   0.7325   0.7456
     0.8176   0.8787   0.9177   0.9833   1.0411   1.0747   1.1565   1.1667
     1.1831   1.2844   1.3337   1.3403   1.3572   2.2528   2.2544   2.3359
     2.3360   4.1181   4.1405   4.2297   4.2434   4.2957   4.3784   4.4679
     4.4944   4.5294   4.5333   4.6114

     the Fermi energy is     4.0038 ev

!    total energy              =   -2975.20163317 Ry
     estimated scf accuracy    <       0.00000007 Ry
     smearing contrib. (-TS)   =      -0.03820636 Ry
     internal energy E=F+TS    =   -2975.16342682 Ry

     The total energy is F=E-TS. E is the sum of the following terms:
     one-electron contribution =  -23645.85261221 Ry
     hartree contribution      =   11921.10055979 Ry
     xc contribution           =    -494.97583151 Ry
     ewald contribution        =    9244.56063787 Ry
     electric field correction =       0.00381924 Ry

     convergence has been achieved in  71 iterations

     Forces acting on atoms (cartesian axes, Ry/au):

     atom    1 type  1   force =     0.00013840   -0.00013612    0.09422710
     atom    2 type  1   force =    -0.00023179   -0.00026653   -0.17726781
     atom    3 type  2   force =     0.00001652   -0.00026489   -0.02171724
     atom    4 type  2   force =    -0.00004301   -0.00184772    0.05694667
     atom    5 type  2   force =    -0.01106098   -0.00171713    0.00686897
     atom    6 type  2   force =     0.01215013   -0.00091178    0.00493406
     atom    7 type  1   force =    -0.00122154    0.00155619   -0.01217938
     atom    8 type  1   force =     0.00072476    0.00495409    0.00603607
     atom    9 type  2   force =     0.00026691    0.00050668    0.00032352
     atom   10 type  2   force =    -0.00307293   -0.00067613   -0.00506301
     atom   11 type  2   force =     0.00081359    0.00021092   -0.00024360
     atom   12 type  2   force =    -0.00006882    0.00050803    0.00000293
     atom   13 type  1   force =    -0.00021914    0.00010636   -0.00007616
     atom   14 type  1   force =    -0.00000702    0.00013082   -0.00010161
     atom   15 type  2   force =    -0.00005381    0.00004958    0.00023946
     atom   16 type  2   force =     0.00040021    0.00035273   -0.00012037
     atom   17 type  2   force =     0.00014354   -0.00003472    0.00027261
     atom   18 type  2   force =     0.00012112   -0.00022611    0.00020112
     atom   19 type  1   force =     0.00038241    0.00034789   -0.00012710
     atom   20 type  1   force =    -0.00009016    0.00037955    0.00024259
     atom   21 type  2   force =     0.00005027    0.00002358    0.10365230
     atom   22 type  2   force =     0.00084353   -0.00011559   -0.00020074
     atom   23 type  2   force =    -0.07084780   -0.00009331   -0.02718189
     atom   24 type  2   force =     0.07067947    0.00038876   -0.02721951
     atom   25 type  1   force =    -0.00006667   -0.00028059    0.09394812
     atom   26 type  1   force =    -0.00031514   -0.00035729   -0.17743684
     atom   27 type  2   force =     0.00000824   -0.00023008   -0.02075195
     atom   28 type  2   force =     0.00003600   -0.00148701    0.05597679
     atom   29 type  2   force =    -0.01133369   -0.00053449    0.00690139
     atom   30 type  2   force =     0.01229204   -0.00025744    0.00492148
     atom   31 type  1   force =    -0.00121460    0.00506304   -0.01496170
     atom   32 type  1   force =     0.00092671   -0.00601203    0.00586900
     atom   33 type  2   force =     0.00035483   -0.00013470    0.00011378
     atom   34 type  2   force =    -0.00261106   -0.00151303   -0.00577229
     atom   35 type  2   force =     0.00037105    0.00030313   -0.00031056
     atom   36 type  2   force =     0.00044106    0.00040908   -0.00007367
     atom   37 type  1   force =    -0.00016811   -0.00015615   -0.00016717
     atom   38 type  1   force =     0.00005678    0.00031746    0.00044328
     atom   39 type  2   force =     0.00009875    0.00086124   -0.00079989
     atom   40 type  2   force =     0.00003463   -0.00008421    0.00002317
     atom   41 type  2   force =     0.00084818    0.00036473    0.00050595
     atom   42 type  2   force =    -0.00075900    0.00022972   -0.00005750
     atom   43 type  1   force =     0.00073206   -0.00073851    0.00014763
     atom   44 type  1   force =     0.00003994    0.00017229   -0.00039209
     atom   45 type  2   force =     0.00001899   -0.00002402    0.10365176
     atom   46 type  2   force =    -0.07083693   -0.00000174   -0.02719780
     atom   47 type  2   force =     0.07066962    0.00040329   -0.02719368
     atom   48 type  3   force =    -0.00069887    0.00012121    0.00025070
     atom   49 type  3   force =     0.00027923    0.00008305   -0.00084627
     atom   50 type  4   force =     0.00024468   -0.00015150    0.00022924
     atom   51 type  5   force =    -0.00011831   -0.00009282    0.00019578
     atom   52 type  5   force =     0.00031984   -0.00063620   -0.00017999
     atom   53 type  5   force =    -0.00052227    0.00064588    0.00036811
     atom   54 type  5   force =     0.00090715    0.00047256    0.00019012
     atom   55 type  2   force =    -0.00196320   -0.00021976    0.00114435
     atom   56 type  5   force =     0.00299668    0.00019132   -0.00201494
     atom   57 type  5   force =    -0.00088242    0.00004840    0.00082672

     Total force =     0.365671     Total SCF correction =     0.000685
  @ DRIVER MODE: Message from server: STATUS
  @ DRIVER MODE: Message from server: GETFORCE
  @ DRIVER MODE: Returning v,forces,stress,ensemble

     Writing output data file ./calc.save/
  @ DRIVER MODE: Message from server: EXIT
  @ DRIVE MODE: Exiting

     General routines

     Parallel routines

   This run was terminated on:  11:30:51  23Sep2021

   JOB DONE.