     Program PWSCF v.6.7GPU starts on  8Sep2021 at 22:37: 2

     R & G space division:  proc/nbgrp/npool/nimage =      10
     Reading input from /storage/home/hcoda1/3/ntian30/research/carbon/CxH_vib/CH3_calc/ads_slab/CH3NH2NH_c/out_0002/pw.inp
Warning: card &CELL ignored
Warning: card   CELL_DYNAMICS='IPI', ignored
Warning: card / ignored

     Current dimensions of program PWSCF are:
     Max number of different atomic species (ntypx) = 10
     Max number of k-points (npk) =  40000
     Max angular momentum in pseudopotentials (lmaxx) =  3
     Presently no symmetry can be used with electric field

     Message from routine cell_base_init:
     DEPRECATED: use true lattice parameter, not A to a.u. conversion factor

     IMPORTANT: XC functional enforced from input :
     Exchange-correlation= BEEF-VDW
                           (   1   4  43  14   2   0   0)
     Any further DFT definition will be discarded
     Please, verify this is what you really want

  @ DRIVER MODE: Connecting to
 qe_1139763_2767400.sched-torque.pace.gatech.edulq1k5zkf_scratch
  using UNIX socket
  @ DRIVER MODE: Message from server: STATUS
  @ DRIVER MODE: Message from server: INIT
  @ DRIVER MODE: Receiving replica           0          -1
  @ DRIVER MODE: Receiving encoded integer          25
  @ DRIVER MODE:  SCF:  T  FORCE:  T  STRESS:  F  VC:  F  ENSEMBLE:  F
  @ DRIVER MODE:  SCF:  T  FORCE:  T  STRESS:  F  VC:  F  ENSEMBLE:  F

     Using Slab Decomposition

     bravais-lattice index     =            0
     lattice parameter (alat)  =       1.8897  a.u.
     unit-cell volume          =    6658.9804 (a.u.)^3
     number of atoms/cell      =           56
     number of atomic types    =            5
     number of electrons       =       398.00
     number of Kohn-Sham states=          209
     kinetic-energy cutoff     =      29.3995  Ry
     charge density cutoff     =     293.9946  Ry
     scf convergence threshold =      7.3E-08
     mixing beta               =       0.0500
     number of iterations used =            8  plain     mixing
     Exchange-correlation= BEEF-VDW
                           (   1   4  43  14   2   0   0)

     celldm(1)=   1.889726  celldm(2)=   0.000000  celldm(3)=   0.000000
     celldm(4)=   0.000000  celldm(5)=   0.000000  celldm(6)=   0.000000

     crystal axes: (cart. coord. in units of alat)
               a(1) = (   6.579727   0.000000   0.000000 )
               a(2) = (  -0.000775   5.961596   0.000000 )
               a(3) = (   0.000000   0.000000  25.155947 )

     reciprocal axes: (cart. coord. in units 2 pi/alat)
               b(1) = (  0.151982  0.000020  0.000000 )
               b(2) = (  0.000000  0.167740  0.000000 )
               b(3) = (  0.000000  0.000000  0.039752 )

     PseudoPot. # 1 for Ti read from file:
     /storage/coda1/p-amedford6/0/shared/rich_project_chbe-medford/medford-share/data/pseudos_module/espresso/nninc/pbe/van/Ti.UPF
     MD5 check sum: 8e4df49b7f0d34bbd5052bf3f5ea0213
     Pseudo is Ultrasoft, Zval = 12.0
     Generated by new atomic code, or converted to UPF format
     Using radial grid of  851 points,  6 beta functions with:
                l(1) =   0
                l(2) =   0
                l(3) =   1
                l(4) =   1
                l(5) =   2
                l(6) =   2
     Q(r) pseudized with  8 coefficients,  rinner =    1.000   1.000   1.000
                                                       1.000   1.000

     PseudoPot. # 2 for O  read from file:
     /storage/coda1/p-amedford6/0/shared/rich_project_chbe-medford/medford-share/data/pseudos_module/espresso/nninc/pbe/van/O.UPF
     MD5 check sum: 78c19812648e8988a0fe644b0f25305e
     Pseudo is Ultrasoft, Zval =  6.0
     Generated by new atomic code, or converted to UPF format
     Using radial grid of  737 points,  4 beta functions with:
                l(1) =   0
                l(2) =   0
                l(3) =   1
                l(4) =   1
     Q(r) pseudized with  8 coefficients,  rinner =    0.800   0.800   0.800

     PseudoPot. # 3 for N  read from file:
     /storage/coda1/p-amedford6/0/shared/rich_project_chbe-medford/medford-share/data/pseudos_module/espresso/nninc/pbe/van/N.UPF
     MD5 check sum: 90d10febe142ad51ac9d5be1deb811c4
     Pseudo is Ultrasoft, Zval =  5.0
     Generated by new atomic code, or converted to UPF format
     Using radial grid of  729 points,  4 beta functions with:
                l(1) =   0
                l(2) =   0
                l(3) =   1
                l(4) =   1
     Q(r) pseudized with  8 coefficients,  rinner =    0.800   0.800   0.800

     PseudoPot. # 4 for C  read from file:
     /storage/coda1/p-amedford6/0/shared/rich_project_chbe-medford/medford-share/data/pseudos_module/espresso/nninc/pbe/van/C.UPF
     MD5 check sum: 1a69bf6b8db32088f5b2163dbdb77a27
     Pseudo is Ultrasoft, Zval =  4.0
     Generated by new atomic code, or converted to UPF format
     Using radial grid of  721 points,  4 beta functions with:
                l(1) =   0
                l(2) =   0
                l(3) =   1
                l(4) =   1
     Q(r) pseudized with  8 coefficients,  rinner =    0.800   0.800   0.800

     PseudoPot. # 5 for H  read from file:
     /storage/coda1/p-amedford6/0/shared/rich_project_chbe-medford/medford-share/data/pseudos_module/espresso/nninc/pbe/van/H.UPF
     MD5 check sum: b5ee9d7bfd3a09ee7748110bda690ff7
     Pseudo is Ultrasoft, Zval =  1.0
     Generated by new atomic code, or converted to UPF format
     Using radial grid of  615 points,  1 beta functions with:
                l(1) =   0
     Q(r) pseudized with  8 coefficients,  rinner =    0.800

     atomic species   valence    mass     pseudopotential
        Ti1           12.00    47.86700     Ti( 1.00)
        O1             6.00    15.99900     O ( 1.00)
        N1             5.00    14.00700     N ( 1.00)
        C1             4.00    12.01100     C ( 1.00)
        H1             1.00     1.00800     H ( 1.00)

     No symmetry found

   Cartesian axes

     site n.     atom                  positions (alat units)
         1           Ti1 tau(   1) = (   0.0004258   2.9801865   6.0000000  )
         2           Ti1 tau(   2) = (   3.2906075   1.4906267   6.0002472  )
         3           O1  tau(   3) = (   0.0006271   0.0005054   7.9858123  )
         4           O1  tau(   4) = (   3.2906025   0.0005020   7.3038282  )
         5           O1  tau(   5) = (   4.5942328   1.4918067   9.2879030  )
         6           O1  tau(   6) = (   1.9868534   1.4903216   9.2879459  )
         7           Ti1 tau(   7) = (   3.2907910   2.8959150   9.1758416  )
         8           Ti1 tau(   8) = (   0.0015273   1.4827037   9.2680791  )
         9           O1  tau(   9) = (   3.3032705   0.0110091  11.3485381  )
        10           O1  tau(  10) = (   0.0116148   5.9584955  10.6183126  )
        11           O1  tau(  11) = (   1.3020657   1.4959176  12.6398190  )
        12           O1  tau(  12) = (   5.2896457   1.4919019  12.6612249  )
        13           Ti1 tau(  13) = (   0.0353884   3.0012823  12.5523301  )
        14           Ti1 tau(  14) = (   3.3275346   1.5008247  12.4978572  )
        15           O1  tau(  15) = (   0.0424128   0.0047235  14.7277795  )
        16           O1  tau(  16) = (   3.2762846   0.0047332  13.9819514  )
        17           O1  tau(  17) = (   4.5591522   1.5298593  16.0930730  )
        18           O1  tau(  18) = (   2.0612242   1.5646392  16.2256692  )
        19           Ti1 tau(  19) = (   3.3170857   3.0293758  15.7013767  )
        20           Ti1 tau(  20) = (   6.5267591   1.5471840  15.7818195  )
        21           O1  tau(  21) = (   3.2904802   0.0005063   4.7018136  )
        22           O1  tau(  22) = (   0.0258072   0.0396315  17.3287798  )
        23           O1  tau(  23) = (   1.3043587   1.4918075   6.0039043  )
        24           O1  tau(  24) = (   5.2767064   1.4903225   6.0039473  )
        25           Ti1 tau(  25) = (   0.0000382   5.9609847   6.0000000  )
        26           Ti1 tau(  26) = (   3.2902200   4.4714249   6.0002472  )
        27           O1  tau(  27) = (   0.0002396   2.9813036   7.9858123  )
        28           O1  tau(  28) = (   3.2902150   2.9813002   7.3038282  )
        29           O1  tau(  29) = (   4.5938453   4.4726049   9.2879030  )
        30           O1  tau(  30) = (   1.9864658   4.4711199   9.2879459  )
        31           Ti1 tau(  31) = (   3.2891106   5.8743827   9.1763621  )
        32           Ti1 tau(  32) = (   0.0006254   4.4649316   9.2693709  )
        33           O1  tau(  33) = (   3.3047253   2.9863606  11.3412877  )
        34           O1  tau(  34) = (   0.0092240   2.9805883  10.6323155  )
        35           O1  tau(  35) = (   1.3023160   4.4818153  12.6295520  )
        36           O1  tau(  36) = (   5.2910779   4.4839738  12.6480862  )
        37           Ti1 tau(  37) = (   0.0306270   0.0097343  12.5156175  )
        38           Ti1 tau(  38) = (   3.3295341   4.4791655  12.4867326  )
        39           O1  tau(  39) = (   0.0319336   2.9935560  14.7343221  )
        40           O1  tau(  40) = (   3.2835893   3.0037955  13.9224844  )
        41           O1  tau(  41) = (   4.5669158   4.4809188  16.1713821  )
        42           O1  tau(  42) = (   2.0542530   4.4668402  16.2247519  )
        43           Ti1 tau(  43) = (   3.3000170   0.0150779  15.7669526  )
        44           Ti1 tau(  44) = (   0.0416703   4.6955124  16.1636639  )
        45           O1  tau(  45) = (   3.2900926   2.9813045   4.7018136  )
        46           O1  tau(  46) = (   1.3039711   4.4726057   6.0039043  )
        47           O1  tau(  47) = (   5.2763189   4.4711207   6.0039473  )
        48           N1  tau(  48) = (   0.9119483   2.4226080  18.4567899  )
        49           N1  tau(  49) = (   6.4923839   2.9153054  17.5348467  )
        50           C1  tau(  50) = (   1.2734633   3.3482217  19.5544901  )
        51           H1  tau(  51) = (   0.3921683   3.5464126  20.1615046  )
        52           H1  tau(  52) = (   2.0553077   2.8833093  20.1573268  )
        53           H1  tau(  53) = (   1.6239766   4.2728770  19.1044814  )
        54           H1  tau(  54) = (   0.5870980   1.4942747  18.7832689  )
        55           H1  tau(  55) = (   5.5983569   2.8486818  18.0159164  )
        56           H1  tau(  56) = (   1.7025450   2.1792920  17.8234971  )

     number of k points=    10  Fermi-Dirac smearing, width (Ry)=  0.0073
                       cart. coord. in units 2pi/alat
        k(    1) = (   0.0000000   0.0000000   0.0000000), wk =   0.1250000
        k(    2) = (   0.0000000   0.0419351   0.0000000), wk =   0.2500000
        k(    3) = (   0.0000000  -0.0838702   0.0000000), wk =   0.1250000
        k(    4) = (   0.0379955   0.0000049   0.0000000), wk =   0.2500000
        k(    5) = (   0.0379955   0.0419400   0.0000000), wk =   0.2500000
        k(    6) = (   0.0379955  -0.0838652   0.0000000), wk =   0.2500000
        k(    7) = (   0.0379955  -0.0419301   0.0000000), wk =   0.2500000
        k(    8) = (  -0.0759910  -0.0000099   0.0000000), wk =   0.1250000
        k(    9) = (  -0.0759910   0.0419252   0.0000000), wk =   0.2500000
        k(   10) = (  -0.0759910  -0.0838800   0.0000000), wk =   0.1250000

     Initial potential from superposition of free atoms

     starting charge  381.99914, renormalised to  398.00000

     negative rho (up, down):  1.484E-02 0.000E+00

     %%%%%%%%%%%%%%%%%%%%%%%%%%%%%%%%%%%%%%%%%%%%%%%%%%%%%%%%%%%%%%%%%%%%%%%%
     %                                                                      %
     % You are using vdW-DF, which was implemented by the Thonhauser group. %
     % Please cite the following two papers that made this development      %
     % possible and the two reviews that describe the various versions:     %
     %                                                                      %
     %   T. Thonhauser et al., PRL 115, 136402 (2015).                      %
     %   T. Thonhauser et al., PRB 76, 125112 (2007).                       %
     %   K. Berland et al., Rep. Prog. Phys. 78, 066501 (2015).             %
     %   D.C. Langreth et al., J. Phys.: Condens. Matter 21, 084203 (2009). %
     %                                                                      %
     %                                                                      %
     % If you are calculating the stress with vdW-DF, please also cite:     %
     %                                                                      %
     %   R. Sabatini et al., J. Phys.: Condens. Matter 24, 424209 (2012).   %
     %                                                                      %
     %%%%%%%%%%%%%%%%%%%%%%%%%%%%%%%%%%%%%%%%%%%%%%%%%%%%%%%%%%%%%%%%%%%%%%%%

     Adding external electric field

     Computed dipole along edir(3) :
        Dipole              -10.9106 Ry au,        -27.7320 Debye
        Dipole field         -0.0206 Ry au,

        Potential amp.        1.9086 Ry
        Total length         46.3494 bohr

     Starting wfcs are  302 atomic wfcs
  @ DRIVER MODE: Message from server: STATUS
  @ DRIVER MODE: Message from server: POSDATA
  @ DRIVER MODE: Reading and sharing cell
  @ DRIVER MODE: Reading and sharing positions
  @ DRIVER MODE: Received positions

     Self-consistent Calculation

     iteration #  1     ecut=    29.40 Ry     beta= 0.05
     Davidson diagonalization with overlap
     c_bands:  5 eigenvalues not converged
     c_bands:  4 eigenvalues not converged
     c_bands:  1 eigenvalues not converged
     c_bands:  2 eigenvalues not converged
     c_bands:  3 eigenvalues not converged
     c_bands:  4 eigenvalues not converged
     c_bands:  4 eigenvalues not converged
     ethr =  1.00E-05,  avg # of iterations = 24.5

[...]

     total energy              =   -2445.35095465 Ry
     estimated scf accuracy    <    5568.60205364 Ry

     iteration #  2     ecut=    29.40 Ry     beta= 0.05
     Davidson diagonalization with overlap
     ethr =  1.00E-02,  avg # of iterations = 22.3

[...]

     iteration # 72     ecut=    29.40 Ry     beta= 0.05
     Davidson diagonalization with overlap
     c_bands:  1 eigenvalues not converged
     c_bands:  1 eigenvalues not converged
     ethr =  6.74E-11,  avg # of iterations = 12.4

[...]

     total energy              =   -2942.84134497 Ry
     estimated scf accuracy    <       0.00000015 Ry

     iteration # 74     ecut=    29.40 Ry     beta= 0.05
     Davidson diagonalization with overlap
     ethr =  3.67E-11,  avg # of iterations = 10.5

     negative rho (up, down):  1.044E-02 0.000E+00

     Adding external electric field

     Computed dipole along edir(3) :
        Dipole                1.5760 Ry au,          4.0057 Debye
        Dipole field          0.0030 Ry au,

        Potential amp.       -0.2757 Ry
        Total length         46.3494 bohr

     End of self-consistent calculation

          k = 0.0000 0.0000 0.0000 ( 18029 PWs)   bands (ev):

   -55.0920 -55.0563 -55.0529 -55.0222 -54.9692 -54.9667 -54.9292 -54.8923
   -54.8840 -54.8698 -54.8565 -54.8517 -54.8036 -54.7589 -54.0666 -54.0326
   -31.6659 -31.5457 -31.4561 -31.4262 -31.3871 -31.3827 -31.3809 -31.3511
   -31.3472 -31.3466 -31.3037 -31.3015 -31.3010 -31.2665 -31.2483 -31.2288
   -31.2088 -31.2051 -31.1959 -31.1940 -31.1673 -31.1501 -31.1487 -31.1225
   -31.1131 -31.0993 -31.0956 -31.0942 -31.0908 -31.0773 -31.0728 -31.0653
   -31.0530 -31.0422 -31.0229 -31.0156 -31.0080 -31.0010 -30.9978 -30.9920
   -30.9866 -30.9516 -30.4751 -30.3833 -30.3611 -30.2916 -30.2050 -30.0939
   -19.1410 -15.9345 -15.6597 -15.5371 -15.3267 -15.2773 -15.2042 -15.0090
   -14.9437 -14.8878 -14.8768 -14.8663 -14.8497 -14.7784 -14.6994 -14.6188
   -14.6163 -14.6090 -14.5980 -14.5808 -14.5737 -14.5111 -14.5037 -14.4719
   -14.4598 -14.4197 -14.3127 -14.2309 -14.1740 -14.0224 -13.3199 -12.5692
   -12.4521 -11.1274  -7.8848  -6.5582  -5.8786  -4.1090  -3.9465  -3.2798
    -3.0954  -3.0741  -3.0099  -2.9848  -2.8099  -2.7601  -2.5568  -2.4489
    -2.3615  -2.3225  -2.3103  -2.2936  -2.1438  -2.0756  -2.0410  -1.9944
    -1.9697  -1.9475  -1.9062  -1.8986  -1.8679  -1.8500  -1.8411  -1.6639
    -1.5880  -1.5370  -1.5072  -1.4716  -1.4217  -1.3938  -1.3754  -1.3708
    -1.3655  -1.3466  -1.3143  -1.2539  -1.2251  -1.1696  -1.1010  -1.0747
    -0.9848  -0.9033  -0.7154  -0.6697  -0.6521  -0.6159  -0.5558  -0.5065
    -0.4726  -0.4378  -0.4230  -0.3574  -0.2880  -0.2555  -0.1926  -0.1285
    -0.1179  -0.0550  -0.0481   0.1135   0.1252   0.1466   0.2382   0.3248
     0.3721   0.3803   0.4387   0.5125   0.5349   0.5450   0.5809   0.6012
     0.6778   0.7871   0.8118   0.8535   0.8648   0.8987   0.9218   0.9765
     1.0002   1.0629   1.0690   1.1738   1.2256   1.2556   1.5053   1.5381
     1.8686   1.9021   1.9559   2.1426   2.5299   2.5770   4.0163   4.0790
     4.0913   4.1421   4.1654   4.1840   4.2564   4.4772   4.5024   4.5086
     4.5160

[...]

          k = 0.0380-0.0419 0.0000 ( 17876 PWs)   bands (ev):

[...]

          k =-0.0760-0.0000 0.0000 ( 17886 PWs)   bands (ev):

[...]

          k =-0.0760-0.0839 0.0000 ( 17948 PWs)   bands (ev):

   -55.0799 -55.0647 -55.0394 -55.0390 -54.9661 -54.9556 -54.9402 -54.8752
   -54.8727 -54.8717 -54.8698 -54.8675 -54.7976 -54.7649 -54.0496 -54.0494
   -31.4736 -31.4639 -31.4011 -31.3611 -31.3607 -31.3597 -31.3323 -31.3318
   -31.3010 -31.2969 -31.2921 -31.2860 -31.2593 -31.2262 -31.2191 -31.2130
   -31.2109 -31.2071 -31.2063 -31.1974 -31.1654 -31.1642 -31.1606 -31.1586
   -31.1581 -31.1557 -31.1511 -31.1348 -31.1092 -31.1055 -31.0985 -31.0903
   -31.0884 -31.0864 -31.0854 -31.0691 -31.0508 -31.0495 -31.0377 -31.0320
   -31.0070 -30.9909 -30.3738 -30.3737 -30.2877 -30.2875 -30.2483 -30.2483
   -19.1370 -15.4177 -15.3274 -15.1788 -15.1587 -15.1105 -15.0623 -15.0459
   -15.0278 -14.9719 -14.9323 -14.8868 -14.8383 -14.7953 -14.7931 -14.7541
   -14.6825 -14.6610 -14.6589 -14.6443 -14.5935 -14.5828 -14.5552 -14.5364
   -14.5314 -14.4882 -14.4287 -14.4251 -14.3851 -14.2060 -13.3304 -12.5538
   -12.5536 -11.1300  -7.8949  -6.5418  -5.8681  -4.0803  -3.9407  -2.6867
    -2.5875  -2.5310  -2.4207  -2.3343  -2.2939  -2.2591  -2.1244  -2.1045
    -2.0865  -2.0605  -2.0473  -2.0130  -2.0051  -1.9581  -1.9280  -1.9178
    -1.9114  -1.8988  -1.8767  -1.8289  -1.8062  -1.7967  -1.7872  -1.7486
    -1.7346  -1.7027  -1.6967  -1.6577  -1.6362  -1.5500  -1.4620  -1.4221
    -1.3707  -1.3065  -1.2727  -1.2659  -1.1724  -1.1642  -1.1412  -1.1078
    -1.0623  -0.9415  -0.8843  -0.8218  -0.8180  -0.8046  -0.6974  -0.6596
    -0.6301  -0.5942  -0.5575  -0.5269  -0.4880  -0.4418  -0.3646  -0.3340
    -0.2946  -0.2586  -0.1854  -0.0987  -0.0786  -0.0479  -0.0436   0.0424
     0.0673   0.1056   0.1150   0.1342   0.1908   0.2039   0.2912   0.3812
     0.4455   0.5343   0.6476   0.6520   0.7300   0.8214   0.9102   0.9469
     0.9989   1.0640   1.0679   1.1002   1.2210   1.2282   1.3497   1.3885
     1.3973   1.4197   2.3150   2.3160   2.3971   2.3972   4.1455   4.2433
     4.2821   4.3232   4.3760   4.5207   4.5439   4.5895   4.5898   4.6609
     4.6859

     the Fermi energy is     4.0628 ev

!    total energy              =   -2942.84135748 Ry
     estimated scf accuracy    <       0.00000004 Ry
     smearing contrib. (-TS)   =      -0.03724906 Ry
     internal energy E=F+TS    =   -2942.80410841 Ry

     The total energy is F=E-TS. E is the sum of the following terms:
     one-electron contribution =  -23856.40319261 Ry
     hartree contribution      =   12023.52574569 Ry
     xc contribution           =    -487.75396061 Ry
     ewald contribution        =    9377.82261212 Ry
     electric field correction =       0.00468701 Ry

     convergence has been achieved in  74 iterations

     Forces acting on atoms (cartesian axes, Ry/au):

     atom    1 type  1   force =     0.00001523   -0.00023231    0.09431225
     atom    2 type  1   force =    -0.00015706   -0.00053694   -0.17709832
     atom    3 type  2   force =     0.00002032   -0.00024968   -0.02146207
     atom    4 type  2   force =    -0.00001335   -0.00167781    0.05643032
     atom    5 type  2   force =    -0.01049808   -0.00075272    0.00562952
     atom    6 type  2   force =     0.01226715   -0.00009808    0.00552067
     atom    7 type  1   force =    -0.00024154    0.00107068   -0.01569986
     atom    8 type  1   force =    -0.00007647    0.00524759    0.00657071
     atom    9 type  2   force =    -0.00030402    0.00055546    0.00020387
     atom   10 type  2   force =    -0.00199540    0.00265713   -0.00435835
     atom   11 type  2   force =     0.00039519   -0.00022725    0.00026434
     atom   12 type  2   force =    -0.00007491   -0.00029562   -0.00020836
     atom   13 type  1   force =    -0.00072244    0.00043689   -0.00002639
     atom   14 type  1   force =     0.00037413   -0.00016490    0.00003757
     atom   15 type  2   force =    -0.00021357   -0.00062353   -0.00045967
     atom   16 type  2   force =     0.00006685    0.00036479   -0.00033473
     atom   17 type  2   force =     0.00081627    0.00020127    0.00042603
     atom   18 type  2   force =     0.00010497   -0.00017729   -0.00072457
     atom   19 type  1   force =     0.00019556    0.00064107    0.00030977
     atom   20 type  1   force =    -0.00032235    0.00035167    0.00081765
     atom   21 type  2   force =    -0.00001903   -0.00011544    0.10366299
     atom   22 type  2   force =     0.00018380    0.00040182    0.00055381
     atom   23 type  2   force =    -0.07090962   -0.00020640   -0.02720254
     atom   24 type  2   force =     0.07071018    0.00024852   -0.02724857
     atom   25 type  1   force =     0.00002663   -0.00027283    0.09398214
     atom   26 type  1   force =    -0.00025431   -0.00055373   -0.17735825
     atom   27 type  2   force =     0.00006060   -0.00007768   -0.02060660
     atom   28 type  2   force =     0.00002667   -0.00136558    0.05571862
     atom   29 type  2   force =    -0.01080302   -0.00000570    0.00592280
     atom   30 type  2   force =     0.01249549    0.00028128    0.00577425
     atom   31 type  1   force =    -0.00017759    0.00517318   -0.01628384
     atom   32 type  1   force =    -0.00008878   -0.00625042    0.00671207
     atom   33 type  2   force =    -0.00009453   -0.00047684    0.00023188
     atom   34 type  2   force =    -0.00163448    0.00067019   -0.00775615
     atom   35 type  2   force =    -0.00032992    0.00005954    0.00040868
     atom   36 type  2   force =     0.00058428    0.00006052   -0.00008407
     atom   37 type  1   force =    -0.00081659   -0.00078305   -0.00005881
     atom   38 type  1   force =     0.00048860    0.00001003    0.00043770
     atom   39 type  2   force =    -0.00029451   -0.00017863    0.00054655
     atom   40 type  2   force =    -0.00004910   -0.00018554   -0.00025101
     atom   41 type  2   force =     0.00017069   -0.00053777    0.00034736
     atom   42 type  2   force =    -0.00014589   -0.00030053    0.00052370
     atom   43 type  1   force =    -0.00011764   -0.00053280   -0.00016353
     atom   44 type  1   force =     0.00030340    0.00032762    0.00048835
     atom   45 type  2   force =    -0.00002269   -0.00011991    0.10366281
     atom   46 type  2   force =    -0.07091495   -0.00015152   -0.02717039
     atom   47 type  2   force =     0.07072255    0.00026975   -0.02724021
     atom   48 type  3   force =    -0.02085576   -0.00024985    0.00458722
     atom   49 type  3   force =     0.00529788   -0.00140022    0.00077171
     atom   50 type  4   force =     0.00418193    0.00040401   -0.00001599
     atom   51 type  5   force =    -0.00014778   -0.00133427   -0.00017357
     atom   52 type  5   force =    -0.00019764    0.00112938    0.00079489
     atom   53 type  5   force =     0.00055026   -0.00011256    0.00072006
     atom   54 type  5   force =     0.00337879    0.00305491   -0.00147762
     atom   55 type  5   force =     0.00090703   -0.00131202    0.00170574
     atom   56 type  5   force =     0.00814857   -0.00205789   -0.00461255

     Total force =     0.366515     Total SCF correction =     0.000565
  @ DRIVER MODE: Message from server: STATUS
  @ DRIVER MODE: Message from server: GETFORCE
  @ DRIVER MODE: Returning v,forces,stress,ensemble

     Writing output data file ./calc.save/
  @ DRIVER MODE: Message from server: EXIT
  @ DRIVE MODE: Exiting

     General routines

     Parallel routines

   This run was terminated on:  22:57:50   8Sep2021

   JOB DONE.