     Program PWSCF v.6.7GPU starts on 28Sep2021 at  4:29:16

     R & G space division:  proc/nbgrp/npool/nimage =       8
     Reading input from /storage/home/hcoda1/3/ntian30/research/carbon/CxH_vib/CH_calc/ads_slab/CHONH_a/out_0016/pw.inp
Warning: card &CELL ignored
Warning: card   CELL_DYNAMICS='IPI', ignored
Warning: card / ignored

     Current dimensions of program PWSCF are:
     Max number of different atomic species (ntypx) = 10
     Max number of k-points (npk) =  40000
     Max angular momentum in pseudopotentials (lmaxx) =  3
     Presently no symmetry can be used with electric field

     Message from routine cell_base_init:
     DEPRECATED: use true lattice parameter, not A to a.u. conversion factor

     IMPORTANT: XC functional enforced from input :
     Exchange-correlation= BEEF-VDW
                           (   1   4  43  14   2   0   0)
     Any further DFT definition will be discarded
     Please, verify this is what you really want

  @ DRIVER MODE: Connecting to
 qe_1139763_3003539.sched-torque.pace.gatech.edug4u323f6_scratch
  using UNIX socket
  @ DRIVER MODE: Message from server: STATUS
  @ DRIVER MODE: Message from server: INIT
  @ DRIVER MODE: Receiving replica           0          -1
  @ DRIVER MODE: Receiving encoded integer          25
  @ DRIVER MODE:  SCF:  T  FORCE:  T  STRESS:  F  VC:  F  ENSEMBLE:  F
  @ DRIVER MODE:  SCF:  T  FORCE:  T  STRESS:  F  VC:  F  ENSEMBLE:  F

     Using Slab Decomposition

     bravais-lattice index     =            0
     lattice parameter (alat)  =       1.8897  a.u.
     unit-cell volume          =    6658.9804 (a.u.)^3
     number of atoms/cell      =           52
     number of atomic types    =            5
     number of electrons       =       395.00
     number of Kohn-Sham states=          207
     kinetic-energy cutoff     =      29.3995  Ry
     charge density cutoff     =     293.9946  Ry
     scf convergence threshold =      7.3E-08
     mixing beta               =       0.0500
     number of iterations used =            8  plain     mixing
     Exchange-correlation= BEEF-VDW
                           (   1   4  43  14   2   0   0)

     celldm(1)=   1.889726  celldm(2)=   0.000000  celldm(3)=   0.000000
     celldm(4)=   0.000000  celldm(5)=   0.000000  celldm(6)=   0.000000

     crystal axes: (cart. coord. in units of alat)
               a(1) = (   6.579727   0.000000   0.000000 )
               a(2) = (  -0.000775   5.961596   0.000000 )
               a(3) = (   0.000000   0.000000  25.155947 )

     reciprocal axes: (cart. coord. in units 2 pi/alat)
               b(1) = (  0.151982  0.000020  0.000000 )
               b(2) = (  0.000000  0.167740  0.000000 )
               b(3) = (  0.000000  0.000000  0.039752 )

     PseudoPot. # 1 for O  read from file:
     /storage/coda1/p-amedford6/0/shared/rich_project_chbe-medford/medford-share/data/pseudos_module/espresso/nninc/pbe/van/O.UPF
     MD5 check sum: 78c19812648e8988a0fe644b0f25305e
     Pseudo is Ultrasoft, Zval =  6.0
     Generated by new atomic code, or converted to UPF format
     Using radial grid of  737 points,  4 beta functions with:
                l(1) =   0
                l(2) =   0
                l(3) =   1
                l(4) =   1
     Q(r) pseudized with  8 coefficients,  rinner =    0.800   0.800   0.800

     PseudoPot. # 2 for Ti read from file:
     /storage/coda1/p-amedford6/0/shared/rich_project_chbe-medford/medford-share/data/pseudos_module/espresso/nninc/pbe/van/Ti.UPF
     MD5 check sum: 8e4df49b7f0d34bbd5052bf3f5ea0213
     Pseudo is Ultrasoft, Zval = 12.0
     Generated by new atomic code, or converted to UPF format
     Using radial grid of  851 points,  6 beta functions with:
                l(1) =   0
                l(2) =   0
                l(3) =   1
                l(4) =   1
                l(5) =   2
                l(6) =   2
     Q(r) pseudized with  8 coefficients,  rinner =    1.000   1.000   1.000
                                                       1.000   1.000

     PseudoPot. # 3 for N  read from file:
     /storage/coda1/p-amedford6/0/shared/rich_project_chbe-medford/medford-share/data/pseudos_module/espresso/nninc/pbe/van/N.UPF
     MD5 check sum: 90d10febe142ad51ac9d5be1deb811c4
     Pseudo is Ultrasoft, Zval =  5.0
     Generated by new atomic code, or converted to UPF format
     Using radial grid of  729 points,  4 beta functions with:
                l(1) =   0
                l(2) =   0
                l(3) =   1
                l(4) =   1
     Q(r) pseudized with  8 coefficients,  rinner =    0.800   0.800   0.800

     PseudoPot. # 4 for H  read from file:
     /storage/coda1/p-amedford6/0/shared/rich_project_chbe-medford/medford-share/data/pseudos_module/espresso/nninc/pbe/van/H.UPF
     MD5 check sum: b5ee9d7bfd3a09ee7748110bda690ff7
     Pseudo is Ultrasoft, Zval =  1.0
     Generated by new atomic code, or converted to UPF format
     Using radial grid of  615 points,  1 beta functions with:
                l(1) =   0
     Q(r) pseudized with  8 coefficients,  rinner =    0.800

     PseudoPot. # 5 for C  read from file:
     /storage/coda1/p-amedford6/0/shared/rich_project_chbe-medford/medford-share/data/pseudos_module/espresso/nninc/pbe/van/C.UPF
     MD5 check sum: 1a69bf6b8db32088f5b2163dbdb77a27
     Pseudo is Ultrasoft, Zval =  4.0
     Generated by new atomic code, or converted to UPF format
     Using radial grid of  721 points,  4 beta functions with:
                l(1) =   0
                l(2) =   0
                l(3) =   1
                l(4) =   1
     Q(r) pseudized with  8 coefficients,  rinner =    0.800   0.800   0.800

     atomic species   valence    mass     pseudopotential
        O1             6.00    15.99900     O ( 1.00)
        Ti1           12.00    47.86700     Ti( 1.00)
        N1             5.00    14.00700     N ( 1.00)
        H1             1.00     1.00800     H ( 1.00)
        C1             4.00    12.01100     C ( 1.00)

     No symmetry found

   Cartesian axes

     site n.     atom                  positions (alat units)
         1           O1  tau(   1) = (   3.2904802   0.0005063   4.7018136  )
         2           O1  tau(   2) = (   3.2900926   2.9813045   4.7018136  )
         3           Ti1 tau(   3) = (   0.0004258   2.9801865   6.0000000  )
         4           Ti1 tau(   4) = (   0.0000382   5.9609847   6.0000000  )
         5           Ti1 tau(   5) = (   3.2906075   1.4906267   6.0002472  )
         6           Ti1 tau(   6) = (   3.2902200   4.4714249   6.0002472  )
         7           O1  tau(   7) = (   1.3043587   1.4918075   6.0039043  )
         8           O1  tau(   8) = (   1.3039711   4.4726057   6.0039043  )
         9           O1  tau(   9) = (   5.2767064   1.4903225   6.0039473  )
        10           O1  tau(  10) = (   5.2763189   4.4711207   6.0039473  )
        11           O1  tau(  11) = (   3.2906025   0.0005020   7.3038282  )
        12           O1  tau(  12) = (   3.2902150   2.9813002   7.3038282  )
        13           O1  tau(  13) = (   0.0006271   0.0005054   7.9858123  )
        14           O1  tau(  14) = (   0.0002396   2.9813036   7.9858123  )
        15           Ti1 tau(  15) = (   3.2907910   2.8959150   9.1758416  )
        16           Ti1 tau(  16) = (   3.2891106   5.8743827   9.1763621  )
        17           Ti1 tau(  17) = (   0.0015273   1.4827037   9.2680791  )
        18           Ti1 tau(  18) = (   0.0006254   4.4649316   9.2693709  )
        19           O1  tau(  19) = (   4.5942328   1.4918067   9.2879030  )
        20           O1  tau(  20) = (   4.5938453   4.4726049   9.2879030  )
        21           O1  tau(  21) = (   1.9868534   1.4903216   9.2879459  )
        22           O1  tau(  22) = (   1.9864658   4.4711199   9.2879459  )
        23           O1  tau(  23) = (   0.0116148   5.9584955  10.6183126  )
        24           O1  tau(  24) = (   0.0092240   2.9805883  10.6323155  )
        25           O1  tau(  25) = (   3.2907787   2.9729778  11.3304428  )
        26           O1  tau(  26) = (   3.2919079   5.9474133  11.3321580  )
        27           Ti1 tau(  27) = (   3.2097987   4.4572658  12.4865812  )
        28           Ti1 tau(  28) = (   3.2119315   1.4761680  12.4799496  )
        29           Ti1 tau(  29) = (   6.5264509   5.9216213  12.6328416  )
        30           O1  tau(  30) = (   5.2968352   1.4901136  12.6152109  )
        31           O1  tau(  31) = (   1.3135328   1.4919602  12.6192607  )
        32           O1  tau(  32) = (   5.3002941   4.4568025  12.6330795  )
        33           O1  tau(  33) = (   1.3069994   4.4674097  12.6333468  )
        34           Ti1 tau(  34) = (   6.5276633   2.9456522  12.5459445  )
        35           O1  tau(  35) = (   3.2998384   2.9660209  13.9106595  )
        36           O1  tau(  36) = (   3.3025942   5.9420417  13.9122833  )
        37           O1  tau(  37) = (   6.5640883   0.0415230  14.6395465  )
        38           O1  tau(  38) = (   0.0106891   2.9491072  14.6900936  )
        39           Ti1 tau(  39) = (   3.2736000   2.9502234  15.7069571  )
        40           Ti1 tau(  40) = (   3.3003751   5.9266233  15.7109206  )
        41           Ti1 tau(  41) = (   6.5634422   4.2760099  16.1499291  )
        42           O1  tau(  42) = (   2.0584629   4.4329444  16.0623798  )
        43           O1  tau(  43) = (   4.5473560   4.4405029  16.0785460  )
        44           O1  tau(  44) = (   2.0586626   1.4574935  16.0341320  )
        45           O1  tau(  45) = (   4.5465401   1.4531303  16.0599029  )
        46           Ti1 tau(  46) = (   6.5663670   1.4428561  15.8472210  )
        47           O1  tau(  47) = (   0.0528285   5.9376273  17.3175539  )
        48           N1  tau(  48) = (   2.9241058   0.2315137  18.9516947  )
        49           H1  tau(  49) = (   0.7823102   0.0278888  17.9584184  )
        50           H1  tau(  50) = (   4.9006910   1.2452932  19.1031722  )
        51           C1  tau(  51) = (   3.9482889   0.7533229  19.0539995  )
        52           O1  tau(  52) = (   0.0046524   2.9249380  17.2371169  )

     number of k points=    10  Fermi-Dirac smearing, width (Ry)=  0.0073
                       cart. coord. in units 2pi/alat
        k(    1) = (   0.0000000   0.0000000   0.0000000), wk =   0.1250000
        k(    2) = (   0.0000000   0.0419351   0.0000000), wk =   0.2500000
        k(    3) = (   0.0000000  -0.0838702   0.0000000), wk =   0.1250000
        k(    4) = (   0.0379955   0.0000049   0.0000000), wk =   0.2500000
        k(    5) = (   0.0379955   0.0419400   0.0000000), wk =   0.2500000
        k(    6) = (   0.0379955  -0.0838652   0.0000000), wk =   0.2500000
        k(    7) = (   0.0379955  -0.0419301   0.0000000), wk =   0.2500000
        k(    8) = (  -0.0759910  -0.0000099   0.0000000), wk =   0.1250000
        k(    9) = (  -0.0759910   0.0419252   0.0000000), wk =   0.2500000
        k(   10) = (  -0.0759910  -0.0838800   0.0000000), wk =   0.1250000

     Initial potential from superposition of free atoms

     starting charge  378.99918, renormalised to  395.00000

     negative rho (up, down):  1.730E-02 0.000E+00

     %%%%%%%%%%%%%%%%%%%%%%%%%%%%%%%%%%%%%%%%%%%%%%%%%%%%%%%%%%%%%%%%%%%%%%%%
     %                                                                      %
     % You are using vdW-DF, which was implemented by the Thonhauser group. %
     % Please cite the following two papers that made this development      %
     % possible and the two reviews that describe the various versions:     %
     %                                                                      %
     %   T. Thonhauser et al., PRL 115, 136402 (2015).                      %
     %   T. Thonhauser et al., PRB 76, 125112 (2007).                       %
     %   K. Berland et al., Rep. Prog. Phys. 78, 066501 (2015).             %
     %   D.C. Langreth et al., J. Phys.: Condens. Matter 21, 084203 (2009). %
     %                                                                      %
     %                                                                      %
     % If you are calculating the stress with vdW-DF, please also cite:     %
     %                                                                      %
     %   R. Sabatini et al., J. Phys.: Condens. Matter 24, 424209 (2012).   %
     %                                                                      %
     %%%%%%%%%%%%%%%%%%%%%%%%%%%%%%%%%%%%%%%%%%%%%%%%%%%%%%%%%%%%%%%%%%%%%%%%

     Adding external electric field

     Computed dipole along edir(3) :
        Dipole               -8.2751 Ry au,        -21.0333 Debye
        Dipole field         -0.0156 Ry au,

        Potential amp.        1.4476 Ry
        Total length         46.3494 bohr

     Starting wfcs are  298 atomic wfcs
  @ DRIVER MODE: Message from server: STATUS
  @ DRIVER MODE: Message from server: POSDATA
  @ DRIVER MODE: Reading and sharing cell
  @ DRIVER MODE: Reading and sharing positions
  @ DRIVER MODE: Received positions

     Self-consistent Calculation

     iteration #  1     ecut=    29.40 Ry     beta= 0.05
     Davidson diagonalization with overlap
     c_bands:  1 eigenvalues not converged
     c_bands:  1 eigenvalues not converged
     c_bands:  1 eigenvalues not converged
     c_bands:  3 eigenvalues not converged
     c_bands:  3 eigenvalues not converged
     c_bands:  2 eigenvalues not converged
     c_bands:  1 eigenvalues not converged
     ethr =  1.00E-05,  avg # of iterations = 19.3

[...]

     total energy              =   -2630.94175482 Ry
     estimated scf accuracy    <    3535.05440097 Ry

[...]

     iteration #  3     ecut=    29.40 Ry     beta= 0.05
     Davidson diagonalization with overlap
     ethr =  1.00E-02,  avg # of iterations = 14.2

[...]

     iteration # 39     ecut=    29.40 Ry     beta= 0.05
     Davidson diagonalization with overlap
     c_bands:  1 eigenvalues not converged
     ethr =  4.62E-08,  avg # of iterations = 11.2

[...]

     total energy              =   -2950.31360082 Ry
     estimated scf accuracy    <       0.00000008 Ry

     iteration # 57     ecut=    29.40 Ry     beta= 0.05
     Davidson diagonalization with overlap
     ethr =  1.96E-11,  avg # of iterations =  9.4

     negative rho (up, down):  1.724E-02 0.000E+00

     Adding external electric field

     Computed dipole along edir(3) :
        Dipole                0.6439 Ry au,          1.6366 Debye
        Dipole field          0.0012 Ry au,

        Potential amp.       -0.1126 Ry
        Total length         46.3494 bohr

     End of self-consistent calculation

          k = 0.0000 0.0000 0.0000 ( 18029 PWs)   bands (ev):

   -55.9719 -55.9654 -55.9378 -55.9293 -55.8471 -55.8236 -55.8087 -55.7890
   -55.7807 -55.7467 -55.7455 -55.7117 -55.6704 -55.4351 -54.9493 -54.9153
   -32.5194 -32.4543 -32.3228 -32.3056 -32.2800 -32.2770 -32.2648 -32.2362
   -32.2146 -32.1892 -32.1801 -32.1694 -32.1450 -32.1240 -32.1162 -32.1159
   -32.1048 -32.0855 -32.0762 -32.0622 -32.0354 -32.0293 -32.0290 -31.9835
   -31.9798 -31.9770 -31.9700 -31.9690 -31.9610 -31.9475 -31.9370 -31.9207
   -31.9151 -31.9140 -31.8984 -31.8899 -31.8851 -31.8816 -31.8577 -31.6997
   -31.6674 -31.6514 -31.3565 -31.2681 -31.2457 -31.1732 -31.0867 -30.9756
   -17.0724 -16.7072 -16.4436 -16.2046 -16.1492 -16.1105 -16.0889 -15.9791
   -15.8126 -15.6927 -15.6403 -15.5395 -15.5310 -15.5080 -15.4739 -15.4579
   -15.4227 -15.4153 -15.4062 -15.3943 -15.3809 -15.3316 -15.3124 -15.2993
   -15.1972 -15.1468 -15.1067 -15.0864 -15.0286 -15.0173 -14.6535 -13.4518
   -13.3354  -7.8015  -4.8085  -4.0879  -3.9293  -3.8778  -3.8284  -3.8112
    -3.5807  -3.5224  -3.2114  -3.1569  -3.1420  -3.1229  -3.0929  -2.8812
    -2.8509  -2.8010  -2.7825  -2.7619  -2.7499  -2.7314  -2.7181  -2.6983
    -2.6685  -2.6126  -2.5276  -2.4811  -2.3942  -2.3630  -2.3448  -2.3037
    -2.2839  -2.2437  -2.2219  -2.2127  -2.2061  -2.1688  -2.1633  -2.1013
    -2.0442  -1.9955  -1.9653  -1.9019  -1.8354  -1.7691  -1.7040  -1.5790
    -1.4590  -1.4425  -1.3997  -1.3729  -1.3632  -1.2739  -1.2203  -1.1533
    -1.1265  -1.1214  -1.0372  -0.9922  -0.9507  -0.9380  -0.8492  -0.8165
    -0.7381  -0.7325  -0.7199  -0.6792  -0.4595  -0.4242  -0.3923  -0.3716
    -0.3163  -0.2579  -0.2247  -0.1927  -0.1526  -0.0917  -0.0760  -0.0285
    -0.0060   0.0021   0.0218   0.0418   0.0689   0.1842   0.2164   0.2772
     0.3086   0.3812   0.4341   0.5712   0.6100   0.6858   0.7931   0.9992
     1.0727   1.1604   1.2649   1.6440   1.6896   3.1636   3.2498   3.2958
     3.3033   3.4049   3.4095   3.6152   3.6366   3.6498   3.7064

[...]

          k = 0.0380-0.0419 0.0000 ( 17876 PWs)   bands (ev):

[...]

          k =-0.0760-0.0000 0.0000 ( 17886 PWs)   bands (ev):

[...]

          k =-0.0760-0.0839 0.0000 ( 17948 PWs)   bands (ev):

   -55.9557 -55.9540 -55.9489 -55.9456 -55.8362 -55.8194 -55.8087 -55.8039
   -55.7642 -55.7627 -55.7308 -55.7267 -55.6692 -55.4361 -54.9323 -54.9322
   -32.3245 -32.3204 -32.2700 -32.2691 -32.2507 -32.2497 -32.2321 -32.2256
   -32.1738 -32.1678 -32.1615 -32.1563 -32.1163 -32.1052 -32.0997 -32.0936
   -32.0822 -32.0799 -32.0752 -32.0732 -32.0697 -32.0648 -32.0420 -32.0311
   -32.0282 -32.0172 -32.0165 -32.0038 -31.9811 -31.9650 -31.9623 -31.9615
   -31.9585 -31.9456 -31.9419 -31.9394 -31.9363 -31.8896 -31.8862 -31.7622
   -31.6842 -31.6681 -31.2584 -31.2584 -31.1692 -31.1692 -31.1300 -31.1299
   -17.0095 -16.1633 -16.1426 -16.1292 -15.9175 -15.8926 -15.8807 -15.8747
   -15.7555 -15.6770 -15.6665 -15.6644 -15.5920 -15.5675 -15.5627 -15.5112
   -15.5036 -15.4962 -15.4851 -15.4575 -15.4331 -15.4272 -15.4085 -15.4033
   -15.3225 -15.2883 -15.2850 -15.2577 -15.1365 -15.0153 -14.8246 -13.4373
   -13.4370  -7.7996  -4.7643  -3.4334  -3.4253  -3.1711  -3.1283  -3.1207
    -3.0640  -2.9143  -2.8773  -2.8713  -2.8365  -2.8171  -2.7993  -2.7923
    -2.7802  -2.7588  -2.7336  -2.7126  -2.7039  -2.6688  -2.6411  -2.6303
    -2.6179  -2.6008  -2.5849  -2.5684  -2.5500  -2.5259  -2.5091  -2.4942
    -2.4558  -2.3109  -2.2214  -2.1735  -2.1156  -2.1024  -2.0991  -2.0875
    -2.0606  -2.0353  -2.0258  -1.9717  -1.9352  -1.8280  -1.7719  -1.7060
    -1.6691  -1.6560  -1.5821  -1.5313  -1.4680  -1.4046  -1.3766  -1.3600
    -1.3092  -1.2532  -1.1887  -1.1718  -1.1412  -1.0952  -1.0486  -0.9700
    -0.9615  -0.9311  -0.9277  -0.8875  -0.8240  -0.7631  -0.7359  -0.7348
    -0.7074  -0.6476  -0.5864  -0.5679  -0.4615  -0.4552  -0.3385  -0.2959
    -0.0487   0.0081   0.0512   0.1000   0.1141   0.1786   0.2136   0.3334
     0.3427   0.3540   0.3929   0.4097   0.4269   0.5613   0.5748   0.6038
     0.7422   1.4368   1.4370   1.5089   1.5098   3.4640   3.4720   3.4991
     3.5168   3.6716   3.6749   3.6955   3.6968   3.8178   3.8396

     the Fermi energy is     3.1621 ev

!    total energy              =   -2950.31365465 Ry
     estimated scf accuracy    <       0.00000002 Ry
     smearing contrib. (-TS)   =      -0.02173478 Ry
     internal energy E=F+TS    =   -2950.29191987 Ry

     The total energy is F=E-TS. E is the sum of the following terms:
     one-electron contribution =  -24387.18564221 Ry
     hartree contribution      =   12280.64444316 Ry
     xc contribution           =    -486.33641850 Ry
     ewald contribution        =    9642.58491530 Ry
     electric field correction =       0.00078239 Ry

     convergence has been achieved in  57 iterations

     Forces acting on atoms (cartesian axes, Ry/au):

     atom    1 type  1   force =     0.00006369    0.00002498    0.10323541
     atom    2 type  1   force =     0.00007066    0.00004314    0.10320474
     atom    3 type  2   force =     0.00013449   -0.00031741    0.09682965
     atom    4 type  2   force =    -0.00007540   -0.00022046    0.09611859
     atom    5 type  2   force =     0.00012917   -0.00039653   -0.17536012
     atom    6 type  2   force =    -0.00001513   -0.00040914   -0.17547200
     atom    7 type  1   force =    -0.07151178   -0.00009303   -0.02770206
     atom    8 type  1   force =    -0.07154784   -0.00003675   -0.02771766
     atom    9 type  1   force =     0.07141958    0.00035125   -0.02777090
     atom   10 type  1   force =     0.07144257    0.00042447   -0.02776513
     atom   11 type  1   force =    -0.00001325   -0.00140853    0.05313107
     atom   12 type  1   force =     0.00001084   -0.00120582    0.05250828
     atom   13 type  1   force =     0.00009028   -0.00013935   -0.02455983
     atom   14 type  1   force =     0.00019424   -0.00012432   -0.02390568
     atom   15 type  2   force =     0.00043032    0.00062673   -0.01183070
     atom   16 type  2   force =     0.00058003    0.00309208   -0.01205825
     atom   17 type  2   force =     0.00035159   -0.01477834    0.02784247
     atom   18 type  2   force =     0.00037405    0.01324067    0.02791105
     atom   19 type  1   force =    -0.01208017    0.00072874    0.00325228
     atom   20 type  1   force =    -0.01219761   -0.00137602    0.00303702
     atom   21 type  1   force =     0.01357755    0.00130780    0.00276467
     atom   22 type  1   force =     0.01357021   -0.00097856    0.00247370
     atom   23 type  1   force =    -0.00336157    0.00070833   -0.01816342
     atom   24 type  1   force =    -0.00198381    0.00036578   -0.02017500
     atom   25 type  1   force =    -0.00013809   -0.00000125    0.00005360
     atom   26 type  1   force =    -0.00001995    0.00010485    0.00005061
     atom   27 type  2   force =     0.00005404   -0.00002862   -0.00006681
     atom   28 type  2   force =     0.00010506    0.00004556   -0.00000809
     atom   29 type  2   force =    -0.00012802    0.00000222   -0.00007585
     atom   30 type  1   force =     0.00006375   -0.00003428    0.00000372
     atom   31 type  1   force =     0.00006454   -0.00000605    0.00003410
     atom   32 type  1   force =     0.00001564   -0.00009921   -0.00006026
     atom   33 type  1   force =     0.00004500    0.00004539    0.00005510
     atom   34 type  2   force =    -0.00006851   -0.00009575    0.00005824
     atom   35 type  1   force =     0.00004241    0.00006710   -0.00005668
     atom   36 type  1   force =    -0.00003457    0.00002615   -0.00017853
     atom   37 type  1   force =    -0.00001265   -0.00007230   -0.00001746
     atom   38 type  1   force =     0.00009509    0.00000923   -0.00009823
     atom   39 type  2   force =    -0.00003465    0.00006668   -0.00018933
     atom   40 type  2   force =     0.00011587    0.00003954    0.00007433
     atom   41 type  2   force =     0.00011729    0.00018931   -0.00005265
     atom   42 type  1   force =     0.00002457    0.00004694   -0.00001658
     atom   43 type  1   force =     0.00006385    0.00000948    0.00003774
     atom   44 type  1   force =     0.00009811    0.00003112    0.00012026
     atom   45 type  1   force =     0.00006612    0.00006236   -0.00002127
     atom   46 type  2   force =     0.00008175   -0.00001607   -0.00005799
     atom   47 type  1   force =     0.00015797   -0.00010897    0.00008057
     atom   48 type  3   force =    -0.00036906    0.00089654    0.00088682
     atom   49 type  4   force =    -0.00018842    0.00003052    0.00003492
     atom   50 type  4   force =    -0.00537727   -0.00408222   -0.00056039
     atom   51 type  5   force =     0.00539991    0.00345285    0.00007991
     atom   52 type  1   force =     0.00010750   -0.00001086    0.00006200

     Total force =     0.368141     Total SCF correction =     0.000411
  @ DRIVER MODE: Message from server: STATUS
  @ DRIVER MODE: Message from server: GETFORCE
  @ DRIVER MODE: Returning v,forces,stress,ensemble

     Writing output data file ./calc.save/
  @ DRIVER MODE: Message from server: EXIT
  @ DRIVE MODE: Exiting

     General routines

     Parallel routines

   This run was terminated on:   4:49:37  28Sep2021

   JOB DONE.