     Program PWSCF v.6.7GPU starts on 24Sep2021 at 16:10:34

     R & G space division:  proc/nbgrp/npool/nimage =       8
     Reading input from /storage/home/hcoda1/3/ntian30/research/carbon/CxH_vib/H2O_calc/ads_slab/CH3NH2NHHO_c/out_0066/pw.inp
Warning: card &CELL ignored
Warning: card   CELL_DYNAMICS='IPI', ignored
Warning: card / ignored

     Current dimensions of program PWSCF are:
     Max number of different atomic species (ntypx) = 10
     Max number of k-points (npk) =  40000
     Max angular momentum in pseudopotentials (lmaxx) =  3
     Presently no symmetry can be used with electric field

     Message from routine cell_base_init:
     DEPRECATED: use true lattice parameter, not A to a.u. conversion factor

     IMPORTANT: XC functional enforced from input :
     Exchange-correlation= BEEF-VDW
                           (   1   4  43  14   2   0   0)
     Any further DFT definition will be discarded
     Please, verify this is what you really want

  @ DRIVER MODE: Connecting to
 qe_1139763_2947310.sched-torque.pace.gatech.edulbmtpmig_scratch
  using UNIX socket
  @ DRIVER MODE: Message from server: STATUS
  @ DRIVER MODE: Message from server: INIT
  @ DRIVER MODE: Receiving replica           0          -1
  @ DRIVER MODE: Receiving encoded integer          25
  @ DRIVER MODE:  SCF:  T  FORCE:  T  STRESS:  F  VC:  F  ENSEMBLE:  F
  @ DRIVER MODE:  SCF:  T  FORCE:  T  STRESS:  F  VC:  F  ENSEMBLE:  F

     Using Slab Decomposition

     bravais-lattice index     =            0
     lattice parameter (alat)  =       1.8897  a.u.
     unit-cell volume          =    6658.9804 (a.u.)^3
     number of atoms/cell      =           58
     number of atomic types    =            5
     number of electrons       =       405.00
     number of Kohn-Sham states=          212
     kinetic-energy cutoff     =      29.3995  Ry
     charge density cutoff     =     293.9946  Ry
     scf convergence threshold =      7.3E-08
     mixing beta               =       0.0500
     number of iterations used =            8  plain     mixing
     Exchange-correlation= BEEF-VDW
                           (   1   4  43  14   2   0   0)

     celldm(1)=   1.889726  celldm(2)=   0.000000  celldm(3)=   0.000000
     celldm(4)=   0.000000  celldm(5)=   0.000000  celldm(6)=   0.000000

     crystal axes: (cart. coord. in units of alat)
               a(1) = (   6.579727   0.000000   0.000000 )
               a(2) = (  -0.000775   5.961596   0.000000 )
               a(3) = (   0.000000   0.000000  25.155947 )

     reciprocal axes: (cart. coord. in units 2 pi/alat)
               b(1) = (  0.151982  0.000020  0.000000 )
               b(2) = (  0.000000  0.167740  0.000000 )
               b(3) = (  0.000000  0.000000  0.039752 )

     PseudoPot. # 1 for Ti read from file:
     /storage/coda1/p-amedford6/0/shared/rich_project_chbe-medford/medford-share/data/pseudos_module/espresso/nninc/pbe/van/Ti.UPF
     MD5 check sum: 8e4df49b7f0d34bbd5052bf3f5ea0213
     Pseudo is Ultrasoft, Zval = 12.0
     Generated by new atomic code, or converted to UPF format
     Using radial grid of  851 points,  6 beta functions with:
                l(1) =   0
                l(2) =   0
                l(3) =   1
                l(4) =   1
                l(5) =   2
                l(6) =   2
     Q(r) pseudized with  8 coefficients,  rinner =    1.000   1.000   1.000
                                                       1.000   1.000

     PseudoPot. # 2 for O  read from file:
     /storage/coda1/p-amedford6/0/shared/rich_project_chbe-medford/medford-share/data/pseudos_module/espresso/nninc/pbe/van/O.UPF
     MD5 check sum: 78c19812648e8988a0fe644b0f25305e
     Pseudo is Ultrasoft, Zval =  6.0
     Generated by new atomic code, or converted to UPF format
     Using radial grid of  737 points,  4 beta functions with:
                l(1) =   0
                l(2) =   0
                l(3) =   1
                l(4) =   1
     Q(r) pseudized with  8 coefficients,  rinner =    0.800   0.800   0.800

     PseudoPot. # 3 for N  read from file:
     /storage/coda1/p-amedford6/0/shared/rich_project_chbe-medford/medford-share/data/pseudos_module/espresso/nninc/pbe/van/N.UPF
     MD5 check sum: 90d10febe142ad51ac9d5be1deb811c4
     Pseudo is Ultrasoft, Zval =  5.0
     Generated by new atomic code, or converted to UPF format
     Using radial grid of  729 points,  4 beta functions with:
                l(1) =   0
                l(2) =   0
                l(3) =   1
                l(4) =   1
     Q(r) pseudized with  8 coefficients,  rinner =    0.800   0.800   0.800

     PseudoPot. # 4 for C  read from file:
     /storage/coda1/p-amedford6/0/shared/rich_project_chbe-medford/medford-share/data/pseudos_module/espresso/nninc/pbe/van/C.UPF
     MD5 check sum: 1a69bf6b8db32088f5b2163dbdb77a27
     Pseudo is Ultrasoft, Zval =  4.0
     Generated by new atomic code, or converted to UPF format
     Using radial grid of  721 points,  4 beta functions with:
                l(1) =   0
                l(2) =   0
                l(3) =   1
                l(4) =   1
     Q(r) pseudized with  8 coefficients,  rinner =    0.800   0.800   0.800

     PseudoPot. # 5 for H  read from file:
     /storage/coda1/p-amedford6/0/shared/rich_project_chbe-medford/medford-share/data/pseudos_module/espresso/nninc/pbe/van/H.UPF
     MD5 check sum: b5ee9d7bfd3a09ee7748110bda690ff7
     Pseudo is Ultrasoft, Zval =  1.0
     Generated by new atomic code, or converted to UPF format
     Using radial grid of  615 points,  1 beta functions with:
                l(1) =   0
     Q(r) pseudized with  8 coefficients,  rinner =    0.800

     atomic species   valence    mass     pseudopotential
        Ti1           12.00    47.86700     Ti( 1.00)
        O1             6.00    15.99900     O ( 1.00)
        N1             5.00    14.00700     N ( 1.00)
        C1             4.00    12.01100     C ( 1.00)
        H1             1.00     1.00800     H ( 1.00)

     No symmetry found

   Cartesian axes

     site n.     atom                  positions (alat units)
         1           Ti1 tau(   1) = (   0.0004258   2.9801865   6.0000000  )
         2           Ti1 tau(   2) = (   3.2906075   1.4906267   6.0002472  )
         3           O1  tau(   3) = (   0.0006271   0.0005054   7.9858123  )
         4           O1  tau(   4) = (   3.2906025   0.0005020   7.3038282  )
         5           O1  tau(   5) = (   4.5942328   1.4918067   9.2879030  )
         6           O1  tau(   6) = (   1.9868534   1.4903216   9.2879459  )
         7           Ti1 tau(   7) = (   3.2907910   2.8959150   9.1758416  )
         8           Ti1 tau(   8) = (   0.0015273   1.4827037   9.2680791  )
         9           O1  tau(   9) = (   3.2766908   5.9368450  11.3531397  )
        10           O1  tau(  10) = (   0.0116148   5.9584955  10.6183126  )
        11           O1  tau(  11) = (   1.2656210   1.4746568  12.6519442  )
        12           O1  tau(  12) = (   5.2821112   1.4671822  12.6528637  )
        13           Ti1 tau(  13) = (   0.0097886   3.0246942  12.5604876  )
        14           Ti1 tau(  14) = (   3.2716845   1.2919425  12.6923688  )
        15           O1  tau(  15) = (   6.5701288   5.9533353  14.7096902  )
        16           O1  tau(  16) = (   3.2612835   0.0684280  14.0222998  )
        17           O1  tau(  17) = (   4.5366247   1.5847279  16.0182572  )
        18           O1  tau(  18) = (   1.9973522   1.5932486  16.1410213  )
        19           Ti1 tau(  19) = (   3.3011230   3.0369928  15.6528835  )
        20           Ti1 tau(  20) = (   6.4616919   1.5442775  15.7581475  )
        21           O1  tau(  21) = (   3.2904802   0.0005063   4.7018136  )
        22           O1  tau(  22) = (   6.5264998   0.0144113  17.2942622  )
        23           O1  tau(  23) = (   1.3043587   1.4918075   6.0039043  )
        24           O1  tau(  24) = (   5.2767064   1.4903225   6.0039473  )
        25           Ti1 tau(  25) = (   0.0000382   5.9609847   6.0000000  )
        26           Ti1 tau(  26) = (   3.2902200   4.4714249   6.0002472  )
        27           O1  tau(  27) = (   0.0002396   2.9813036   7.9858123  )
        28           O1  tau(  28) = (   3.2902150   2.9813002   7.3038282  )
        29           O1  tau(  29) = (   4.5938453   4.4726049   9.2879030  )
        30           O1  tau(  30) = (   1.9864658   4.4711199   9.2879459  )
        31           Ti1 tau(  31) = (   3.2891106   5.8743827   9.1763621  )
        32           Ti1 tau(  32) = (   0.0006254   4.4649316   9.2693709  )
        33           O1  tau(  33) = (   3.2807216   2.9716845  11.3098041  )
        34           O1  tau(  34) = (   0.0092240   2.9805883  10.6323155  )
        35           O1  tau(  35) = (   1.2724369   4.4570745  12.6376724  )
        36           O1  tau(  36) = (   5.2808598   4.4590940  12.6336130  )
        37           Ti1 tau(  37) = (   6.5522345   0.0346224  12.5198063  )
        38           Ti1 tau(  38) = (   3.2841791   4.3624788  12.4156291  )
        39           O1  tau(  39) = (   6.5678423   2.9906399  14.7075790  )
        40           O1  tau(  40) = (   3.2630306   2.9991211  13.8878987  )
        41           O1  tau(  41) = (   4.5399391   4.4365880  16.1202346  )
        42           O1  tau(  42) = (   1.9952260   4.4486394  16.1468368  )
        43           Ti1 tau(  43) = (   3.1909378   0.0332154  16.1742435  )
        44           Ti1 tau(  44) = (   6.5525253   4.6749982  16.1158565  )
        45           O1  tau(  45) = (   3.2900926   2.9813045   4.7018136  )
        46           O1  tau(  46) = (   1.3039711   4.4726057   6.0039043  )
        47           O1  tau(  47) = (   5.2763189   4.4711207   6.0039473  )
        48           N1  tau(  48) = (   0.9351815   2.3805788  18.4294677  )
        49           N1  tau(  49) = (   6.5001775   2.8750743  17.5309975  )
        50           C1  tau(  50) = (   1.3386797   3.2909482  19.5301671  )
        51           H1  tau(  51) = (   0.4734699   3.4817333  20.1622224  )
        52           H1  tau(  52) = (   2.1262835   2.8019037  20.1042238  )
        53           H1  tau(  53) = (   1.7016266   4.2178517  19.0939426  )
        54           H1  tau(  54) = (   0.6429753   1.4474929  18.7566963  )
        55           H1  tau(  55) = (   5.6191021   2.8022447  18.0351622  )
        56           H1  tau(  56) = (   1.7303324   2.1440475  17.7969061  )
        57           O1  tau(  57) = (   3.3671931   0.1367260  18.0860582  )
        58           H1  tau(  58) = (   4.3009782   5.9598238  18.3244400  )

     number of k points=    10  Fermi-Dirac smearing, width (Ry)=  0.0073
                       cart. coord. in units 2pi/alat
        k(    1) = (   0.0000000   0.0000000   0.0000000), wk =   0.1250000
        k(    2) = (   0.0000000   0.0419351   0.0000000), wk =   0.2500000
        k(    3) = (   0.0000000  -0.0838702   0.0000000), wk =   0.1250000
        k(    4) = (   0.0379955   0.0000049   0.0000000), wk =   0.2500000
        k(    5) = (   0.0379955   0.0419400   0.0000000), wk =   0.2500000
        k(    6) = (   0.0379955  -0.0838652   0.0000000), wk =   0.2500000
        k(    7) = (   0.0379955  -0.0419301   0.0000000), wk =   0.2500000
        k(    8) = (  -0.0759910  -0.0000099   0.0000000), wk =   0.1250000
        k(    9) = (  -0.0759910   0.0419252   0.0000000), wk =   0.2500000
        k(   10) = (  -0.0759910  -0.0838800   0.0000000), wk =   0.1250000

     Initial potential from superposition of free atoms

     starting charge  388.99913, renormalised to  405.00000

     negative rho (up, down):  1.469E-02 0.000E+00

     %%%%%%%%%%%%%%%%%%%%%%%%%%%%%%%%%%%%%%%%%%%%%%%%%%%%%%%%%%%%%%%%%%%%%%%%
     %                                                                      %
     % You are using vdW-DF, which was implemented by the Thonhauser group. %
     % Please cite the following two papers that made this development      %
     % possible and the two reviews that describe the various versions:     %
     %                                                                      %
     %   T. Thonhauser et al., PRL 115, 136402 (2015).                      %
     %   T. Thonhauser et al., PRB 76, 125112 (2007).                       %
     %   K. Berland et al., Rep. Prog. Phys. 78, 066501 (2015).             %
     %   D.C. Langreth et al., J. Phys.: Condens. Matter 21, 084203 (2009). %
     %                                                                      %
     %                                                                      %
     % If you are calculating the stress with vdW-DF, please also cite:     %
     %                                                                      %
     %   R. Sabatini et al., J. Phys.: Condens. Matter 24, 424209 (2012).   %
     %                                                                      %
     %%%%%%%%%%%%%%%%%%%%%%%%%%%%%%%%%%%%%%%%%%%%%%%%%%%%%%%%%%%%%%%%%%%%%%%%

     Adding external electric field

     Computed dipole along edir(3) :
        Dipole              -13.9965 Ry au,        -35.5756 Debye
        Dipole field         -0.0264 Ry au,

        Potential amp.        2.4485 Ry
        Total length         46.3494 bohr

     Starting wfcs are  307 atomic wfcs
  @ DRIVER MODE: Message from server: STATUS
  @ DRIVER MODE: Message from server: POSDATA
  @ DRIVER MODE: Reading and sharing cell
  @ DRIVER MODE: Reading and sharing positions
  @ DRIVER MODE: Received positions

     Self-consistent Calculation

     iteration #  1     ecut=    29.40 Ry     beta= 0.05
     Davidson diagonalization with overlap
     c_bands:  5 eigenvalues not converged
     c_bands:  5 eigenvalues not converged
     c_bands:  2 eigenvalues not converged
     c_bands:  1 eigenvalues not converged
     c_bands:  2 eigenvalues not converged
     c_bands:  3 eigenvalues not converged
     ethr =  1.00E-05,  avg # of iterations = 28.8

[...]

     total energy              =   -2225.12680872 Ry
     estimated scf accuracy    <    8520.88731747 Ry

     iteration #  2     ecut=    29.40 Ry     beta= 0.05
     Davidson diagonalization with overlap
     ethr =  1.00E-02,  avg # of iterations = 25.9

[...]

     iteration # 83     ecut=    29.40 Ry     beta= 0.05
     Davidson diagonalization with overlap
     c_bands:  2 eigenvalues not converged
     ethr =  3.52E-11,  avg # of iterations = 14.0

[...]

     total energy              =   -2976.49322983 Ry
     estimated scf accuracy    <       0.00000017 Ry

     iteration # 85     ecut=    29.40 Ry     beta= 0.05
     Davidson diagonalization with overlap
     ethr =  3.52E-11,  avg # of iterations = 10.1

     negative rho (up, down):  1.566E-02 0.000E+00

     Adding external electric field

     Computed dipole along edir(3) :
        Dipole                1.5032 Ry au,          3.8208 Debye
        Dipole field          0.0028 Ry au,

        Potential amp.       -0.2630 Ry
        Total length         46.3494 bohr

     End of self-consistent calculation

          k = 0.0000 0.0000 0.0000 ( 18029 PWs)   bands (ev):

   -55.2971 -55.1720 -55.1379 -55.0023 -54.9927 -54.9885 -54.9675 -54.9591
   -54.9290 -54.8803 -54.8484 -54.8120 -54.7900 -54.7493 -54.1355 -54.1015
   -31.6547 -31.6245 -31.5432 -31.4941 -31.4919 -31.4876 -31.4641 -31.4451
   -31.4176 -31.4130 -31.3685 -31.3328 -31.3243 -31.2767 -31.2640 -31.2567
   -31.2499 -31.2294 -31.2141 -31.1970 -31.1831 -31.1808 -31.1704 -31.1669
   -31.1480 -31.1250 -31.1225 -31.1190 -31.1093 -31.1014 -31.0955 -31.0750
   -31.0665 -31.0534 -31.0357 -31.0229 -31.0218 -31.0099 -31.0066 -31.0049
   -30.9787 -30.9393 -30.5413 -30.4559 -30.4333 -30.3588 -30.2725 -30.1607
   -18.8699 -16.0292 -15.8034 -15.6525 -15.4846 -15.3395 -15.2532 -15.0536
   -14.9377 -14.8991 -14.8800 -14.8054 -14.7037 -14.7030 -14.6591 -14.6320
   -14.6278 -14.5990 -14.5874 -14.5856 -14.5669 -14.5187 -14.5037 -14.4589
   -14.4528 -14.4134 -14.3012 -14.2317 -14.1871 -14.1151 -13.9969 -13.0865
   -12.6348 -12.5186 -10.7884  -7.5752  -6.2393  -5.5810  -3.7416  -3.6309
    -3.4440  -3.1642  -3.0977  -3.0697  -3.0427  -2.8895  -2.7642  -2.5838
    -2.4738  -2.4290  -2.3113  -2.2937  -2.2118  -2.1636  -2.1193  -2.0711
    -2.0411  -1.9760  -1.9586  -1.9541  -1.9258  -1.8592  -1.8314  -1.7163
    -1.6877  -1.6232  -1.5660  -1.4962  -1.4800  -1.4733  -1.4663  -1.4550
    -1.4263  -1.4112  -1.3798  -1.3394  -1.2590  -1.2055  -1.1986  -1.1582
    -1.0748  -0.8894  -0.7663  -0.7423  -0.6836  -0.6408  -0.5892  -0.5772
    -0.5538  -0.5143  -0.4092  -0.3960  -0.3324  -0.3039  -0.2390  -0.1899
    -0.1622  -0.0991  -0.0375   0.0500   0.0714   0.0885   0.1298   0.1767
     0.2480   0.2841   0.3238   0.3535   0.4430   0.4955   0.5557   0.5625
     0.5948   0.6673   0.7235   0.7710   0.7915   0.8107   0.8621   0.8781
     0.9210   0.9762   1.0170   1.0328   1.1030   1.1617   1.2088   1.2421
     1.3403   1.3556   1.5147   1.5702   1.8376   1.8900   1.9580   2.0836
     2.4567   2.5015   3.9366   4.0572   4.0684   4.0908   4.1697   4.2326
     4.4000   4.4068   4.5188   4.6183

[...]

          k = 0.0380-0.0419 0.0000 ( 17876 PWs)   bands (ev):

[...]

          k =-0.0760-0.0000 0.0000 ( 17886 PWs)   bands (ev):

[...]

          k =-0.0760-0.0839 0.0000 ( 17948 PWs)   bands (ev):

   -55.2963 -55.1554 -55.1544 -54.9891 -54.9862 -54.9835 -54.9767 -54.9747
   -54.9222 -54.8871 -54.8383 -54.8221 -54.7829 -54.7563 -54.1189 -54.1180
   -31.5579 -31.5346 -31.4889 -31.4704 -31.4697 -31.4500 -31.4491 -31.4118
   -31.3126 -31.3058 -31.3000 -31.2987 -31.2934 -31.2751 -31.2741 -31.2652
   -31.2649 -31.2438 -31.2420 -31.2130 -31.2001 -31.1963 -31.1951 -31.1891
   -31.1746 -31.1643 -31.1562 -31.1510 -31.1483 -31.1434 -31.1391 -31.1198
   -31.1084 -31.0867 -31.0714 -31.0658 -31.0306 -31.0289 -31.0166 -31.0141
   -31.0085 -30.9914 -30.4464 -30.4457 -30.3548 -30.3536 -30.3160 -30.3153
   -18.8658 -15.9927 -15.3720 -15.1679 -15.1053 -15.0819 -15.0672 -15.0308
   -15.0041 -14.9500 -14.9310 -14.8727 -14.8425 -14.8294 -14.7578 -14.7423
   -14.6868 -14.6575 -14.6449 -14.6053 -14.6005 -14.5783 -14.5460 -14.5374
   -14.4720 -14.4582 -14.4547 -14.3626 -14.3531 -14.2327 -14.1832 -13.0974
   -12.6207 -12.6203 -10.7906  -7.5861  -6.2253  -5.5708  -3.6848  -3.6467
    -3.4008  -2.5840  -2.4467  -2.4370  -2.3005  -2.2873  -2.1913  -2.1445
    -2.0915  -2.0733  -2.0508  -2.0321  -2.0014  -1.9685  -1.9520  -1.9448
    -1.9164  -1.8945  -1.8694  -1.8636  -1.8278  -1.8229  -1.8015  -1.7785
    -1.7683  -1.7334  -1.7198  -1.7157  -1.7015  -1.6485  -1.6291  -1.4665
    -1.4360  -1.3447  -1.3113  -1.2883  -1.2789  -1.2528  -1.2359  -1.2152
    -1.1601  -1.1068  -1.0464  -0.9187  -0.8739  -0.8099  -0.7741  -0.6965
    -0.6553  -0.6218  -0.5935  -0.5701  -0.5371  -0.4793  -0.4027  -0.3478
    -0.3018  -0.2606  -0.1631  -0.1432  -0.1214  -0.1100  -0.0764  -0.0173
    -0.0107   0.0453   0.0640   0.1274   0.1427   0.1580   0.1759   0.2618
     0.3537   0.4340   0.4581   0.5493   0.5673   0.6569   0.7037   0.8041
     0.9162   0.9618   1.0017   1.0113   1.0946   1.1008   1.1565   1.1794
     1.2621   1.3506   1.4149   1.4232   1.4431   1.4970   2.2530   2.2615
     2.3217   2.3220   4.1871   4.3500   4.4297   4.4413   4.4733   4.4844
     4.5167   4.5192   4.6049   4.6146

     the Fermi energy is     3.9558 ev

!    total energy              =   -2976.49323415 Ry
     estimated scf accuracy    <       0.00000007 Ry
     smearing contrib. (-TS)   =      -0.02056955 Ry
     internal energy E=F+TS    =   -2976.47266460 Ry

     The total energy is F=E-TS. E is the sum of the following terms:
     one-electron contribution =  -23616.56449704 Ry
     hartree contribution      =   11908.03082183 Ry
     xc contribution           =    -495.76413340 Ry
     ewald contribution        =    9227.82087975 Ry
     electric field correction =       0.00426425 Ry

     convergence has been achieved in  85 iterations

     Forces acting on atoms (cartesian axes, Ry/au):

     atom    1 type  1   force =     0.00014120   -0.00013527    0.09533539
     atom    2 type  1   force =    -0.00002712    0.00039278   -0.17474033
     atom    3 type  2   force =     0.00004017   -0.00018385   -0.02256617
     atom    4 type  2   force =     0.00001462   -0.00200765    0.05319896
     atom    5 type  2   force =    -0.00814140   -0.00302702    0.00226798
     atom    6 type  2   force =     0.00923835   -0.00232262    0.00056388
     atom    7 type  1   force =    -0.00078826   -0.00510219    0.00570949
     atom    8 type  1   force =     0.00083689    0.00657070    0.01468753
     atom    9 type  2   force =     0.00011370    0.00043051    0.00073487
     atom   10 type  2   force =    -0.00346438    0.00091576   -0.01236237
     atom   11 type  2   force =     0.00000482   -0.00055738    0.00028821
     atom   12 type  2   force =     0.00005742   -0.00042792    0.00023649
     atom   13 type  1   force =     0.00094123    0.00088740    0.00011517
     atom   14 type  1   force =    -0.00018706    0.00013895   -0.00044565
     atom   15 type  2   force =     0.00015956   -0.00076887   -0.00072642
     atom   16 type  2   force =     0.00011918   -0.00015462    0.00103240
     atom   17 type  2   force =    -0.00004003    0.00016995   -0.00011771
     atom   18 type  2   force =    -0.00006712    0.00027181    0.00001932
     atom   19 type  1   force =     0.00029817   -0.00001602   -0.00008145
     atom   20 type  1   force =     0.00003397   -0.00000406   -0.00021294
     atom   21 type  2   force =     0.00009308   -0.00000040    0.10304369
     atom   22 type  2   force =     0.00019951    0.00024261    0.00066985
     atom   23 type  2   force =    -0.07211290   -0.00022684   -0.02755781
     atom   24 type  2   force =     0.07206845    0.00025816   -0.02757659
     atom   25 type  1   force =     0.00015727   -0.00028526    0.09517824
     atom   26 type  1   force =     0.00001231   -0.00123051   -0.17521887
     atom   27 type  2   force =    -0.00000455    0.00008538   -0.02152690
     atom   28 type  2   force =     0.00005367   -0.00043674    0.04878107
     atom   29 type  2   force =    -0.00786207    0.00198366    0.00251332
     atom   30 type  2   force =     0.00888889    0.00234256    0.00069119
     atom   31 type  1   force =    -0.00069459    0.00833315   -0.00446791
     atom   32 type  1   force =     0.00106112   -0.00751414    0.01446514
     atom   33 type  2   force =     0.00012492    0.00022036   -0.00001669
     atom   34 type  2   force =    -0.00269804   -0.00027395   -0.01823766
     atom   35 type  2   force =    -0.00054289    0.00026715    0.00008209
     atom   36 type  2   force =     0.00070685    0.00039739    0.00023851
     atom   37 type  1   force =     0.00017444   -0.00037559    0.00024642
     atom   38 type  1   force =    -0.00006337   -0.00007938   -0.00074323
     atom   39 type  2   force =     0.00029950    0.00032834   -0.00012566
     atom   40 type  2   force =     0.00022531    0.00001567    0.00066931
     atom   41 type  2   force =    -0.00020799   -0.00039878   -0.00006354
     atom   42 type  2   force =     0.00043225   -0.00015714    0.00049035
     atom   43 type  1   force =     0.00046474    0.00015557   -0.00008879
     atom   44 type  1   force =     0.00022616   -0.00011725   -0.00006352
     atom   45 type  2   force =     0.00009032   -0.00009752    0.10284057
     atom   46 type  2   force =    -0.07215644   -0.00003257   -0.02758628
     atom   47 type  2   force =     0.07210354    0.00036546   -0.02759098
     atom   48 type  3   force =     0.00027843    0.00015911    0.00002012
     atom   49 type  3   force =    -0.00068197    0.00051177   -0.00031554
     atom   50 type  4   force =     0.00010769    0.00069485    0.00033620
     atom   51 type  5   force =     0.00023624    0.00043729   -0.00023279
     atom   52 type  5   force =    -0.00026731   -0.00021909   -0.00051152
     atom   53 type  5   force =     0.00042375    0.00016016   -0.00025438
     atom   54 type  5   force =    -0.00014243   -0.00040508   -0.00001130
     atom   55 type  5   force =    -0.00026566   -0.00033296   -0.00009804
     atom   56 type  5   force =    -0.00005664    0.00008598   -0.00051293
     atom   57 type  2   force =     0.00428315   -0.00109718    0.00151135
     atom   58 type  5   force =    -0.00423867    0.00116539   -0.00191314

     Total force =     0.363560     Total SCF correction =     0.000653
  @ DRIVER MODE: Message from server: STATUS
  @ DRIVER MODE: Message from server: GETFORCE
  @ DRIVER MODE: Returning v,forces,stress,ensemble

     Writing output data file ./calc.save/
  @ DRIVER MODE: Message from server: EXIT
  @ DRIVE MODE: Exiting

     General routines

     Parallel routines

   This run was terminated on:  16:43:24  24Sep2021

   JOB DONE.