     Program PWSCF v.6.7GPU starts on 23Sep2021 at 15:24: 9

     R & G space division:  proc/nbgrp/npool/nimage =       8
     Reading input from /storage/home/hcoda1/3/ntian30/research/carbon/CxH_vib/H2O_calc/ads_slab/CH3OHHO_e/out_0044/pw.inp
Warning: card &CELL ignored
Warning: card   CELL_DYNAMICS='IPI', ignored
Warning: card / ignored

     Current dimensions of program PWSCF are:
     Max number of different atomic species (ntypx) = 10
     Max number of k-points (npk) =  40000
     Max angular momentum in pseudopotentials (lmaxx) =  3
     Presently no symmetry can be used with electric field

     Message from routine cell_base_init:
     DEPRECATED: use true lattice parameter, not A to a.u. conversion factor

     IMPORTANT: XC functional enforced from input :
     Exchange-correlation= BEEF-VDW
                           (   1   4  43  14   2   0   0)
     Any further DFT definition will be discarded
     Please, verify this is what you really want

  @ DRIVER MODE: Connecting to
 qe_1139763_2941008.sched-torque.pace.gatech.eduvgqtar4s_scratch
  using UNIX socket
  @ DRIVER MODE: Message from server: STATUS
  @ DRIVER MODE: Message from server: INIT
  @ DRIVER MODE: Receiving replica           0          -1
  @ DRIVER MODE: Receiving encoded integer          25
  @ DRIVER MODE:  SCF:  T  FORCE:  T  STRESS:  F  VC:  F  ENSEMBLE:  F
  @ DRIVER MODE:  SCF:  T  FORCE:  T  STRESS:  F  VC:  F  ENSEMBLE:  F

     Using Slab Decomposition

     bravais-lattice index     =            0
     lattice parameter (alat)  =       1.8897  a.u.
     unit-cell volume          =    6658.9804 (a.u.)^3
     number of atoms/cell      =           55
     number of atomic types    =            4
     number of electrons       =       399.00
     number of Kohn-Sham states=          209
     kinetic-energy cutoff     =      29.3995  Ry
     charge density cutoff     =     293.9946  Ry
     scf convergence threshold =      7.3E-08
     mixing beta               =       0.0500
     number of iterations used =            8  plain     mixing
     Exchange-correlation= BEEF-VDW
                           (   1   4  43  14   2   0   0)

     celldm(1)=   1.889726  celldm(2)=   0.000000  celldm(3)=   0.000000
     celldm(4)=   0.000000  celldm(5)=   0.000000  celldm(6)=   0.000000

     crystal axes: (cart. coord. in units of alat)
               a(1) = (   6.579727   0.000000   0.000000 )
               a(2) = (  -0.000775   5.961596   0.000000 )
               a(3) = (   0.000000   0.000000  25.155947 )

     reciprocal axes: (cart. coord. in units 2 pi/alat)
               b(1) = (  0.151982  0.000020  0.000000 )
               b(2) = (  0.000000  0.167740  0.000000 )
               b(3) = (  0.000000  0.000000  0.039752 )

     PseudoPot. # 1 for Ti read from file:
     /storage/coda1/p-amedford6/0/shared/rich_project_chbe-medford/medford-share/data/pseudos_module/espresso/nninc/pbe/van/Ti.UPF
     MD5 check sum: 8e4df49b7f0d34bbd5052bf3f5ea0213
     Pseudo is Ultrasoft, Zval = 12.0
     Generated by new atomic code, or converted to UPF format
     Using radial grid of  851 points,  6 beta functions with:
                l(1) =   0
                l(2) =   0
                l(3) =   1
                l(4) =   1
                l(5) =   2
                l(6) =   2
     Q(r) pseudized with  8 coefficients,  rinner =    1.000   1.000   1.000
                                                       1.000   1.000

     PseudoPot. # 2 for O  read from file:
     /storage/coda1/p-amedford6/0/shared/rich_project_chbe-medford/medford-share/data/pseudos_module/espresso/nninc/pbe/van/O.UPF
     MD5 check sum: 78c19812648e8988a0fe644b0f25305e
     Pseudo is Ultrasoft, Zval =  6.0
     Generated by new atomic code, or converted to UPF format
     Using radial grid of  737 points,  4 beta functions with:
                l(1) =   0
                l(2) =   0
                l(3) =   1
                l(4) =   1
     Q(r) pseudized with  8 coefficients,  rinner =    0.800   0.800   0.800

     PseudoPot. # 3 for C  read from file:
     /storage/coda1/p-amedford6/0/shared/rich_project_chbe-medford/medford-share/data/pseudos_module/espresso/nninc/pbe/van/C.UPF
     MD5 check sum: 1a69bf6b8db32088f5b2163dbdb77a27
     Pseudo is Ultrasoft, Zval =  4.0
     Generated by new atomic code, or converted to UPF format
     Using radial grid of  721 points,  4 beta functions with:
                l(1) =   0
                l(2) =   0
                l(3) =   1
                l(4) =   1
     Q(r) pseudized with  8 coefficients,  rinner =    0.800   0.800   0.800

     PseudoPot. # 4 for H  read from file:
     /storage/coda1/p-amedford6/0/shared/rich_project_chbe-medford/medford-share/data/pseudos_module/espresso/nninc/pbe/van/H.UPF
     MD5 check sum: b5ee9d7bfd3a09ee7748110bda690ff7
     Pseudo is Ultrasoft, Zval =  1.0
     Generated by new atomic code, or converted to UPF format
     Using radial grid of  615 points,  1 beta functions with:
                l(1) =   0
     Q(r) pseudized with  8 coefficients,  rinner =    0.800

     atomic species   valence    mass     pseudopotential
        Ti1           12.00    47.86700     Ti( 1.00)
        O1             6.00    15.99900     O ( 1.00)
        C1             4.00    12.01100     C ( 1.00)
        H1             1.00     1.00800     H ( 1.00)

     No symmetry found

   Cartesian axes

     site n.     atom                  positions (alat units)
         1           Ti1 tau(   1) = (   0.0004258   2.9801865   6.0000000  )
         2           Ti1 tau(   2) = (   3.2906075   1.4906267   6.0002472  )
         3           O1  tau(   3) = (   0.0006271   0.0005054   7.9858123  )
         4           O1  tau(   4) = (   3.2906025   0.0005020   7.3038282  )
         5           O1  tau(   5) = (   4.5942328   1.4918067   9.2879030  )
         6           O1  tau(   6) = (   1.9868534   1.4903216   9.2879459  )
         7           Ti1 tau(   7) = (   3.3364693   3.0244086   9.1899460  )
         8           Ti1 tau(   8) = (   0.0614121   1.5180315   9.2736979  )
         9           O1  tau(   9) = (   3.3192415   0.0109611  11.3574448  )
        10           O1  tau(  10) = (   0.0135824   0.0030625  10.5923660  )
        11           O1  tau(  11) = (   1.3113730   1.4888140  12.6397483  )
        12           O1  tau(  12) = (   5.3365169   1.4868518  12.6422516  )
        13           Ti1 tau(  13) = (   0.0249591   3.0356721  12.5595363  )
        14           Ti1 tau(  14) = (   3.3216347   1.5719315  12.4302660  )
        15           O1  tau(  15) = (   0.0475996   5.9320359  14.6592625  )
        16           O1  tau(  16) = (   3.3253441   5.8716044  14.0084122  )
        17           O1  tau(  17) = (   4.6294077   1.4993822  16.1384749  )
        18           O1  tau(  18) = (   2.0712093   1.5368213  16.0656395  )
        19           Ti1 tau(  19) = (   3.3420502   2.9337026  15.6791356  )
        20           Ti1 tau(  20) = (   0.0819182   1.3209985  15.9439250  )
        21           O1  tau(  21) = (   3.2904802   0.0005063   4.7018136  )
        22           O1  tau(  22) = (   0.1121901   0.0005398  17.1797988  )
        23           O1  tau(  23) = (   1.3043587   1.4918075   6.0039043  )
        24           O1  tau(  24) = (   5.2767064   1.4903225   6.0039473  )
        25           Ti1 tau(  25) = (   0.0000382   5.9609847   6.0000000  )
        26           Ti1 tau(  26) = (   3.2902200   4.4714249   6.0002472  )
        27           O1  tau(  27) = (   0.0002396   2.9813036   7.9858123  )
        28           O1  tau(  28) = (   3.2902150   2.9813002   7.3038282  )
        29           O1  tau(  29) = (   4.5938453   4.4726049   9.2879030  )
        30           O1  tau(  30) = (   1.9864658   4.4711199   9.2879459  )
        31           Ti1 tau(  31) = (   3.3365859   0.0383882   9.1683042  )
        32           Ti1 tau(  32) = (   0.0607984   4.4756772   9.2727477  )
        33           O1  tau(  33) = (   3.3154497   2.9528697  11.3100477  )
        34           O1  tau(  34) = (   0.0130381   2.9821538  10.6068333  )
        35           O1  tau(  35) = (   1.3079814   4.4632751  12.6339740  )
        36           O1  tau(  36) = (   5.3374838   4.4678533  12.6371107  )
        37           Ti1 tau(  37) = (   0.0367351   0.0553833  12.4739561  )
        38           Ti1 tau(  38) = (   3.3178111   4.6524667  12.7070490  )
        39           O1  tau(  39) = (   0.0226182   2.9861015  14.7894940  )
        40           O1  tau(  40) = (   3.3464301   2.9603322  13.9061577  )
        41           O1  tau(  41) = (   4.6320376   4.4053937  16.1659747  )
        42           O1  tau(  42) = (   2.0651706   4.3480327  16.1155179  )
        43           Ti1 tau(  43) = (   3.4032537   5.9185344  16.2710929  )
        44           Ti1 tau(  44) = (   0.0646745   4.5145260  15.8553686  )
        45           O1  tau(  45) = (   3.2900926   2.9813045   4.7018136  )
        46           O1  tau(  46) = (   1.3039711   4.4726057   6.0039043  )
        47           O1  tau(  47) = (   5.2763189   4.4711207   6.0039473  )
        48           C1  tau(  48) = (   5.9353497   3.0583042  18.8699169  )
        49           O1  tau(  49) = (   0.1856485   3.0014673  17.6677584  )
        50           H1  tau(  50) = (   4.9577780   2.6849493  18.5881267  )
        51           H1  tau(  51) = (   1.1185258   3.1466834  17.9024234  )
        52           H1  tau(  52) = (   6.3707541   2.4080388  19.6265123  )
        53           H1  tau(  53) = (   5.8722695   4.0904670  19.2075282  )
        54           O1  tau(  54) = (   3.1419305   5.9539177  18.1124628  )
        55           H1  tau(  55) = (   2.2121640   0.0520986  18.3490109  )

     number of k points=    10  Fermi-Dirac smearing, width (Ry)=  0.0073
                       cart. coord. in units 2pi/alat
        k(    1) = (   0.0000000   0.0000000   0.0000000), wk =   0.1250000
        k(    2) = (   0.0000000   0.0419351   0.0000000), wk =   0.2500000
        k(    3) = (   0.0000000  -0.0838702   0.0000000), wk =   0.1250000
        k(    4) = (   0.0379955   0.0000049   0.0000000), wk =   0.2500000
        k(    5) = (   0.0379955   0.0419400   0.0000000), wk =   0.2500000
        k(    6) = (   0.0379955  -0.0838652   0.0000000), wk =   0.2500000
        k(    7) = (   0.0379955  -0.0419301   0.0000000), wk =   0.2500000
        k(    8) = (  -0.0759910  -0.0000099   0.0000000), wk =   0.1250000
        k(    9) = (  -0.0759910   0.0419252   0.0000000), wk =   0.2500000
        k(   10) = (  -0.0759910  -0.0838800   0.0000000), wk =   0.1250000

     Initial potential from superposition of free atoms

     starting charge  382.99916, renormalised to  399.00000

     negative rho (up, down):  1.653E-02 0.000E+00

     %%%%%%%%%%%%%%%%%%%%%%%%%%%%%%%%%%%%%%%%%%%%%%%%%%%%%%%%%%%%%%%%%%%%%%%%
     %                                                                      %
     % You are using vdW-DF, which was implemented by the Thonhauser group. %
     % Please cite the following two papers that made this development      %
     % possible and the two reviews that describe the various versions:     %
     %                                                                      %
     %   T. Thonhauser et al., PRL 115, 136402 (2015).                      %
     %   T. Thonhauser et al., PRB 76, 125112 (2007).                       %
     %   K. Berland et al., Rep. Prog. Phys. 78, 066501 (2015).             %
     %   D.C. Langreth et al., J. Phys.: Condens. Matter 21, 084203 (2009). %
     %                                                                      %
     %                                                                      %
     % If you are calculating the stress with vdW-DF, please also cite:     %
     %                                                                      %
     %   R. Sabatini et al., J. Phys.: Condens. Matter 24, 424209 (2012).   %
     %                                                                      %
     %%%%%%%%%%%%%%%%%%%%%%%%%%%%%%%%%%%%%%%%%%%%%%%%%%%%%%%%%%%%%%%%%%%%%%%%

     Adding external electric field

     Computed dipole along edir(3) :
        Dipole              -10.2322 Ry au,        -26.0076 Debye
        Dipole field         -0.0193 Ry au,

        Potential amp.        1.7900 Ry
        Total length         46.3494 bohr

     Starting wfcs are  301 atomic wfcs
  @ DRIVER MODE: Message from server: STATUS
  @ DRIVER MODE: Message from server: POSDATA
  @ DRIVER MODE: Reading and sharing cell
  @ DRIVER MODE: Reading and sharing positions
  @ DRIVER MODE: Received positions

     Self-consistent Calculation

     iteration #  1     ecut=    29.40 Ry     beta= 0.05
     Davidson diagonalization with overlap
     c_bands:  3 eigenvalues not converged
     c_bands:  3 eigenvalues not converged
     c_bands:  4 eigenvalues not converged
     c_bands:  1 eigenvalues not converged
     c_bands:  5 eigenvalues not converged
     c_bands:  5 eigenvalues not converged
     c_bands:  4 eigenvalues not converged
     c_bands:  4 eigenvalues not converged
     c_bands:  4 eigenvalues not converged
     ethr =  1.00E-05,  avg # of iterations = 21.1

[...]

     total energy              =   -2463.83875419 Ry
     estimated scf accuracy    <    5598.02933788 Ry

     iteration #  2     ecut=    29.40 Ry     beta= 0.05
     Davidson diagonalization with overlap
     ethr =  1.00E-02,  avg # of iterations = 26.4

[...]

     iteration # 75     ecut=    29.40 Ry     beta= 0.05
     Davidson diagonalization with overlap
     c_bands:  2 eigenvalues not converged
     ethr =  5.81E-10,  avg # of iterations = 11.9

[...]

     total energy              =   -2966.27796330 Ry
     estimated scf accuracy    <       0.00000018 Ry

     iteration # 84     ecut=    29.40 Ry     beta= 0.05
     Davidson diagonalization with overlap
     ethr =  4.44E-11,  avg # of iterations =  9.1

     negative rho (up, down):  1.671E-02 0.000E+00

     Adding external electric field

     Computed dipole along edir(3) :
        Dipole                1.0461 Ry au,          2.6589 Debye
        Dipole field          0.0020 Ry au,

        Potential amp.       -0.1830 Ry
        Total length         46.3494 bohr

     End of self-consistent calculation

          k = 0.0000 0.0000 0.0000 ( 18029 PWs)   bands (ev):

   -55.7033 -55.6322 -55.5973 -55.5179 -55.4933 -55.4670 -55.4347 -55.4276
   -55.4224 -55.4106 -55.3982 -55.3710 -55.2849 -55.2131 -54.5904 -54.5564
   -32.1111 -32.0926 -32.0141 -32.0025 -31.9598 -31.9500 -31.9221 -31.9214
   -31.8925 -31.8758 -31.8668 -31.7937 -31.7912 -31.7856 -31.7585 -31.7404
   -31.7332 -31.7215 -31.7106 -31.6980 -31.6950 -31.6908 -31.6467 -31.6459
   -31.6442 -31.6367 -31.6318 -31.6248 -31.6128 -31.5967 -31.5918 -31.5819
   -31.5759 -31.5608 -31.5565 -31.5470 -31.5355 -31.5127 -31.4736 -31.4571
   -31.4248 -31.4176 -30.9965 -30.9105 -30.8879 -30.8135 -30.7271 -30.6155
   -20.0612 -16.5735 -16.2872 -16.1073 -15.9054 -15.8409 -15.7827 -15.5939
   -15.5187 -15.3779 -15.2327 -15.2194 -15.1664 -15.1659 -15.1570 -15.1340
   -15.1030 -15.0590 -15.0495 -15.0435 -15.0379 -14.9825 -14.9405 -14.9323
   -14.9257 -14.8849 -14.7566 -14.7164 -14.6601 -14.4895 -14.4442 -13.0901
   -12.9740 -10.9292  -6.7698  -4.9657  -4.7694  -4.0390  -3.6373  -3.5367
    -3.5188  -3.4564  -3.4001  -3.1879  -3.0671  -3.0159  -2.9035  -2.7769
    -2.7377  -2.6811  -2.6578  -2.5661  -2.5440  -2.5138  -2.4891  -2.4314
    -2.4020  -2.3939  -2.3814  -2.3095  -2.2999  -2.1700  -2.1657  -2.0916
    -2.0243  -2.0032  -1.9845  -1.9662  -1.9347  -1.9340  -1.8882  -1.8676
    -1.8459  -1.8131  -1.7422  -1.7218  -1.6612  -1.6206  -1.3865  -1.2255
    -1.2029  -1.1332  -1.1154  -1.0832  -1.0460  -1.0315  -1.0261  -0.9875
    -0.9711  -0.8626  -0.7670  -0.7547  -0.6936  -0.6539  -0.6529  -0.5192
    -0.4708  -0.3975  -0.3714  -0.3464  -0.3234  -0.2306  -0.1882  -0.1708
    -0.1075  -0.0781   0.0345   0.0738   0.0918   0.1306   0.1868   0.2542
     0.2841   0.3212   0.3291   0.3614   0.4102   0.4345   0.4680   0.4946
     0.5339   0.6384   0.6784   0.6934   0.8358   0.8399   0.9260   1.0536
     1.1017   1.3826   1.4347   1.4727   1.6277   2.0023   2.0484   3.4867
     3.6033   3.6143   3.6326   3.7031   3.7932   3.9489   3.9772   4.0482
     4.1434

[...]

          k = 0.0380-0.0419 0.0000 ( 17876 PWs)   bands (ev):

[...]

          k =-0.0760-0.0000 0.0000 ( 17886 PWs)   bands (ev):

[...]

          k =-0.0760-0.0839 0.0000 ( 17948 PWs)   bands (ev):

   -55.7025 -55.6186 -55.6107 -55.5110 -55.4886 -55.4736 -55.4282 -55.4270
   -55.4220 -55.4103 -55.4014 -55.3804 -55.2809 -55.2170 -54.5736 -54.5730
   -32.0120 -31.9550 -31.9459 -31.9304 -31.9226 -31.9204 -31.9148 -31.9009
   -31.8339 -31.8332 -31.7974 -31.7668 -31.7629 -31.7551 -31.7389 -31.7385
   -31.7335 -31.7305 -31.7272 -31.7178 -31.7153 -31.7128 -31.7008 -31.6990
   -31.6713 -31.6694 -31.6353 -31.6308 -31.6293 -31.6290 -31.6191 -31.6150
   -31.6085 -31.6067 -31.5997 -31.5987 -31.5968 -31.5602 -31.5404 -31.4779
   -31.4642 -31.4216 -30.9009 -30.9004 -30.8103 -30.8087 -30.7705 -30.7695
   -20.0575 -16.5535 -15.9002 -15.7569 -15.5942 -15.5760 -15.4985 -15.4027
   -15.3862 -15.3572 -15.3477 -15.3275 -15.3017 -15.2995 -15.2518 -15.1964
   -15.1545 -15.1316 -15.1272 -15.0812 -15.0718 -15.0682 -15.0125 -15.0000
   -14.9906 -14.9519 -14.8921 -14.8631 -14.7857 -14.7549 -14.6047 -13.0762
   -13.0756 -10.9313  -6.7709  -4.9469  -4.7623  -4.0029  -3.0503  -2.9776
    -2.9033  -2.8171  -2.7363  -2.6784  -2.6278  -2.6090  -2.5659  -2.5457
    -2.4753  -2.4415  -2.4339  -2.4123  -2.4101  -2.3838  -2.3679  -2.3554
    -2.3329  -2.3026  -2.2885  -2.2747  -2.2563  -2.2356  -2.2147  -2.1954
    -2.1826  -2.1719  -2.1521  -2.0449  -2.0205  -1.9846  -1.8307  -1.8190
    -1.7541  -1.7216  -1.6910  -1.6858  -1.6530  -1.6451  -1.6023  -1.4924
    -1.4641  -1.4170  -1.3598  -1.2690  -1.2635  -1.2174  -1.1638  -1.1254
    -1.0960  -1.0489  -1.0459  -1.0024  -0.8595  -0.8324  -0.7945  -0.6701
    -0.5977  -0.5823  -0.5683  -0.5512  -0.5252  -0.4783  -0.4730  -0.4162
    -0.3944  -0.3227  -0.3207  -0.2962  -0.2723  -0.1649  -0.0501   0.0402
     0.0756   0.1321   0.1713   0.2036   0.2868   0.3616   0.4452   0.5304
     0.5574   0.5680   0.6893   0.7174   0.7684   0.8193   0.8358   0.8958
     0.9288   0.9715   0.9998   1.7958   1.8091   1.8649   1.8697   3.6750
     3.9237   3.9758   3.9940   4.0067   4.0402   4.0601   4.1068   4.1247
     4.1505

     the Fermi energy is     3.5001 ev

!    total energy              =   -2966.27797711 Ry
     estimated scf accuracy    <       0.00000006 Ry
     smearing contrib. (-TS)   =      -0.02072963 Ry
     internal energy E=F+TS    =   -2966.25724747 Ry

     The total energy is F=E-TS. E is the sum of the following terms:
     one-electron contribution =  -24039.03957295 Ry
     hartree contribution      =   12112.03099716 Ry
     xc contribution           =    -490.95256818 Ry
     ewald contribution        =    9451.70183145 Ry
     electric field correction =       0.00206505 Ry

     convergence has been achieved in  84 iterations

     Forces acting on atoms (cartesian axes, Ry/au):

     atom    1 type  1   force =    -0.00039796    0.00006019    0.09456876
     atom    2 type  1   force =    -0.00032418    0.00499742   -0.17463016
     atom    3 type  2   force =     0.00082256   -0.00023588   -0.02593905
     atom    4 type  2   force =     0.00125389    0.00075550    0.05284834
     atom    5 type  2   force =    -0.01096708   -0.00285533    0.00047900
     atom    6 type  2   force =     0.01163704   -0.00410129    0.00185542
     atom    7 type  1   force =     0.00052446    0.00038500   -0.00015674
     atom    8 type  1   force =    -0.00044794    0.00019808    0.00076914
     atom    9 type  2   force =    -0.00044429    0.00028205   -0.00026870
     atom   10 type  2   force =     0.00031691   -0.00035283   -0.00047456
     atom   11 type  2   force =     0.00061971    0.00031994   -0.00022974
     atom   12 type  2   force =    -0.00038887   -0.00046112   -0.00038106
     atom   13 type  1   force =    -0.00129662   -0.00080361    0.00035185
     atom   14 type  1   force =     0.00029298    0.00009758    0.00056400
     atom   15 type  2   force =     0.00048967    0.00065524    0.00014331
     atom   16 type  2   force =    -0.00048537    0.00052738    0.00061844
     atom   17 type  2   force =    -0.00002987    0.00030280    0.00007049
     atom   18 type  2   force =    -0.00019081   -0.00006988    0.00044042
     atom   19 type  1   force =    -0.00039618    0.00112639   -0.00022947
     atom   20 type  1   force =    -0.00018840   -0.00046229   -0.00050418
     atom   21 type  2   force =    -0.00001476    0.00005742    0.10307656
     atom   22 type  2   force =    -0.00047519   -0.00054534   -0.00081324
     atom   23 type  2   force =    -0.07204400    0.00005022   -0.02788426
     atom   24 type  2   force =     0.07189795    0.00053812   -0.02799244
     atom   25 type  1   force =    -0.00043996   -0.00000444    0.10116089
     atom   26 type  1   force =    -0.00006943   -0.00460999   -0.17487696
     atom   27 type  2   force =     0.00089608    0.00114491   -0.02442474
     atom   28 type  2   force =     0.00113653    0.00014640    0.05241361
     atom   29 type  2   force =    -0.01185235    0.00306287    0.00194592
     atom   30 type  2   force =     0.01325738    0.00116358    0.00308118
     atom   31 type  1   force =     0.00058473    0.00003508   -0.00055255
     atom   32 type  1   force =    -0.00036252    0.00070468    0.00046808
     atom   33 type  2   force =    -0.00020250    0.00093031    0.00017048
     atom   34 type  2   force =     0.00013793   -0.00012829   -0.00097363
     atom   35 type  2   force =     0.00033879    0.00007669    0.00054406
     atom   36 type  2   force =     0.00009452    0.00016500    0.00048276
     atom   37 type  1   force =    -0.00144582   -0.00060158    0.00033010
     atom   38 type  1   force =     0.00077757   -0.00027211   -0.00013800
     atom   39 type  2   force =     0.00045237   -0.00019622    0.00119488
     atom   40 type  2   force =    -0.00011248    0.00034390    0.00052284
     atom   41 type  2   force =    -0.00059220    0.00004467   -0.00066821
     atom   42 type  2   force =     0.00003544   -0.00014008   -0.00049583
     atom   43 type  1   force =     0.00016915   -0.00030667   -0.00085264
     atom   44 type  1   force =    -0.00024589   -0.00031766   -0.00104407
     atom   45 type  2   force =    -0.00001174    0.00012353    0.10265322
     atom   46 type  2   force =    -0.07202597   -0.00056488   -0.02786732
     atom   47 type  2   force =     0.07187778   -0.00007733   -0.02794876
     atom   48 type  3   force =     0.00009893   -0.00094026   -0.00129011
     atom   49 type  2   force =    -0.00073273   -0.00041484   -0.00090843
     atom   50 type  4   force =     0.00012403   -0.00012330   -0.00004750
     atom   51 type  4   force =    -0.00010941   -0.00010403   -0.00030109
     atom   52 type  4   force =    -0.00006680   -0.00000349   -0.00002256
     atom   53 type  4   force =    -0.00080155    0.00055985   -0.00006484
     atom   54 type  2   force =     0.01922471   -0.00109272   -0.00416460
     atom   55 type  4   force =    -0.01989824    0.00093070    0.00539172

     Total force =     0.365486     Total SCF correction =     0.000965
  @ DRIVER MODE: Message from server: STATUS
  @ DRIVER MODE: Message from server: GETFORCE
  @ DRIVER MODE: Returning v,forces,stress,ensemble

     Writing output data file ./calc.save/
  @ DRIVER MODE: Message from server: EXIT
  @ DRIVE MODE: Exiting

     General routines

     Parallel routines

   This run was terminated on:  15:51:10  23Sep2021

   JOB DONE.