     Program PWSCF v.6.7GPU starts on 24Aug2021 at 23: 4:47

     R & G space division:  proc/nbgrp/npool/nimage =      72
     Reading input from /storage/home/hcoda1/3/ntian30/research/carbon/CH2_vib/ads_slab/CH2NHHH_a/out_0034/pw.inp
Warning: card &CELL ignored
Warning: card   CELL_DYNAMICS='IPI', ignored
Warning: card / ignored

     Current dimensions of program PWSCF are:
     Max number of different atomic species (ntypx) = 10
     Max number of k-points (npk) =  40000
     Max angular momentum in pseudopotentials (lmaxx) =  3
     Presently no symmetry can be used with electric field

     Message from routine cell_base_init:
     DEPRECATED: use true lattice parameter, not A to a.u. conversion factor

     IMPORTANT: XC functional enforced from input :
     Exchange-correlation= BEEF-VDW
                           (   1   4  43  14   2   0   0)
     Any further DFT definition will be discarded
     Please, verify this is what you really want

  @ DRIVER MODE: Connecting to
 qe_1139763_2641440.sched-torque.pace.gatech.edu7fr24983_scratch
  using UNIX socket
  @ DRIVER MODE: Message from server: STATUS
  @ DRIVER MODE: Message from server: INIT
  @ DRIVER MODE: Receiving replica           0          -1
  @ DRIVER MODE: Receiving encoded integer          25
  @ DRIVER MODE:  SCF:  T  FORCE:  T  STRESS:  F  VC:  F  ENSEMBLE:  F
  @ DRIVER MODE:  SCF:  T  FORCE:  T  STRESS:  F  VC:  F  ENSEMBLE:  F

     Using Slab Decomposition

     bravais-lattice index     =            0
     lattice parameter (alat)  =       1.8897  a.u.
     unit-cell volume          =    6658.9804 (a.u.)^3
     number of atoms/cell      =           54
     number of atomic types    =            5
     number of electrons       =       392.00
     number of Kohn-Sham states=          206
     kinetic-energy cutoff     =      29.3995  Ry
     charge density cutoff     =     293.9946  Ry
     scf convergence threshold =      7.3E-08
     mixing beta               =       0.0500
     number of iterations used =            8  plain     mixing
     Exchange-correlation= BEEF-VDW
                           (   1   4  43  14   2   0   0)

     celldm(1)=   1.889726  celldm(2)=   0.000000  celldm(3)=   0.000000
     celldm(4)=   0.000000  celldm(5)=   0.000000  celldm(6)=   0.000000

     crystal axes: (cart. coord. in units of alat)
               a(1) = (   6.579727   0.000000   0.000000 )
               a(2) = (  -0.000775   5.961596   0.000000 )
               a(3) = (   0.000000   0.000000  25.155947 )

     reciprocal axes: (cart. coord. in units 2 pi/alat)
               b(1) = (  0.151982  0.000020  0.000000 )
               b(2) = (  0.000000  0.167740  0.000000 )
               b(3) = (  0.000000  0.000000  0.039752 )

     PseudoPot. # 1 for Ti read from file:
     /storage/coda1/p-amedford6/0/shared/rich_project_chbe-medford/medford-share/data/pseudos_module/espresso/nninc/pbe/van/Ti.UPF
     MD5 check sum: 8e4df49b7f0d34bbd5052bf3f5ea0213
     Pseudo is Ultrasoft, Zval = 12.0
     Generated by new atomic code, or converted to UPF format
     Using radial grid of  851 points,  6 beta functions with:
                l(1) =   0
                l(2) =   0
                l(3) =   1
                l(4) =   1
                l(5) =   2
                l(6) =   2
     Q(r) pseudized with  8 coefficients,  rinner =    1.000   1.000   1.000
                                                       1.000   1.000

     PseudoPot. # 2 for O  read from file:
     /storage/coda1/p-amedford6/0/shared/rich_project_chbe-medford/medford-share/data/pseudos_module/espresso/nninc/pbe/van/O.UPF
     MD5 check sum: 78c19812648e8988a0fe644b0f25305e
     Pseudo is Ultrasoft, Zval =  6.0
     Generated by new atomic code, or converted to UPF format
     Using radial grid of  737 points,  4 beta functions with:
                l(1) =   0
                l(2) =   0
                l(3) =   1
                l(4) =   1
     Q(r) pseudized with  8 coefficients,  rinner =    0.800   0.800   0.800

     PseudoPot. # 3 for N  read from file:
     /storage/coda1/p-amedford6/0/shared/rich_project_chbe-medford/medford-share/data/pseudos_module/espresso/nninc/pbe/van/N.UPF
     MD5 check sum: 90d10febe142ad51ac9d5be1deb811c4
     Pseudo is Ultrasoft, Zval =  5.0
     Generated by new atomic code, or converted to UPF format
     Using radial grid of  729 points,  4 beta functions with:
                l(1) =   0
                l(2) =   0
                l(3) =   1
                l(4) =   1
     Q(r) pseudized with  8 coefficients,  rinner =    0.800   0.800   0.800

     PseudoPot. # 4 for C  read from file:
     /storage/coda1/p-amedford6/0/shared/rich_project_chbe-medford/medford-share/data/pseudos_module/espresso/nninc/pbe/van/C.UPF
     MD5 check sum: 1a69bf6b8db32088f5b2163dbdb77a27
     Pseudo is Ultrasoft, Zval =  4.0
     Generated by new atomic code, or converted to UPF format
     Using radial grid of  721 points,  4 beta functions with:
                l(1) =   0
                l(2) =   0
                l(3) =   1
                l(4) =   1
     Q(r) pseudized with  8 coefficients,  rinner =    0.800   0.800   0.800

     PseudoPot. # 5 for H  read from file:
     /storage/coda1/p-amedford6/0/shared/rich_project_chbe-medford/medford-share/data/pseudos_module/espresso/nninc/pbe/van/H.UPF
     MD5 check sum: b5ee9d7bfd3a09ee7748110bda690ff7
     Pseudo is Ultrasoft, Zval =  1.0
     Generated by new atomic code, or converted to UPF format
     Using radial grid of  615 points,  1 beta functions with:
                l(1) =   0
     Q(r) pseudized with  8 coefficients,  rinner =    0.800

     atomic species   valence    mass     pseudopotential
        Ti1           12.00    47.86700     Ti( 1.00)
        O1             6.00    15.99900     O ( 1.00)
        N1             5.00    14.00700     N ( 1.00)
        C1             4.00    12.01100     C ( 1.00)
        H1             1.00     1.00800     H ( 1.00)

     No symmetry found

   Cartesian axes

     site n.     atom                  positions (alat units)
         1           Ti1 tau(   1) = (   0.0004258   2.9801865   6.0000000  )
         2           Ti1 tau(   2) = (   3.2906075   1.4906267   6.0002472  )
         3           O1  tau(   3) = (   0.0006271   0.0005054   7.9858123  )
         4           O1  tau(   4) = (   3.2906025   0.0005020   7.3038282  )
         5           O1  tau(   5) = (   4.5942328   1.4918067   9.2879030  )
         6           O1  tau(   6) = (   1.9868534   1.4903216   9.2879459  )
         7           Ti1 tau(   7) = (   3.2907910   2.8959150   9.1758416  )
         8           Ti1 tau(   8) = (   0.0015273   1.4827037   9.2680791  )
         9           O1  tau(   9) = (   3.2947057   0.0061428  11.3716447  )
        10           O1  tau(  10) = (   0.0116148   5.9584955  10.6183126  )
        11           O1  tau(  11) = (   1.2915649   1.4936813  12.6925814  )
        12           O1  tau(  12) = (   5.2970661   1.4944705  12.6810846  )
        13           Ti1 tau(  13) = (   0.0178387   2.9746902  12.5081746  )
        14           Ti1 tau(  14) = (   3.3154821   1.4870708  12.5273966  )
        15           O1  tau(  15) = (   6.5751158   5.8850184  14.6937530  )
        16           O1  tau(  16) = (   3.3021755   5.9482827  13.9948957  )
        17           O1  tau(  17) = (   4.5403780   1.5298489  16.1548813  )
        18           O1  tau(  18) = (   2.0255877   1.5226301  16.1187562  )
        19           Ti1 tau(  19) = (   3.2919084   3.0021400  15.7465462  )
        20           Ti1 tau(  20) = (   0.0121818   1.3098915  15.8601907  )
        21           O1  tau(  21) = (   3.2904802   0.0005063   4.7018136  )
        22           O1  tau(  22) = (   6.5726150   0.1553292  17.2405045  )
        23           O1  tau(  23) = (   1.3043587   1.4918075   6.0039043  )
        24           O1  tau(  24) = (   5.2767064   1.4903225   6.0039473  )
        25           Ti1 tau(  25) = (   0.0000382   5.9609847   6.0000000  )
        26           Ti1 tau(  26) = (   3.2902200   4.4714249   6.0002472  )
        27           O1  tau(  27) = (   0.0002396   2.9813036   7.9858123  )
        28           O1  tau(  28) = (   3.2902150   2.9813002   7.3038282  )
        29           O1  tau(  29) = (   4.5938453   4.4726049   9.2879030  )
        30           O1  tau(  30) = (   1.9864658   4.4711199   9.2879459  )
        31           Ti1 tau(  31) = (   3.2891106   5.8743827   9.1763621  )
        32           Ti1 tau(  32) = (   0.0006254   4.4649316   9.2693709  )
        33           O1  tau(  33) = (   3.2927311   2.9710310  11.3658552  )
        34           O1  tau(  34) = (   0.0092240   2.9805883  10.6323155  )
        35           O1  tau(  35) = (   1.2954064   4.4636889  12.6531092  )
        36           O1  tau(  36) = (   5.2951753   4.4642890  12.6444158  )
        37           Ti1 tau(  37) = (   0.0208150   5.9452171  12.5004641  )
        38           Ti1 tau(  38) = (   3.3163264   4.4646888  12.5160798  )
        39           O1  tau(  39) = (   6.5606049   3.0383603  14.9590055  )
        40           O1  tau(  40) = (   3.3003749   3.0012653  13.9593002  )
        41           O1  tau(  41) = (   4.5325621   4.4784225  16.2386555  )
        42           O1  tau(  42) = (   2.0180351   4.4745910  16.2101397  )
        43           Ti1 tau(  43) = (   3.2993765   0.0184524  15.7908042  )
        44           Ti1 tau(  44) = (   0.0223033   4.5207704  16.0490861  )
        45           O1  tau(  45) = (   3.2900926   2.9813045   4.7018136  )
        46           O1  tau(  46) = (   1.3039711   4.4726057   6.0039043  )
        47           O1  tau(  47) = (   5.2763189   4.4711207   6.0039473  )
        48           N1  tau(  48) = (   6.4337409   3.4053151  18.1409392  )
        49           C1  tau(  49) = (   1.0285230   3.1422446  19.0018829  )
        50           H1  tau(  50) = (   0.7475518   3.0234394  20.0507379  )
        51           H1  tau(  51) = (   1.7227964   3.9744885  18.9089305  )
        52           H1  tau(  52) = (   5.9280473   4.2150708  18.4935385  )
        53           H1  tau(  53) = (   5.7900178   2.6275148  18.1880975  )
        54           H1  tau(  54) = (   1.5159085   2.2300880  18.6641165  )

     number of k points=    10  Fermi-Dirac smearing, width (Ry)=  0.0073
                       cart. coord. in units 2pi/alat
        k(    1) = (   0.0000000   0.0000000   0.0000000), wk =   0.1250000
        k(    2) = (   0.0000000   0.0419351   0.0000000), wk =   0.2500000
        k(    3) = (   0.0000000  -0.0838702   0.0000000), wk =   0.1250000
        k(    4) = (   0.0379955   0.0000049   0.0000000), wk =   0.2500000
        k(    5) = (   0.0379955   0.0419400   0.0000000), wk =   0.2500000
        k(    6) = (   0.0379955  -0.0838652   0.0000000), wk =   0.2500000
        k(    7) = (   0.0379955  -0.0419301   0.0000000), wk =   0.2500000
        k(    8) = (  -0.0759910  -0.0000099   0.0000000), wk =   0.1250000
        k(    9) = (  -0.0759910   0.0419252   0.0000000), wk =   0.2500000
        k(   10) = (  -0.0759910  -0.0838800   0.0000000), wk =   0.1250000

     Initial potential from superposition of free atoms

     starting charge  375.99915, renormalised to  392.00000

     negative rho (up, down):  1.645E-02 0.000E+00

     %%%%%%%%%%%%%%%%%%%%%%%%%%%%%%%%%%%%%%%%%%%%%%%%%%%%%%%%%%%%%%%%%%%%%%%%
     %                                                                      %
     % You are using vdW-DF, which was implemented by the Thonhauser group. %
     % Please cite the following two papers that made this development      %
     % possible and the two reviews that describe the various versions:     %
     %                                                                      %
     %   T. Thonhauser et al., PRL 115, 136402 (2015).                      %
     %   T. Thonhauser et al., PRB 76, 125112 (2007).                       %
     %   K. Berland et al., Rep. Prog. Phys. 78, 066501 (2015).             %
     %   D.C. Langreth et al., J. Phys.: Condens. Matter 21, 084203 (2009). %
     %                                                                      %
     %                                                                      %
     % If you are calculating the stress with vdW-DF, please also cite:     %
     %                                                                      %
     %   R. Sabatini et al., J. Phys.: Condens. Matter 24, 424209 (2012).   %
     %                                                                      %
     %%%%%%%%%%%%%%%%%%%%%%%%%%%%%%%%%%%%%%%%%%%%%%%%%%%%%%%%%%%%%%%%%%%%%%%%

     Adding external electric field

     Computed dipole along edir(3) :
        Dipole               -7.5123 Ry au,        -19.0944 Debye
        Dipole field         -0.0142 Ry au,

        Potential amp.        1.3142 Ry
        Total length         46.3494 bohr

     Starting wfcs are  297 atomic wfcs
  @ DRIVER MODE: Message from server: STATUS
  @ DRIVER MODE: Message from server: POSDATA
  @ DRIVER MODE: Reading and sharing cell
  @ DRIVER MODE: Reading and sharing positions
  @ DRIVER MODE: Received positions

     Self-consistent Calculation

     iteration #  1     ecut=    29.40 Ry     beta= 0.05
     Davidson diagonalization with overlap
     c_bands:  1 eigenvalues not converged
     c_bands:  1 eigenvalues not converged
     c_bands:  2 eigenvalues not converged
     c_bands:  1 eigenvalues not converged
     c_bands:  1 eigenvalues not converged
     c_bands:  1 eigenvalues not converged
     ethr =  1.00E-05,  avg # of iterations = 19.3

[...]

     total energy              =   -2681.18869324 Ry
     estimated scf accuracy    <    2661.08190487 Ry

[...]

     iteration #  3     ecut=    29.40 Ry     beta= 0.05
     Davidson diagonalization with overlap
     ethr =  1.00E-02,  avg # of iterations = 14.8

[...]

     iteration # 72     ecut=    29.40 Ry     beta= 0.05
     Davidson diagonalization with overlap
     c_bands:  1 eigenvalues not converged
     c_bands:  1 eigenvalues not converged
     c_bands:  2 eigenvalues not converged
     c_bands:  1 eigenvalues not converged
     ethr =  2.33E-11,  avg # of iterations = 17.6

[...]

     total energy              =   -2921.63246160 Ry
     estimated scf accuracy    <       0.00000015 Ry

     iteration # 73     ecut=    29.40 Ry     beta= 0.05
     Davidson diagonalization with overlap
     ethr =  2.33E-11,  avg # of iterations = 10.7

     negative rho (up, down):  1.723E-02 0.000E+00

     Adding external electric field

     Computed dipole along edir(3) :
        Dipole                1.3070 Ry au,          3.3221 Debye
        Dipole field          0.0025 Ry au,

        Potential amp.       -0.2286 Ry
        Total length         46.3494 bohr

     End of self-consistent calculation

          k = 0.0000 0.0000 0.0000 ( 18029 PWs)   bands (ev):

   -55.4307 -55.3936 -55.3809 -55.3558 -55.3467 -55.3134 -55.3085 -55.2740
   -55.2476 -55.2309 -55.2131 -55.2121 -55.1784 -55.0983 -54.4091 -54.3751
   -32.0001 -31.8853 -31.8733 -31.7972 -31.7478 -31.7375 -31.7352 -31.7181
   -31.6731 -31.6698 -31.6411 -31.6389 -31.6258 -31.6184 -31.6008 -31.5937
   -31.5861 -31.5741 -31.5688 -31.5455 -31.5335 -31.5299 -31.5018 -31.4947
   -31.4862 -31.4783 -31.4733 -31.4502 -31.4391 -31.4381 -31.4307 -31.4118
   -31.4111 -31.4048 -31.3988 -31.3956 -31.3617 -31.3525 -31.3404 -31.3234
   -31.3042 -31.2941 -30.8184 -30.7244 -30.7023 -30.6349 -30.5481 -30.4371
   -16.2973 -16.1787 -15.9777 -15.8334 -15.7483 -15.6288 -15.5174 -15.5036
   -15.3630 -15.2814 -15.1655 -15.1404 -15.1117 -15.0893 -15.0809 -15.0639
   -14.9729 -14.9680 -14.9558 -14.9232 -14.9221 -14.8778 -14.8673 -14.8253
   -14.8039 -14.8019 -14.6820 -14.5883 -14.5161 -14.2860 -12.9117 -12.7943
   -10.2339  -6.3203  -4.8276  -3.9585  -3.6094  -3.4512  -3.3684  -3.3343
    -3.3213  -3.1900  -3.0533  -2.9075  -2.8532  -2.8231  -2.7228  -2.6460
    -2.6388  -2.6193  -2.4653  -2.4302  -2.3858  -2.3370  -2.2988  -2.2407
    -2.2202  -2.2118  -2.1991  -2.1822  -2.1735  -2.0555  -1.9995  -1.9159
    -1.8566  -1.8339  -1.7836  -1.7634  -1.7434  -1.7196  -1.7102  -1.6694
    -1.6445  -1.6243  -1.5709  -1.4595  -1.3559  -1.3054  -1.1864  -1.0654
    -1.0282  -1.0163  -0.9659  -0.9378  -0.9156  -0.8584  -0.8067  -0.7775
    -0.7269  -0.6624  -0.6011  -0.5514  -0.4782  -0.4749  -0.4159  -0.3668
    -0.2460  -0.2134  -0.1964  -0.1686  -0.0781  -0.0399   0.0039   0.0839
     0.0951   0.1145   0.2085   0.2188   0.2927   0.3411   0.3581   0.4514
     0.4862   0.4985   0.5031   0.5254   0.5554   0.6054   0.6470   0.6735
     0.7404   0.8667   1.0801   1.1603   1.1841   1.5101   1.5199   1.6136
     1.7974   2.1894   2.2376   3.6671   3.7378   3.8135   3.8199   3.8326
     3.9055   4.1399   4.1636   4.1713   4.1780   4.1990

[...]

          k = 0.0380-0.0419 0.0000 ( 17876 PWs)   bands (ev):

[...]

          k =-0.0760-0.0000 0.0000 ( 17886 PWs)   bands (ev):

[...]

          k =-0.0760-0.0839 0.0000 ( 17948 PWs)   bands (ev):

   -55.4166 -55.4076 -55.3639 -55.3635 -55.3544 -55.3098 -55.2926 -55.2899
   -55.2344 -55.2319 -55.2283 -55.1958 -55.1950 -55.0995 -54.3922 -54.3918
   -31.8072 -31.8029 -31.8000 -31.7176 -31.6917 -31.6886 -31.6882 -31.6552
   -31.6550 -31.6397 -31.6331 -31.6303 -31.6236 -31.6014 -31.5862 -31.5697
   -31.5654 -31.5632 -31.5612 -31.5563 -31.5561 -31.5533 -31.5102 -31.5083
   -31.5053 -31.5013 -31.4986 -31.4858 -31.4837 -31.4834 -31.4816 -31.4650
   -31.4615 -31.4455 -31.4418 -31.4281 -31.4250 -31.4226 -31.3767 -31.3765
   -31.3698 -31.3089 -30.7151 -30.7148 -30.6310 -30.6307 -30.5916 -30.5914
   -16.1576 -15.7816 -15.6952 -15.6393 -15.4638 -15.4359 -15.4218 -15.4022
   -15.2732 -15.2474 -15.2219 -15.1993 -15.1784 -15.1408 -15.1330 -15.1285
   -15.0505 -15.0374 -15.0317 -15.0171 -14.9477 -14.9388 -14.9349 -14.9287
   -14.8783 -14.8746 -14.8317 -14.7810 -14.7777 -14.5617 -12.8958 -12.8958
   -10.2371  -6.2910  -4.8239  -3.9228  -2.9654  -2.9429  -2.8958  -2.8954
    -2.6800  -2.6424  -2.6069  -2.5829  -2.4913  -2.4490  -2.4302  -2.4294
    -2.3551  -2.3350  -2.3236  -2.2717  -2.2666  -2.2549  -2.2313  -2.1994
    -2.1736  -2.1590  -2.1493  -2.1309  -2.0873  -2.0733  -2.0542  -2.0333
    -2.0273  -2.0155  -1.9857  -1.9457  -1.8150  -1.8039  -1.7434  -1.6358
    -1.6309  -1.5558  -1.5455  -1.5006  -1.4870  -1.4623  -1.4280  -1.2481
    -1.2061  -1.1753  -1.1658  -1.1120  -1.0349  -1.0184  -0.9558  -0.9345
    -0.9164  -0.8120  -0.7687  -0.7536  -0.6637  -0.6551  -0.5723  -0.5239
    -0.4623  -0.4361  -0.4024  -0.3855  -0.3833  -0.3357  -0.3299  -0.2461
    -0.2002  -0.1641  -0.1506  -0.1184   0.0803   0.0873   0.1100   0.2556
     0.2752   0.4105   0.4378   0.4894   0.5689   0.6018   0.6826   0.7155
     0.8455   0.8758   0.8782   0.9478   0.9621   1.0242   1.0346   1.9704
     1.9710   2.0575   2.0578   3.8179   3.9097   3.9297   3.9722   4.0853
     4.1602   4.1844   4.2061   4.2530   4.2563   4.3193

     the Fermi energy is     3.7310 ev

!    total energy              =   -2921.63247489 Ry
     estimated scf accuracy    <       0.00000004 Ry
     smearing contrib. (-TS)   =      -0.03702729 Ry
     internal energy E=F+TS    =   -2921.59544760 Ry

     The total energy is F=E-TS. E is the sum of the following terms:
     one-electron contribution =  -24082.26520294 Ry
     hartree contribution      =   12130.27939882 Ry
     xc contribution           =    -481.76727628 Ry
     ewald contribution        =    9512.15440905 Ry
     electric field correction =       0.00322374 Ry

     convergence has been achieved in  73 iterations

     Forces acting on atoms (cartesian axes, Ry/au):

     atom    1 type  1   force =     0.00005492   -0.00024294    0.09323246
     atom    2 type  1   force =    -0.00012377   -0.00043926   -0.17821379
     atom    3 type  2   force =     0.00002234   -0.00040896   -0.02023383
     atom    4 type  2   force =    -0.00001326   -0.00187616    0.05853882
     atom    5 type  2   force =    -0.00995586   -0.00082562    0.00749804
     atom    6 type  2   force =     0.01147526   -0.00027336    0.00679691
     atom    7 type  1   force =    -0.00038907    0.00194742   -0.01463560
     atom    8 type  1   force =     0.00010980   -0.00011184   -0.00502150
     atom    9 type  2   force =    -0.00011751   -0.00005565    0.00000870
     atom   10 type  2   force =    -0.00117790    0.00218660   -0.00032933
     atom   11 type  2   force =    -0.00001299   -0.00019585    0.00006787
     atom   12 type  2   force =     0.00058711   -0.00051394    0.00012666
     atom   13 type  1   force =    -0.00071877    0.00034059   -0.00034111
     atom   14 type  1   force =    -0.00000645   -0.00059651    0.00003438
     atom   15 type  2   force =     0.00003436   -0.00059066   -0.00041311
     atom   16 type  2   force =     0.00023646    0.00059512    0.00050151
     atom   17 type  2   force =     0.00002026   -0.00052128    0.00034822
     atom   18 type  2   force =     0.00019335   -0.00010194    0.00034525
     atom   19 type  1   force =     0.00005883   -0.00038168    0.00173736
     atom   20 type  1   force =    -0.00025407    0.00038204    0.00038232
     atom   21 type  2   force =     0.00001069   -0.00009440    0.10388906
     atom   22 type  2   force =     0.00020969   -0.00012168    0.00037132
     atom   23 type  2   force =    -0.07048822   -0.00018414   -0.02694240
     atom   24 type  2   force =     0.07030777    0.00025637   -0.02697997
     atom   25 type  1   force =    -0.00001014   -0.00016421    0.09274273
     atom   26 type  1   force =    -0.00020184   -0.00049616   -0.17823657
     atom   27 type  2   force =     0.00007505   -0.00023950   -0.01929233
     atom   28 type  2   force =     0.00001686   -0.00165808    0.05788901
     atom   29 type  2   force =    -0.01052747   -0.00097791    0.00819768
     atom   30 type  2   force =     0.01192927   -0.00053507    0.00742496
     atom   31 type  1   force =    -0.00034150    0.00605278   -0.01542245
     atom   32 type  1   force =     0.00011388   -0.00039557   -0.00544519
     atom   33 type  2   force =     0.00030889   -0.00010093   -0.00032063
     atom   34 type  2   force =    -0.00063361   -0.00204347   -0.00050955
     atom   35 type  2   force =    -0.00039637   -0.00001987    0.00023869
     atom   36 type  2   force =     0.00066548   -0.00006956   -0.00003834
     atom   37 type  1   force =    -0.00035600   -0.00023825    0.00027096
     atom   38 type  1   force =     0.00001720    0.00041706   -0.00004295
     atom   39 type  2   force =     0.00022449   -0.00008807    0.00019657
     atom   40 type  2   force =     0.00017202    0.00026530    0.00009960
     atom   41 type  2   force =    -0.00043495    0.00023136   -0.00002672
     atom   42 type  2   force =     0.00048058    0.00084278   -0.00010142
     atom   43 type  1   force =     0.00045520    0.00065994    0.00025863
     atom   44 type  1   force =     0.00054761    0.00065176    0.00026123
     atom   45 type  2   force =     0.00002083   -0.00009711    0.10386148
     atom   46 type  2   force =    -0.07045445   -0.00012527   -0.02687396
     atom   47 type  2   force =     0.07028685    0.00030135   -0.02692839
     atom   48 type  3   force =     0.00632632    0.00880677    0.00029184
     atom   49 type  4   force =     0.00041478   -0.00110989   -0.00019693
     atom   50 type  5   force =    -0.00052271    0.00019213    0.00045011
     atom   51 type  5   force =    -0.00032483    0.00015989   -0.00002135
     atom   52 type  5   force =    -0.00004580    0.00048790   -0.00002658
     atom   53 type  5   force =    -0.00769830   -0.01029845    0.00030212
     atom   54 type  5   force =    -0.00017028    0.00141610    0.00022950

     Total force =     0.366408     Total SCF correction =     0.000665
  @ DRIVER MODE: Message from server: STATUS
  @ DRIVER MODE: Message from server: GETFORCE
  @ DRIVER MODE: Returning v,forces,stress,ensemble

     Writing output data file ./calc.save/
  @ DRIVER MODE: Message from server: EXIT
  @ DRIVE MODE: Exiting

     General routines

     Parallel routines

   This run was terminated on:  23:28:49  24Aug2021

   JOB DONE.