     Program PWSCF v.6.7GPU starts on 26Sep2021 at 15:37: 7

     R & G space division:  proc/nbgrp/npool/nimage =       8
     Reading input from /storage/home/hcoda1/3/ntian30/research/carbon/CxH_vib/CH_calc/ads_slab/CHONHNH_a/out_0009/pw.inp
Warning: card &CELL ignored
Warning: card   CELL_DYNAMICS='IPI', ignored
Warning: card / ignored

     Current dimensions of program PWSCF are:
     Max number of different atomic species (ntypx) = 10
     Max number of k-points (npk) =  40000
     Max angular momentum in pseudopotentials (lmaxx) =  3
     Presently no symmetry can be used with electric field

     Message from routine cell_base_init:
     DEPRECATED: use true lattice parameter, not A to a.u. conversion factor

     IMPORTANT: XC functional enforced from input :
     Exchange-correlation= BEEF-VDW
                           (   1   4  43  14   2   0   0)
     Any further DFT definition will be discarded
     Please, verify this is what you really want

  @ DRIVER MODE: Connecting to
 qe_1139763_2982671.sched-torque.pace.gatech.edu_fkzvgib_scratch
  using UNIX socket
  @ DRIVER MODE: Message from server: STATUS
  @ DRIVER MODE: Message from server: INIT
  @ DRIVER MODE: Receiving replica           0          -1
  @ DRIVER MODE: Receiving encoded integer          25
  @ DRIVER MODE:  SCF:  T  FORCE:  T  STRESS:  F  VC:  F  ENSEMBLE:  F
  @ DRIVER MODE:  SCF:  T  FORCE:  T  STRESS:  F  VC:  F  ENSEMBLE:  F

     Using Slab Decomposition

     bravais-lattice index     =            0
     lattice parameter (alat)  =       1.8897  a.u.
     unit-cell volume          =    6658.9804 (a.u.)^3
     number of atoms/cell      =           54
     number of atomic types    =            5
     number of electrons       =       401.00
     number of Kohn-Sham states=          210
     kinetic-energy cutoff     =      29.3995  Ry
     charge density cutoff     =     293.9946  Ry
     scf convergence threshold =      7.3E-08
     mixing beta               =       0.0500
     number of iterations used =            8  plain     mixing
     Exchange-correlation= BEEF-VDW
                           (   1   4  43  14   2   0   0)

     celldm(1)=   1.889726  celldm(2)=   0.000000  celldm(3)=   0.000000
     celldm(4)=   0.000000  celldm(5)=   0.000000  celldm(6)=   0.000000

     crystal axes: (cart. coord. in units of alat)
               a(1) = (   6.579727   0.000000   0.000000 )
               a(2) = (  -0.000775   5.961596   0.000000 )
               a(3) = (   0.000000   0.000000  25.155947 )

     reciprocal axes: (cart. coord. in units 2 pi/alat)
               b(1) = (  0.151982  0.000020  0.000000 )
               b(2) = (  0.000000  0.167740  0.000000 )
               b(3) = (  0.000000  0.000000  0.039752 )

     PseudoPot. # 1 for O  read from file:
     /storage/coda1/p-amedford6/0/shared/rich_project_chbe-medford/medford-share/data/pseudos_module/espresso/nninc/pbe/van/O.UPF
     MD5 check sum: 78c19812648e8988a0fe644b0f25305e
     Pseudo is Ultrasoft, Zval =  6.0
     Generated by new atomic code, or converted to UPF format
     Using radial grid of  737 points,  4 beta functions with:
                l(1) =   0
                l(2) =   0
                l(3) =   1
                l(4) =   1
     Q(r) pseudized with  8 coefficients,  rinner =    0.800   0.800   0.800

     PseudoPot. # 2 for Ti read from file:
     /storage/coda1/p-amedford6/0/shared/rich_project_chbe-medford/medford-share/data/pseudos_module/espresso/nninc/pbe/van/Ti.UPF
     MD5 check sum: 8e4df49b7f0d34bbd5052bf3f5ea0213
     Pseudo is Ultrasoft, Zval = 12.0
     Generated by new atomic code, or converted to UPF format
     Using radial grid of  851 points,  6 beta functions with:
                l(1) =   0
                l(2) =   0
                l(3) =   1
                l(4) =   1
                l(5) =   2
                l(6) =   2
     Q(r) pseudized with  8 coefficients,  rinner =    1.000   1.000   1.000
                                                       1.000   1.000

     PseudoPot. # 3 for N  read from file:
     /storage/coda1/p-amedford6/0/shared/rich_project_chbe-medford/medford-share/data/pseudos_module/espresso/nninc/pbe/van/N.UPF
     MD5 check sum: 90d10febe142ad51ac9d5be1deb811c4
     Pseudo is Ultrasoft, Zval =  5.0
     Generated by new atomic code, or converted to UPF format
     Using radial grid of  729 points,  4 beta functions with:
                l(1) =   0
                l(2) =   0
                l(3) =   1
                l(4) =   1
     Q(r) pseudized with  8 coefficients,  rinner =    0.800   0.800   0.800

     PseudoPot. # 4 for C  read from file:
     /storage/coda1/p-amedford6/0/shared/rich_project_chbe-medford/medford-share/data/pseudos_module/espresso/nninc/pbe/van/C.UPF
     MD5 check sum: 1a69bf6b8db32088f5b2163dbdb77a27
     Pseudo is Ultrasoft, Zval =  4.0
     Generated by new atomic code, or converted to UPF format
     Using radial grid of  721 points,  4 beta functions with:
                l(1) =   0
                l(2) =   0
                l(3) =   1
                l(4) =   1
     Q(r) pseudized with  8 coefficients,  rinner =    0.800   0.800   0.800

     PseudoPot. # 5 for H  read from file:
     /storage/coda1/p-amedford6/0/shared/rich_project_chbe-medford/medford-share/data/pseudos_module/espresso/nninc/pbe/van/H.UPF
     MD5 check sum: b5ee9d7bfd3a09ee7748110bda690ff7
     Pseudo is Ultrasoft, Zval =  1.0
     Generated by new atomic code, or converted to UPF format
     Using radial grid of  615 points,  1 beta functions with:
                l(1) =   0
     Q(r) pseudized with  8 coefficients,  rinner =    0.800

     atomic species   valence    mass     pseudopotential
        O1             6.00    15.99900     O ( 1.00)
        Ti1           12.00    47.86700     Ti( 1.00)
        N1             5.00    14.00700     N ( 1.00)
        C1             4.00    12.01100     C ( 1.00)
        H1             1.00     1.00800     H ( 1.00)

     No symmetry found

   Cartesian axes

     site n.     atom                  positions (alat units)
         1           O1  tau(   1) = (   3.2904802   0.0005063   4.7018136  )
         2           O1  tau(   2) = (   3.2900926   2.9813045   4.7018136  )
         3           Ti1 tau(   3) = (   0.0004258   2.9801865   6.0000000  )
         4           Ti1 tau(   4) = (   0.0000382   5.9609847   6.0000000  )
         5           Ti1 tau(   5) = (   3.2906075   1.4906267   6.0002472  )
         6           Ti1 tau(   6) = (   3.2902200   4.4714249   6.0002472  )
         7           O1  tau(   7) = (   1.3043587   1.4918075   6.0039043  )
         8           O1  tau(   8) = (   1.3039711   4.4726057   6.0039043  )
         9           O1  tau(   9) = (   5.2767064   1.4903225   6.0039473  )
        10           O1  tau(  10) = (   5.2763189   4.4711207   6.0039473  )
        11           O1  tau(  11) = (   3.2906025   0.0005020   7.3038282  )
        12           O1  tau(  12) = (   3.2902150   2.9813002   7.3038282  )
        13           O1  tau(  13) = (   0.0006271   0.0005054   7.9858123  )
        14           O1  tau(  14) = (   0.0002396   2.9813036   7.9858123  )
        15           Ti1 tau(  15) = (   3.2907910   2.8959150   9.1758416  )
        16           Ti1 tau(  16) = (   3.2891106   5.8743827   9.1763621  )
        17           Ti1 tau(  17) = (   0.0015273   1.4827037   9.2680791  )
        18           Ti1 tau(  18) = (   0.0006254   4.4649316   9.2693709  )
        19           O1  tau(  19) = (   4.5942328   1.4918067   9.2879030  )
        20           O1  tau(  20) = (   4.5938453   4.4726049   9.2879030  )
        21           O1  tau(  21) = (   1.9868534   1.4903216   9.2879459  )
        22           O1  tau(  22) = (   1.9864658   4.4711199   9.2879459  )
        23           O1  tau(  23) = (   0.0116148   5.9584955  10.6183126  )
        24           O1  tau(  24) = (   0.0092240   2.9805883  10.6323155  )
        25           O1  tau(  25) = (   3.2531556   2.9620241  11.3322950  )
        26           O1  tau(  26) = (   3.2474763   5.9435521  11.3438280  )
        27           Ti1 tau(  27) = (   3.3237694   4.3814390  12.5572636  )
        28           Ti1 tau(  28) = (   0.0094504   0.0092305  12.5172013  )
        29           Ti1 tau(  29) = (   3.3224445   1.4452456  12.4745429  )
        30           Ti1 tau(  30) = (   0.0090234   2.9988230  12.5821063  )
        31           O1  tau(  31) = (   5.2496676   1.4726344  12.6006421  )
        32           O1  tau(  32) = (   5.2531746   4.4496067  12.6010712  )
        33           O1  tau(  33) = (   1.2410339   1.4659728  12.6671891  )
        34           O1  tau(  34) = (   1.2387123   4.4686174  12.6665250  )
        35           O1  tau(  35) = (   3.3067986   5.9564546  13.9007842  )
        36           O1  tau(  36) = (   3.2420318   3.0005841  13.9279729  )
        37           O1  tau(  37) = (   6.4209026   5.9439257  14.7021623  )
        38           O1  tau(  38) = (   6.4587925   2.9577525  14.6988961  )
        39           Ti1 tau(  39) = (   3.2423495   0.0283394  15.6829305  )
        40           Ti1 tau(  40) = (   6.4236859   1.5154006  15.7784978  )
        41           Ti1 tau(  41) = (   3.0799157   3.0146384  15.8599260  )
        42           O1  tau(  42) = (   1.9357555   1.4358950  15.9107064  )
        43           O1  tau(  43) = (   1.9271111   4.5447382  15.9660097  )
        44           Ti1 tau(  44) = (   6.4519450   4.6669281  16.1370820  )
        45           O1  tau(  45) = (   4.4443926   1.5071054  16.1134243  )
        46           O1  tau(  46) = (   4.4397279   4.4733020  16.1527106  )
        47           O1  tau(  47) = (   6.5167551   0.0277669  17.2715591  )
        48           N1  tau(  48) = (   0.3759035   2.6095042  18.6336219  )
        49           C1  tau(  49) = (   2.8136782   2.8981565  18.1516972  )
        50           H1  tau(  50) = (   0.1656462   1.5987175  18.7006542  )
        51           N1  tau(  51) = (   1.8163940   2.6652851  18.9293397  )
        52           H1  tau(  52) = (   3.7261332   2.9868749  18.7514029  )
        53           H1  tau(  53) = (   1.8928842   2.5952305  19.9427491  )
        54           O1  tau(  54) = (   0.0982553   2.9165792  17.3165359  )

     number of k points=    10  Fermi-Dirac smearing, width (Ry)=  0.0073
                       cart. coord. in units 2pi/alat
        k(    1) = (   0.0000000   0.0000000   0.0000000), wk =   0.1250000
        k(    2) = (   0.0000000   0.0419351   0.0000000), wk =   0.2500000
        k(    3) = (   0.0000000  -0.0838702   0.0000000), wk =   0.1250000
        k(    4) = (   0.0379955   0.0000049   0.0000000), wk =   0.2500000
        k(    5) = (   0.0379955   0.0419400   0.0000000), wk =   0.2500000
        k(    6) = (   0.0379955  -0.0838652   0.0000000), wk =   0.2500000
        k(    7) = (   0.0379955  -0.0419301   0.0000000), wk =   0.2500000
        k(    8) = (  -0.0759910  -0.0000099   0.0000000), wk =   0.1250000
        k(    9) = (  -0.0759910   0.0419252   0.0000000), wk =   0.2500000
        k(   10) = (  -0.0759910  -0.0838800   0.0000000), wk =   0.1250000

     Initial potential from superposition of free atoms

     starting charge  384.99916, renormalised to  401.00000

     negative rho (up, down):  1.631E-02 0.000E+00

     %%%%%%%%%%%%%%%%%%%%%%%%%%%%%%%%%%%%%%%%%%%%%%%%%%%%%%%%%%%%%%%%%%%%%%%%
     %                                                                      %
     % You are using vdW-DF, which was implemented by the Thonhauser group. %
     % Please cite the following two papers that made this development      %
     % possible and the two reviews that describe the various versions:     %
     %                                                                      %
     %   T. Thonhauser et al., PRL 115, 136402 (2015).                      %
     %   T. Thonhauser et al., PRB 76, 125112 (2007).                       %
     %   K. Berland et al., Rep. Prog. Phys. 78, 066501 (2015).             %
     %   D.C. Langreth et al., J. Phys.: Condens. Matter 21, 084203 (2009). %
     %                                                                      %
     %                                                                      %
     % If you are calculating the stress with vdW-DF, please also cite:     %
     %                                                                      %
     %   R. Sabatini et al., J. Phys.: Condens. Matter 24, 424209 (2012).   %
     %                                                                      %
     %%%%%%%%%%%%%%%%%%%%%%%%%%%%%%%%%%%%%%%%%%%%%%%%%%%%%%%%%%%%%%%%%%%%%%%%

     Adding external electric field

     Computed dipole along edir(3) :
        Dipole              -11.6315 Ry au,        -29.5642 Debye
        Dipole field         -0.0220 Ry au,

        Potential amp.        2.0347 Ry
        Total length         46.3494 bohr

     Starting wfcs are  303 atomic wfcs
  @ DRIVER MODE: Message from server: STATUS
  @ DRIVER MODE: Message from server: POSDATA
  @ DRIVER MODE: Reading and sharing cell
  @ DRIVER MODE: Reading and sharing positions
  @ DRIVER MODE: Received positions

     Self-consistent Calculation

     iteration #  1     ecut=    29.40 Ry     beta= 0.05
     Davidson diagonalization with overlap
     c_bands:  3 eigenvalues not converged
     c_bands:  3 eigenvalues not converged
     c_bands:  5 eigenvalues not converged
     c_bands:  4 eigenvalues not converged
     c_bands:  4 eigenvalues not converged
     c_bands:  3 eigenvalues not converged
     c_bands:  1 eigenvalues not converged
     c_bands:  3 eigenvalues not converged
     ethr =  1.00E-05,  avg # of iterations = 22.1

[...]

     total energy              =   -2394.39355939 Ry
     estimated scf accuracy    <    6494.10983901 Ry

     iteration #  2     ecut=    29.40 Ry     beta= 0.05
     Davidson diagonalization with overlap
     ethr =  1.00E-02,  avg # of iterations = 24.2

[...]

     iteration # 61     ecut=    29.40 Ry     beta= 0.05
     Davidson diagonalization with overlap
     c_bands:  2 eigenvalues not converged
     ethr =  7.53E-11,  avg # of iterations = 10.6

[...]

     total energy              =   -2971.36031806 Ry
     estimated scf accuracy    <       0.00000012 Ry

     iteration # 62     ecut=    29.40 Ry     beta= 0.05
     Davidson diagonalization with overlap
     ethr =  2.92E-11,  avg # of iterations =  7.6

     negative rho (up, down):  1.694E-02 0.000E+00

     Adding external electric field

     Computed dipole along edir(3) :
        Dipole                1.3761 Ry au,          3.4978 Debye
        Dipole field          0.0026 Ry au,

        Potential amp.       -0.2407 Ry
        Total length         46.3494 bohr

     End of self-consistent calculation

          k = 0.0000 0.0000 0.0000 ( 18029 PWs)   bands (ev):

   -55.3630 -55.3289 -55.2839 -55.2393 -55.2339 -55.2236 -55.1959 -55.1842
   -55.1503 -55.1418 -55.1299 -55.1066 -55.0342 -54.9944 -54.3426 -54.3086
   -31.8474 -31.8084 -31.7320 -31.6845 -31.6797 -31.6547 -31.6321 -31.6083
   -31.5993 -31.5688 -31.5404 -31.5153 -31.5025 -31.4958 -31.4692 -31.4661
   -31.4624 -31.4487 -31.4370 -31.4202 -31.4021 -31.3986 -31.3936 -31.3822
   -31.3776 -31.3769 -31.3730 -31.3636 -31.3417 -31.3404 -31.3332 -31.3238
   -31.3223 -31.3147 -31.2962 -31.2933 -31.2864 -31.2547 -31.2352 -31.2233
   -31.2093 -31.1789 -30.7494 -30.6616 -30.6392 -30.5665 -30.4800 -30.3686
   -20.1992 -17.3588 -16.0542 -15.8420 -15.6379 -15.5288 -15.4807 -15.2480
   -15.1306 -15.1011 -15.0143 -14.9435 -14.9276 -14.9029 -14.8922 -14.8729
   -14.8142 -14.8023 -14.7907 -14.7873 -14.7592 -14.7381 -14.7150 -14.7022
   -14.5815 -14.5685 -14.5397 -14.5070 -14.4849 -14.4238 -14.1661 -12.8433
   -12.7422 -12.7269  -9.0640  -7.2360  -5.7152  -4.9669  -3.4267  -3.3131
    -3.2855  -3.2695  -3.1857  -3.1444  -3.0215  -2.8057  -2.6580  -2.5579
    -2.5327  -2.4525  -2.3822  -2.3594  -2.3157  -2.2599  -2.2053  -2.1587
    -2.1345  -2.1105  -2.1019  -2.0959  -2.0045  -1.9840  -1.9433  -1.8922
    -1.8563  -1.7598  -1.7427  -1.6860  -1.6777  -1.6367  -1.6264  -1.6172
    -1.6085  -1.5897  -1.5067  -1.4913  -1.4433  -1.3661  -1.1772  -1.1242
    -1.0245  -0.9710  -0.8682  -0.8434  -0.8009  -0.7713  -0.7647  -0.7560
    -0.7108  -0.6159  -0.5734  -0.5213  -0.4601  -0.3822  -0.3131  -0.2733
    -0.1623  -0.1492  -0.1221  -0.1143  -0.0824   0.0593   0.1180   0.1681
     0.1931   0.2303   0.2961   0.3573   0.3714   0.4172   0.4410   0.5066
     0.5437   0.5629   0.5824   0.6107   0.6240   0.6528   0.6683   0.7174
     0.8429   0.8532   0.9017   0.9441   1.0052   1.1219   1.1286   1.2904
     1.3754   1.5602   1.6194   1.6815   1.7431   1.8731   2.2512   2.2969
     3.7425   3.8574   3.8897   3.9177   4.0014   4.0404   4.2109   4.2756
     4.2988   4.3372

[...]

          k = 0.0380-0.0419 0.0000 ( 17876 PWs)   bands (ev):

[...]

          k =-0.0760-0.0000 0.0000 ( 17886 PWs)   bands (ev):

[...]

          k =-0.0760-0.0839 0.0000 ( 17948 PWs)   bands (ev):

   -55.3460 -55.3458 -55.2779 -55.2312 -55.2307 -55.2292 -55.2045 -55.1673
   -55.1667 -55.1325 -55.1295 -55.1190 -55.0263 -55.0022 -54.3255 -54.3255
   -31.6627 -31.6626 -31.6498 -31.6402 -31.6400 -31.5907 -31.5678 -31.5493
   -31.5414 -31.5257 -31.5051 -31.4952 -31.4919 -31.4852 -31.4798 -31.4715
   -31.4655 -31.4655 -31.4627 -31.4594 -31.4557 -31.4392 -31.4377 -31.4301
   -31.4212 -31.4156 -31.4038 -31.3845 -31.3709 -31.3688 -31.3564 -31.3461
   -31.3456 -31.3430 -31.3413 -31.3399 -31.3367 -31.3309 -31.2627 -31.2491
   -31.2306 -31.2108 -30.6519 -30.6519 -30.5622 -30.5621 -30.5234 -30.5232
   -20.1942 -17.3563 -15.4862 -15.3737 -15.3698 -15.3028 -15.2491 -15.1774
   -15.1285 -15.0975 -15.0590 -15.0399 -15.0137 -14.9722 -14.9321 -14.9207
   -14.8960 -14.8874 -14.8656 -14.8217 -14.8128 -14.8051 -14.7988 -14.7719
   -14.7319 -14.7055 -14.6830 -14.6784 -14.6491 -14.5118 -14.3663 -12.8287
   -12.8286 -12.7468  -9.0572  -7.1788  -5.7263  -4.9881  -3.3218  -2.7512
    -2.6601  -2.5740  -2.5029  -2.4314  -2.3944  -2.3699  -2.3115  -2.3070
    -2.2797  -2.2177  -2.1982  -2.1824  -2.1667  -2.1368  -2.1284  -2.1061
    -2.0967  -2.0893  -2.0482  -2.0446  -2.0197  -2.0177  -1.9930  -1.9845
    -1.9551  -1.9264  -1.9053  -1.8674  -1.8236  -1.7222  -1.6369  -1.5655
    -1.5114  -1.5002  -1.4911  -1.4361  -1.4189  -1.3875  -1.3601  -1.3251
    -1.1903  -1.0513  -1.0410  -1.0063  -0.9414  -0.9096  -0.8715  -0.8497
    -0.7740  -0.7584  -0.7247  -0.6977  -0.6277  -0.5364  -0.4920  -0.4509
    -0.4207  -0.3649  -0.3374  -0.3175  -0.3006  -0.2864  -0.2518  -0.1860
    -0.1408  -0.1173  -0.0850  -0.0586  -0.0368  -0.0123   0.1605   0.1780
     0.2761   0.3444   0.4026   0.5384   0.6398   0.6784   0.7206   0.7802
     0.8487   0.8994   0.9330   0.9505   0.9685   1.0318   1.0883   1.1551
     1.1709   1.2035   1.2818   1.4470   2.0451   2.0475   2.1169   2.1171
     4.1137   4.1619   4.1862   4.1974   4.2649   4.2886   4.3058   4.3095
     4.4147   4.4317

     the Fermi energy is     3.7628 ev

!    total energy              =   -2971.36036996 Ry
     estimated scf accuracy    <       0.00000005 Ry
     smearing contrib. (-TS)   =      -0.02057357 Ry
     internal energy E=F+TS    =   -2971.33979639 Ry

     The total energy is F=E-TS. E is the sum of the following terms:
     one-electron contribution =  -24168.86238447 Ry
     hartree contribution      =   12180.07756282 Ry
     xc contribution           =    -492.43131088 Ry
     ewald contribution        =    9509.87276234 Ry
     electric field correction =       0.00357380 Ry

     convergence has been achieved in  62 iterations

     Forces acting on atoms (cartesian axes, Ry/au):

     atom    1 type  1   force =     0.00007474   -0.00012017    0.10311099
     atom    2 type  1   force =     0.00007531   -0.00010460    0.10314815
     atom    3 type  2   force =     0.00002355   -0.00019902    0.09533304
     atom    4 type  2   force =     0.00007906   -0.00048355    0.09489863
     atom    5 type  2   force =    -0.00021106   -0.00071345   -0.17562582
     atom    6 type  2   force =    -0.00005503   -0.00023164   -0.17575455
     atom    7 type  1   force =    -0.07169075   -0.00017972   -0.02757524
     atom    8 type  1   force =    -0.07167381   -0.00021470   -0.02750301
     atom    9 type  1   force =     0.07155849    0.00026414   -0.02758010
     atom   10 type  1   force =     0.07152572    0.00025500   -0.02755169
     atom   11 type  1   force =    -0.00007775   -0.00143869    0.05242533
     atom   12 type  1   force =    -0.00000256   -0.00150049    0.05289044
     atom   13 type  1   force =    -0.00013073   -0.00017970   -0.02267099
     atom   14 type  1   force =    -0.00005848   -0.00028780   -0.02179956
     atom   15 type  2   force =    -0.00221946    0.00206608   -0.00876870
     atom   16 type  2   force =    -0.00226412    0.00207399   -0.00154767
     atom   17 type  2   force =     0.00139882    0.00932565    0.01490358
     atom   18 type  2   force =     0.00154895   -0.01044319    0.01568501
     atom   19 type  1   force =    -0.01011516   -0.00094183    0.00485345
     atom   20 type  1   force =    -0.01049385   -0.00075519    0.00459876
     atom   21 type  1   force =     0.01028667   -0.00000751    0.00094726
     atom   22 type  1   force =     0.01056529   -0.00053462    0.00076495
     atom   23 type  1   force =    -0.00214496    0.00037118   -0.01183912
     atom   24 type  1   force =    -0.00061636   -0.00078041   -0.01484499
     atom   25 type  1   force =     0.00002668    0.00041276    0.00001959
     atom   26 type  1   force =     0.00010847   -0.00026976   -0.00042839
     atom   27 type  2   force =     0.00053583   -0.00010668   -0.00073762
     atom   28 type  2   force =    -0.00021202   -0.00019881   -0.00006992
     atom   29 type  2   force =     0.00020725    0.00077265    0.00010763
     atom   30 type  2   force =    -0.00031311   -0.00028459   -0.00002223
     atom   31 type  1   force =     0.00024268    0.00057317    0.00024826
     atom   32 type  1   force =    -0.00064301    0.00046662    0.00003379
     atom   33 type  1   force =     0.00042812    0.00052257    0.00010427
     atom   34 type  1   force =     0.00070961    0.00022893   -0.00016311
     atom   35 type  1   force =    -0.00009871   -0.00035578   -0.00001550
     atom   36 type  1   force =     0.00080388    0.00054223   -0.00066981
     atom   37 type  1   force =     0.00038945    0.00018114    0.00026267
     atom   38 type  1   force =     0.00056825    0.00069938    0.00068449
     atom   39 type  2   force =     0.00044426    0.00002023   -0.00032028
     atom   40 type  2   force =    -0.00024337   -0.00023701   -0.00002188
     atom   41 type  2   force =     0.00068234   -0.00033461    0.00017233
     atom   42 type  1   force =     0.00022742   -0.00010995   -0.00026838
     atom   43 type  1   force =     0.00050513   -0.00013073    0.00058428
     atom   44 type  2   force =    -0.00028644    0.00069892   -0.00038038
     atom   45 type  1   force =     0.00017595   -0.00020225   -0.00070005
     atom   46 type  1   force =    -0.00000721    0.00058540    0.00036968
     atom   47 type  1   force =    -0.00031553    0.00036940    0.00000849
     atom   48 type  3   force =    -0.00126944   -0.00111843    0.00051636
     atom   49 type  4   force =     0.00335247    0.00354741   -0.00172212
     atom   50 type  5   force =     0.00044367    0.00086662   -0.00050621
     atom   51 type  3   force =    -0.00220689   -0.00160215    0.00121087
     atom   52 type  5   force =     0.00078569   -0.00133982    0.00023474
     atom   53 type  5   force =    -0.00052006    0.00039566    0.00121059
     atom   54 type  1   force =     0.00009613    0.00016773   -0.00024032

     Total force =     0.364494     Total SCF correction =     0.000517
  @ DRIVER MODE: Message from server: STATUS
  @ DRIVER MODE: Message from server: GETFORCE
  @ DRIVER MODE: Returning v,forces,stress,ensemble

     Writing output data file ./calc.save/
  @ DRIVER MODE: Message from server: EXIT
  @ DRIVE MODE: Exiting

     General routines

     Parallel routines

   This run was terminated on:  16: 1:28  26Sep2021

   JOB DONE.