     Program PWSCF v.6.7GPU starts on 15Jul2021 at 20:42:21

     R & G space division:  proc/nbgrp/npool/nimage =      16
     Reading input from /storage/home/hcoda1/3/ntian30/research/carbon/15Jul_vib/ads_slab/CH3N2_b/out_0008/pw.inp
Warning: card &CELL ignored
Warning: card   CELL_DYNAMICS='IPI', ignored
Warning: card / ignored

     Current dimensions of program PWSCF are:
     Max number of different atomic species (ntypx) = 10
     Max number of k-points (npk) =  40000
     Max angular momentum in pseudopotentials (lmaxx) =  3
     Presently no symmetry can be used with electric field

     Message from routine cell_base_init:
     DEPRECATED: use true lattice parameter, not A to a.u. conversion factor

     IMPORTANT: XC functional enforced from input :
     Exchange-correlation= BEEF-VDW
                           (   1   4  43  14   2   0   0)
     Any further DFT definition will be discarded
     Please, verify this is what you really want

  @ DRIVER MODE: Connecting to
 qe_1139763_2351645.sched-torque.pace.gatech.edu1ddbfvls_scratch
  using UNIX socket
  @ DRIVER MODE: Message from server: STATUS
  @ DRIVER MODE: Message from server: INIT
  @ DRIVER MODE: Receiving replica           0          -1
  @ DRIVER MODE: Receiving encoded integer          25
  @ DRIVER MODE:  SCF:  T  FORCE:  T  STRESS:  F  VC:  F  ENSEMBLE:  F
  @ DRIVER MODE:  SCF:  T  FORCE:  T  STRESS:  F  VC:  F  ENSEMBLE:  F

     Using Slab Decomposition

     bravais-lattice index     =            0
     lattice parameter (alat)  =       1.8897  a.u.
     unit-cell volume          =    6658.9804 (a.u.)^3
     number of atoms/cell      =           53
     number of atomic types    =            5
     number of electrons       =       395.00
     number of Kohn-Sham states=          207
     kinetic-energy cutoff     =      29.3995  Ry
     charge density cutoff     =     293.9946  Ry
     scf convergence threshold =      7.3E-08
     mixing beta               =       0.0500
     number of iterations used =            8  plain     mixing
     Exchange-correlation= BEEF-VDW
                           (   1   4  43  14   2   0   0)

     celldm(1)=   1.889726  celldm(2)=   0.000000  celldm(3)=   0.000000
     celldm(4)=   0.000000  celldm(5)=   0.000000  celldm(6)=   0.000000

     crystal axes: (cart. coord. in units of alat)
               a(1) = (   6.579727   0.000000   0.000000 )
               a(2) = (  -0.000775   5.961596   0.000000 )
               a(3) = (   0.000000   0.000000  25.155947 )

     reciprocal axes: (cart. coord. in units 2 pi/alat)
               b(1) = (  0.151982  0.000020  0.000000 )
               b(2) = (  0.000000  0.167740  0.000000 )
               b(3) = (  0.000000  0.000000  0.039752 )

     PseudoPot. # 1 for Ti read from file:
     /storage/coda1/p-amedford6/0/shared/rich_project_chbe-medford/medford-share/data/pseudos_module/espresso/nninc/pbe/van/Ti.UPF
     MD5 check sum: 8e4df49b7f0d34bbd5052bf3f5ea0213
     Pseudo is Ultrasoft, Zval = 12.0
     Generated by new atomic code, or converted to UPF format
     Using radial grid of  851 points,  6 beta functions with:
                l(1) =   0
                l(2) =   0
                l(3) =   1
                l(4) =   1
                l(5) =   2
                l(6) =   2
     Q(r) pseudized with  8 coefficients,  rinner =    1.000   1.000   1.000
                                                       1.000   1.000

     PseudoPot. # 2 for O  read from file:
     /storage/coda1/p-amedford6/0/shared/rich_project_chbe-medford/medford-share/data/pseudos_module/espresso/nninc/pbe/van/O.UPF
     MD5 check sum: 78c19812648e8988a0fe644b0f25305e
     Pseudo is Ultrasoft, Zval =  6.0
     Generated by new atomic code, or converted to UPF format
     Using radial grid of  737 points,  4 beta functions with:
                l(1) =   0
                l(2) =   0
                l(3) =   1
                l(4) =   1
     Q(r) pseudized with  8 coefficients,  rinner =    0.800   0.800   0.800

     PseudoPot. # 3 for N  read from file:
     /storage/coda1/p-amedford6/0/shared/rich_project_chbe-medford/medford-share/data/pseudos_module/espresso/nninc/pbe/van/N.UPF
     MD5 check sum: 90d10febe142ad51ac9d5be1deb811c4
     Pseudo is Ultrasoft, Zval =  5.0
     Generated by new atomic code, or converted to UPF format
     Using radial grid of  729 points,  4 beta functions with:
                l(1) =   0
                l(2) =   0
                l(3) =   1
                l(4) =   1
     Q(r) pseudized with  8 coefficients,  rinner =    0.800   0.800   0.800

     PseudoPot. # 4 for C  read from file:
     /storage/coda1/p-amedford6/0/shared/rich_project_chbe-medford/medford-share/data/pseudos_module/espresso/nninc/pbe/van/C.UPF
     MD5 check sum: 1a69bf6b8db32088f5b2163dbdb77a27
     Pseudo is Ultrasoft, Zval =  4.0
     Generated by new atomic code, or converted to UPF format
     Using radial grid of  721 points,  4 beta functions with:
                l(1) =   0
                l(2) =   0
                l(3) =   1
                l(4) =   1
     Q(r) pseudized with  8 coefficients,  rinner =    0.800   0.800   0.800

     PseudoPot. # 5 for H  read from file:
     /storage/coda1/p-amedford6/0/shared/rich_project_chbe-medford/medford-share/data/pseudos_module/espresso/nninc/pbe/van/H.UPF
     MD5 check sum: b5ee9d7bfd3a09ee7748110bda690ff7
     Pseudo is Ultrasoft, Zval =  1.0
     Generated by new atomic code, or converted to UPF format
     Using radial grid of  615 points,  1 beta functions with:
                l(1) =   0
     Q(r) pseudized with  8 coefficients,  rinner =    0.800

     atomic species   valence    mass     pseudopotential
        Ti1           12.00    47.86700     Ti( 1.00)
        O1             6.00    15.99900     O ( 1.00)
        N1             5.00    14.00700     N ( 1.00)
        C1             4.00    12.01100     C ( 1.00)
        H1             1.00     1.00800     H ( 1.00)

     Starting magnetic structure
     atomic species   magnetization
        Ti1          0.000
        O1           0.000
        N1           0.000
        C1           0.025
        H1           0.000

     No symmetry found

   Cartesian axes

     site n.     atom                  positions (alat units)
         1           Ti1 tau(   1) = (   0.0004258   2.9801865   6.0000000  )
         2           Ti1 tau(   2) = (   3.2906075   1.4906267   6.0002472  )
         3           O1  tau(   3) = (   0.0006271   0.0005054   7.9858123  )
         4           O1  tau(   4) = (   3.2906025   0.0005020   7.3038282  )
         5           O1  tau(   5) = (   4.5942328   1.4918067   9.2879030  )
         6           O1  tau(   6) = (   1.9868534   1.4903216   9.2879459  )
         7           Ti1 tau(   7) = (   3.2907910   2.8959150   9.1758416  )
         8           Ti1 tau(   8) = (   0.0015273   1.4827037   9.2680791  )
         9           O1  tau(   9) = (   3.3037365   0.0094216  11.3222111  )
        10           O1  tau(  10) = (   0.0116148   5.9584955  10.6183126  )
        11           O1  tau(  11) = (   1.3152514   1.5075076  12.6320051  )
        12           O1  tau(  12) = (   5.3186361   1.4995162  12.6508707  )
        13           Ti1 tau(  13) = (   6.5540705   2.9956815  12.5884341  )
        14           Ti1 tau(  14) = (   3.2234832   1.4927074  12.4921739  )
        15           O1  tau(  15) = (   0.0610261   5.9052480  14.6017706  )
        16           O1  tau(  16) = (   3.2936532   0.0132264  13.8830087  )
        17           O1  tau(  17) = (   4.5722397   1.5061520  16.0138922  )
        18           O1  tau(  18) = (   2.0767725   1.5295127  16.0808449  )
        19           Ti1 tau(  19) = (   3.3650854   3.0251465  15.6907462  )
        20           Ti1 tau(  20) = (   0.0387768   1.3037779  15.7216176  )
        21           O1  tau(  21) = (   3.2904802   0.0005063   4.7018136  )
        22           O1  tau(  22) = (   0.0189486   0.1070799  17.1824039  )
        23           O1  tau(  23) = (   1.3043587   1.4918075   6.0039043  )
        24           O1  tau(  24) = (   5.2767064   1.4903225   6.0039473  )
        25           Ti1 tau(  25) = (   0.0000382   5.9609847   6.0000000  )
        26           Ti1 tau(  26) = (   3.2902200   4.4714249   6.0002472  )
        27           O1  tau(  27) = (   0.0002396   2.9813036   7.9858123  )
        28           O1  tau(  28) = (   3.2902150   2.9813002   7.3038282  )
        29           O1  tau(  29) = (   4.5938453   4.4726049   9.2879030  )
        30           O1  tau(  30) = (   1.9864658   4.4711199   9.2879459  )
        31           Ti1 tau(  31) = (   3.2891106   5.8743827   9.1763621  )
        32           Ti1 tau(  32) = (   0.0006254   4.4649316   9.2693709  )
        33           O1  tau(  33) = (   3.3043114   2.9829305  11.3227053  )
        34           O1  tau(  34) = (   0.0092240   2.9805883  10.6323155  )
        35           O1  tau(  35) = (   1.3131995   4.4620516  12.6081187  )
        36           O1  tau(  36) = (   5.3117129   4.4692194  12.6284301  )
        37           Ti1 tau(  37) = (   6.5303063   5.9583428  12.5400172  )
        38           Ti1 tau(  38) = (   3.2255477   4.4746212  12.4748647  )
        39           O1  tau(  39) = (   0.0377805   3.0059521  14.8845374  )
        40           O1  tau(  40) = (   3.3120027   2.9986483  13.8863452  )
        41           O1  tau(  41) = (   4.5434534   4.5277214  16.0148975  )
        42           O1  tau(  42) = (   2.1165747   4.4940517  16.0783766  )
        43           Ti1 tau(  43) = (   3.3042555   0.0241951  15.7004812  )
        44           Ti1 tau(  44) = (   0.0495666   4.4505358  16.3362958  )
        45           O1  tau(  45) = (   3.2900926   2.9813045   4.7018136  )
        46           O1  tau(  46) = (   1.3039711   4.4726057   6.0039043  )
        47           O1  tau(  47) = (   5.2763189   4.4711207   6.0039473  )
        48           N1  tau(  48) = (   0.5348212   3.4288502  18.0689430  )
        49           C1  tau(  49) = (   1.3656880   3.0079929  19.2215664  )
        50           H1  tau(  50) = (   1.4862090   3.8900195  19.8496782  )
        51           H1  tau(  51) = (   0.8469181   2.2141957  19.7647163  )
        52           H1  tau(  52) = (   2.3296892   2.6851793  18.8624704  )
        53           N1  tau(  53) = (   5.9145885   3.2636146  17.9655992  )

     number of k points=    10  Fermi-Dirac smearing, width (Ry)=  0.0073
                       cart. coord. in units 2pi/alat
        k(    1) = (   0.0000000   0.0000000   0.0000000), wk =   0.0625000
        k(    2) = (   0.0000000   0.0419351   0.0000000), wk =   0.1250000
        k(    3) = (   0.0000000  -0.0838702   0.0000000), wk =   0.0625000
        k(    4) = (   0.0379955   0.0000049   0.0000000), wk =   0.1250000
        k(    5) = (   0.0379955   0.0419400   0.0000000), wk =   0.1250000
        k(    6) = (   0.0379955  -0.0838652   0.0000000), wk =   0.1250000
        k(    7) = (   0.0379955  -0.0419301   0.0000000), wk =   0.1250000
        k(    8) = (  -0.0759910  -0.0000099   0.0000000), wk =   0.0625000
        k(    9) = (  -0.0759910   0.0419252   0.0000000), wk =   0.1250000
        k(   10) = (  -0.0759910  -0.0838800   0.0000000), wk =   0.0625000

     Initial potential from superposition of free atoms

     starting charge  378.99916, renormalised to  395.00000

     negative rho (up, down):  8.046E-03 8.053E-03

     %%%%%%%%%%%%%%%%%%%%%%%%%%%%%%%%%%%%%%%%%%%%%%%%%%%%%%%%%%%%%%%%%%%%%%%%
     %                                                                      %
     % You are using vdW-DF, which was implemented by the Thonhauser group. %
     % Please cite the following two papers that made this development      %
     % possible and the two reviews that describe the various versions:     %
     %                                                                      %
     %   T. Thonhauser et al., PRL 115, 136402 (2015).                      %
     %   T. Thonhauser et al., PRB 76, 125112 (2007).                       %
     %   K. Berland et al., Rep. Prog. Phys. 78, 066501 (2015).             %
     %   D.C. Langreth et al., J. Phys.: Condens. Matter 21, 084203 (2009). %
     %                                                                      %
     %                                                                      %
     % If you are calculating the stress with vdW-DF, please also cite:     %
     %                                                                      %
     %   R. Sabatini et al., J. Phys.: Condens. Matter 24, 424209 (2012).   %
     %                                                                      %
     %%%%%%%%%%%%%%%%%%%%%%%%%%%%%%%%%%%%%%%%%%%%%%%%%%%%%%%%%%%%%%%%%%%%%%%%

     Adding external electric field

     Computed dipole along edir(3) :
        Dipole               -8.5786 Ry au,        -21.8047 Debye
        Dipole field         -0.0162 Ry au,

        Potential amp.        1.5007 Ry
        Total length         46.3494 bohr

[...]

     Starting wfcs are  299 atomic wfcs
  @ DRIVER MODE: Message from server: STATUS
  @ DRIVER MODE: Message from server: POSDATA
  @ DRIVER MODE: Reading and sharing cell
  @ DRIVER MODE: Reading and sharing positions
  @ DRIVER MODE: Received positions

     Self-consistent Calculation

     iteration #  1     ecut=    29.40 Ry     beta= 0.05
     Davidson diagonalization with overlap
     c_bands:  1 eigenvalues not converged
     c_bands:  1 eigenvalues not converged
     c_bands:  1 eigenvalues not converged
     c_bands:  3 eigenvalues not converged
     c_bands:  1 eigenvalues not converged
     c_bands:  3 eigenvalues not converged
     c_bands:  1 eigenvalues not converged
     c_bands:  2 eigenvalues not converged
     c_bands:  1 eigenvalues not converged
     c_bands:  1 eigenvalues not converged
     c_bands:  1 eigenvalues not converged
     c_bands:  3 eigenvalues not converged
     c_bands:  1 eigenvalues not converged
     c_bands:  3 eigenvalues not converged
     c_bands:  1 eigenvalues not converged
     c_bands:  2 eigenvalues not converged
     ethr =  1.00E-05,  avg # of iterations = 19.2

[...]

     total energy              =   -2599.54459494 Ry
     estimated scf accuracy    <    3761.69231039 Ry

     total magnetization       =     0.00 Bohr mag/cell
     absolute magnetization    =     0.02 Bohr mag/cell

     iteration #  2     ecut=    29.40 Ry     beta= 0.05
     Davidson diagonalization with overlap
     ethr =  1.00E-02,  avg # of iterations = 22.4

[...]

     iteration # 85     ecut=    29.40 Ry     beta= 0.05
     Davidson diagonalization with overlap
     ethr =  2.16E-11,  avg # of iterations = 11.2

[...]

     total energy              =   -2939.12576163 Ry
     estimated scf accuracy    <       0.00000014 Ry

[...]

     iteration # 86     ecut=    29.40 Ry     beta= 0.05
     Davidson diagonalization with overlap
     c_bands:  1 eigenvalues not converged
     ethr =  2.16E-11,  avg # of iterations = 12.4

     negative rho (up, down):  8.115E-03 8.116E-03

[...]

     Adding external electric field

     Computed dipole along edir(3) :
        Dipole                0.9125 Ry au,          2.3194 Debye
        Dipole field          0.0017 Ry au,

        Potential amp.       -0.1596 Ry
        Total length         46.3494 bohr

     Magnetic moment per site  (integrated on atomic sphere of radius R)
     atom   1 (R=0.727)  charge=  7.9485  magn=  0.0057
     atom   2 (R=0.727)  charge=  7.9316  magn=  0.0003
     atom   3 (R=0.727)  charge=  4.9369  magn= -0.0006
     atom   4 (R=0.727)  charge=  4.9738  magn= -0.0001
     atom   5 (R=0.727)  charge=  4.9424  magn= -0.0001
     atom   6 (R=0.727)  charge=  4.9431  magn= -0.0001
     atom   7 (R=0.727)  charge=  7.9299  magn=  0.0003
     atom   8 (R=0.727)  charge=  7.9249  magn=  0.0029
     atom   9 (R=0.727)  charge=  4.9562  magn= -0.0001
     atom  10 (R=0.727)  charge=  4.9398  magn= -0.0003
     atom  11 (R=0.727)  charge=  4.9438  magn= -0.0001
     atom  12 (R=0.727)  charge=  4.9403  magn= -0.0001
     atom  13 (R=0.727)  charge=  7.9199  magn=  0.0008
     atom  14 (R=0.727)  charge=  7.9286  magn=  0.0003
     atom  15 (R=0.727)  charge=  4.9368  magn= -0.0000
     atom  16 (R=0.727)  charge=  4.9585  magn= -0.0000
     atom  17 (R=0.727)  charge=  4.9269  magn=  0.0000
     atom  18 (R=0.727)  charge=  4.9196  magn=  0.0000
     atom  19 (R=0.727)  charge=  7.9516  magn=  0.0000
     atom  20 (R=0.727)  charge=  7.9765  magn=  0.0000
     atom  21 (R=0.727)  charge=  4.8265  magn= -0.0003
     atom  22 (R=0.727)  charge=  4.9097  magn=  0.0000
     atom  23 (R=0.727)  charge=  4.9340  magn= -0.0007
     atom  24 (R=0.727)  charge=  4.9340  magn= -0.0007
     atom  25 (R=0.727)  charge=  7.9485  magn=  0.0059
     atom  26 (R=0.727)  charge=  7.9316  magn=  0.0003
     atom  27 (R=0.727)  charge=  4.9364  magn= -0.0006
     atom  28 (R=0.727)  charge=  4.9740  magn= -0.0001
     atom  29 (R=0.727)  charge=  4.9433  magn= -0.0001
     atom  30 (R=0.727)  charge=  4.9439  magn= -0.0001
     atom  31 (R=0.727)  charge=  7.9304  magn=  0.0003
     atom  32 (R=0.727)  charge=  7.9251  magn=  0.0029
     atom  33 (R=0.727)  charge=  4.9554  magn= -0.0001
     atom  34 (R=0.727)  charge=  4.9242  magn= -0.0003
     atom  35 (R=0.727)  charge=  4.9448  magn= -0.0001
     atom  36 (R=0.727)  charge=  4.9438  magn= -0.0001
     atom  37 (R=0.727)  charge=  7.9230  magn=  0.0007
     atom  38 (R=0.727)  charge=  7.9295  magn=  0.0003
     atom  39 (R=0.727)  charge=  4.9078  magn= -0.0000
     atom  40 (R=0.727)  charge=  4.9610  magn= -0.0000
     atom  41 (R=0.727)  charge=  4.9355  magn=  0.0000
     atom  42 (R=0.727)  charge=  4.9347  magn=  0.0000
     atom  43 (R=0.727)  charge=  7.9537  magn=  0.0000
     atom  44 (R=0.727)  charge=  7.9727  magn= -0.0000
     atom  45 (R=0.727)  charge=  4.8265  magn= -0.0004
     atom  46 (R=0.727)  charge=  4.9340  magn= -0.0006
     atom  47 (R=0.727)  charge=  4.9341  magn= -0.0006
     atom  48 (R=0.501)  charge=  1.9964  magn= -0.0000
     atom  49 (R=0.445)  charge=  0.8298  magn=  0.0000
     atom  50 (R=0.445)  charge=  0.4919  magn= -0.0000
     atom  51 (R=0.445)  charge=  0.4914  magn= -0.0000
     atom  52 (R=0.445)  charge=  0.5016  magn= -0.0000
     atom  53 (R=0.501)  charge=  1.9554  magn=  0.0000

     End of self-consistent calculation

 ------ SPIN UP ------------

          k = 0.0000 0.0000 0.0000 ( 18029 PWs)   bands (ev):

   -55.7805 -55.7695 -55.7465 -55.7335 -55.6835 -55.6351 -55.5985 -55.5646
   -55.5549 -55.5213 -55.5191 -55.4462 -54.9554 -54.8042 -54.7555 -54.7215
   -32.3181 -32.2613 -32.1744 -32.0986 -32.0732 -32.0559 -32.0467 -32.0258
   -32.0056 -31.9697 -31.9397 -31.9335 -31.9213 -31.9042 -31.8833 -31.8831
   -31.8789 -31.8778 -31.8651 -31.8385 -31.8351 -31.8217 -31.7999 -31.7934
   -31.7898 -31.7820 -31.7808 -31.7548 -31.7405 -31.7363 -31.7278 -31.7100
   -31.7088 -31.6687 -31.6357 -31.5634 -31.4912 -31.3367 -31.1666 -31.1621
   -31.1023 -31.0744 -31.0639 -31.0519 -30.9792 -30.9101 -30.8927 -30.7813
   -19.4249 -16.5164 -16.2514 -15.9661 -15.9145 -15.8405 -15.7470 -15.6237
   -15.5278 -15.4096 -15.3707 -15.3141 -15.3072 -15.2629 -15.2358 -15.2318
   -15.2054 -15.1970 -15.1332 -15.1257 -15.0755 -15.0637 -15.0154 -14.9811
   -14.9690 -14.9136 -14.8450 -14.8036 -14.6854 -14.1589 -13.2562 -13.1397
   -12.2949  -7.2494  -4.9391  -4.7776  -3.8989  -3.7564  -3.6918  -3.6844
    -3.6397  -3.4404  -3.3546  -3.2835  -3.0438  -2.9521  -2.9276  -2.9169
    -2.8679  -2.7133  -2.6804  -2.6061  -2.5898  -2.5616  -2.5399  -2.5316
    -2.4962  -2.4861  -2.4590  -2.4313  -2.3257  -2.2123  -2.1841  -2.1066
    -2.0902  -2.0754  -2.0440  -2.0349  -2.0244  -2.0147  -1.9963  -1.9590
    -1.8985  -1.8516  -1.7871  -1.7025  -1.5616  -1.5391  -1.4602  -1.3843
    -1.3045  -1.2621  -1.2401  -1.2118  -1.1722  -1.0925  -1.0663  -0.9202
    -0.8234  -0.7901  -0.7733  -0.7303  -0.6945  -0.5924  -0.5706  -0.5414
    -0.5320  -0.5047  -0.4311  -0.3745  -0.2424  -0.2118  -0.2080  -0.1704
    -0.0996  -0.0458   0.0076   0.0570   0.0648   0.1007   0.1606   0.1859
     0.1909   0.2335   0.2758   0.3503   0.3767   0.4508   0.4549   0.5191
     0.5628   0.6447   0.7522   0.8743   1.0177   1.1547   1.1994   1.2684
     1.3636   1.4602   1.8388   1.8841   2.1484   3.3346   3.4393   3.4680
     3.4790   3.5868   3.7934   3.8187   3.8678   3.8878   3.8964

[...]

          k =-0.0760-0.0000 0.0000 ( 17886 PWs)   bands (ev):

[...]

 ------ SPIN DOWN ----------

[...]

          k = 0.0380-0.0419 0.0000 ( 17876 PWs)   bands (ev):

[...]

          k =-0.0760-0.0839 0.0000 ( 17948 PWs)   bands (ev):

   -55.7531 -55.7525 -55.7514 -55.7499 -55.6747 -55.6408 -55.5758 -55.5754
   -55.5378 -55.5374 -55.5146 -55.4505 -54.9540 -54.8055 -54.7378 -54.7377
   -32.1213 -32.1177 -32.0722 -32.0719 -32.0468 -32.0462 -32.0184 -32.0037
   -31.9974 -31.9886 -31.9198 -31.9145 -31.9016 -31.8951 -31.8807 -31.8783
   -31.8777 -31.8716 -31.8710 -31.8707 -31.8523 -31.8493 -31.8479 -31.8131
   -31.7837 -31.7802 -31.7785 -31.7671 -31.7668 -31.7552 -31.7549 -31.7542
   -31.7532 -31.7359 -31.7112 -31.6604 -31.4386 -31.3184 -31.1683 -31.1572
   -31.0804 -31.0639 -31.0638 -30.9745 -30.9743 -30.9353 -30.9353 -30.9131
   -19.4227 -15.9171 -15.9110 -15.7497 -15.7152 -15.6493 -15.6405 -15.5728
   -15.5057 -15.4611 -15.4561 -15.3409 -15.3387 -15.3243 -15.3025 -15.2483
   -15.2321 -15.2307 -15.2274 -15.2196 -15.2079 -15.1802 -15.1496 -15.0988
   -15.0938 -15.0733 -15.0629 -14.9413 -14.5306 -14.4693 -13.2423 -13.2423
   -12.2974  -7.2357  -4.9414  -4.7749  -3.6155  -3.2063  -3.1899  -3.0016
    -2.9187  -2.9076  -2.8920  -2.7566  -2.7306  -2.7106  -2.6639  -2.6513
    -2.6368  -2.5996  -2.5836  -2.5596  -2.5196  -2.5140  -2.4658  -2.4636
    -2.4481  -2.4322  -2.4078  -2.4024  -2.3887  -2.3739  -2.3364  -2.2809
    -2.2419  -2.2153  -2.1868  -2.0905  -2.0294  -1.9936  -1.9263  -1.9177
    -1.8668  -1.8421  -1.8277  -1.7648  -1.6914  -1.6622  -1.5775  -1.4858
    -1.4671  -1.4520  -1.3330  -1.3192  -1.2440  -1.2207  -1.1368  -1.1198
    -1.0801  -0.9696  -0.9461  -0.9149  -0.8801  -0.8363  -0.7726  -0.7359
    -0.7339  -0.6853  -0.6409  -0.5849  -0.5234  -0.5115  -0.4963  -0.4876
    -0.4239  -0.3905  -0.3685  -0.2859  -0.2709  -0.1891  -0.0454  -0.0124
     0.1453   0.1944   0.3030   0.3306   0.4215   0.4432   0.5368   0.5399
     0.5730   0.7022   0.7210   0.7387   0.7547   0.7747   0.7985   0.9375
     1.6323   1.6324   1.7037   1.7039   2.0863   3.6722   3.7093   3.7595
     3.7817   3.8880   3.8923   3.8946   3.9026   4.0235   4.0263

     the Fermi energy is     3.3520 ev

!    total energy              =   -2939.12576633 Ry
     estimated scf accuracy    <       0.00000002 Ry
     smearing contrib. (-TS)   =      -0.02052242 Ry
     internal energy E=F+TS    =   -2939.10524391 Ry

     The total energy is F=E-TS. E is the sum of the following terms:
     one-electron contribution =  -24213.27683472 Ry
     hartree contribution      =   12195.39306107 Ry
     xc contribution           =    -485.19933719 Ry
     ewald contribution        =    9563.97629556 Ry
     electric field correction =       0.00157136 Ry

     total magnetization       =     0.03 Bohr mag/cell
     absolute magnetization    =     0.04 Bohr mag/cell

     convergence has been achieved in  86 iterations

     Forces acting on atoms (cartesian axes, Ry/au):

     atom    1 type  1   force =     0.00008709   -0.00020818    0.09579202
     atom    2 type  1   force =     0.00007520   -0.00063191   -0.17550127
     atom    3 type  2   force =     0.00017785   -0.00019492   -0.02305025
     atom    4 type  2   force =     0.00004075   -0.00128628    0.05263491
     atom    5 type  2   force =    -0.00977379   -0.00031734    0.00253943
     atom    6 type  2   force =     0.01165282    0.00022315    0.00292258
     atom    7 type  1   force =     0.00088559   -0.00000619   -0.00989242
     atom    8 type  1   force =     0.00000601    0.00530202    0.01816513
     atom    9 type  2   force =    -0.00001420   -0.00028952   -0.00011160
     atom   10 type  2   force =    -0.00253842    0.00216160   -0.01348617
     atom   11 type  2   force =    -0.00096681    0.00011044    0.00017987
     atom   12 type  2   force =     0.00038289   -0.00025555    0.00049558
     atom   13 type  1   force =     0.00009480   -0.00008051    0.00055144
     atom   14 type  1   force =    -0.00004070   -0.00013872   -0.00018091
     atom   15 type  2   force =    -0.00057314    0.00026908    0.00041235
     atom   16 type  2   force =    -0.00043546    0.00008090    0.00021774
     atom   17 type  2   force =    -0.00014741   -0.00005983   -0.00028642
     atom   18 type  2   force =     0.00031103    0.00024746    0.00014482
     atom   19 type  1   force =    -0.00058503   -0.00053381    0.00061082
     atom   20 type  1   force =    -0.00024848    0.00032278   -0.00074348
     atom   21 type  2   force =     0.00006661   -0.00005731    0.10320588
     atom   22 type  2   force =     0.00009185    0.00001845   -0.00040839
     atom   23 type  2   force =    -0.07154321   -0.00019379   -0.02754376
     atom   24 type  2   force =     0.07152270    0.00031022   -0.02760385
     atom   25 type  1   force =     0.00012090   -0.00028087    0.09518005
     atom   26 type  1   force =     0.00008748   -0.00048995   -0.17564686
     atom   27 type  2   force =     0.00016052   -0.00011943   -0.02179752
     atom   28 type  2   force =     0.00008080   -0.00105944    0.05251172
     atom   29 type  2   force =    -0.01015332    0.00023220    0.00291569
     atom   30 type  2   force =     0.01196843    0.00051881    0.00329484
     atom   31 type  1   force =     0.00088668    0.00414025   -0.01177047
     atom   32 type  1   force =     0.00013954   -0.00633900    0.01830609
     atom   33 type  2   force =     0.00016257    0.00041781   -0.00010685
     atom   34 type  2   force =    -0.00308728   -0.00010475   -0.00866585
     atom   35 type  2   force =    -0.00020741    0.00006922    0.00001826
     atom   36 type  2   force =    -0.00004088    0.00027898   -0.00005848
     atom   37 type  1   force =     0.00043397   -0.00094750    0.00021424
     atom   38 type  1   force =    -0.00032087    0.00009737    0.00033929
     atom   39 type  2   force =     0.00010051   -0.00028980    0.00053043
     atom   40 type  2   force =    -0.00008214    0.00026859    0.00017277
     atom   41 type  2   force =     0.00002360   -0.00018905   -0.00014670
     atom   42 type  2   force =    -0.00041009    0.00011095   -0.00037223
     atom   43 type  1   force =     0.00025932    0.00047889    0.00009213
     atom   44 type  1   force =    -0.00013617   -0.00077750   -0.00090335
     atom   45 type  2   force =     0.00007499   -0.00006012    0.10316306
     atom   46 type  2   force =    -0.07155677   -0.00009173   -0.02753746
     atom   47 type  2   force =     0.07154049    0.00025882   -0.02759940
     atom   48 type  3   force =     0.00297333   -0.00077510    0.00043898
     atom   49 type  4   force =    -0.01975133   -0.00090231    0.00298756
     atom   50 type  5   force =     0.00196019    0.00107785    0.00044343
     atom   51 type  5   force =     0.00341066    0.00312512   -0.00238836
     atom   52 type  5   force =     0.01008866   -0.00354471   -0.00412793
     atom   53 type  3   force =     0.00274509    0.00010421    0.00144888

     Total force =     0.365519     Total SCF correction =     0.000315
  @ DRIVER MODE: Message from server: STATUS
  @ DRIVER MODE: Message from server: GETFORCE
  @ DRIVER MODE: Returning v,forces,stress,ensemble

     Writing output data file ./calc.save/
  @ DRIVER MODE: Message from server: EXIT
  @ DRIVE MODE: Exiting

     General routines

     Parallel routines

   This run was terminated on:  21:20:50  15Jul2021

   JOB DONE.