     Program PWSCF v.6.7GPU starts on 24Aug2021 at  0:50:13

     R & G space division:  proc/nbgrp/npool/nimage =       6
     Reading input from /storage/home/hcoda1/3/ntian30/research/carbon/CH2_vib/ads_slab/CH2N2_b/out_0026/pw.inp
Warning: card &CELL ignored
Warning: card   CELL_DYNAMICS='IPI', ignored
Warning: card / ignored

     Current dimensions of program PWSCF are:
     Max number of different atomic species (ntypx) = 10
     Max number of k-points (npk) =  40000
     Max angular momentum in pseudopotentials (lmaxx) =  3
     Presently no symmetry can be used with electric field

     Message from routine cell_base_init:
     DEPRECATED: use true lattice parameter, not A to a.u. conversion factor

     IMPORTANT: XC functional enforced from input :
     Exchange-correlation= BEEF-VDW
                           (   1   4  43  14   2   0   0)
     Any further DFT definition will be discarded
     Please, verify this is what you really want

  @ DRIVER MODE: Connecting to
 qe_1139763_2632805.sched-torque.pace.gatech.edu6m2d36sx_scratch
  using UNIX socket
  @ DRIVER MODE: Message from server: STATUS
  @ DRIVER MODE: Message from server: INIT
  @ DRIVER MODE: Receiving replica           0          -1
  @ DRIVER MODE: Receiving encoded integer          25
  @ DRIVER MODE:  SCF:  T  FORCE:  T  STRESS:  F  VC:  F  ENSEMBLE:  F
  @ DRIVER MODE:  SCF:  T  FORCE:  T  STRESS:  F  VC:  F  ENSEMBLE:  F

     Using Slab Decomposition

     bravais-lattice index     =            0
     lattice parameter (alat)  =       1.8897  a.u.
     unit-cell volume          =    6658.9804 (a.u.)^3
     number of atoms/cell      =           52
     number of atomic types    =            5
     number of electrons       =       394.00
     number of Kohn-Sham states=          207
     kinetic-energy cutoff     =      29.3995  Ry
     charge density cutoff     =     293.9946  Ry
     scf convergence threshold =      7.3E-08
     mixing beta               =       0.0500
     number of iterations used =            8  plain     mixing
     Exchange-correlation= BEEF-VDW
                           (   1   4  43  14   2   0   0)

     celldm(1)=   1.889726  celldm(2)=   0.000000  celldm(3)=   0.000000
     celldm(4)=   0.000000  celldm(5)=   0.000000  celldm(6)=   0.000000

     crystal axes: (cart. coord. in units of alat)
               a(1) = (   6.579727   0.000000   0.000000 )
               a(2) = (  -0.000775   5.961596   0.000000 )
               a(3) = (   0.000000   0.000000  25.155947 )

     reciprocal axes: (cart. coord. in units 2 pi/alat)
               b(1) = (  0.151982  0.000020  0.000000 )
               b(2) = (  0.000000  0.167740  0.000000 )
               b(3) = (  0.000000  0.000000  0.039752 )

     PseudoPot. # 1 for Ti read from file:
     /storage/coda1/p-amedford6/0/shared/rich_project_chbe-medford/medford-share/data/pseudos_module/espresso/nninc/pbe/van/Ti.UPF
     MD5 check sum: 8e4df49b7f0d34bbd5052bf3f5ea0213
     Pseudo is Ultrasoft, Zval = 12.0
     Generated by new atomic code, or converted to UPF format
     Using radial grid of  851 points,  6 beta functions with:
                l(1) =   0
                l(2) =   0
                l(3) =   1
                l(4) =   1
                l(5) =   2
                l(6) =   2
     Q(r) pseudized with  8 coefficients,  rinner =    1.000   1.000   1.000
                                                       1.000   1.000

     PseudoPot. # 2 for O  read from file:
     /storage/coda1/p-amedford6/0/shared/rich_project_chbe-medford/medford-share/data/pseudos_module/espresso/nninc/pbe/van/O.UPF
     MD5 check sum: 78c19812648e8988a0fe644b0f25305e
     Pseudo is Ultrasoft, Zval =  6.0
     Generated by new atomic code, or converted to UPF format
     Using radial grid of  737 points,  4 beta functions with:
                l(1) =   0
                l(2) =   0
                l(3) =   1
                l(4) =   1
     Q(r) pseudized with  8 coefficients,  rinner =    0.800   0.800   0.800

     PseudoPot. # 3 for N  read from file:
     /storage/coda1/p-amedford6/0/shared/rich_project_chbe-medford/medford-share/data/pseudos_module/espresso/nninc/pbe/van/N.UPF
     MD5 check sum: 90d10febe142ad51ac9d5be1deb811c4
     Pseudo is Ultrasoft, Zval =  5.0
     Generated by new atomic code, or converted to UPF format
     Using radial grid of  729 points,  4 beta functions with:
                l(1) =   0
                l(2) =   0
                l(3) =   1
                l(4) =   1
     Q(r) pseudized with  8 coefficients,  rinner =    0.800   0.800   0.800

     PseudoPot. # 4 for C  read from file:
     /storage/coda1/p-amedford6/0/shared/rich_project_chbe-medford/medford-share/data/pseudos_module/espresso/nninc/pbe/van/C.UPF
     MD5 check sum: 1a69bf6b8db32088f5b2163dbdb77a27
     Pseudo is Ultrasoft, Zval =  4.0
     Generated by new atomic code, or converted to UPF format
     Using radial grid of  721 points,  4 beta functions with:
                l(1) =   0
                l(2) =   0
                l(3) =   1
                l(4) =   1
     Q(r) pseudized with  8 coefficients,  rinner =    0.800   0.800   0.800

     PseudoPot. # 5 for H  read from file:
     /storage/coda1/p-amedford6/0/shared/rich_project_chbe-medford/medford-share/data/pseudos_module/espresso/nninc/pbe/van/H.UPF
     MD5 check sum: b5ee9d7bfd3a09ee7748110bda690ff7
     Pseudo is Ultrasoft, Zval =  1.0
     Generated by new atomic code, or converted to UPF format
     Using radial grid of  615 points,  1 beta functions with:
                l(1) =   0
     Q(r) pseudized with  8 coefficients,  rinner =    0.800

     atomic species   valence    mass     pseudopotential
        Ti1           12.00    47.86700     Ti( 1.00)
        O1             6.00    15.99900     O ( 1.00)
        N1             5.00    14.00700     N ( 1.00)
        C1             4.00    12.01100     C ( 1.00)
        H1             1.00     1.00800     H ( 1.00)

     No symmetry found

   Cartesian axes

     site n.     atom                  positions (alat units)
         1           Ti1 tau(   1) = (   0.0004258   2.9801865   6.0000000  )
         2           Ti1 tau(   2) = (   3.2906075   1.4906267   6.0002472  )
         3           O1  tau(   3) = (   0.0006271   0.0005054   7.9858123  )
         4           O1  tau(   4) = (   3.2906025   0.0005020   7.3038282  )
         5           O1  tau(   5) = (   4.5942328   1.4918067   9.2879030  )
         6           O1  tau(   6) = (   1.9868534   1.4903216   9.2879459  )
         7           Ti1 tau(   7) = (   3.2907910   2.8959150   9.1758416  )
         8           Ti1 tau(   8) = (   0.0015273   1.4827037   9.2680791  )
         9           O1  tau(   9) = (   3.2944872   5.9444814  11.3088555  )
        10           O1  tau(  10) = (   0.0116148   5.9584955  10.6183126  )
        11           O1  tau(  11) = (   1.2913257   1.4757505  12.6225222  )
        12           O1  tau(  12) = (   5.2743172   1.4729811  12.6021195  )
        13           Ti1 tau(  13) = (   0.0890023   2.9564894  12.7220187  )
        14           Ti1 tau(  14) = (   3.4221593   1.4702301  12.4648352  )
        15           O1  tau(  15) = (   0.0068176   5.9411714  14.5947238  )
        16           O1  tau(  16) = (   3.2944910   5.9492763  13.8828731  )
        17           O1  tau(  17) = (   4.5250581   1.4982466  16.0456249  )
        18           O1  tau(  18) = (   2.0665045   1.4881935  16.0281199  )
        19           Ti1 tau(  19) = (   3.2778778   2.9684174  15.6871799  )
        20           Ti1 tau(  20) = (   6.5490154   1.5309925  16.0314916  )
        21           O1  tau(  21) = (   3.2904802   0.0005063   4.7018136  )
        22           O1  tau(  22) = (   0.0123181   0.0076990  17.1679072  )
        23           O1  tau(  23) = (   1.3043587   1.4918075   6.0039043  )
        24           O1  tau(  24) = (   5.2767064   1.4903225   6.0039473  )
        25           Ti1 tau(  25) = (   0.0000382   5.9609847   6.0000000  )
        26           Ti1 tau(  26) = (   3.2902200   4.4714249   6.0002472  )
        27           O1  tau(  27) = (   0.0002396   2.9813036   7.9858123  )
        28           O1  tau(  28) = (   3.2902150   2.9813002   7.3038282  )
        29           O1  tau(  29) = (   4.5938453   4.4726049   9.2879030  )
        30           O1  tau(  30) = (   1.9864658   4.4711199   9.2879459  )
        31           Ti1 tau(  31) = (   3.2891106   5.8743827   9.1763621  )
        32           Ti1 tau(  32) = (   0.0006254   4.4649316   9.2693709  )
        33           O1  tau(  33) = (   3.2980042   2.9668427  11.3079272  )
        34           O1  tau(  34) = (   0.0092240   2.9805883  10.6323155  )
        35           O1  tau(  35) = (   1.2899229   4.4488879  12.6271902  )
        36           O1  tau(  36) = (   5.2743549   4.4545148  12.6090941  )
        37           Ti1 tau(  37) = (   0.1039690   5.9375691  12.6739196  )
        38           Ti1 tau(  38) = (   3.4213609   4.4493060  12.4702176  )
        39           O1  tau(  39) = (   6.5648181   2.9459624  14.6378081  )
        40           O1  tau(  40) = (   3.2943236   2.9658899  13.8785053  )
        41           O1  tau(  41) = (   4.5287159   4.4634493  16.0515226  )
        42           O1  tau(  42) = (   2.0597896   4.4749507  16.0164256  )
        43           Ti1 tau(  43) = (   3.2714021   5.9517381  15.6902239  )
        44           Ti1 tau(  44) = (   6.5616293   4.5902425  16.0297769  )
        45           O1  tau(  45) = (   3.2900926   2.9813045   4.7018136  )
        46           O1  tau(  46) = (   1.3039711   4.4726057   6.0039043  )
        47           O1  tau(  47) = (   5.2763189   4.4711207   6.0039473  )
        48           N1  tau(  48) = (   0.6459789   3.0609845  18.5091170  )
        49           N1  tau(  49) = (   0.0956274   2.9759187  17.3381616  )
        50           C1  tau(  50) = (   0.0579326   3.2697647  19.6266723  )
        51           H1  tau(  51) = (   5.5568954   3.3836083  19.7010695  )
        52           H1  tau(  52) = (   0.6827643   3.3288843  20.5134281  )

     number of k points=    10  Fermi-Dirac smearing, width (Ry)=  0.0073
                       cart. coord. in units 2pi/alat
        k(    1) = (   0.0000000   0.0000000   0.0000000), wk =   0.1250000
        k(    2) = (   0.0000000   0.0419351   0.0000000), wk =   0.2500000
        k(    3) = (   0.0000000  -0.0838702   0.0000000), wk =   0.1250000
        k(    4) = (   0.0379955   0.0000049   0.0000000), wk =   0.2500000
        k(    5) = (   0.0379955   0.0419400   0.0000000), wk =   0.2500000
        k(    6) = (   0.0379955  -0.0838652   0.0000000), wk =   0.2500000
        k(    7) = (   0.0379955  -0.0419301   0.0000000), wk =   0.2500000
        k(    8) = (  -0.0759910  -0.0000099   0.0000000), wk =   0.1250000
        k(    9) = (  -0.0759910   0.0419252   0.0000000), wk =   0.2500000
        k(   10) = (  -0.0759910  -0.0838800   0.0000000), wk =   0.1250000

     Initial potential from superposition of free atoms

     starting charge  377.99917, renormalised to  394.00000

     negative rho (up, down):  1.508E-02 0.000E+00

     %%%%%%%%%%%%%%%%%%%%%%%%%%%%%%%%%%%%%%%%%%%%%%%%%%%%%%%%%%%%%%%%%%%%%%%%
     %                                                                      %
     % You are using vdW-DF, which was implemented by the Thonhauser group. %
     % Please cite the following two papers that made this development      %
     % possible and the two reviews that describe the various versions:     %
     %                                                                      %
     %   T. Thonhauser et al., PRL 115, 136402 (2015).                      %
     %   T. Thonhauser et al., PRB 76, 125112 (2007).                       %
     %   K. Berland et al., Rep. Prog. Phys. 78, 066501 (2015).             %
     %   D.C. Langreth et al., J. Phys.: Condens. Matter 21, 084203 (2009). %
     %                                                                      %
     %                                                                      %
     % If you are calculating the stress with vdW-DF, please also cite:     %
     %                                                                      %
     %   R. Sabatini et al., J. Phys.: Condens. Matter 24, 424209 (2012).   %
     %                                                                      %
     %%%%%%%%%%%%%%%%%%%%%%%%%%%%%%%%%%%%%%%%%%%%%%%%%%%%%%%%%%%%%%%%%%%%%%%%

     Adding external electric field

     Computed dipole along edir(3) :
        Dipole               -7.6437 Ry au,        -19.4284 Debye
        Dipole field         -0.0144 Ry au,

        Potential amp.        1.3372 Ry
        Total length         46.3494 bohr

     Starting wfcs are  298 atomic wfcs
  @ DRIVER MODE: Message from server: STATUS
  @ DRIVER MODE: Message from server: POSDATA
  @ DRIVER MODE: Reading and sharing cell
  @ DRIVER MODE: Reading and sharing positions
  @ DRIVER MODE: Received positions

     Self-consistent Calculation

     iteration #  1     ecut=    29.40 Ry     beta= 0.05
     Davidson diagonalization with overlap
     c_bands:  1 eigenvalues not converged
     c_bands:  1 eigenvalues not converged
     c_bands:  1 eigenvalues not converged
     c_bands:  1 eigenvalues not converged
     c_bands:  1 eigenvalues not converged
     c_bands:  1 eigenvalues not converged
     ethr =  1.00E-05,  avg # of iterations = 18.6

[...]

     total energy              =   -2699.58866607 Ry
     estimated scf accuracy    <    2638.61939085 Ry

[...]

     iteration #  3     ecut=    29.40 Ry     beta= 0.05
     Davidson diagonalization with overlap
     ethr =  1.00E-02,  avg # of iterations = 16.1

[...]

     iteration # 44     ecut=    29.40 Ry     beta= 0.05
     Davidson diagonalization with overlap
     c_bands:  1 eigenvalues not converged
     ethr =  1.53E-06,  avg # of iterations =  8.4

[...]

     total energy              =   -2937.89149298 Ry
     estimated scf accuracy    <       0.00000012 Ry

     iteration # 78     ecut=    29.40 Ry     beta= 0.05
     Davidson diagonalization with overlap
     ethr =  2.95E-11,  avg # of iterations =  6.2

     negative rho (up, down):  1.606E-02 0.000E+00

     Adding external electric field

     Computed dipole along edir(3) :
        Dipole                0.5197 Ry au,          1.3209 Debye
        Dipole field          0.0010 Ry au,

        Potential amp.       -0.0909 Ry
        Total length         46.3494 bohr

     End of self-consistent calculation

          k = 0.0000 0.0000 0.0000 ( 18029 PWs)   bands (ev):

   -56.3153 -56.2814 -55.8956 -55.8928 -55.8596 -55.8589 -55.8303 -55.7966
   -55.6783 -55.6691 -55.6388 -55.6325 -55.1636 -55.1364 -55.1297 -55.0595
   -32.7713 -32.6074 -32.5802 -32.4742 -32.4369 -32.3947 -32.3810 -32.3578
   -32.3167 -32.1936 -32.1803 -32.1502 -32.1416 -32.1183 -32.1080 -32.0776
   -32.0621 -32.0613 -32.0585 -32.0315 -32.0271 -32.0232 -32.0218 -32.0087
   -31.9964 -31.9928 -31.9822 -31.9405 -31.9127 -31.9080 -31.8438 -31.8299
   -31.8149 -31.8024 -31.7878 -31.7426 -31.6624 -31.5654 -31.4905 -31.4672
   -31.3895 -31.3826 -31.3471 -31.3137 -31.2970 -31.2618 -31.1866 -31.1859
   -17.7321 -16.6876 -16.5311 -16.2527 -16.0271 -15.9997 -15.8629 -15.8297
   -15.8057 -15.7778 -15.6574 -15.6173 -15.5796 -15.4629 -15.4199 -15.4077
   -15.3900 -15.3709 -15.3649 -15.2761 -15.2528 -15.2358 -15.1844 -15.0896
   -15.0582 -15.0168 -14.8753 -14.8587 -14.7618 -14.5011 -13.6644 -13.5505
   -11.9278  -6.6160  -4.6237  -4.1557  -4.0692  -4.0186  -3.8660  -3.7829
    -3.5961  -3.5620  -3.4683  -3.2407  -3.1552  -3.1463  -3.0705  -3.0458
    -3.0354  -2.9435  -2.8764  -2.8450  -2.8226  -2.8008  -2.7431  -2.6652
    -2.6193  -2.5863  -2.5675  -2.5345  -2.4287  -2.3730  -2.3573  -2.3335
    -2.2746  -2.2595  -2.2357  -2.2312  -2.1951  -2.1828  -2.1028  -2.0694
    -1.9460  -1.8726  -1.7489  -1.7418  -1.6699  -1.6511  -1.6265  -1.4278
    -1.4030  -1.3282  -1.2934  -1.2374  -1.2109  -1.1573  -1.0958  -1.0618
    -0.9647  -0.9372  -0.9067  -0.8718  -0.8497  -0.8198  -0.8002  -0.7407
    -0.6928  -0.5175  -0.4759  -0.4417  -0.3467  -0.3320  -0.3019  -0.2636
    -0.2492  -0.1970  -0.1911  -0.1774  -0.1191  -0.1049  -0.0198   0.0472
     0.0533   0.1026   0.1769   0.2393   0.2756   0.3935   0.4422   0.5097
     0.6050   0.6133   0.6741   0.8241   0.8382   0.8582   0.8623   1.0705
     1.3184   1.4202   1.4620   1.5661   2.7683   2.9052   3.0143   3.2104
     3.3268   3.3459   3.5225   3.6629   3.7002   3.7571   3.7645

[...]

          k = 0.0380-0.0419 0.0000 ( 17876 PWs)   bands (ev):

[...]

          k =-0.0760-0.0000 0.0000 ( 17886 PWs)   bands (ev):

[...]

          k =-0.0760-0.0839 0.0000 ( 17948 PWs)   bands (ev):

   -56.2985 -56.2981 -55.8799 -55.8783 -55.8751 -55.8731 -55.8144 -55.8126
   -55.6678 -55.6567 -55.6492 -55.6448 -55.1467 -55.1465 -55.1322 -55.0636
   -32.5932 -32.5927 -32.5871 -32.5868 -32.4258 -32.4254 -32.2438 -32.2399
   -32.1833 -32.1777 -32.1550 -32.1529 -32.1364 -32.1335 -32.0934 -32.0895
   -32.0678 -32.0620 -32.0556 -32.0532 -32.0424 -32.0409 -32.0274 -32.0264
   -32.0157 -32.0026 -31.9817 -31.9728 -31.9472 -31.9365 -31.8873 -31.8808
   -31.8736 -31.8484 -31.8161 -31.8124 -31.5514 -31.4801 -31.4800 -31.4062
   -31.3791 -31.3788 -31.3584 -31.3422 -31.3399 -31.3398 -31.2692 -31.2441
   -17.7261 -16.0474 -16.0451 -16.0411 -16.0346 -15.9167 -15.9146 -15.7577
   -15.7556 -15.7299 -15.7245 -15.5789 -15.5555 -15.5143 -15.5135 -15.4735
   -15.4636 -15.3948 -15.3920 -15.3830 -15.3772 -15.3620 -15.3575 -15.3130
   -15.2718 -15.0334 -14.9605 -14.9007 -14.7857 -14.6915 -13.6530 -13.6529
   -11.9320  -6.6102  -4.5642  -4.0630  -3.3376  -3.3330  -3.1697  -3.1520
    -3.0978  -3.0966  -3.0154  -2.9726  -2.9714  -2.8561  -2.8339  -2.7928
    -2.7893  -2.7753  -2.7727  -2.7389  -2.7330  -2.7112  -2.7046  -2.6490
    -2.6341  -2.6272  -2.6222  -2.5490  -2.5054  -2.4773  -2.4443  -2.4107
    -2.3812  -2.2905  -2.2868  -2.2497  -2.2281  -2.1690  -2.1654  -2.1115
    -2.0762  -2.0088  -1.9993  -1.7876  -1.7416  -1.7322  -1.6815  -1.5953
    -1.5730  -1.4280  -1.3966  -1.3348  -1.3218  -1.2723  -1.2542  -1.2454
    -1.1585  -1.1507  -1.1420  -1.0655  -1.0577  -0.9966  -0.9602  -0.9277
    -0.8434  -0.8292  -0.7902  -0.7875  -0.7776  -0.7101  -0.6634  -0.5914
    -0.5432  -0.5298  -0.4109  -0.3618  -0.2957  -0.2320  -0.1894  -0.0854
    -0.0431  -0.0334   0.1760   0.1867   0.2317   0.3224   0.4429   0.4441
     0.4825   0.5741   0.5960   0.6215   0.6382   0.8357   0.9090   1.2379
     1.2390   1.2787   1.2792   1.5300   2.7273   3.4298   3.4307   3.4558
     3.4563   3.5929   3.6166   3.6530   3.6622   3.7452   3.7490

     the Fermi energy is     2.8547 ev

!    total energy              =   -2937.89150181 Ry
     estimated scf accuracy    <       0.00000004 Ry
     smearing contrib. (-TS)   =      -0.01395623 Ry
     internal energy E=F+TS    =   -2937.87754558 Ry

     The total energy is F=E-TS. E is the sum of the following terms:
     one-electron contribution =  -24293.93928155 Ry
     hartree contribution      =   12233.31019183 Ry
     xc contribution           =    -484.30992508 Ry
     ewald contribution        =    9607.06095957 Ry
     electric field correction =       0.00050964 Ry

     convergence has been achieved in  78 iterations

     Forces acting on atoms (cartesian axes, Ry/au):

     atom    1 type  1   force =     0.00010813   -0.00020648    0.10743591
     atom    2 type  1   force =    -0.00012275   -0.00062467   -0.16929174
     atom    3 type  2   force =    -0.00016010    0.00000489   -0.04192377
     atom    4 type  2   force =     0.00005574   -0.00093764    0.04204229
     atom    5 type  2   force =    -0.01490356    0.00022280   -0.00301026
     atom    6 type  2   force =     0.01653781    0.00103877   -0.00398752
     atom    7 type  1   force =    -0.00113361   -0.00212799    0.00241673
     atom    8 type  1   force =     0.00131837    0.00453438    0.07560118
     atom    9 type  2   force =     0.00004271    0.00011073    0.00044219
     atom   10 type  2   force =    -0.00132343    0.00009859   -0.04722237
     atom   11 type  2   force =    -0.00046991    0.00031839    0.00023515
     atom   12 type  2   force =    -0.00007856    0.00050168    0.00014440
     atom   13 type  1   force =     0.00045030   -0.00041507    0.00071196
     atom   14 type  1   force =    -0.00014371   -0.00011965   -0.00006603
     atom   15 type  2   force =    -0.00022713   -0.00021022    0.00016070
     atom   16 type  2   force =     0.00019629    0.00024288   -0.00016932
     atom   17 type  2   force =     0.00012174    0.00049585    0.00031246
     atom   18 type  2   force =    -0.00040596   -0.00005779   -0.00029691
     atom   19 type  1   force =     0.00017186    0.00076348   -0.00028213
     atom   20 type  1   force =     0.00019104    0.00012379    0.00010622
     atom   21 type  2   force =     0.00007065    0.00003617    0.10164506
     atom   22 type  2   force =    -0.00042742    0.00041300    0.00011337
     atom   23 type  2   force =    -0.07421360   -0.00003493   -0.02982254
     atom   24 type  2   force =     0.07417011    0.00041849   -0.02982499
     atom   25 type  1   force =     0.00025640   -0.00034727    0.10693426
     atom   26 type  1   force =    -0.00002869   -0.00037420   -0.16937430
     atom   27 type  2   force =    -0.00004116   -0.00029148   -0.04086535
     atom   28 type  2   force =     0.00011035   -0.00073373    0.04201522
     atom   29 type  2   force =    -0.01520804    0.00063784   -0.00330090
     atom   30 type  2   force =     0.01677097    0.00101174   -0.00427361
     atom   31 type  1   force =    -0.00133373    0.00038086    0.00217189
     atom   32 type  1   force =     0.00130842   -0.00712267    0.07622435
     atom   33 type  2   force =    -0.00004896    0.00016764    0.00016657
     atom   34 type  2   force =    -0.00146335   -0.00007982   -0.05553330
     atom   35 type  2   force =     0.00000734    0.00006109    0.00011828
     atom   36 type  2   force =    -0.00003421    0.00021988   -0.00014566
     atom   37 type  1   force =     0.00022265    0.00028171    0.00041780
     atom   38 type  1   force =     0.00011525    0.00023017   -0.00031610
     atom   39 type  2   force =    -0.00022609   -0.00003571   -0.00066546
     atom   40 type  2   force =     0.00007834    0.00026684    0.00015494
     atom   41 type  2   force =    -0.00041702    0.00024021   -0.00041632
     atom   42 type  2   force =     0.00017580    0.00022042    0.00023348
     atom   43 type  1   force =    -0.00014431    0.00061920    0.00020208
     atom   44 type  1   force =    -0.00021397    0.00015338   -0.00008224
     atom   45 type  2   force =     0.00006116    0.00000195    0.10165793
     atom   46 type  2   force =    -0.07420083    0.00001441   -0.02979254
     atom   47 type  2   force =     0.07415651    0.00044669   -0.02981235
     atom   48 type  3   force =     0.00006222    0.00087085   -0.00069310
     atom   49 type  3   force =     0.00006753   -0.00031304   -0.00119951
     atom   50 type  4   force =     0.00624500   -0.00106856    0.00590163
     atom   51 type  5   force =     0.00054462    0.00033722    0.00020736
     atom   52 type  5   force =    -0.00664720   -0.00038504   -0.00540508

     Total force =     0.389464     Total SCF correction =     0.000462
  @ DRIVER MODE: Message from server: STATUS
  @ DRIVER MODE: Message from server: GETFORCE
  @ DRIVER MODE: Returning v,forces,stress,ensemble

     Writing output data file ./calc.save/
  @ DRIVER MODE: Message from server: EXIT
  @ DRIVE MODE: Exiting

     General routines

     Parallel routines

   This run was terminated on:   1:19:15  24Aug2021

   JOB DONE.