     Program PWSCF v.6.7GPU starts on  9Sep2021 at  0: 8:48

     R & G space division:  proc/nbgrp/npool/nimage =      10
     Reading input from /storage/home/hcoda1/3/ntian30/research/carbon/CxH_vib/CH2_calc/ads_slab/CH2NH_a/out_0008/pw.inp
Warning: card &CELL ignored
Warning: card   CELL_DYNAMICS='IPI', ignored
Warning: card / ignored

     Current dimensions of program PWSCF are:
     Max number of different atomic species (ntypx) = 10
     Max number of k-points (npk) =  40000
     Max angular momentum in pseudopotentials (lmaxx) =  3
     Presently no symmetry can be used with electric field

     Message from routine cell_base_init:
     DEPRECATED: use true lattice parameter, not A to a.u. conversion factor

     IMPORTANT: XC functional enforced from input :
     Exchange-correlation= BEEF-VDW
                           (   1   4  43  14   2   0   0)
     Any further DFT definition will be discarded
     Please, verify this is what you really want

  @ DRIVER MODE: Connecting to
 qe_1139763_2767389.sched-torque.pace.gatech.edu_7_u0ywk_scratch
  using UNIX socket
  @ DRIVER MODE: Message from server: STATUS
  @ DRIVER MODE: Message from server: INIT
  @ DRIVER MODE: Receiving replica           0          -1
  @ DRIVER MODE: Receiving encoded integer          25
  @ DRIVER MODE:  SCF:  T  FORCE:  T  STRESS:  F  VC:  F  ENSEMBLE:  F
  @ DRIVER MODE:  SCF:  T  FORCE:  T  STRESS:  F  VC:  F  ENSEMBLE:  F

     Using Slab Decomposition

     bravais-lattice index     =            0
     lattice parameter (alat)  =       1.8897  a.u.
     unit-cell volume          =    6658.9804 (a.u.)^3
     number of atoms/cell      =           52
     number of atomic types    =            5
     number of electrons       =       390.00
     number of Kohn-Sham states=          205
     kinetic-energy cutoff     =      29.3995  Ry
     charge density cutoff     =     293.9946  Ry
     scf convergence threshold =      7.3E-08
     mixing beta               =       0.0500
     number of iterations used =            8  plain     mixing
     Exchange-correlation= BEEF-VDW
                           (   1   4  43  14   2   0   0)

     celldm(1)=   1.889726  celldm(2)=   0.000000  celldm(3)=   0.000000
     celldm(4)=   0.000000  celldm(5)=   0.000000  celldm(6)=   0.000000

     crystal axes: (cart. coord. in units of alat)
               a(1) = (   6.579727   0.000000   0.000000 )
               a(2) = (  -0.000775   5.961596   0.000000 )
               a(3) = (   0.000000   0.000000  25.155947 )

     reciprocal axes: (cart. coord. in units 2 pi/alat)
               b(1) = (  0.151982  0.000020  0.000000 )
               b(2) = (  0.000000  0.167740  0.000000 )
               b(3) = (  0.000000  0.000000  0.039752 )

     PseudoPot. # 1 for Ti read from file:
     /storage/coda1/p-amedford6/0/shared/rich_project_chbe-medford/medford-share/data/pseudos_module/espresso/nninc/pbe/van/Ti.UPF
     MD5 check sum: 8e4df49b7f0d34bbd5052bf3f5ea0213
     Pseudo is Ultrasoft, Zval = 12.0
     Generated by new atomic code, or converted to UPF format
     Using radial grid of  851 points,  6 beta functions with:
                l(1) =   0
                l(2) =   0
                l(3) =   1
                l(4) =   1
                l(5) =   2
                l(6) =   2
     Q(r) pseudized with  8 coefficients,  rinner =    1.000   1.000   1.000
                                                       1.000   1.000

     PseudoPot. # 2 for O  read from file:
     /storage/coda1/p-amedford6/0/shared/rich_project_chbe-medford/medford-share/data/pseudos_module/espresso/nninc/pbe/van/O.UPF
     MD5 check sum: 78c19812648e8988a0fe644b0f25305e
     Pseudo is Ultrasoft, Zval =  6.0
     Generated by new atomic code, or converted to UPF format
     Using radial grid of  737 points,  4 beta functions with:
                l(1) =   0
                l(2) =   0
                l(3) =   1
                l(4) =   1
     Q(r) pseudized with  8 coefficients,  rinner =    0.800   0.800   0.800

     PseudoPot. # 3 for N  read from file:
     /storage/coda1/p-amedford6/0/shared/rich_project_chbe-medford/medford-share/data/pseudos_module/espresso/nninc/pbe/van/N.UPF
     MD5 check sum: 90d10febe142ad51ac9d5be1deb811c4
     Pseudo is Ultrasoft, Zval =  5.0
     Generated by new atomic code, or converted to UPF format
     Using radial grid of  729 points,  4 beta functions with:
                l(1) =   0
                l(2) =   0
                l(3) =   1
                l(4) =   1
     Q(r) pseudized with  8 coefficients,  rinner =    0.800   0.800   0.800

     PseudoPot. # 4 for C  read from file:
     /storage/coda1/p-amedford6/0/shared/rich_project_chbe-medford/medford-share/data/pseudos_module/espresso/nninc/pbe/van/C.UPF
     MD5 check sum: 1a69bf6b8db32088f5b2163dbdb77a27
     Pseudo is Ultrasoft, Zval =  4.0
     Generated by new atomic code, or converted to UPF format
     Using radial grid of  721 points,  4 beta functions with:
                l(1) =   0
                l(2) =   0
                l(3) =   1
                l(4) =   1
     Q(r) pseudized with  8 coefficients,  rinner =    0.800   0.800   0.800

     PseudoPot. # 5 for H  read from file:
     /storage/coda1/p-amedford6/0/shared/rich_project_chbe-medford/medford-share/data/pseudos_module/espresso/nninc/pbe/van/H.UPF
     MD5 check sum: b5ee9d7bfd3a09ee7748110bda690ff7
     Pseudo is Ultrasoft, Zval =  1.0
     Generated by new atomic code, or converted to UPF format
     Using radial grid of  615 points,  1 beta functions with:
                l(1) =   0
     Q(r) pseudized with  8 coefficients,  rinner =    0.800

     atomic species   valence    mass     pseudopotential
        Ti1           12.00    47.86700     Ti( 1.00)
        O1             6.00    15.99900     O ( 1.00)
        N1             5.00    14.00700     N ( 1.00)
        C1             4.00    12.01100     C ( 1.00)
        H1             1.00     1.00800     H ( 1.00)

     No symmetry found

   Cartesian axes

     site n.     atom                  positions (alat units)
         1           Ti1 tau(   1) = (   0.0004258   2.9801865   6.0000000  )
         2           Ti1 tau(   2) = (   3.2906075   1.4906267   6.0002472  )
         3           O1  tau(   3) = (   0.0006271   0.0005054   7.9858123  )
         4           O1  tau(   4) = (   3.2906025   0.0005020   7.3038282  )
         5           O1  tau(   5) = (   4.5942328   1.4918067   9.2879030  )
         6           O1  tau(   6) = (   1.9868534   1.4903216   9.2879459  )
         7           Ti1 tau(   7) = (   3.2907910   2.8959150   9.1758416  )
         8           Ti1 tau(   8) = (   0.0015273   1.4827037   9.2680791  )
         9           O1  tau(   9) = (   3.2859541   5.9290403  11.3715426  )
        10           O1  tau(  10) = (   0.0116148   5.9584955  10.6183126  )
        11           O1  tau(  11) = (   1.2917987   1.4688796  12.6526629  )
        12           O1  tau(  12) = (   5.2888266   1.4686376  12.6403033  )
        13           Ti1 tau(  13) = (   0.0074927   2.9495069  12.5376589  )
        14           Ti1 tau(  14) = (   3.2957121   1.4606513  12.5174744  )
        15           O1  tau(  15) = (   6.5702453   0.0264740  14.6787910  )
        16           O1  tau(  16) = (   3.3001739   5.9406727  13.9930656  )
        17           O1  tau(  17) = (   4.5367710   1.4643441  16.2106543  )
        18           O1  tau(  18) = (   2.0349547   1.4576396  16.1973481  )
        19           Ti1 tau(  19) = (   3.2821410   2.9383233  15.7467721  )
        20           Ti1 tau(  20) = (   6.5624771   1.3975196  16.0657228  )
        21           O1  tau(  21) = (   3.2904802   0.0005063   4.7018136  )
        22           O1  tau(  22) = (   0.0049924   5.8117904  17.2112648  )
        23           O1  tau(  23) = (   1.3043587   1.4918075   6.0039043  )
        24           O1  tau(  24) = (   5.2767064   1.4903225   6.0039473  )
        25           Ti1 tau(  25) = (   0.0000382   5.9609847   6.0000000  )
        26           Ti1 tau(  26) = (   3.2902200   4.4714249   6.0002472  )
        27           O1  tau(  27) = (   0.0002396   2.9813036   7.9858123  )
        28           O1  tau(  28) = (   3.2902150   2.9813002   7.3038282  )
        29           O1  tau(  29) = (   4.5938453   4.4726049   9.2879030  )
        30           O1  tau(  30) = (   1.9864658   4.4711199   9.2879459  )
        31           Ti1 tau(  31) = (   3.2891106   5.8743827   9.1763621  )
        32           Ti1 tau(  32) = (   0.0006254   4.4649316   9.2693709  )
        33           O1  tau(  33) = (   3.2878059   2.9597088  11.3652031  )
        34           O1  tau(  34) = (   0.0092240   2.9805883  10.6323155  )
        35           O1  tau(  35) = (   1.2887225   4.4431869  12.6829221  )
        36           O1  tau(  36) = (   5.2901277   4.4428847  12.6690855  )
        37           Ti1 tau(  37) = (   0.0035388   5.9380168  12.5099366  )
        38           Ti1 tau(  38) = (   3.2962120   4.4389810  12.5267566  )
        39           O1  tau(  39) = (   6.5655450   2.9014274  14.9049457  )
        40           O1  tau(  40) = (   3.2937888   2.9365130  13.9572806  )
        41           O1  tau(  41) = (   4.5374039   4.4072578  16.1608974  )
        42           O1  tau(  42) = (   2.0345115   4.4188705  16.1151926  )
        43           Ti1 tau(  43) = (   3.2925710   5.9161036  15.7896908  )
        44           Ti1 tau(  44) = (   0.0121651   4.6006060  15.8502786  )
        45           O1  tau(  45) = (   3.2900926   2.9813045   4.7018136  )
        46           O1  tau(  46) = (   1.3039711   4.4726057   6.0039043  )
        47           O1  tau(  47) = (   5.2763189   4.4711207   6.0039473  )
        48           N1  tau(  48) = (   6.5581919   2.6818180  17.9522317  )
        49           C1  tau(  49) = (   0.8503426   2.5546117  18.8965076  )
        50           H1  tau(  50) = (   0.6793733   2.9585088  19.8916666  )
        51           H1  tau(  51) = (   1.7584391   2.0155774  18.6961775  )
        52           H1  tau(  52) = (   5.7198555   3.1867788  18.2393814  )

     number of k points=    10  Fermi-Dirac smearing, width (Ry)=  0.0073
                       cart. coord. in units 2pi/alat
        k(    1) = (   0.0000000   0.0000000   0.0000000), wk =   0.1250000
        k(    2) = (   0.0000000   0.0419351   0.0000000), wk =   0.2500000
        k(    3) = (   0.0000000  -0.0838702   0.0000000), wk =   0.1250000
        k(    4) = (   0.0379955   0.0000049   0.0000000), wk =   0.2500000
        k(    5) = (   0.0379955   0.0419400   0.0000000), wk =   0.2500000
        k(    6) = (   0.0379955  -0.0838652   0.0000000), wk =   0.2500000
        k(    7) = (   0.0379955  -0.0419301   0.0000000), wk =   0.2500000
        k(    8) = (  -0.0759910  -0.0000099   0.0000000), wk =   0.1250000
        k(    9) = (  -0.0759910   0.0419252   0.0000000), wk =   0.2500000
        k(   10) = (  -0.0759910  -0.0838800   0.0000000), wk =   0.1250000

     Initial potential from superposition of free atoms

     starting charge  373.99917, renormalised to  390.00000

     negative rho (up, down):  1.699E-02 0.000E+00

     %%%%%%%%%%%%%%%%%%%%%%%%%%%%%%%%%%%%%%%%%%%%%%%%%%%%%%%%%%%%%%%%%%%%%%%%
     %                                                                      %
     % You are using vdW-DF, which was implemented by the Thonhauser group. %
     % Please cite the following two papers that made this development      %
     % possible and the two reviews that describe the various versions:     %
     %                                                                      %
     %   T. Thonhauser et al., PRL 115, 136402 (2015).                      %
     %   T. Thonhauser et al., PRB 76, 125112 (2007).                       %
     %   K. Berland et al., Rep. Prog. Phys. 78, 066501 (2015).             %
     %   D.C. Langreth et al., J. Phys.: Condens. Matter 21, 084203 (2009). %
     %                                                                      %
     %                                                                      %
     % If you are calculating the stress with vdW-DF, please also cite:     %
     %                                                                      %
     %   R. Sabatini et al., J. Phys.: Condens. Matter 24, 424209 (2012).   %
     %                                                                      %
     %%%%%%%%%%%%%%%%%%%%%%%%%%%%%%%%%%%%%%%%%%%%%%%%%%%%%%%%%%%%%%%%%%%%%%%%

     Adding external electric field

     Computed dipole along edir(3) :
        Dipole               -6.0480 Ry au,        -15.3725 Debye
        Dipole field         -0.0114 Ry au,

        Potential amp.        1.0580 Ry
        Total length         46.3494 bohr

     Starting wfcs are  295 atomic wfcs
  @ DRIVER MODE: Message from server: STATUS
  @ DRIVER MODE: Message from server: POSDATA
  @ DRIVER MODE: Reading and sharing cell
  @ DRIVER MODE: Reading and sharing positions
  @ DRIVER MODE: Received positions

     Self-consistent Calculation

     iteration #  1     ecut=    29.40 Ry     beta= 0.05
     Davidson diagonalization with overlap
     c_bands:  1 eigenvalues not converged
     c_bands:  1 eigenvalues not converged
     ethr =  1.00E-05,  avg # of iterations = 16.8

[...]

     total energy              =   -2758.77403349 Ry
     estimated scf accuracy    <    1760.50877950 Ry

     iteration #  2     ecut=    29.40 Ry     beta= 0.05
     Davidson diagonalization with overlap
     ethr =  1.00E-02,  avg # of iterations = 18.3

[...]

     iteration # 48     ecut=    29.40 Ry     beta= 0.05
     Davidson diagonalization with overlap
     c_bands:  1 eigenvalues not converged
     ethr =  1.68E-07,  avg # of iterations = 12.3

[...]

     total energy              =   -2919.11563778 Ry
     estimated scf accuracy    <       0.00000010 Ry

     iteration # 67     ecut=    29.40 Ry     beta= 0.05
     Davidson diagonalization with overlap
     ethr =  2.48E-11,  avg # of iterations =  7.9

     negative rho (up, down):  1.721E-02 0.000E+00

     Adding external electric field

     Computed dipole along edir(3) :
        Dipole                1.2515 Ry au,          3.1810 Debye
        Dipole field          0.0024 Ry au,

        Potential amp.       -0.2189 Ry
        Total length         46.3494 bohr

     End of self-consistent calculation

          k = 0.0000 0.0000 0.0000 ( 18029 PWs)   bands (ev):

   -55.5532 -55.5165 -55.5147 -55.4806 -55.4450 -55.4284 -55.3909 -55.3687
   -55.3681 -55.3432 -55.3336 -55.3162 -55.3098 -55.1329 -54.5355 -54.5014
   -32.1197 -32.0057 -31.9158 -31.8742 -31.8677 -31.8573 -31.8470 -31.8392
   -31.8044 -31.7925 -31.7613 -31.7596 -31.7592 -31.7241 -31.7064 -31.6884
   -31.6824 -31.6749 -31.6691 -31.6651 -31.6271 -31.6236 -31.6085 -31.5983
   -31.5718 -31.5701 -31.5659 -31.5600 -31.5553 -31.5485 -31.5392 -31.5311
   -31.5214 -31.5176 -31.5170 -31.4892 -31.4824 -31.4718 -31.4714 -31.4530
   -31.3570 -31.2739 -30.9444 -30.8512 -30.8291 -30.7609 -30.6742 -30.5632
   -16.4728 -16.3430 -16.0808 -15.9005 -15.8009 -15.7416 -15.6051 -15.5273
   -15.4512 -15.3491 -15.2586 -15.1918 -15.1743 -15.1526 -15.1486 -15.0899
   -15.0864 -15.0576 -15.0447 -15.0431 -14.9880 -14.9814 -14.9497 -14.9374
   -14.9267 -14.8507 -14.7698 -14.7014 -14.6412 -14.2073 -13.0381 -12.9208
    -9.3178  -6.2134  -4.6992  -3.7072  -3.5541  -3.4597  -3.4489  -3.4250
    -3.2783  -3.1399  -2.9326  -2.8510  -2.8065  -2.7570  -2.7297  -2.7116
    -2.6113  -2.5271  -2.4487  -2.4059  -2.3798  -2.3636  -2.3570  -2.3316
    -2.3178  -2.2862  -2.2447  -2.1948  -2.0990  -2.0129  -1.9691  -1.9372
    -1.8801  -1.8660  -1.8415  -1.8364  -1.8299  -1.8053  -1.7684  -1.7568
    -1.7118  -1.5659  -1.5570  -1.4416  -1.4009  -1.2851  -1.1877  -1.1864
    -1.1000  -1.0966  -1.0288  -0.9695  -0.9418  -0.9361  -0.8854  -0.8329
    -0.7473  -0.6529  -0.5912  -0.5492  -0.5146  -0.4853  -0.4162  -0.3285
    -0.3226  -0.3127  -0.2056  -0.1299  -0.1086  -0.0539  -0.0235   0.0196
     0.0355   0.1467   0.1907   0.2302   0.2498   0.3292   0.3491   0.4044
     0.4099   0.4447   0.4547   0.5237   0.5673   0.5866   0.6407   0.6557
     0.8146   1.0660   1.0748   1.1257   1.3961   1.4266   1.4870   1.6720
     2.0625   2.1102   3.5467   3.6192   3.6841   3.6969   3.7396   3.7835
     3.9473   4.0315   4.0478   4.0521   4.0836

[...]

          k = 0.0380-0.0419 0.0000 ( 17876 PWs)   bands (ev):

[...]

          k =-0.0760-0.0000 0.0000 ( 17886 PWs)   bands (ev):

[...]

          k =-0.0760-0.0839 0.0000 ( 17948 PWs)   bands (ev):

   -55.5385 -55.5310 -55.4977 -55.4976 -55.4409 -55.4172 -55.4020 -55.3726
   -55.3519 -55.3492 -55.3270 -55.3263 -55.3145 -55.1345 -54.5184 -54.5184
   -31.9261 -31.9211 -31.8365 -31.8208 -31.8207 -31.8123 -31.7898 -31.7898
   -31.7622 -31.7590 -31.7524 -31.7506 -31.7453 -31.7069 -31.6855 -31.6822
   -31.6781 -31.6738 -31.6698 -31.6651 -31.6606 -31.6409 -31.6271 -31.6267
   -31.6171 -31.6171 -31.6143 -31.5973 -31.5847 -31.5817 -31.5710 -31.5653
   -31.5625 -31.5586 -31.5517 -31.5513 -31.5149 -31.5064 -31.5054 -31.4893
   -31.3615 -31.3554 -30.8418 -30.8418 -30.7570 -30.7569 -30.7176 -30.7176
   -16.4411 -15.7867 -15.7502 -15.7373 -15.5340 -15.5253 -15.5174 -15.4994
   -15.3386 -15.3235 -15.2973 -15.2825 -15.2512 -15.2473 -15.2147 -15.1818
   -15.1317 -15.1272 -15.1189 -15.1165 -15.0571 -15.0529 -15.0326 -15.0040
   -15.0020 -14.9959 -14.9012 -14.8992 -14.7224 -14.5265 -13.0224 -13.0223
    -9.3222  -6.2092  -4.6816  -3.0619  -3.0006  -2.9391  -2.7432  -2.7397
    -2.7091  -2.6256  -2.5562  -2.5347  -2.5188  -2.4874  -2.4729  -2.4395
    -2.3949  -2.3841  -2.3742  -2.3641  -2.3463  -2.3312  -2.3049  -2.2694
    -2.2606  -2.2272  -2.2139  -2.1905  -2.1891  -2.1522  -2.1292  -2.1138
    -2.1026  -2.0321  -1.9374  -1.8876  -1.7992  -1.7680  -1.7466  -1.7405
    -1.6544  -1.6313  -1.6030  -1.5630  -1.5486  -1.5132  -1.3130  -1.2847
    -1.2737  -1.2592  -1.2339  -1.0874  -1.0766  -1.0274  -0.9963  -0.9444
    -0.8896  -0.8555  -0.8365  -0.7563  -0.7278  -0.6812  -0.6433  -0.5196
    -0.5169  -0.5104  -0.5093  -0.4889  -0.4044  -0.3922  -0.3496  -0.3166
    -0.2755  -0.2611  -0.1952  -0.0139   0.0047   0.0707   0.1763   0.2745
     0.3669   0.4448   0.4666   0.5165   0.5601   0.5778   0.6579   0.7498
     0.7617   0.8337   0.8775   0.9170   0.9212   0.9269   1.8449   1.8455
     1.9301   1.9303   3.6695   3.7953   3.8160   3.8525   3.8714   4.0218
     4.0664   4.1054   4.1266   4.1288   4.2063

     the Fermi energy is     3.6020 ev

!    total energy              =   -2919.11566343 Ry
     estimated scf accuracy    <       0.00000003 Ry
     smearing contrib. (-TS)   =      -0.03730514 Ry
     internal energy E=F+TS    =   -2919.07835829 Ry

     The total energy is F=E-TS. E is the sum of the following terms:
     one-electron contribution =  -24307.00180545 Ry
     hartree contribution      =   12240.84464708 Ry
     xc contribution           =    -480.01003852 Ry
     ewald contribution        =    9627.08588288 Ry
     electric field correction =       0.00295571 Ry

     convergence has been achieved in  67 iterations

     Forces acting on atoms (cartesian axes, Ry/au):

     atom    1 type  1   force =     0.00004797   -0.00015359    0.09379831
     atom    2 type  1   force =    -0.00018197   -0.00018557   -0.17778785
     atom    3 type  2   force =     0.00002533   -0.00021836   -0.02111823
     atom    4 type  2   force =    -0.00001632   -0.00198748    0.05775184
     atom    5 type  2   force =    -0.01107877   -0.00164609    0.00749653
     atom    6 type  2   force =     0.01243901   -0.00097842    0.00637937
     atom    7 type  1   force =    -0.00048009    0.00246577   -0.01334199
     atom    8 type  1   force =     0.00030248    0.00294055    0.00275923
     atom    9 type  2   force =     0.00007405   -0.00008570    0.00012881
     atom   10 type  2   force =    -0.00176347   -0.00226834   -0.00370743
     atom   11 type  2   force =     0.00017829    0.00059788   -0.00031663
     atom   12 type  2   force =     0.00043144    0.00053349   -0.00013528
     atom   13 type  1   force =    -0.00072256   -0.00095649   -0.00016683
     atom   14 type  1   force =     0.00083192    0.00027062   -0.00046171
     atom   15 type  2   force =     0.00024752    0.00016353   -0.00027496
     atom   16 type  2   force =    -0.00008231    0.00034441   -0.00069657
     atom   17 type  2   force =    -0.00018788    0.00004177    0.00011574
     atom   18 type  2   force =     0.00074839   -0.00007046    0.00006143
     atom   19 type  1   force =     0.00025728   -0.00089443    0.00060992
     atom   20 type  1   force =    -0.00016901    0.00109407    0.00149717
     atom   21 type  2   force =     0.00004395   -0.00002327    0.10383245
     atom   22 type  2   force =     0.00004183   -0.00072107   -0.00032862
     atom   23 type  2   force =    -0.07059060   -0.00014273   -0.02706422
     atom   24 type  2   force =     0.07047043    0.00032154   -0.02710958
     atom   25 type  1   force =     0.00008431   -0.00018663    0.09359090
     atom   26 type  1   force =    -0.00009208   -0.00027199   -0.17783304
     atom   27 type  2   force =     0.00008324   -0.00045559   -0.02014973
     atom   28 type  2   force =     0.00002627   -0.00169242    0.05724254
     atom   29 type  2   force =    -0.01117120   -0.00114591    0.00695799
     atom   30 type  2   force =     0.01242004   -0.00080436    0.00582168
     atom   31 type  1   force =    -0.00038901    0.00467738   -0.01442219
     atom   32 type  1   force =     0.00037181   -0.00362075    0.00246523
     atom   33 type  2   force =    -0.00000435    0.00058123    0.00039219
     atom   34 type  2   force =    -0.00117861   -0.00059528   -0.00109132
     atom   35 type  2   force =     0.00041022    0.00025519    0.00017446
     atom   36 type  2   force =     0.00012150    0.00032665    0.00014347
     atom   37 type  1   force =    -0.00053130    0.00131894    0.00021079
     atom   38 type  1   force =     0.00087345    0.00007004   -0.00082853
     atom   39 type  2   force =     0.00012758    0.00043768   -0.00001896
     atom   40 type  2   force =     0.00017561    0.00019786   -0.00061125
     atom   41 type  2   force =     0.00003163    0.00013161   -0.00083696
     atom   42 type  2   force =     0.00015175    0.00012799   -0.00090905
     atom   43 type  1   force =     0.00000782    0.00100736    0.00031224
     atom   44 type  1   force =    -0.00012767    0.00005305   -0.00002034
     atom   45 type  2   force =     0.00004464   -0.00003984    0.10380412
     atom   46 type  2   force =    -0.07060643   -0.00007262   -0.02705728
     atom   47 type  2   force =     0.07047965    0.00034489   -0.02708625
     atom   48 type  3   force =     0.00977113   -0.00286979    0.00504957
     atom   49 type  4   force =    -0.02452688    0.00846935   -0.00473427
     atom   50 type  5   force =     0.00232776    0.00020416   -0.00129750
     atom   51 type  5   force =     0.00903774   -0.00470383   -0.00163834
     atom   52 type  5   force =     0.00121445   -0.00018597    0.00044895

     Total force =     0.367189     Total SCF correction =     0.000511
  @ DRIVER MODE: Message from server: STATUS
  @ DRIVER MODE: Message from server: GETFORCE
  @ DRIVER MODE: Returning v,forces,stress,ensemble

     Writing output data file ./calc.save/
  @ DRIVER MODE: Message from server: EXIT
  @ DRIVE MODE: Exiting

     General routines

     Parallel routines

   This run was terminated on:   0:25:46   9Sep2021

   JOB DONE.