     Program PWSCF v.6.7GPU starts on 16Sep2021 at  7:38:33

     R & G space division:  proc/nbgrp/npool/nimage =      10
     Reading input from /storage/home/hcoda1/3/ntian30/research/carbon/CxH_vib/H2O_calc/ads_slab/CH2NHNH2O_a/out_0051/pw.inp
Warning: card &CELL ignored
Warning: card   CELL_DYNAMICS='IPI', ignored
Warning: card / ignored

     Current dimensions of program PWSCF are:
     Max number of different atomic species (ntypx) = 10
     Max number of k-points (npk) =  40000
     Max angular momentum in pseudopotentials (lmaxx) =  3
     Presently no symmetry can be used with electric field

     Message from routine cell_base_init:
     DEPRECATED: use true lattice parameter, not A to a.u. conversion factor

     IMPORTANT: XC functional enforced from input :
     Exchange-correlation= BEEF-VDW
                           (   1   4  43  14   2   0   0)
     Any further DFT definition will be discarded
     Please, verify this is what you really want

  @ DRIVER MODE: Connecting to
 qe_1139763_2852610.sched-torque.pace.gatech.edululc5z46_scratch
  using UNIX socket
  @ DRIVER MODE: Message from server: STATUS
  @ DRIVER MODE: Message from server: INIT
  @ DRIVER MODE: Receiving replica           0          -1
  @ DRIVER MODE: Receiving encoded integer          25
  @ DRIVER MODE:  SCF:  T  FORCE:  T  STRESS:  F  VC:  F  ENSEMBLE:  F
  @ DRIVER MODE:  SCF:  T  FORCE:  T  STRESS:  F  VC:  F  ENSEMBLE:  F

     Using Slab Decomposition

     bravais-lattice index     =            0
     lattice parameter (alat)  =       1.8897  a.u.
     unit-cell volume          =    6658.9804 (a.u.)^3
     number of atoms/cell      =           56
     number of atomic types    =            5
     number of electrons       =       403.00
     number of Kohn-Sham states=          211
     kinetic-energy cutoff     =      29.3995  Ry
     charge density cutoff     =     293.9946  Ry
     scf convergence threshold =      7.3E-08
     mixing beta               =       0.0500
     number of iterations used =            8  plain     mixing
     Exchange-correlation= BEEF-VDW
                           (   1   4  43  14   2   0   0)

     celldm(1)=   1.889726  celldm(2)=   0.000000  celldm(3)=   0.000000
     celldm(4)=   0.000000  celldm(5)=   0.000000  celldm(6)=   0.000000

     crystal axes: (cart. coord. in units of alat)
               a(1) = (   6.579727   0.000000   0.000000 )
               a(2) = (  -0.000775   5.961596   0.000000 )
               a(3) = (   0.000000   0.000000  25.155947 )

     reciprocal axes: (cart. coord. in units 2 pi/alat)
               b(1) = (  0.151982  0.000020  0.000000 )
               b(2) = (  0.000000  0.167740  0.000000 )
               b(3) = (  0.000000  0.000000  0.039752 )

     PseudoPot. # 1 for Ti read from file:
     /storage/coda1/p-amedford6/0/shared/rich_project_chbe-medford/medford-share/data/pseudos_module/espresso/nninc/pbe/van/Ti.UPF
     MD5 check sum: 8e4df49b7f0d34bbd5052bf3f5ea0213
     Pseudo is Ultrasoft, Zval = 12.0
     Generated by new atomic code, or converted to UPF format
     Using radial grid of  851 points,  6 beta functions with:
                l(1) =   0
                l(2) =   0
                l(3) =   1
                l(4) =   1
                l(5) =   2
                l(6) =   2
     Q(r) pseudized with  8 coefficients,  rinner =    1.000   1.000   1.000
                                                       1.000   1.000

     PseudoPot. # 2 for O  read from file:
     /storage/coda1/p-amedford6/0/shared/rich_project_chbe-medford/medford-share/data/pseudos_module/espresso/nninc/pbe/van/O.UPF
     MD5 check sum: 78c19812648e8988a0fe644b0f25305e
     Pseudo is Ultrasoft, Zval =  6.0
     Generated by new atomic code, or converted to UPF format
     Using radial grid of  737 points,  4 beta functions with:
                l(1) =   0
                l(2) =   0
                l(3) =   1
                l(4) =   1
     Q(r) pseudized with  8 coefficients,  rinner =    0.800   0.800   0.800

     PseudoPot. # 3 for H  read from file:
     /storage/coda1/p-amedford6/0/shared/rich_project_chbe-medford/medford-share/data/pseudos_module/espresso/nninc/pbe/van/H.UPF
     MD5 check sum: b5ee9d7bfd3a09ee7748110bda690ff7
     Pseudo is Ultrasoft, Zval =  1.0
     Generated by new atomic code, or converted to UPF format
     Using radial grid of  615 points,  1 beta functions with:
                l(1) =   0
     Q(r) pseudized with  8 coefficients,  rinner =    0.800

     PseudoPot. # 4 for N  read from file:
     /storage/coda1/p-amedford6/0/shared/rich_project_chbe-medford/medford-share/data/pseudos_module/espresso/nninc/pbe/van/N.UPF
     MD5 check sum: 90d10febe142ad51ac9d5be1deb811c4
     Pseudo is Ultrasoft, Zval =  5.0
     Generated by new atomic code, or converted to UPF format
     Using radial grid of  729 points,  4 beta functions with:
                l(1) =   0
                l(2) =   0
                l(3) =   1
                l(4) =   1
     Q(r) pseudized with  8 coefficients,  rinner =    0.800   0.800   0.800

     PseudoPot. # 5 for C  read from file:
     /storage/coda1/p-amedford6/0/shared/rich_project_chbe-medford/medford-share/data/pseudos_module/espresso/nninc/pbe/van/C.UPF
     MD5 check sum: 1a69bf6b8db32088f5b2163dbdb77a27
     Pseudo is Ultrasoft, Zval =  4.0
     Generated by new atomic code, or converted to UPF format
     Using radial grid of  721 points,  4 beta functions with:
                l(1) =   0
                l(2) =   0
                l(3) =   1
                l(4) =   1
     Q(r) pseudized with  8 coefficients,  rinner =    0.800   0.800   0.800

     atomic species   valence    mass     pseudopotential
        Ti1           12.00    47.86700     Ti( 1.00)
        O1             6.00    15.99900     O ( 1.00)
        H1             1.00     1.00800     H ( 1.00)
        N1             5.00    14.00700     N ( 1.00)
        C1             4.00    12.01100     C ( 1.00)

     No symmetry found

   Cartesian axes

     site n.     atom                  positions (alat units)
         1           Ti1 tau(   1) = (   0.0004258   2.9801865   6.0000000  )
         2           Ti1 tau(   2) = (   3.2906075   1.4906267   6.0002472  )
         3           O1  tau(   3) = (   0.0006271   0.0005054   7.9858123  )
         4           O1  tau(   4) = (   3.2906025   0.0005020   7.3038282  )
         5           O1  tau(   5) = (   4.5942328   1.4918067   9.2879030  )
         6           O1  tau(   6) = (   1.9868534   1.4903216   9.2879459  )
         7           Ti1 tau(   7) = (   3.2907910   2.8959150   9.1758416  )
         8           Ti1 tau(   8) = (   0.0015273   1.4827037   9.2680791  )
         9           O1  tau(   9) = (   3.2960012   0.0062018  11.3595187  )
        10           O1  tau(  10) = (   0.0116148   5.9584955  10.6183126  )
        11           O1  tau(  11) = (   1.2731109   1.5057875  12.6314550  )
        12           O1  tau(  12) = (   5.2959999   1.4755877  12.6679080  )
        13           Ti1 tau(  13) = (   0.0553992   2.9538365  12.5526742  )
        14           Ti1 tau(  14) = (   3.3268292   1.5427496  12.5634199  )
        15           O1  tau(  15) = (   0.1371361   5.9015051  14.6217027  )
        16           O1  tau(  16) = (   3.1880369   0.0098958  13.9252199  )
        17           O1  tau(  17) = (   4.6462182   1.4014471  15.8552565  )
        18           O1  tau(  18) = (   2.0822703   1.5558083  16.1249119  )
        19           Ti1 tau(  19) = (   3.3548958   3.0525267  15.8597497  )
        20           Ti1 tau(  20) = (   0.0948755   1.3182250  15.7908873  )
        21           O1  tau(  21) = (   3.2904802   0.0005063   4.7018136  )
        22           O1  tau(  22) = (   0.0722171   0.0319689  17.1393915  )
        23           O1  tau(  23) = (   1.3043587   1.4918075   6.0039043  )
        24           O1  tau(  24) = (   5.2767064   1.4903225   6.0039473  )
        25           Ti1 tau(  25) = (   0.0000382   5.9609847   6.0000000  )
        26           Ti1 tau(  26) = (   3.2902200   4.4714249   6.0002472  )
        27           O1  tau(  27) = (   0.0002396   2.9813036   7.9858123  )
        28           O1  tau(  28) = (   3.2902150   2.9813002   7.3038282  )
        29           O1  tau(  29) = (   4.5938453   4.4726049   9.2879030  )
        30           O1  tau(  30) = (   1.9864658   4.4711199   9.2879459  )
        31           Ti1 tau(  31) = (   3.2891106   5.8743827   9.1763621  )
        32           Ti1 tau(  32) = (   0.0006254   4.4649316   9.2693709  )
        33           O1  tau(  33) = (   3.2982667   2.9897935  11.3544942  )
        34           O1  tau(  34) = (   0.0092240   2.9805883  10.6323155  )
        35           O1  tau(  35) = (   1.2737041   4.4504026  12.6113924  )
        36           O1  tau(  36) = (   5.2903739   4.4874249  12.6576873  )
        37           Ti1 tau(  37) = (   6.5697415   5.9260651  12.4959683  )
        38           Ti1 tau(  38) = (   3.3125242   4.5024033  12.5372123  )
        39           O1  tau(  39) = (   0.0674008   2.9793056  14.8363759  )
        40           O1  tau(  40) = (   3.2999477   2.9756493  13.9369993  )
        41           O1  tau(  41) = (   4.6108370   4.5787535  15.7719701  )
        42           O1  tau(  42) = (   2.0428421   4.3627697  16.1441833  )
        43           Ti1 tau(  43) = (   3.3552955   0.0804576  15.7648105  )
        44           Ti1 tau(  44) = (   6.5672415   4.5273692  15.9765751  )
        45           O1  tau(  45) = (   3.2900926   2.9813045   4.7018136  )
        46           O1  tau(  46) = (   1.3039711   4.4726057   6.0039043  )
        47           O1  tau(  47) = (   5.2763189   4.4711207   6.0039473  )
        48           H1  tau(  48) = (   4.1035413   2.4672077  18.5646977  )
        49           N1  tau(  49) = (   5.6961598   3.2907635  17.7856741  )
        50           C1  tau(  50) = (   6.4968133   2.7471819  18.6454045  )
        51           H1  tau(  51) = (   6.1325458   2.1374441  19.4677963  )
        52           H1  tau(  52) = (   0.9799315   2.9096255  18.5325614  )
        53           N1  tau(  53) = (   4.3409097   3.1788467  17.8642182  )
        54           O1  tau(  54) = (   3.3174094   5.8609012  18.0981057  )
        55           H1  tau(  55) = (   3.6736973   4.9388346  18.2201127  )
        56           H1  tau(  56) = (   2.3597147   5.7872335  18.2603650  )

     number of k points=    10  Fermi-Dirac smearing, width (Ry)=  0.0073
                       cart. coord. in units 2pi/alat
        k(    1) = (   0.0000000   0.0000000   0.0000000), wk =   0.1250000
        k(    2) = (   0.0000000   0.0419351   0.0000000), wk =   0.2500000
        k(    3) = (   0.0000000  -0.0838702   0.0000000), wk =   0.1250000
        k(    4) = (   0.0379955   0.0000049   0.0000000), wk =   0.2500000
        k(    5) = (   0.0379955   0.0419400   0.0000000), wk =   0.2500000
        k(    6) = (   0.0379955  -0.0838652   0.0000000), wk =   0.2500000
        k(    7) = (   0.0379955  -0.0419301   0.0000000), wk =   0.2500000
        k(    8) = (  -0.0759910  -0.0000099   0.0000000), wk =   0.1250000
        k(    9) = (  -0.0759910   0.0419252   0.0000000), wk =   0.2500000
        k(   10) = (  -0.0759910  -0.0838800   0.0000000), wk =   0.1250000

     Initial potential from superposition of free atoms

     starting charge  386.99914, renormalised to  403.00000

     negative rho (up, down):  1.703E-02 0.000E+00

     %%%%%%%%%%%%%%%%%%%%%%%%%%%%%%%%%%%%%%%%%%%%%%%%%%%%%%%%%%%%%%%%%%%%%%%%
     %                                                                      %
     % You are using vdW-DF, which was implemented by the Thonhauser group. %
     % Please cite the following two papers that made this development      %
     % possible and the two reviews that describe the various versions:     %
     %                                                                      %
     %   T. Thonhauser et al., PRL 115, 136402 (2015).                      %
     %   T. Thonhauser et al., PRB 76, 125112 (2007).                       %
     %   K. Berland et al., Rep. Prog. Phys. 78, 066501 (2015).             %
     %   D.C. Langreth et al., J. Phys.: Condens. Matter 21, 084203 (2009). %
     %                                                                      %
     %                                                                      %
     % If you are calculating the stress with vdW-DF, please also cite:     %
     %                                                                      %
     %   R. Sabatini et al., J. Phys.: Condens. Matter 24, 424209 (2012).   %
     %                                                                      %
     %%%%%%%%%%%%%%%%%%%%%%%%%%%%%%%%%%%%%%%%%%%%%%%%%%%%%%%%%%%%%%%%%%%%%%%%

     Adding external electric field

     Computed dipole along edir(3) :
        Dipole              -12.3736 Ry au,        -31.4507 Debye
        Dipole field         -0.0234 Ry au,

        Potential amp.        2.1646 Ry
        Total length         46.3494 bohr

     Starting wfcs are  305 atomic wfcs
  @ DRIVER MODE: Message from server: STATUS
  @ DRIVER MODE: Message from server: POSDATA
  @ DRIVER MODE: Reading and sharing cell
  @ DRIVER MODE: Reading and sharing positions
  @ DRIVER MODE: Received positions

     Self-consistent Calculation

     iteration #  1     ecut=    29.40 Ry     beta= 0.05
     Davidson diagonalization with overlap
     c_bands:  4 eigenvalues not converged
     c_bands:  3 eigenvalues not converged
     c_bands:  3 eigenvalues not converged
     c_bands:  1 eigenvalues not converged
     c_bands:  1 eigenvalues not converged
     c_bands:  4 eigenvalues not converged
     c_bands:  3 eigenvalues not converged
     ethr =  1.00E-05,  avg # of iterations = 27.4

[...]

     total energy              =   -2355.29698017 Ry
     estimated scf accuracy    <    7011.04433502 Ry

     iteration #  2     ecut=    29.40 Ry     beta= 0.05
     Davidson diagonalization with overlap
     ethr =  1.00E-02,  avg # of iterations = 26.0

[...]

     iteration # 47     ecut=    29.40 Ry     beta= 0.05
     Davidson diagonalization with overlap
     c_bands:  1 eigenvalues not converged
     ethr =  1.28E-07,  avg # of iterations = 13.4

[...]

     total energy              =   -2973.97649530 Ry
     estimated scf accuracy    <       0.00000014 Ry

     iteration # 65     ecut=    29.40 Ry     beta= 0.05
     Davidson diagonalization with overlap
     ethr =  3.13E-11,  avg # of iterations =  4.3

     negative rho (up, down):  1.700E-02 0.000E+00

     Adding external electric field

     Computed dipole along edir(3) :
        Dipole                0.9070 Ry au,          2.3055 Debye
        Dipole field          0.0017 Ry au,

        Potential amp.       -0.1587 Ry
        Total length         46.3494 bohr

     End of self-consistent calculation

          k = 0.0000 0.0000 0.0000 ( 18029 PWs)   bands (ev):

   -55.6372 -55.6031 -55.5188 -55.4830 -55.4767 -55.4637 -55.4419 -55.4298
   -55.4248 -55.4073 -55.3907 -55.3900 -55.3564 -55.2390 -54.6233 -54.5892
   -32.1229 -32.0247 -31.9713 -31.9657 -31.9578 -31.9284 -31.9146 -31.8963
   -31.8829 -31.7898 -31.7837 -31.7778 -31.7501 -31.7447 -31.7396 -31.7051
   -31.6946 -31.6815 -31.6764 -31.6686 -31.6619 -31.6602 -31.6445 -31.6415
   -31.6354 -31.6256 -31.6234 -31.6190 -31.6134 -31.6077 -31.6026 -31.5934
   -31.5835 -31.5811 -31.5807 -31.5786 -31.5729 -31.5376 -31.5294 -31.5140
   -31.4398 -31.3676 -31.0303 -30.9417 -30.9194 -30.8472 -30.7607 -30.6495
   -18.4442 -17.7389 -16.3005 -16.1099 -15.8846 -15.7827 -15.7428 -15.5695
   -15.4390 -15.3962 -15.2697 -15.2043 -15.1803 -15.1616 -15.1478 -15.1154
   -15.0919 -15.0681 -15.0662 -15.0470 -15.0224 -14.9996 -14.9718 -14.9539
   -14.9116 -14.7861 -14.7782 -14.7666 -14.7287 -14.6913 -14.2922 -13.1235
   -13.0069 -12.3736  -7.9258  -6.1802  -5.4258  -4.8388  -3.6718  -3.5799
    -3.5473  -3.5242  -3.4490  -3.3318  -3.2307  -3.0364  -2.9288  -2.8982
    -2.8809  -2.7889  -2.7083  -2.6670  -2.5635  -2.5312  -2.5210  -2.4765
    -2.4214  -2.4067  -2.3768  -2.3637  -2.3277  -2.1944  -2.1753  -2.1373
    -2.0255  -2.0091  -2.0011  -1.9589  -1.9549  -1.9247  -1.9142  -1.8964
    -1.8797  -1.8683  -1.8007  -1.7185  -1.6872  -1.6370  -1.5822  -1.5786
    -1.2748  -1.2579  -1.1909  -1.1591  -1.0885  -1.0550  -1.0406  -1.0260
    -0.9945  -0.8942  -0.8048  -0.7858  -0.7226  -0.6615  -0.5626  -0.5477
    -0.4471  -0.3981  -0.3925  -0.3794  -0.3474  -0.2890  -0.2317  -0.1754
    -0.1253  -0.0427   0.0117   0.0205   0.0624   0.1063   0.1359   0.1941
     0.2566   0.2839   0.3170   0.3323   0.3735   0.4337   0.4552   0.4678
     0.5463   0.5866   0.6117   0.7097   0.7189   0.7579   0.8295   1.0144
     1.0598   1.1992   1.3380   1.4014   1.4670   1.5934   1.8691   1.9715
     2.0176   3.4528   3.5868   3.6077   3.6433   3.7150   3.7614   3.9345
     4.0302   4.0521   4.1138

[...]

          k = 0.0380-0.0419 0.0000 ( 17876 PWs)   bands (ev):

[...]

          k =-0.0760-0.0000 0.0000 ( 17886 PWs)   bands (ev):

[...]

          k =-0.0760-0.0839 0.0000 ( 17948 PWs)   bands (ev):

   -55.6201 -55.6200 -55.5040 -55.4974 -55.4614 -55.4575 -55.4467 -55.4463
   -55.4107 -55.4050 -55.4049 -55.3741 -55.3726 -55.2408 -54.6063 -54.6060
   -31.9382 -31.9381 -31.9139 -31.9139 -31.8837 -31.8479 -31.8191 -31.8005
   -31.7899 -31.7748 -31.7656 -31.7532 -31.7489 -31.7400 -31.7396 -31.7324
   -31.7319 -31.7197 -31.7169 -31.7102 -31.6841 -31.6818 -31.6766 -31.6706
   -31.6560 -31.6536 -31.6527 -31.6390 -31.6333 -31.6312 -31.6277 -31.6275
   -31.6236 -31.6207 -31.6203 -31.6157 -31.6142 -31.6028 -31.5875 -31.5368
   -31.4498 -31.4467 -30.9322 -30.9320 -30.8432 -30.8429 -30.8041 -30.8039
   -18.4369 -17.7393 -15.8512 -15.6075 -15.5938 -15.5573 -15.5384 -15.4192
   -15.3741 -15.3701 -15.3492 -15.2941 -15.2581 -15.2215 -15.1901 -15.1723
   -15.1489 -15.1378 -15.0965 -15.0930 -15.0859 -15.0640 -15.0227 -15.0120
   -14.9876 -14.9672 -14.9627 -14.9503 -14.9178 -14.7498 -14.6402 -13.1087
   -13.1086 -12.3895  -7.8857  -6.1654  -5.4846  -4.7604  -3.1468  -3.0702
    -3.0291  -2.8005  -2.7568  -2.7415  -2.7019  -2.6421  -2.5889  -2.5719
    -2.5532  -2.5256  -2.5157  -2.4626  -2.4368  -2.4109  -2.3865  -2.3702
    -2.3611  -2.3477  -2.3216  -2.3023  -2.2806  -2.2700  -2.2468  -2.2360
    -2.2140  -2.2059  -2.1917  -2.1695  -2.0811  -1.9987  -1.8976  -1.8380
    -1.7945  -1.7940  -1.7636  -1.7349  -1.7069  -1.7020  -1.6628  -1.6336
    -1.5628  -1.5031  -1.3195  -1.3057  -1.2611  -1.1767  -1.1755  -1.1282
    -1.1192  -1.0677  -1.0405  -0.9937  -0.9443  -0.9116  -0.8234  -0.6700
    -0.6215  -0.6015  -0.5956  -0.5803  -0.5396  -0.5252  -0.4731  -0.4557
    -0.4390  -0.3737  -0.3423  -0.3384  -0.2878  -0.2696  -0.1571  -0.0599
    -0.0320   0.0221   0.0615   0.1810   0.2932   0.3624   0.4638   0.4780
     0.4967   0.5503   0.6585   0.6682   0.7134   0.7753   0.8409   0.8467
     0.8770   0.9410   0.9531   0.9899   1.7643   1.7659   1.8179   1.8376
     1.8378   3.8614   3.9022   3.9527   3.9588   3.9827   4.0329   4.0403
     4.0707   4.1211   4.1368

     the Fermi energy is     3.4852 ev

!    total energy              =   -2973.97652821 Ry
     estimated scf accuracy    <       0.00000007 Ry
     smearing contrib. (-TS)   =      -0.01978271 Ry
     internal energy E=F+TS    =   -2973.95674550 Ry

     The total energy is F=E-TS. E is the sum of the following terms:
     one-electron contribution =  -24367.66516703 Ry
     hartree contribution      =   12278.39070905 Ry
     xc contribution           =    -494.13125688 Ry
     ewald contribution        =    9609.44741676 Ry
     electric field correction =       0.00155260 Ry

     convergence has been achieved in  65 iterations

     Forces acting on atoms (cartesian axes, Ry/au):

     atom    1 type  1   force =     0.00016013   -0.00030975    0.09439231
     atom    2 type  1   force =    -0.00007556   -0.00076806   -0.17590259
     atom    3 type  2   force =     0.00005816   -0.00019299   -0.02181770
     atom    4 type  2   force =     0.00003739   -0.00134227    0.05334106
     atom    5 type  2   force =    -0.00870123   -0.00018163    0.00366718
     atom    6 type  2   force =     0.01036859    0.00047098    0.00302063
     atom    7 type  1   force =    -0.00045081    0.00081322   -0.00104863
     atom    8 type  1   force =     0.00044687    0.00750791    0.00862813
     atom    9 type  2   force =     0.00046917    0.00015359    0.00005850
     atom   10 type  2   force =    -0.00262878    0.00131795   -0.01723508
     atom   11 type  2   force =    -0.00008805    0.00009308   -0.00039745
     atom   12 type  2   force =     0.00030571    0.00007652   -0.00007105
     atom   13 type  1   force =    -0.00041403   -0.00038439   -0.00022828
     atom   14 type  1   force =     0.00035677    0.00009011    0.00020294
     atom   15 type  2   force =     0.00013103   -0.00006500   -0.00026942
     atom   16 type  2   force =     0.00020788    0.00018085    0.00008969
     atom   17 type  2   force =    -0.00008952   -0.00008619    0.00012239
     atom   18 type  2   force =     0.00003863   -0.00002722   -0.00016758
     atom   19 type  1   force =    -0.00047925    0.00015181   -0.00070192
     atom   20 type  1   force =     0.00023036   -0.00015473    0.00008300
     atom   21 type  2   force =     0.00006798   -0.00000383    0.10326681
     atom   22 type  2   force =    -0.00029916   -0.00047910   -0.00007050
     atom   23 type  2   force =    -0.07154138   -0.00011008   -0.02735820
     atom   24 type  2   force =     0.07147882    0.00037735   -0.02737087
     atom   25 type  1   force =     0.00004240   -0.00020811    0.09437584
     atom   26 type  1   force =    -0.00013401   -0.00029716   -0.17602761
     atom   27 type  2   force =     0.00003717   -0.00018810   -0.02072031
     atom   28 type  2   force =     0.00009451   -0.00112627    0.05373043
     atom   29 type  2   force =    -0.00878388   -0.00002173    0.00343385
     atom   30 type  2   force =     0.01029752    0.00036621    0.00286476
     atom   31 type  1   force =    -0.00032416    0.00465694    0.00189058
     atom   32 type  1   force =     0.00043049   -0.00852569    0.00857879
     atom   33 type  2   force =    -0.00003518    0.00002927   -0.00000561
     atom   34 type  2   force =    -0.00403336   -0.00112131   -0.01183034
     atom   35 type  2   force =     0.00013966    0.00007448    0.00034465
     atom   36 type  2   force =     0.00053418    0.00005735   -0.00021577
     atom   37 type  1   force =     0.00061509   -0.00019435   -0.00001214
     atom   38 type  1   force =     0.00022685   -0.00016127   -0.00012237
     atom   39 type  2   force =    -0.00014235   -0.00002504   -0.00020598
     atom   40 type  2   force =     0.00046275    0.00001057    0.00041032
     atom   41 type  2   force =    -0.00013860    0.00044552    0.00007238
     atom   42 type  2   force =     0.00013863    0.00021925   -0.00004493
     atom   43 type  1   force =    -0.00034019   -0.00006245   -0.00013627
     atom   44 type  1   force =     0.00023818    0.00054745    0.00086895
     atom   45 type  2   force =     0.00005090    0.00000050    0.10333840
     atom   46 type  2   force =    -0.07153591   -0.00004361   -0.02734837
     atom   47 type  2   force =     0.07147613    0.00035158   -0.02737388
     atom   48 type  3   force =     0.00042079   -0.00055295   -0.00067286
     atom   49 type  4   force =     0.00023327    0.00014988   -0.00040276
     atom   50 type  5   force =     0.00000474   -0.00157049   -0.00101208
     atom   51 type  3   force =    -0.00042439    0.00042370    0.00101309
     atom   52 type  3   force =    -0.00004909   -0.00029464    0.00003207
     atom   53 type  4   force =    -0.00005278    0.00007058    0.00097163
     atom   54 type  2   force =    -0.00169588   -0.00226490    0.00156013
     atom   55 type  3   force =     0.00113078    0.00047555   -0.00078940
     atom   56 type  3   force =     0.00152602    0.00165108   -0.00079856

     Total force =     0.363848     Total SCF correction =     0.000619
  @ DRIVER MODE: Message from server: STATUS
  @ DRIVER MODE: Message from server: GETFORCE
  @ DRIVER MODE: Returning v,forces,stress,ensemble

     Writing output data file ./calc.save/
  @ DRIVER MODE: Message from server: EXIT
  @ DRIVE MODE: Exiting

     General routines

     Parallel routines

   This run was terminated on:   7:57: 2  16Sep2021

   JOB DONE.