     Program PWSCF v.6.7GPU starts on 23Sep2021 at  4: 7: 4

     R & G space division:  proc/nbgrp/npool/nimage =      10
     Reading input from /storage/home/hcoda1/3/ntian30/research/carbon/CxH_vib/H2O_calc/ads_slab/CH3NNH3HO_a/out_0034/pw.inp
Warning: card &CELL ignored
Warning: card   CELL_DYNAMICS='IPI', ignored
Warning: card / ignored

     Current dimensions of program PWSCF are:
     Max number of different atomic species (ntypx) = 10
     Max number of k-points (npk) =  40000
     Max angular momentum in pseudopotentials (lmaxx) =  3
     Presently no symmetry can be used with electric field

     Message from routine cell_base_init:
     DEPRECATED: use true lattice parameter, not A to a.u. conversion factor

     IMPORTANT: XC functional enforced from input :
     Exchange-correlation= BEEF-VDW
                           (   1   4  43  14   2   0   0)
     Any further DFT definition will be discarded
     Please, verify this is what you really want

  @ DRIVER MODE: Connecting to
 qe_1139763_2937318.sched-torque.pace.gatech.edufgesqz0q_scratch
  using UNIX socket
  @ DRIVER MODE: Message from server: STATUS
  @ DRIVER MODE: Message from server: INIT
  @ DRIVER MODE: Receiving replica           0          -1
  @ DRIVER MODE: Receiving encoded integer          25
  @ DRIVER MODE:  SCF:  T  FORCE:  T  STRESS:  F  VC:  F  ENSEMBLE:  F
  @ DRIVER MODE:  SCF:  T  FORCE:  T  STRESS:  F  VC:  F  ENSEMBLE:  F

     Using Slab Decomposition

     bravais-lattice index     =            0
     lattice parameter (alat)  =       1.8897  a.u.
     unit-cell volume          =    6658.9804 (a.u.)^3
     number of atoms/cell      =           58
     number of atomic types    =            5
     number of electrons       =       405.00
     number of Kohn-Sham states=          212
     kinetic-energy cutoff     =      29.3995  Ry
     charge density cutoff     =     293.9946  Ry
     scf convergence threshold =      7.3E-08
     mixing beta               =       0.0500
     number of iterations used =            8  plain     mixing
     Exchange-correlation= BEEF-VDW
                           (   1   4  43  14   2   0   0)

     celldm(1)=   1.889726  celldm(2)=   0.000000  celldm(3)=   0.000000
     celldm(4)=   0.000000  celldm(5)=   0.000000  celldm(6)=   0.000000

     crystal axes: (cart. coord. in units of alat)
               a(1) = (   6.579727   0.000000   0.000000 )
               a(2) = (  -0.000775   5.961596   0.000000 )
               a(3) = (   0.000000   0.000000  25.155947 )

     reciprocal axes: (cart. coord. in units 2 pi/alat)
               b(1) = (  0.151982  0.000020  0.000000 )
               b(2) = (  0.000000  0.167740  0.000000 )
               b(3) = (  0.000000  0.000000  0.039752 )

     PseudoPot. # 1 for Ti read from file:
     /storage/coda1/p-amedford6/0/shared/rich_project_chbe-medford/medford-share/data/pseudos_module/espresso/nninc/pbe/van/Ti.UPF
     MD5 check sum: 8e4df49b7f0d34bbd5052bf3f5ea0213
     Pseudo is Ultrasoft, Zval = 12.0
     Generated by new atomic code, or converted to UPF format
     Using radial grid of  851 points,  6 beta functions with:
                l(1) =   0
                l(2) =   0
                l(3) =   1
                l(4) =   1
                l(5) =   2
                l(6) =   2
     Q(r) pseudized with  8 coefficients,  rinner =    1.000   1.000   1.000
                                                       1.000   1.000

     PseudoPot. # 2 for O  read from file:
     /storage/coda1/p-amedford6/0/shared/rich_project_chbe-medford/medford-share/data/pseudos_module/espresso/nninc/pbe/van/O.UPF
     MD5 check sum: 78c19812648e8988a0fe644b0f25305e
     Pseudo is Ultrasoft, Zval =  6.0
     Generated by new atomic code, or converted to UPF format
     Using radial grid of  737 points,  4 beta functions with:
                l(1) =   0
                l(2) =   0
                l(3) =   1
                l(4) =   1
     Q(r) pseudized with  8 coefficients,  rinner =    0.800   0.800   0.800

     PseudoPot. # 3 for N  read from file:
     /storage/coda1/p-amedford6/0/shared/rich_project_chbe-medford/medford-share/data/pseudos_module/espresso/nninc/pbe/van/N.UPF
     MD5 check sum: 90d10febe142ad51ac9d5be1deb811c4
     Pseudo is Ultrasoft, Zval =  5.0
     Generated by new atomic code, or converted to UPF format
     Using radial grid of  729 points,  4 beta functions with:
                l(1) =   0
                l(2) =   0
                l(3) =   1
                l(4) =   1
     Q(r) pseudized with  8 coefficients,  rinner =    0.800   0.800   0.800

     PseudoPot. # 4 for C  read from file:
     /storage/coda1/p-amedford6/0/shared/rich_project_chbe-medford/medford-share/data/pseudos_module/espresso/nninc/pbe/van/C.UPF
     MD5 check sum: 1a69bf6b8db32088f5b2163dbdb77a27
     Pseudo is Ultrasoft, Zval =  4.0
     Generated by new atomic code, or converted to UPF format
     Using radial grid of  721 points,  4 beta functions with:
                l(1) =   0
                l(2) =   0
                l(3) =   1
                l(4) =   1
     Q(r) pseudized with  8 coefficients,  rinner =    0.800   0.800   0.800

     PseudoPot. # 5 for H  read from file:
     /storage/coda1/p-amedford6/0/shared/rich_project_chbe-medford/medford-share/data/pseudos_module/espresso/nninc/pbe/van/H.UPF
     MD5 check sum: b5ee9d7bfd3a09ee7748110bda690ff7
     Pseudo is Ultrasoft, Zval =  1.0
     Generated by new atomic code, or converted to UPF format
     Using radial grid of  615 points,  1 beta functions with:
                l(1) =   0
     Q(r) pseudized with  8 coefficients,  rinner =    0.800

     atomic species   valence    mass     pseudopotential
        Ti1           12.00    47.86700     Ti( 1.00)
        O1             6.00    15.99900     O ( 1.00)
        N1             5.00    14.00700     N ( 1.00)
        C1             4.00    12.01100     C ( 1.00)
        H1             1.00     1.00800     H ( 1.00)

     No symmetry found

   Cartesian axes

     site n.     atom                  positions (alat units)
         1           Ti1 tau(   1) = (   0.0004258   2.9801865   6.0000000  )
         2           Ti1 tau(   2) = (   3.2906075   1.4906267   6.0002472  )
         3           O1  tau(   3) = (   0.0006271   0.0005054   7.9858123  )
         4           O1  tau(   4) = (   3.2906025   0.0005020   7.3038282  )
         5           O1  tau(   5) = (   4.5942328   1.4918067   9.2879030  )
         6           O1  tau(   6) = (   1.9868534   1.4903216   9.2879459  )
         7           Ti1 tau(   7) = (   3.2907910   2.8959150   9.1758416  )
         8           Ti1 tau(   8) = (   0.0015273   1.4827037   9.2680791  )
         9           O1  tau(   9) = (   3.2949357   5.9297256  11.2770696  )
        10           O1  tau(  10) = (   0.0116148   5.9584955  10.6183126  )
        11           O1  tau(  11) = (   1.2901270   1.4659759  12.6218969  )
        12           O1  tau(  12) = (   5.3029181   1.4690452  12.6271982  )
        13           Ti1 tau(  13) = (   6.5637346   3.0486055  12.7052252  )
        14           Ti1 tau(  14) = (   3.3207578   1.2909511  12.6638180  )
        15           O1  tau(  15) = (   0.0081040   5.9567798  14.6379979  )
        16           O1  tau(  16) = (   3.2944190   0.0149942  13.8863584  )
        17           O1  tau(  17) = (   4.5334936   1.5584448  16.0391558  )
        18           O1  tau(  18) = (   2.0244848   1.5379376  16.0854781  )
        19           Ti1 tau(  19) = (   3.2579824   3.0118882  15.6538344  )
        20           Ti1 tau(  20) = (   6.4918182   1.5199401  15.8876453  )
        21           O1  tau(  21) = (   3.2904802   0.0005063   4.7018136  )
        22           O1  tau(  22) = (   6.5166677   0.0216046  17.1949088  )
        23           O1  tau(  23) = (   1.3043587   1.4918075   6.0039043  )
        24           O1  tau(  24) = (   5.2767064   1.4903225   6.0039473  )
        25           Ti1 tau(  25) = (   0.0000382   5.9609847   6.0000000  )
        26           Ti1 tau(  26) = (   3.2902200   4.4714249   6.0002472  )
        27           O1  tau(  27) = (   0.0002396   2.9813036   7.9858123  )
        28           O1  tau(  28) = (   3.2902150   2.9813002   7.3038282  )
        29           O1  tau(  29) = (   4.5938453   4.4726049   9.2879030  )
        30           O1  tau(  30) = (   1.9864658   4.4711199   9.2879459  )
        31           Ti1 tau(  31) = (   3.2891106   5.8743827   9.1763621  )
        32           Ti1 tau(  32) = (   0.0006254   4.4649316   9.2693709  )
        33           O1  tau(  33) = (   3.2959121   3.0085915  11.2438341  )
        34           O1  tau(  34) = (   0.0092240   2.9805883  10.6323155  )
        35           O1  tau(  35) = (   1.2849535   4.4488585  12.6204231  )
        36           O1  tau(  36) = (   5.2878833   4.4365118  12.6243745  )
        37           Ti1 tau(  37) = (   0.0500071   0.0677371  12.6535751  )
        38           Ti1 tau(  38) = (   3.3027700   4.3871210  12.4110406  )
        39           O1  tau(  39) = (   6.5685058   2.9535060  14.6525041  )
        40           O1  tau(  40) = (   3.2696111   2.9719761  13.8704823  )
        41           O1  tau(  41) = (   4.5209813   4.4409030  16.0696701  )
        42           O1  tau(  42) = (   2.0131998   4.4599944  16.0916020  )
        43           Ti1 tau(  43) = (   3.2138439   0.0230873  16.3295100  )
        44           Ti1 tau(  44) = (   6.5234412   4.6200706  16.0754176  )
        45           O1  tau(  45) = (   3.2900926   2.9813045   4.7018136  )
        46           O1  tau(  46) = (   1.3039711   4.4726057   6.0039043  )
        47           O1  tau(  47) = (   5.2763189   4.4711207   6.0039473  )
        48           N1  tau(  48) = (   0.0251376   2.9556585  17.3246074  )
        49           N1  tau(  49) = (   6.3772498   2.5461882  22.2688425  )
        50           C1  tau(  50) = (   0.2111848   2.8484408  18.7116211  )
        51           H1  tau(  51) = (   0.3920758   3.8074029  19.2116250  )
        52           H1  tau(  52) = (   5.9044209   2.3708277  19.1722604  )
        53           H1  tau(  53) = (   1.0233575   2.1442068  18.9364007  )
        54           H1  tau(  54) = (   6.0930523   3.2289774  22.9628454  )
        55           H1  tau(  55) = (   0.2277240   1.7755739  22.7685771  )
        56           H1  tau(  56) = (   0.5282093   2.9785696  21.7129995  )
        57           O1  tau(  57) = (   3.3838229   0.0530270  18.1522483  )
        58           H1  tau(  58) = (   4.2718821   5.8932998  18.5223319  )

     number of k points=    10  Fermi-Dirac smearing, width (Ry)=  0.0073
                       cart. coord. in units 2pi/alat
        k(    1) = (   0.0000000   0.0000000   0.0000000), wk =   0.1250000
        k(    2) = (   0.0000000   0.0419351   0.0000000), wk =   0.2500000
        k(    3) = (   0.0000000  -0.0838702   0.0000000), wk =   0.1250000
        k(    4) = (   0.0379955   0.0000049   0.0000000), wk =   0.2500000
        k(    5) = (   0.0379955   0.0419400   0.0000000), wk =   0.2500000
        k(    6) = (   0.0379955  -0.0838652   0.0000000), wk =   0.2500000
        k(    7) = (   0.0379955  -0.0419301   0.0000000), wk =   0.2500000
        k(    8) = (  -0.0759910  -0.0000099   0.0000000), wk =   0.1250000
        k(    9) = (  -0.0759910   0.0419252   0.0000000), wk =   0.2500000
        k(   10) = (  -0.0759910  -0.0838800   0.0000000), wk =   0.1250000

     Initial potential from superposition of free atoms

     starting charge  388.99913, renormalised to  405.00000

     negative rho (up, down):  7.828E-03 0.000E+00

     %%%%%%%%%%%%%%%%%%%%%%%%%%%%%%%%%%%%%%%%%%%%%%%%%%%%%%%%%%%%%%%%%%%%%%%%
     %                                                                      %
     % You are using vdW-DF, which was implemented by the Thonhauser group. %
     % Please cite the following two papers that made this development      %
     % possible and the two reviews that describe the various versions:     %
     %                                                                      %
     %   T. Thonhauser et al., PRL 115, 136402 (2015).                      %
     %   T. Thonhauser et al., PRB 76, 125112 (2007).                       %
     %   K. Berland et al., Rep. Prog. Phys. 78, 066501 (2015).             %
     %   D.C. Langreth et al., J. Phys.: Condens. Matter 21, 084203 (2009). %
     %                                                                      %
     %                                                                      %
     % If you are calculating the stress with vdW-DF, please also cite:     %
     %                                                                      %
     %   R. Sabatini et al., J. Phys.: Condens. Matter 24, 424209 (2012).   %
     %                                                                      %
     %%%%%%%%%%%%%%%%%%%%%%%%%%%%%%%%%%%%%%%%%%%%%%%%%%%%%%%%%%%%%%%%%%%%%%%%

     Adding external electric field

     Computed dipole along edir(3) :
        Dipole              -15.1933 Ry au,        -38.6176 Debye
        Dipole field         -0.0287 Ry au,

        Potential amp.        2.6578 Ry
        Total length         46.3494 bohr

     Starting wfcs are  307 atomic wfcs
  @ DRIVER MODE: Message from server: STATUS
  @ DRIVER MODE: Message from server: POSDATA
  @ DRIVER MODE: Reading and sharing cell
  @ DRIVER MODE: Reading and sharing positions
  @ DRIVER MODE: Received positions

     Self-consistent Calculation

     iteration #  1     ecut=    29.40 Ry     beta= 0.05
     Davidson diagonalization with overlap
     c_bands:  4 eigenvalues not converged
     c_bands:  1 eigenvalues not converged
     c_bands:  1 eigenvalues not converged
     c_bands:  2 eigenvalues not converged
     c_bands:  1 eigenvalues not converged
     c_bands:  2 eigenvalues not converged
     ethr =  1.00E-05,  avg # of iterations = 31.5

[...]

     total energy              =   -2295.06207387 Ry
     estimated scf accuracy    <    7743.69241757 Ry

     iteration #  2     ecut=    29.40 Ry     beta= 0.05
     Davidson diagonalization with overlap
     ethr =  1.00E-02,  avg # of iterations = 23.4

[...]

     iteration # 53     ecut=    29.40 Ry     beta= 0.05
     Davidson diagonalization with overlap
     c_bands:  1 eigenvalues not converged
     ethr =  8.95E-07,  avg # of iterations =  5.9

[...]

     total energy              =   -2976.42350404 Ry
     estimated scf accuracy    <       0.00000012 Ry

     iteration # 76     ecut=    29.40 Ry     beta= 0.05
     Davidson diagonalization with overlap
     ethr =  2.20E-11,  avg # of iterations =  2.0

     negative rho (up, down):  9.594E-03 0.000E+00

     Adding external electric field

     Computed dipole along edir(3) :
        Dipole                0.6339 Ry au,          1.6111 Debye
        Dipole field          0.0012 Ry au,

        Potential amp.       -0.1109 Ry
        Total length         46.3494 bohr

     End of self-consistent calculation

          k = 0.0000 0.0000 0.0000 ( 18029 PWs)   bands (ev):

   -56.5673 -56.5337 -55.6426 -55.6075 -55.4268 -55.3602 -55.2308 -55.1182
   -55.0843 -55.0362 -55.0039 -54.9698 -54.9116 -54.8171 -54.7467 -54.6133
   -32.9860 -32.8377 -32.8096 -32.7467 -32.6565 -32.6130 -32.1244 -31.9016
   -31.8629 -31.8414 -31.7868 -31.7790 -31.7537 -31.6601 -31.6398 -31.5952
   -31.5634 -31.5466 -31.5236 -31.5110 -31.5049 -31.4957 -31.4652 -31.4628
   -31.4407 -31.4214 -31.3561 -31.3221 -31.2996 -31.2925 -31.2418 -31.2337
   -31.2165 -31.1947 -31.1826 -31.1673 -31.1601 -31.1304 -31.1245 -31.0926
   -31.0475 -31.0038 -31.0021 -30.9817 -30.9489 -30.8875 -30.8509 -30.8004
   -16.6704 -16.1122 -16.0873 -15.8837 -15.7611 -15.7557 -15.7125 -15.6434
   -15.4747 -15.4056 -15.3772 -15.3163 -15.1717 -15.0564 -14.9592 -14.7784
   -14.7053 -14.6998 -14.6816 -14.6734 -14.6568 -14.6359 -14.5769 -14.5186
   -14.4761 -14.4111 -14.3672 -14.2216 -14.0200 -13.9956 -13.9502 -13.6156
   -13.5087 -13.5040  -7.7481  -4.2459  -4.0300  -4.0111  -3.6980  -3.5790
    -3.4063  -3.2538  -3.1932  -3.1460  -3.0859  -3.0767  -2.9326  -2.9279
    -2.9194  -2.9138  -2.8303  -2.7719  -2.7069  -2.6198  -2.6043  -2.5095
    -2.4628  -2.3036  -2.2772  -2.1764  -2.1043  -2.0990  -2.0329  -2.0096
    -1.9625  -1.9173  -1.9081  -1.8732  -1.8301  -1.7828  -1.7650  -1.6534
    -1.6453  -1.5810  -1.5736  -1.5515  -1.4381  -1.4178  -1.3482  -1.2027
    -1.1816  -1.1782  -1.1315  -1.1138  -1.0325  -0.9354  -0.8693  -0.8424
    -0.7865  -0.6977  -0.6510  -0.6293  -0.5569  -0.5371  -0.4631  -0.4191
    -0.4069  -0.3862  -0.3435  -0.2298  -0.1429  -0.1099  -0.0562  -0.0309
     0.0018   0.0291   0.0486   0.0971   0.1666   0.2531   0.2734   0.4123
     0.4645   0.5015   0.5766   0.6106   0.6173   0.7068   0.7378   0.7678
     0.8140   0.8887   0.9030   0.9043   0.9633   1.0472   1.1024   1.1574
     1.1661   1.2022   1.2107   1.2617   1.3501   1.3704   1.4394   1.4944
     1.8213   1.8810   2.4817   2.7272   2.8987   3.1755   3.3677   3.6712
     3.7132   3.7310   3.7312   4.0371

[...]

          k = 0.0380-0.0419 0.0000 ( 17876 PWs)   bands (ev):

[...]

          k =-0.0760-0.0000 0.0000 ( 17886 PWs)   bands (ev):

[...]

          k =-0.0760-0.0839 0.0000 ( 17948 PWs)   bands (ev):

   -56.5511 -56.5498 -55.6302 -55.6197 -55.4221 -55.3648 -55.2300 -55.1017
   -55.1005 -55.0313 -55.0045 -54.9744 -54.9100 -54.8156 -54.7483 -54.6146
   -32.8242 -32.8227 -32.8039 -32.8025 -32.7008 -32.6996 -31.9489 -31.9397
   -31.8247 -31.8194 -31.8135 -31.8118 -31.7215 -31.6787 -31.6534 -31.6403
   -31.5907 -31.5889 -31.5017 -31.4746 -31.4648 -31.4542 -31.4533 -31.3701
   -31.3511 -31.3218 -31.3204 -31.3025 -31.2952 -31.2853 -31.2820 -31.2815
   -31.2529 -31.2337 -31.2155 -31.2011 -31.1966 -31.1592 -31.1587 -31.1030
   -31.0919 -31.0505 -31.0077 -30.9952 -30.9589 -30.9536 -30.8529 -30.8358
   -16.0751 -16.0288 -16.0270 -15.9835 -15.9820 -15.7201 -15.7156 -15.4652
   -15.4359 -15.2562 -15.1526 -15.1286 -15.0851 -15.0435 -14.9718 -14.9176
   -14.8882 -14.8559 -14.8300 -14.7677 -14.7380 -14.6337 -14.6010 -14.5535
   -14.5169 -14.4551 -14.4143 -14.3653 -14.1761 -14.1341 -13.9496 -13.6133
   -13.6127 -13.5289  -7.7473  -4.0407  -4.0112  -3.6884  -3.1497  -3.1049
    -3.1005  -3.0679  -3.0608  -2.9928  -2.8542  -2.8511  -2.7546  -2.6489
    -2.6224  -2.5994  -2.5389  -2.5295  -2.4294  -2.3798  -2.3750  -2.3604
    -2.3241  -2.2947  -2.2882  -2.2281  -2.0891  -2.0732  -2.0241  -1.9703
    -1.8957  -1.8880  -1.8781  -1.8410  -1.7996  -1.7740  -1.7628  -1.7359
    -1.7312  -1.7266  -1.6174  -1.5122  -1.4648  -1.3716  -1.3672  -1.3583
    -1.3204  -1.2934  -1.2599  -1.2537  -1.2246  -1.1448  -1.1186  -1.0486
    -0.9346  -0.9167  -0.8752  -0.8269  -0.7229  -0.7048  -0.6151  -0.5789
    -0.5675  -0.5074  -0.4790  -0.4629  -0.4044  -0.3651  -0.2336  -0.1940
    -0.1823  -0.1655  -0.1432  -0.1068  -0.0455   0.0161   0.0476   0.0493
     0.1539   0.2537   0.3426   0.4107   0.4202   0.4436   0.5302   0.6357
     0.6765   0.7010   0.7494   0.8733   0.9910   1.0204   1.1263   1.1531
     1.1621   1.2621   1.2797   1.2848   1.3049   1.3140   1.3495   1.4158
     1.4767   1.7663   2.3145   3.3197   3.3229   3.3810   3.3867   3.6974
     3.6998   3.8110   3.8161   4.1345

     the Fermi energy is     2.3917 ev

!    total energy              =   -2976.42351754 Ry
     estimated scf accuracy    <       0.00000005 Ry
     smearing contrib. (-TS)   =      -0.01084497 Ry
     internal energy E=F+TS    =   -2976.41267258 Ry

     The total energy is F=E-TS. E is the sum of the following terms:
     one-electron contribution =  -22707.56180722 Ry
     hartree contribution      =   11450.12935251 Ry
     xc contribution           =    -495.34784784 Ry
     ewald contribution        =    8776.36687177 Ry
     electric field correction =       0.00075821 Ry

     convergence has been achieved in  76 iterations

     Forces acting on atoms (cartesian axes, Ry/au):

     atom    1 type  1   force =     0.00002266   -0.00052349    0.12631993
     atom    2 type  1   force =    -0.00009779    0.00041461   -0.15469417
     atom    3 type  2   force =     0.00002692    0.00002583   -0.06831484
     atom    4 type  2   force =     0.00005858   -0.00010902    0.01703901
     atom    5 type  2   force =    -0.00487164   -0.00242955   -0.01324765
     atom    6 type  2   force =     0.00655242   -0.00180769   -0.01376540
     atom    7 type  1   force =    -0.00029559   -0.00661301    0.05923906
     atom    8 type  1   force =     0.00038572    0.00686946    0.10031421
     atom    9 type  2   force =    -0.00002408    0.00066238    0.00128913
     atom   10 type  2   force =    -0.00261542   -0.00001627   -0.06339264
     atom   11 type  2   force =     0.00044912   -0.00068518   -0.00027802
     atom   12 type  2   force =    -0.00086440   -0.00112458   -0.00109009
     atom   13 type  1   force =    -0.00029786    0.00071424   -0.00133934
     atom   14 type  1   force =    -0.00033153   -0.00037858   -0.00023278
     atom   15 type  2   force =    -0.00065044   -0.00038906   -0.00064902
     atom   16 type  2   force =     0.00019561    0.00092577   -0.00030583
     atom   17 type  2   force =     0.00076941    0.00009917   -0.00055216
     atom   18 type  2   force =    -0.00023288   -0.00012189   -0.00003948
     atom   19 type  1   force =    -0.00019363   -0.00010923   -0.00092077
     atom   20 type  1   force =     0.00070589    0.00085512   -0.00034587
     atom   21 type  2   force =     0.00006200    0.00015507    0.09779713
     atom   22 type  2   force =     0.00040018   -0.00035628    0.00132723
     atom   23 type  2   force =    -0.08276080    0.00005416   -0.03312950
     atom   24 type  2   force =     0.08270152    0.00050184   -0.03320422
     atom   25 type  1   force =     0.00006675   -0.00035682    0.12646967
     atom   26 type  1   force =    -0.00011285   -0.00149515   -0.15486983
     atom   27 type  2   force =     0.00011415   -0.00046869   -0.06668924
     atom   28 type  2   force =     0.00004791    0.00167393    0.01197488
     atom   29 type  2   force =    -0.00342505    0.00421958   -0.01621969
     atom   30 type  2   force =     0.00505230    0.00456310   -0.01662237
     atom   31 type  1   force =    -0.00016054    0.00217350    0.04256952
     atom   32 type  1   force =     0.00044273   -0.00893896    0.10088693
     atom   33 type  2   force =    -0.00048599   -0.00014586   -0.00041375
     atom   34 type  2   force =    -0.00212638   -0.00026292   -0.07625451
     atom   35 type  2   force =    -0.00008519    0.00070092    0.00086474
     atom   36 type  2   force =    -0.00050954    0.00052021    0.00039141
     atom   37 type  1   force =     0.00043475    0.00060173   -0.00012510
     atom   38 type  1   force =    -0.00042290   -0.00067652   -0.00065628
     atom   39 type  2   force =     0.00045127   -0.00030468   -0.00046337
     atom   40 type  2   force =     0.00036915   -0.00062416   -0.00003998
     atom   41 type  2   force =     0.00024118    0.00048060   -0.00004758
     atom   42 type  2   force =    -0.00020840   -0.00021154    0.00011704
     atom   43 type  1   force =     0.00052661    0.00134793   -0.00087426
     atom   44 type  1   force =    -0.00026190   -0.00105122    0.00091517
     atom   45 type  2   force =     0.00009286   -0.00001531    0.09764823
     atom   46 type  2   force =    -0.08280764    0.00003812   -0.03318000
     atom   47 type  2   force =     0.08271436    0.00045648   -0.03318649
     atom   48 type  3   force =    -0.00008291    0.00041493   -0.00031390
     atom   49 type  3   force =     0.00015199   -0.00003046   -0.00099111
     atom   50 type  4   force =    -0.00343626    0.00551716    0.00022748
     atom   51 type  5   force =    -0.00075119    0.00029313   -0.00072553
     atom   52 type  5   force =     0.00041094    0.00072430   -0.00053240
     atom   53 type  5   force =     0.00454168   -0.00523698    0.00151937
     atom   54 type  5   force =    -0.00008022   -0.00005544    0.00003761
     atom   55 type  5   force =     0.00033814    0.00015464    0.00011952
     atom   56 type  5   force =     0.00010994   -0.00004535    0.00021015
     atom   57 type  2   force =    -0.00180585   -0.00057066    0.00028792
     atom   58 type  5   force =     0.00156214   -0.00000335    0.00014185

     Total force =     0.420807     Total SCF correction =     0.000717
  @ DRIVER MODE: Message from server: STATUS
  @ DRIVER MODE: Message from server: GETFORCE
  @ DRIVER MODE: Returning v,forces,stress,ensemble

     Writing output data file ./calc.save/
  @ DRIVER MODE: Message from server: EXIT
  @ DRIVE MODE: Exiting

     General routines

     Parallel routines

   This run was terminated on:   4:26:51  23Sep2021

   JOB DONE.