     Program PWSCF v.6.7GPU starts on 16Sep2021 at  4:26:27

     R & G space division:  proc/nbgrp/npool/nimage =      10
     Reading input from /storage/home/hcoda1/3/ntian30/research/carbon/CxH_vib/H2O_calc/ads_slab/CH3NH2O_a/out_0042/pw.inp
Warning: card &CELL ignored
Warning: card   CELL_DYNAMICS='IPI', ignored
Warning: card / ignored

     Current dimensions of program PWSCF are:
     Max number of different atomic species (ntypx) = 10
     Max number of k-points (npk) =  40000
     Max angular momentum in pseudopotentials (lmaxx) =  3
     Presently no symmetry can be used with electric field

     Message from routine cell_base_init:
     DEPRECATED: use true lattice parameter, not A to a.u. conversion factor

     IMPORTANT: XC functional enforced from input :
     Exchange-correlation= BEEF-VDW
                           (   1   4  43  14   2   0   0)
     Any further DFT definition will be discarded
     Please, verify this is what you really want

  @ DRIVER MODE: Connecting to
 qe_1139763_2852618.sched-torque.pace.gatech.edux7nxbf3y_scratch
  using UNIX socket
  @ DRIVER MODE: Message from server: STATUS
  @ DRIVER MODE: Message from server: INIT
  @ DRIVER MODE: Receiving replica           0          -1
  @ DRIVER MODE: Receiving encoded integer          25
  @ DRIVER MODE:  SCF:  T  FORCE:  T  STRESS:  F  VC:  F  ENSEMBLE:  F
  @ DRIVER MODE:  SCF:  T  FORCE:  T  STRESS:  F  VC:  F  ENSEMBLE:  F

     Using Slab Decomposition

     bravais-lattice index     =            0
     lattice parameter (alat)  =       1.8897  a.u.
     unit-cell volume          =    6658.9804 (a.u.)^3
     number of atoms/cell      =           55
     number of atomic types    =            5
     number of electrons       =       398.00
     number of Kohn-Sham states=          209
     kinetic-energy cutoff     =      29.3995  Ry
     charge density cutoff     =     293.9946  Ry
     scf convergence threshold =      7.3E-08
     mixing beta               =       0.0500
     number of iterations used =            8  plain     mixing
     Exchange-correlation= BEEF-VDW
                           (   1   4  43  14   2   0   0)

     celldm(1)=   1.889726  celldm(2)=   0.000000  celldm(3)=   0.000000
     celldm(4)=   0.000000  celldm(5)=   0.000000  celldm(6)=   0.000000

     crystal axes: (cart. coord. in units of alat)
               a(1) = (   6.579727   0.000000   0.000000 )
               a(2) = (  -0.000775   5.961596   0.000000 )
               a(3) = (   0.000000   0.000000  25.155947 )

     reciprocal axes: (cart. coord. in units 2 pi/alat)
               b(1) = (  0.151982  0.000020  0.000000 )
               b(2) = (  0.000000  0.167740  0.000000 )
               b(3) = (  0.000000  0.000000  0.039752 )

     PseudoPot. # 1 for Ti read from file:
     /storage/coda1/p-amedford6/0/shared/rich_project_chbe-medford/medford-share/data/pseudos_module/espresso/nninc/pbe/van/Ti.UPF
     MD5 check sum: 8e4df49b7f0d34bbd5052bf3f5ea0213
     Pseudo is Ultrasoft, Zval = 12.0
     Generated by new atomic code, or converted to UPF format
     Using radial grid of  851 points,  6 beta functions with:
                l(1) =   0
                l(2) =   0
                l(3) =   1
                l(4) =   1
                l(5) =   2
                l(6) =   2
     Q(r) pseudized with  8 coefficients,  rinner =    1.000   1.000   1.000
                                                       1.000   1.000

     PseudoPot. # 2 for O  read from file:
     /storage/coda1/p-amedford6/0/shared/rich_project_chbe-medford/medford-share/data/pseudos_module/espresso/nninc/pbe/van/O.UPF
     MD5 check sum: 78c19812648e8988a0fe644b0f25305e
     Pseudo is Ultrasoft, Zval =  6.0
     Generated by new atomic code, or converted to UPF format
     Using radial grid of  737 points,  4 beta functions with:
                l(1) =   0
                l(2) =   0
                l(3) =   1
                l(4) =   1
     Q(r) pseudized with  8 coefficients,  rinner =    0.800   0.800   0.800

     PseudoPot. # 3 for N  read from file:
     /storage/coda1/p-amedford6/0/shared/rich_project_chbe-medford/medford-share/data/pseudos_module/espresso/nninc/pbe/van/N.UPF
     MD5 check sum: 90d10febe142ad51ac9d5be1deb811c4
     Pseudo is Ultrasoft, Zval =  5.0
     Generated by new atomic code, or converted to UPF format
     Using radial grid of  729 points,  4 beta functions with:
                l(1) =   0
                l(2) =   0
                l(3) =   1
                l(4) =   1
     Q(r) pseudized with  8 coefficients,  rinner =    0.800   0.800   0.800

     PseudoPot. # 4 for C  read from file:
     /storage/coda1/p-amedford6/0/shared/rich_project_chbe-medford/medford-share/data/pseudos_module/espresso/nninc/pbe/van/C.UPF
     MD5 check sum: 1a69bf6b8db32088f5b2163dbdb77a27
     Pseudo is Ultrasoft, Zval =  4.0
     Generated by new atomic code, or converted to UPF format
     Using radial grid of  721 points,  4 beta functions with:
                l(1) =   0
                l(2) =   0
                l(3) =   1
                l(4) =   1
     Q(r) pseudized with  8 coefficients,  rinner =    0.800   0.800   0.800

     PseudoPot. # 5 for H  read from file:
     /storage/coda1/p-amedford6/0/shared/rich_project_chbe-medford/medford-share/data/pseudos_module/espresso/nninc/pbe/van/H.UPF
     MD5 check sum: b5ee9d7bfd3a09ee7748110bda690ff7
     Pseudo is Ultrasoft, Zval =  1.0
     Generated by new atomic code, or converted to UPF format
     Using radial grid of  615 points,  1 beta functions with:
                l(1) =   0
     Q(r) pseudized with  8 coefficients,  rinner =    0.800

     atomic species   valence    mass     pseudopotential
        Ti1           12.00    47.86700     Ti( 1.00)
        O1             6.00    15.99900     O ( 1.00)
        N1             5.00    14.00700     N ( 1.00)
        C1             4.00    12.01100     C ( 1.00)
        H1             1.00     1.00800     H ( 1.00)

     No symmetry found

   Cartesian axes

     site n.     atom                  positions (alat units)
         1           Ti1 tau(   1) = (   0.0004258   2.9801865   6.0000000  )
         2           Ti1 tau(   2) = (   3.2906075   1.4906267   6.0002472  )
         3           O1  tau(   3) = (   0.0006271   0.0005054   7.9858123  )
         4           O1  tau(   4) = (   3.2906025   0.0005020   7.3038282  )
         5           O1  tau(   5) = (   4.5942328   1.4918067   9.2879030  )
         6           O1  tau(   6) = (   1.9868534   1.4903216   9.2879459  )
         7           Ti1 tau(   7) = (   3.2907910   2.8959150   9.1758416  )
         8           Ti1 tau(   8) = (   0.0015273   1.4827037   9.2680791  )
         9           O1  tau(   9) = (   3.2951577   0.0167633  11.2896499  )
        10           O1  tau(  10) = (   0.0116148   5.9584955  10.6183126  )
        11           O1  tau(  11) = (   1.3222759   1.5071707  12.6129440  )
        12           O1  tau(  12) = (   5.3060066   1.5095485  12.6267335  )
        13           Ti1 tau(  13) = (   6.4824898   3.0013615  12.7357613  )
        14           Ti1 tau(  14) = (   3.1735365   1.4973312  12.4739500  )
        15           O1  tau(  15) = (   0.0245190   0.0017265  14.5963640  )
        16           O1  tau(  16) = (   3.2983568   0.0259644  13.8884976  )
        17           O1  tau(  17) = (   4.5535709   1.5599051  15.9919625  )
        18           O1  tau(  18) = (   2.0723989   1.5598234  15.9883263  )
        19           Ti1 tau(  19) = (   3.3263631   3.0313633  15.6478355  )
        20           Ti1 tau(  20) = (   0.0083359   1.6222165  16.0589653  )
        21           O1  tau(  21) = (   3.2904802   0.0005063   4.7018136  )
        22           O1  tau(  22) = (   0.0206953   0.0548308  17.2083480  )
        23           O1  tau(  23) = (   1.3043587   1.4918075   6.0039043  )
        24           O1  tau(  24) = (   5.2767064   1.4903225   6.0039473  )
        25           Ti1 tau(  25) = (   0.0000382   5.9609847   6.0000000  )
        26           Ti1 tau(  26) = (   3.2902200   4.4714249   6.0002472  )
        27           O1  tau(  27) = (   0.0002396   2.9813036   7.9858123  )
        28           O1  tau(  28) = (   3.2902150   2.9813002   7.3038282  )
        29           O1  tau(  29) = (   4.5938453   4.4726049   9.2879030  )
        30           O1  tau(  30) = (   1.9864658   4.4711199   9.2879459  )
        31           Ti1 tau(  31) = (   3.2891106   5.8743827   9.1763621  )
        32           Ti1 tau(  32) = (   0.0006254   4.4649316   9.2693709  )
        33           O1  tau(  33) = (   3.2909539   2.9954008  11.2901670  )
        34           O1  tau(  34) = (   0.0092240   2.9805883  10.6323155  )
        35           O1  tau(  35) = (   1.3211080   4.4795309  12.6092917  )
        36           O1  tau(  36) = (   5.3058445   4.4798052  12.6251394  )
        37           Ti1 tau(  37) = (   6.5140999   0.0198189  12.7603067  )
        38           Ti1 tau(  38) = (   3.1705570   4.4938763  12.4677136  )
        39           O1  tau(  39) = (   0.0016069   2.9863809  14.6467327  )
        40           O1  tau(  40) = (   3.3112668   3.0122049  13.8485686  )
        41           O1  tau(  41) = (   4.5534170   4.5051619  16.0179686  )
        42           O1  tau(  42) = (   2.0797414   4.5084034  16.0201905  )
        43           Ti1 tau(  43) = (   3.2815144   0.0627375  15.7417980  )
        44           Ti1 tau(  44) = (   0.0076503   4.5954094  16.1032789  )
        45           O1  tau(  45) = (   3.2900926   2.9813045   4.7018136  )
        46           O1  tau(  46) = (   1.3039711   4.4726057   6.0039043  )
        47           O1  tau(  47) = (   5.2763189   4.4711207   6.0039473  )
        48           N1  tau(  48) = (   0.0651939   3.0276870  17.3150544  )
        49           C1  tau(  49) = (   0.3375872   3.0185870  18.7284822  )
        50           H1  tau(  50) = (   0.4544735   4.0311245  19.1352477  )
        51           H1  tau(  51) = (   6.1015407   2.5302758  19.2785169  )
        52           H1  tau(  52) = (   1.2508204   2.4494767  18.9518403  )
        53           O1  tau(  53) = (   3.3357083   0.1159715  18.1615364  )
        54           H1  tau(  54) = (   4.1514219   5.6051498  18.4029375  )
        55           H1  tau(  55) = (   2.5926282   5.5337384  18.4710493  )

     number of k points=    10  Fermi-Dirac smearing, width (Ry)=  0.0073
                       cart. coord. in units 2pi/alat
        k(    1) = (   0.0000000   0.0000000   0.0000000), wk =   0.1250000
        k(    2) = (   0.0000000   0.0419351   0.0000000), wk =   0.2500000
        k(    3) = (   0.0000000  -0.0838702   0.0000000), wk =   0.1250000
        k(    4) = (   0.0379955   0.0000049   0.0000000), wk =   0.2500000
        k(    5) = (   0.0379955   0.0419400   0.0000000), wk =   0.2500000
        k(    6) = (   0.0379955  -0.0838652   0.0000000), wk =   0.2500000
        k(    7) = (   0.0379955  -0.0419301   0.0000000), wk =   0.2500000
        k(    8) = (  -0.0759910  -0.0000099   0.0000000), wk =   0.1250000
        k(    9) = (  -0.0759910   0.0419252   0.0000000), wk =   0.2500000
        k(   10) = (  -0.0759910  -0.0838800   0.0000000), wk =   0.1250000

     Initial potential from superposition of free atoms

     starting charge  381.99915, renormalised to  398.00000

     negative rho (up, down):  1.656E-02 0.000E+00

     %%%%%%%%%%%%%%%%%%%%%%%%%%%%%%%%%%%%%%%%%%%%%%%%%%%%%%%%%%%%%%%%%%%%%%%%
     %                                                                      %
     % You are using vdW-DF, which was implemented by the Thonhauser group. %
     % Please cite the following two papers that made this development      %
     % possible and the two reviews that describe the various versions:     %
     %                                                                      %
     %   T. Thonhauser et al., PRL 115, 136402 (2015).                      %
     %   T. Thonhauser et al., PRB 76, 125112 (2007).                       %
     %   K. Berland et al., Rep. Prog. Phys. 78, 066501 (2015).             %
     %   D.C. Langreth et al., J. Phys.: Condens. Matter 21, 084203 (2009). %
     %                                                                      %
     %                                                                      %
     % If you are calculating the stress with vdW-DF, please also cite:     %
     %                                                                      %
     %   R. Sabatini et al., J. Phys.: Condens. Matter 24, 424209 (2012).   %
     %                                                                      %
     %%%%%%%%%%%%%%%%%%%%%%%%%%%%%%%%%%%%%%%%%%%%%%%%%%%%%%%%%%%%%%%%%%%%%%%%

     Adding external electric field

     Computed dipole along edir(3) :
        Dipole               -9.1087 Ry au,        -23.1520 Debye
        Dipole field         -0.0172 Ry au,

        Potential amp.        1.5934 Ry
        Total length         46.3494 bohr

     Starting wfcs are  301 atomic wfcs
  @ DRIVER MODE: Message from server: STATUS
  @ DRIVER MODE: Message from server: POSDATA
  @ DRIVER MODE: Reading and sharing cell
  @ DRIVER MODE: Reading and sharing positions
  @ DRIVER MODE: Received positions

     Self-consistent Calculation

     iteration #  1     ecut=    29.40 Ry     beta= 0.05
     Davidson diagonalization with overlap
     c_bands:  1 eigenvalues not converged
     c_bands:  1 eigenvalues not converged
     c_bands:  1 eigenvalues not converged
     c_bands:  1 eigenvalues not converged
     c_bands:  1 eigenvalues not converged
     c_bands:  1 eigenvalues not converged
     c_bands:  1 eigenvalues not converged
     c_bands:  2 eigenvalues not converged
     ethr =  1.00E-05,  avg # of iterations = 19.6

[...]

     total energy              =   -2564.52553157 Ry
     estimated scf accuracy    <    4317.24877319 Ry

     iteration #  2     ecut=    29.40 Ry     beta= 0.05
     Davidson diagonalization with overlap
     ethr =  1.00E-02,  avg # of iterations = 23.0

[...]

     iteration # 43     ecut=    29.40 Ry     beta= 0.05
     Davidson diagonalization with overlap
     c_bands:  1 eigenvalues not converged
     ethr =  7.02E-07,  avg # of iterations = 10.2

[...]

     total energy              =   -2953.97109057 Ry
     estimated scf accuracy    <       0.00000014 Ry

     iteration # 76     ecut=    29.40 Ry     beta= 0.05
     Davidson diagonalization with overlap
     ethr =  2.88E-11,  avg # of iterations =  3.1

     negative rho (up, down):  1.668E-02 0.000E+00

     Adding external electric field

     Computed dipole along edir(3) :
        Dipole                0.5339 Ry au,          1.3570 Debye
        Dipole field          0.0010 Ry au,

        Potential amp.       -0.0934 Ry
        Total length         46.3494 bohr

     End of self-consistent calculation

          k = 0.0000 0.0000 0.0000 ( 18029 PWs)   bands (ev):

   -56.5926 -56.5590 -55.7104 -55.6764 -55.6662 -55.6314 -55.4899 -55.4537
   -55.3591 -55.2408 -55.2272 -55.2255 -55.2069 -55.1301 -54.7231 -54.6738
   -33.0193 -32.8670 -32.8389 -32.7690 -32.6781 -32.6455 -32.1782 -32.1487
   -32.0254 -31.9752 -31.9274 -31.9083 -31.8791 -31.8689 -31.8412 -31.8352
   -31.8160 -31.8112 -31.7883 -31.7730 -31.7656 -31.7093 -31.7049 -31.6675
   -31.6538 -31.6318 -31.6240 -31.6160 -31.5925 -31.5839 -31.5805 -31.5563
   -31.4635 -31.4509 -31.4167 -31.4039 -31.3768 -31.3677 -31.3542 -31.3353
   -31.3074 -31.2568 -31.2380 -30.9668 -30.9451 -30.9161 -30.8921 -30.7829
   -18.7764 -16.7479 -16.2841 -16.0429 -15.9487 -15.8663 -15.8267 -15.7832
   -15.6351 -15.5628 -15.5427 -15.5405 -15.4725 -15.3283 -15.2742 -15.1764
   -15.0902 -14.9490 -14.9375 -14.8974 -14.8833 -14.8474 -14.8435 -14.7922
   -14.6244 -14.5886 -14.5428 -14.4833 -14.3922 -14.1712 -13.7394 -13.6297
   -12.9711  -7.7743  -6.5575  -4.3152  -3.7826  -3.5180  -3.4854  -3.3572
    -3.3530  -3.3097  -3.1769  -3.1625  -3.0871  -3.0614  -3.0236  -2.9475
    -2.9047  -2.8697  -2.7770  -2.7632  -2.7436  -2.7351  -2.7149  -2.5973
    -2.5534  -2.5030  -2.3996  -2.2895  -2.2468  -2.2198  -2.1739  -2.1405
    -2.0894  -2.0779  -2.0659  -2.0542  -1.9504  -1.8287  -1.8031  -1.7799
    -1.7341  -1.7186  -1.7108  -1.6872  -1.6025  -1.4936  -1.4008  -1.3329
    -1.3259  -1.2510  -1.2426  -1.1847  -1.0731  -1.0108  -1.0085  -0.9864
    -0.8826  -0.8577  -0.7861  -0.7231  -0.6645  -0.6115  -0.5487  -0.4965
    -0.4738  -0.4640  -0.3662  -0.2968  -0.2718  -0.2162  -0.2088  -0.2033
    -0.1764  -0.0814  -0.0457   0.0310   0.0664   0.1143   0.1499   0.2287
     0.2885   0.3543   0.4012   0.4230   0.4889   0.5440   0.5995   0.6905
     0.7476   0.7535   0.7806   0.8396   0.8530   0.9274   1.0097   1.0291
     1.0963   1.1673   1.3305   1.3695   1.6153   1.6894   2.3134   2.6848
     2.8459   3.1411   3.3308   3.4690   3.6640   3.6743   3.6816   3.9028
     3.9313

[...]

          k = 0.0380-0.0419 0.0000 ( 17876 PWs)   bands (ev):

[...]

          k =-0.0760-0.0000 0.0000 ( 17886 PWs)   bands (ev):

[...]

          k =-0.0760-0.0839 0.0000 ( 17948 PWs)   bands (ev):

   -56.5760 -56.5755 -55.6954 -55.6910 -55.6534 -55.6444 -55.4759 -55.4675
   -55.3567 -55.2294 -55.2238 -55.2237 -55.2222 -55.1333 -54.7159 -54.6809
   -32.8529 -32.8525 -32.8363 -32.8361 -32.7222 -32.7218 -32.0019 -31.9960
   -31.9845 -31.9775 -31.9013 -31.8867 -31.8855 -31.8812 -31.8745 -31.8729
   -31.8655 -31.8575 -31.8311 -31.8142 -31.7209 -31.7143 -31.6828 -31.6750
   -31.6514 -31.6160 -31.5837 -31.5694 -31.5693 -31.5674 -31.5463 -31.5281
   -31.4775 -31.4487 -31.4485 -31.4445 -31.4285 -31.4096 -31.4095 -31.3987
   -31.3722 -31.3368 -31.0988 -31.0365 -30.9426 -30.9172 -30.9018 -30.8549
   -18.7756 -16.0986 -16.0966 -16.0612 -16.0606 -15.7939 -15.7906 -15.7008
   -15.6953 -15.5635 -15.4431 -15.3388 -15.3262 -15.2923 -15.2657 -15.1554
   -15.1345 -15.1232 -15.1128 -15.0048 -14.9857 -14.9378 -14.9236 -14.9073
   -14.9007 -14.6060 -14.5895 -14.4895 -14.4635 -14.3235 -13.7333 -13.7333
   -12.9897  -7.7678  -6.5506  -3.1972  -3.1885  -3.1577  -3.1338  -3.1330
    -3.0771  -2.9755  -2.9290  -2.9265  -2.9258  -2.8468  -2.7803  -2.7724
    -2.6985  -2.6654  -2.6482  -2.5915  -2.5766  -2.5126  -2.4861  -2.4780
    -2.4603  -2.4367  -2.4354  -2.3414  -2.2753  -2.2294  -2.2242  -2.1647
    -2.1345  -2.0752  -2.0532  -2.0422  -2.0098  -1.9680  -1.9555  -1.9186
    -1.8755  -1.8409  -1.7773  -1.6113  -1.6022  -1.5931  -1.5727  -1.4501
    -1.4428  -1.4087  -1.3774  -1.3718  -1.3005  -1.2507  -1.2136  -1.1612
    -1.0746  -1.0532  -0.9484  -0.8963  -0.8533  -0.7976  -0.6921  -0.6718
    -0.6643  -0.6532  -0.6226  -0.5528  -0.5183  -0.5148  -0.3915  -0.3673
    -0.3291  -0.2998  -0.2422  -0.2129  -0.1537  -0.1216  -0.0521  -0.0380
     0.0017   0.0789   0.1540   0.1883   0.2390   0.2454   0.5198   0.5934
     0.7229   0.7861   0.8487   0.9164   0.9818   1.0103   1.0396   1.1646
     1.1689   1.1783   1.1788   1.2493   1.2545   1.5940   2.1914   3.2609
     3.2611   3.3274   3.3280   3.6489   3.6552   3.7622   3.7725   3.9327
     3.9472

     the Fermi energy is     2.5116 ev

!    total energy              =   -2953.97110735 Ry
     estimated scf accuracy    <       0.00000007 Ry
     smearing contrib. (-TS)   =      -0.00442765 Ry
     internal energy E=F+TS    =   -2953.96667970 Ry

     The total energy is F=E-TS. E is the sum of the following terms:
     one-electron contribution =  -24343.45903414 Ry
     hartree contribution      =   12263.64814956 Ry
     xc contribution           =    -488.76890202 Ry
     ewald contribution        =    9614.61256899 Ry
     electric field correction =       0.00053791 Ry

     convergence has been achieved in  76 iterations

     Forces acting on atoms (cartesian axes, Ry/au):

     atom    1 type  1   force =    -0.00002922   -0.00048510    0.12442385
     atom    2 type  1   force =    -0.00003628   -0.00048582   -0.15977268
     atom    3 type  2   force =     0.00020036   -0.00023753   -0.06784854
     atom    4 type  2   force =     0.00000226   -0.00009034    0.02612483
     atom    5 type  2   force =    -0.01436819    0.00191524   -0.00990935
     atom    6 type  2   force =     0.01615189    0.00232549   -0.01028546
     atom    7 type  1   force =     0.00071955   -0.00389792    0.02848028
     atom    8 type  1   force =    -0.00033632   -0.00435810    0.10935064
     atom    9 type  2   force =     0.00002579    0.00001716    0.00005888
     atom   10 type  2   force =    -0.00225616    0.00266772   -0.07362314
     atom   11 type  2   force =     0.00081013   -0.00003005   -0.00023969
     atom   12 type  2   force =    -0.00043068    0.00004570   -0.00020094
     atom   13 type  1   force =    -0.00001578    0.00013717   -0.00010236
     atom   14 type  1   force =    -0.00034239    0.00049288   -0.00039674
     atom   15 type  2   force =     0.00002895   -0.00065907   -0.00021450
     atom   16 type  2   force =    -0.00018732    0.00000103    0.00042288
     atom   17 type  2   force =    -0.00064799   -0.00029566   -0.00033451
     atom   18 type  2   force =     0.00028521   -0.00024372    0.00017021
     atom   19 type  1   force =     0.00053162    0.00007899   -0.00022370
     atom   20 type  1   force =    -0.00025460   -0.00068897   -0.00082561
     atom   21 type  2   force =     0.00006668   -0.00003771    0.09952751
     atom   22 type  2   force =     0.00010945   -0.00046863    0.00023780
     atom   23 type  2   force =    -0.07970788   -0.00006291   -0.03245039
     atom   24 type  2   force =     0.07957892    0.00037631   -0.03250904
     atom   25 type  1   force =    -0.00000669   -0.00057566    0.12405990
     atom   26 type  1   force =    -0.00010600   -0.00062835   -0.15990000
     atom   27 type  2   force =     0.00033194   -0.00035874   -0.06691870
     atom   28 type  2   force =    -0.00002395    0.00017845    0.02514786
     atom   29 type  2   force =    -0.01495962    0.00189705   -0.00988573
     atom   30 type  2   force =     0.01664588    0.00242475   -0.01021915
     atom   31 type  1   force =     0.00078440   -0.00077528    0.02375075
     atom   32 type  1   force =    -0.00022924    0.00200634    0.10997652
     atom   33 type  2   force =     0.00004670   -0.00026904    0.00032224
     atom   34 type  2   force =    -0.00212160    0.00207082   -0.07174292
     atom   35 type  2   force =     0.00023435   -0.00012194   -0.00009084
     atom   36 type  2   force =    -0.00016068   -0.00024369   -0.00016248
     atom   37 type  1   force =     0.00041625   -0.00002510    0.00037980
     atom   38 type  1   force =     0.00001717   -0.00057658   -0.00017696
     atom   39 type  2   force =     0.00007877    0.00018612    0.00063213
     atom   40 type  2   force =    -0.00009326   -0.00024132    0.00023007
     atom   41 type  2   force =     0.00071466   -0.00041526   -0.00001531
     atom   42 type  2   force =    -0.00100278   -0.00036928    0.00061830
     atom   43 type  1   force =     0.00027554   -0.00050820    0.00018379
     atom   44 type  1   force =    -0.00039148    0.00006677   -0.00094556
     atom   45 type  2   force =     0.00005633   -0.00004693    0.09949042
     atom   46 type  2   force =    -0.07971650    0.00000241   -0.03247222
     atom   47 type  2   force =     0.07959658    0.00042990   -0.03249721
     atom   48 type  3   force =    -0.00047834   -0.00014046   -0.00033593
     atom   49 type  4   force =    -0.00033867    0.00012080    0.00012111
     atom   50 type  5   force =    -0.00047312    0.00002722    0.00017649
     atom   51 type  5   force =    -0.00015145   -0.00065593    0.00057426
     atom   52 type  5   force =     0.00057031    0.00011345    0.00021126
     atom   53 type  2   force =     0.00320944   -0.00281943    0.00109129
     atom   54 type  5   force =    -0.00270277    0.00296674   -0.00113428
     atom   55 type  5   force =     0.00007982    0.00026421   -0.00032911

     Total force =     0.423397     Total SCF correction =     0.000710
  @ DRIVER MODE: Message from server: STATUS
  @ DRIVER MODE: Message from server: GETFORCE
  @ DRIVER MODE: Returning v,forces,stress,ensemble

     Writing output data file ./calc.save/
  @ DRIVER MODE: Message from server: EXIT
  @ DRIVE MODE: Exiting

     General routines

     Parallel routines

   This run was terminated on:   4:46:38  16Sep2021

   JOB DONE.