     Program PWSCF v.6.7GPU starts on  9Sep2021 at  8:12: 8

     R & G space division:  proc/nbgrp/npool/nimage =      10
     Reading input from /storage/home/hcoda1/3/ntian30/research/carbon/CxH_vib/CH2_calc/ads_slab/CH2N2H_a/out_0034/pw.inp
Warning: card &CELL ignored
Warning: card   CELL_DYNAMICS='IPI', ignored
Warning: card / ignored

     Current dimensions of program PWSCF are:
     Max number of different atomic species (ntypx) = 10
     Max number of k-points (npk) =  40000
     Max angular momentum in pseudopotentials (lmaxx) =  3
     Presently no symmetry can be used with electric field

     Message from routine cell_base_init:
     DEPRECATED: use true lattice parameter, not A to a.u. conversion factor

     IMPORTANT: XC functional enforced from input :
     Exchange-correlation= BEEF-VDW
                           (   1   4  43  14   2   0   0)
     Any further DFT definition will be discarded
     Please, verify this is what you really want

  @ DRIVER MODE: Connecting to
 qe_1139763_2767385.sched-torque.pace.gatech.eduvzl8s1af_scratch
  using UNIX socket
  @ DRIVER MODE: Message from server: STATUS
  @ DRIVER MODE: Message from server: INIT
  @ DRIVER MODE: Receiving replica           0          -1
  @ DRIVER MODE: Receiving encoded integer          25
  @ DRIVER MODE:  SCF:  T  FORCE:  T  STRESS:  F  VC:  F  ENSEMBLE:  F
  @ DRIVER MODE:  SCF:  T  FORCE:  T  STRESS:  F  VC:  F  ENSEMBLE:  F

     Using Slab Decomposition

     bravais-lattice index     =            0
     lattice parameter (alat)  =       1.8897  a.u.
     unit-cell volume          =    6658.9804 (a.u.)^3
     number of atoms/cell      =           53
     number of atomic types    =            5
     number of electrons       =       395.00
     number of Kohn-Sham states=          207
     kinetic-energy cutoff     =      29.3995  Ry
     charge density cutoff     =     293.9946  Ry
     scf convergence threshold =      7.3E-08
     mixing beta               =       0.0500
     number of iterations used =            8  plain     mixing
     Exchange-correlation= BEEF-VDW
                           (   1   4  43  14   2   0   0)

     celldm(1)=   1.889726  celldm(2)=   0.000000  celldm(3)=   0.000000
     celldm(4)=   0.000000  celldm(5)=   0.000000  celldm(6)=   0.000000

     crystal axes: (cart. coord. in units of alat)
               a(1) = (   6.579727   0.000000   0.000000 )
               a(2) = (  -0.000775   5.961596   0.000000 )
               a(3) = (   0.000000   0.000000  25.155947 )

     reciprocal axes: (cart. coord. in units 2 pi/alat)
               b(1) = (  0.151982  0.000020  0.000000 )
               b(2) = (  0.000000  0.167740  0.000000 )
               b(3) = (  0.000000  0.000000  0.039752 )

     PseudoPot. # 1 for Ti read from file:
     /storage/coda1/p-amedford6/0/shared/rich_project_chbe-medford/medford-share/data/pseudos_module/espresso/nninc/pbe/van/Ti.UPF
     MD5 check sum: 8e4df49b7f0d34bbd5052bf3f5ea0213
     Pseudo is Ultrasoft, Zval = 12.0
     Generated by new atomic code, or converted to UPF format
     Using radial grid of  851 points,  6 beta functions with:
                l(1) =   0
                l(2) =   0
                l(3) =   1
                l(4) =   1
                l(5) =   2
                l(6) =   2
     Q(r) pseudized with  8 coefficients,  rinner =    1.000   1.000   1.000
                                                       1.000   1.000

     PseudoPot. # 2 for O  read from file:
     /storage/coda1/p-amedford6/0/shared/rich_project_chbe-medford/medford-share/data/pseudos_module/espresso/nninc/pbe/van/O.UPF
     MD5 check sum: 78c19812648e8988a0fe644b0f25305e
     Pseudo is Ultrasoft, Zval =  6.0
     Generated by new atomic code, or converted to UPF format
     Using radial grid of  737 points,  4 beta functions with:
                l(1) =   0
                l(2) =   0
                l(3) =   1
                l(4) =   1
     Q(r) pseudized with  8 coefficients,  rinner =    0.800   0.800   0.800

     PseudoPot. # 3 for N  read from file:
     /storage/coda1/p-amedford6/0/shared/rich_project_chbe-medford/medford-share/data/pseudos_module/espresso/nninc/pbe/van/N.UPF
     MD5 check sum: 90d10febe142ad51ac9d5be1deb811c4
     Pseudo is Ultrasoft, Zval =  5.0
     Generated by new atomic code, or converted to UPF format
     Using radial grid of  729 points,  4 beta functions with:
                l(1) =   0
                l(2) =   0
                l(3) =   1
                l(4) =   1
     Q(r) pseudized with  8 coefficients,  rinner =    0.800   0.800   0.800

     PseudoPot. # 4 for C  read from file:
     /storage/coda1/p-amedford6/0/shared/rich_project_chbe-medford/medford-share/data/pseudos_module/espresso/nninc/pbe/van/C.UPF
     MD5 check sum: 1a69bf6b8db32088f5b2163dbdb77a27
     Pseudo is Ultrasoft, Zval =  4.0
     Generated by new atomic code, or converted to UPF format
     Using radial grid of  721 points,  4 beta functions with:
                l(1) =   0
                l(2) =   0
                l(3) =   1
                l(4) =   1
     Q(r) pseudized with  8 coefficients,  rinner =    0.800   0.800   0.800

     PseudoPot. # 5 for H  read from file:
     /storage/coda1/p-amedford6/0/shared/rich_project_chbe-medford/medford-share/data/pseudos_module/espresso/nninc/pbe/van/H.UPF
     MD5 check sum: b5ee9d7bfd3a09ee7748110bda690ff7
     Pseudo is Ultrasoft, Zval =  1.0
     Generated by new atomic code, or converted to UPF format
     Using radial grid of  615 points,  1 beta functions with:
                l(1) =   0
     Q(r) pseudized with  8 coefficients,  rinner =    0.800

     atomic species   valence    mass     pseudopotential
        Ti1           12.00    47.86700     Ti( 1.00)
        O1             6.00    15.99900     O ( 1.00)
        N1             5.00    14.00700     N ( 1.00)
        C1             4.00    12.01100     C ( 1.00)
        H1             1.00     1.00800     H ( 1.00)

     No symmetry found

   Cartesian axes

     site n.     atom                  positions (alat units)
         1           Ti1 tau(   1) = (   0.0004258   2.9801865   6.0000000  )
         2           Ti1 tau(   2) = (   3.2906075   1.4906267   6.0002472  )
         3           O1  tau(   3) = (   0.0006271   0.0005054   7.9858123  )
         4           O1  tau(   4) = (   3.2906025   0.0005020   7.3038282  )
         5           O1  tau(   5) = (   4.5942328   1.4918067   9.2879030  )
         6           O1  tau(   6) = (   1.9868534   1.4903216   9.2879459  )
         7           Ti1 tau(   7) = (   3.2907910   2.8959150   9.1758416  )
         8           Ti1 tau(   8) = (   0.0015273   1.4827037   9.2680791  )
         9           O1  tau(   9) = (   3.3007851   0.0027079  11.3193151  )
        10           O1  tau(  10) = (   0.0116148   5.9584955  10.6183126  )
        11           O1  tau(  11) = (   1.3147357   1.5019762  12.6210215  )
        12           O1  tau(  12) = (   5.3120411   1.4917641  12.6342566  )
        13           Ti1 tau(  13) = (   6.5359925   2.9538565  12.6086018  )
        14           Ti1 tau(  14) = (   3.2189980   1.4905645  12.4770757  )
        15           O1  tau(  15) = (   0.0426301   5.9606301  14.6312846  )
        16           O1  tau(  16) = (   3.3149351   0.0098317  13.8848037  )
        17           O1  tau(  17) = (   4.5523768   1.5206755  16.0744300  )
        18           O1  tau(  18) = (   2.0715852   1.4807026  15.9918588  )
        19           Ti1 tau(  19) = (   3.2935730   2.9941335  15.6827836  )
        20           Ti1 tau(  20) = (   0.0200723   1.3023755  15.9747514  )
        21           O1  tau(  21) = (   3.2904802   0.0005063   4.7018136  )
        22           O1  tau(  22) = (   6.5179923   0.0002674  17.1556216  )
        23           O1  tau(  23) = (   1.3043587   1.4918075   6.0039043  )
        24           O1  tau(  24) = (   5.2767064   1.4903225   6.0039473  )
        25           Ti1 tau(  25) = (   0.0000382   5.9609847   6.0000000  )
        26           Ti1 tau(  26) = (   3.2902200   4.4714249   6.0002472  )
        27           O1  tau(  27) = (   0.0002396   2.9813036   7.9858123  )
        28           O1  tau(  28) = (   3.2902150   2.9813002   7.3038282  )
        29           O1  tau(  29) = (   4.5938453   4.4726049   9.2879030  )
        30           O1  tau(  30) = (   1.9864658   4.4711199   9.2879459  )
        31           Ti1 tau(  31) = (   3.2891106   5.8743827   9.1763621  )
        32           Ti1 tau(  32) = (   0.0006254   4.4649316   9.2693709  )
        33           O1  tau(  33) = (   3.3053585   2.9833221  11.3185053  )
        34           O1  tau(  34) = (   0.0092240   2.9805883  10.6323155  )
        35           O1  tau(  35) = (   1.3157767   4.4721532  12.6203727  )
        36           O1  tau(  36) = (   5.3104355   4.4689601  12.6331991  )
        37           Ti1 tau(  37) = (   6.5385524   5.9338372  12.5465384  )
        38           Ti1 tau(  38) = (   3.2200853   4.4710709  12.4725482  )
        39           O1  tau(  39) = (   0.0068575   2.9964749  14.7765288  )
        40           O1  tau(  40) = (   3.3021705   2.9848394  13.8818356  )
        41           O1  tau(  41) = (   4.5334443   4.4765196  15.9883447  )
        42           O1  tau(  42) = (   2.0816803   4.4801587  16.0471567  )
        43           Ti1 tau(  43) = (   3.3155128   0.0116264  15.6901768  )
        44           Ti1 tau(  44) = (   6.5575601   4.4671909  15.9479714  )
        45           O1  tau(  45) = (   3.2900926   2.9813045   4.7018136  )
        46           O1  tau(  46) = (   1.3039711   4.4726057   6.0039043  )
        47           O1  tau(  47) = (   5.2763189   4.4711207   6.0039473  )
        48           N1  tau(  48) = (   0.4270260   2.3853988  17.9668900  )
        49           C1  tau(  49) = (   0.9469377   1.9340014  19.0583692  )
        50           H1  tau(  50) = (   1.0789317   2.5769861  19.9249762  )
        51           H1  tau(  51) = (   1.2326487   0.8959138  19.0941702  )
        52           N1  tau(  52) = (   0.0025679   3.6232397  17.7996529  )
        53           H1  tau(  53) = (   0.1020252   4.2424666  18.6151602  )

     number of k points=    10  Fermi-Dirac smearing, width (Ry)=  0.0073
                       cart. coord. in units 2pi/alat
        k(    1) = (   0.0000000   0.0000000   0.0000000), wk =   0.1250000
        k(    2) = (   0.0000000   0.0419351   0.0000000), wk =   0.2500000
        k(    3) = (   0.0000000  -0.0838702   0.0000000), wk =   0.1250000
        k(    4) = (   0.0379955   0.0000049   0.0000000), wk =   0.2500000
        k(    5) = (   0.0379955   0.0419400   0.0000000), wk =   0.2500000
        k(    6) = (   0.0379955  -0.0838652   0.0000000), wk =   0.2500000
        k(    7) = (   0.0379955  -0.0419301   0.0000000), wk =   0.2500000
        k(    8) = (  -0.0759910  -0.0000099   0.0000000), wk =   0.1250000
        k(    9) = (  -0.0759910   0.0419252   0.0000000), wk =   0.2500000
        k(   10) = (  -0.0759910  -0.0838800   0.0000000), wk =   0.1250000

     Initial potential from superposition of free atoms

     starting charge  378.99916, renormalised to  395.00000

     negative rho (up, down):  1.649E-02 0.000E+00

     %%%%%%%%%%%%%%%%%%%%%%%%%%%%%%%%%%%%%%%%%%%%%%%%%%%%%%%%%%%%%%%%%%%%%%%%
     %                                                                      %
     % You are using vdW-DF, which was implemented by the Thonhauser group. %
     % Please cite the following two papers that made this development      %
     % possible and the two reviews that describe the various versions:     %
     %                                                                      %
     %   T. Thonhauser et al., PRL 115, 136402 (2015).                      %
     %   T. Thonhauser et al., PRB 76, 125112 (2007).                       %
     %   K. Berland et al., Rep. Prog. Phys. 78, 066501 (2015).             %
     %   D.C. Langreth et al., J. Phys.: Condens. Matter 21, 084203 (2009). %
     %                                                                      %
     %                                                                      %
     % If you are calculating the stress with vdW-DF, please also cite:     %
     %                                                                      %
     %   R. Sabatini et al., J. Phys.: Condens. Matter 24, 424209 (2012).   %
     %                                                                      %
     %%%%%%%%%%%%%%%%%%%%%%%%%%%%%%%%%%%%%%%%%%%%%%%%%%%%%%%%%%%%%%%%%%%%%%%%

     Adding external electric field

     Computed dipole along edir(3) :
        Dipole               -8.3970 Ry au,        -21.3430 Debye
        Dipole field         -0.0158 Ry au,

        Potential amp.        1.4689 Ry
        Total length         46.3494 bohr

     Starting wfcs are  299 atomic wfcs
  @ DRIVER MODE: Message from server: STATUS
  @ DRIVER MODE: Message from server: POSDATA
  @ DRIVER MODE: Reading and sharing cell
  @ DRIVER MODE: Reading and sharing positions
  @ DRIVER MODE: Received positions

     Self-consistent Calculation

     iteration #  1     ecut=    29.40 Ry     beta= 0.05
     Davidson diagonalization with overlap
     c_bands:  2 eigenvalues not converged
     c_bands:  1 eigenvalues not converged
     c_bands:  2 eigenvalues not converged
     c_bands:  3 eigenvalues not converged
     c_bands:  3 eigenvalues not converged
     c_bands:  2 eigenvalues not converged
     c_bands:  1 eigenvalues not converged
     ethr =  1.00E-05,  avg # of iterations = 19.3

[...]

     total energy              =   -2613.94604141 Ry
     estimated scf accuracy    <    3601.42609248 Ry

[...]

     iteration #  3     ecut=    29.40 Ry     beta= 0.05
     Davidson diagonalization with overlap
     ethr =  1.00E-02,  avg # of iterations = 13.9

[...]

     iteration # 51     ecut=    29.40 Ry     beta= 0.05
     Davidson diagonalization with overlap
     c_bands:  1 eigenvalues not converged
     ethr =  8.59E-07,  avg # of iterations =  6.5

[...]

     total energy              =   -2939.13535216 Ry
     estimated scf accuracy    <       0.00000010 Ry

     iteration # 80     ecut=    29.40 Ry     beta= 0.05
     Davidson diagonalization with overlap
     ethr =  2.52E-11,  avg # of iterations =  7.8

     negative rho (up, down):  1.681E-02 0.000E+00

     Adding external electric field

     Computed dipole along edir(3) :
        Dipole                0.7869 Ry au,          2.0002 Debye
        Dipole field          0.0015 Ry au,

        Potential amp.       -0.1377 Ry
        Total length         46.3494 bohr

     End of self-consistent calculation

          k = 0.0000 0.0000 0.0000 ( 18029 PWs)   bands (ev):

   -55.8529 -55.8517 -55.8188 -55.8157 -55.7463 -55.7032 -55.6650 -55.6636
   -55.6300 -55.6297 -55.6255 -55.5918 -55.1897 -55.1439 -54.8287 -54.7946
   -32.4058 -32.3358 -32.2419 -32.1635 -32.1495 -32.1451 -32.1310 -32.1173
   -32.0960 -32.0828 -32.0299 -32.0117 -32.0053 -32.0035 -31.9932 -31.9899
   -31.9577 -31.9463 -31.9400 -31.9373 -31.9103 -31.9075 -31.8922 -31.8900
   -31.8593 -31.8551 -31.8528 -31.8519 -31.8270 -31.8110 -31.8043 -31.7936
   -31.7812 -31.7801 -31.7718 -31.7390 -31.7314 -31.4547 -31.4166 -31.3900
   -31.3364 -31.3021 -31.2355 -31.1478 -31.1254 -31.0525 -30.9660 -30.8547
   -17.9037 -16.6122 -16.3322 -16.0765 -16.0014 -15.9976 -15.8639 -15.7012
   -15.5885 -15.5214 -15.4413 -15.4114 -15.3895 -15.3539 -15.3477 -15.3099
   -15.3012 -15.2750 -15.2721 -15.2098 -15.2060 -15.1990 -15.1893 -15.1050
   -15.0473 -14.9959 -14.9882 -14.9150 -14.8803 -14.3534 -13.3305 -13.2142
   -12.1523  -7.8573  -5.3594  -4.5381  -3.9890  -3.8298  -3.7600  -3.7256
    -3.6482  -3.4893  -3.4103  -3.1280  -3.0797  -3.0241  -3.0147  -2.9781
    -2.9327  -2.7818  -2.7040  -2.6773  -2.6618  -2.6394  -2.6243  -2.6123
    -2.5961  -2.5770  -2.4952  -2.4146  -2.3703  -2.2938  -2.2802  -2.2450
    -2.1652  -2.1649  -2.1240  -2.1045  -2.0865  -2.0700  -2.0612  -2.0462
    -1.9046  -1.8469  -1.8348  -1.6538  -1.6339  -1.5885  -1.4621  -1.4557
    -1.3390  -1.3237  -1.2838  -1.2459  -1.1727  -1.1515  -1.0398  -0.9985
    -0.9368  -0.8884  -0.8741  -0.7989  -0.7341  -0.6960  -0.6826  -0.6177
    -0.6109  -0.5977  -0.4630  -0.3858  -0.3333  -0.2773  -0.2549  -0.1990
    -0.1594  -0.1162  -0.0287  -0.0017   0.0100   0.0684   0.0899   0.1154
     0.1270   0.1468   0.1760   0.2313   0.3494   0.3808   0.4573   0.4715
     0.5316   0.6660   0.8041   0.8713   0.9240   1.0195   1.1246   1.1941
     1.2674   1.3865   1.7643   1.8098   2.1388   3.2668   3.3688   3.4016
     3.4124   3.5154   3.6649   3.7260   3.7411   3.7824   3.8164

[...]

          k = 0.0380-0.0419 0.0000 ( 17876 PWs)   bands (ev):

[...]

          k =-0.0760-0.0000 0.0000 ( 17886 PWs)   bands (ev):

[...]

          k =-0.0760-0.0839 0.0000 ( 17948 PWs)   bands (ev):

   -55.8360 -55.8356 -55.8342 -55.8330 -55.7377 -55.7117 -55.6482 -55.6469
   -55.6466 -55.6459 -55.6094 -55.6081 -55.1818 -55.1516 -54.8117 -54.8114
   -32.2080 -32.2064 -32.1512 -32.1510 -32.1307 -32.1304 -32.0965 -32.0936
   -32.0847 -32.0679 -32.0020 -31.9995 -31.9939 -31.9923 -31.9703 -31.9627
   -31.9558 -31.9553 -31.9507 -31.9492 -31.9475 -31.9350 -31.9293 -31.9229
   -31.9108 -31.9059 -31.8605 -31.8503 -31.8490 -31.8482 -31.8402 -31.8394
   -31.8259 -31.8253 -31.8250 -31.8236 -31.6839 -31.4498 -31.4158 -31.4108
   -31.3938 -31.3374 -31.1382 -31.1380 -31.0484 -31.0481 -31.0094 -31.0092
   -17.8901 -16.0273 -16.0245 -15.8170 -15.7780 -15.7587 -15.7529 -15.6632
   -15.5774 -15.5440 -15.5410 -15.4535 -15.4278 -15.4117 -15.3957 -15.3901
   -15.3812 -15.3515 -15.3167 -15.3092 -15.2950 -15.2894 -15.2770 -15.2206
   -15.1693 -15.1651 -15.1423 -15.0704 -14.8313 -14.6938 -13.3161 -13.3159
   -12.1134  -7.7967  -5.4055  -4.5986  -3.3218  -3.3123  -3.0661  -3.0231
    -3.0189  -2.9923  -2.9511  -2.7901  -2.7776  -2.7580  -2.7504  -2.7057
    -2.6821  -2.6619  -2.6423  -2.6368  -2.6080  -2.5818  -2.5667  -2.5300
    -2.5228  -2.5142  -2.4825  -2.4717  -2.4248  -2.4197  -2.3990  -2.3715
    -2.3617  -2.3273  -2.1796  -2.1076  -2.0794  -1.9949  -1.9880  -1.9479
    -1.9245  -1.9038  -1.8920  -1.8687  -1.8306  -1.6945  -1.6121  -1.5508
    -1.5421  -1.4575  -1.4299  -1.3680  -1.2786  -1.2530  -1.2319  -1.1604
    -1.0846  -1.0465  -0.9945  -0.9820  -0.9140  -0.9059  -0.8482  -0.8115
    -0.8095  -0.7312  -0.7014  -0.6546  -0.6185  -0.6016  -0.5787  -0.5519
    -0.5364  -0.5132  -0.4360  -0.3533  -0.3016  -0.2408  -0.1480  -0.0182
     0.1018   0.2146   0.2364   0.2805   0.3337   0.3678   0.4609   0.4646
     0.5280   0.5515   0.5927   0.6702   0.6815   0.7060   0.8171   0.8469
     1.5586   1.5590   1.6297   1.6298   2.0794   3.5897   3.6186   3.6377
     3.6695   3.7988   3.8048   3.8152   3.8160   3.9572   3.9648

     the Fermi energy is     3.2767 ev

!    total energy              =   -2939.13535999 Ry
     estimated scf accuracy    <       0.00000002 Ry
     smearing contrib. (-TS)   =      -0.02098197 Ry
     internal energy E=F+TS    =   -2939.11437802 Ry

     The total energy is F=E-TS. E is the sum of the following terms:
     one-electron contribution =  -24492.28980588 Ry
     hartree contribution      =   12334.09734758 Ry
     xc contribution           =    -485.36589922 Ry
     ewald contribution        =    9704.44281087 Ry
     electric field correction =       0.00116863 Ry

     convergence has been achieved in  80 iterations

     Forces acting on atoms (cartesian axes, Ry/au):

     atom    1 type  1   force =     0.00007890   -0.00023695    0.09632422
     atom    2 type  1   force =     0.00005523   -0.00057112   -0.17518229
     atom    3 type  2   force =     0.00015208   -0.00013295   -0.02409475
     atom    4 type  2   force =    -0.00000485   -0.00124631    0.05223618
     atom    5 type  2   force =    -0.01057293   -0.00048458    0.00249914
     atom    6 type  2   force =     0.01239824    0.00022227    0.00287395
     atom    7 type  1   force =     0.00097851    0.00026378   -0.01174414
     atom    8 type  1   force =    -0.00014049    0.00776060    0.02263482
     atom    9 type  2   force =    -0.00019577   -0.00015506   -0.00030044
     atom   10 type  2   force =    -0.00262131    0.00115029   -0.01267143
     atom   11 type  2   force =     0.00006103   -0.00012577    0.00005026
     atom   12 type  2   force =     0.00009793    0.00017895   -0.00039039
     atom   13 type  1   force =     0.00044123   -0.00034915    0.00024040
     atom   14 type  1   force =     0.00015608    0.00032600   -0.00012824
     atom   15 type  2   force =    -0.00023197    0.00025495    0.00007271
     atom   16 type  2   force =     0.00011136   -0.00021361    0.00032800
     atom   17 type  2   force =     0.00051577   -0.00002284    0.00036520
     atom   18 type  2   force =     0.00061016   -0.00016611    0.00029736
     atom   19 type  1   force =    -0.00116233    0.00000027    0.00025190
     atom   20 type  1   force =     0.00028537   -0.00032981   -0.00068822
     atom   21 type  2   force =     0.00004816    0.00000504    0.10311352
     atom   22 type  2   force =     0.00013581   -0.00017184    0.00002471
     atom   23 type  2   force =    -0.07160949   -0.00014929   -0.02764830
     atom   24 type  2   force =     0.07154812    0.00035098   -0.02771004
     atom   25 type  1   force =     0.00015716   -0.00023583    0.09586498
     atom   26 type  1   force =     0.00009851   -0.00040754   -0.17543796
     atom   27 type  2   force =     0.00017648   -0.00021206   -0.02292735
     atom   28 type  2   force =     0.00006370   -0.00101531    0.05219733
     atom   29 type  2   force =    -0.01087145    0.00047426    0.00242183
     atom   30 type  2   force =     0.01257539    0.00064162    0.00276876
     atom   31 type  1   force =     0.00086501    0.00347527   -0.01292465
     atom   32 type  1   force =     0.00002507   -0.00923977    0.02306305
     atom   33 type  2   force =    -0.00048226    0.00013676    0.00019908
     atom   34 type  2   force =    -0.00302422    0.00022802   -0.01289779
     atom   35 type  2   force =     0.00008303    0.00009424   -0.00008501
     atom   36 type  2   force =     0.00010280    0.00033930   -0.00040044
     atom   37 type  1   force =     0.00033162    0.00036399    0.00007163
     atom   38 type  1   force =     0.00002899   -0.00043242    0.00016706
     atom   39 type  2   force =     0.00015238    0.00042373    0.00053044
     atom   40 type  2   force =     0.00035626    0.00013031   -0.00040253
     atom   41 type  2   force =     0.00041690    0.00004513    0.00028843
     atom   42 type  2   force =     0.00091836    0.00003662    0.00051808
     atom   43 type  1   force =    -0.00154825   -0.00039248   -0.00030692
     atom   44 type  1   force =     0.00068110   -0.00056102   -0.00093415
     atom   45 type  2   force =     0.00006109   -0.00003725    0.10309216
     atom   46 type  2   force =    -0.07164439   -0.00007204   -0.02766196
     atom   47 type  2   force =     0.07158238    0.00032364   -0.02772929
     atom   48 type  3   force =    -0.00071255    0.00036547    0.00079495
     atom   49 type  4   force =    -0.00074578   -0.00016746   -0.00014185
     atom   50 type  5   force =    -0.00098100    0.00067351    0.00055449
     atom   51 type  5   force =     0.00048334   -0.00056371    0.00016969
     atom   52 type  3   force =     0.00017360    0.00624879    0.00369770
     atom   53 type  5   force =    -0.00045813   -0.00682156   -0.00530387

     Total force =     0.365919     Total SCF correction =     0.000314
  @ DRIVER MODE: Message from server: STATUS
  @ DRIVER MODE: Message from server: GETFORCE
  @ DRIVER MODE: Returning v,forces,stress,ensemble

     Writing output data file ./calc.save/
  @ DRIVER MODE: Message from server: EXIT
  @ DRIVE MODE: Exiting

     General routines

     Parallel routines

   This run was terminated on:   8:32:47   9Sep2021

   JOB DONE.