     Program PWSCF v.6.7GPU starts on 23Aug2021 at 14:21:22

     R & G space division:  proc/nbgrp/npool/nimage =       6
     Reading input from /storage/home/hcoda1/3/ntian30/research/carbon/CH2_vib/ads_slab/CH2N2H_a/out_0003/pw.inp
Warning: card &CELL ignored
Warning: card   CELL_DYNAMICS='IPI', ignored
Warning: card / ignored

     Current dimensions of program PWSCF are:
     Max number of different atomic species (ntypx) = 10
     Max number of k-points (npk) =  40000
     Max angular momentum in pseudopotentials (lmaxx) =  3
     Presently no symmetry can be used with electric field

     Message from routine cell_base_init:
     DEPRECATED: use true lattice parameter, not A to a.u. conversion factor

     IMPORTANT: XC functional enforced from input :
     Exchange-correlation= BEEF-VDW
                           (   1   4  43  14   2   0   0)
     Any further DFT definition will be discarded
     Please, verify this is what you really want

  @ DRIVER MODE: Connecting to
 qe_1139763_2632802.sched-torque.pace.gatech.edud54pdtlt_scratch
  using UNIX socket
  @ DRIVER MODE: Message from server: STATUS
  @ DRIVER MODE: Message from server: INIT
  @ DRIVER MODE: Receiving replica           0          -1
  @ DRIVER MODE: Receiving encoded integer          25
  @ DRIVER MODE:  SCF:  T  FORCE:  T  STRESS:  F  VC:  F  ENSEMBLE:  F
  @ DRIVER MODE:  SCF:  T  FORCE:  T  STRESS:  F  VC:  F  ENSEMBLE:  F

     Using Slab Decomposition

     bravais-lattice index     =            0
     lattice parameter (alat)  =       1.8897  a.u.
     unit-cell volume          =    6658.9804 (a.u.)^3
     number of atoms/cell      =           53
     number of atomic types    =            5
     number of electrons       =       395.00
     number of Kohn-Sham states=          207
     kinetic-energy cutoff     =      29.3995  Ry
     charge density cutoff     =     293.9946  Ry
     scf convergence threshold =      7.3E-08
     mixing beta               =       0.0500
     number of iterations used =            8  plain     mixing
     Exchange-correlation= BEEF-VDW
                           (   1   4  43  14   2   0   0)

     celldm(1)=   1.889726  celldm(2)=   0.000000  celldm(3)=   0.000000
     celldm(4)=   0.000000  celldm(5)=   0.000000  celldm(6)=   0.000000

     crystal axes: (cart. coord. in units of alat)
               a(1) = (   6.579727   0.000000   0.000000 )
               a(2) = (  -0.000775   5.961596   0.000000 )
               a(3) = (   0.000000   0.000000  25.155947 )

     reciprocal axes: (cart. coord. in units 2 pi/alat)
               b(1) = (  0.151982  0.000020  0.000000 )
               b(2) = (  0.000000  0.167740  0.000000 )
               b(3) = (  0.000000  0.000000  0.039752 )

     PseudoPot. # 1 for Ti read from file:
     /storage/coda1/p-amedford6/0/shared/rich_project_chbe-medford/medford-share/data/pseudos_module/espresso/nninc/pbe/van/Ti.UPF
     MD5 check sum: 8e4df49b7f0d34bbd5052bf3f5ea0213
     Pseudo is Ultrasoft, Zval = 12.0
     Generated by new atomic code, or converted to UPF format
     Using radial grid of  851 points,  6 beta functions with:
                l(1) =   0
                l(2) =   0
                l(3) =   1
                l(4) =   1
                l(5) =   2
                l(6) =   2
     Q(r) pseudized with  8 coefficients,  rinner =    1.000   1.000   1.000
                                                       1.000   1.000

     PseudoPot. # 2 for O  read from file:
     /storage/coda1/p-amedford6/0/shared/rich_project_chbe-medford/medford-share/data/pseudos_module/espresso/nninc/pbe/van/O.UPF
     MD5 check sum: 78c19812648e8988a0fe644b0f25305e
     Pseudo is Ultrasoft, Zval =  6.0
     Generated by new atomic code, or converted to UPF format
     Using radial grid of  737 points,  4 beta functions with:
                l(1) =   0
                l(2) =   0
                l(3) =   1
                l(4) =   1
     Q(r) pseudized with  8 coefficients,  rinner =    0.800   0.800   0.800

     PseudoPot. # 3 for N  read from file:
     /storage/coda1/p-amedford6/0/shared/rich_project_chbe-medford/medford-share/data/pseudos_module/espresso/nninc/pbe/van/N.UPF
     MD5 check sum: 90d10febe142ad51ac9d5be1deb811c4
     Pseudo is Ultrasoft, Zval =  5.0
     Generated by new atomic code, or converted to UPF format
     Using radial grid of  729 points,  4 beta functions with:
                l(1) =   0
                l(2) =   0
                l(3) =   1
                l(4) =   1
     Q(r) pseudized with  8 coefficients,  rinner =    0.800   0.800   0.800

     PseudoPot. # 4 for C  read from file:
     /storage/coda1/p-amedford6/0/shared/rich_project_chbe-medford/medford-share/data/pseudos_module/espresso/nninc/pbe/van/C.UPF
     MD5 check sum: 1a69bf6b8db32088f5b2163dbdb77a27
     Pseudo is Ultrasoft, Zval =  4.0
     Generated by new atomic code, or converted to UPF format
     Using radial grid of  721 points,  4 beta functions with:
                l(1) =   0
                l(2) =   0
                l(3) =   1
                l(4) =   1
     Q(r) pseudized with  8 coefficients,  rinner =    0.800   0.800   0.800

     PseudoPot. # 5 for H  read from file:
     /storage/coda1/p-amedford6/0/shared/rich_project_chbe-medford/medford-share/data/pseudos_module/espresso/nninc/pbe/van/H.UPF
     MD5 check sum: b5ee9d7bfd3a09ee7748110bda690ff7
     Pseudo is Ultrasoft, Zval =  1.0
     Generated by new atomic code, or converted to UPF format
     Using radial grid of  615 points,  1 beta functions with:
                l(1) =   0
     Q(r) pseudized with  8 coefficients,  rinner =    0.800

     atomic species   valence    mass     pseudopotential
        Ti1           12.00    47.86700     Ti( 1.00)
        O1             6.00    15.99900     O ( 1.00)
        N1             5.00    14.00700     N ( 1.00)
        C1             4.00    12.01100     C ( 1.00)
        H1             1.00     1.00800     H ( 1.00)

     No symmetry found

   Cartesian axes

     site n.     atom                  positions (alat units)
         1           Ti1 tau(   1) = (   0.0004258   2.9801865   6.0000000  )
         2           Ti1 tau(   2) = (   3.2906075   1.4906267   6.0002472  )
         3           O1  tau(   3) = (   0.0006271   0.0005054   7.9858123  )
         4           O1  tau(   4) = (   3.2906025   0.0005020   7.3038282  )
         5           O1  tau(   5) = (   4.5942328   1.4918067   9.2879030  )
         6           O1  tau(   6) = (   1.9868534   1.4903216   9.2879459  )
         7           Ti1 tau(   7) = (   3.2907910   2.8959150   9.1758416  )
         8           Ti1 tau(   8) = (   0.0015273   1.4827037   9.2680791  )
         9           O1  tau(   9) = (   3.3007851   0.0027079  11.3193151  )
        10           O1  tau(  10) = (   0.0116148   5.9584955  10.6183126  )
        11           O1  tau(  11) = (   1.3147357   1.5019762  12.6210215  )
        12           O1  tau(  12) = (   5.3120411   1.4917641  12.6342566  )
        13           Ti1 tau(  13) = (   6.5359925   2.9538565  12.6086018  )
        14           Ti1 tau(  14) = (   3.2189980   1.4905645  12.4770757  )
        15           O1  tau(  15) = (   0.0426301   5.9606301  14.6312846  )
        16           O1  tau(  16) = (   3.3149351   0.0098317  13.8848037  )
        17           O1  tau(  17) = (   4.5523768   1.5206755  16.0744300  )
        18           O1  tau(  18) = (   2.0715852   1.4807026  15.9918588  )
        19           Ti1 tau(  19) = (   3.2935730   2.9941335  15.6827836  )
        20           Ti1 tau(  20) = (   0.0200723   1.3023755  15.9747514  )
        21           O1  tau(  21) = (   3.2904802   0.0005063   4.7018136  )
        22           O1  tau(  22) = (   6.5179923   0.0002674  17.1556216  )
        23           O1  tau(  23) = (   1.3043587   1.4918075   6.0039043  )
        24           O1  tau(  24) = (   5.2767064   1.4903225   6.0039473  )
        25           Ti1 tau(  25) = (   0.0000382   5.9609847   6.0000000  )
        26           Ti1 tau(  26) = (   3.2902200   4.4714249   6.0002472  )
        27           O1  tau(  27) = (   0.0002396   2.9813036   7.9858123  )
        28           O1  tau(  28) = (   3.2902150   2.9813002   7.3038282  )
        29           O1  tau(  29) = (   4.5938453   4.4726049   9.2879030  )
        30           O1  tau(  30) = (   1.9864658   4.4711199   9.2879459  )
        31           Ti1 tau(  31) = (   3.2891106   5.8743827   9.1763621  )
        32           Ti1 tau(  32) = (   0.0006254   4.4649316   9.2693709  )
        33           O1  tau(  33) = (   3.3053585   2.9833221  11.3185053  )
        34           O1  tau(  34) = (   0.0092240   2.9805883  10.6323155  )
        35           O1  tau(  35) = (   1.3157767   4.4721532  12.6203727  )
        36           O1  tau(  36) = (   5.3104355   4.4689601  12.6331991  )
        37           Ti1 tau(  37) = (   6.5385524   5.9338372  12.5465384  )
        38           Ti1 tau(  38) = (   3.2200853   4.4710709  12.4725482  )
        39           O1  tau(  39) = (   0.0068575   2.9964749  14.7765288  )
        40           O1  tau(  40) = (   3.3021705   2.9848394  13.8818356  )
        41           O1  tau(  41) = (   4.5334443   4.4765196  15.9883447  )
        42           O1  tau(  42) = (   2.0816803   4.4801587  16.0471567  )
        43           Ti1 tau(  43) = (   3.3155128   0.0116264  15.6901768  )
        44           Ti1 tau(  44) = (   6.5575601   4.4671909  15.9479714  )
        45           O1  tau(  45) = (   3.2900926   2.9813045   4.7018136  )
        46           O1  tau(  46) = (   1.3039711   4.4726057   6.0039043  )
        47           O1  tau(  47) = (   5.2763189   4.4711207   6.0039473  )
        48           N1  tau(  48) = (   0.4270260   2.3753988  17.9668900  )
        49           C1  tau(  49) = (   0.9469377   1.9340014  19.0583692  )
        50           H1  tau(  50) = (   1.0789317   2.5769861  19.9249762  )
        51           H1  tau(  51) = (   1.2326487   0.8959138  19.0941702  )
        52           N1  tau(  52) = (   0.0025679   3.6232397  17.7996529  )
        53           H1  tau(  53) = (   0.1020252   4.2324666  18.6151602  )

     number of k points=    10  Fermi-Dirac smearing, width (Ry)=  0.0073
                       cart. coord. in units 2pi/alat
        k(    1) = (   0.0000000   0.0000000   0.0000000), wk =   0.1250000
        k(    2) = (   0.0000000   0.0419351   0.0000000), wk =   0.2500000
        k(    3) = (   0.0000000  -0.0838702   0.0000000), wk =   0.1250000
        k(    4) = (   0.0379955   0.0000049   0.0000000), wk =   0.2500000
        k(    5) = (   0.0379955   0.0419400   0.0000000), wk =   0.2500000
        k(    6) = (   0.0379955  -0.0838652   0.0000000), wk =   0.2500000
        k(    7) = (   0.0379955  -0.0419301   0.0000000), wk =   0.2500000
        k(    8) = (  -0.0759910  -0.0000099   0.0000000), wk =   0.1250000
        k(    9) = (  -0.0759910   0.0419252   0.0000000), wk =   0.2500000
        k(   10) = (  -0.0759910  -0.0838800   0.0000000), wk =   0.1250000

     Initial potential from superposition of free atoms

     starting charge  378.99916, renormalised to  395.00000

     negative rho (up, down):  1.649E-02 0.000E+00

     %%%%%%%%%%%%%%%%%%%%%%%%%%%%%%%%%%%%%%%%%%%%%%%%%%%%%%%%%%%%%%%%%%%%%%%%
     %                                                                      %
     % You are using vdW-DF, which was implemented by the Thonhauser group. %
     % Please cite the following two papers that made this development      %
     % possible and the two reviews that describe the various versions:     %
     %                                                                      %
     %   T. Thonhauser et al., PRL 115, 136402 (2015).                      %
     %   T. Thonhauser et al., PRB 76, 125112 (2007).                       %
     %   K. Berland et al., Rep. Prog. Phys. 78, 066501 (2015).             %
     %   D.C. Langreth et al., J. Phys.: Condens. Matter 21, 084203 (2009). %
     %                                                                      %
     %                                                                      %
     % If you are calculating the stress with vdW-DF, please also cite:     %
     %                                                                      %
     %   R. Sabatini et al., J. Phys.: Condens. Matter 24, 424209 (2012).   %
     %                                                                      %
     %%%%%%%%%%%%%%%%%%%%%%%%%%%%%%%%%%%%%%%%%%%%%%%%%%%%%%%%%%%%%%%%%%%%%%%%

     Adding external electric field

     Computed dipole along edir(3) :
        Dipole               -8.3970 Ry au,        -21.3430 Debye
        Dipole field         -0.0158 Ry au,

        Potential amp.        1.4689 Ry
        Total length         46.3494 bohr

     Starting wfcs are  299 atomic wfcs
  @ DRIVER MODE: Message from server: STATUS
  @ DRIVER MODE: Message from server: POSDATA
  @ DRIVER MODE: Reading and sharing cell
  @ DRIVER MODE: Reading and sharing positions
  @ DRIVER MODE: Received positions

     Self-consistent Calculation

     iteration #  1     ecut=    29.40 Ry     beta= 0.05
     Davidson diagonalization with overlap
     c_bands:  2 eigenvalues not converged
     c_bands:  1 eigenvalues not converged
     c_bands:  2 eigenvalues not converged
     c_bands:  3 eigenvalues not converged
     c_bands:  3 eigenvalues not converged
     c_bands:  2 eigenvalues not converged
     c_bands:  1 eigenvalues not converged
     ethr =  1.00E-05,  avg # of iterations = 19.3

[...]

     total energy              =   -2613.95117552 Ry
     estimated scf accuracy    <    3601.34614807 Ry

[...]

     iteration #  3     ecut=    29.40 Ry     beta= 0.05
     Davidson diagonalization with overlap
     ethr =  1.00E-02,  avg # of iterations = 13.8

[...]

     iteration # 61     ecut=    29.40 Ry     beta= 0.05
     Davidson diagonalization with overlap
     c_bands:  1 eigenvalues not converged
     c_bands:  2 eigenvalues not converged
     ethr =  1.58E-08,  avg # of iterations = 17.2

[...]

     total energy              =   -2939.13525698 Ry
     estimated scf accuracy    <       0.00000007 Ry

     iteration # 78     ecut=    29.40 Ry     beta= 0.05
     Davidson diagonalization with overlap
     ethr =  1.89E-11,  avg # of iterations = 12.5

     negative rho (up, down):  1.684E-02 0.000E+00

     Adding external electric field

     Computed dipole along edir(3) :
        Dipole                0.7972 Ry au,          2.0264 Debye
        Dipole field          0.0015 Ry au,

        Potential amp.       -0.1395 Ry
        Total length         46.3494 bohr

     End of self-consistent calculation

          k = 0.0000 0.0000 0.0000 ( 18029 PWs)   bands (ev):

   -55.8466 -55.8455 -55.8126 -55.8095 -55.7398 -55.6969 -55.6586 -55.6572
   -55.6237 -55.6232 -55.6186 -55.5849 -55.1846 -55.1388 -54.8224 -54.7884
   -32.3996 -32.3295 -32.2355 -32.1571 -32.1433 -32.1388 -32.1247 -32.1104
   -32.0897 -32.0765 -32.0236 -32.0055 -31.9991 -31.9973 -31.9869 -31.9837
   -31.9514 -31.9396 -31.9336 -31.9309 -31.9040 -31.9011 -31.8858 -31.8837
   -31.8528 -31.8485 -31.8464 -31.8453 -31.8202 -31.8048 -31.7975 -31.7872
   -31.7759 -31.7731 -31.7654 -31.7320 -31.7252 -31.4499 -31.4112 -31.3849
   -31.3310 -31.2969 -31.2293 -31.1416 -31.1191 -31.0463 -30.9598 -30.8485
   -17.8302 -16.6058 -16.3257 -16.0700 -15.9950 -15.9913 -15.8577 -15.6948
   -15.5821 -15.5151 -15.4349 -15.4051 -15.3832 -15.3475 -15.3413 -15.3035
   -15.2946 -15.2688 -15.2658 -15.2034 -15.2000 -15.1925 -15.1828 -15.0987
   -15.0409 -14.9894 -14.9818 -14.9084 -14.8741 -14.3467 -13.3241 -13.2077
   -12.1726  -7.8633  -5.3598  -4.5443  -3.9826  -3.8233  -3.7537  -3.7191
    -3.6422  -3.4828  -3.4040  -3.1195  -3.0705  -3.0176  -3.0083  -2.9717
    -2.9164  -2.7737  -2.6967  -2.6705  -2.6551  -2.6329  -2.6180  -2.6056
    -2.5876  -2.5706  -2.4869  -2.4080  -2.3641  -2.2871  -2.2738  -2.2375
    -2.1592  -2.1586  -2.1179  -2.0981  -2.0796  -2.0635  -2.0550  -2.0396
    -1.8980  -1.8387  -1.8281  -1.6466  -1.6207  -1.5825  -1.4552  -1.4489
    -1.3331  -1.3173  -1.2772  -1.2395  -1.1667  -1.1450  -1.0337  -0.9922
    -0.9306  -0.8820  -0.8659  -0.7925  -0.7286  -0.6945  -0.6791  -0.6113
    -0.6046  -0.5914  -0.4562  -0.3814  -0.3269  -0.2711  -0.2487  -0.1925
    -0.1534  -0.1100  -0.0246   0.0046   0.0162   0.0731   0.0961   0.1215
     0.1335   0.1531   0.1811   0.2375   0.3557   0.3868   0.4616   0.4768
     0.5372   0.6726   0.8105   0.8767   0.9303   1.0045   1.1310   1.2005
     1.2738   1.3929   1.7707   1.8162   2.1302   3.2731   3.3751   3.4079
     3.4189   3.5220   3.6712   3.7324   3.7474   3.7887   3.8227

[...]

          k = 0.0380-0.0419 0.0000 ( 17876 PWs)   bands (ev):

[...]

          k =-0.0760-0.0000 0.0000 ( 17886 PWs)   bands (ev):

[...]

          k =-0.0760-0.0839 0.0000 ( 17948 PWs)   bands (ev):

   -55.8298 -55.8293 -55.8280 -55.8269 -55.7311 -55.7055 -55.6418 -55.6405
   -55.6404 -55.6395 -55.6025 -55.6012 -55.1767 -55.1466 -54.8055 -54.8052
   -32.2018 -32.2002 -32.1450 -32.1446 -32.1244 -32.1240 -32.0903 -32.0874
   -32.0782 -32.0617 -31.9959 -31.9932 -31.9876 -31.9860 -31.9640 -31.9563
   -31.9496 -31.9490 -31.9438 -31.9426 -31.9407 -31.9287 -31.9231 -31.9167
   -31.9046 -31.8994 -31.8541 -31.8440 -31.8424 -31.8416 -31.8334 -31.8326
   -31.8193 -31.8187 -31.8182 -31.8169 -31.6787 -31.4449 -31.4106 -31.4054
   -31.3888 -31.3321 -31.1319 -31.1318 -31.0421 -31.0419 -31.0031 -31.0030
   -17.8158 -16.0210 -16.0182 -15.8105 -15.7716 -15.7523 -15.7466 -15.6569
   -15.5711 -15.5376 -15.5347 -15.4468 -15.4218 -15.4055 -15.3893 -15.3837
   -15.3752 -15.3452 -15.3102 -15.3027 -15.2886 -15.2829 -15.2707 -15.2141
   -15.1629 -15.1586 -15.1360 -15.0640 -14.8251 -14.6880 -13.3096 -13.3095
   -12.1327  -7.8029  -5.4046  -4.6045  -3.3155  -3.3060  -3.0596  -3.0165
    -3.0102  -2.9708  -2.9437  -2.7837  -2.7712  -2.7516  -2.7438  -2.6993
    -2.6757  -2.6555  -2.6359  -2.6306  -2.6013  -2.5753  -2.5602  -2.5234
    -2.5166  -2.5076  -2.4761  -2.4653  -2.4177  -2.4133  -2.3925  -2.3650
    -2.3545  -2.3198  -2.1698  -2.1011  -2.0727  -1.9883  -1.9814  -1.9419
    -1.9175  -1.8976  -1.8810  -1.8623  -1.8234  -1.6887  -1.6060  -1.5444
    -1.5356  -1.4512  -1.4239  -1.3634  -1.2722  -1.2470  -1.2257  -1.1539
    -1.0791  -1.0402  -0.9883  -0.9761  -0.9079  -0.9016  -0.8423  -0.8053
    -0.8031  -0.7280  -0.7001  -0.6467  -0.6122  -0.5953  -0.5728  -0.5459
    -0.5305  -0.5063  -0.4280  -0.3470  -0.2952  -0.2344  -0.1422  -0.0145
     0.1081   0.2207   0.2429   0.2870   0.3380   0.3718   0.4673   0.4710
     0.5352   0.5578   0.5986   0.6754   0.6882   0.7124   0.8234   0.8367
     1.5651   1.5654   1.6361   1.6363   2.0698   3.5959   3.6249   3.6439
     3.6760   3.8052   3.8113   3.8216   3.8224   3.9595   3.9665

     the Fermi energy is     3.2830 ev

!    total energy              =   -2939.13526473 Ry
     estimated scf accuracy    <       0.00000004 Ry
     smearing contrib. (-TS)   =      -0.02098827 Ry
     internal energy E=F+TS    =   -2939.11427646 Ry

     The total energy is F=E-TS. E is the sum of the following terms:
     one-electron contribution =  -24492.39724824 Ry
     hartree contribution      =   12334.22187233 Ry
     xc contribution           =    -485.36606715 Ry
     ewald contribution        =    9704.42596717 Ry
     electric field correction =       0.00119943 Ry

     convergence has been achieved in  78 iterations

     Forces acting on atoms (cartesian axes, Ry/au):

     atom    1 type  1   force =     0.00008338   -0.00024480    0.09630858
     atom    2 type  1   force =     0.00005554   -0.00057249   -0.17518060
     atom    3 type  2   force =     0.00015020   -0.00013183   -0.02409888
     atom    4 type  2   force =    -0.00000513   -0.00124847    0.05222862
     atom    5 type  2   force =    -0.01055447   -0.00047847    0.00251156
     atom    6 type  2   force =     0.01237181    0.00022216    0.00288764
     atom    7 type  1   force =     0.00098183    0.00026303   -0.01173581
     atom    8 type  1   force =    -0.00013681    0.00776297    0.02263691
     atom    9 type  2   force =    -0.00019809   -0.00015635   -0.00028168
     atom   10 type  2   force =    -0.00262336    0.00115536   -0.01266835
     atom   11 type  2   force =     0.00005720   -0.00011789    0.00005850
     atom   12 type  2   force =     0.00010043    0.00018715   -0.00038256
     atom   13 type  1   force =     0.00044412   -0.00035720    0.00023652
     atom   14 type  1   force =     0.00015240    0.00032946   -0.00012070
     atom   15 type  2   force =    -0.00020575    0.00020996    0.00002317
     atom   16 type  2   force =     0.00010856   -0.00020137    0.00033121
     atom   17 type  2   force =     0.00048854   -0.00004991    0.00036762
     atom   18 type  2   force =     0.00066738   -0.00012960    0.00028726
     atom   19 type  1   force =    -0.00112288    0.00017942    0.00013696
     atom   20 type  1   force =     0.00013358   -0.00074811   -0.00079057
     atom   21 type  2   force =     0.00004794    0.00000537    0.10310997
     atom   22 type  2   force =    -0.00002733   -0.00118116   -0.00012447
     atom   23 type  2   force =    -0.07163084   -0.00015131   -0.02766200
     atom   24 type  2   force =     0.07156892    0.00034761   -0.02772344
     atom   25 type  1   force =     0.00016475   -0.00023686    0.09585231
     atom   26 type  1   force =     0.00009157   -0.00041055   -0.17543388
     atom   27 type  2   force =     0.00017584   -0.00021322   -0.02293212
     atom   28 type  2   force =     0.00006343   -0.00101274    0.05218957
     atom   29 type  2   force =    -0.01085471    0.00048287    0.00243528
     atom   30 type  2   force =     0.01255054    0.00064222    0.00278090
     atom   31 type  1   force =     0.00086883    0.00347868   -0.01291938
     atom   32 type  1   force =     0.00002477   -0.00925714    0.02305957
     atom   33 type  2   force =    -0.00048353    0.00013870    0.00022339
     atom   34 type  2   force =    -0.00302544    0.00022999   -0.01288111
     atom   35 type  2   force =     0.00007821    0.00008662   -0.00007431
     atom   36 type  2   force =     0.00010838    0.00033336   -0.00038814
     atom   37 type  1   force =     0.00034159    0.00036287    0.00007371
     atom   38 type  1   force =     0.00002761   -0.00044321    0.00017057
     atom   39 type  2   force =     0.00016994    0.00041786    0.00058644
     atom   40 type  2   force =     0.00035414    0.00011632   -0.00038526
     atom   41 type  2   force =     0.00025155    0.00013118    0.00016078
     atom   42 type  2   force =     0.00114871    0.00011025    0.00036297
     atom   43 type  1   force =    -0.00149723   -0.00055616   -0.00042272
     atom   44 type  1   force =     0.00078437   -0.00073033    0.00011115
     atom   45 type  2   force =     0.00005925   -0.00003632    0.10308691
     atom   46 type  2   force =    -0.07165384   -0.00007079   -0.02767621
     atom   47 type  2   force =     0.07159279    0.00032601   -0.02774316
     atom   48 type  3   force =    -0.00605244    0.01809315   -0.00373039
     atom   49 type  4   force =     0.00133112   -0.00524286    0.00344608
     atom   50 type  5   force =    -0.00101757    0.00100770    0.00005996
     atom   51 type  5   force =     0.00097257   -0.00111836    0.00141373
     atom   52 type  3   force =     0.00206818   -0.01009225   -0.00249585
     atom   53 type  5   force =     0.00044945   -0.00143051    0.00071371

     Total force =     0.366478     Total SCF correction =     0.000544
  @ DRIVER MODE: Message from server: STATUS
  @ DRIVER MODE: Message from server: GETFORCE
  @ DRIVER MODE: Returning v,forces,stress,ensemble

     Writing output data file ./calc.save/
  @ DRIVER MODE: Message from server: EXIT
  @ DRIVE MODE: Exiting

     General routines

     Parallel routines

   This run was terminated on:  14:56:44  23Aug2021

   JOB DONE.