     Program PWSCF v.6.7GPU starts on 23Sep2021 at  4:53: 9

     R & G space division:  proc/nbgrp/npool/nimage =      10
     Reading input from /storage/home/hcoda1/3/ntian30/research/carbon/CxH_vib/H2O_calc/ads_slab/CHON2HO_d/out_0038/pw.inp
Warning: card &CELL ignored
Warning: card   CELL_DYNAMICS='IPI', ignored
Warning: card / ignored

     Current dimensions of program PWSCF are:
     Max number of different atomic species (ntypx) = 10
     Max number of k-points (npk) =  40000
     Max angular momentum in pseudopotentials (lmaxx) =  3
     Presently no symmetry can be used with electric field

     Message from routine cell_base_init:
     DEPRECATED: use true lattice parameter, not A to a.u. conversion factor

     IMPORTANT: XC functional enforced from input :
     Exchange-correlation= BEEF-VDW
                           (   1   4  43  14   2   0   0)
     Any further DFT definition will be discarded
     Please, verify this is what you really want

  @ DRIVER MODE: Connecting to
 qe_1139763_2937317.sched-torque.pace.gatech.edu3kao_ni5_scratch
  using UNIX socket
  @ DRIVER MODE: Message from server: STATUS
  @ DRIVER MODE: Message from server: INIT
  @ DRIVER MODE: Receiving replica           0          -1
  @ DRIVER MODE: Receiving encoded integer          25
  @ DRIVER MODE:  SCF:  T  FORCE:  T  STRESS:  F  VC:  F  ENSEMBLE:  F
  @ DRIVER MODE:  SCF:  T  FORCE:  T  STRESS:  F  VC:  F  ENSEMBLE:  F

     Using Slab Decomposition

     bravais-lattice index     =            0
     lattice parameter (alat)  =       1.8897  a.u.
     unit-cell volume          =    6658.9804 (a.u.)^3
     number of atoms/cell      =           54
     number of atomic types    =            5
     number of electrons       =       406.00
     number of Kohn-Sham states=          213
     kinetic-energy cutoff     =      29.3995  Ry
     charge density cutoff     =     293.9946  Ry
     scf convergence threshold =      7.3E-08
     mixing beta               =       0.0500
     number of iterations used =            8  plain     mixing
     Exchange-correlation= BEEF-VDW
                           (   1   4  43  14   2   0   0)

     celldm(1)=   1.889726  celldm(2)=   0.000000  celldm(3)=   0.000000
     celldm(4)=   0.000000  celldm(5)=   0.000000  celldm(6)=   0.000000

     crystal axes: (cart. coord. in units of alat)
               a(1) = (   6.579727   0.000000   0.000000 )
               a(2) = (  -0.000775   5.961596   0.000000 )
               a(3) = (   0.000000   0.000000  25.155947 )

     reciprocal axes: (cart. coord. in units 2 pi/alat)
               b(1) = (  0.151982  0.000020  0.000000 )
               b(2) = (  0.000000  0.167740  0.000000 )
               b(3) = (  0.000000  0.000000  0.039752 )

     PseudoPot. # 1 for O  read from file:
     /storage/coda1/p-amedford6/0/shared/rich_project_chbe-medford/medford-share/data/pseudos_module/espresso/nninc/pbe/van/O.UPF
     MD5 check sum: 78c19812648e8988a0fe644b0f25305e
     Pseudo is Ultrasoft, Zval =  6.0
     Generated by new atomic code, or converted to UPF format
     Using radial grid of  737 points,  4 beta functions with:
                l(1) =   0
                l(2) =   0
                l(3) =   1
                l(4) =   1
     Q(r) pseudized with  8 coefficients,  rinner =    0.800   0.800   0.800

     PseudoPot. # 2 for Ti read from file:
     /storage/coda1/p-amedford6/0/shared/rich_project_chbe-medford/medford-share/data/pseudos_module/espresso/nninc/pbe/van/Ti.UPF
     MD5 check sum: 8e4df49b7f0d34bbd5052bf3f5ea0213
     Pseudo is Ultrasoft, Zval = 12.0
     Generated by new atomic code, or converted to UPF format
     Using radial grid of  851 points,  6 beta functions with:
                l(1) =   0
                l(2) =   0
                l(3) =   1
                l(4) =   1
                l(5) =   2
                l(6) =   2
     Q(r) pseudized with  8 coefficients,  rinner =    1.000   1.000   1.000
                                                       1.000   1.000

     PseudoPot. # 3 for C  read from file:
     /storage/coda1/p-amedford6/0/shared/rich_project_chbe-medford/medford-share/data/pseudos_module/espresso/nninc/pbe/van/C.UPF
     MD5 check sum: 1a69bf6b8db32088f5b2163dbdb77a27
     Pseudo is Ultrasoft, Zval =  4.0
     Generated by new atomic code, or converted to UPF format
     Using radial grid of  721 points,  4 beta functions with:
                l(1) =   0
                l(2) =   0
                l(3) =   1
                l(4) =   1
     Q(r) pseudized with  8 coefficients,  rinner =    0.800   0.800   0.800

     PseudoPot. # 4 for H  read from file:
     /storage/coda1/p-amedford6/0/shared/rich_project_chbe-medford/medford-share/data/pseudos_module/espresso/nninc/pbe/van/H.UPF
     MD5 check sum: b5ee9d7bfd3a09ee7748110bda690ff7
     Pseudo is Ultrasoft, Zval =  1.0
     Generated by new atomic code, or converted to UPF format
     Using radial grid of  615 points,  1 beta functions with:
                l(1) =   0
     Q(r) pseudized with  8 coefficients,  rinner =    0.800

     PseudoPot. # 5 for N  read from file:
     /storage/coda1/p-amedford6/0/shared/rich_project_chbe-medford/medford-share/data/pseudos_module/espresso/nninc/pbe/van/N.UPF
     MD5 check sum: 90d10febe142ad51ac9d5be1deb811c4
     Pseudo is Ultrasoft, Zval =  5.0
     Generated by new atomic code, or converted to UPF format
     Using radial grid of  729 points,  4 beta functions with:
                l(1) =   0
                l(2) =   0
                l(3) =   1
                l(4) =   1
     Q(r) pseudized with  8 coefficients,  rinner =    0.800   0.800   0.800

     atomic species   valence    mass     pseudopotential
        O1             6.00    15.99900     O ( 1.00)
        Ti1           12.00    47.86700     Ti( 1.00)
        C1             4.00    12.01100     C ( 1.00)
        H1             1.00     1.00800     H ( 1.00)
        N1             5.00    14.00700     N ( 1.00)

     No symmetry found

   Cartesian axes

     site n.     atom                  positions (alat units)
         1           O1  tau(   1) = (   3.2904802   0.0005063   4.7018136  )
         2           O1  tau(   2) = (   3.2900926   2.9813045   4.7018136  )
         3           Ti1 tau(   3) = (   0.0004258   2.9801865   6.0000000  )
         4           Ti1 tau(   4) = (   0.0000382   5.9609847   6.0000000  )
         5           Ti1 tau(   5) = (   3.2906075   1.4906267   6.0002472  )
         6           Ti1 tau(   6) = (   3.2902200   4.4714249   6.0002472  )
         7           O1  tau(   7) = (   1.3043587   1.4918075   6.0039043  )
         8           O1  tau(   8) = (   1.3039711   4.4726057   6.0039043  )
         9           O1  tau(   9) = (   5.2767064   1.4903225   6.0039473  )
        10           O1  tau(  10) = (   5.2763189   4.4711207   6.0039473  )
        11           O1  tau(  11) = (   3.2906025   0.0005020   7.3038282  )
        12           O1  tau(  12) = (   3.2902150   2.9813002   7.3038282  )
        13           O1  tau(  13) = (   0.0006271   0.0005054   7.9858123  )
        14           O1  tau(  14) = (   0.0002396   2.9813036   7.9858123  )
        15           Ti1 tau(  15) = (   3.2350752   0.0608747   9.1773017  )
        16           Ti1 tau(  16) = (   3.2297482   3.0449837   9.2258248  )
        17           Ti1 tau(  17) = (   6.5035314   4.4790947   9.3419400  )
        18           O1  tau(  18) = (   4.5942328   1.4918067   9.2879030  )
        19           O1  tau(  19) = (   4.5938453   4.4726049   9.2879030  )
        20           O1  tau(  20) = (   1.9868534   1.4903216   9.2879459  )
        21           O1  tau(  21) = (   1.9864658   4.4711199   9.2879459  )
        22           Ti1 tau(  22) = (   6.5047199   1.5482117   9.3251357  )
        23           O1  tau(  23) = (   6.5709586   2.9893791  10.5365161  )
        24           O1  tau(  24) = (   6.5791863   0.0068326  10.5847705  )
        25           O1  tau(  25) = (   3.2737170   2.9471243  11.2864913  )
        26           O1  tau(  26) = (   3.2757665   0.0160177  11.3056520  )
        27           Ti1 tau(  27) = (   3.3024496   1.5456137  12.4328335  )
        28           Ti1 tau(  28) = (   0.0381823   0.0558990  12.5328616  )
        29           Ti1 tau(  29) = (   3.2867454   4.6490159  12.6676011  )
        30           O1  tau(  30) = (   1.2579511   1.4933188  12.6274103  )
        31           O1  tau(  31) = (   5.2930440   1.4968169  12.6131059  )
        32           O1  tau(  32) = (   1.2503383   4.4760527  12.6363980  )
        33           O1  tau(  33) = (   5.2887019   4.4660859  12.6249461  )
        34           Ti1 tau(  34) = (   6.5320965   3.0346479  12.8073368  )
        35           O1  tau(  35) = (   3.2762579   2.9735537  13.8874883  )
        36           O1  tau(  36) = (   3.2793791   5.9387796  13.8789893  )
        37           O1  tau(  37) = (   6.5412754   2.9812497  14.6926498  )
        38           O1  tau(  38) = (   6.5531526   0.0082392  14.6823945  )
        39           Ti1 tau(  39) = (   3.2668636   2.9663550  15.6683660  )
        40           Ti1 tau(  40) = (   3.2982107   5.9440960  16.3508785  )
        41           Ti1 tau(  41) = (   0.0141158   4.5598071  15.9269461  )
        42           O1  tau(  42) = (   4.5124726   4.4172202  16.0573870  )
        43           O1  tau(  43) = (   1.9821766   4.4208814  16.0404589  )
        44           O1  tau(  44) = (   4.4954461   1.5000296  16.1066544  )
        45           O1  tau(  45) = (   1.9782815   1.5221889  16.0619205  )
        46           Ti1 tau(  46) = (   0.0269324   1.3869748  16.0447141  )
        47           O1  tau(  47) = (   6.5379229   5.9414530  17.1901000  )
        48           O1  tau(  48) = (   6.5175113   2.9840192  17.3772383  )
        49           C1  tau(  49) = (   5.9742390   3.1768082  18.5865123  )
        50           H1  tau(  50) = (   5.8341806   4.1706531  18.9840957  )
        51           N1  tau(  51) = (   5.5886240   2.1683037  19.3003467  )
        52           N1  tau(  52) = (   5.2398892   1.2394158  19.8970451  )
        53           O1  tau(  53) = (   3.2183551   5.8834210  18.1446619  )
        54           H1  tau(  54) = (   3.7126433   0.4006729  18.8445816  )

     number of k points=    10  Fermi-Dirac smearing, width (Ry)=  0.0073
                       cart. coord. in units 2pi/alat
        k(    1) = (   0.0000000   0.0000000   0.0000000), wk =   0.1250000
        k(    2) = (   0.0000000   0.0419351   0.0000000), wk =   0.2500000
        k(    3) = (   0.0000000  -0.0838702   0.0000000), wk =   0.1250000
        k(    4) = (   0.0379955   0.0000049   0.0000000), wk =   0.2500000
        k(    5) = (   0.0379955   0.0419400   0.0000000), wk =   0.2500000
        k(    6) = (   0.0379955  -0.0838652   0.0000000), wk =   0.2500000
        k(    7) = (   0.0379955  -0.0419301   0.0000000), wk =   0.2500000
        k(    8) = (  -0.0759910  -0.0000099   0.0000000), wk =   0.1250000
        k(    9) = (  -0.0759910   0.0419252   0.0000000), wk =   0.2500000
        k(   10) = (  -0.0759910  -0.0838800   0.0000000), wk =   0.1250000

     Initial potential from superposition of free atoms

     starting charge  389.99917, renormalised to  406.00000

     negative rho (up, down):  1.659E-02 0.000E+00

     %%%%%%%%%%%%%%%%%%%%%%%%%%%%%%%%%%%%%%%%%%%%%%%%%%%%%%%%%%%%%%%%%%%%%%%%
     %                                                                      %
     % You are using vdW-DF, which was implemented by the Thonhauser group. %
     % Please cite the following two papers that made this development      %
     % possible and the two reviews that describe the various versions:     %
     %                                                                      %
     %   T. Thonhauser et al., PRL 115, 136402 (2015).                      %
     %   T. Thonhauser et al., PRB 76, 125112 (2007).                       %
     %   K. Berland et al., Rep. Prog. Phys. 78, 066501 (2015).             %
     %   D.C. Langreth et al., J. Phys.: Condens. Matter 21, 084203 (2009). %
     %                                                                      %
     %                                                                      %
     % If you are calculating the stress with vdW-DF, please also cite:     %
     %                                                                      %
     %   R. Sabatini et al., J. Phys.: Condens. Matter 24, 424209 (2012).   %
     %                                                                      %
     %%%%%%%%%%%%%%%%%%%%%%%%%%%%%%%%%%%%%%%%%%%%%%%%%%%%%%%%%%%%%%%%%%%%%%%%

     Adding external electric field

     Computed dipole along edir(3) :
        Dipole              -13.7787 Ry au,        -35.0219 Debye
        Dipole field         -0.0260 Ry au,

        Potential amp.        2.4104 Ry
        Total length         46.3494 bohr

     Starting wfcs are  306 atomic wfcs
  @ DRIVER MODE: Message from server: STATUS
  @ DRIVER MODE: Message from server: POSDATA
  @ DRIVER MODE: Reading and sharing cell
  @ DRIVER MODE: Reading and sharing positions
  @ DRIVER MODE: Received positions

     Self-consistent Calculation

     iteration #  1     ecut=    29.40 Ry     beta= 0.05
     Davidson diagonalization with overlap
     c_bands:  1 eigenvalues not converged
     c_bands:  1 eigenvalues not converged
     c_bands:  5 eigenvalues not converged
     c_bands:  5 eigenvalues not converged
     ethr =  1.00E-05,  avg # of iterations = 30.9

[...]

     total energy              =   -2306.58283173 Ry
     estimated scf accuracy    <    7909.12878813 Ry

     iteration #  2     ecut=    29.40 Ry     beta= 0.05
     Davidson diagonalization with overlap
     ethr =  1.00E-02,  avg # of iterations = 27.1

[...]

     iteration # 55     ecut=    29.40 Ry     beta= 0.05
     Davidson diagonalization with overlap
     c_bands:  1 eigenvalues not converged
     c_bands:  1 eigenvalues not converged
     ethr =  4.16E-08,  avg # of iterations = 11.6

[...]

     total energy              =   -3002.64635947 Ry
     estimated scf accuracy    <       0.00000012 Ry

     iteration # 74     ecut=    29.40 Ry     beta= 0.05
     Davidson diagonalization with overlap
     ethr =  2.98E-11,  avg # of iterations =  3.1

     negative rho (up, down):  1.646E-02 0.000E+00

     Adding external electric field

     Computed dipole along edir(3) :
        Dipole                0.4142 Ry au,          1.0528 Debye
        Dipole field          0.0008 Ry au,

        Potential amp.       -0.0725 Ry
        Total length         46.3494 bohr

     End of self-consistent calculation

          k = 0.0000 0.0000 0.0000 ( 18029 PWs)   bands (ev):

   -56.2528 -56.1961 -55.7645 -55.7066 -55.7059 -55.6896 -55.6590 -55.6506
   -55.6217 -55.6126 -55.5718 -55.5531 -55.4893 -55.3180 -54.9032 -54.8692
   -32.6678 -32.5289 -32.4635 -32.4230 -32.3246 -32.2924 -32.2459 -32.2175
   -32.2010 -32.0994 -32.0628 -32.0057 -32.0016 -31.9941 -31.9793 -31.9613
   -31.9510 -31.9494 -31.9288 -31.9193 -31.8682 -31.8646 -31.8607 -31.8563
   -31.8540 -31.8370 -31.8347 -31.8158 -31.8141 -31.8099 -31.8029 -31.7719
   -31.7703 -31.7698 -31.7426 -31.7308 -31.7239 -31.7195 -31.6910 -31.5779
   -31.5366 -31.5281 -31.2998 -31.2411 -31.2169 -31.1162 -31.0310 -30.9198
   -20.5509 -18.6855 -16.4840 -16.4554 -16.3074 -16.1022 -15.9422 -15.8706
   -15.6793 -15.5920 -15.5320 -15.5025 -15.4706 -15.3888 -15.3544 -15.3019
   -15.2573 -15.2424 -15.2174 -15.2016 -15.1889 -15.1877 -15.1850 -15.1545
   -15.1132 -15.0156 -14.9483 -14.9102 -14.8917 -14.8814 -14.8411 -14.5320
   -13.5437 -13.4051 -13.2956  -6.9418  -5.8976  -4.9249  -4.3557  -3.9609
    -3.7857  -3.6929  -3.6296  -3.5666  -3.5290  -3.3395  -3.3074  -3.1494
    -3.0272  -2.9451  -2.8729  -2.8555  -2.8313  -2.7932  -2.7349  -2.7001
    -2.6690  -2.6389  -2.5814  -2.5415  -2.5133  -2.4813  -2.4682  -2.4315
    -2.4128  -2.4083  -2.2671  -2.2204  -2.1778  -2.1721  -2.1478  -2.1256
    -2.1032  -2.0695  -2.0568  -2.0075  -1.9285  -1.8437  -1.8276  -1.7450
    -1.7104  -1.5365  -1.4749  -1.3997  -1.3688  -1.2038  -1.1761  -1.1688
    -1.1468  -1.1263  -1.0022  -0.9705  -0.9341  -0.9229  -0.8874  -0.8664
    -0.8410  -0.7354  -0.6705  -0.6313  -0.6161  -0.5504  -0.4534  -0.3824
    -0.3540  -0.3212  -0.2891  -0.1850  -0.1536  -0.1121  -0.1043  -0.0426
    -0.0091   0.0141   0.0708   0.0979   0.1517   0.1671   0.1858   0.2262
     0.2352   0.2811   0.3497   0.4135   0.5105   0.5305   0.5569   0.5928
     0.6730   0.7475   0.8279   1.0096   1.1148   1.1549   1.3194   1.3650
     1.6654   1.7131   2.5268   3.0379   3.1900   3.4532   3.5053   3.5412
     3.5835   3.6379   3.7684   3.8788   3.9362

[...]

          k = 0.0380-0.0419 0.0000 ( 17876 PWs)   bands (ev):

[...]

          k =-0.0760-0.0000 0.0000 ( 17886 PWs)   bands (ev):

[...]

          k =-0.0760-0.0839 0.0000 ( 17948 PWs)   bands (ev):

   -56.2473 -56.2015 -55.7620 -55.7044 -55.6990 -55.6853 -55.6664 -55.6529
   -55.6261 -55.6035 -55.5809 -55.5541 -55.4876 -55.3195 -54.8863 -54.8859
   -32.5253 -32.5033 -32.4660 -32.4644 -32.3913 -32.3532 -32.1495 -32.0664
   -32.0577 -32.0203 -32.0085 -31.9785 -31.9761 -31.9739 -31.9512 -31.9460
   -31.9366 -31.9312 -31.9285 -31.9212 -31.9062 -31.9044 -31.8793 -31.8764
   -31.8729 -31.8673 -31.8663 -31.8602 -31.8429 -31.8371 -31.8220 -31.8198
   -31.8166 -31.8065 -31.7981 -31.7742 -31.7574 -31.7238 -31.6947 -31.6521
   -31.5767 -31.5308 -31.2300 -31.2298 -31.1153 -31.1131 -31.0731 -31.0720
   -20.5494 -18.6739 -16.4496 -15.8314 -15.8211 -15.7900 -15.7498 -15.7027
   -15.6887 -15.6207 -15.6116 -15.5837 -15.5035 -15.4401 -15.3853 -15.3620
   -15.3590 -15.3361 -15.3077 -15.2683 -15.2462 -15.2375 -15.2273 -15.1721
   -15.1505 -15.1473 -15.1219 -15.1008 -15.0764 -15.0337 -14.8965 -14.6900
   -13.5510 -13.4000 -13.3981  -6.9137  -5.9130  -4.9231  -4.3441  -3.6045
    -3.2938  -3.0904  -3.0599  -2.9802  -2.9232  -2.8257  -2.8062  -2.7875
    -2.7724  -2.7588  -2.7333  -2.7035  -2.6543  -2.6260  -2.5917  -2.5808
    -2.5730  -2.5530  -2.5455  -2.5140  -2.4977  -2.4799  -2.4615  -2.4436
    -2.4287  -2.4152  -2.3438  -2.3115  -2.2763  -2.1120  -2.0997  -2.0968
    -2.0706  -2.0527  -2.0427  -1.9825  -1.9206  -1.9111  -1.8600  -1.8449
    -1.7645  -1.6994  -1.5383  -1.4997  -1.4726  -1.3958  -1.3373  -1.3038
    -1.2814  -1.2479  -1.2151  -1.2058  -1.1627  -1.1111  -1.0327  -1.0098
    -0.9607  -0.9524  -0.9432  -0.8591  -0.7875  -0.7720  -0.7270  -0.7083
    -0.6844  -0.6455  -0.5918  -0.5580  -0.5443  -0.5313  -0.4349  -0.3841
    -0.3299  -0.2290  -0.1910  -0.1318  -0.0204   0.0632   0.0759   0.1728
     0.2155   0.3132   0.3520   0.4047   0.4436   0.4702   0.5000   0.6171
     0.6359   0.6822   0.7599   0.7769   0.8054   0.8551   1.5037   1.5110
     1.5216   1.5231   2.4462   3.5602   3.5879   3.6065   3.6454   3.8438
     3.8745   3.8917   3.9219   3.9382   3.9919

     the Fermi energy is     2.8394 ev

!    total energy              =   -3002.64637458 Ry
     estimated scf accuracy    <       0.00000004 Ry
     smearing contrib. (-TS)   =      -0.00424005 Ry
     internal energy E=F+TS    =   -3002.64213453 Ry

     The total energy is F=E-TS. E is the sum of the following terms:
     one-electron contribution =  -23370.26472490 Ry
     hartree contribution      =   11778.98961073 Ry
     xc contribution           =    -498.78666296 Ry
     ewald contribution        =    9087.41931883 Ry
     electric field correction =       0.00032376 Ry

     convergence has been achieved in  74 iterations

     Forces acting on atoms (cartesian axes, Ry/au):

     atom    1 type  1   force =     0.00016661    0.00010385    0.09957074
     atom    2 type  1   force =     0.00014788    0.00020856    0.09907822
     atom    3 type  2   force =     0.00018696    0.00034008    0.12391122
     atom    4 type  2   force =     0.00044377    0.00004551    0.13849226
     atom    5 type  2   force =    -0.00010133    0.00965126   -0.15998071
     atom    6 type  2   force =     0.00009502   -0.00873041   -0.15976562
     atom    7 type  1   force =    -0.07910785    0.00146412   -0.03324051
     atom    8 type  1   force =    -0.07913947   -0.00181990   -0.03327985
     atom    9 type  1   force =     0.07906693    0.00179383   -0.03332036
     atom   10 type  1   force =     0.07909541   -0.00147329   -0.03329760
     atom   11 type  1   force =    -0.00114164    0.00062765    0.04291630
     atom   12 type  1   force =    -0.00114920    0.00003546    0.04557269
     atom   13 type  1   force =    -0.00039379   -0.00173836   -0.05066192
     atom   14 type  1   force =    -0.00085846    0.00123505   -0.04787231
     atom   15 type  2   force =    -0.00033807   -0.00004788    0.00011763
     atom   16 type  2   force =    -0.00032973    0.00005266   -0.00015404
     atom   17 type  2   force =     0.00023237   -0.00038783   -0.00014136
     atom   18 type  1   force =    -0.01154822   -0.00689743   -0.00023968
     atom   19 type  1   force =    -0.01367773    0.00098202    0.00211574
     atom   20 type  1   force =     0.01284812   -0.00248567   -0.00225823
     atom   21 type  1   force =     0.01410374    0.00576395    0.00036836
     atom   22 type  2   force =     0.00031099    0.00005403    0.00026705
     atom   23 type  1   force =    -0.00010113   -0.00009101   -0.00008704
     atom   24 type  1   force =    -0.00025582   -0.00000082    0.00034602
     atom   25 type  1   force =     0.00023371    0.00033067   -0.00020573
     atom   26 type  1   force =     0.00035044    0.00012567   -0.00037857
     atom   27 type  2   force =    -0.00031007   -0.00045627    0.00039876
     atom   28 type  2   force =     0.00052678   -0.00029613   -0.00000409
     atom   29 type  2   force =    -0.00015300    0.00026434    0.00025347
     atom   30 type  1   force =    -0.00033896   -0.00035441   -0.00025349
     atom   31 type  1   force =     0.00050300   -0.00004106    0.00012002
     atom   32 type  1   force =    -0.00031465    0.00039652   -0.00000201
     atom   33 type  1   force =     0.00025344    0.00033924    0.00010120
     atom   34 type  2   force =     0.00041032    0.00018371   -0.00027052
     atom   35 type  1   force =     0.00005675   -0.00011988   -0.00048089
     atom   36 type  1   force =     0.00008320   -0.00006435    0.00015449
     atom   37 type  1   force =    -0.00000106   -0.00020990    0.00056113
     atom   38 type  1   force =     0.00004867    0.00044752   -0.00005012
     atom   39 type  2   force =     0.00003957    0.00036959    0.00044102
     atom   40 type  2   force =    -0.00019045   -0.00020602   -0.00018366
     atom   41 type  2   force =    -0.00026534    0.00041487   -0.00018716
     atom   42 type  1   force =     0.00037149    0.00008451   -0.00012704
     atom   43 type  1   force =    -0.00050145    0.00010742   -0.00011433
     atom   44 type  1   force =     0.00055770    0.00004712    0.00046275
     atom   45 type  1   force =    -0.00080849    0.00008746    0.00035196
     atom   46 type  2   force =    -0.00004619    0.00026955   -0.00022903
     atom   47 type  1   force =    -0.00001856    0.00022613    0.00014406
     atom   48 type  1   force =     0.00038237    0.00002470   -0.00037245
     atom   49 type  3   force =     0.00023483    0.00027689   -0.00033636
     atom   50 type  4   force =    -0.00013372    0.00028797    0.00060329
     atom   51 type  5   force =    -0.00016573   -0.00039155    0.00018149
     atom   52 type  5   force =     0.00027276   -0.00076155    0.00008808
     atom   53 type  1   force =     0.00481158    0.00447722    0.00657366
     atom   54 type  4   force =    -0.00444432   -0.00454539   -0.00569695

     Total force =     0.380474     Total SCF correction =     0.000773
  @ DRIVER MODE: Message from server: STATUS
  @ DRIVER MODE: Message from server: GETFORCE
  @ DRIVER MODE: Returning v,forces,stress,ensemble

     Writing output data file ./calc.save/
  @ DRIVER MODE: Message from server: EXIT
  @ DRIVE MODE: Exiting

     General routines

     Parallel routines

   This run was terminated on:   5:12:39  23Sep2021

   JOB DONE.