     Program PWSCF v.6.7GPU starts on 24Aug2021 at 21: 6:43

     R & G space division:  proc/nbgrp/npool/nimage =       6
     Reading input from /storage/home/hcoda1/3/ntian30/research/carbon/CH3_vib_end_on/ads_slab/CH3N_a/out_0011/pw.inp
Warning: card &CELL ignored
Warning: card   CELL_DYNAMICS='IPI', ignored
Warning: card / ignored

     Current dimensions of program PWSCF are:
     Max number of different atomic species (ntypx) = 10
     Max number of k-points (npk) =  40000
     Max angular momentum in pseudopotentials (lmaxx) =  3
     Presently no symmetry can be used with electric field

     Message from routine cell_base_init:
     DEPRECATED: use true lattice parameter, not A to a.u. conversion factor

     IMPORTANT: XC functional enforced from input :
     Exchange-correlation= BEEF-VDW
                           (   1   4  43  14   2   0   0)
     Any further DFT definition will be discarded
     Please, verify this is what you really want

  @ DRIVER MODE: Connecting to
 qe_1139763_2643872.sched-torque.pace.gatech.edu4x6semyz_scratch
  using UNIX socket
  @ DRIVER MODE: Message from server: STATUS
  @ DRIVER MODE: Message from server: INIT
  @ DRIVER MODE: Receiving replica           0          -1
  @ DRIVER MODE: Receiving encoded integer          25
  @ DRIVER MODE:  SCF:  T  FORCE:  T  STRESS:  F  VC:  F  ENSEMBLE:  F
  @ DRIVER MODE:  SCF:  T  FORCE:  T  STRESS:  F  VC:  F  ENSEMBLE:  F

     Using Slab Decomposition

     bravais-lattice index     =            0
     lattice parameter (alat)  =       1.8897  a.u.
     unit-cell volume          =    6658.9804 (a.u.)^3
     number of atoms/cell      =           52
     number of atomic types    =            5
     number of electrons       =       390.00
     number of Kohn-Sham states=          205
     kinetic-energy cutoff     =      29.3995  Ry
     charge density cutoff     =     293.9946  Ry
     scf convergence threshold =      7.3E-08
     mixing beta               =       0.0500
     number of iterations used =            8  plain     mixing
     Exchange-correlation= BEEF-VDW
                           (   1   4  43  14   2   0   0)

     celldm(1)=   1.889726  celldm(2)=   0.000000  celldm(3)=   0.000000
     celldm(4)=   0.000000  celldm(5)=   0.000000  celldm(6)=   0.000000

     crystal axes: (cart. coord. in units of alat)
               a(1) = (   6.579727   0.000000   0.000000 )
               a(2) = (  -0.000775   5.961596   0.000000 )
               a(3) = (   0.000000   0.000000  25.155947 )

     reciprocal axes: (cart. coord. in units 2 pi/alat)
               b(1) = (  0.151982  0.000020  0.000000 )
               b(2) = (  0.000000  0.167740  0.000000 )
               b(3) = (  0.000000  0.000000  0.039752 )

     PseudoPot. # 1 for Ti read from file:
     /storage/coda1/p-amedford6/0/shared/rich_project_chbe-medford/medford-share/data/pseudos_module/espresso/nninc/pbe/van/Ti.UPF
     MD5 check sum: 8e4df49b7f0d34bbd5052bf3f5ea0213
     Pseudo is Ultrasoft, Zval = 12.0
     Generated by new atomic code, or converted to UPF format
     Using radial grid of  851 points,  6 beta functions with:
                l(1) =   0
                l(2) =   0
                l(3) =   1
                l(4) =   1
                l(5) =   2
                l(6) =   2
     Q(r) pseudized with  8 coefficients,  rinner =    1.000   1.000   1.000
                                                       1.000   1.000

     PseudoPot. # 2 for O  read from file:
     /storage/coda1/p-amedford6/0/shared/rich_project_chbe-medford/medford-share/data/pseudos_module/espresso/nninc/pbe/van/O.UPF
     MD5 check sum: 78c19812648e8988a0fe644b0f25305e
     Pseudo is Ultrasoft, Zval =  6.0
     Generated by new atomic code, or converted to UPF format
     Using radial grid of  737 points,  4 beta functions with:
                l(1) =   0
                l(2) =   0
                l(3) =   1
                l(4) =   1
     Q(r) pseudized with  8 coefficients,  rinner =    0.800   0.800   0.800

     PseudoPot. # 3 for N  read from file:
     /storage/coda1/p-amedford6/0/shared/rich_project_chbe-medford/medford-share/data/pseudos_module/espresso/nninc/pbe/van/N.UPF
     MD5 check sum: 90d10febe142ad51ac9d5be1deb811c4
     Pseudo is Ultrasoft, Zval =  5.0
     Generated by new atomic code, or converted to UPF format
     Using radial grid of  729 points,  4 beta functions with:
                l(1) =   0
                l(2) =   0
                l(3) =   1
                l(4) =   1
     Q(r) pseudized with  8 coefficients,  rinner =    0.800   0.800   0.800

     PseudoPot. # 4 for C  read from file:
     /storage/coda1/p-amedford6/0/shared/rich_project_chbe-medford/medford-share/data/pseudos_module/espresso/nninc/pbe/van/C.UPF
     MD5 check sum: 1a69bf6b8db32088f5b2163dbdb77a27
     Pseudo is Ultrasoft, Zval =  4.0
     Generated by new atomic code, or converted to UPF format
     Using radial grid of  721 points,  4 beta functions with:
                l(1) =   0
                l(2) =   0
                l(3) =   1
                l(4) =   1
     Q(r) pseudized with  8 coefficients,  rinner =    0.800   0.800   0.800

     PseudoPot. # 5 for H  read from file:
     /storage/coda1/p-amedford6/0/shared/rich_project_chbe-medford/medford-share/data/pseudos_module/espresso/nninc/pbe/van/H.UPF
     MD5 check sum: b5ee9d7bfd3a09ee7748110bda690ff7
     Pseudo is Ultrasoft, Zval =  1.0
     Generated by new atomic code, or converted to UPF format
     Using radial grid of  615 points,  1 beta functions with:
                l(1) =   0
     Q(r) pseudized with  8 coefficients,  rinner =    0.800

     atomic species   valence    mass     pseudopotential
        Ti1           12.00    47.86700     Ti( 1.00)
        O1             6.00    15.99900     O ( 1.00)
        N1             5.00    14.00700     N ( 1.00)
        C1             4.00    12.01100     C ( 1.00)
        H1             1.00     1.00800     H ( 1.00)

     No symmetry found

   Cartesian axes

     site n.     atom                  positions (alat units)
         1           Ti1 tau(   1) = (   0.0004258   2.9801865   6.0000000  )
         2           Ti1 tau(   2) = (   3.2906075   1.4906267   6.0002472  )
         3           O1  tau(   3) = (   0.0006271   0.0005054   7.9858123  )
         4           O1  tau(   4) = (   3.2906025   0.0005020   7.3038282  )
         5           O1  tau(   5) = (   4.5942328   1.4918067   9.2879030  )
         6           O1  tau(   6) = (   1.9868534   1.4903216   9.2879459  )
         7           Ti1 tau(   7) = (   3.2907910   2.8959150   9.1758416  )
         8           Ti1 tau(   8) = (   0.0015273   1.4827037   9.2680791  )
         9           O1  tau(   9) = (   3.3018735   5.9614316  11.2970789  )
        10           O1  tau(  10) = (   0.0116148   5.9584955  10.6183126  )
        11           O1  tau(  11) = (   1.3353665   1.4968727  12.6140821  )
        12           O1  tau(  12) = (   5.3123320   1.5002621  12.6324210  )
        13           Ti1 tau(  13) = (   6.4913169   2.9877414  12.7576577  )
        14           Ti1 tau(  14) = (   3.1819880   1.4874128  12.4666476  )
        15           O1  tau(  15) = (   0.0325390   5.9514364  14.5942808  )
        16           O1  tau(  16) = (   3.3157460   0.0104736  13.8786857  )
        17           O1  tau(  17) = (   4.5538541   1.5308062  16.0536203  )
        18           O1  tau(  18) = (   2.1012647   1.5271178  16.0466835  )
        19           Ti1 tau(  19) = (   3.3239613   3.0121693  15.6870930  )
        20           Ti1 tau(  20) = (   0.0188375   1.6096557  16.0875739  )
        21           O1  tau(  21) = (   3.2904802   0.0005063   4.7018136  )
        22           O1  tau(  22) = (   0.0443345   0.0604659  17.2041813  )
        23           O1  tau(  23) = (   1.3043587   1.4918075   6.0039043  )
        24           O1  tau(  24) = (   5.2767064   1.4903225   6.0039473  )
        25           Ti1 tau(  25) = (   0.0000382   5.9609847   6.0000000  )
        26           Ti1 tau(  26) = (   3.2902200   4.4714249   6.0002472  )
        27           O1  tau(  27) = (   0.0002396   2.9813036   7.9858123  )
        28           O1  tau(  28) = (   3.2902150   2.9813002   7.3038282  )
        29           O1  tau(  29) = (   4.5938453   4.4726049   9.2879030  )
        30           O1  tau(  30) = (   1.9864658   4.4711199   9.2879459  )
        31           Ti1 tau(  31) = (   3.2891106   5.8743827   9.1763621  )
        32           Ti1 tau(  32) = (   0.0006254   4.4649316   9.2693709  )
        33           O1  tau(  33) = (   3.3028429   2.9834257  11.2952420  )
        34           O1  tau(  34) = (   0.0092240   2.9805883  10.6323155  )
        35           O1  tau(  35) = (   1.3370139   4.4664586  12.6123119  )
        36           O1  tau(  36) = (   5.3107101   4.4655690  12.6333123  )
        37           Ti1 tau(  37) = (   6.5188704   0.0058144  12.7695920  )
        38           Ti1 tau(  38) = (   3.1805296   4.4670443  12.4671176  )
        39           O1  tau(  39) = (   0.0099197   2.9765079  14.6559069  )
        40           O1  tau(  40) = (   3.3143426   2.9928857  13.8797190  )
        41           O1  tau(  41) = (   4.5573730   4.5089470  16.0521860  )
        42           O1  tau(  42) = (   2.1018054   4.5121927  16.0508938  )
        43           Ti1 tau(  43) = (   3.3145791   0.0316975  15.6896801  )
        44           Ti1 tau(  44) = (   0.0207397   4.5876961  16.1385408  )
        45           O1  tau(  45) = (   3.2900926   2.9813045   4.7018136  )
        46           O1  tau(  46) = (   1.3039711   4.4726057   6.0039043  )
        47           O1  tau(  47) = (   5.2763189   4.4711207   6.0039473  )
        48           N1  tau(  48) = (   0.0936308   3.0233000  17.3257847  )
        49           C1  tau(  49) = (   0.4281149   3.0137428  18.7208649  )
        50           H1  tau(  50) = (   0.7292188   4.0033843  19.0862330  )
        51           H1  tau(  51) = (   6.1445545   2.6862439  19.3232575  )
        52           H1  tau(  52) = (   1.2401080   2.3040860  18.9332505  )

     number of k points=    10  Fermi-Dirac smearing, width (Ry)=  0.0073
                       cart. coord. in units 2pi/alat
        k(    1) = (   0.0000000   0.0000000   0.0000000), wk =   0.1250000
        k(    2) = (   0.0000000   0.0419351   0.0000000), wk =   0.2500000
        k(    3) = (   0.0000000  -0.0838702   0.0000000), wk =   0.1250000
        k(    4) = (   0.0379955   0.0000049   0.0000000), wk =   0.2500000
        k(    5) = (   0.0379955   0.0419400   0.0000000), wk =   0.2500000
        k(    6) = (   0.0379955  -0.0838652   0.0000000), wk =   0.2500000
        k(    7) = (   0.0379955  -0.0419301   0.0000000), wk =   0.2500000
        k(    8) = (  -0.0759910  -0.0000099   0.0000000), wk =   0.1250000
        k(    9) = (  -0.0759910   0.0419252   0.0000000), wk =   0.2500000
        k(   10) = (  -0.0759910  -0.0838800   0.0000000), wk =   0.1250000

     Initial potential from superposition of free atoms

     starting charge  373.99917, renormalised to  390.00000

     negative rho (up, down):  1.730E-02 0.000E+00

     %%%%%%%%%%%%%%%%%%%%%%%%%%%%%%%%%%%%%%%%%%%%%%%%%%%%%%%%%%%%%%%%%%%%%%%%
     %                                                                      %
     % You are using vdW-DF, which was implemented by the Thonhauser group. %
     % Please cite the following two papers that made this development      %
     % possible and the two reviews that describe the various versions:     %
     %                                                                      %
     %   T. Thonhauser et al., PRL 115, 136402 (2015).                      %
     %   T. Thonhauser et al., PRB 76, 125112 (2007).                       %
     %   K. Berland et al., Rep. Prog. Phys. 78, 066501 (2015).             %
     %   D.C. Langreth et al., J. Phys.: Condens. Matter 21, 084203 (2009). %
     %                                                                      %
     %                                                                      %
     % If you are calculating the stress with vdW-DF, please also cite:     %
     %                                                                      %
     %   R. Sabatini et al., J. Phys.: Condens. Matter 24, 424209 (2012).   %
     %                                                                      %
     %%%%%%%%%%%%%%%%%%%%%%%%%%%%%%%%%%%%%%%%%%%%%%%%%%%%%%%%%%%%%%%%%%%%%%%%

     Adding external electric field

     Computed dipole along edir(3) :
        Dipole               -4.6240 Ry au,        -11.7530 Debye
        Dipole field         -0.0087 Ry au,

        Potential amp.        0.8089 Ry
        Total length         46.3494 bohr

     Starting wfcs are  295 atomic wfcs
  @ DRIVER MODE: Message from server: STATUS
  @ DRIVER MODE: Message from server: POSDATA
  @ DRIVER MODE: Reading and sharing cell
  @ DRIVER MODE: Reading and sharing positions
  @ DRIVER MODE: Received positions

     Self-consistent Calculation

     iteration #  1     ecut=    29.40 Ry     beta= 0.05
     Davidson diagonalization with overlap
     c_bands:  4 eigenvalues not converged
     c_bands:  2 eigenvalues not converged
     c_bands:  2 eigenvalues not converged
     c_bands:  4 eigenvalues not converged
     c_bands:  4 eigenvalues not converged
     c_bands:  2 eigenvalues not converged
     c_bands:  2 eigenvalues not converged
     c_bands:  2 eigenvalues not converged
     ethr =  1.00E-05,  avg # of iterations = 19.7

[...]

     total energy              =   -2877.84836497 Ry
     estimated scf accuracy    <     476.88650306 Ry

     iteration #  2     ecut=    29.40 Ry     beta= 0.05
     Davidson diagonalization with overlap
     ethr =  1.00E-02,  avg # of iterations = 13.7

[...]

     iteration # 22     ecut=    29.40 Ry     beta= 0.05
     Davidson diagonalization with overlap
     c_bands:  2 eigenvalues not converged
     ethr =  3.10E-06,  avg # of iterations = 11.6

[...]

     total energy              =   -2919.13162693 Ry
     estimated scf accuracy    <       0.00000021 Ry

     iteration # 50     ecut=    29.40 Ry     beta= 0.05
     Davidson diagonalization with overlap
     ethr =  2.14E-11,  avg # of iterations =  5.7

     negative rho (up, down):  1.786E-02 0.000E+00

     Adding external electric field

     Computed dipole along edir(3) :
        Dipole                0.2550 Ry au,          0.6480 Debye
        Dipole field          0.0005 Ry au,

        Potential amp.       -0.0446 Ry
        Total length         46.3494 bohr

     End of self-consistent calculation

          k = 0.0000 0.0000 0.0000 ( 18029 PWs)   bands (ev):

   -56.8887 -56.8551 -56.0127 -56.0008 -55.9777 -55.9680 -55.8674 -55.8287
   -55.6523 -55.6170 -55.5539 -55.5538 -55.5199 -55.4445 -54.9751 -54.9284
   -33.3167 -33.1635 -33.1354 -33.0647 -32.9736 -32.9427 -32.4835 -32.4772
   -32.4079 -32.2968 -32.2504 -32.2264 -32.2079 -32.1867 -32.1531 -32.1487
   -32.1464 -32.1418 -32.1167 -32.1161 -32.1021 -32.0745 -32.0482 -32.0345
   -32.0214 -32.0015 -31.9956 -31.9723 -31.9462 -31.8923 -31.8837 -31.8682
   -31.7951 -31.7911 -31.7649 -31.7288 -31.7189 -31.6814 -31.6737 -31.6489
   -31.6301 -31.5705 -31.5050 -31.2261 -31.1999 -31.1799 -31.1490 -31.0343
   -17.0536 -16.6198 -16.3899 -16.2517 -16.1858 -16.1299 -16.0867 -15.9659
   -15.8907 -15.8850 -15.8437 -15.8144 -15.7429 -15.6037 -15.5051 -15.4493
   -15.4059 -15.2870 -15.2264 -15.1950 -15.1896 -15.1510 -15.1359 -14.9378
   -14.9114 -14.8220 -14.8048 -14.6761 -14.4457 -14.0524 -13.9423 -13.1513
    -7.7884  -4.6189  -4.1160  -3.8757  -3.7922  -3.6847  -3.6702  -3.5953
    -3.4701  -3.4244  -3.3774  -3.2612  -3.2593  -3.1118  -3.1015  -3.0647
    -3.0633  -3.0253  -2.9772  -2.9499  -2.9053  -2.8975  -2.8891  -2.7349
    -2.6357  -2.5696  -2.5424  -2.5302  -2.4984  -2.4270  -2.3974  -2.3869
    -2.3831  -2.2806  -2.1317  -2.1313  -2.1011  -2.0591  -2.0543  -2.0139
    -2.0067  -1.8843  -1.7891  -1.6845  -1.6705  -1.6339  -1.5706  -1.5632
    -1.4714  -1.3926  -1.3267  -1.3035  -1.1935  -1.1546  -1.1288  -1.0402
    -0.9769  -0.9395  -0.9178  -0.9003  -0.7952  -0.7788  -0.7736  -0.6804
    -0.6679  -0.6239  -0.5298  -0.5069  -0.5009  -0.4201  -0.4136  -0.3076
    -0.2796  -0.2362  -0.2029  -0.0984  -0.0777   0.0222   0.0578   0.0783
     0.1976   0.2149   0.2774   0.3469   0.4137   0.4313   0.4679   0.4969
     0.5139   0.5898   0.7034   0.7119   0.8135   0.8466   1.0204   1.0593
     1.3446   1.3542   2.0457   2.3856   2.5451   2.8436   3.0315   3.1446
     3.3601   3.3760   3.3813   3.5502   3.6034

[...]

          k = 0.0380-0.0419 0.0000 ( 17876 PWs)   bands (ev):

[...]

          k =-0.0760-0.0000 0.0000 ( 17886 PWs)   bands (ev):

[...]

          k =-0.0760-0.0839 0.0000 ( 17948 PWs)   bands (ev):

   -56.8720 -56.8717 -55.9975 -55.9917 -55.9852 -55.9845 -55.8558 -55.8400
   -55.6375 -55.6317 -55.5509 -55.5369 -55.5368 -55.4472 -54.9670 -54.9363
   -33.1494 -33.1491 -33.1336 -33.1334 -33.0178 -33.0175 -32.3134 -32.3110
   -32.3017 -32.2952 -32.2427 -32.2391 -32.2012 -32.1961 -32.1950 -32.1921
   -32.1870 -32.1841 -32.1820 -32.1803 -32.1062 -32.0937 -32.0550 -32.0428
   -31.9877 -31.9793 -31.9198 -31.9140 -31.8812 -31.8811 -31.8789 -31.8361
   -31.8345 -31.8038 -31.7670 -31.7625 -31.7623 -31.7245 -31.7234 -31.7233
   -31.6899 -31.6506 -31.3698 -31.2925 -31.1965 -31.1701 -31.1577 -31.1170
   -16.4023 -16.4003 -16.3674 -16.3671 -16.0986 -16.0950 -16.0502 -16.0469
   -15.8758 -15.8687 -15.6627 -15.6539 -15.6473 -15.6445 -15.5168 -15.5110
   -15.4490 -15.4348 -15.3479 -15.3455 -15.2816 -15.2754 -15.2379 -15.2184
   -14.9073 -14.8892 -14.7767 -14.7518 -14.5893 -14.0458 -14.0457 -13.1683
    -7.7791  -3.5009  -3.5001  -3.4369  -3.4359  -3.3130  -3.3071  -3.2319
    -3.2311  -3.1312  -3.1275  -3.0756  -3.0012  -2.9881  -2.9850  -2.9735
    -2.9509  -2.8383  -2.8312  -2.8204  -2.8035  -2.7473  -2.7448  -2.7436
    -2.6592  -2.6430  -2.6088  -2.5705  -2.4622  -2.4483  -2.4359  -2.4039
    -2.3515  -2.3330  -2.3199  -2.2782  -2.2518  -2.1697  -2.1209  -2.0605
    -1.9428  -1.9392  -1.9319  -1.9169  -1.7644  -1.7225  -1.6955  -1.6865
    -1.6799  -1.6370  -1.5364  -1.5298  -1.3962  -1.3955  -1.3169  -1.2370
    -1.2193  -1.1890  -1.0595  -1.0184  -0.9824  -0.9743  -0.9474  -0.9285
    -0.9039  -0.8669  -0.7261  -0.7124  -0.6755  -0.6408  -0.6361  -0.5778
    -0.5232  -0.4414  -0.3640  -0.3631  -0.3099  -0.2364  -0.1778  -0.0940
    -0.0809  -0.0763   0.2033   0.2829   0.3746   0.4500   0.5181   0.5724
     0.6076   0.6719   0.7100   0.8456   0.8502   0.8686   0.8690   0.9295
     0.9309   1.3372   1.9356   2.9585   2.9588   3.0255   3.0259   3.3495
     3.3554   3.4634   3.4729   3.5818   3.5838

     the Fermi energy is     2.2254 ev

!    total energy              =   -2919.13172916 Ry
     estimated scf accuracy    <       0.00000006 Ry
     smearing contrib. (-TS)   =      -0.00485194 Ry
     internal energy E=F+TS    =   -2919.12687721 Ry

     The total energy is F=E-TS. E is the sum of the following terms:
     one-electron contribution =  -24571.32586505 Ry
     hartree contribution      =   12369.84354905 Ry
     xc contribution           =    -479.90105279 Ry
     ewald contribution        =    9762.25636890 Ry
     electric field correction =       0.00012267 Ry

     convergence has been achieved in  50 iterations

     Forces acting on atoms (cartesian axes, Ry/au):

     atom    1 type  1   force =     0.00006014   -0.00051029    0.12422495
     atom    2 type  1   force =    -0.00009294   -0.00054592   -0.16066011
     atom    3 type  2   force =     0.00022074   -0.00024073   -0.06799776
     atom    4 type  2   force =    -0.00000283   -0.00032432    0.02764104
     atom    5 type  2   force =    -0.01622614    0.00174649   -0.00934010
     atom    6 type  2   force =     0.01827952    0.00228643   -0.00889388
     atom    7 type  1   force =     0.00112159   -0.00380653    0.02192193
     atom    8 type  1   force =    -0.00062000   -0.00325649    0.11112975
     atom    9 type  2   force =    -0.00010983    0.00139099   -0.00027253
     atom   10 type  2   force =    -0.00191237    0.00178497   -0.07339394
     atom   11 type  2   force =     0.00080120    0.00005770    0.00008596
     atom   12 type  2   force =    -0.00063291    0.00019893    0.00018866
     atom   13 type  1   force =     0.00004782    0.00022058   -0.00055754
     atom   14 type  1   force =    -0.00101431   -0.00024519   -0.00055539
     atom   15 type  2   force =    -0.00000576   -0.00030544    0.00025896
     atom   16 type  2   force =    -0.00006100    0.00106476    0.00083122
     atom   17 type  2   force =     0.00019893    0.00017515   -0.00045465
     atom   18 type  2   force =    -0.00006987    0.00024741   -0.00006533
     atom   19 type  1   force =     0.00014420    0.00004277   -0.00073512
     atom   20 type  1   force =     0.00026198   -0.00147813   -0.00064348
     atom   21 type  2   force =     0.00004102   -0.00006772    0.09975866
     atom   22 type  2   force =     0.00014548   -0.00050222   -0.00023148
     atom   23 type  2   force =    -0.07917495   -0.00005420   -0.03243940
     atom   24 type  2   force =     0.07904189    0.00038208   -0.03246032
     atom   25 type  1   force =     0.00005077   -0.00049926    0.12368868
     atom   26 type  1   force =    -0.00009492   -0.00050442   -0.16067972
     atom   27 type  2   force =     0.00032667   -0.00047987   -0.06705018
     atom   28 type  2   force =     0.00002534   -0.00014652    0.02732955
     atom   29 type  2   force =    -0.01662495    0.00134880   -0.00954321
     atom   30 type  2   force =     0.01856572    0.00165528   -0.00911115
     atom   31 type  1   force =     0.00109977   -0.00128713    0.02147778
     atom   32 type  1   force =    -0.00051929    0.00069489    0.11178076
     atom   33 type  2   force =    -0.00034246   -0.00115304    0.00022968
     atom   34 type  2   force =    -0.00157000    0.00135652   -0.07232653
     atom   35 type  2   force =    -0.00179876   -0.00019644    0.00030201
     atom   36 type  2   force =     0.00071094   -0.00042001   -0.00001305
     atom   37 type  1   force =     0.00071881   -0.00033522    0.00054898
     atom   38 type  1   force =    -0.00017296    0.00052492    0.00012348
     atom   39 type  2   force =     0.00016718   -0.00033197   -0.00023205
     atom   40 type  2   force =     0.00010597   -0.00017533    0.00041466
     atom   41 type  2   force =     0.00010520    0.00042088   -0.00014284
     atom   42 type  2   force =     0.00016329    0.00049737   -0.00003235
     atom   43 type  1   force =     0.00036679    0.00015731   -0.00033497
     atom   44 type  1   force =    -0.00028615    0.00055034   -0.00047628
     atom   45 type  2   force =     0.00002403   -0.00007188    0.09975843
     atom   46 type  2   force =    -0.07918573   -0.00000290   -0.03243664
     atom   47 type  2   force =     0.07905111    0.00042170   -0.03246050
     atom   48 type  3   force =    -0.00138104   -0.00091245   -0.00776588
     atom   49 type  4   force =    -0.00091217    0.00035379    0.01679448
     atom   50 type  5   force =    -0.00140463   -0.00231593   -0.00217413
     atom   51 type  5   force =     0.00370341    0.00141137   -0.00349336
     atom   52 type  5   force =    -0.00133356    0.00117814   -0.00151578

     Total force =     0.424938     Total SCF correction =     0.000471
  @ DRIVER MODE: Message from server: STATUS
  @ DRIVER MODE: Message from server: GETFORCE
  @ DRIVER MODE: Returning v,forces,stress,ensemble

     Writing output data file ./calc.save/
  @ DRIVER MODE: Message from server: EXIT
  @ DRIVE MODE: Exiting

     General routines

     Parallel routines

   This run was terminated on:  21:27:25  24Aug2021

   JOB DONE.