     Program PWSCF v.6.7GPU starts on 24Sep2021 at  5:10: 2

     R & G space division:  proc/nbgrp/npool/nimage =       8
     Reading input from /storage/home/hcoda1/3/ntian30/research/carbon/CxH_vib/H2O_calc/ads_slab/CH3NHNH2HO_a/out_0037/pw.inp
Warning: card &CELL ignored
Warning: card   CELL_DYNAMICS='IPI', ignored
Warning: card / ignored

     Current dimensions of program PWSCF are:
     Max number of different atomic species (ntypx) = 10
     Max number of k-points (npk) =  40000
     Max angular momentum in pseudopotentials (lmaxx) =  3
     Presently no symmetry can be used with electric field

     Message from routine cell_base_init:
     DEPRECATED: use true lattice parameter, not A to a.u. conversion factor

     IMPORTANT: XC functional enforced from input :
     Exchange-correlation= BEEF-VDW
                           (   1   4  43  14   2   0   0)
     Any further DFT definition will be discarded
     Please, verify this is what you really want

  @ DRIVER MODE: Connecting to
 qe_1139763_2947307.sched-torque.pace.gatech.edulrgkltq1_scratch
  using UNIX socket
  @ DRIVER MODE: Message from server: STATUS
  @ DRIVER MODE: Message from server: INIT
  @ DRIVER MODE: Receiving replica           0          -1
  @ DRIVER MODE: Receiving encoded integer          25
  @ DRIVER MODE:  SCF:  T  FORCE:  T  STRESS:  F  VC:  F  ENSEMBLE:  F
  @ DRIVER MODE:  SCF:  T  FORCE:  T  STRESS:  F  VC:  F  ENSEMBLE:  F

     Using Slab Decomposition

     bravais-lattice index     =            0
     lattice parameter (alat)  =       1.8897  a.u.
     unit-cell volume          =    6658.9804 (a.u.)^3
     number of atoms/cell      =           58
     number of atomic types    =            5
     number of electrons       =       405.00
     number of Kohn-Sham states=          212
     kinetic-energy cutoff     =      29.3995  Ry
     charge density cutoff     =     293.9946  Ry
     scf convergence threshold =      7.3E-08
     mixing beta               =       0.0500
     number of iterations used =            8  plain     mixing
     Exchange-correlation= BEEF-VDW
                           (   1   4  43  14   2   0   0)

     celldm(1)=   1.889726  celldm(2)=   0.000000  celldm(3)=   0.000000
     celldm(4)=   0.000000  celldm(5)=   0.000000  celldm(6)=   0.000000

     crystal axes: (cart. coord. in units of alat)
               a(1) = (   6.579727   0.000000   0.000000 )
               a(2) = (  -0.000775   5.961596   0.000000 )
               a(3) = (   0.000000   0.000000  25.155947 )

     reciprocal axes: (cart. coord. in units 2 pi/alat)
               b(1) = (  0.151982  0.000020  0.000000 )
               b(2) = (  0.000000  0.167740  0.000000 )
               b(3) = (  0.000000  0.000000  0.039752 )

     PseudoPot. # 1 for Ti read from file:
     /storage/coda1/p-amedford6/0/shared/rich_project_chbe-medford/medford-share/data/pseudos_module/espresso/nninc/pbe/van/Ti.UPF
     MD5 check sum: 8e4df49b7f0d34bbd5052bf3f5ea0213
     Pseudo is Ultrasoft, Zval = 12.0
     Generated by new atomic code, or converted to UPF format
     Using radial grid of  851 points,  6 beta functions with:
                l(1) =   0
                l(2) =   0
                l(3) =   1
                l(4) =   1
                l(5) =   2
                l(6) =   2
     Q(r) pseudized with  8 coefficients,  rinner =    1.000   1.000   1.000
                                                       1.000   1.000

     PseudoPot. # 2 for O  read from file:
     /storage/coda1/p-amedford6/0/shared/rich_project_chbe-medford/medford-share/data/pseudos_module/espresso/nninc/pbe/van/O.UPF
     MD5 check sum: 78c19812648e8988a0fe644b0f25305e
     Pseudo is Ultrasoft, Zval =  6.0
     Generated by new atomic code, or converted to UPF format
     Using radial grid of  737 points,  4 beta functions with:
                l(1) =   0
                l(2) =   0
                l(3) =   1
                l(4) =   1
     Q(r) pseudized with  8 coefficients,  rinner =    0.800   0.800   0.800

     PseudoPot. # 3 for N  read from file:
     /storage/coda1/p-amedford6/0/shared/rich_project_chbe-medford/medford-share/data/pseudos_module/espresso/nninc/pbe/van/N.UPF
     MD5 check sum: 90d10febe142ad51ac9d5be1deb811c4
     Pseudo is Ultrasoft, Zval =  5.0
     Generated by new atomic code, or converted to UPF format
     Using radial grid of  729 points,  4 beta functions with:
                l(1) =   0
                l(2) =   0
                l(3) =   1
                l(4) =   1
     Q(r) pseudized with  8 coefficients,  rinner =    0.800   0.800   0.800

     PseudoPot. # 4 for C  read from file:
     /storage/coda1/p-amedford6/0/shared/rich_project_chbe-medford/medford-share/data/pseudos_module/espresso/nninc/pbe/van/C.UPF
     MD5 check sum: 1a69bf6b8db32088f5b2163dbdb77a27
     Pseudo is Ultrasoft, Zval =  4.0
     Generated by new atomic code, or converted to UPF format
     Using radial grid of  721 points,  4 beta functions with:
                l(1) =   0
                l(2) =   0
                l(3) =   1
                l(4) =   1
     Q(r) pseudized with  8 coefficients,  rinner =    0.800   0.800   0.800

     PseudoPot. # 5 for H  read from file:
     /storage/coda1/p-amedford6/0/shared/rich_project_chbe-medford/medford-share/data/pseudos_module/espresso/nninc/pbe/van/H.UPF
     MD5 check sum: b5ee9d7bfd3a09ee7748110bda690ff7
     Pseudo is Ultrasoft, Zval =  1.0
     Generated by new atomic code, or converted to UPF format
     Using radial grid of  615 points,  1 beta functions with:
                l(1) =   0
     Q(r) pseudized with  8 coefficients,  rinner =    0.800

     atomic species   valence    mass     pseudopotential
        Ti1           12.00    47.86700     Ti( 1.00)
        O1             6.00    15.99900     O ( 1.00)
        N1             5.00    14.00700     N ( 1.00)
        C1             4.00    12.01100     C ( 1.00)
        H1             1.00     1.00800     H ( 1.00)

     No symmetry found

   Cartesian axes

     site n.     atom                  positions (alat units)
         1           Ti1 tau(   1) = (   0.0004258   2.9801865   6.0000000  )
         2           Ti1 tau(   2) = (   3.2906075   1.4906267   6.0002472  )
         3           O1  tau(   3) = (   0.0006271   0.0005054   7.9858123  )
         4           O1  tau(   4) = (   3.2906025   0.0005020   7.3038282  )
         5           O1  tau(   5) = (   4.5942328   1.4918067   9.2879030  )
         6           O1  tau(   6) = (   1.9868534   1.4903216   9.2879459  )
         7           Ti1 tau(   7) = (   3.2907910   2.8959150   9.1758416  )
         8           Ti1 tau(   8) = (   0.0015273   1.4827037   9.2680791  )
         9           O1  tau(   9) = (   3.3003128   0.0493987  11.3625472  )
        10           O1  tau(  10) = (   0.0116148   5.9584955  10.6183126  )
        11           O1  tau(  11) = (   1.2863924   1.5188706  12.6959087  )
        12           O1  tau(  12) = (   5.3173592   1.5183023  12.6957539  )
        13           Ti1 tau(  13) = (   0.0130489   2.9571150  12.5182267  )
        14           Ti1 tau(  14) = (   3.3124343   1.5987737  12.4587140  )
        15           O1  tau(  15) = (   0.0455642   5.8537743  14.6515032  )
        16           O1  tau(  16) = (   3.3135256   5.8999501  14.0036581  )
        17           O1  tau(  17) = (   4.5824137   1.5787328  16.0473457  )
        18           O1  tau(  18) = (   2.0456054   1.5356268  16.0652349  )
        19           Ti1 tau(  19) = (   3.2855744   2.9948502  15.7047272  )
        20           Ti1 tau(  20) = (   0.0729980   1.3194477  15.7501807  )
        21           O1  tau(  21) = (   3.2904802   0.0005063   4.7018136  )
        22           O1  tau(  22) = (   6.5643345   0.1786488  17.1561759  )
        23           O1  tau(  23) = (   1.3043587   1.4918075   6.0039043  )
        24           O1  tau(  24) = (   5.2767064   1.4903225   6.0039473  )
        25           Ti1 tau(  25) = (   0.0000382   5.9609847   6.0000000  )
        26           Ti1 tau(  26) = (   3.2902200   4.4714249   6.0002472  )
        27           O1  tau(  27) = (   0.0002396   2.9813036   7.9858123  )
        28           O1  tau(  28) = (   3.2902150   2.9813002   7.3038282  )
        29           O1  tau(  29) = (   4.5938453   4.4726049   9.2879030  )
        30           O1  tau(  30) = (   1.9864658   4.4711199   9.2879459  )
        31           Ti1 tau(  31) = (   3.2891106   5.8743827   9.1763621  )
        32           Ti1 tau(  32) = (   0.0006254   4.4649316   9.2693709  )
        33           O1  tau(  33) = (   3.3044115   2.9646987  11.3227374  )
        34           O1  tau(  34) = (   0.0092240   2.9805883  10.6323155  )
        35           O1  tau(  35) = (   1.2889249   4.4812606  12.6373974  )
        36           O1  tau(  36) = (   5.3198440   4.4849614  12.6453916  )
        37           Ti1 tau(  37) = (   0.0274371   5.9167426  12.5032498  )
        38           Ti1 tau(  38) = (   3.3124303   4.6827448  12.7121475  )
        39           O1  tau(  39) = (   0.0064664   3.0605765  14.9143048  )
        40           O1  tau(  40) = (   3.2921723   3.0190953  13.9337278  )
        41           O1  tau(  41) = (   4.5343043   4.4484976  16.2223827  )
        42           O1  tau(  42) = (   2.0055671   4.4324605  16.2273083  )
        43           Ti1 tau(  43) = (   3.3963104   0.0511244  16.3072024  )
        44           Ti1 tau(  44) = (   0.1011521   4.5293608  16.0606835  )
        45           O1  tau(  45) = (   3.2900926   2.9813045   4.7018136  )
        46           O1  tau(  46) = (   1.3039711   4.4726057   6.0039043  )
        47           O1  tau(  47) = (   5.2763189   4.4711207   6.0039473  )
        48           N1  tau(  48) = (   0.7799224   3.1460235  19.0808133  )
        49           N1  tau(  49) = (   6.3029119   3.3142126  18.0946246  )
        50           C1  tau(  50) = (   0.9829876   4.3811599  19.8296872  )
        51           H1  tau(  51) = (   0.0599524   4.7630682  20.2995108  )
        52           H1  tau(  52) = (   1.7087173   4.1728717  20.6153690  )
        53           H1  tau(  53) = (   1.3778604   5.1510331  19.1745456  )
        54           H1  tau(  54) = (   0.4745774   2.4057476  19.7140978  )
        55           H1  tau(  55) = (   5.5451363   3.8924421  18.4761980  )
        56           H1  tau(  56) = (   5.8791802   2.3931312  17.9634808  )
        57           O1  tau(  57) = (   3.3895457   0.1916509  18.1699706  )
        58           H1  tau(  58) = (   3.8128180   5.4341384  18.6581559  )

     number of k points=    10  Fermi-Dirac smearing, width (Ry)=  0.0073
                       cart. coord. in units 2pi/alat
        k(    1) = (   0.0000000   0.0000000   0.0000000), wk =   0.1250000
        k(    2) = (   0.0000000   0.0419351   0.0000000), wk =   0.2500000
        k(    3) = (   0.0000000  -0.0838702   0.0000000), wk =   0.1250000
        k(    4) = (   0.0379955   0.0000049   0.0000000), wk =   0.2500000
        k(    5) = (   0.0379955   0.0419400   0.0000000), wk =   0.2500000
        k(    6) = (   0.0379955  -0.0838652   0.0000000), wk =   0.2500000
        k(    7) = (   0.0379955  -0.0419301   0.0000000), wk =   0.2500000
        k(    8) = (  -0.0759910  -0.0000099   0.0000000), wk =   0.1250000
        k(    9) = (  -0.0759910   0.0419252   0.0000000), wk =   0.2500000
        k(   10) = (  -0.0759910  -0.0838800   0.0000000), wk =   0.1250000

     Initial potential from superposition of free atoms

     starting charge  388.99913, renormalised to  405.00000

     negative rho (up, down):  1.368E-02 0.000E+00

     %%%%%%%%%%%%%%%%%%%%%%%%%%%%%%%%%%%%%%%%%%%%%%%%%%%%%%%%%%%%%%%%%%%%%%%%
     %                                                                      %
     % You are using vdW-DF, which was implemented by the Thonhauser group. %
     % Please cite the following two papers that made this development      %
     % possible and the two reviews that describe the various versions:     %
     %                                                                      %
     %   T. Thonhauser et al., PRL 115, 136402 (2015).                      %
     %   T. Thonhauser et al., PRB 76, 125112 (2007).                       %
     %   K. Berland et al., Rep. Prog. Phys. 78, 066501 (2015).             %
     %   D.C. Langreth et al., J. Phys.: Condens. Matter 21, 084203 (2009). %
     %                                                                      %
     %                                                                      %
     % If you are calculating the stress with vdW-DF, please also cite:     %
     %                                                                      %
     %   R. Sabatini et al., J. Phys.: Condens. Matter 24, 424209 (2012).   %
     %                                                                      %
     %%%%%%%%%%%%%%%%%%%%%%%%%%%%%%%%%%%%%%%%%%%%%%%%%%%%%%%%%%%%%%%%%%%%%%%%

     Adding external electric field

     Computed dipole along edir(3) :
        Dipole              -14.8124 Ry au,        -37.6493 Debye
        Dipole field         -0.0280 Ry au,

        Potential amp.        2.5912 Ry
        Total length         46.3494 bohr

     Starting wfcs are  307 atomic wfcs
  @ DRIVER MODE: Message from server: STATUS
  @ DRIVER MODE: Message from server: POSDATA
  @ DRIVER MODE: Reading and sharing cell
  @ DRIVER MODE: Reading and sharing positions
  @ DRIVER MODE: Received positions

     Self-consistent Calculation

     iteration #  1     ecut=    29.40 Ry     beta= 0.05
     Davidson diagonalization with overlap
     c_bands:  4 eigenvalues not converged
     c_bands:  4 eigenvalues not converged
     c_bands:  5 eigenvalues not converged
     c_bands:  2 eigenvalues not converged
     c_bands:  3 eigenvalues not converged
     c_bands:  4 eigenvalues not converged
     c_bands:  2 eigenvalues not converged
     ethr =  1.00E-05,  avg # of iterations = 22.9

[...]

     total energy              =   -2202.99152757 Ry
     estimated scf accuracy    <    8803.88539256 Ry

     iteration #  2     ecut=    29.40 Ry     beta= 0.05
     Davidson diagonalization with overlap
     ethr =  1.00E-02,  avg # of iterations = 30.5

[...]

     iteration # 52     ecut=    29.40 Ry     beta= 0.05
     Davidson diagonalization with overlap
     c_bands:  1 eigenvalues not converged
     c_bands:  1 eigenvalues not converged
     c_bands:  1 eigenvalues not converged
     ethr =  1.23E-07,  avg # of iterations = 17.3

[...]

     total energy              =   -2976.46400605 Ry
     estimated scf accuracy    <       0.00000022 Ry

     iteration # 69     ecut=    29.40 Ry     beta= 0.05
     Davidson diagonalization with overlap
     ethr =  5.34E-11,  avg # of iterations = 14.2

     negative rho (up, down):  1.441E-02 0.000E+00

     Adding external electric field

     Computed dipole along edir(3) :
        Dipole                1.2265 Ry au,          3.1175 Debye
        Dipole field          0.0023 Ry au,

        Potential amp.       -0.2146 Ry
        Total length         46.3494 bohr

     End of self-consistent calculation

          k = 0.0000 0.0000 0.0000 ( 18029 PWs)   bands (ev):

   -55.4452 -55.3569 -55.3229 -55.2181 -55.2153 -55.1876 -55.1853 -55.1778
   -55.1535 -55.1308 -55.0876 -54.9856 -54.9371 -54.8937 -54.3318 -54.2978
   -31.8421 -31.7914 -31.7218 -31.7046 -31.6904 -31.6758 -31.6551 -31.6478
   -31.6168 -31.6032 -31.5969 -31.5095 -31.4944 -31.4872 -31.4675 -31.4640
   -31.4601 -31.4507 -31.4502 -31.4207 -31.4144 -31.3926 -31.3856 -31.3757
   -31.3708 -31.3551 -31.3540 -31.3221 -31.3214 -31.3151 -31.3143 -31.3088
   -31.3002 -31.2824 -31.2584 -31.2401 -31.1746 -31.1528 -31.1411 -31.1327
   -31.1121 -31.1029 -30.7379 -30.6514 -30.6290 -30.5553 -30.4690 -30.3572
   -17.7444 -16.3675 -16.0111 -15.8473 -15.6325 -15.5398 -15.5128 -15.3139
   -15.2189 -15.1607 -14.9593 -14.9322 -14.8947 -14.8818 -14.8730 -14.8519
   -14.8482 -14.7967 -14.7813 -14.7714 -14.7679 -14.7376 -14.7104 -14.6711
   -14.6115 -14.5978 -14.4953 -14.4398 -14.3999 -14.1587 -14.1384 -13.1704
   -12.8308 -12.7144  -9.4362  -6.4368  -5.7356  -4.2788  -3.9343  -3.3691
    -3.2678  -3.2562  -3.1997  -3.1322  -2.9780  -2.8844  -2.7825  -2.7431
    -2.6091  -2.5970  -2.4924  -2.4437  -2.3706  -2.3244  -2.2832  -2.2484
    -2.2208  -2.1646  -2.1425  -2.1165  -2.1054  -2.0326  -2.0142  -1.9241
    -1.8917  -1.8781  -1.7604  -1.7259  -1.6910  -1.6778  -1.6690  -1.6609
    -1.6184  -1.6086  -1.5979  -1.5547  -1.4552  -1.4474  -1.4299  -1.3392
    -1.2405  -0.9915  -0.9606  -0.9100  -0.8984  -0.8203  -0.7817  -0.7502
    -0.7174  -0.6471  -0.6364  -0.6103  -0.5489  -0.4735  -0.4193  -0.3716
    -0.3374  -0.2256  -0.1756  -0.1317  -0.0989  -0.0621   0.0009   0.0404
     0.0645   0.1077   0.1952   0.2589   0.2861   0.3028   0.3530   0.3949
     0.4328   0.4733   0.5451   0.5676   0.5777   0.6169   0.6256   0.6466
     0.7420   0.7604   0.8199   0.8472   0.9351   0.9660   1.0103   1.1795
     1.2491   1.3075   1.3846   1.4695   1.6398   1.6942   1.7195   1.8882
     2.2615   2.3070   3.7268   3.8744   3.8905   3.9682   3.9852   4.0494
     4.2158   4.2752   4.4160   4.4230

[...]

          k = 0.0380-0.0419 0.0000 ( 17876 PWs)   bands (ev):

[...]

          k =-0.0760-0.0000 0.0000 ( 17886 PWs)   bands (ev):

[...]

          k =-0.0760-0.0839 0.0000 ( 17948 PWs)   bands (ev):

   -55.4444 -55.3400 -55.3397 -55.2168 -55.2037 -55.1894 -55.1860 -55.1718
   -55.1689 -55.1227 -55.0958 -54.9825 -54.9381 -54.8967 -54.3148 -54.3147
   -31.7301 -31.6698 -31.6575 -31.6573 -31.6563 -31.6421 -31.6335 -31.6331
   -31.5758 -31.5311 -31.5096 -31.4988 -31.4934 -31.4880 -31.4656 -31.4599
   -31.4592 -31.4562 -31.4499 -31.4373 -31.4305 -31.4276 -31.4162 -31.3902
   -31.3853 -31.3836 -31.3761 -31.3683 -31.3497 -31.3444 -31.3412 -31.3409
   -31.3378 -31.3178 -31.3163 -31.2516 -31.2346 -31.2067 -31.1789 -31.1551
   -31.1490 -31.1077 -30.6417 -30.6417 -30.5509 -30.5506 -30.5123 -30.5121
   -17.7403 -16.3575 -15.5918 -15.4468 -15.3384 -15.3281 -15.2042 -15.1369
   -15.1272 -15.0935 -15.0708 -15.0489 -15.0304 -15.0152 -14.9603 -14.9207
   -14.8893 -14.8619 -14.8573 -14.8144 -14.8046 -14.7932 -14.7754 -14.7638
   -14.7086 -14.6725 -14.6628 -14.6042 -14.4651 -14.4447 -14.2890 -13.1718
   -12.8164 -12.8162  -9.4552  -6.4210  -5.7422  -4.2644  -3.9232  -2.9646
    -2.8013  -2.6583  -2.6042  -2.5629  -2.4493  -2.4245  -2.3672  -2.3166
    -2.2925  -2.2709  -2.2187  -2.2089  -2.1628  -2.1468  -2.1226  -2.1077
    -2.0914  -2.0849  -2.0569  -2.0412  -2.0309  -2.0166  -1.9909  -1.9798
    -1.9615  -1.9328  -1.9127  -1.9036  -1.8698  -1.8277  -1.7664  -1.6548
    -1.5813  -1.5698  -1.5271  -1.5023  -1.4861  -1.4451  -1.4326  -1.3915
    -1.3740  -1.3079  -1.1500  -1.1246  -1.1102  -0.9679  -0.9606  -0.9318
    -0.8577  -0.8160  -0.7941  -0.7360  -0.7061  -0.6643  -0.5892  -0.5460
    -0.4916  -0.4255  -0.3256  -0.3181  -0.3021  -0.2820  -0.2658  -0.2579
    -0.2247  -0.1876  -0.1145  -0.0679  -0.0593  -0.0533  -0.0021   0.0778
     0.1286   0.2431   0.3891   0.3936   0.4606   0.4614   0.6611   0.6701
     0.7467   0.7820   0.8164   0.8437   0.9374   0.9554   0.9931   1.0759
     1.1395   1.1690   1.1899   1.1947   1.2478   1.4502   2.0565   2.0644
     2.1273   2.1274   3.9680   4.2009   4.2415   4.2544   4.2728   4.2992
     4.3129   4.3270   4.3939   4.4171

     the Fermi energy is     3.7642 ev

!    total energy              =   -2976.46403383 Ry
     estimated scf accuracy    <       0.00000007 Ry
     smearing contrib. (-TS)   =      -0.01955681 Ry
     internal energy E=F+TS    =   -2976.44447702 Ry

     The total energy is F=E-TS. E is the sum of the following terms:
     one-electron contribution =  -23037.25568332 Ry
     hartree contribution      =   11616.35266888 Ry
     xc contribution           =    -495.72348237 Ry
     ewald contribution        =    8940.17918095 Ry
     electric field correction =       0.00283885 Ry

     convergence has been achieved in  69 iterations

     Forces acting on atoms (cartesian axes, Ry/au):

     atom    1 type  1   force =     0.00016229   -0.00022679    0.09415995
     atom    2 type  1   force =    -0.00009916    0.00018492   -0.17535299
     atom    3 type  2   force =     0.00005518   -0.00049283   -0.02104978
     atom    4 type  2   force =    -0.00002426   -0.00093659    0.05423516
     atom    5 type  2   force =    -0.00486839   -0.00215844    0.00106122
     atom    6 type  2   force =     0.00669261   -0.00138473    0.00107802
     atom    7 type  1   force =     0.00005966    0.00331153    0.00866168
     atom    8 type  1   force =    -0.00010130    0.00119947    0.00271240
     atom    9 type  2   force =    -0.00021911   -0.00031270   -0.00059899
     atom   10 type  2   force =    -0.00111942    0.00429242   -0.01026512
     atom   11 type  2   force =    -0.00006942   -0.00055013   -0.00010528
     atom   12 type  2   force =     0.00061405   -0.00031534   -0.00026748
     atom   13 type  1   force =    -0.00143416    0.00019751   -0.00057639
     atom   14 type  1   force =     0.00071163    0.00018344   -0.00047037
     atom   15 type  2   force =     0.00013247   -0.00000911    0.00002346
     atom   16 type  2   force =    -0.00009553   -0.00068711   -0.00029204
     atom   17 type  2   force =    -0.00042583    0.00070459    0.00008836
     atom   18 type  2   force =    -0.00076707    0.00032743   -0.00020946
     atom   19 type  1   force =     0.00042497   -0.00093318    0.00057868
     atom   20 type  1   force =    -0.00068352   -0.00004655    0.00053480
     atom   21 type  2   force =     0.00003746   -0.00000846    0.10318414
     atom   22 type  2   force =    -0.00011061    0.00002863    0.00048066
     atom   23 type  2   force =    -0.07200426   -0.00019765   -0.02725742
     atom   24 type  2   force =     0.07188213    0.00026048   -0.02732918
     atom   25 type  1   force =     0.00007288   -0.00016615    0.09389271
     atom   26 type  1   force =    -0.00012205   -0.00136922   -0.17549096
     atom   27 type  2   force =     0.00011099   -0.00005426   -0.01986283
     atom   28 type  2   force =     0.00006470   -0.00104994    0.04978328
     atom   29 type  2   force =    -0.00745326    0.00209310    0.00338718
     atom   30 type  2   force =     0.00905828    0.00223408    0.00330554
     atom   31 type  1   force =     0.00019590    0.00151451    0.00005173
     atom   32 type  1   force =    -0.00008705   -0.00226871    0.00302009
     atom   33 type  2   force =    -0.00017598   -0.00029814   -0.00002822
     atom   34 type  2   force =    -0.00117141   -0.00218461   -0.00965882
     atom   35 type  2   force =     0.00065246    0.00005129   -0.00022625
     atom   36 type  2   force =     0.00036431    0.00011227   -0.00035413
     atom   37 type  1   force =    -0.00096484    0.00025046    0.00035581
     atom   38 type  1   force =     0.00096412   -0.00025901    0.00019359
     atom   39 type  2   force =    -0.00016907   -0.00053250    0.00009109
     atom   40 type  2   force =    -0.00019992   -0.00018594   -0.00016897
     atom   41 type  2   force =     0.00022763   -0.00031855   -0.00010791
     atom   42 type  2   force =    -0.00066636    0.00003882   -0.00007306
     atom   43 type  1   force =     0.00023371    0.00092250    0.00046182
     atom   44 type  1   force =    -0.00043295    0.00079402    0.00012449
     atom   45 type  2   force =     0.00002539    0.00003425    0.10300739
     atom   46 type  2   force =    -0.07195318   -0.00008291   -0.02721113
     atom   47 type  2   force =     0.07184483    0.00034893   -0.02729605
     atom   48 type  3   force =    -0.00259558   -0.00544799    0.00200622
     atom   49 type  3   force =    -0.00056480    0.00078564   -0.00161432
     atom   50 type  4   force =    -0.00012973   -0.00007420    0.00049707
     atom   51 type  5   force =    -0.00098407   -0.00016036    0.00044093
     atom   52 type  5   force =     0.00056854   -0.00009980    0.00036528
     atom   53 type  5   force =    -0.00019095    0.00056491   -0.00055011
     atom   54 type  5   force =     0.00351557    0.00315471   -0.00162935
     atom   55 type  5   force =     0.00054425   -0.00054286   -0.00004931
     atom   56 type  5   force =     0.00072891    0.00002367   -0.00007905
     atom   57 type  2   force =     0.00073788   -0.00120421    0.00016705
     atom   58 type  5   force =    -0.00079957    0.00094535    0.00022513

     Total force =     0.362059     Total SCF correction =     0.000807
  @ DRIVER MODE: Message from server: STATUS
  @ DRIVER MODE: Message from server: GETFORCE
  @ DRIVER MODE: Returning v,forces,stress,ensemble

     Writing output data file ./calc.save/
  @ DRIVER MODE: Message from server: EXIT
  @ DRIVE MODE: Exiting

     General routines

     Parallel routines

   This run was terminated on:   5:41:51  24Sep2021

   JOB DONE.