     Program PWSCF v.6.7GPU starts on  9Sep2021 at  2:42:47

     R & G space division:  proc/nbgrp/npool/nimage =      10
     Reading input from /storage/home/hcoda1/3/ntian30/research/carbon/CxH_vib/CH2_calc/ads_slab/CH2NNHHH_a/out_0015/pw.inp
Warning: card &CELL ignored
Warning: card   CELL_DYNAMICS='IPI', ignored
Warning: card / ignored

     Current dimensions of program PWSCF are:
     Max number of different atomic species (ntypx) = 10
     Max number of k-points (npk) =  40000
     Max angular momentum in pseudopotentials (lmaxx) =  3
     Presently no symmetry can be used with electric field

     Message from routine cell_base_init:
     DEPRECATED: use true lattice parameter, not A to a.u. conversion factor

     IMPORTANT: XC functional enforced from input :
     Exchange-correlation= BEEF-VDW
                           (   1   4  43  14   2   0   0)
     Any further DFT definition will be discarded
     Please, verify this is what you really want

  @ DRIVER MODE: Connecting to
 qe_1139763_2767390.sched-torque.pace.gatech.edu2j0jtal3_scratch
  using UNIX socket
  @ DRIVER MODE: Message from server: STATUS
  @ DRIVER MODE: Message from server: INIT
  @ DRIVER MODE: Receiving replica           0          -1
  @ DRIVER MODE: Receiving encoded integer          25
  @ DRIVER MODE:  SCF:  T  FORCE:  T  STRESS:  F  VC:  F  ENSEMBLE:  F
  @ DRIVER MODE:  SCF:  T  FORCE:  T  STRESS:  F  VC:  F  ENSEMBLE:  F

     Using Slab Decomposition

     bravais-lattice index     =            0
     lattice parameter (alat)  =       1.8897  a.u.
     unit-cell volume          =    6658.9804 (a.u.)^3
     number of atoms/cell      =           55
     number of atomic types    =            5
     number of electrons       =       397.00
     number of Kohn-Sham states=          208
     kinetic-energy cutoff     =      29.3995  Ry
     charge density cutoff     =     293.9946  Ry
     scf convergence threshold =      7.3E-08
     mixing beta               =       0.0500
     number of iterations used =            8  plain     mixing
     Exchange-correlation= BEEF-VDW
                           (   1   4  43  14   2   0   0)

     celldm(1)=   1.889726  celldm(2)=   0.000000  celldm(3)=   0.000000
     celldm(4)=   0.000000  celldm(5)=   0.000000  celldm(6)=   0.000000

     crystal axes: (cart. coord. in units of alat)
               a(1) = (   6.579727   0.000000   0.000000 )
               a(2) = (  -0.000775   5.961596   0.000000 )
               a(3) = (   0.000000   0.000000  25.155947 )

     reciprocal axes: (cart. coord. in units 2 pi/alat)
               b(1) = (  0.151982  0.000020  0.000000 )
               b(2) = (  0.000000  0.167740  0.000000 )
               b(3) = (  0.000000  0.000000  0.039752 )

     PseudoPot. # 1 for Ti read from file:
     /storage/coda1/p-amedford6/0/shared/rich_project_chbe-medford/medford-share/data/pseudos_module/espresso/nninc/pbe/van/Ti.UPF
     MD5 check sum: 8e4df49b7f0d34bbd5052bf3f5ea0213
     Pseudo is Ultrasoft, Zval = 12.0
     Generated by new atomic code, or converted to UPF format
     Using radial grid of  851 points,  6 beta functions with:
                l(1) =   0
                l(2) =   0
                l(3) =   1
                l(4) =   1
                l(5) =   2
                l(6) =   2
     Q(r) pseudized with  8 coefficients,  rinner =    1.000   1.000   1.000
                                                       1.000   1.000

     PseudoPot. # 2 for O  read from file:
     /storage/coda1/p-amedford6/0/shared/rich_project_chbe-medford/medford-share/data/pseudos_module/espresso/nninc/pbe/van/O.UPF
     MD5 check sum: 78c19812648e8988a0fe644b0f25305e
     Pseudo is Ultrasoft, Zval =  6.0
     Generated by new atomic code, or converted to UPF format
     Using radial grid of  737 points,  4 beta functions with:
                l(1) =   0
                l(2) =   0
                l(3) =   1
                l(4) =   1
     Q(r) pseudized with  8 coefficients,  rinner =    0.800   0.800   0.800

     PseudoPot. # 3 for N  read from file:
     /storage/coda1/p-amedford6/0/shared/rich_project_chbe-medford/medford-share/data/pseudos_module/espresso/nninc/pbe/van/N.UPF
     MD5 check sum: 90d10febe142ad51ac9d5be1deb811c4
     Pseudo is Ultrasoft, Zval =  5.0
     Generated by new atomic code, or converted to UPF format
     Using radial grid of  729 points,  4 beta functions with:
                l(1) =   0
                l(2) =   0
                l(3) =   1
                l(4) =   1
     Q(r) pseudized with  8 coefficients,  rinner =    0.800   0.800   0.800

     PseudoPot. # 4 for C  read from file:
     /storage/coda1/p-amedford6/0/shared/rich_project_chbe-medford/medford-share/data/pseudos_module/espresso/nninc/pbe/van/C.UPF
     MD5 check sum: 1a69bf6b8db32088f5b2163dbdb77a27
     Pseudo is Ultrasoft, Zval =  4.0
     Generated by new atomic code, or converted to UPF format
     Using radial grid of  721 points,  4 beta functions with:
                l(1) =   0
                l(2) =   0
                l(3) =   1
                l(4) =   1
     Q(r) pseudized with  8 coefficients,  rinner =    0.800   0.800   0.800

     PseudoPot. # 5 for H  read from file:
     /storage/coda1/p-amedford6/0/shared/rich_project_chbe-medford/medford-share/data/pseudos_module/espresso/nninc/pbe/van/H.UPF
     MD5 check sum: b5ee9d7bfd3a09ee7748110bda690ff7
     Pseudo is Ultrasoft, Zval =  1.0
     Generated by new atomic code, or converted to UPF format
     Using radial grid of  615 points,  1 beta functions with:
                l(1) =   0
     Q(r) pseudized with  8 coefficients,  rinner =    0.800

     atomic species   valence    mass     pseudopotential
        Ti1           12.00    47.86700     Ti( 1.00)
        O1             6.00    15.99900     O ( 1.00)
        N1             5.00    14.00700     N ( 1.00)
        C1             4.00    12.01100     C ( 1.00)
        H1             1.00     1.00800     H ( 1.00)

     No symmetry found

   Cartesian axes

     site n.     atom                  positions (alat units)
         1           Ti1 tau(   1) = (   0.0004258   2.9801865   6.0000000  )
         2           Ti1 tau(   2) = (   3.2906075   1.4906267   6.0002472  )
         3           O1  tau(   3) = (   0.0006271   0.0005054   7.9858123  )
         4           O1  tau(   4) = (   3.2906025   0.0005020   7.3038282  )
         5           O1  tau(   5) = (   4.5942328   1.4918067   9.2879030  )
         6           O1  tau(   6) = (   1.9868534   1.4903216   9.2879459  )
         7           Ti1 tau(   7) = (   3.2907910   2.8959150   9.1758416  )
         8           Ti1 tau(   8) = (   0.0015273   1.4827037   9.2680791  )
         9           O1  tau(   9) = (   3.2797308   5.9473376  11.3602069  )
        10           O1  tau(  10) = (   0.0116148   5.9584955  10.6183126  )
        11           O1  tau(  11) = (   1.2902197   1.4970218  12.6485984  )
        12           O1  tau(  12) = (   5.2825647   1.4998509  12.6204812  )
        13           Ti1 tau(  13) = (   6.5707130   2.9731531  12.5352273  )
        14           Ti1 tau(  14) = (   3.2824754   1.4851695  12.4964603  )
        15           O1  tau(  15) = (   6.5335774   0.0914421  14.6722524  )
        16           O1  tau(  16) = (   3.3157438   0.0180770  13.9903400  )
        17           O1  tau(  17) = (   4.5084513   1.5196572  16.2619966  )
        18           O1  tau(  18) = (   2.0062152   1.4815140  16.1839734  )
        19           Ti1 tau(  19) = (   3.2259906   2.9465836  15.7211513  )
        20           Ti1 tau(  20) = (   6.5090593   1.4075841  16.1508600  )
        21           O1  tau(  21) = (   3.2904802   0.0005063   4.7018136  )
        22           O1  tau(  22) = (   6.5630310   5.8123487  17.2302531  )
        23           O1  tau(  23) = (   1.3043587   1.4918075   6.0039043  )
        24           O1  tau(  24) = (   5.2767064   1.4903225   6.0039473  )
        25           Ti1 tau(  25) = (   0.0000382   5.9609847   6.0000000  )
        26           Ti1 tau(  26) = (   3.2902200   4.4714249   6.0002472  )
        27           O1  tau(  27) = (   0.0002396   2.9813036   7.9858123  )
        28           O1  tau(  28) = (   3.2902150   2.9813002   7.3038282  )
        29           O1  tau(  29) = (   4.5938453   4.4726049   9.2879030  )
        30           O1  tau(  30) = (   1.9864658   4.4711199   9.2879459  )
        31           Ti1 tau(  31) = (   3.2891106   5.8743827   9.1763621  )
        32           Ti1 tau(  32) = (   0.0006254   4.4649316   9.2693709  )
        33           O1  tau(  33) = (   3.2783824   2.9878764  11.3535400  )
        34           O1  tau(  34) = (   0.0092240   2.9805883  10.6323155  )
        35           O1  tau(  35) = (   1.2857266   4.4729298  12.7006550  )
        36           O1  tau(  36) = (   5.2845514   4.4687958  12.6640455  )
        37           Ti1 tau(  37) = (   6.5734551   0.0101047  12.5124135  )
        38           Ti1 tau(  38) = (   3.2852174   4.4611384  12.5175569  )
        39           O1  tau(  39) = (   6.5279837   2.9480221  14.9030702  )
        40           O1  tau(  40) = (   3.2956390   2.9588503  13.9390168  )
        41           O1  tau(  41) = (   4.4992944   4.4159585  16.2207858  )
        42           O1  tau(  42) = (   2.0104883   4.4624356  16.0673450  )
        43           Ti1 tau(  43) = (   3.2790961   0.0058003  15.7788240  )
        44           Ti1 tau(  44) = (   0.0606790   4.6093333  15.7554573  )
        45           O1  tau(  45) = (   3.2900926   2.9813045   4.7018136  )
        46           O1  tau(  46) = (   1.3039711   4.4726057   6.0039043  )
        47           O1  tau(  47) = (   5.2763189   4.4711207   6.0039473  )
        48           N1  tau(  48) = (   0.0403274   2.7191540  18.0026804  )
        49           C1  tau(  49) = (   0.9398849   2.4944932  18.9664025  )
        50           H1  tau(  50) = (   0.9073005   3.0083022  19.9142263  )
        51           H1  tau(  51) = (   1.7098349   1.7704235  18.7615287  )
        52           N1  tau(  52) = (   5.5765855   3.6054979  18.4816711  )
        53           H1  tau(  53) = (   5.9881759   4.5320851  18.7147717  )
        54           H1  tau(  54) = (   4.9344470   3.8465857  17.6610935  )
        55           H1  tau(  55) = (   5.0674124   3.1947177  19.2767304  )

     number of k points=    10  Fermi-Dirac smearing, width (Ry)=  0.0073
                       cart. coord. in units 2pi/alat
        k(    1) = (   0.0000000   0.0000000   0.0000000), wk =   0.1250000
        k(    2) = (   0.0000000   0.0419351   0.0000000), wk =   0.2500000
        k(    3) = (   0.0000000  -0.0838702   0.0000000), wk =   0.1250000
        k(    4) = (   0.0379955   0.0000049   0.0000000), wk =   0.2500000
        k(    5) = (   0.0379955   0.0419400   0.0000000), wk =   0.2500000
        k(    6) = (   0.0379955  -0.0838652   0.0000000), wk =   0.2500000
        k(    7) = (   0.0379955  -0.0419301   0.0000000), wk =   0.2500000
        k(    8) = (  -0.0759910  -0.0000099   0.0000000), wk =   0.1250000
        k(    9) = (  -0.0759910   0.0419252   0.0000000), wk =   0.2500000
        k(   10) = (  -0.0759910  -0.0838800   0.0000000), wk =   0.1250000

     Initial potential from superposition of free atoms

     starting charge  380.99914, renormalised to  397.00000

     negative rho (up, down):  1.589E-02 0.000E+00

     %%%%%%%%%%%%%%%%%%%%%%%%%%%%%%%%%%%%%%%%%%%%%%%%%%%%%%%%%%%%%%%%%%%%%%%%
     %                                                                      %
     % You are using vdW-DF, which was implemented by the Thonhauser group. %
     % Please cite the following two papers that made this development      %
     % possible and the two reviews that describe the various versions:     %
     %                                                                      %
     %   T. Thonhauser et al., PRL 115, 136402 (2015).                      %
     %   T. Thonhauser et al., PRB 76, 125112 (2007).                       %
     %   K. Berland et al., Rep. Prog. Phys. 78, 066501 (2015).             %
     %   D.C. Langreth et al., J. Phys.: Condens. Matter 21, 084203 (2009). %
     %                                                                      %
     %                                                                      %
     % If you are calculating the stress with vdW-DF, please also cite:     %
     %                                                                      %
     %   R. Sabatini et al., J. Phys.: Condens. Matter 24, 424209 (2012).   %
     %                                                                      %
     %%%%%%%%%%%%%%%%%%%%%%%%%%%%%%%%%%%%%%%%%%%%%%%%%%%%%%%%%%%%%%%%%%%%%%%%

     Adding external electric field

     Computed dipole along edir(3) :
        Dipole              -10.3122 Ry au,        -26.2111 Debye
        Dipole field         -0.0195 Ry au,

        Potential amp.        1.8040 Ry
        Total length         46.3494 bohr

     Starting wfcs are  301 atomic wfcs
  @ DRIVER MODE: Message from server: STATUS
  @ DRIVER MODE: Message from server: POSDATA
  @ DRIVER MODE: Reading and sharing cell
  @ DRIVER MODE: Reading and sharing positions
  @ DRIVER MODE: Received positions

     Self-consistent Calculation

     iteration #  1     ecut=    29.40 Ry     beta= 0.05
     Davidson diagonalization with overlap
     c_bands:  3 eigenvalues not converged
     c_bands:  2 eigenvalues not converged
     c_bands:  3 eigenvalues not converged
     c_bands:  2 eigenvalues not converged
     c_bands:  3 eigenvalues not converged
     c_bands:  2 eigenvalues not converged
     c_bands:  3 eigenvalues not converged
     c_bands:  2 eigenvalues not converged
     c_bands:  2 eigenvalues not converged
     c_bands:  3 eigenvalues not converged
     ethr =  1.00E-05,  avg # of iterations = 20.0

[...]

     total energy              =   -2480.05682704 Ry
     estimated scf accuracy    <    5159.15260843 Ry

     iteration #  2     ecut=    29.40 Ry     beta= 0.05
     Davidson diagonalization with overlap
     ethr =  1.00E-02,  avg # of iterations = 22.7

[...]

     iteration # 82     ecut=    29.40 Ry     beta= 0.05
     Davidson diagonalization with overlap
     c_bands:  1 eigenvalues not converged
     c_bands:  2 eigenvalues not converged
     c_bands:  1 eigenvalues not converged
     ethr =  2.02E-11,  avg # of iterations = 17.8

[...]

     total energy              =   -2941.49082841 Ry
     estimated scf accuracy    <       0.00000015 Ry

     iteration # 83     ecut=    29.40 Ry     beta= 0.05
     Davidson diagonalization with overlap
     ethr =  2.02E-11,  avg # of iterations = 10.2

     negative rho (up, down):  1.344E-02 0.000E+00

     Adding external electric field

     Computed dipole along edir(3) :
        Dipole                1.3645 Ry au,          3.4683 Debye
        Dipole field          0.0026 Ry au,

        Potential amp.       -0.2387 Ry
        Total length         46.3494 bohr

     End of self-consistent calculation

          k = 0.0000 0.0000 0.0000 ( 18029 PWs)   bands (ev):

   -55.2834 -55.2444 -55.2444 -55.2103 -55.1590 -55.1570 -55.1203 -55.0936
   -55.0763 -55.0753 -55.0589 -55.0420 -54.9561 -54.7904 -54.2628 -54.2288
   -31.8556 -31.7351 -31.6453 -31.6102 -31.5834 -31.5808 -31.5785 -31.5342
   -31.5313 -31.4912 -31.4896 -31.4888 -31.4568 -31.4538 -31.4398 -31.4182
   -31.4029 -31.3982 -31.3938 -31.3925 -31.3566 -31.3513 -31.3376 -31.3242
   -31.3014 -31.2962 -31.2897 -31.2859 -31.2735 -31.2701 -31.2603 -31.2504
   -31.2436 -31.2384 -31.2086 -31.2043 -31.1972 -31.1851 -31.1475 -31.1048
   -31.0611 -30.9319 -30.6717 -30.5789 -30.5567 -30.4882 -30.4014 -30.2904
   -19.2262 -16.1250 -15.8628 -15.7349 -15.5433 -15.4774 -15.3816 -15.2439
   -15.1925 -15.1312 -15.0821 -15.0414 -15.0286 -14.9630 -14.9058 -14.8177
   -14.8160 -14.7983 -14.7887 -14.7769 -14.7737 -14.7114 -14.7087 -14.6815
   -14.6670 -14.6568 -14.5158 -14.4320 -14.3706 -14.2773 -14.0250 -12.7655
   -12.6483  -9.1543  -7.8008  -7.0627  -6.0213  -3.8186  -3.4627  -3.2898
    -3.2430  -3.2029  -3.1783  -3.0096  -2.9277  -2.6605  -2.5927  -2.5528
    -2.5054  -2.4940  -2.4684  -2.2961  -2.2660  -2.2262  -2.1896  -2.1657
    -2.1260  -2.0984  -2.0822  -2.0530  -2.0399  -2.0378  -1.8560  -1.7851
    -1.7643  -1.7024  -1.6840  -1.6678  -1.6107  -1.5817  -1.5687  -1.5663
    -1.5431  -1.5262  -1.5040  -1.4605  -1.3735  -1.2821  -1.2376  -1.2164
    -1.1026  -1.0393  -0.9150  -0.8722  -0.8580  -0.8309  -0.7593  -0.6928
    -0.6653  -0.6293  -0.4892  -0.4846  -0.4001  -0.3905  -0.3173  -0.3005
    -0.2607  -0.2147  -0.1032  -0.0699  -0.0485   0.0034   0.0668   0.0888
     0.1704   0.2248   0.2814   0.2954   0.3749   0.4147   0.4527   0.4742
     0.5612   0.6029   0.6624   0.6688   0.7060   0.7091   0.7344   0.8210
     0.8342   0.8537   0.8948   1.0641   1.2648   1.3165   1.3369   1.6696
     1.6892   1.7596   1.9450   2.3346   2.3822   3.8177   3.8832   3.9537
     3.9682   3.9785   4.0502   4.0951   4.2851   4.3142   4.3172   4.3385

[...]

          k = 0.0380-0.0419 0.0000 ( 17876 PWs)   bands (ev):

[...]

          k =-0.0760-0.0000 0.0000 ( 17886 PWs)   bands (ev):

[...]

          k =-0.0760-0.0839 0.0000 ( 17948 PWs)   bands (ev):

   -55.2712 -55.2564 -55.2275 -55.2272 -55.1552 -55.1452 -55.1321 -55.0799
   -55.0773 -55.0744 -55.0591 -55.0587 -54.9545 -54.7919 -54.2458 -54.2457
   -31.6650 -31.6521 -31.5781 -31.5503 -31.5501 -31.5465 -31.5197 -31.5195
   -31.4919 -31.4835 -31.4788 -31.4751 -31.4207 -31.4118 -31.4118 -31.4083
   -31.4063 -31.4020 -31.3955 -31.3805 -31.3681 -31.3577 -31.3533 -31.3468
   -31.3466 -31.3445 -31.3432 -31.3272 -31.3107 -31.3077 -31.2914 -31.2887
   -31.2838 -31.2822 -31.2821 -31.2509 -31.2394 -31.2384 -31.1649 -31.0916
   -31.0619 -31.0095 -30.5694 -30.5694 -30.4842 -30.4841 -30.4448 -30.4448
   -19.2225 -15.5901 -15.5136 -15.4578 -15.3678 -15.2898 -15.2701 -15.2600
   -15.2267 -15.1598 -15.1364 -15.0713 -15.0362 -14.9910 -14.9882 -14.9728
   -14.8881 -14.8691 -14.8538 -14.8496 -14.7888 -14.7874 -14.7604 -14.7380
   -14.7314 -14.7276 -14.6279 -14.6269 -14.4625 -14.4314 -14.1979 -12.7499
   -12.7498  -9.1414  -7.8107  -7.0468  -6.0316  -3.8417  -2.8513  -2.7647
    -2.6755  -2.5189  -2.4816  -2.4716  -2.4169  -2.3255  -2.2995  -2.2865
    -2.2660  -2.2590  -2.1860  -2.1807  -2.1368  -2.1154  -2.1042  -2.0986
    -2.0646  -2.0512  -2.0376  -2.0011  -1.9927  -1.9765  -1.9421  -1.9226
    -1.8982  -1.8703  -1.8562  -1.8270  -1.7033  -1.6742  -1.6303  -1.5696
    -1.5430  -1.4764  -1.4711  -1.3699  -1.3569  -1.3459  -1.3049  -1.2908
    -1.2715  -1.1077  -1.0632  -1.0279  -1.0165  -1.0104  -0.8545  -0.8381
    -0.7700  -0.7541  -0.7393  -0.6628  -0.6215  -0.6058  -0.5252  -0.4856
    -0.4556  -0.4348  -0.2926  -0.2800  -0.2547  -0.2402  -0.2336  -0.1409
    -0.1204  -0.0845  -0.0504  -0.0124   0.0040   0.0633   0.2169   0.2430
     0.2801   0.4242   0.4394   0.5249   0.5724   0.6992   0.7641   0.7663
     0.8473   0.9174   1.0194   1.0318   1.0516   1.1371   1.1833   1.1882
     1.1894   2.1177   2.1185   2.2022   2.2025   3.6944   3.9573   4.0795
     4.0858   4.1281   4.2509   4.3344   4.3580   4.3960   4.3981   4.4735

     the Fermi energy is     3.8726 ev

!    total energy              =   -2941.49087579 Ry
     estimated scf accuracy    <       0.00000007 Ry
     smearing contrib. (-TS)   =      -0.04232215 Ry
     internal energy E=F+TS    =   -2941.44855364 Ry

     The total energy is F=E-TS. E is the sum of the following terms:
     one-electron contribution =  -23922.02093483 Ry
     hartree contribution      =   12054.18848373 Ry
     xc contribution           =    -486.86299945 Ry
     ewald contribution        =    9413.24338312 Ry
     electric field correction =       0.00351380 Ry

     convergence has been achieved in  83 iterations

     Forces acting on atoms (cartesian axes, Ry/au):

     atom    1 type  1   force =     0.00016948   -0.00017417    0.09403014
     atom    2 type  1   force =    -0.00005551   -0.00043142   -0.17754749
     atom    3 type  2   force =     0.00006695   -0.00004933   -0.02097914
     atom    4 type  2   force =     0.00001707   -0.00180564    0.05732918
     atom    5 type  2   force =    -0.01086096   -0.00090789    0.00783639
     atom    6 type  2   force =     0.01207228   -0.00034037    0.00623145
     atom    7 type  1   force =    -0.00066086    0.00289158   -0.01528572
     atom    8 type  1   force =     0.00059011    0.00231217    0.00237712
     atom    9 type  2   force =    -0.00010277    0.00012990    0.00092282
     atom   10 type  2   force =    -0.00165334   -0.00050362   -0.00378804
     atom   11 type  2   force =    -0.00004200   -0.00023735    0.00020228
     atom   12 type  2   force =    -0.00019670   -0.00039782    0.00027108
     atom   13 type  1   force =     0.00043176    0.00109521    0.00061990
     atom   14 type  1   force =     0.00019113   -0.00062679    0.00036699
     atom   15 type  2   force =    -0.00018136    0.00032000    0.00052678
     atom   16 type  2   force =    -0.00016049   -0.00025623   -0.00120052
     atom   17 type  2   force =     0.00007959   -0.00025121    0.00014439
     atom   18 type  2   force =    -0.00076713   -0.00032981    0.00004631
     atom   19 type  1   force =    -0.00057980    0.00106056   -0.00047037
     atom   20 type  1   force =    -0.00028791    0.00131032   -0.00116115
     atom   21 type  2   force =     0.00010918   -0.00004321    0.10376444
     atom   22 type  2   force =     0.00006270    0.00022029    0.00048541
     atom   23 type  2   force =    -0.07063697   -0.00018412   -0.02706241
     atom   24 type  2   force =     0.07058141    0.00029337   -0.02710328
     atom   25 type  1   force =     0.00015011   -0.00024776    0.09336033
     atom   26 type  1   force =    -0.00001305   -0.00037240   -0.17776429
     atom   27 type  2   force =     0.00010931   -0.00039637   -0.01999326
     atom   28 type  2   force =     0.00003457   -0.00146768    0.05681520
     atom   29 type  2   force =    -0.01075812   -0.00066160    0.00675473
     atom   30 type  2   force =     0.01187878   -0.00017005    0.00510851
     atom   31 type  1   force =    -0.00063884    0.00410783   -0.01559015
     atom   32 type  1   force =     0.00067115   -0.00277001    0.00214747
     atom   33 type  2   force =     0.00015597   -0.00022223   -0.00059192
     atom   34 type  2   force =    -0.00108921    0.00272701   -0.00201898
     atom   35 type  2   force =     0.00009998    0.00020098    0.00009064
     atom   36 type  2   force =    -0.00033896    0.00033913   -0.00007754
     atom   37 type  1   force =     0.00046556   -0.00009329    0.00033598
     atom   38 type  1   force =     0.00008496    0.00089688    0.00017162
     atom   39 type  2   force =    -0.00004616   -0.00099713    0.00042520
     atom   40 type  2   force =    -0.00023304   -0.00042652    0.00060856
     atom   41 type  2   force =    -0.00025587   -0.00007841   -0.00017021
     atom   42 type  2   force =     0.00013354    0.00000476    0.00021716
     atom   43 type  1   force =    -0.00000825   -0.00142874    0.00093170
     atom   44 type  1   force =    -0.00006024   -0.00078272   -0.00142576
     atom   45 type  2   force =     0.00009607   -0.00008127    0.10374943
     atom   46 type  2   force =    -0.07065953   -0.00009089   -0.02707525
     atom   47 type  2   force =     0.07061164    0.00028814   -0.02711305
     atom   48 type  3   force =    -0.00065255   -0.00018258    0.00029586
     atom   49 type  4   force =     0.00132635   -0.00436486   -0.00372444
     atom   50 type  5   force =    -0.00018386    0.00369436    0.00412335
     atom   51 type  5   force =    -0.00030510    0.00045760   -0.00065937
     atom   52 type  3   force =    -0.00014741    0.00046318    0.00049343
     atom   53 type  5   force =     0.00033638   -0.00150466   -0.00066616
     atom   54 type  5   force =     0.00043941   -0.00022515    0.00103927
     atom   55 type  5   force =     0.00061060    0.00028999   -0.00035463

     Total force =     0.365789     Total SCF correction =     0.000606
  @ DRIVER MODE: Message from server: STATUS
  @ DRIVER MODE: Message from server: GETFORCE
  @ DRIVER MODE: Returning v,forces,stress,ensemble

     Writing output data file ./calc.save/
  @ DRIVER MODE: Message from server: EXIT
  @ DRIVE MODE: Exiting

     General routines

     Parallel routines

   This run was terminated on:   3: 5: 2   9Sep2021

   JOB DONE.