     Program PWSCF v.6.7GPU starts on 18Oct2021 at 13:19: 0

     R & G space division:  proc/nbgrp/npool/nimage =       8
     Reading input from /storage/home/hcoda1/3/ntian30/research/carbon/CxH_vib/Thiel_calc/ads_slab/NH2NH2HH_perslab/out_0004/pw.inp
Warning: card &CELL ignored
Warning: card   CELL_DYNAMICS='IPI', ignored
Warning: card / ignored

     Current dimensions of program PWSCF are:
     Max number of different atomic species (ntypx) = 10
     Max number of k-points (npk) =  40000
     Max angular momentum in pseudopotentials (lmaxx) =  3
     Presently no symmetry can be used with electric field

     Message from routine cell_base_init:
     DEPRECATED: use true lattice parameter, not A to a.u. conversion factor

     IMPORTANT: XC functional enforced from input :
     Exchange-correlation= BEEF-VDW
                           (   1   4  43  14   2   0   0)
     Any further DFT definition will be discarded
     Please, verify this is what you really want

  @ DRIVER MODE: Connecting to
 qe_1139763_3255137.sched-torque.pace.gatech.edukv0uzq_x_scratch
  using UNIX socket
  @ DRIVER MODE: Message from server: STATUS
  @ DRIVER MODE: Message from server: INIT
  @ DRIVER MODE: Receiving replica           0          -1
  @ DRIVER MODE: Receiving encoded integer          25
  @ DRIVER MODE:  SCF:  T  FORCE:  T  STRESS:  F  VC:  F  ENSEMBLE:  F
  @ DRIVER MODE:  SCF:  T  FORCE:  T  STRESS:  F  VC:  F  ENSEMBLE:  F

     Using Slab Decomposition

     bravais-lattice index     =            0
     lattice parameter (alat)  =       1.8897  a.u.
     unit-cell volume          =    9988.4706 (a.u.)^3
     number of atoms/cell      =           61
     number of atomic types    =            4
     number of electrons       =       442.00
     number of Kohn-Sham states=          231
     kinetic-energy cutoff     =      29.3995  Ry
     charge density cutoff     =     293.9946  Ry
     scf convergence threshold =      7.3E-08
     mixing beta               =       0.0500
     number of iterations used =            8  plain     mixing
     Exchange-correlation= BEEF-VDW
                           (   1   4  43  14   2   0   0)

     celldm(1)=   1.889726  celldm(2)=   0.000000  celldm(3)=   0.000000
     celldm(4)=   0.000000  celldm(5)=   0.000000  celldm(6)=   0.000000

     crystal axes: (cart. coord. in units of alat)
               a(1) = (   6.579727   0.000000   0.000000 )
               a(2) = (  -0.001163   8.942395   0.000000 )
               a(3) = (   0.000000   0.000000  25.155947 )

     reciprocal axes: (cart. coord. in units 2 pi/alat)
               b(1) = (  0.151982  0.000020  0.000000 )
               b(2) = (  0.000000  0.111827  0.000000 )
               b(3) = (  0.000000  0.000000  0.039752 )

     PseudoPot. # 1 for O  read from file:
     /storage/coda1/p-amedford6/0/shared/rich_project_chbe-medford/medford-share/data/pseudos_module/espresso/nninc/pbe/van/O.UPF
     MD5 check sum: 78c19812648e8988a0fe644b0f25305e
     Pseudo is Ultrasoft, Zval =  6.0
     Generated by new atomic code, or converted to UPF format
     Using radial grid of  737 points,  4 beta functions with:
                l(1) =   0
                l(2) =   0
                l(3) =   1
                l(4) =   1
     Q(r) pseudized with  8 coefficients,  rinner =    0.800   0.800   0.800

     PseudoPot. # 2 for Ti read from file:
     /storage/coda1/p-amedford6/0/shared/rich_project_chbe-medford/medford-share/data/pseudos_module/espresso/nninc/pbe/van/Ti.UPF
     MD5 check sum: 8e4df49b7f0d34bbd5052bf3f5ea0213
     Pseudo is Ultrasoft, Zval = 12.0
     Generated by new atomic code, or converted to UPF format
     Using radial grid of  851 points,  6 beta functions with:
                l(1) =   0
                l(2) =   0
                l(3) =   1
                l(4) =   1
                l(5) =   2
                l(6) =   2
     Q(r) pseudized with  8 coefficients,  rinner =    1.000   1.000   1.000
                                                       1.000   1.000

     PseudoPot. # 3 for N  read from file:
     /storage/coda1/p-amedford6/0/shared/rich_project_chbe-medford/medford-share/data/pseudos_module/espresso/nninc/pbe/van/N.UPF
     MD5 check sum: 90d10febe142ad51ac9d5be1deb811c4
     Pseudo is Ultrasoft, Zval =  5.0
     Generated by new atomic code, or converted to UPF format
     Using radial grid of  729 points,  4 beta functions with:
                l(1) =   0
                l(2) =   0
                l(3) =   1
                l(4) =   1
     Q(r) pseudized with  8 coefficients,  rinner =    0.800   0.800   0.800

     PseudoPot. # 4 for H  read from file:
     /storage/coda1/p-amedford6/0/shared/rich_project_chbe-medford/medford-share/data/pseudos_module/espresso/nninc/pbe/van/H.UPF
     MD5 check sum: b5ee9d7bfd3a09ee7748110bda690ff7
     Pseudo is Ultrasoft, Zval =  1.0
     Generated by new atomic code, or converted to UPF format
     Using radial grid of  615 points,  1 beta functions with:
                l(1) =   0
     Q(r) pseudized with  8 coefficients,  rinner =    0.800

     atomic species   valence    mass     pseudopotential
        O1             6.00    15.99900     O ( 1.00)
        Ti1           12.00    47.86700     Ti( 1.00)
        N1             5.00    14.00700     N ( 1.00)
        H1             1.00     1.00800     H ( 1.00)

     No symmetry found

   Cartesian axes

     site n.     atom                  positions (alat units)
         1           O1  tau(   1) = (   0.0007354   0.0005023  10.5931620  )
         2           O1  tau(   2) = (   3.2456387   0.0208629  13.8623892  )
         3           O1  tau(   3) = (   6.5569189   0.0555649  17.3369326  )
         4           O1  tau(   4) = (   0.0006271   0.0005054   7.9858123  )
         5           O1  tau(   5) = (   3.2933513   8.9300833  11.1812556  )
         6           O1  tau(   6) = (   0.0337597   0.0712708  14.6279364  )
         7           O1  tau(   7) = (   1.9868534   1.4903216   9.2879459  )
         8           O1  tau(   8) = (   5.2215124   1.6184176  12.5791628  )
         9           O1  tau(   9) = (   1.9922958   1.5902288  16.0980526  )
        10           Ti1 tau(  10) = (   0.0007404   1.4906270   9.2895810  )
        11           Ti1 tau(  11) = (   3.2860490   1.3455809  12.4359399  )
        12           Ti1 tau(  12) = (   6.5618936   1.3602716  15.8812525  )
        13           O1  tau(  13) = (   4.5942328   1.4918067   9.2879030  )
        14           O1  tau(  14) = (   1.3307156   1.5887400  12.5381291  )
        15           O1  tau(  15) = (   4.5725103   1.6118788  16.0006659  )
        16           Ti1 tau(  16) = (   3.2902859   2.9801868   9.2893338  )
        17           Ti1 tau(  17) = (   0.0046584   2.8227806  12.4510757  )
        18           Ti1 tau(  18) = (   3.2555632   2.8898243  15.6661830  )
        19           O1  tau(  19) = (   0.0003479   2.9813005  10.5931620  )
        20           O1  tau(  20) = (   3.2279248   2.9553539  13.8813459  )
        21           O1  tau(  21) = (   0.0002396   2.9813036   7.9858123  )
        22           O1  tau(  22) = (   3.2889556   2.9859946  11.1941525  )
        23           O1  tau(  23) = (   0.0559812   2.9852445  14.6488683  )
        24           O1  tau(  24) = (   1.9864658   4.4711199   9.2879459  )
        25           O1  tau(  25) = (   5.2314886   4.5920767  12.6107679  )
        26           O1  tau(  26) = (   1.9969377   4.5324570  16.1535429  )
        27           Ti1 tau(  27) = (   0.0003529   4.4714252   9.2895810  )
        28           Ti1 tau(  28) = (   3.2845268   4.3564118  12.5295435  )
        29           Ti1 tau(  29) = (   6.5676402   4.3565080  15.8255799  )
        30           O1  tau(  30) = (   4.5938453   4.4726049   9.2879030  )
        31           O1  tau(  31) = (   1.3315080   4.5776727  12.5731030  )
        32           O1  tau(  32) = (   4.5871741   4.4544688  15.9274438  )
        33           Ti1 tau(  33) = (   3.2898983   5.9609850   9.2893338  )
        34           Ti1 tau(  34) = (   6.5783773   5.8108302  12.4536689  )
        35           Ti1 tau(  35) = (   3.3162440   5.8110762  16.0333210  )
        36           O1  tau(  36) = (  -0.0000397   5.9620987  10.5931620  )
        37           O1  tau(  37) = (   3.2636778   5.9869953  13.9790019  )
        38           O1  tau(  38) = (   6.4104969   6.0475349  17.2872242  )
        39           O1  tau(  39) = (  -0.0001480   5.9621018   7.9858123  )
        40           O1  tau(  40) = (   3.2905218   5.9516507  11.2202175  )
        41           O1  tau(  41) = (   0.0617018   5.9803669  14.6637187  )
        42           O1  tau(  42) = (   1.9860782   7.4519181   9.2879459  )
        43           O1  tau(  43) = (   5.2407037   7.5572870  12.6049163  )
        44           O1  tau(  44) = (   1.9881273   7.5959696  16.0809372  )
        45           Ti1 tau(  45) = (  -0.0000347   7.4522234   9.2895810  )
        46           Ti1 tau(  46) = (   3.2912638   7.2305267  12.6172466  )
        47           Ti1 tau(  47) = (   0.0232661   7.3094817  15.9177444  )
        48           O1  tau(  48) = (   4.5934577   7.4534031   9.2879030  )
        49           O1  tau(  49) = (   1.3287160   7.5404973  12.5734398  )
        50           O1  tau(  50) = (   4.6507959   7.6754627  15.9163669  )
        51           Ti1 tau(  51) = (   3.2895107   8.9417832   9.2893338  )
        52           Ti1 tau(  52) = (   0.0077981   8.7799231  12.4640552  )
        53           Ti1 tau(  53) = (   3.2910717   8.8534038  15.6608489  )
        54           N1  tau(  54) = (   3.7626148   6.1085185  18.0019073  )
        55           H1  tau(  55) = (   3.4663780   5.3841571  18.6619304  )
        56           H1  tau(  56) = (   3.5565419   6.9988739  18.4208443  )
        57           N1  tau(  57) = (   6.5319303   3.0529623  17.4095181  )
        58           H1  tau(  58) = (   5.7013393   3.0140474  17.9904383  )
        59           H1  tau(  59) = (   0.7603229   3.1006543  18.0203722  )
        60           H1  tau(  60) = (   5.4974376   6.0468821  17.7423635  )
        61           H1  tau(  61) = (   0.7324116   0.0679216  17.9402240  )

     number of k points=    10  Fermi-Dirac smearing, width (Ry)=  0.0073
                       cart. coord. in units 2pi/alat
        k(    1) = (   0.0000000   0.0000000   0.0000000), wk =   0.1250000
        k(    2) = (   0.0000000   0.0279567   0.0000000), wk =   0.2500000
        k(    3) = (   0.0000000  -0.0559134   0.0000000), wk =   0.1250000
        k(    4) = (   0.0379955   0.0000049   0.0000000), wk =   0.2500000
        k(    5) = (   0.0379955   0.0279617   0.0000000), wk =   0.2500000
        k(    6) = (   0.0379955  -0.0559085   0.0000000), wk =   0.2500000
        k(    7) = (   0.0379955  -0.0279518   0.0000000), wk =   0.2500000
        k(    8) = (  -0.0759910  -0.0000099   0.0000000), wk =   0.1250000
        k(    9) = (  -0.0759910   0.0279468   0.0000000), wk =   0.2500000
        k(   10) = (  -0.0759910  -0.0559233   0.0000000), wk =   0.1250000

     Initial potential from superposition of free atoms

     starting charge  423.99908, renormalised to  442.00000

     negative rho (up, down):  3.746E-02 0.000E+00

     %%%%%%%%%%%%%%%%%%%%%%%%%%%%%%%%%%%%%%%%%%%%%%%%%%%%%%%%%%%%%%%%%%%%%%%%
     %                                                                      %
     % You are using vdW-DF, which was implemented by the Thonhauser group. %
     % Please cite the following two papers that made this development      %
     % possible and the two reviews that describe the various versions:     %
     %                                                                      %
     %   T. Thonhauser et al., PRL 115, 136402 (2015).                      %
     %   T. Thonhauser et al., PRB 76, 125112 (2007).                       %
     %   K. Berland et al., Rep. Prog. Phys. 78, 066501 (2015).             %
     %   D.C. Langreth et al., J. Phys.: Condens. Matter 21, 084203 (2009). %
     %                                                                      %
     %                                                                      %
     % If you are calculating the stress with vdW-DF, please also cite:     %
     %                                                                      %
     %   R. Sabatini et al., J. Phys.: Condens. Matter 24, 424209 (2012).   %
     %                                                                      %
     %%%%%%%%%%%%%%%%%%%%%%%%%%%%%%%%%%%%%%%%%%%%%%%%%%%%%%%%%%%%%%%%%%%%%%%%

     Adding external electric field

     Computed dipole along edir(3) :
        Dipole               -5.9687 Ry au,        -15.1708 Debye
        Dipole field         -0.0075 Ry au,

        Potential amp.        0.6961 Ry
        Total length         46.3494 bohr

     Starting wfcs are  334 atomic wfcs
  @ DRIVER MODE: Message from server: STATUS
  @ DRIVER MODE: Message from server: POSDATA
  @ DRIVER MODE: Reading and sharing cell
  @ DRIVER MODE: Reading and sharing positions
  @ DRIVER MODE: Received positions

     Self-consistent Calculation

     iteration #  1     ecut=    29.40 Ry     beta= 0.05
     Davidson diagonalization with overlap
     c_bands:  1 eigenvalues not converged
     c_bands:  3 eigenvalues not converged
     c_bands:  5 eigenvalues not converged
     c_bands:  2 eigenvalues not converged
     c_bands:  4 eigenvalues not converged
     c_bands:  4 eigenvalues not converged
     c_bands:  4 eigenvalues not converged
     c_bands:  2 eigenvalues not converged
     ethr =  1.00E-05,  avg # of iterations = 21.2

[...]

     total energy              =   -3277.92931185 Ry
     estimated scf accuracy    <     239.67813344 Ry

     iteration #  2     ecut=    29.40 Ry     beta= 0.05
     Davidson diagonalization with overlap
     ethr =  1.00E-02,  avg # of iterations = 15.7

[...]

     iteration # 28     ecut=    29.40 Ry     beta= 0.05
     Davidson diagonalization with overlap
     c_bands:  1 eigenvalues not converged
     ethr =  3.48E-08,  avg # of iterations = 14.6

[...]

     total energy              =   -3295.80716687 Ry
     estimated scf accuracy    <       0.00000015 Ry

     iteration # 45     ecut=    29.40 Ry     beta= 0.05
     Davidson diagonalization with overlap
     ethr =  3.34E-11,  avg # of iterations =  4.2

     negative rho (up, down):  3.604E-02 0.000E+00

     Adding external electric field

     Computed dipole along edir(3) :
        Dipole                1.5099 Ry au,          3.8378 Debye
        Dipole field          0.0019 Ry au,

        Potential amp.       -0.1761 Ry
        Total length         46.3494 bohr

     End of self-consistent calculation

          k = 0.0000 0.0000 0.0000 ( 26871 PWs)   bands (ev):

   -57.7251 -57.6995 -57.6891 -57.6628 -57.6542 -57.6199 -57.6071 -57.5990
   -57.5703 -57.5582 -57.5083 -57.4781 -57.4615 -57.4554 -57.4473 -56.7472
   -56.7230 -56.7185 -34.1067 -34.1039 -34.0948 -34.0861 -34.0735 -34.0571
   -34.0565 -34.0423 -34.0291 -34.0175 -33.9877 -33.9701 -33.9501 -33.9440
   -33.9363 -33.9178 -33.9125 -33.9113 -33.8928 -33.8876 -33.8653 -33.8631
   -33.8430 -33.8336 -33.8294 -33.8233 -33.8124 -33.8105 -33.8053 -33.7956
   -33.7839 -33.7820 -33.7673 -33.7324 -33.7231 -33.7190 -33.7044 -33.7035
   -33.6959 -33.6949 -33.6835 -33.6751 -33.6682 -33.6622 -33.6397 -33.0624
   -33.0613 -33.0569 -33.0453 -33.0411 -32.9732 -32.9112 -32.9059 -32.7730
   -19.3023 -18.7611 -18.5260 -18.2281 -18.0168 -17.9742 -17.9414 -17.8201
   -17.7846 -17.7607 -17.6636 -17.6518 -17.5880 -17.5344 -17.5062 -17.4576
   -17.4391 -17.3791 -17.3651 -17.3567 -17.3514 -17.3413 -17.3310 -17.2648
   -17.2377 -17.2108 -17.1714 -17.1555 -17.1489 -17.1415 -17.1190 -16.8464
   -15.5030 -15.2137 -15.1556 -15.1543 -15.0885  -6.9858  -6.8143  -6.6458
    -6.3544  -5.8609  -5.7873  -5.6377  -5.5139  -5.2218  -5.1942  -5.1426
    -5.1159  -5.0873  -5.0224  -5.0024  -4.9893  -4.9334  -4.9166  -4.8439
    -4.8212  -4.7792  -4.7561  -4.7303  -4.6849  -4.6450  -4.6179  -4.6063
    -4.5752  -4.5678  -4.5110  -4.4881  -4.4578  -4.4523  -4.4359  -4.3273
    -4.2961  -4.2388  -4.1707  -4.0931  -4.0396  -4.0314  -3.9746  -3.9550
    -3.9033  -3.8640  -3.8255  -3.8161  -3.7818  -3.7436  -3.6429  -3.6060
    -3.5875  -3.5225  -3.5005  -3.4316  -3.4142  -3.3811  -3.3396  -3.3339
    -3.2968  -3.1985  -3.1645  -3.0843  -3.0283  -2.9737  -2.9369  -2.8905
    -2.8442  -2.8105  -2.7857  -2.7042  -2.6284  -2.5435  -2.4937  -2.4808
    -2.4694  -2.4186  -2.4102  -2.4088  -2.3542  -2.3257  -2.3150  -2.2765
    -2.2255  -2.2032  -2.1410  -2.0959  -2.0611  -1.9935  -1.9778  -1.8972
    -1.8885  -1.8264  -1.7840  -1.7445  -1.6330  -1.5975  -1.5658  -1.5632
    -1.4443  -1.4080  -1.1456  -1.0049  -0.7860  -0.7536  -0.5007  -0.4519
    -0.4490  -0.1861  -0.1827  -0.0544   1.3217   1.5105   1.6441   1.6996
     1.7045   1.7380   1.8041   1.8908   1.9161   1.9631   1.9951

[...]

          k = 0.0380-0.0280 0.0000 ( 26873 PWs)   bands (ev):

[...]

          k =-0.0760-0.0000 0.0000 ( 26902 PWs)   bands (ev):

[...]

          k =-0.0760-0.0559 0.0000 ( 26868 PWs)   bands (ev):

   -57.7216 -57.7071 -57.6849 -57.6616 -57.6542 -57.6206 -57.6084 -57.5987
   -57.5697 -57.5580 -57.5085 -57.4731 -57.4655 -57.4610 -57.4426 -56.7410
   -56.7356 -56.7121 -34.1941 -34.1571 -34.1543 -34.0949 -34.0606 -34.0528
   -34.0421 -34.0395 -34.0018 -33.9677 -33.9346 -33.9207 -33.9152 -33.9138
   -33.9027 -33.9002 -33.8803 -33.8735 -33.8688 -33.8687 -33.8649 -33.8593
   -33.8541 -33.8460 -33.8316 -33.8267 -33.8240 -33.8187 -33.8149 -33.7939
   -33.7925 -33.7708 -33.7641 -33.7566 -33.7508 -33.7324 -33.7263 -33.7208
   -33.7011 -33.7008 -33.6989 -33.6955 -33.6861 -33.6681 -33.6511 -33.1512
   -33.0621 -33.0569 -33.0345 -32.9547 -32.9488 -32.8871 -32.8725 -32.8672
   -19.2887 -18.7353 -18.2724 -18.1356 -17.9651 -17.9229 -17.8486 -17.8354
   -17.8234 -17.7939 -17.7021 -17.6786 -17.6523 -17.5694 -17.5496 -17.5006
   -17.4568 -17.4436 -17.4253 -17.4144 -17.4062 -17.3897 -17.3556 -17.3236
   -17.2905 -17.2388 -17.1775 -17.1581 -17.1098 -17.0950 -17.0643 -16.8801
   -15.4977 -15.2117 -15.2096 -15.0928 -15.0897  -6.9907  -6.8464  -6.6368
    -6.3364  -5.5174  -5.4544  -5.3715  -5.3562  -5.2390  -5.2064  -5.0148
    -5.0045  -4.9898  -4.9587  -4.9257  -4.8897  -4.8629  -4.8386  -4.8252
    -4.8119  -4.7902  -4.7641  -4.7520  -4.7359  -4.6918  -4.6450  -4.6387
    -4.6277  -4.6052  -4.5501  -4.5065  -4.4783  -4.4255  -4.4220  -4.3416
    -4.3183  -4.3003  -4.2279  -4.2179  -4.0939  -3.9488  -3.8875  -3.8676
    -3.8439  -3.7959  -3.7850  -3.7316  -3.7118  -3.6929  -3.5571  -3.4746
    -3.4510  -3.4159  -3.3851  -3.3618  -3.3254  -3.2977  -3.2769  -3.2515
    -3.2351  -3.1821  -3.1663  -3.1231  -3.0819  -2.9992  -2.9545  -2.8965
    -2.8737  -2.8556  -2.8374  -2.8336  -2.8116  -2.7806  -2.7524  -2.6952
    -2.6870  -2.6564  -2.5844  -2.5300  -2.5016  -2.4771  -2.4348  -2.4277
    -2.2731  -2.2539  -2.2202  -2.2089  -2.1351  -2.0918  -2.0001  -1.9735
    -1.9511  -1.8799  -1.8069  -1.7637  -1.7075  -1.5115  -1.5027  -1.3837
    -1.3468  -1.2981  -1.2726  -1.2302  -1.0697  -0.7328  -0.6631  -0.3799
    -0.3687  -0.3427  -0.1873  -0.1810   1.4288   1.4526   1.5384   1.5942
     1.6129   1.6506   1.6634   1.7024   1.7228   1.7793   1.9152

     the Fermi energy is     1.3727 ev

!    total energy              =   -3295.80734960 Ry
     estimated scf accuracy    <       0.00000005 Ry
     smearing contrib. (-TS)   =      -0.03570926 Ry
     internal energy E=F+TS    =   -3295.77164035 Ry

     The total energy is F=E-TS. E is the sum of the following terms:
     one-electron contribution =  -34705.74392049 Ry
     hartree contribution      =   17418.77679925 Ry
     xc contribution           =    -543.86626633 Ry
     ewald contribution        =   14535.05887902 Ry
     electric field correction =       0.00286820 Ry

     convergence has been achieved in  45 iterations

     Forces acting on atoms (cartesian axes, Ry/au):

     atom    1 type  1   force =    -0.00168758    0.00377116    0.05470832
     atom    2 type  1   force =     0.00024285   -0.00248807   -0.00846863
     atom    3 type  1   force =     0.00047471   -0.00347415    0.00031795
     atom    4 type  1   force =     0.00004615   -0.00003309    0.10675461
     atom    5 type  1   force =    -0.00020362    0.00066026    0.00659447
     atom    6 type  1   force =     0.00002971   -0.00441117    0.00375929
     atom    7 type  1   force =     0.06648671    0.00079286   -0.02966287
     atom    8 type  1   force =     0.00660194   -0.02712566    0.00195043
     atom    9 type  1   force =     0.00664273   -0.02251874    0.00512091
     atom   10 type  2   force =    -0.00011945   -0.00452214   -0.18343884
     atom   11 type  2   force =     0.00067083    0.02085166   -0.00412208
     atom   12 type  2   force =    -0.00178098    0.02761686   -0.00659173
     atom   13 type  1   force =    -0.06654521    0.00044447   -0.02980959
     atom   14 type  1   force =    -0.00434598   -0.02770016    0.00253902
     atom   15 type  1   force =    -0.00659185   -0.02332236    0.00502508
     atom   16 type  2   force =     0.00009035    0.00069809    0.06700251
     atom   17 type  2   force =    -0.00236932    0.03351659    0.00350561
     atom   18 type  2   force =     0.00124684    0.02443638   -0.00368759
     atom   19 type  1   force =    -0.00169766    0.00675007    0.05327121
     atom   20 type  1   force =     0.00024224   -0.00116207   -0.00656646
     atom   21 type  1   force =     0.00003415    0.00109735    0.10720920
     atom   22 type  1   force =    -0.00025301   -0.00199177    0.00722624
     atom   23 type  1   force =     0.00071592   -0.00580487    0.00418321
     atom   24 type  1   force =     0.06752137    0.00137562   -0.02906685
     atom   25 type  1   force =     0.00528653   -0.03016081    0.00245510
     atom   26 type  1   force =     0.00681642   -0.02606894   -0.00396360
     atom   27 type  2   force =     0.00011789   -0.00121687   -0.18671392
     atom   28 type  2   force =     0.00007618    0.02388179   -0.00248655
     atom   29 type  2   force =    -0.00103902    0.02213540    0.00081303
     atom   30 type  1   force =    -0.06762345    0.00087085   -0.02891901
     atom   31 type  1   force =    -0.00538214   -0.02962168    0.00279441
     atom   32 type  1   force =    -0.00440786   -0.02225296    0.00302768
     atom   33 type  2   force =    -0.00005620    0.00129700    0.07478783
     atom   34 type  2   force =     0.00092653    0.03693959    0.00407637
     atom   35 type  2   force =    -0.00204049    0.03555786    0.00517511
     atom   36 type  1   force =    -0.00186639    0.00287970    0.05589376
     atom   37 type  1   force =     0.00131510    0.00397752   -0.01102496
     atom   38 type  1   force =     0.00015850   -0.00428100    0.00419409
     atom   39 type  1   force =     0.00002167   -0.00063592    0.10724126
     atom   40 type  1   force =     0.00015403   -0.00141122    0.00715398
     atom   41 type  1   force =    -0.00025822   -0.00401391    0.00183205
     atom   42 type  1   force =     0.06785449   -0.00221080   -0.02970393
     atom   43 type  1   force =     0.00369568   -0.02636573    0.00152515
     atom   44 type  1   force =     0.00991107   -0.01789290    0.00251320
     atom   45 type  2   force =     0.00002308    0.00218178   -0.18329513
     atom   46 type  2   force =    -0.00023095    0.01486344    0.00199830
     atom   47 type  2   force =     0.00293305    0.02649970   -0.00876102
     atom   48 type  1   force =    -0.06792090   -0.00283911   -0.02985911
     atom   49 type  1   force =    -0.00376131   -0.02551015    0.00182852
     atom   50 type  1   force =    -0.00781257   -0.02341656    0.00491542
     atom   51 type  2   force =     0.00044987   -0.00349534    0.06842804
     atom   52 type  2   force =    -0.00009947    0.03118037    0.00597080
     atom   53 type  2   force =    -0.00206254    0.02576259   -0.00051361
     atom   54 type  3   force =     0.00061554   -0.02486642   -0.00084241
     atom   55 type  4   force =     0.00232602    0.00868740   -0.00726398
     atom   56 type  4   force =    -0.00277408    0.01399441    0.00739410
     atom   57 type  3   force =     0.00130533   -0.00271081   -0.00025658
     atom   58 type  4   force =     0.00051025    0.00101632   -0.00006169
     atom   59 type  4   force =     0.00005610    0.00027850    0.00071236
     atom   60 type  4   force =    -0.00142524    0.00063509    0.00007335
     atom   61 type  4   force =    -0.00124434   -0.00112530    0.00110816

     Total force =     0.460599     Total SCF correction =     0.000511
  @ DRIVER MODE: Message from server: STATUS
  @ DRIVER MODE: Message from server: GETFORCE
  @ DRIVER MODE: Returning v,forces,stress,ensemble

     Writing output data file ./calc.save/
  @ DRIVER MODE: Message from server: EXIT
  @ DRIVE MODE: Exiting

     General routines

     Parallel routines

   This run was terminated on:  13:44: 2  18Oct2021

   JOB DONE.