     Program PWSCF v.6.7GPU starts on  2Aug2021 at 22:10:59

     R & G space division:  proc/nbgrp/npool/nimage =      16
     Reading input from /storage/home/hcoda1/3/ntian30/research/carbon/02Aug_vib_paired/ads_slab/CH3NHHH_a/out_0032/pw.inp
Warning: card &CELL ignored
Warning: card   CELL_DYNAMICS='IPI', ignored
Warning: card / ignored

     Current dimensions of program PWSCF are:
     Max number of different atomic species (ntypx) = 10
     Max number of k-points (npk) =  40000
     Max angular momentum in pseudopotentials (lmaxx) =  3
     Presently no symmetry can be used with electric field

     Message from routine cell_base_init:
     DEPRECATED: use true lattice parameter, not A to a.u. conversion factor

     IMPORTANT: XC functional enforced from input :
     Exchange-correlation= BEEF-VDW
                           (   1   4  43  14   2   0   0)
     Any further DFT definition will be discarded
     Please, verify this is what you really want

  @ DRIVER MODE: Connecting to
 qe_1139763_2482537.sched-torque.pace.gatech.edusdvxh_5s_scratch
  using UNIX socket
  @ DRIVER MODE: Message from server: STATUS
  @ DRIVER MODE: Message from server: INIT
  @ DRIVER MODE: Receiving replica           0          -1
  @ DRIVER MODE: Receiving encoded integer          25
  @ DRIVER MODE:  SCF:  T  FORCE:  T  STRESS:  F  VC:  F  ENSEMBLE:  F
  @ DRIVER MODE:  SCF:  T  FORCE:  T  STRESS:  F  VC:  F  ENSEMBLE:  F

     Using Slab Decomposition

     bravais-lattice index     =            0
     lattice parameter (alat)  =       1.8897  a.u.
     unit-cell volume          =    6658.9804 (a.u.)^3
     number of atoms/cell      =           55
     number of atomic types    =            5
     number of electrons       =       393.00
     number of Kohn-Sham states=          206
     kinetic-energy cutoff     =      29.3995  Ry
     charge density cutoff     =     293.9946  Ry
     scf convergence threshold =      7.3E-08
     mixing beta               =       0.0500
     number of iterations used =            8  plain     mixing
     Exchange-correlation= BEEF-VDW
                           (   1   4  43  14   2   0   0)

     celldm(1)=   1.889726  celldm(2)=   0.000000  celldm(3)=   0.000000
     celldm(4)=   0.000000  celldm(5)=   0.000000  celldm(6)=   0.000000

     crystal axes: (cart. coord. in units of alat)
               a(1) = (   6.579727   0.000000   0.000000 )
               a(2) = (  -0.000775   5.961596   0.000000 )
               a(3) = (   0.000000   0.000000  25.155947 )

     reciprocal axes: (cart. coord. in units 2 pi/alat)
               b(1) = (  0.151982  0.000020  0.000000 )
               b(2) = (  0.000000  0.167740  0.000000 )
               b(3) = (  0.000000  0.000000  0.039752 )

     PseudoPot. # 1 for Ti read from file:
     /storage/coda1/p-amedford6/0/shared/rich_project_chbe-medford/medford-share/data/pseudos_module/espresso/nninc/pbe/van/Ti.UPF
     MD5 check sum: 8e4df49b7f0d34bbd5052bf3f5ea0213
     Pseudo is Ultrasoft, Zval = 12.0
     Generated by new atomic code, or converted to UPF format
     Using radial grid of  851 points,  6 beta functions with:
                l(1) =   0
                l(2) =   0
                l(3) =   1
                l(4) =   1
                l(5) =   2
                l(6) =   2
     Q(r) pseudized with  8 coefficients,  rinner =    1.000   1.000   1.000
                                                       1.000   1.000

     PseudoPot. # 2 for O  read from file:
     /storage/coda1/p-amedford6/0/shared/rich_project_chbe-medford/medford-share/data/pseudos_module/espresso/nninc/pbe/van/O.UPF
     MD5 check sum: 78c19812648e8988a0fe644b0f25305e
     Pseudo is Ultrasoft, Zval =  6.0
     Generated by new atomic code, or converted to UPF format
     Using radial grid of  737 points,  4 beta functions with:
                l(1) =   0
                l(2) =   0
                l(3) =   1
                l(4) =   1
     Q(r) pseudized with  8 coefficients,  rinner =    0.800   0.800   0.800

     PseudoPot. # 3 for N  read from file:
     /storage/coda1/p-amedford6/0/shared/rich_project_chbe-medford/medford-share/data/pseudos_module/espresso/nninc/pbe/van/N.UPF
     MD5 check sum: 90d10febe142ad51ac9d5be1deb811c4
     Pseudo is Ultrasoft, Zval =  5.0
     Generated by new atomic code, or converted to UPF format
     Using radial grid of  729 points,  4 beta functions with:
                l(1) =   0
                l(2) =   0
                l(3) =   1
                l(4) =   1
     Q(r) pseudized with  8 coefficients,  rinner =    0.800   0.800   0.800

     PseudoPot. # 4 for C  read from file:
     /storage/coda1/p-amedford6/0/shared/rich_project_chbe-medford/medford-share/data/pseudos_module/espresso/nninc/pbe/van/C.UPF
     MD5 check sum: 1a69bf6b8db32088f5b2163dbdb77a27
     Pseudo is Ultrasoft, Zval =  4.0
     Generated by new atomic code, or converted to UPF format
     Using radial grid of  721 points,  4 beta functions with:
                l(1) =   0
                l(2) =   0
                l(3) =   1
                l(4) =   1
     Q(r) pseudized with  8 coefficients,  rinner =    0.800   0.800   0.800

     PseudoPot. # 5 for H  read from file:
     /storage/coda1/p-amedford6/0/shared/rich_project_chbe-medford/medford-share/data/pseudos_module/espresso/nninc/pbe/van/H.UPF
     MD5 check sum: b5ee9d7bfd3a09ee7748110bda690ff7
     Pseudo is Ultrasoft, Zval =  1.0
     Generated by new atomic code, or converted to UPF format
     Using radial grid of  615 points,  1 beta functions with:
                l(1) =   0
     Q(r) pseudized with  8 coefficients,  rinner =    0.800

     atomic species   valence    mass     pseudopotential
        Ti1           12.00    47.86700     Ti( 1.00)
        O1             6.00    15.99900     O ( 1.00)
        N1             5.00    14.00700     N ( 1.00)
        C1             4.00    12.01100     C ( 1.00)
        H1             1.00     1.00800     H ( 1.00)

     No symmetry found

   Cartesian axes

     site n.     atom                  positions (alat units)
         1           Ti1 tau(   1) = (   0.0004258   2.9801865   6.0000000  )
         2           Ti1 tau(   2) = (   3.2906075   1.4906267   6.0002472  )
         3           O1  tau(   3) = (   0.0006271   0.0005054   7.9858123  )
         4           O1  tau(   4) = (   3.2906025   0.0005020   7.3038282  )
         5           O1  tau(   5) = (   4.5942328   1.4918067   9.2879030  )
         6           O1  tau(   6) = (   1.9868534   1.4903216   9.2879459  )
         7           Ti1 tau(   7) = (   3.2907910   2.8959150   9.1758416  )
         8           Ti1 tau(   8) = (   0.0015273   1.4827037   9.2680791  )
         9           O1  tau(   9) = (   3.2636084   5.9406443  11.4082010  )
        10           O1  tau(  10) = (   0.0116148   5.9584955  10.6183126  )
        11           O1  tau(  11) = (   1.2642105   1.4849797  12.6947803  )
        12           O1  tau(  12) = (   5.2691575   1.4821021  12.6650678  )
        13           Ti1 tau(  13) = (   6.5574234   2.9640577  12.4921542  )
        14           Ti1 tau(  14) = (   3.2619390   1.4709553  12.5527290  )
        15           O1  tau(  15) = (   6.5247406   5.9594380  14.6832748  )
        16           O1  tau(  16) = (   3.2695906   5.9428997  14.0562986  )
        17           O1  tau(  17) = (   4.5175969   1.4707097  16.2986306  )
        18           O1  tau(  18) = (   1.9406912   1.4777946  16.2473769  )
        19           Ti1 tau(  19) = (   3.2491105   2.9422209  15.8109686  )
        20           Ti1 tau(  20) = (   6.5361480   1.3378720  15.9626387  )
        21           O1  tau(  21) = (   3.2904802   0.0005063   4.7018136  )
        22           O1  tau(  22) = (   6.5280740   5.8897732  17.4332532  )
        23           O1  tau(  23) = (   1.3043587   1.4918075   6.0039043  )
        24           O1  tau(  24) = (   5.2767064   1.4903225   6.0039473  )
        25           Ti1 tau(  25) = (   0.0000382   5.9609847   6.0000000  )
        26           Ti1 tau(  26) = (   3.2902200   4.4714249   6.0002472  )
        27           O1  tau(  27) = (   0.0002396   2.9813036   7.9858123  )
        28           O1  tau(  28) = (   3.2902150   2.9813002   7.3038282  )
        29           O1  tau(  29) = (   4.5938453   4.4726049   9.2879030  )
        30           O1  tau(  30) = (   1.9864658   4.4711199   9.2879459  )
        31           Ti1 tau(  31) = (   3.2891106   5.8743827   9.1763621  )
        32           Ti1 tau(  32) = (   0.0006254   4.4649316   9.2693709  )
        33           O1  tau(  33) = (   3.2649920   2.9642658  11.3997388  )
        34           O1  tau(  34) = (   0.0092240   2.9805883  10.6323155  )
        35           O1  tau(  35) = (   1.2634527   4.4478426  12.7061968  )
        36           O1  tau(  36) = (   5.2693862   4.4495813  12.6755241  )
        37           Ti1 tau(  37) = (   6.5522441   5.9483113  12.5008436  )
        38           Ti1 tau(  38) = (   3.2626494   4.4468850  12.5575576  )
        39           O1  tau(  39) = (   6.4970557   2.9363996  15.0046851  )
        40           O1  tau(  40) = (   3.2722650   2.9529576  14.0194401  )
        41           O1  tau(  41) = (   4.5170401   4.4205294  16.2730734  )
        42           O1  tau(  42) = (   1.9466746   4.4191161  16.2235312  )
        43           Ti1 tau(  43) = (   3.2419262   5.9323414  15.8513663  )
        44           Ti1 tau(  44) = (   6.5549466   4.5556212  15.8889459  )
        45           O1  tau(  45) = (   3.2900926   2.9813045   4.7018136  )
        46           O1  tau(  46) = (   1.3039711   4.4726057   6.0039043  )
        47           O1  tau(  47) = (   5.2763189   4.4711207   6.0039473  )
        48           N1  tau(  48) = (   4.8657738   4.5798987  19.4796958  )
        49           C1  tau(  49) = (   5.7271871   3.4329544  19.8049648  )
        50           H1  tau(  50) = (   6.3241292   3.1721029  18.9298488  )
        51           H1  tau(  51) = (   6.4229137   3.7195585  20.5942015  )
        52           H1  tau(  52) = (   5.1874390   2.5328885  20.1195193  )
        53           H1  tau(  53) = (   5.9166942   5.7389963  18.1772939  )
        54           H1  tau(  54) = (   4.2103208   4.3266459  18.7469397  )
        55           H1  tau(  55) = (   4.3187305   4.8545830  20.2870342  )

     number of k points=    10  Fermi-Dirac smearing, width (Ry)=  0.0073
                       cart. coord. in units 2pi/alat
        k(    1) = (   0.0000000   0.0000000   0.0000000), wk =   0.1250000
        k(    2) = (   0.0000000   0.0419351   0.0000000), wk =   0.2500000
        k(    3) = (   0.0000000  -0.0838702   0.0000000), wk =   0.1250000
        k(    4) = (   0.0379955   0.0000049   0.0000000), wk =   0.2500000
        k(    5) = (   0.0379955   0.0419400   0.0000000), wk =   0.2500000
        k(    6) = (   0.0379955  -0.0838652   0.0000000), wk =   0.2500000
        k(    7) = (   0.0379955  -0.0419301   0.0000000), wk =   0.2500000
        k(    8) = (  -0.0759910  -0.0000099   0.0000000), wk =   0.1250000
        k(    9) = (  -0.0759910   0.0419252   0.0000000), wk =   0.2500000
        k(   10) = (  -0.0759910  -0.0838800   0.0000000), wk =   0.1250000

     Initial potential from superposition of free atoms

     starting charge  376.99914, renormalised to  393.00000

     negative rho (up, down):  1.330E-02 0.000E+00

     %%%%%%%%%%%%%%%%%%%%%%%%%%%%%%%%%%%%%%%%%%%%%%%%%%%%%%%%%%%%%%%%%%%%%%%%
     %                                                                      %
     % You are using vdW-DF, which was implemented by the Thonhauser group. %
     % Please cite the following two papers that made this development      %
     % possible and the two reviews that describe the various versions:     %
     %                                                                      %
     %   T. Thonhauser et al., PRL 115, 136402 (2015).                      %
     %   T. Thonhauser et al., PRB 76, 125112 (2007).                       %
     %   K. Berland et al., Rep. Prog. Phys. 78, 066501 (2015).             %
     %   D.C. Langreth et al., J. Phys.: Condens. Matter 21, 084203 (2009). %
     %                                                                      %
     %                                                                      %
     % If you are calculating the stress with vdW-DF, please also cite:     %
     %                                                                      %
     %   R. Sabatini et al., J. Phys.: Condens. Matter 24, 424209 (2012).   %
     %                                                                      %
     %%%%%%%%%%%%%%%%%%%%%%%%%%%%%%%%%%%%%%%%%%%%%%%%%%%%%%%%%%%%%%%%%%%%%%%%

     Adding external electric field

     Computed dipole along edir(3) :
        Dipole               -9.4918 Ry au,        -24.1257 Debye
        Dipole field         -0.0179 Ry au,

        Potential amp.        1.6604 Ry
        Total length         46.3494 bohr

     Starting wfcs are  298 atomic wfcs
  @ DRIVER MODE: Message from server: STATUS
  @ DRIVER MODE: Message from server: POSDATA
  @ DRIVER MODE: Reading and sharing cell
  @ DRIVER MODE: Reading and sharing positions
  @ DRIVER MODE: Received positions

     Self-consistent Calculation

     iteration #  1     ecut=    29.40 Ry     beta= 0.05
     Davidson diagonalization with overlap
     c_bands:  2 eigenvalues not converged
     c_bands:  1 eigenvalues not converged
     c_bands:  2 eigenvalues not converged
     c_bands:  3 eigenvalues not converged
     c_bands:  3 eigenvalues not converged
     c_bands:  1 eigenvalues not converged
     ethr =  1.00E-05,  avg # of iterations = 18.9

[...]

     total energy              =   -2620.47560302 Ry
     estimated scf accuracy    <    3389.85289025 Ry

     iteration #  2     ecut=    29.40 Ry     beta= 0.05
     Davidson diagonalization with overlap
     ethr =  1.00E-02,  avg # of iterations = 23.0

[...]

     iteration # 77     ecut=    29.40 Ry     beta= 0.05
     Davidson diagonalization with overlap
     c_bands:  1 eigenvalues not converged
     ethr =  3.44E-11,  avg # of iterations = 14.9

[...]

     total energy              =   -2922.77376339 Ry
     estimated scf accuracy    <       0.00000017 Ry

     iteration # 78     ecut=    29.40 Ry     beta= 0.05
     Davidson diagonalization with overlap
     ethr =  3.44E-11,  avg # of iterations =  1.9

     negative rho (up, down):  1.445E-02 0.000E+00

     Adding external electric field

     Computed dipole along edir(3) :
        Dipole                1.4010 Ry au,          3.5610 Debye
        Dipole field          0.0026 Ry au,

        Potential amp.       -0.2451 Ry
        Total length         46.3494 bohr

     End of self-consistent calculation

          k = 0.0000 0.0000 0.0000 ( 18029 PWs)   bands (ev):

   -55.3112 -55.2754 -55.2597 -55.2255 -55.1752 -55.1507 -55.1504 -55.1409
   -55.1163 -55.0866 -55.0758 -55.0527 -55.0335 -54.9752 -54.3031 -54.2691
   -31.8782 -31.7540 -31.6909 -31.6636 -31.6386 -31.6182 -31.5936 -31.5533
   -31.5489 -31.5476 -31.5185 -31.5072 -31.5035 -31.4788 -31.4683 -31.4632
   -31.4499 -31.4396 -31.4126 -31.4040 -31.3997 -31.3831 -31.3753 -31.3578
   -31.3549 -31.3174 -31.3169 -31.3076 -31.3050 -31.2920 -31.2872 -31.2852
   -31.2787 -31.2777 -31.2625 -31.2594 -31.2276 -31.2140 -31.2023 -31.1973
   -31.1846 -31.1091 -30.7134 -30.6170 -30.5951 -30.5294 -30.4425 -30.3320
   -16.8606 -16.1508 -15.8943 -15.7730 -15.6639 -15.5802 -15.5233 -15.4441
   -15.3603 -15.2599 -15.1985 -15.0940 -15.0581 -15.0191 -15.0031 -14.9853
   -14.9584 -14.8784 -14.8674 -14.8568 -14.8313 -14.8129 -14.7836 -14.7759
   -14.7690 -14.7296 -14.6924 -14.5801 -14.4895 -14.4041 -12.8063 -12.6886
   -10.0054  -5.8454  -4.7636  -4.4229  -3.5153  -3.4766  -3.3460  -3.2410
    -3.2076  -3.1984  -3.0785  -2.8951  -2.8000  -2.7730  -2.6849  -2.6319
    -2.5362  -2.5328  -2.4923  -2.3919  -2.3541  -2.3280  -2.2438  -2.2173
    -2.1708  -2.1202  -2.1100  -2.1069  -2.0864  -2.0462  -2.0072  -1.8883
    -1.8035  -1.7814  -1.7081  -1.6918  -1.6857  -1.6575  -1.6145  -1.5954
    -1.5460  -1.5289  -1.4883  -1.4188  -1.3583  -1.2757  -1.2392  -1.2012
    -0.9967  -0.9672  -0.9166  -0.9143  -0.8853  -0.8174  -0.7894  -0.7586
    -0.6923  -0.6905  -0.6615  -0.5551  -0.5120  -0.3914  -0.3209  -0.2412
    -0.1195  -0.1064  -0.0824  -0.0325  -0.0092   0.0504   0.1108   0.1470
     0.1867   0.1992   0.2866   0.3162   0.3945   0.4095   0.4500   0.5090
     0.5266   0.5520   0.5736   0.5815   0.6153   0.6311   0.6651   0.7320
     0.7640   0.8654   0.9143   1.1980   1.2833   1.5922   1.6156   1.7191
     1.9004   2.2975   2.3466   3.7831   3.8443   3.8850   3.9276   3.9310
     4.0128   4.1429   4.2863   4.2958   4.3070   4.3139

[...]

          k = 0.0380-0.0419 0.0000 ( 17876 PWs)   bands (ev):

[...]

          k =-0.0760-0.0000 0.0000 ( 17886 PWs)   bands (ev):

[...]

          k =-0.0760-0.0839 0.0000 ( 17948 PWs)   bands (ev):

   -55.2946 -55.2918 -55.2429 -55.2422 -55.1585 -55.1575 -55.1464 -55.1355
   -55.1313 -55.0796 -55.0710 -55.0684 -55.0265 -54.9823 -54.2861 -54.2859
   -31.6859 -31.6808 -31.5908 -31.5845 -31.5692 -31.5689 -31.5595 -31.5331
   -31.5325 -31.5119 -31.5070 -31.5052 -31.4918 -31.4654 -31.4605 -31.4596
   -31.4339 -31.4332 -31.4268 -31.4060 -31.3833 -31.3811 -31.3708 -31.3671
   -31.3663 -31.3624 -31.3618 -31.3530 -31.3513 -31.3448 -31.3410 -31.3258
   -31.3232 -31.3105 -31.3073 -31.2961 -31.2675 -31.2507 -31.2487 -31.2461
   -31.2284 -31.1752 -30.6078 -30.6077 -30.5259 -30.5257 -30.4860 -30.4860
   -16.8019 -15.8227 -15.5819 -15.5423 -15.5018 -15.4073 -15.3336 -15.3023
   -15.2921 -15.2791 -15.1527 -15.1246 -15.1155 -15.0875 -15.0552 -15.0312
   -15.0273 -14.9919 -14.9352 -14.9292 -14.9214 -14.9131 -14.8494 -14.8412
   -14.8374 -14.8306 -14.7651 -14.7627 -14.6807 -14.6787 -12.7900 -12.7899
   -10.0151  -5.8459  -4.8922  -4.4034  -3.5268  -2.8261  -2.7988  -2.7466
    -2.7019  -2.6157  -2.5298  -2.5027  -2.4663  -2.4085  -2.3561  -2.3090
    -2.3069  -2.2707  -2.2515  -2.2325  -2.1891  -2.1674  -2.1449  -2.1268
    -2.1121  -2.0581  -2.0553  -2.0462  -2.0211  -1.9877  -1.9703  -1.9567
    -1.9409  -1.9224  -1.8972  -1.8779  -1.7348  -1.7140  -1.6727  -1.5561
    -1.5382  -1.5347  -1.5014  -1.4579  -1.4328  -1.4255  -1.3519  -1.3449
    -1.3141  -1.1547  -1.0827  -1.0809  -1.0573  -1.0350  -0.9385  -0.8872
    -0.8466  -0.7974  -0.7206  -0.6895  -0.6709  -0.5978  -0.5715  -0.4806
    -0.3901  -0.3637  -0.3554  -0.2782  -0.2767  -0.2433  -0.2301  -0.1611
    -0.1009  -0.0493  -0.0454  -0.0412   0.0880   0.1246   0.2047   0.3187
     0.3993   0.4080   0.4592   0.5192   0.6099   0.6492   0.6685   0.7857
     0.7876   0.9740   0.9773   1.0256   1.0407   1.1211   1.1263   2.0732
     2.0739   2.1662   2.1666   3.7579   3.9419   3.9960   4.0687   4.0941
     4.1925   4.2773   4.3109   4.3420   4.3633   4.3690

     the Fermi energy is     3.8516 ev

!    total energy              =   -2922.77377056 Ry
     estimated scf accuracy    <       0.00000006 Ry
     smearing contrib. (-TS)   =      -0.04549148 Ry
     internal energy E=F+TS    =   -2922.72827909 Ry

     The total energy is F=E-TS. E is the sum of the following terms:
     one-electron contribution =  -23201.65002738 Ry
     hartree contribution      =   11691.08004409 Ry
     xc contribution           =    -482.55350787 Ry
     ewald contribution        =    9070.39150788 Ry
     electric field correction =       0.00370419 Ry

     convergence has been achieved in  78 iterations

     Forces acting on atoms (cartesian axes, Ry/au):

     atom    1 type  1   force =     0.00016557   -0.00007923    0.09296765
     atom    2 type  1   force =    -0.00000070   -0.00014589   -0.17883564
     atom    3 type  2   force =     0.00002093   -0.00029738   -0.02019736
     atom    4 type  2   force =    -0.00000175   -0.00223778    0.06097411
     atom    5 type  2   force =    -0.01148702   -0.00127584    0.01055410
     atom    6 type  2   force =     0.01239905   -0.00058047    0.00811810
     atom    7 type  1   force =    -0.00124505    0.00346109   -0.01488945
     atom    8 type  1   force =     0.00122872   -0.00359841   -0.00844976
     atom    9 type  2   force =     0.00001432   -0.00005148   -0.00023628
     atom   10 type  2   force =    -0.00281368   -0.00047826    0.00154056
     atom   11 type  2   force =     0.00010266   -0.00023480   -0.00029649
     atom   12 type  2   force =     0.00002103    0.00008538   -0.00010702
     atom   13 type  1   force =    -0.00019405   -0.00031495   -0.00059571
     atom   14 type  1   force =    -0.00003420   -0.00003862    0.00022185
     atom   15 type  2   force =    -0.00010333   -0.00023213   -0.00015712
     atom   16 type  2   force =     0.00031819    0.00035144   -0.00011848
     atom   17 type  2   force =     0.00073234    0.00031337   -0.00034496
     atom   18 type  2   force =     0.00014777   -0.00024367   -0.00009884
     atom   19 type  1   force =     0.00030886    0.00046474   -0.00031562
     atom   20 type  1   force =     0.00003230    0.00010398    0.00061512
     atom   21 type  2   force =     0.00012538   -0.00003239    0.10423885
     atom   22 type  2   force =     0.00657841    0.00172521   -0.00806829
     atom   23 type  2   force =    -0.06991672   -0.00010542   -0.02678627
     atom   24 type  2   force =     0.06988798    0.00035225   -0.02678798
     atom   25 type  1   force =     0.00018897   -0.00021062    0.09225544
     atom   26 type  1   force =    -0.00006766   -0.00036636   -0.17903414
     atom   27 type  2   force =     0.00004022   -0.00025682   -0.01892883
     atom   28 type  2   force =     0.00006647   -0.00192818    0.06021827
     atom   29 type  2   force =    -0.01167543   -0.00161809    0.01034770
     atom   30 type  2   force =     0.01246052   -0.00120030    0.00787848
     atom   31 type  1   force =    -0.00101319    0.00608388   -0.01577213
     atom   32 type  1   force =     0.00116429    0.00333515   -0.00863378
     atom   33 type  2   force =     0.00003007    0.00020183   -0.00022348
     atom   34 type  2   force =    -0.00240752   -0.00053696    0.00059946
     atom   35 type  2   force =    -0.00001320   -0.00000308    0.00004742
     atom   36 type  2   force =     0.00005203   -0.00007681    0.00036033
     atom   37 type  1   force =     0.00035318   -0.00003743   -0.00001733
     atom   38 type  1   force =    -0.00034232   -0.00030955    0.00046997
     atom   39 type  2   force =     0.00039655   -0.00019179    0.00062153
     atom   40 type  2   force =     0.00024861   -0.00017695    0.00001841
     atom   41 type  2   force =    -0.00000220    0.00033229   -0.00052983
     atom   42 type  2   force =     0.00055744    0.00018699   -0.00023417
     atom   43 type  1   force =     0.00033752   -0.00020465   -0.00024624
     atom   44 type  1   force =     0.00005723   -0.00132176    0.00064693
     atom   45 type  2   force =     0.00011774   -0.00005464    0.10418518
     atom   46 type  2   force =    -0.06992761   -0.00005942   -0.02677754
     atom   47 type  2   force =     0.06991769    0.00034545   -0.02679711
     atom   48 type  3   force =     0.00135845    0.00007715   -0.00111047
     atom   49 type  4   force =     0.00040643    0.00121691   -0.00050590
     atom   50 type  5   force =     0.00008738    0.00002936   -0.00008675
     atom   51 type  5   force =    -0.00066111   -0.00031816    0.00024959
     atom   52 type  5   force =    -0.00010977   -0.00038691    0.00029920
     atom   53 type  5   force =    -0.00704341   -0.00064324    0.00690354
     atom   54 type  5   force =    -0.00023066    0.00034127   -0.00048967
     atom   55 type  5   force =    -0.00063369    0.00084069    0.00134082

     Total force =     0.367856     Total SCF correction =     0.000471
  @ DRIVER MODE: Message from server: STATUS
  @ DRIVER MODE: Message from server: GETFORCE
  @ DRIVER MODE: Returning v,forces,stress,ensemble

     Writing output data file ./calc.save/
  @ DRIVER MODE: Message from server: EXIT
  @ DRIVE MODE: Exiting

     General routines

     Parallel routines

   This run was terminated on:  22:29:40   2Aug2021

   JOB DONE.