     Program PWSCF v.6.7GPU starts on 15Jul2021 at 20: 1:51

     R & G space division:  proc/nbgrp/npool/nimage =      16
     Reading input from /storage/home/hcoda1/3/ntian30/research/carbon/15Jul_vib/ads_slab/CH3NNHHH_a/out_0004/pw.inp
Warning: card &CELL ignored
Warning: card   CELL_DYNAMICS='IPI', ignored
Warning: card / ignored

     Current dimensions of program PWSCF are:
     Max number of different atomic species (ntypx) = 10
     Max number of k-points (npk) =  40000
     Max angular momentum in pseudopotentials (lmaxx) =  3
     Presently no symmetry can be used with electric field

     Message from routine cell_base_init:
     DEPRECATED: use true lattice parameter, not A to a.u. conversion factor

     IMPORTANT: XC functional enforced from input :
     Exchange-correlation= BEEF-VDW
                           (   1   4  43  14   2   0   0)
     Any further DFT definition will be discarded
     Please, verify this is what you really want

  @ DRIVER MODE: Connecting to
 qe_1139763_2351652.sched-torque.pace.gatech.edu1gyq3ibf_scratch
  using UNIX socket
  @ DRIVER MODE: Message from server: STATUS
  @ DRIVER MODE: Message from server: INIT
  @ DRIVER MODE: Receiving replica           0          -1
  @ DRIVER MODE: Receiving encoded integer          25
  @ DRIVER MODE:  SCF:  T  FORCE:  T  STRESS:  F  VC:  F  ENSEMBLE:  F
  @ DRIVER MODE:  SCF:  T  FORCE:  T  STRESS:  F  VC:  F  ENSEMBLE:  F

     Using Slab Decomposition

     bravais-lattice index     =            0
     lattice parameter (alat)  =       1.8897  a.u.
     unit-cell volume          =    6658.9804 (a.u.)^3
     number of atoms/cell      =           56
     number of atomic types    =            5
     number of electrons       =       398.00
     number of Kohn-Sham states=          209
     kinetic-energy cutoff     =      29.3995  Ry
     charge density cutoff     =     293.9946  Ry
     scf convergence threshold =      7.3E-08
     mixing beta               =       0.0500
     number of iterations used =            8  plain     mixing
     Exchange-correlation= BEEF-VDW
                           (   1   4  43  14   2   0   0)

     celldm(1)=   1.889726  celldm(2)=   0.000000  celldm(3)=   0.000000
     celldm(4)=   0.000000  celldm(5)=   0.000000  celldm(6)=   0.000000

     crystal axes: (cart. coord. in units of alat)
               a(1) = (   6.579727   0.000000   0.000000 )
               a(2) = (  -0.000775   5.961596   0.000000 )
               a(3) = (   0.000000   0.000000  25.155947 )

     reciprocal axes: (cart. coord. in units 2 pi/alat)
               b(1) = (  0.151982  0.000020  0.000000 )
               b(2) = (  0.000000  0.167740  0.000000 )
               b(3) = (  0.000000  0.000000  0.039752 )

     PseudoPot. # 1 for Ti read from file:
     /storage/coda1/p-amedford6/0/shared/rich_project_chbe-medford/medford-share/data/pseudos_module/espresso/nninc/pbe/van/Ti.UPF
     MD5 check sum: 8e4df49b7f0d34bbd5052bf3f5ea0213
     Pseudo is Ultrasoft, Zval = 12.0
     Generated by new atomic code, or converted to UPF format
     Using radial grid of  851 points,  6 beta functions with:
                l(1) =   0
                l(2) =   0
                l(3) =   1
                l(4) =   1
                l(5) =   2
                l(6) =   2
     Q(r) pseudized with  8 coefficients,  rinner =    1.000   1.000   1.000
                                                       1.000   1.000

     PseudoPot. # 2 for O  read from file:
     /storage/coda1/p-amedford6/0/shared/rich_project_chbe-medford/medford-share/data/pseudos_module/espresso/nninc/pbe/van/O.UPF
     MD5 check sum: 78c19812648e8988a0fe644b0f25305e
     Pseudo is Ultrasoft, Zval =  6.0
     Generated by new atomic code, or converted to UPF format
     Using radial grid of  737 points,  4 beta functions with:
                l(1) =   0
                l(2) =   0
                l(3) =   1
                l(4) =   1
     Q(r) pseudized with  8 coefficients,  rinner =    0.800   0.800   0.800

     PseudoPot. # 3 for N  read from file:
     /storage/coda1/p-amedford6/0/shared/rich_project_chbe-medford/medford-share/data/pseudos_module/espresso/nninc/pbe/van/N.UPF
     MD5 check sum: 90d10febe142ad51ac9d5be1deb811c4
     Pseudo is Ultrasoft, Zval =  5.0
     Generated by new atomic code, or converted to UPF format
     Using radial grid of  729 points,  4 beta functions with:
                l(1) =   0
                l(2) =   0
                l(3) =   1
                l(4) =   1
     Q(r) pseudized with  8 coefficients,  rinner =    0.800   0.800   0.800

     PseudoPot. # 4 for C  read from file:
     /storage/coda1/p-amedford6/0/shared/rich_project_chbe-medford/medford-share/data/pseudos_module/espresso/nninc/pbe/van/C.UPF
     MD5 check sum: 1a69bf6b8db32088f5b2163dbdb77a27
     Pseudo is Ultrasoft, Zval =  4.0
     Generated by new atomic code, or converted to UPF format
     Using radial grid of  721 points,  4 beta functions with:
                l(1) =   0
                l(2) =   0
                l(3) =   1
                l(4) =   1
     Q(r) pseudized with  8 coefficients,  rinner =    0.800   0.800   0.800

     PseudoPot. # 5 for H  read from file:
     /storage/coda1/p-amedford6/0/shared/rich_project_chbe-medford/medford-share/data/pseudos_module/espresso/nninc/pbe/van/H.UPF
     MD5 check sum: b5ee9d7bfd3a09ee7748110bda690ff7
     Pseudo is Ultrasoft, Zval =  1.0
     Generated by new atomic code, or converted to UPF format
     Using radial grid of  615 points,  1 beta functions with:
                l(1) =   0
     Q(r) pseudized with  8 coefficients,  rinner =    0.800

     atomic species   valence    mass     pseudopotential
        Ti1           12.00    47.86700     Ti( 1.00)
        O1             6.00    15.99900     O ( 1.00)
        N1             5.00    14.00700     N ( 1.00)
        C1             4.00    12.01100     C ( 1.00)
        H1             1.00     1.00800     H ( 1.00)

     Starting magnetic structure
     atomic species   magnetization
        Ti1          0.000
        O1           0.000
        N1           0.000
        C1           0.025
        H1           0.000

     No symmetry found

   Cartesian axes

     site n.     atom                  positions (alat units)
         1           Ti1 tau(   1) = (   0.0004258   2.9801865   6.0000000  )
         2           Ti1 tau(   2) = (   3.2906075   1.4906267   6.0002472  )
         3           O1  tau(   3) = (   0.0006271   0.0005054   7.9858123  )
         4           O1  tau(   4) = (   3.2906025   0.0005020   7.3038282  )
         5           O1  tau(   5) = (   4.5942328   1.4918067   9.2879030  )
         6           O1  tau(   6) = (   1.9868534   1.4903216   9.2879459  )
         7           Ti1 tau(   7) = (   3.2907910   2.8959150   9.1758416  )
         8           Ti1 tau(   8) = (   0.0015273   1.4827037   9.2680791  )
         9           O1  tau(   9) = (   3.2969863   5.9453513  11.3493076  )
        10           O1  tau(  10) = (   0.0116148   5.9584955  10.6183126  )
        11           O1  tau(  11) = (   1.3059050   1.4736943  12.6642453  )
        12           O1  tau(  12) = (   5.3003793   1.4775083  12.6459419  )
        13           Ti1 tau(  13) = (   0.0167275   2.9625105  12.5508078  )
        14           Ti1 tau(  14) = (   3.3131340   1.4712512  12.4909780  )
        15           O1  tau(  15) = (   6.5517612   5.9325698  14.7566896  )
        16           O1  tau(  16) = (   3.3302114   5.9429442  13.9823395  )
        17           O1  tau(  17) = (   4.5243935   1.5056208  16.2316672  )
        18           O1  tau(  18) = (   2.0170937   1.4633510  16.1378485  )
        19           Ti1 tau(  19) = (   3.2500237   2.9242626  15.6920970  )
        20           Ti1 tau(  20) = (   6.5441017   1.2779805  16.1516014  )
        21           O1  tau(  21) = (   3.2904802   0.0005063   4.7018136  )
        22           O1  tau(  22) = (   6.5540411   5.9581837  17.3465722  )
        23           O1  tau(  23) = (   1.3043587   1.4918075   6.0039043  )
        24           O1  tau(  24) = (   5.2767064   1.4903225   6.0039473  )
        25           Ti1 tau(  25) = (   0.0000382   5.9609847   6.0000000  )
        26           Ti1 tau(  26) = (   3.2902200   4.4714249   6.0002472  )
        27           O1  tau(  27) = (   0.0002396   2.9813036   7.9858123  )
        28           O1  tau(  28) = (   3.2902150   2.9813002   7.3038282  )
        29           O1  tau(  29) = (   4.5938453   4.4726049   9.2879030  )
        30           O1  tau(  30) = (   1.9864658   4.4711199   9.2879459  )
        31           Ti1 tau(  31) = (   3.2891106   5.8743827   9.1763621  )
        32           Ti1 tau(  32) = (   0.0006254   4.4649316   9.2693709  )
        33           O1  tau(  33) = (   3.2962403   2.9651072  11.3429128  )
        34           O1  tau(  34) = (   0.0092240   2.9805883  10.6323155  )
        35           O1  tau(  35) = (   1.3076126   4.4641214  12.6643835  )
        36           O1  tau(  36) = (   5.2981430   4.4591552  12.6429889  )
        37           Ti1 tau(  37) = (   0.0194730   5.9489450  12.5196332  )
        38           Ti1 tau(  38) = (   3.3150505   4.4522436  12.4946186  )
        39           O1  tau(  39) = (   6.5702761   2.9869041  14.8038460  )
        40           O1  tau(  40) = (   3.3119818   2.9576719  13.9204832  )
        41           O1  tau(  41) = (   4.5223198   4.3950437  16.2490866  )
        42           O1  tau(  42) = (   2.0356696   4.4339808  16.1311045  )
        43           Ti1 tau(  43) = (   3.3057863   5.9493229  15.7677403  )
        44           Ti1 tau(  44) = (   0.0958844   4.4293496  15.8701971  )
        45           O1  tau(  45) = (   3.2900926   2.9813045   4.7018136  )
        46           O1  tau(  46) = (   1.3039711   4.4726057   6.0039043  )
        47           O1  tau(  47) = (   5.2763189   4.4711207   6.0039473  )
        48           N1  tau(  48) = (   0.0620580   3.0475546  17.6897758  )
        49           C1  tau(  49) = (   1.1116374   2.9693208  18.6984743  )
        50           H1  tau(  50) = (   1.2951007   3.9532040  19.1583453  )
        51           H1  tau(  51) = (   0.8627774   2.2426413  19.4871689  )
        52           H1  tau(  52) = (   2.0263963   2.6228967  18.2308865  )
        53           N1  tau(  53) = (   5.4279256   3.3744730  18.4033390  )
        54           H1  tau(  54) = (   5.6103604   4.1199394  19.0852601  )
        55           H1  tau(  55) = (   4.7934260   3.8076565  17.6395878  )
        56           H1  tau(  56) = (   5.0090149   2.5598412  18.8678436  )

     number of k points=    10  Fermi-Dirac smearing, width (Ry)=  0.0073
                       cart. coord. in units 2pi/alat
        k(    1) = (   0.0000000   0.0000000   0.0000000), wk =   0.0625000
        k(    2) = (   0.0000000   0.0419351   0.0000000), wk =   0.1250000
        k(    3) = (   0.0000000  -0.0838702   0.0000000), wk =   0.0625000
        k(    4) = (   0.0379955   0.0000049   0.0000000), wk =   0.1250000
        k(    5) = (   0.0379955   0.0419400   0.0000000), wk =   0.1250000
[...]
     % Please cite the following two papers that made this development      %
     % possible and the two reviews that describe the various versions:     %
     %                                                                      %
     %   T. Thonhauser et al., PRL 115, 136402 (2015).                      %
     %   T. Thonhauser et al., PRB 76, 125112 (2007).                       %
     %   K. Berland et al., Rep. Prog. Phys. 78, 066501 (2015).             %
     %   D.C. Langreth et al., J. Phys.: Condens. Matter 21, 084203 (2009). %
     %                                                                      %
     %                                                                      %
     % If you are calculating the stress with vdW-DF, please also cite:     %
     %                                                                      %
     %   R. Sabatini et al., J. Phys.: Condens. Matter 24, 424209 (2012).   %
     %                                                                      %
     %%%%%%%%%%%%%%%%%%%%%%%%%%%%%%%%%%%%%%%%%%%%%%%%%%%%%%%%%%%%%%%%%%%%%%%%

     Adding external electric field

     Computed dipole along edir(3) :
        Dipole              -10.5729 Ry au,        -26.8736 Debye
        Dipole field         -0.0200 Ry au,

        Potential amp.        1.8496 Ry
        Total length         46.3494 bohr

[...]

     Starting wfcs are  302 atomic wfcs
  @ DRIVER MODE: Message from server: STATUS
  @ DRIVER MODE: Message from server: POSDATA
  @ DRIVER MODE: Reading and sharing cell
  @ DRIVER MODE: Reading and sharing positions
  @ DRIVER MODE: Received positions

     Self-consistent Calculation

     iteration #  1     ecut=    29.40 Ry     beta= 0.05
     Davidson diagonalization with overlap
     c_bands:  3 eigenvalues not converged
     c_bands:  3 eigenvalues not converged
     c_bands:  1 eigenvalues not converged
     c_bands:  4 eigenvalues not converged
     c_bands:  5 eigenvalues not converged
     c_bands:  5 eigenvalues not converged
     c_bands:  1 eigenvalues not converged
     c_bands:  5 eigenvalues not converged
     c_bands:  3 eigenvalues not converged
     c_bands:  3 eigenvalues not converged
     c_bands:  2 eigenvalues not converged
     c_bands:  1 eigenvalues not converged
     c_bands:  4 eigenvalues not converged
     c_bands:  5 eigenvalues not converged
     c_bands:  5 eigenvalues not converged
     c_bands:  5 eigenvalues not converged
     c_bands:  3 eigenvalues not converged
     ethr =  1.00E-05,  avg # of iterations = 20.0

[...]

     total energy              =   -2443.27733356 Ry
     estimated scf accuracy    <    5586.06826451 Ry

     total magnetization       =     0.00 Bohr mag/cell
     absolute magnetization    =     0.01 Bohr mag/cell

     iteration #  2     ecut=    29.40 Ry     beta= 0.05
     Davidson diagonalization with overlap
     ethr =  1.00E-02,  avg # of iterations = 25.0

[...]

     iteration #126     ecut=    29.40 Ry     beta= 0.05
     Davidson diagonalization with overlap
     ethr =  1.94E-10,  avg # of iterations =  2.5

[...]

     total energy              =   -2942.82548153 Ry
     estimated scf accuracy    <       0.00000008 Ry

[...]

     iteration #134     ecut=    29.40 Ry     beta= 0.05
     Davidson diagonalization with overlap
     c_bands:  2 eigenvalues not converged
     c_bands:  3 eigenvalues not converged
     ethr =  2.10E-11,  avg # of iterations = 14.1

     negative rho (up, down):  7.269E-03 7.261E-03

[...]

     Adding external electric field

     Computed dipole along edir(3) :
        Dipole                1.6187 Ry au,          4.1143 Debye
        Dipole field          0.0031 Ry au,

        Potential amp.       -0.2832 Ry
        Total length         46.3494 bohr

     Magnetic moment per site  (integrated on atomic sphere of radius R)
     atom   1 (R=0.723)  charge=  7.9141  magn=  0.0200
     atom   2 (R=0.723)  charge=  7.8964  magn=  0.0008
     atom   3 (R=0.633)  charge=  4.2081  magn= -0.0020
     atom   4 (R=0.633)  charge=  4.2373  magn= -0.0002
     atom   5 (R=0.633)  charge=  4.2138  magn= -0.0004
     atom   6 (R=0.633)  charge=  4.2139  magn= -0.0004
     atom   7 (R=0.723)  charge=  7.8964  magn=  0.0012
     atom   8 (R=0.723)  charge=  7.8945  magn=  0.0125
     atom   9 (R=0.633)  charge=  4.2238  magn= -0.0005
     atom  10 (R=0.633)  charge=  4.2125  magn= -0.0009
     atom  11 (R=0.633)  charge=  4.2093  magn= -0.0007
     atom  12 (R=0.633)  charge=  4.2111  magn= -0.0007
     atom  13 (R=0.723)  charge=  7.8926  magn=  0.0049
     atom  14 (R=0.723)  charge=  7.9040  magn=  0.0039
     atom  15 (R=0.633)  charge=  4.2098  magn= -0.0001
     atom  16 (R=0.633)  charge=  4.2161  magn= -0.0002
     atom  17 (R=0.633)  charge=  4.2035  magn=  0.0000
     atom  18 (R=0.633)  charge=  4.2034  magn=  0.0000
     atom  19 (R=0.723)  charge=  7.9504  magn= -0.0001
     atom  20 (R=0.723)  charge=  7.9299  magn=  0.0000
     atom  21 (R=0.633)  charge=  4.1284  magn= -0.0005
     atom  22 (R=0.633)  charge=  4.1764  magn=  0.0000
     atom  23 (R=0.633)  charge=  4.2073  magn= -0.0019
     atom  24 (R=0.633)  charge=  4.2074  magn= -0.0019
     atom  25 (R=0.723)  charge=  7.9141  magn=  0.0200
     atom  26 (R=0.723)  charge=  7.8964  magn=  0.0008
     atom  27 (R=0.633)  charge=  4.2077  magn= -0.0020
     atom  28 (R=0.633)  charge=  4.2375  magn= -0.0002
     atom  29 (R=0.633)  charge=  4.2143  magn= -0.0004
     atom  30 (R=0.633)  charge=  4.2144  magn= -0.0004
     atom  31 (R=0.723)  charge=  7.8969  magn=  0.0012
     atom  32 (R=0.723)  charge=  7.8947  magn=  0.0126
     atom  33 (R=0.633)  charge=  4.2222  magn= -0.0006
     atom  34 (R=0.633)  charge=  4.2053  magn= -0.0010
     atom  35 (R=0.633)  charge=  4.2090  magn= -0.0007
     atom  36 (R=0.633)  charge=  4.2115  magn= -0.0007
     atom  37 (R=0.723)  charge=  7.8964  magn=  0.0048
     atom  38 (R=0.723)  charge=  7.9034  magn=  0.0039
     atom  39 (R=0.633)  charge=  4.1926  magn= -0.0001
     atom  40 (R=0.633)  charge=  4.2343  magn= -0.0002
     atom  41 (R=0.633)  charge=  4.2025  magn=  0.0000
     atom  42 (R=0.633)  charge=  4.2135  magn=  0.0000
     atom  43 (R=0.723)  charge=  7.9399  magn= -0.0001
     atom  44 (R=0.723)  charge=  7.9262  magn=  0.0003
     atom  45 (R=0.633)  charge=  4.1284  magn= -0.0005
     atom  46 (R=0.633)  charge=  4.2074  magn= -0.0019
     atom  47 (R=0.633)  charge=  4.2074  magn= -0.0019
     atom  48 (R=0.423)  charge=  1.3357  magn=  0.0000
     atom  49 (R=0.447)  charge=  0.8384  magn= -0.0000
     atom  50 (R=0.423)  charge=  0.4487  magn=  0.0000
     atom  51 (R=0.423)  charge=  0.4498  magn=  0.0000
     atom  52 (R=0.423)  charge=  0.4551  magn=  0.0000
     atom  53 (R=0.423)  charge=  1.3751  magn= -0.0000
     atom  54 (R=0.423)  charge=  0.4521  magn= -0.0000
     atom  55 (R=0.423)  charge=  0.3988  magn= -0.0000
     atom  56 (R=0.423)  charge=  0.4520  magn= -0.0000

     End of self-consistent calculation

 ------ SPIN UP ------------

          k = 0.0000 0.0000 0.0000 ( 18029 PWs)   bands (ev):

   -55.1389 -55.1133 -55.1023 -55.0792 -55.0221 -55.0017 -54.9840 -54.9396
   -54.9328 -54.9152 -54.9028 -54.9016 -54.8563 -54.7871 -54.1084 -54.0744
   -31.7167 -31.5922 -31.5070 -31.4734 -31.4395 -31.4272 -31.4238 -31.4059
   -31.3952 -31.3916 -31.3611 -31.3599 -31.3492 -31.3164 -31.2971 -31.2740
   -31.2688 -31.2584 -31.2425 -31.2333 -31.2140 -31.2064 -31.1993 -31.1736
   -31.1688 -31.1516 -31.1403 -31.1386 -31.1384 -31.1242 -31.1240 -31.1124
   -31.0997 -31.0879 -31.0807 -31.0659 -31.0557 -31.0416 -31.0389 -31.0292
   -31.0182 -30.9759 -30.5163 -30.4251 -30.4027 -30.3333 -30.2466 -30.1352
   -18.9555 -15.9988 -15.7446 -15.6083 -15.3736 -15.3207 -15.2653 -15.0607
   -15.0558 -14.9860 -14.9706 -14.9213 -14.9005 -14.8342 -14.7496 -14.7312
   -14.6596 -14.6589 -14.6296 -14.6195 -14.6165 -14.5539 -14.5448 -14.5148
   -14.5012 -14.4768 -14.3590 -14.2740 -14.2149 -13.9679 -13.5927 -12.6097
   -12.4925  -9.7591  -7.7263  -7.2212  -5.4618  -3.8184  -3.3368  -3.2827
    -3.1625  -3.1330  -3.0565  -3.0262  -2.8427  -2.8211  -2.4795  -2.4426
    -2.3932  -2.3748  -2.3543  -2.3362  -2.1690  -2.1421  -2.0695  -2.0369
    -2.0187  -1.9777  -1.9606  -1.9503  -1.9167  -1.9118  -1.9013  -1.6938
    -1.6383  -1.5435  -1.5210  -1.5013  -1.4619  -1.4274  -1.4175  -1.4140
    -1.4077  -1.3946  -1.3827  -1.3020  -1.2436  -1.1625  -1.1535  -1.1157
    -1.0137  -0.9692  -0.7664  -0.7519  -0.7066  -0.6640  -0.6012  -0.5815
    -0.5134  -0.4825  -0.4641  -0.3427  -0.3137  -0.2744  -0.2460  -0.1785
    -0.1489  -0.1020  -0.0195   0.0533   0.0888   0.1087   0.1654   0.2963
     0.3076   0.3369   0.3981   0.4618   0.5022   0.5219   0.5404   0.5783
     0.6278   0.7539   0.7978   0.8182   0.8224   0.8570   0.8780   0.9301
     0.9541   1.0146   1.0207   1.1377   1.2070   1.4337   1.4682   1.4951
     1.8274   1.8512   1.9151   2.1012   2.4897   2.5362   3.9578   4.0240
     4.0801   4.0896   4.1152   4.2058   4.2453   4.4298   4.4536   4.4565
     4.4615

[...]

          k =-0.0760-0.0000 0.0000 ( 17886 PWs)   bands (ev):

[...]

 ------ SPIN DOWN ----------

[...]

          k = 0.0380-0.0419 0.0000 ( 17876 PWs)   bands (ev):

[...]

          k =-0.0760-0.0839 0.0000 ( 17948 PWs)   bands (ev):

   -55.1153 -55.1093 -55.0597 -55.0597 -55.0019 -54.9983 -54.9852 -54.9190
   -54.9188 -54.9149 -54.8969 -54.8955 -54.8519 -54.7909 -54.0900 -54.0899
   -31.5161 -31.5132 -31.4375 -31.4150 -31.3925 -31.3924 -31.3492 -31.3490
   -31.3418 -31.3361 -31.3342 -31.3328 -31.3032 -31.2675 -31.2567 -31.2537
   -31.2524 -31.2497 -31.2417 -31.2351 -31.2121 -31.1991 -31.1981 -31.1968
   -31.1844 -31.1775 -31.1755 -31.1755 -31.1533 -31.1486 -31.1332 -31.1291
   -31.1271 -31.1214 -31.1207 -31.1182 -31.0928 -31.0773 -31.0757 -31.0646
   -31.0412 -31.0238 -30.4137 -30.4137 -30.3283 -30.3282 -30.2886 -30.2885
   -18.9507 -15.5063 -15.3966 -15.2890 -15.2234 -15.1807 -15.1292 -15.1117
   -15.1011 -15.0563 -15.0265 -14.9576 -14.8930 -14.8397 -14.8387 -14.8047
   -14.7260 -14.7122 -14.7049 -14.6945 -14.6375 -14.6308 -14.5996 -14.5789
   -14.5757 -14.5457 -14.4714 -14.4690 -14.3826 -14.1771 -13.6287 -12.5952
   -12.5949  -9.7279  -7.7232  -7.1675  -5.4648  -3.8404  -3.4378  -2.7545
    -2.6433  -2.4321  -2.4070  -2.3468  -2.3254  -2.2435  -2.1818  -2.1589
    -2.1357  -2.1019  -2.0985  -2.0757  -2.0530  -1.9994  -1.9713  -1.9587
    -1.9529  -1.9383  -1.9255  -1.9062  -1.8486  -1.8383  -1.8309  -1.7887
    -1.7774  -1.7458  -1.7396  -1.7004  -1.6840  -1.6097  -1.5157  -1.4916
    -1.4330  -1.3318  -1.3165  -1.3109  -1.2190  -1.2092  -1.1796  -1.1488
    -1.0943  -0.9962  -0.9413  -0.8640  -0.8607  -0.8307  -0.7439  -0.6810
    -0.6467  -0.6371  -0.6004  -0.5409  -0.5175  -0.4842  -0.4018  -0.3602
    -0.3337  -0.2993  -0.2041  -0.1427  -0.1198  -0.0875  -0.0841   0.0051
     0.0382   0.0759   0.0970   0.1341   0.1607   0.2241   0.2478   0.3579
     0.4264   0.4573   0.5767   0.6005   0.6638   0.7969   0.8681   0.9081
     0.9609   1.0196   1.0474   1.1769   1.1840   1.2063   1.3024   1.3436
     1.3506   1.3627   2.2736   2.2747   2.3564   2.3566   4.1015   4.1895
     4.2367   4.2744   4.3780   4.4957   4.5143   4.5559   4.5565   4.6322
     4.6416

     the Fermi energy is     4.0220 ev

!    total energy              =   -2942.82548181 Ry
     estimated scf accuracy    <       0.00000006 Ry
     smearing contrib. (-TS)   =      -0.03679764 Ry
     internal energy E=F+TS    =   -2942.78868417 Ry

     The total energy is F=E-TS. E is the sum of the following terms:
     one-electron contribution =  -23972.30861724 Ry
     hartree contribution      =   12081.73190672 Ry
     xc contribution           =    -487.77464752 Ry
     ewald contribution        =    9435.55772938 Ry
     electric field correction =       0.00494449 Ry

     total magnetization       =     0.12 Bohr mag/cell
     absolute magnetization    =     0.17 Bohr mag/cell

     convergence has been achieved in 134 iterations

     Forces acting on atoms (cartesian axes, Ry/au):

     atom    1 type  1   force =     0.00015068   -0.00022678    0.09428259
     atom    2 type  1   force =    -0.00009775   -0.00032600   -0.17742127
     atom    3 type  2   force =     0.00005631   -0.00016473   -0.02131491
     atom    4 type  2   force =    -0.00001504   -0.00172497    0.05660835
     atom    5 type  2   force =    -0.01054573   -0.00127962    0.00625219
     atom    6 type  2   force =     0.01221473   -0.00074393    0.00572378
     atom    7 type  1   force =    -0.00032850    0.00172112   -0.01620763
     atom    8 type  1   force =    -0.00011104    0.00438806    0.00557358
     atom    9 type  2   force =     0.00000967   -0.00004774   -0.00004473
     atom   10 type  2   force =    -0.00074390   -0.00022445   -0.00041346
     atom   11 type  2   force =     0.00034629    0.00012457   -0.00017846
     atom   12 type  2   force =    -0.00051763    0.00000265   -0.00011763
     atom   13 type  1   force =     0.00004162   -0.00036137    0.00015309
     atom   14 type  1   force =     0.00056014    0.00011801   -0.00033248
     atom   15 type  2   force =    -0.00043109    0.00064608   -0.00007322
     atom   16 type  2   force =    -0.00032867    0.00019895   -0.00002566
     atom   17 type  2   force =    -0.00007369    0.00011121    0.00052307
     atom   18 type  2   force =     0.00005438    0.00034069   -0.00004182
     atom   19 type  1   force =     0.00015377    0.00010559   -0.00001196
     atom   20 type  1   force =     0.00020251    0.00056201   -0.00078120
     atom   21 type  2   force =     0.00003659    0.00004267    0.10362972
     atom   22 type  2   force =    -0.00008958    0.00034444   -0.00021551
     atom   23 type  2   force =    -0.07080905   -0.00009963   -0.02718240
     atom   24 type  2   force =     0.07067187    0.00034248   -0.02721008
     atom   25 type  1   force =    -0.00009464   -0.00018955    0.09370009
     atom   26 type  1   force =    -0.00015657   -0.00032311   -0.17734561
     atom   27 type  2   force =     0.00008706   -0.00034943   -0.02041544
     atom   28 type  2   force =     0.00003119   -0.00144156    0.05591645
     atom   29 type  2   force =    -0.01090779   -0.00073744    0.00610215
     atom   30 type  2   force =     0.01245867   -0.00029232    0.00558092
     atom   31 type  1   force =    -0.00017575    0.00462649   -0.01723219
     atom   32 type  1   force =    -0.00003736   -0.00480522    0.00555364
     atom   33 type  2   force =     0.00005569    0.00012773    0.00027447
     atom   34 type  2   force =     0.00005755   -0.00085037   -0.00295462
     atom   35 type  2   force =     0.00023564    0.00003484    0.00009627
     atom   36 type  2   force =    -0.00042899    0.00016073   -0.00005191
     atom   37 type  1   force =    -0.00013120   -0.00009875   -0.00021595
     atom   38 type  1   force =     0.00042953   -0.00028246    0.00035560
     atom   39 type  2   force =    -0.00044217    0.00004439    0.00064291
     atom   40 type  2   force =    -0.00011598    0.00018567   -0.00019306
     atom   41 type  2   force =     0.00008954    0.00028455    0.00026153
     atom   42 type  2   force =     0.00000580    0.00021174   -0.00009594
     atom   43 type  1   force =    -0.00045123    0.00053224   -0.00007569
     atom   44 type  1   force =    -0.00018326    0.00034401   -0.00005256
     atom   45 type  2   force =     0.00002543    0.00001102    0.10363824
     atom   46 type  2   force =    -0.07081227   -0.00003843   -0.02718286
     atom   47 type  2   force =     0.07067870    0.00037983   -0.02718955
     atom   48 type  3   force =     0.00145373   -0.00689526   -0.00047175
     atom   49 type  4   force =    -0.00054348    0.00243570   -0.00073032
     atom   50 type  5   force =     0.00073753   -0.00017605    0.00086244
     atom   51 type  5   force =    -0.00089613   -0.00036492   -0.00063136
     atom   52 type  5   force =    -0.00058405    0.00003275   -0.00011672
     atom   53 type  3   force =     0.00020752    0.00351021    0.00162125
     atom   54 type  5   force =    -0.00079610    0.00027798    0.00034147
     atom   55 type  5   force =    -0.00050355    0.00025830   -0.00069643
     atom   56 type  5   force =     0.00030003   -0.00046262   -0.00046943

     Total force =     0.365679     Total SCF correction =     0.000330
  @ DRIVER MODE: Message from server: STATUS
  @ DRIVER MODE: Message from server: GETFORCE
  @ DRIVER MODE: Returning v,forces,stress,ensemble

     Writing output data file ./calc.save/
  @ DRIVER MODE: Message from server: EXIT
  @ DRIVE MODE: Exiting

     General routines

     Parallel routines

   This run was terminated on:  20:59:15  15Jul2021

   JOB DONE.