     Program PWSCF v.6.7GPU starts on 22Sep2021 at 20:28: 7

     R & G space division:  proc/nbgrp/npool/nimage =      10
     Reading input from /storage/home/hcoda1/3/ntian30/research/carbon/CxH_vib/H2O_calc/ads_slab/CH3NHO_a/out_0013/pw.inp
Warning: card &CELL ignored
Warning: card   CELL_DYNAMICS='IPI', ignored
Warning: card / ignored

     Current dimensions of program PWSCF are:
     Max number of different atomic species (ntypx) = 10
     Max number of k-points (npk) =  40000
     Max angular momentum in pseudopotentials (lmaxx) =  3
     Presently no symmetry can be used with electric field

     Message from routine cell_base_init:
     DEPRECATED: use true lattice parameter, not A to a.u. conversion factor

     IMPORTANT: XC functional enforced from input :
     Exchange-correlation= BEEF-VDW
                           (   1   4  43  14   2   0   0)
     Any further DFT definition will be discarded
     Please, verify this is what you really want

  @ DRIVER MODE: Connecting to
 qe_1139763_2937319.sched-torque.pace.gatech.eduqs2kcm4f_scratch
  using UNIX socket
  @ DRIVER MODE: Message from server: STATUS
  @ DRIVER MODE: Message from server: INIT
  @ DRIVER MODE: Receiving replica           0          -1
  @ DRIVER MODE: Receiving encoded integer          25
  @ DRIVER MODE:  SCF:  T  FORCE:  T  STRESS:  F  VC:  F  ENSEMBLE:  F
  @ DRIVER MODE:  SCF:  T  FORCE:  T  STRESS:  F  VC:  F  ENSEMBLE:  F

     Using Slab Decomposition

     bravais-lattice index     =            0
     lattice parameter (alat)  =       1.8897  a.u.
     unit-cell volume          =    6658.9804 (a.u.)^3
     number of atoms/cell      =           54
     number of atomic types    =            5
     number of electrons       =       397.00
     number of Kohn-Sham states=          208
     kinetic-energy cutoff     =      29.3995  Ry
     charge density cutoff     =     293.9946  Ry
     scf convergence threshold =      7.3E-08
     mixing beta               =       0.0500
     number of iterations used =            8  plain     mixing
     Exchange-correlation= BEEF-VDW
                           (   1   4  43  14   2   0   0)

     celldm(1)=   1.889726  celldm(2)=   0.000000  celldm(3)=   0.000000
     celldm(4)=   0.000000  celldm(5)=   0.000000  celldm(6)=   0.000000

     crystal axes: (cart. coord. in units of alat)
               a(1) = (   6.579727   0.000000   0.000000 )
               a(2) = (  -0.000775   5.961596   0.000000 )
               a(3) = (   0.000000   0.000000  25.155947 )

     reciprocal axes: (cart. coord. in units 2 pi/alat)
               b(1) = (  0.151982  0.000020  0.000000 )
               b(2) = (  0.000000  0.167740  0.000000 )
               b(3) = (  0.000000  0.000000  0.039752 )

     PseudoPot. # 1 for Ti read from file:
     /storage/coda1/p-amedford6/0/shared/rich_project_chbe-medford/medford-share/data/pseudos_module/espresso/nninc/pbe/van/Ti.UPF
     MD5 check sum: 8e4df49b7f0d34bbd5052bf3f5ea0213
     Pseudo is Ultrasoft, Zval = 12.0
     Generated by new atomic code, or converted to UPF format
     Using radial grid of  851 points,  6 beta functions with:
                l(1) =   0
                l(2) =   0
                l(3) =   1
                l(4) =   1
                l(5) =   2
                l(6) =   2
     Q(r) pseudized with  8 coefficients,  rinner =    1.000   1.000   1.000
                                                       1.000   1.000

     PseudoPot. # 2 for O  read from file:
     /storage/coda1/p-amedford6/0/shared/rich_project_chbe-medford/medford-share/data/pseudos_module/espresso/nninc/pbe/van/O.UPF
     MD5 check sum: 78c19812648e8988a0fe644b0f25305e
     Pseudo is Ultrasoft, Zval =  6.0
     Generated by new atomic code, or converted to UPF format
     Using radial grid of  737 points,  4 beta functions with:
                l(1) =   0
                l(2) =   0
                l(3) =   1
                l(4) =   1
     Q(r) pseudized with  8 coefficients,  rinner =    0.800   0.800   0.800

     PseudoPot. # 3 for N  read from file:
     /storage/coda1/p-amedford6/0/shared/rich_project_chbe-medford/medford-share/data/pseudos_module/espresso/nninc/pbe/van/N.UPF
     MD5 check sum: 90d10febe142ad51ac9d5be1deb811c4
     Pseudo is Ultrasoft, Zval =  5.0
     Generated by new atomic code, or converted to UPF format
     Using radial grid of  729 points,  4 beta functions with:
                l(1) =   0
                l(2) =   0
                l(3) =   1
                l(4) =   1
     Q(r) pseudized with  8 coefficients,  rinner =    0.800   0.800   0.800

     PseudoPot. # 4 for C  read from file:
     /storage/coda1/p-amedford6/0/shared/rich_project_chbe-medford/medford-share/data/pseudos_module/espresso/nninc/pbe/van/C.UPF
     MD5 check sum: 1a69bf6b8db32088f5b2163dbdb77a27
     Pseudo is Ultrasoft, Zval =  4.0
     Generated by new atomic code, or converted to UPF format
     Using radial grid of  721 points,  4 beta functions with:
                l(1) =   0
                l(2) =   0
                l(3) =   1
                l(4) =   1
     Q(r) pseudized with  8 coefficients,  rinner =    0.800   0.800   0.800

     PseudoPot. # 5 for H  read from file:
     /storage/coda1/p-amedford6/0/shared/rich_project_chbe-medford/medford-share/data/pseudos_module/espresso/nninc/pbe/van/H.UPF
     MD5 check sum: b5ee9d7bfd3a09ee7748110bda690ff7
     Pseudo is Ultrasoft, Zval =  1.0
     Generated by new atomic code, or converted to UPF format
     Using radial grid of  615 points,  1 beta functions with:
                l(1) =   0
     Q(r) pseudized with  8 coefficients,  rinner =    0.800

     atomic species   valence    mass     pseudopotential
        Ti1           12.00    47.86700     Ti( 1.00)
        O1             6.00    15.99900     O ( 1.00)
        N1             5.00    14.00700     N ( 1.00)
        C1             4.00    12.01100     C ( 1.00)
        H1             1.00     1.00800     H ( 1.00)

     No symmetry found

   Cartesian axes

     site n.     atom                  positions (alat units)
         1           Ti1 tau(   1) = (   0.0004258   2.9801865   6.0000000  )
         2           Ti1 tau(   2) = (   3.2906075   1.4906267   6.0002472  )
         3           O1  tau(   3) = (   0.0006271   0.0005054   7.9858123  )
         4           O1  tau(   4) = (   3.2906025   0.0005020   7.3038282  )
         5           O1  tau(   5) = (   4.5942328   1.4918067   9.2879030  )
         6           O1  tau(   6) = (   1.9868534   1.4903216   9.2879459  )
         7           Ti1 tau(   7) = (   3.2907910   2.8959150   9.1758416  )
         8           Ti1 tau(   8) = (   0.0015273   1.4827037   9.2680791  )
         9           O1  tau(   9) = (   3.2880966   5.9442215  11.2779904  )
        10           O1  tau(  10) = (   0.0116148   5.9584955  10.6183126  )
        11           O1  tau(  11) = (   1.2901275   1.4920942  12.6240107  )
        12           O1  tau(  12) = (   5.2966278   1.4852543  12.6143030  )
        13           Ti1 tau(  13) = (   0.0031916   3.1007002  12.7073671  )
        14           Ti1 tau(  14) = (   3.2978183   1.3116672  12.6600973  )
        15           O1  tau(  15) = (   6.5743189   0.0224225  14.6379036  )
        16           O1  tau(  16) = (   3.2931419   0.0435670  13.8892854  )
        17           O1  tau(  17) = (   4.5409235   1.5821231  16.0748620  )
        18           O1  tau(  18) = (   2.0417342   1.5698890  16.0900686  )
        19           Ti1 tau(  19) = (   3.2746960   3.0378214  15.6558348  )
        20           Ti1 tau(  20) = (   6.4705883   1.5381531  15.9030332  )
        21           O1  tau(  21) = (   3.2904802   0.0005063   4.7018136  )
        22           O1  tau(  22) = (   6.5584422   0.0457650  17.1906971  )
        23           O1  tau(  23) = (   1.3043587   1.4918075   6.0039043  )
        24           O1  tau(  24) = (   5.2767064   1.4903225   6.0039473  )
        25           Ti1 tau(  25) = (   0.0000382   5.9609847   6.0000000  )
        26           Ti1 tau(  26) = (   3.2902200   4.4714249   6.0002472  )
        27           O1  tau(  27) = (   0.0002396   2.9813036   7.9858123  )
        28           O1  tau(  28) = (   3.2902150   2.9813002   7.3038282  )
        29           O1  tau(  29) = (   4.5938453   4.4726049   9.2879030  )
        30           O1  tau(  30) = (   1.9864658   4.4711199   9.2879459  )
        31           Ti1 tau(  31) = (   3.2891106   5.8743827   9.1763621  )
        32           Ti1 tau(  32) = (   0.0006254   4.4649316   9.2693709  )
        33           O1  tau(  33) = (   3.2918970   3.0256722  11.2465752  )
        34           O1  tau(  34) = (   0.0092240   2.9805883  10.6323155  )
        35           O1  tau(  35) = (   1.2932338   4.4650182  12.6342030  )
        36           O1  tau(  36) = (   5.2897350   4.4662865  12.6224893  )
        37           Ti1 tau(  37) = (   0.0112454   0.1207271  12.6557084  )
        38           Ti1 tau(  38) = (   3.2993242   4.4067673  12.4119285  )
        39           O1  tau(  39) = (   6.5542949   2.9732608  14.6543823  )
        40           O1  tau(  40) = (   3.2957262   2.9928748  13.8751945  )
        41           O1  tau(  41) = (   4.5169628   4.4726675  16.1294972  )
        42           O1  tau(  42) = (   2.0179035   4.4711894  16.0655614  )
        43           Ti1 tau(  43) = (   3.1791666   0.0518155  16.3463265  )
        44           Ti1 tau(  44) = (   6.5235282   4.6410908  16.0777984  )
        45           O1  tau(  45) = (   3.2900926   2.9813045   4.7018136  )
        46           O1  tau(  46) = (   1.3039711   4.4726057   6.0039043  )
        47           O1  tau(  47) = (   5.2763189   4.4711207   6.0039473  )
        48           N1  tau(  48) = (   0.0679940   2.9882472  17.3287890  )
        49           C1  tau(  49) = (   0.3445104   2.8919884  18.7043053  )
        50           H1  tau(  50) = (   0.5835414   3.8503421  19.1719745  )
        51           H1  tau(  51) = (   6.0379261   2.4644003  19.2136804  )
        52           H1  tau(  52) = (   1.1315070   2.1426081  18.8955932  )
        53           O1  tau(  53) = (   3.2362511   0.0690349  18.1809703  )
        54           H1  tau(  54) = (   3.8186072   5.4079590  18.6400750  )

     number of k points=    10  Fermi-Dirac smearing, width (Ry)=  0.0073
                       cart. coord. in units 2pi/alat
        k(    1) = (   0.0000000   0.0000000   0.0000000), wk =   0.1250000
        k(    2) = (   0.0000000   0.0419351   0.0000000), wk =   0.2500000
        k(    3) = (   0.0000000  -0.0838702   0.0000000), wk =   0.1250000
        k(    4) = (   0.0379955   0.0000049   0.0000000), wk =   0.2500000
        k(    5) = (   0.0379955   0.0419400   0.0000000), wk =   0.2500000
        k(    6) = (   0.0379955  -0.0838652   0.0000000), wk =   0.2500000
        k(    7) = (   0.0379955  -0.0419301   0.0000000), wk =   0.2500000
        k(    8) = (  -0.0759910  -0.0000099   0.0000000), wk =   0.1250000
        k(    9) = (  -0.0759910   0.0419252   0.0000000), wk =   0.2500000
        k(   10) = (  -0.0759910  -0.0838800   0.0000000), wk =   0.1250000

     Initial potential from superposition of free atoms

     starting charge  380.99916, renormalised to  397.00000

     negative rho (up, down):  1.676E-02 0.000E+00

     %%%%%%%%%%%%%%%%%%%%%%%%%%%%%%%%%%%%%%%%%%%%%%%%%%%%%%%%%%%%%%%%%%%%%%%%
     %                                                                      %
     % You are using vdW-DF, which was implemented by the Thonhauser group. %
     % Please cite the following two papers that made this development      %
     % possible and the two reviews that describe the various versions:     %
     %                                                                      %
     %   T. Thonhauser et al., PRL 115, 136402 (2015).                      %
     %   T. Thonhauser et al., PRB 76, 125112 (2007).                       %
     %   K. Berland et al., Rep. Prog. Phys. 78, 066501 (2015).             %
     %   D.C. Langreth et al., J. Phys.: Condens. Matter 21, 084203 (2009). %
     %                                                                      %
     %                                                                      %
     % If you are calculating the stress with vdW-DF, please also cite:     %
     %                                                                      %
     %   R. Sabatini et al., J. Phys.: Condens. Matter 24, 424209 (2012).   %
     %                                                                      %
     %%%%%%%%%%%%%%%%%%%%%%%%%%%%%%%%%%%%%%%%%%%%%%%%%%%%%%%%%%%%%%%%%%%%%%%%

     Adding external electric field

     Computed dipole along edir(3) :
        Dipole               -8.2921 Ry au,        -21.0764 Debye
        Dipole field         -0.0156 Ry au,

        Potential amp.        1.4506 Ry
        Total length         46.3494 bohr

     Starting wfcs are  300 atomic wfcs
  @ DRIVER MODE: Message from server: STATUS
  @ DRIVER MODE: Message from server: POSDATA
  @ DRIVER MODE: Reading and sharing cell
  @ DRIVER MODE: Reading and sharing positions
  @ DRIVER MODE: Received positions

     Self-consistent Calculation

     iteration #  1     ecut=    29.40 Ry     beta= 0.05
     Davidson diagonalization with overlap
     c_bands:  1 eigenvalues not converged
     c_bands:  1 eigenvalues not converged
     c_bands:  1 eigenvalues not converged
     c_bands:  3 eigenvalues not converged
     c_bands:  2 eigenvalues not converged
     c_bands:  1 eigenvalues not converged
     c_bands:  1 eigenvalues not converged
     ethr =  1.00E-05,  avg # of iterations = 19.2

[...]

     total energy              =   -2606.49250029 Ry
     estimated scf accuracy    <    3820.31670589 Ry

     iteration #  2     ecut=    29.40 Ry     beta= 0.05
     Davidson diagonalization with overlap
     ethr =  1.00E-02,  avg # of iterations = 24.7

[...]

     iteration # 45     ecut=    29.40 Ry     beta= 0.05
     Davidson diagonalization with overlap
     c_bands:  1 eigenvalues not converged
     c_bands:  1 eigenvalues not converged
     ethr =  1.11E-06,  avg # of iterations =  9.3

[...]

     total energy              =   -2952.64746212 Ry
     estimated scf accuracy    <       0.00000009 Ry

     iteration # 71     ecut=    29.40 Ry     beta= 0.05
     Davidson diagonalization with overlap
     ethr =  2.20E-11,  avg # of iterations =  5.0

     negative rho (up, down):  1.696E-02 0.000E+00

     Adding external electric field

     Computed dipole along edir(3) :
        Dipole                0.3615 Ry au,          0.9188 Debye
        Dipole field          0.0007 Ry au,

        Potential amp.       -0.0632 Ry
        Total length         46.3494 bohr

     End of self-consistent calculation

          k = 0.0000 0.0000 0.0000 ( 18029 PWs)   bands (ev):

   -56.8749 -56.8413 -55.9450 -55.9095 -55.7347 -55.6699 -55.5487 -55.4264
   -55.3925 -55.3130 -55.3105 -55.2399 -55.2182 -55.1152 -55.0462 -54.9195
   -33.2936 -33.1452 -33.1171 -33.0546 -32.9644 -32.9207 -32.4262 -32.2100
   -32.1652 -32.1450 -32.0895 -32.0811 -32.0555 -31.9685 -31.9471 -31.9048
   -31.8901 -31.8725 -31.8321 -31.8043 -31.7946 -31.7927 -31.7799 -31.7735
   -31.7489 -31.7295 -31.6646 -31.6305 -31.5908 -31.5814 -31.5502 -31.5280
   -31.5154 -31.5073 -31.4740 -31.4650 -31.4388 -31.4296 -31.4075 -31.3932
   -31.3558 -31.3049 -31.2984 -31.2818 -31.2499 -31.1914 -31.1560 -31.1027
   -16.9777 -16.4635 -16.4157 -16.1912 -16.0687 -16.0630 -16.0174 -15.9558
   -15.7823 -15.7286 -15.6885 -15.6250 -15.4740 -15.3633 -15.2664 -15.0712
   -15.0359 -15.0040 -15.0023 -14.9883 -14.9577 -14.9454 -14.8698 -14.8188
   -14.7882 -14.7061 -14.6995 -14.5381 -14.3100 -14.2860 -13.9238 -13.8168
   -13.7984  -8.0390  -4.5535  -4.0910  -3.8842  -3.7091  -3.5596  -3.5046
    -3.4607  -3.3935  -3.3799  -3.2435  -3.2345  -3.2282  -3.2218  -3.1373
    -3.0730  -3.0145  -2.9254  -2.9099  -2.8194  -2.7688  -2.6097  -2.5754
    -2.4875  -2.4091  -2.4034  -2.3369  -2.3181  -2.2763  -2.2411  -2.2101
    -2.1807  -2.1371  -2.0827  -2.0726  -1.9781  -1.9717  -1.8893  -1.8738
    -1.8680  -1.7462  -1.7073  -1.6477  -1.5081  -1.4864  -1.4695  -1.4379
    -1.4000  -1.3393  -1.2351  -1.1770  -1.1480  -1.0942  -1.0246  -0.9679
    -0.9475  -0.8738  -0.8471  -0.7727  -0.7292  -0.7136  -0.6937  -0.6690
    -0.5305  -0.4484  -0.4138  -0.3613  -0.3463  -0.3071  -0.2827  -0.2278
    -0.1692  -0.1479  -0.0491  -0.0463   0.0900   0.1580   0.1604   0.2592
     0.3037   0.3099   0.3665   0.4355   0.4472   0.5109   0.5309   0.5891
     0.5950   0.6374   0.7210   0.7978   0.8413   0.8712   0.9115   0.9318
     1.0436   1.0690   1.1324   1.1886   1.4976   1.5707   2.1791   2.4196
     2.5915   2.8689   3.0644   3.3640   3.4055   3.4237   3.4239   3.7339

[...]

          k = 0.0380-0.0419 0.0000 ( 17876 PWs)   bands (ev):

[...]

          k =-0.0760-0.0000 0.0000 ( 17886 PWs)   bands (ev):

[...]

          k =-0.0760-0.0839 0.0000 ( 17948 PWs)   bands (ev):

   -56.8588 -56.8573 -55.9330 -55.9213 -55.7299 -55.6746 -55.5479 -55.4100
   -55.4088 -55.3136 -55.3059 -55.2440 -55.2168 -55.1137 -55.0477 -54.9209
   -33.1317 -33.1302 -33.1116 -33.1101 -33.0087 -33.0075 -32.2512 -32.2410
   -32.1276 -32.1235 -32.1155 -32.1145 -32.0281 -31.9874 -31.9617 -31.9479
   -31.9002 -31.8987 -31.8337 -31.7913 -31.7711 -31.7624 -31.7616 -31.6858
   -31.6354 -31.6302 -31.6288 -31.6044 -31.5937 -31.5902 -31.5893 -31.5832
   -31.5346 -31.5271 -31.5102 -31.4848 -31.4795 -31.4639 -31.4342 -31.4096
   -31.3928 -31.3587 -31.3070 -31.2926 -31.2599 -31.2557 -31.1584 -31.1405
   -16.4528 -16.3355 -16.3337 -16.2911 -16.2896 -16.0260 -16.0216 -15.7735
   -15.7444 -15.5690 -15.4568 -15.4346 -15.3930 -15.3525 -15.2754 -15.2245
   -15.2113 -15.1832 -15.1567 -15.0844 -15.0506 -14.9492 -14.9137 -14.8517
   -14.8174 -14.7438 -14.7035 -14.6749 -14.4811 -14.4190 -13.9213 -13.9208
   -13.8217  -8.0378  -4.0948  -3.4862  -3.4125  -3.4082  -3.3728  -3.3657
    -3.2891  -3.1613  -3.1580  -3.0435  -2.9572  -2.9303  -2.9006  -2.8466
    -2.8328  -2.7368  -2.6870  -2.6821  -2.6669  -2.6325  -2.6012  -2.5941
    -2.5366  -2.4103  -2.3660  -2.3283  -2.2881  -2.2197  -2.1894  -2.1813
    -2.1488  -2.1092  -2.0910  -2.0620  -2.0494  -2.0427  -2.0322  -1.9453
    -1.7981  -1.7715  -1.6781  -1.6750  -1.6652  -1.6253  -1.5956  -1.5816
    -1.5613  -1.5277  -1.4509  -1.4251  -1.3612  -1.2254  -1.2125  -1.1778
    -1.1243  -1.0214  -1.0067  -0.9108  -0.8929  -0.8828  -0.8193  -0.7964
    -0.7797  -0.7176  -0.6802  -0.5600  -0.4884  -0.4801  -0.4619  -0.4529
    -0.4026  -0.3554  -0.2824  -0.2784  -0.2617  -0.1536  -0.0578   0.0364
     0.0415   0.1111   0.1264   0.1813   0.3387   0.3493   0.3913   0.4525
     0.5688   0.6605   0.7145   0.8142   0.8466   0.9529   0.9719   0.9769
     0.9961   1.0050   1.0483   1.1042   1.1678   1.4789   1.9788   3.0123
     3.0155   3.0738   3.0794   3.3906   3.3929   3.5050   3.5099   3.8304

     the Fermi energy is     2.0765 ev

!    total energy              =   -2952.64747788 Ry
     estimated scf accuracy    <       0.00000003 Ry
     smearing contrib. (-TS)   =      -0.01068235 Ry
     internal energy E=F+TS    =   -2952.63679553 Ry

     The total energy is F=E-TS. E is the sum of the following terms:
     one-electron contribution =  -24061.22986489 Ry
     hartree contribution      =   12121.07426131 Ry
     xc contribution           =    -487.77881588 Ry
     ewald contribution        =    9475.29737733 Ry
     electric field correction =       0.00024660 Ry

     convergence has been achieved in  71 iterations

     Forces acting on atoms (cartesian axes, Ry/au):

     atom    1 type  1   force =     0.00005923   -0.00036549    0.12634744
     atom    2 type  1   force =    -0.00006016    0.00038546   -0.15475407
     atom    3 type  2   force =     0.00003716    0.00022974   -0.06865748
     atom    4 type  2   force =     0.00004323    0.00001103    0.01723069
     atom    5 type  2   force =    -0.00541872   -0.00182724   -0.01283232
     atom    6 type  2   force =     0.00700166   -0.00106585   -0.01373294
     atom    7 type  1   force =    -0.00029813   -0.00640878    0.05892723
     atom    8 type  1   force =     0.00058352    0.00675177    0.10096625
     atom    9 type  2   force =     0.00031917    0.00036509    0.00013598
     atom   10 type  2   force =    -0.00198487    0.00132488   -0.06337641
     atom   11 type  2   force =    -0.00017154   -0.00065808    0.00023795
     atom   12 type  2   force =    -0.00036542   -0.00040357    0.00005557
     atom   13 type  1   force =     0.00057941   -0.00074598    0.00024670
     atom   14 type  1   force =    -0.00003111   -0.00056187    0.00118948
     atom   15 type  2   force =     0.00000119   -0.00000803    0.00028555
     atom   16 type  2   force =     0.00005861   -0.00020151   -0.00084745
     atom   17 type  2   force =    -0.00037815   -0.00054547   -0.00040071
     atom   18 type  2   force =    -0.00034925   -0.00064435   -0.00062073
     atom   19 type  1   force =     0.00124145    0.00038002   -0.00081924
     atom   20 type  1   force =    -0.00072167    0.00093674   -0.00072940
     atom   21 type  2   force =     0.00009583    0.00015209    0.09788500
     atom   22 type  2   force =    -0.00011319   -0.00004786   -0.00026851
     atom   23 type  2   force =    -0.08273415    0.00002996   -0.03315968
     atom   24 type  2   force =     0.08270470    0.00046204   -0.03322244
     atom   25 type  1   force =     0.00005100   -0.00040145    0.12670789
     atom   26 type  1   force =    -0.00004831   -0.00139302   -0.15490647
     atom   27 type  2   force =     0.00012027   -0.00036970   -0.06705932
     atom   28 type  2   force =     0.00007232    0.00177032    0.01245431
     atom   29 type  2   force =    -0.00384055    0.00476802   -0.01597689
     atom   30 type  2   force =     0.00536926    0.00500746   -0.01690547
     atom   31 type  1   force =    -0.00028809    0.00187486    0.04202143
     atom   32 type  1   force =     0.00074899   -0.00887144    0.10189339
     atom   33 type  2   force =    -0.00004785   -0.00033738   -0.00058242
     atom   34 type  2   force =    -0.00187792    0.00205957   -0.07569980
     atom   35 type  2   force =     0.00013050   -0.00013636   -0.00047514
     atom   36 type  2   force =    -0.00030056    0.00006244   -0.00019444
     atom   37 type  1   force =     0.00046877    0.00055883    0.00034615
     atom   38 type  1   force =    -0.00035102   -0.00073942   -0.00037901
     atom   39 type  2   force =     0.00002089   -0.00050736    0.00064228
     atom   40 type  2   force =    -0.00008809   -0.00056910   -0.00042878
     atom   41 type  2   force =     0.00044828   -0.00033826   -0.00064825
     atom   42 type  2   force =    -0.00137142    0.00019964   -0.00004478
     atom   43 type  1   force =     0.00080054   -0.00065562   -0.00074501
     atom   44 type  1   force =    -0.00117804   -0.00067484   -0.00016254
     atom   45 type  2   force =     0.00008352   -0.00003047    0.09772560
     atom   46 type  2   force =    -0.08277123    0.00001949   -0.03317064
     atom   47 type  2   force =     0.08273574    0.00043169   -0.03321755
     atom   48 type  3   force =     0.00029666   -0.00093456   -0.00086581
     atom   49 type  4   force =    -0.00270312   -0.00224784   -0.00141096
     atom   50 type  5   force =     0.00201279    0.00193283    0.00174050
     atom   51 type  5   force =     0.00026063   -0.00067081   -0.00052269
     atom   52 type  5   force =    -0.00039920    0.00142841    0.00053150
     atom   53 type  2   force =     0.00034282    0.00028826   -0.00082545
     atom   54 type  5   force =     0.00120363    0.00093107    0.00007190

     Total force =     0.421212     Total SCF correction =     0.000460
  @ DRIVER MODE: Message from server: STATUS
  @ DRIVER MODE: Message from server: GETFORCE
  @ DRIVER MODE: Returning v,forces,stress,ensemble

     Writing output data file ./calc.save/
  @ DRIVER MODE: Message from server: EXIT
  @ DRIVE MODE: Exiting

     General routines

     Parallel routines

   This run was terminated on:  20:46:20  22Sep2021

   JOB DONE.