     Program PWSCF v.6.7GPU starts on 24Sep2021 at 20:20:41

     R & G space division:  proc/nbgrp/npool/nimage =       8
     Reading input from /storage/home/hcoda1/3/ntian30/research/carbon/CxH_vib/H2O_calc/ads_slab/CH3NHNH2HO_a/out_0065/pw.inp
Warning: card &CELL ignored
Warning: card   CELL_DYNAMICS='IPI', ignored
Warning: card / ignored

     Current dimensions of program PWSCF are:
     Max number of different atomic species (ntypx) = 10
     Max number of k-points (npk) =  40000
     Max angular momentum in pseudopotentials (lmaxx) =  3
     Presently no symmetry can be used with electric field

     Message from routine cell_base_init:
     DEPRECATED: use true lattice parameter, not A to a.u. conversion factor

     IMPORTANT: XC functional enforced from input :
     Exchange-correlation= BEEF-VDW
                           (   1   4  43  14   2   0   0)
     Any further DFT definition will be discarded
     Please, verify this is what you really want

  @ DRIVER MODE: Connecting to
 qe_1139763_2947307.sched-torque.pace.gatech.eduovnbl4x1_scratch
  using UNIX socket
  @ DRIVER MODE: Message from server: STATUS
  @ DRIVER MODE: Message from server: INIT
  @ DRIVER MODE: Receiving replica           0          -1
  @ DRIVER MODE: Receiving encoded integer          25
  @ DRIVER MODE:  SCF:  T  FORCE:  T  STRESS:  F  VC:  F  ENSEMBLE:  F
  @ DRIVER MODE:  SCF:  T  FORCE:  T  STRESS:  F  VC:  F  ENSEMBLE:  F

     Using Slab Decomposition

     bravais-lattice index     =            0
     lattice parameter (alat)  =       1.8897  a.u.
     unit-cell volume          =    6658.9804 (a.u.)^3
     number of atoms/cell      =           58
     number of atomic types    =            5
     number of electrons       =       405.00
     number of Kohn-Sham states=          212
     kinetic-energy cutoff     =      29.3995  Ry
     charge density cutoff     =     293.9946  Ry
     scf convergence threshold =      7.3E-08
     mixing beta               =       0.0500
     number of iterations used =            8  plain     mixing
     Exchange-correlation= BEEF-VDW
                           (   1   4  43  14   2   0   0)

     celldm(1)=   1.889726  celldm(2)=   0.000000  celldm(3)=   0.000000
     celldm(4)=   0.000000  celldm(5)=   0.000000  celldm(6)=   0.000000

     crystal axes: (cart. coord. in units of alat)
               a(1) = (   6.579727   0.000000   0.000000 )
               a(2) = (  -0.000775   5.961596   0.000000 )
               a(3) = (   0.000000   0.000000  25.155947 )

     reciprocal axes: (cart. coord. in units 2 pi/alat)
               b(1) = (  0.151982  0.000020  0.000000 )
               b(2) = (  0.000000  0.167740  0.000000 )
               b(3) = (  0.000000  0.000000  0.039752 )

     PseudoPot. # 1 for Ti read from file:
     /storage/coda1/p-amedford6/0/shared/rich_project_chbe-medford/medford-share/data/pseudos_module/espresso/nninc/pbe/van/Ti.UPF
     MD5 check sum: 8e4df49b7f0d34bbd5052bf3f5ea0213
     Pseudo is Ultrasoft, Zval = 12.0
     Generated by new atomic code, or converted to UPF format
     Using radial grid of  851 points,  6 beta functions with:
                l(1) =   0
                l(2) =   0
                l(3) =   1
                l(4) =   1
                l(5) =   2
                l(6) =   2
     Q(r) pseudized with  8 coefficients,  rinner =    1.000   1.000   1.000
                                                       1.000   1.000

     PseudoPot. # 2 for O  read from file:
     /storage/coda1/p-amedford6/0/shared/rich_project_chbe-medford/medford-share/data/pseudos_module/espresso/nninc/pbe/van/O.UPF
     MD5 check sum: 78c19812648e8988a0fe644b0f25305e
     Pseudo is Ultrasoft, Zval =  6.0
     Generated by new atomic code, or converted to UPF format
     Using radial grid of  737 points,  4 beta functions with:
                l(1) =   0
                l(2) =   0
                l(3) =   1
                l(4) =   1
     Q(r) pseudized with  8 coefficients,  rinner =    0.800   0.800   0.800

     PseudoPot. # 3 for N  read from file:
     /storage/coda1/p-amedford6/0/shared/rich_project_chbe-medford/medford-share/data/pseudos_module/espresso/nninc/pbe/van/N.UPF
     MD5 check sum: 90d10febe142ad51ac9d5be1deb811c4
     Pseudo is Ultrasoft, Zval =  5.0
     Generated by new atomic code, or converted to UPF format
     Using radial grid of  729 points,  4 beta functions with:
                l(1) =   0
                l(2) =   0
                l(3) =   1
                l(4) =   1
     Q(r) pseudized with  8 coefficients,  rinner =    0.800   0.800   0.800

     PseudoPot. # 4 for C  read from file:
     /storage/coda1/p-amedford6/0/shared/rich_project_chbe-medford/medford-share/data/pseudos_module/espresso/nninc/pbe/van/C.UPF
     MD5 check sum: 1a69bf6b8db32088f5b2163dbdb77a27
     Pseudo is Ultrasoft, Zval =  4.0
     Generated by new atomic code, or converted to UPF format
     Using radial grid of  721 points,  4 beta functions with:
                l(1) =   0
                l(2) =   0
                l(3) =   1
                l(4) =   1
     Q(r) pseudized with  8 coefficients,  rinner =    0.800   0.800   0.800

     PseudoPot. # 5 for H  read from file:
     /storage/coda1/p-amedford6/0/shared/rich_project_chbe-medford/medford-share/data/pseudos_module/espresso/nninc/pbe/van/H.UPF
     MD5 check sum: b5ee9d7bfd3a09ee7748110bda690ff7
     Pseudo is Ultrasoft, Zval =  1.0
     Generated by new atomic code, or converted to UPF format
     Using radial grid of  615 points,  1 beta functions with:
                l(1) =   0
     Q(r) pseudized with  8 coefficients,  rinner =    0.800

     atomic species   valence    mass     pseudopotential
        Ti1           12.00    47.86700     Ti( 1.00)
        O1             6.00    15.99900     O ( 1.00)
        N1             5.00    14.00700     N ( 1.00)
        C1             4.00    12.01100     C ( 1.00)
        H1             1.00     1.00800     H ( 1.00)

     No symmetry found

   Cartesian axes

     site n.     atom                  positions (alat units)
         1           Ti1 tau(   1) = (   0.0004258   2.9801865   6.0000000  )
         2           Ti1 tau(   2) = (   3.2906075   1.4906267   6.0002472  )
         3           O1  tau(   3) = (   0.0006271   0.0005054   7.9858123  )
         4           O1  tau(   4) = (   3.2906025   0.0005020   7.3038282  )
         5           O1  tau(   5) = (   4.5942328   1.4918067   9.2879030  )
         6           O1  tau(   6) = (   1.9868534   1.4903216   9.2879459  )
         7           Ti1 tau(   7) = (   3.2907910   2.8959150   9.1758416  )
         8           Ti1 tau(   8) = (   0.0015273   1.4827037   9.2680791  )
         9           O1  tau(   9) = (   3.3003128   0.0493987  11.3625472  )
        10           O1  tau(  10) = (   0.0116148   5.9584955  10.6183126  )
        11           O1  tau(  11) = (   1.2863924   1.5188706  12.6959087  )
        12           O1  tau(  12) = (   5.3173592   1.5183023  12.6957539  )
        13           Ti1 tau(  13) = (   0.0130489   2.9571150  12.5182267  )
        14           Ti1 tau(  14) = (   3.3124343   1.5987737  12.4587140  )
        15           O1  tau(  15) = (   0.0455642   5.8537743  14.6515032  )
        16           O1  tau(  16) = (   3.3135256   5.8999501  14.0036581  )
        17           O1  tau(  17) = (   4.5824137   1.5787328  16.0473457  )
        18           O1  tau(  18) = (   2.0456054   1.5356268  16.0652349  )
        19           Ti1 tau(  19) = (   3.2855744   2.9948502  15.7047272  )
        20           Ti1 tau(  20) = (   0.0729980   1.3194477  15.7501807  )
        21           O1  tau(  21) = (   3.2904802   0.0005063   4.7018136  )
        22           O1  tau(  22) = (   6.5643345   0.1786488  17.1561759  )
        23           O1  tau(  23) = (   1.3043587   1.4918075   6.0039043  )
        24           O1  tau(  24) = (   5.2767064   1.4903225   6.0039473  )
        25           Ti1 tau(  25) = (   0.0000382   5.9609847   6.0000000  )
        26           Ti1 tau(  26) = (   3.2902200   4.4714249   6.0002472  )
        27           O1  tau(  27) = (   0.0002396   2.9813036   7.9858123  )
        28           O1  tau(  28) = (   3.2902150   2.9813002   7.3038282  )
        29           O1  tau(  29) = (   4.5938453   4.4726049   9.2879030  )
        30           O1  tau(  30) = (   1.9864658   4.4711199   9.2879459  )
        31           Ti1 tau(  31) = (   3.2891106   5.8743827   9.1763621  )
        32           Ti1 tau(  32) = (   0.0006254   4.4649316   9.2693709  )
        33           O1  tau(  33) = (   3.3044115   2.9646987  11.3227374  )
        34           O1  tau(  34) = (   0.0092240   2.9805883  10.6323155  )
        35           O1  tau(  35) = (   1.2889249   4.4812606  12.6373974  )
        36           O1  tau(  36) = (   5.3198440   4.4849614  12.6453916  )
        37           Ti1 tau(  37) = (   0.0274371   5.9167426  12.5032498  )
        38           Ti1 tau(  38) = (   3.3124303   4.6827448  12.7121475  )
        39           O1  tau(  39) = (   0.0064664   3.0605765  14.9143048  )
        40           O1  tau(  40) = (   3.2921723   3.0190953  13.9337278  )
        41           O1  tau(  41) = (   4.5343043   4.4484976  16.2223827  )
        42           O1  tau(  42) = (   2.0055671   4.4324605  16.2273083  )
        43           Ti1 tau(  43) = (   3.3963104   0.0511244  16.3072024  )
        44           Ti1 tau(  44) = (   0.1011521   4.5293608  16.0606835  )
        45           O1  tau(  45) = (   3.2900926   2.9813045   4.7018136  )
        46           O1  tau(  46) = (   1.3039711   4.4726057   6.0039043  )
        47           O1  tau(  47) = (   5.2763189   4.4711207   6.0039473  )
        48           N1  tau(  48) = (   0.7799224   3.1460235  19.0808133  )
        49           N1  tau(  49) = (   6.3029119   3.3142126  18.0946246  )
        50           C1  tau(  50) = (   0.9829876   4.3811599  19.8296872  )
        51           H1  tau(  51) = (   0.0599524   4.7630682  20.2995108  )
        52           H1  tau(  52) = (   1.7087173   4.1728717  20.6153690  )
        53           H1  tau(  53) = (   1.3778604   5.1510331  19.1745456  )
        54           H1  tau(  54) = (   0.4845774   2.4057476  19.7140978  )
        55           H1  tau(  55) = (   5.5451363   3.8924421  18.4761980  )
        56           H1  tau(  56) = (   5.8791802   2.3931312  17.9634808  )
        57           O1  tau(  57) = (   3.3895457   0.1916509  18.1699706  )
        58           H1  tau(  58) = (   3.8128180   5.4341384  18.6481559  )

     number of k points=    10  Fermi-Dirac smearing, width (Ry)=  0.0073
                       cart. coord. in units 2pi/alat
        k(    1) = (   0.0000000   0.0000000   0.0000000), wk =   0.1250000
        k(    2) = (   0.0000000   0.0419351   0.0000000), wk =   0.2500000
        k(    3) = (   0.0000000  -0.0838702   0.0000000), wk =   0.1250000
        k(    4) = (   0.0379955   0.0000049   0.0000000), wk =   0.2500000
        k(    5) = (   0.0379955   0.0419400   0.0000000), wk =   0.2500000
        k(    6) = (   0.0379955  -0.0838652   0.0000000), wk =   0.2500000
        k(    7) = (   0.0379955  -0.0419301   0.0000000), wk =   0.2500000
        k(    8) = (  -0.0759910  -0.0000099   0.0000000), wk =   0.1250000
        k(    9) = (  -0.0759910   0.0419252   0.0000000), wk =   0.2500000
        k(   10) = (  -0.0759910  -0.0838800   0.0000000), wk =   0.1250000

     Initial potential from superposition of free atoms

     starting charge  388.99913, renormalised to  405.00000

     negative rho (up, down):  1.368E-02 0.000E+00

     %%%%%%%%%%%%%%%%%%%%%%%%%%%%%%%%%%%%%%%%%%%%%%%%%%%%%%%%%%%%%%%%%%%%%%%%
     %                                                                      %
     % You are using vdW-DF, which was implemented by the Thonhauser group. %
     % Please cite the following two papers that made this development      %
     % possible and the two reviews that describe the various versions:     %
     %                                                                      %
     %   T. Thonhauser et al., PRL 115, 136402 (2015).                      %
     %   T. Thonhauser et al., PRB 76, 125112 (2007).                       %
     %   K. Berland et al., Rep. Prog. Phys. 78, 066501 (2015).             %
     %   D.C. Langreth et al., J. Phys.: Condens. Matter 21, 084203 (2009). %
     %                                                                      %
     %                                                                      %
     % If you are calculating the stress with vdW-DF, please also cite:     %
     %                                                                      %
     %   R. Sabatini et al., J. Phys.: Condens. Matter 24, 424209 (2012).   %
     %                                                                      %
     %%%%%%%%%%%%%%%%%%%%%%%%%%%%%%%%%%%%%%%%%%%%%%%%%%%%%%%%%%%%%%%%%%%%%%%%

     Adding external electric field

     Computed dipole along edir(3) :
        Dipole              -14.8116 Ry au,        -37.6474 Debye
        Dipole field         -0.0280 Ry au,

        Potential amp.        2.5911 Ry
        Total length         46.3494 bohr

     Starting wfcs are  307 atomic wfcs
  @ DRIVER MODE: Message from server: STATUS
  @ DRIVER MODE: Message from server: POSDATA
  @ DRIVER MODE: Reading and sharing cell
  @ DRIVER MODE: Reading and sharing positions
  @ DRIVER MODE: Received positions

     Self-consistent Calculation

     iteration #  1     ecut=    29.40 Ry     beta= 0.05
     Davidson diagonalization with overlap
     c_bands:  4 eigenvalues not converged
     c_bands:  4 eigenvalues not converged
     c_bands:  2 eigenvalues not converged
     c_bands:  3 eigenvalues not converged
     c_bands:  4 eigenvalues not converged
     c_bands:  2 eigenvalues not converged
     ethr =  1.00E-05,  avg # of iterations = 23.7

[...]

     total energy              =   -2202.96038891 Ry
     estimated scf accuracy    <    8803.88696661 Ry

     iteration #  2     ecut=    29.40 Ry     beta= 0.05
     Davidson diagonalization with overlap
     ethr =  1.00E-02,  avg # of iterations = 30.7

[...]

     iteration # 69     ecut=    29.40 Ry     beta= 0.05
     Davidson diagonalization with overlap
     c_bands:  2 eigenvalues not converged
     ethr =  1.35E-07,  avg # of iterations = 12.5

[...]

     total energy              =   -2976.46400606 Ry
     estimated scf accuracy    <       0.00000008 Ry

     iteration # 87     ecut=    29.40 Ry     beta= 0.05
     Davidson diagonalization with overlap
     ethr =  1.86E-11,  avg # of iterations =  9.7

     negative rho (up, down):  1.441E-02 0.000E+00

     Adding external electric field

     Computed dipole along edir(3) :
        Dipole                1.2226 Ry au,          3.1075 Debye
        Dipole field          0.0023 Ry au,

        Potential amp.       -0.2139 Ry
        Total length         46.3494 bohr

     End of self-consistent calculation

          k = 0.0000 0.0000 0.0000 ( 18029 PWs)   bands (ev):

   -55.4472 -55.3590 -55.3249 -55.2206 -55.2177 -55.1896 -55.1880 -55.1802
   -55.1555 -55.1326 -55.0895 -54.9877 -54.9396 -54.8960 -54.3339 -54.2999
   -31.8441 -31.7938 -31.7243 -31.7069 -31.6924 -31.6777 -31.6575 -31.6499
   -31.6187 -31.6052 -31.5996 -31.5115 -31.4967 -31.4896 -31.4695 -31.4660
   -31.4624 -31.4533 -31.4527 -31.4230 -31.4164 -31.3953 -31.3876 -31.3779
   -31.3735 -31.3570 -31.3564 -31.3240 -31.3239 -31.3173 -31.3165 -31.3107
   -31.3023 -31.2842 -31.2605 -31.2419 -31.1768 -31.1553 -31.1434 -31.1352
   -31.1143 -31.1052 -30.7400 -30.6536 -30.6311 -30.5574 -30.4710 -30.3593
   -17.7421 -16.4027 -16.0137 -15.8500 -15.6351 -15.5421 -15.5152 -15.3162
   -15.2212 -15.1629 -14.9619 -14.9348 -14.8967 -14.8844 -14.8751 -14.8541
   -14.8505 -14.7989 -14.7833 -14.7735 -14.7700 -14.7397 -14.7126 -14.6734
   -14.6146 -14.5999 -14.4974 -14.4420 -14.4021 -14.1606 -14.1407 -13.1755
   -12.8325 -12.7161  -9.4382  -6.4450  -5.7410  -4.2693  -3.9414  -3.3713
    -3.2699  -3.2583  -3.2023  -3.1343  -2.9782  -2.8867  -2.7838  -2.7449
    -2.6103  -2.5991  -2.4946  -2.4459  -2.3728  -2.3267  -2.2855  -2.2508
    -2.2229  -2.1671  -2.1447  -2.1191  -2.1078  -2.0349  -2.0164  -1.9266
    -1.8938  -1.8804  -1.7633  -1.7280  -1.6934  -1.6800  -1.6710  -1.6642
    -1.6210  -1.6108  -1.6002  -1.5579  -1.4575  -1.4498  -1.4321  -1.3414
    -1.2439  -0.9938  -0.9627  -0.9122  -0.9009  -0.8226  -0.7839  -0.7522
    -0.7205  -0.6501  -0.6408  -0.6129  -0.5520  -0.4758  -0.4215  -0.3738
    -0.3397  -0.2279  -0.1780  -0.1339  -0.1015  -0.0645  -0.0020   0.0381
     0.0622   0.1053   0.1925   0.2547   0.2834   0.2998   0.3506   0.3928
     0.4304   0.4713   0.5428   0.5654   0.5755   0.6148   0.6231   0.6443
     0.7398   0.7583   0.8172   0.8440   0.9328   0.9638   1.0080   1.1774
     1.2468   1.3056   1.3841   1.4777   1.6379   1.6924   1.7173   1.8864
     2.2598   2.3052   3.7248   3.8722   3.8886   3.9660   3.9831   4.0472
     4.2138   4.2729   4.4103   4.4230

[...]

          k = 0.0380-0.0419 0.0000 ( 17876 PWs)   bands (ev):

[...]

          k =-0.0760-0.0000 0.0000 ( 17886 PWs)   bands (ev):

[...]

          k =-0.0760-0.0839 0.0000 ( 17948 PWs)   bands (ev):

   -55.4464 -55.3420 -55.3417 -55.2193 -55.2060 -55.1918 -55.1887 -55.1739
   -55.1708 -55.1245 -55.0976 -54.9846 -54.9406 -54.8990 -54.3169 -54.3168
   -31.7324 -31.6719 -31.6595 -31.6593 -31.6587 -31.6445 -31.6355 -31.6352
   -31.5786 -31.5335 -31.5119 -31.5009 -31.4956 -31.4907 -31.4675 -31.4619
   -31.4613 -31.4586 -31.4517 -31.4396 -31.4329 -31.4303 -31.4185 -31.3926
   -31.3880 -31.3858 -31.3782 -31.3702 -31.3519 -31.3465 -31.3431 -31.3428
   -31.3401 -31.3197 -31.3182 -31.2538 -31.2368 -31.2092 -31.1810 -31.1576
   -31.1513 -31.1101 -30.6439 -30.6438 -30.5530 -30.5527 -30.5143 -30.5142
   -17.7380 -16.3936 -15.5941 -15.4493 -15.3405 -15.3302 -15.2063 -15.1392
   -15.1294 -15.0960 -15.0730 -15.0519 -15.0327 -15.0176 -14.9634 -14.9228
   -14.8915 -14.8641 -14.8594 -14.8165 -14.8068 -14.7955 -14.7776 -14.7660
   -14.7108 -14.6746 -14.6650 -14.6067 -14.4672 -14.4470 -14.2908 -13.1768
   -12.8180 -12.8178  -9.4572  -6.4295  -5.7469  -4.2550  -3.9306  -2.9637
    -2.8033  -2.6606  -2.6035  -2.5650  -2.4517  -2.4271  -2.3694  -2.3191
    -2.2948  -2.2732  -2.2212  -2.2111  -2.1653  -2.1491  -2.1251  -2.1101
    -2.0937  -2.0874  -2.0592  -2.0434  -2.0331  -2.0202  -1.9932  -1.9821
    -1.9638  -1.9350  -1.9149  -1.9057  -1.8723  -1.8300  -1.7686  -1.6586
    -1.5839  -1.5729  -1.5295  -1.5046  -1.4883  -1.4472  -1.4347  -1.3936
    -1.3762  -1.3109  -1.1527  -1.1271  -1.1126  -0.9701  -0.9630  -0.9340
    -0.8599  -0.8181  -0.7963  -0.7386  -0.7087  -0.6681  -0.5915  -0.5481
    -0.4952  -0.4285  -0.3279  -0.3208  -0.3042  -0.2852  -0.2685  -0.2604
    -0.2272  -0.1899  -0.1169  -0.0712  -0.0615  -0.0555  -0.0044   0.0754
     0.1258   0.2404   0.3870   0.3912   0.4581   0.4593   0.6585   0.6659
     0.7443   0.7795   0.8144   0.8415   0.9351   0.9533   0.9907   1.0734
     1.1373   1.1668   1.1877   1.1924   1.2457   1.4610   2.0548   2.0626
     2.1255   2.1256   3.9656   4.1986   4.2391   4.2524   4.2707   4.2971
     4.3109   4.3251   4.3921   4.4150

     the Fermi energy is     3.7621 ev

!    total energy              =   -2976.46401409 Ry
     estimated scf accuracy    <       0.00000007 Ry
     smearing contrib. (-TS)   =      -0.01955702 Ry
     internal energy E=F+TS    =   -2976.44445708 Ry

     The total energy is F=E-TS. E is the sum of the following terms:
     one-electron contribution =  -23037.77440096 Ry
     hartree contribution      =   11616.58911336 Ry
     xc contribution           =    -495.73032053 Ry
     ewald contribution        =    8940.46833030 Ry
     electric field correction =       0.00282076 Ry

     convergence has been achieved in  87 iterations

     Forces acting on atoms (cartesian axes, Ry/au):

     atom    1 type  1   force =     0.00016465   -0.00023169    0.09415833
     atom    2 type  1   force =    -0.00010043    0.00018342   -0.17537743
     atom    3 type  2   force =     0.00005509   -0.00048474   -0.02105311
     atom    4 type  2   force =    -0.00002454   -0.00093614    0.05424511
     atom    5 type  2   force =    -0.00486749   -0.00216023    0.00106724
     atom    6 type  2   force =     0.00669034   -0.00138611    0.00108320
     atom    7 type  1   force =     0.00006128    0.00329668    0.00866818
     atom    8 type  1   force =    -0.00010006    0.00119665    0.00271476
     atom    9 type  2   force =    -0.00021947   -0.00030960   -0.00059091
     atom   10 type  2   force =    -0.00111898    0.00430119   -0.01023541
     atom   11 type  2   force =    -0.00006974   -0.00055447   -0.00009971
     atom   12 type  2   force =     0.00061348   -0.00031993   -0.00026171
     atom   13 type  1   force =    -0.00142892    0.00018552   -0.00058521
     atom   14 type  1   force =     0.00070846    0.00016366   -0.00048029
     atom   15 type  2   force =     0.00012639   -0.00001935    0.00003938
     atom   16 type  2   force =    -0.00010056   -0.00070091   -0.00036692
     atom   17 type  2   force =    -0.00042616    0.00070208    0.00007187
     atom   18 type  2   force =    -0.00072934    0.00030204   -0.00020717
     atom   19 type  1   force =     0.00036244   -0.00101753    0.00054090
     atom   20 type  1   force =    -0.00070003   -0.00004004    0.00054688
     atom   21 type  2   force =     0.00003880   -0.00001063    0.10321460
     atom   22 type  2   force =    -0.00013821    0.00001243    0.00042861
     atom   23 type  2   force =    -0.07201226   -0.00020205   -0.02725891
     atom   24 type  2   force =     0.07188757    0.00025446   -0.02732873
     atom   25 type  1   force =     0.00007538   -0.00016352    0.09389066
     atom   26 type  1   force =    -0.00011966   -0.00136616   -0.17551134
     atom   27 type  2   force =     0.00011141   -0.00006168   -0.01986435
     atom   28 type  2   force =     0.00006413   -0.00105009    0.04979360
     atom   29 type  2   force =    -0.00745462    0.00209350    0.00339195
     atom   30 type  2   force =     0.00905849    0.00223522    0.00331054
     atom   31 type  1   force =     0.00019505    0.00152193    0.00005668
     atom   32 type  1   force =    -0.00008764   -0.00226589    0.00301965
     atom   33 type  2   force =    -0.00017541   -0.00030071   -0.00002207
     atom   34 type  2   force =    -0.00117074   -0.00219408   -0.00962917
     atom   35 type  2   force =     0.00064197    0.00005685   -0.00021460
     atom   36 type  2   force =     0.00037245    0.00011668   -0.00034247
     atom   37 type  1   force =    -0.00096057    0.00025334    0.00034043
     atom   38 type  1   force =     0.00096204   -0.00020909    0.00020005
     atom   39 type  2   force =    -0.00017588   -0.00050961    0.00009103
     atom   40 type  2   force =    -0.00019674   -0.00019170   -0.00014075
     atom   41 type  2   force =     0.00023397   -0.00025267    0.00004429
     atom   42 type  2   force =    -0.00063583    0.00005544   -0.00008933
     atom   43 type  1   force =     0.00001243    0.00126594   -0.00000230
     atom   44 type  1   force =    -0.00033865    0.00082573    0.00009878
     atom   45 type  2   force =     0.00002347    0.00003535    0.10302681
     atom   46 type  2   force =    -0.07196317   -0.00007617   -0.02721780
     atom   47 type  2   force =     0.07185310    0.00035469   -0.02730215
     atom   48 type  3   force =     0.00001147   -0.00097662   -0.00077951
     atom   49 type  3   force =    -0.00032631   -0.00022029   -0.00047729
     atom   50 type  4   force =     0.00004798   -0.00012052    0.00021982
     atom   51 type  5   force =    -0.00102895   -0.00020558    0.00047091
     atom   52 type  5   force =     0.00057612   -0.00007015    0.00035308
     atom   53 type  5   force =    -0.00019628    0.00063081   -0.00044805
     atom   54 type  5   force =     0.00063714   -0.00024989    0.00002621
     atom   55 type  5   force =     0.00054499   -0.00060675    0.00010613
     atom   56 type  5   force =     0.00063808   -0.00001863   -0.00004457
     atom   57 type  2   force =    -0.00357724    0.00605320   -0.00519900
     atom   58 type  5   force =     0.00367565   -0.00661365    0.00591059

     Total force =     0.362240     Total SCF correction =     0.000637
  @ DRIVER MODE: Message from server: STATUS
  @ DRIVER MODE: Message from server: GETFORCE
  @ DRIVER MODE: Returning v,forces,stress,ensemble

     Writing output data file ./calc.save/
  @ DRIVER MODE: Message from server: EXIT
  @ DRIVE MODE: Exiting

     General routines

     Parallel routines

   This run was terminated on:  20:58: 4  24Sep2021

   JOB DONE.