     Program PWSCF v.6.7GPU starts on 24Aug2021 at 11: 5:10

     R & G space division:  proc/nbgrp/npool/nimage =      72
     Reading input from /storage/home/hcoda1/3/ntian30/research/carbon/CH2_vib/ads_slab/CH2NH_a/out_0004/pw.inp
Warning: card &CELL ignored
Warning: card   CELL_DYNAMICS='IPI', ignored
Warning: card / ignored

     Current dimensions of program PWSCF are:
     Max number of different atomic species (ntypx) = 10
     Max number of k-points (npk) =  40000
     Max angular momentum in pseudopotentials (lmaxx) =  3
     Presently no symmetry can be used with electric field

     Message from routine cell_base_init:
     DEPRECATED: use true lattice parameter, not A to a.u. conversion factor

     IMPORTANT: XC functional enforced from input :
     Exchange-correlation= BEEF-VDW
                           (   1   4  43  14   2   0   0)
     Any further DFT definition will be discarded
     Please, verify this is what you really want

  @ DRIVER MODE: Connecting to
 qe_1139763_2641438.sched-torque.pace.gatech.edueymzrw9a_scratch
  using UNIX socket
  @ DRIVER MODE: Message from server: STATUS
  @ DRIVER MODE: Message from server: INIT
  @ DRIVER MODE: Receiving replica           0          -1
  @ DRIVER MODE: Receiving encoded integer          25
  @ DRIVER MODE:  SCF:  T  FORCE:  T  STRESS:  F  VC:  F  ENSEMBLE:  F
  @ DRIVER MODE:  SCF:  T  FORCE:  T  STRESS:  F  VC:  F  ENSEMBLE:  F

     Using Slab Decomposition

     bravais-lattice index     =            0
     lattice parameter (alat)  =       1.8897  a.u.
     unit-cell volume          =    6658.9804 (a.u.)^3
     number of atoms/cell      =           52
     number of atomic types    =            5
     number of electrons       =       390.00
     number of Kohn-Sham states=          205
     kinetic-energy cutoff     =      29.3995  Ry
     charge density cutoff     =     293.9946  Ry
     scf convergence threshold =      7.3E-08
     mixing beta               =       0.0500
     number of iterations used =            8  plain     mixing
     Exchange-correlation= BEEF-VDW
                           (   1   4  43  14   2   0   0)

     celldm(1)=   1.889726  celldm(2)=   0.000000  celldm(3)=   0.000000
     celldm(4)=   0.000000  celldm(5)=   0.000000  celldm(6)=   0.000000

     crystal axes: (cart. coord. in units of alat)
               a(1) = (   6.579727   0.000000   0.000000 )
               a(2) = (  -0.000775   5.961596   0.000000 )
               a(3) = (   0.000000   0.000000  25.155947 )

     reciprocal axes: (cart. coord. in units 2 pi/alat)
               b(1) = (  0.151982  0.000020  0.000000 )
               b(2) = (  0.000000  0.167740  0.000000 )
               b(3) = (  0.000000  0.000000  0.039752 )

     PseudoPot. # 1 for Ti read from file:
     /storage/coda1/p-amedford6/0/shared/rich_project_chbe-medford/medford-share/data/pseudos_module/espresso/nninc/pbe/van/Ti.UPF
     MD5 check sum: 8e4df49b7f0d34bbd5052bf3f5ea0213
     Pseudo is Ultrasoft, Zval = 12.0
     Generated by new atomic code, or converted to UPF format
     Using radial grid of  851 points,  6 beta functions with:
                l(1) =   0
                l(2) =   0
                l(3) =   1
                l(4) =   1
                l(5) =   2
                l(6) =   2
     Q(r) pseudized with  8 coefficients,  rinner =    1.000   1.000   1.000
                                                       1.000   1.000

     PseudoPot. # 2 for O  read from file:
     /storage/coda1/p-amedford6/0/shared/rich_project_chbe-medford/medford-share/data/pseudos_module/espresso/nninc/pbe/van/O.UPF
     MD5 check sum: 78c19812648e8988a0fe644b0f25305e
     Pseudo is Ultrasoft, Zval =  6.0
     Generated by new atomic code, or converted to UPF format
     Using radial grid of  737 points,  4 beta functions with:
                l(1) =   0
                l(2) =   0
                l(3) =   1
                l(4) =   1
     Q(r) pseudized with  8 coefficients,  rinner =    0.800   0.800   0.800

     PseudoPot. # 3 for N  read from file:
     /storage/coda1/p-amedford6/0/shared/rich_project_chbe-medford/medford-share/data/pseudos_module/espresso/nninc/pbe/van/N.UPF
     MD5 check sum: 90d10febe142ad51ac9d5be1deb811c4
     Pseudo is Ultrasoft, Zval =  5.0
     Generated by new atomic code, or converted to UPF format
     Using radial grid of  729 points,  4 beta functions with:
                l(1) =   0
                l(2) =   0
                l(3) =   1
                l(4) =   1
     Q(r) pseudized with  8 coefficients,  rinner =    0.800   0.800   0.800

     PseudoPot. # 4 for C  read from file:
     /storage/coda1/p-amedford6/0/shared/rich_project_chbe-medford/medford-share/data/pseudos_module/espresso/nninc/pbe/van/C.UPF
     MD5 check sum: 1a69bf6b8db32088f5b2163dbdb77a27
     Pseudo is Ultrasoft, Zval =  4.0
     Generated by new atomic code, or converted to UPF format
     Using radial grid of  721 points,  4 beta functions with:
                l(1) =   0
                l(2) =   0
                l(3) =   1
                l(4) =   1
     Q(r) pseudized with  8 coefficients,  rinner =    0.800   0.800   0.800

     PseudoPot. # 5 for H  read from file:
     /storage/coda1/p-amedford6/0/shared/rich_project_chbe-medford/medford-share/data/pseudos_module/espresso/nninc/pbe/van/H.UPF
     MD5 check sum: b5ee9d7bfd3a09ee7748110bda690ff7
     Pseudo is Ultrasoft, Zval =  1.0
     Generated by new atomic code, or converted to UPF format
     Using radial grid of  615 points,  1 beta functions with:
                l(1) =   0
     Q(r) pseudized with  8 coefficients,  rinner =    0.800

     atomic species   valence    mass     pseudopotential
        Ti1           12.00    47.86700     Ti( 1.00)
        O1             6.00    15.99900     O ( 1.00)
        N1             5.00    14.00700     N ( 1.00)
        C1             4.00    12.01100     C ( 1.00)
        H1             1.00     1.00800     H ( 1.00)

     No symmetry found

   Cartesian axes

     site n.     atom                  positions (alat units)
         1           Ti1 tau(   1) = (   0.0004258   2.9801865   6.0000000  )
         2           Ti1 tau(   2) = (   3.2906075   1.4906267   6.0002472  )
         3           O1  tau(   3) = (   0.0006271   0.0005054   7.9858123  )
         4           O1  tau(   4) = (   3.2906025   0.0005020   7.3038282  )
         5           O1  tau(   5) = (   4.5942328   1.4918067   9.2879030  )
         6           O1  tau(   6) = (   1.9868534   1.4903216   9.2879459  )
         7           Ti1 tau(   7) = (   3.2907910   2.8959150   9.1758416  )
         8           Ti1 tau(   8) = (   0.0015273   1.4827037   9.2680791  )
         9           O1  tau(   9) = (   3.2859541   5.9290403  11.3715426  )
        10           O1  tau(  10) = (   0.0116148   5.9584955  10.6183126  )
        11           O1  tau(  11) = (   1.2917987   1.4688796  12.6526629  )
        12           O1  tau(  12) = (   5.2888266   1.4686376  12.6403033  )
        13           Ti1 tau(  13) = (   0.0074927   2.9495069  12.5376589  )
        14           Ti1 tau(  14) = (   3.2957121   1.4606513  12.5174744  )
        15           O1  tau(  15) = (   6.5702453   0.0264740  14.6787910  )
        16           O1  tau(  16) = (   3.3001739   5.9406727  13.9930656  )
        17           O1  tau(  17) = (   4.5367710   1.4643441  16.2106543  )
        18           O1  tau(  18) = (   2.0349547   1.4576396  16.1973481  )
        19           Ti1 tau(  19) = (   3.2821410   2.9383233  15.7467721  )
        20           Ti1 tau(  20) = (   6.5624771   1.3975196  16.0657228  )
        21           O1  tau(  21) = (   3.2904802   0.0005063   4.7018136  )
        22           O1  tau(  22) = (   0.0049924   5.8117904  17.2112648  )
        23           O1  tau(  23) = (   1.3043587   1.4918075   6.0039043  )
        24           O1  tau(  24) = (   5.2767064   1.4903225   6.0039473  )
        25           Ti1 tau(  25) = (   0.0000382   5.9609847   6.0000000  )
        26           Ti1 tau(  26) = (   3.2902200   4.4714249   6.0002472  )
        27           O1  tau(  27) = (   0.0002396   2.9813036   7.9858123  )
        28           O1  tau(  28) = (   3.2902150   2.9813002   7.3038282  )
        29           O1  tau(  29) = (   4.5938453   4.4726049   9.2879030  )
        30           O1  tau(  30) = (   1.9864658   4.4711199   9.2879459  )
        31           Ti1 tau(  31) = (   3.2891106   5.8743827   9.1763621  )
        32           Ti1 tau(  32) = (   0.0006254   4.4649316   9.2693709  )
        33           O1  tau(  33) = (   3.2878059   2.9597088  11.3652031  )
        34           O1  tau(  34) = (   0.0092240   2.9805883  10.6323155  )
        35           O1  tau(  35) = (   1.2887225   4.4431869  12.6829221  )
        36           O1  tau(  36) = (   5.2901277   4.4428847  12.6690855  )
        37           Ti1 tau(  37) = (   0.0035388   5.9380168  12.5099366  )
        38           Ti1 tau(  38) = (   3.2962120   4.4389810  12.5267566  )
        39           O1  tau(  39) = (   6.5655450   2.9014274  14.9049457  )
        40           O1  tau(  40) = (   3.2937888   2.9365130  13.9572806  )
        41           O1  tau(  41) = (   4.5374039   4.4072578  16.1608974  )
        42           O1  tau(  42) = (   2.0345115   4.4188705  16.1151926  )
        43           Ti1 tau(  43) = (   3.2925710   5.9161036  15.7896908  )
        44           Ti1 tau(  44) = (   0.0121651   4.6006060  15.8502786  )
        45           O1  tau(  45) = (   3.2900926   2.9813045   4.7018136  )
        46           O1  tau(  46) = (   1.3039711   4.4726057   6.0039043  )
        47           O1  tau(  47) = (   5.2763189   4.4711207   6.0039473  )
        48           N1  tau(  48) = (   6.5581919   2.6918180  17.9522317  )
        49           C1  tau(  49) = (   0.8403426   2.5546117  18.8965076  )
        50           H1  tau(  50) = (   0.6793733   2.9585088  19.8916666  )
        51           H1  tau(  51) = (   1.7584391   2.0155774  18.6961775  )
        52           H1  tau(  52) = (   5.7198555   3.1867788  18.2393814  )

     number of k points=    10  Fermi-Dirac smearing, width (Ry)=  0.0073
                       cart. coord. in units 2pi/alat
        k(    1) = (   0.0000000   0.0000000   0.0000000), wk =   0.1250000
        k(    2) = (   0.0000000   0.0419351   0.0000000), wk =   0.2500000
        k(    3) = (   0.0000000  -0.0838702   0.0000000), wk =   0.1250000
        k(    4) = (   0.0379955   0.0000049   0.0000000), wk =   0.2500000
        k(    5) = (   0.0379955   0.0419400   0.0000000), wk =   0.2500000
        k(    6) = (   0.0379955  -0.0838652   0.0000000), wk =   0.2500000
        k(    7) = (   0.0379955  -0.0419301   0.0000000), wk =   0.2500000
        k(    8) = (  -0.0759910  -0.0000099   0.0000000), wk =   0.1250000
        k(    9) = (  -0.0759910   0.0419252   0.0000000), wk =   0.2500000
        k(   10) = (  -0.0759910  -0.0838800   0.0000000), wk =   0.1250000

     Initial potential from superposition of free atoms

     starting charge  373.99917, renormalised to  390.00000

     negative rho (up, down):  1.699E-02 0.000E+00

     %%%%%%%%%%%%%%%%%%%%%%%%%%%%%%%%%%%%%%%%%%%%%%%%%%%%%%%%%%%%%%%%%%%%%%%%
     %                                                                      %
     % You are using vdW-DF, which was implemented by the Thonhauser group. %
     % Please cite the following two papers that made this development      %
     % possible and the two reviews that describe the various versions:     %
     %                                                                      %
     %   T. Thonhauser et al., PRL 115, 136402 (2015).                      %
     %   T. Thonhauser et al., PRB 76, 125112 (2007).                       %
     %   K. Berland et al., Rep. Prog. Phys. 78, 066501 (2015).             %
     %   D.C. Langreth et al., J. Phys.: Condens. Matter 21, 084203 (2009). %
     %                                                                      %
     %                                                                      %
     % If you are calculating the stress with vdW-DF, please also cite:     %
     %                                                                      %
     %   R. Sabatini et al., J. Phys.: Condens. Matter 24, 424209 (2012).   %
     %                                                                      %
     %%%%%%%%%%%%%%%%%%%%%%%%%%%%%%%%%%%%%%%%%%%%%%%%%%%%%%%%%%%%%%%%%%%%%%%%

     Adding external electric field

     Computed dipole along edir(3) :
        Dipole               -6.0480 Ry au,        -15.3725 Debye
        Dipole field         -0.0114 Ry au,

        Potential amp.        1.0580 Ry
        Total length         46.3494 bohr

     Starting wfcs are  295 atomic wfcs
  @ DRIVER MODE: Message from server: STATUS
  @ DRIVER MODE: Message from server: POSDATA
  @ DRIVER MODE: Reading and sharing cell
  @ DRIVER MODE: Reading and sharing positions
  @ DRIVER MODE: Received positions

     Self-consistent Calculation

     iteration #  1     ecut=    29.40 Ry     beta= 0.05
     Davidson diagonalization with overlap
     c_bands:  1 eigenvalues not converged
     c_bands:  1 eigenvalues not converged
     ethr =  1.00E-05,  avg # of iterations = 16.8

[...]

     total energy              =   -2758.76674934 Ry
     estimated scf accuracy    <    1760.48978888 Ry

     iteration #  2     ecut=    29.40 Ry     beta= 0.05
     Davidson diagonalization with overlap
     ethr =  1.00E-02,  avg # of iterations = 18.2

[...]

     iteration # 46     ecut=    29.40 Ry     beta= 0.05
     Davidson diagonalization with overlap
     c_bands:  2 eigenvalues not converged
     ethr =  4.09E-08,  avg # of iterations = 14.7

[...]

     total energy              =   -2919.11580432 Ry
     estimated scf accuracy    <       0.00000009 Ry

     iteration # 68     ecut=    29.40 Ry     beta= 0.05
     Davidson diagonalization with overlap
     ethr =  2.27E-11,  avg # of iterations =  2.8

     negative rho (up, down):  1.721E-02 0.000E+00

     Adding external electric field

     Computed dipole along edir(3) :
        Dipole                1.2610 Ry au,          3.2051 Debye
        Dipole field          0.0024 Ry au,

        Potential amp.       -0.2206 Ry
        Total length         46.3494 bohr

     End of self-consistent calculation

          k = 0.0000 0.0000 0.0000 ( 18029 PWs)   bands (ev):

   -55.5465 -55.5098 -55.5081 -55.4740 -55.4386 -55.4219 -55.3844 -55.3617
   -55.3616 -55.3367 -55.3272 -55.3158 -55.3032 -55.1306 -54.5292 -54.4951
   -32.1132 -31.9991 -31.9094 -31.8677 -31.8614 -31.8509 -31.8417 -31.8371
   -31.7978 -31.7862 -31.7548 -31.7530 -31.7527 -31.7174 -31.6998 -31.6818
   -31.6767 -31.6687 -31.6626 -31.6586 -31.6205 -31.6173 -31.6020 -31.5919
   -31.5651 -31.5637 -31.5631 -31.5535 -31.5488 -31.5435 -31.5331 -31.5247
   -31.5155 -31.5149 -31.5106 -31.4828 -31.4760 -31.4697 -31.4652 -31.4465
   -31.3542 -31.2727 -30.9383 -30.8449 -30.8228 -30.7546 -30.6679 -30.5570
   -16.5436 -16.3421 -16.0761 -15.8992 -15.7958 -15.7355 -15.5990 -15.5233
   -15.4455 -15.3430 -15.2524 -15.1858 -15.1695 -15.1490 -15.1442 -15.0836
   -15.0800 -15.0550 -15.0384 -15.0369 -14.9824 -14.9750 -14.9433 -14.9312
   -14.9203 -14.8473 -14.7638 -14.6950 -14.6347 -14.2072 -13.0318 -12.9145
    -9.3253  -6.2678  -4.6963  -3.7010  -3.5478  -3.4537  -3.4424  -3.4209
    -3.2722  -3.1342  -2.9278  -2.8479  -2.8012  -2.7518  -2.7239  -2.7062
    -2.6186  -2.5212  -2.4456  -2.4014  -2.3760  -2.3632  -2.3525  -2.3254
    -2.3132  -2.2799  -2.2409  -2.1967  -2.0945  -2.0068  -1.9652  -1.9310
    -1.8744  -1.8624  -1.8363  -1.8302  -1.8236  -1.8017  -1.7635  -1.7532
    -1.7061  -1.5650  -1.5533  -1.4361  -1.3972  -1.2826  -1.1819  -1.1806
    -1.0940  -1.0906  -1.0224  -0.9675  -0.9379  -0.9296  -0.8790  -0.8306
    -0.7413  -0.6482  -0.5864  -0.5447  -0.5098  -0.4805  -0.4129  -0.3223
    -0.3169  -0.3065  -0.2044  -0.1250  -0.1028  -0.0497  -0.0177   0.0255
     0.0416   0.1521   0.1952   0.2364   0.2545   0.3330   0.3550   0.4106
     0.4158   0.4509   0.4601   0.5267   0.5733   0.5927   0.6428   0.6616
     0.8199   1.0723   1.0798   1.1273   1.4024   1.4328   1.4933   1.6783
     2.0689   2.1167   3.5532   3.6256   3.6907   3.7034   3.7449   3.7901
     3.9575   4.0379   4.0544   4.0587   4.0901

[...]

          k = 0.0380-0.0419 0.0000 ( 17876 PWs)   bands (ev):

[...]

          k =-0.0760-0.0000 0.0000 ( 17886 PWs)   bands (ev):

[...]

          k =-0.0760-0.0839 0.0000 ( 17948 PWs)   bands (ev):

   -55.5319 -55.5242 -55.4910 -55.4909 -55.4346 -55.4107 -55.3956 -55.3655
   -55.3455 -55.3428 -55.3206 -55.3197 -55.3141 -55.1322 -54.5121 -54.5121
   -31.9196 -31.9144 -31.8303 -31.8142 -31.8141 -31.8058 -31.7833 -31.7831
   -31.7605 -31.7531 -31.7459 -31.7442 -31.7388 -31.7006 -31.6791 -31.6758
   -31.6716 -31.6673 -31.6635 -31.6586 -31.6540 -31.6347 -31.6208 -31.6203
   -31.6105 -31.6104 -31.6078 -31.5908 -31.5784 -31.5753 -31.5648 -31.5588
   -31.5561 -31.5560 -31.5451 -31.5450 -31.5129 -31.5001 -31.4992 -31.4886
   -31.3592 -31.3535 -30.8354 -30.8354 -30.7508 -30.7507 -30.7113 -30.7112
   -16.5201 -15.7808 -15.7473 -15.7313 -15.5277 -15.5194 -15.5114 -15.4936
   -15.3330 -15.3191 -15.2931 -15.2768 -15.2450 -15.2416 -15.2108 -15.1787
   -15.1256 -15.1211 -15.1128 -15.1105 -15.0507 -15.0465 -15.0262 -14.9975
   -14.9956 -14.9895 -14.8948 -14.8928 -14.7195 -14.5276 -13.0161 -13.0160
    -9.3295  -6.2634  -4.6790  -3.0558  -2.9945  -2.9343  -2.7372  -2.7337
    -2.7028  -2.6208  -2.5512  -2.5389  -2.5129  -2.4837  -2.4811  -2.4336
    -2.3892  -2.3790  -2.3683  -2.3608  -2.3423  -2.3282  -2.2996  -2.2631
    -2.2543  -2.2233  -2.2106  -2.1850  -2.1832  -2.1469  -2.1231  -2.1089
    -2.0971  -2.0317  -1.9330  -1.8816  -1.7950  -1.7664  -1.7403  -1.7342
    -1.6499  -1.6253  -1.5978  -1.5573  -1.5442  -1.5109  -1.3080  -1.2783
    -1.2685  -1.2545  -1.2306  -1.0814  -1.0718  -1.0218  -0.9906  -0.9440
    -0.8857  -0.8497  -0.8343  -0.7515  -0.7221  -0.6769  -0.6377  -0.5147
    -0.5115  -0.5043  -0.5030  -0.4851  -0.3985  -0.3864  -0.3436  -0.3102
    -0.2692  -0.2549  -0.1899  -0.0079   0.0090   0.0753   0.1819   0.2762
     0.3704   0.4499   0.4703   0.5213   0.5634   0.5838   0.6631   0.7561
     0.7680   0.8363   0.8823   0.9234   0.9276   0.9328   1.8512   1.8518
     1.9365   1.9367   3.6765   3.8011   3.8216   3.8597   3.8777   4.0267
     4.0728   4.1105   4.1324   4.1347   4.2169

     the Fermi energy is     3.6085 ev

!    total energy              =   -2919.11582429 Ry
     estimated scf accuracy    <       0.00000007 Ry
     smearing contrib. (-TS)   =      -0.03732409 Ry
     internal energy E=F+TS    =   -2919.07850019 Ry

     The total energy is F=E-TS. E is the sum of the following terms:
     one-electron contribution =  -24307.19975756 Ry
     hartree contribution      =   12240.99902257 Ry
     xc contribution           =    -480.01679357 Ry
     ewald contribution        =    9627.13602762 Ry
     electric field correction =       0.00300074 Ry

     convergence has been achieved in  68 iterations

     Forces acting on atoms (cartesian axes, Ry/au):

     atom    1 type  1   force =     0.00005350   -0.00015394    0.09379415
     atom    2 type  1   force =    -0.00018312   -0.00019147   -0.17778201
     atom    3 type  2   force =     0.00002545   -0.00021622   -0.02113527
     atom    4 type  2   force =    -0.00001552   -0.00198687    0.05774278
     atom    5 type  2   force =    -0.01106731   -0.00165380    0.00750334
     atom    6 type  2   force =     0.01242898   -0.00098852    0.00638501
     atom    7 type  1   force =    -0.00047705    0.00247531   -0.01334856
     atom    8 type  1   force =     0.00029495    0.00293029    0.00274847
     atom    9 type  2   force =     0.00007560   -0.00007717    0.00013216
     atom   10 type  2   force =    -0.00176429   -0.00226944   -0.00366244
     atom   11 type  2   force =     0.00016860    0.00059614   -0.00028032
     atom   12 type  2   force =     0.00044093    0.00053316   -0.00009769
     atom   13 type  1   force =    -0.00072610   -0.00095342   -0.00028100
     atom   14 type  1   force =     0.00082402    0.00026126   -0.00050094
     atom   15 type  2   force =     0.00022425    0.00050460    0.00005156
     atom   16 type  2   force =    -0.00007988    0.00035382   -0.00064332
     atom   17 type  2   force =     0.00013009    0.00013623    0.00040153
     atom   18 type  2   force =     0.00045939    0.00002534    0.00024052
     atom   19 type  1   force =     0.00021067   -0.00082149    0.00037998
     atom   20 type  1   force =    -0.00000861    0.00092625    0.00057103
     atom   21 type  2   force =     0.00004457   -0.00002411    0.10379293
     atom   22 type  2   force =    -0.00001683    0.00000795    0.00001702
     atom   23 type  2   force =    -0.07057062   -0.00014547   -0.02706259
     atom   24 type  2   force =     0.07044883    0.00032017   -0.02710717
     atom   25 type  1   force =     0.00009027   -0.00017879    0.09359049
     atom   26 type  1   force =    -0.00008984   -0.00027380   -0.17781554
     atom   27 type  2   force =     0.00008268   -0.00045384   -0.02016477
     atom   28 type  2   force =     0.00002515   -0.00168933    0.05723243
     atom   29 type  2   force =    -0.01116158   -0.00115158    0.00696326
     atom   30 type  2   force =     0.01241300   -0.00080894    0.00582606
     atom   31 type  1   force =    -0.00039165    0.00467434   -0.01442999
     atom   32 type  1   force =     0.00037368   -0.00362000    0.00245445
     atom   33 type  2   force =    -0.00000544    0.00057820    0.00039642
     atom   34 type  2   force =    -0.00117684   -0.00059160   -0.00104487
     atom   35 type  2   force =     0.00038891    0.00026293    0.00021733
     atom   36 type  2   force =     0.00014260    0.00033294    0.00018341
     atom   37 type  1   force =    -0.00053159    0.00132801    0.00007081
     atom   38 type  1   force =     0.00087900    0.00007605   -0.00086032
     atom   39 type  2   force =     0.00013860    0.00041031    0.00010778
     atom   40 type  2   force =     0.00018024    0.00019656   -0.00054437
     atom   41 type  2   force =     0.00014679    0.00014659   -0.00077112
     atom   42 type  2   force =     0.00001217    0.00012098   -0.00082998
     atom   43 type  1   force =    -0.00001621    0.00093004    0.00014318
     atom   44 type  1   force =    -0.00011482   -0.00034123   -0.00024374
     atom   45 type  2   force =     0.00004417   -0.00003828    0.10376335
     atom   46 type  2   force =    -0.07059151   -0.00006736   -0.02705658
     atom   47 type  2   force =     0.07046538    0.00034986   -0.02708582
     atom   48 type  3   force =     0.00723076   -0.00799387   -0.00328979
     atom   49 type  4   force =    -0.00362695    0.00282025   -0.00105494
     atom   50 type  5   force =    -0.00012429    0.00053112    0.00081780
     atom   51 type  5   force =    -0.00046031    0.00018730   -0.00025921
     atom   52 type  5   force =    -0.00524286    0.00467457    0.00182506

     Total force =     0.366128     Total SCF correction =     0.000921
  @ DRIVER MODE: Message from server: STATUS
  @ DRIVER MODE: Message from server: GETFORCE
  @ DRIVER MODE: Returning v,forces,stress,ensemble

     Writing output data file ./calc.save/
  @ DRIVER MODE: Message from server: EXIT
  @ DRIVE MODE: Exiting

     General routines

     Parallel routines

   This run was terminated on:  11:28:50  24Aug2021

   JOB DONE.