     Program PWSCF v.6.7GPU starts on 16Jul2021 at 10:19:38

     R & G space division:  proc/nbgrp/npool/nimage =      16
     Reading input from /storage/home/hcoda1/3/ntian30/research/carbon/15Jul_vib/ads_slab/CH3N2_b/out_0030/pw.inp
Warning: card &CELL ignored
Warning: card   CELL_DYNAMICS='IPI', ignored
Warning: card / ignored

     Current dimensions of program PWSCF are:
     Max number of different atomic species (ntypx) = 10
     Max number of k-points (npk) =  40000
     Max angular momentum in pseudopotentials (lmaxx) =  3
     Presently no symmetry can be used with electric field

     Message from routine cell_base_init:
     DEPRECATED: use true lattice parameter, not A to a.u. conversion factor

     IMPORTANT: XC functional enforced from input :
     Exchange-correlation= BEEF-VDW
                           (   1   4  43  14   2   0   0)
     Any further DFT definition will be discarded
     Please, verify this is what you really want

  @ DRIVER MODE: Connecting to
 qe_1139763_2351645.sched-torque.pace.gatech.edukfrze0kk_scratch
  using UNIX socket
  @ DRIVER MODE: Message from server: STATUS
  @ DRIVER MODE: Message from server: INIT
  @ DRIVER MODE: Receiving replica           0          -1
  @ DRIVER MODE: Receiving encoded integer          25
  @ DRIVER MODE:  SCF:  T  FORCE:  T  STRESS:  F  VC:  F  ENSEMBLE:  F
  @ DRIVER MODE:  SCF:  T  FORCE:  T  STRESS:  F  VC:  F  ENSEMBLE:  F

     Using Slab Decomposition

     bravais-lattice index     =            0
     lattice parameter (alat)  =       1.8897  a.u.
     unit-cell volume          =    6658.9804 (a.u.)^3
     number of atoms/cell      =           53
     number of atomic types    =            5
     number of electrons       =       395.00
     number of Kohn-Sham states=          207
     kinetic-energy cutoff     =      29.3995  Ry
     charge density cutoff     =     293.9946  Ry
     scf convergence threshold =      7.3E-08
     mixing beta               =       0.0500
     number of iterations used =            8  plain     mixing
     Exchange-correlation= BEEF-VDW
                           (   1   4  43  14   2   0   0)

     celldm(1)=   1.889726  celldm(2)=   0.000000  celldm(3)=   0.000000
     celldm(4)=   0.000000  celldm(5)=   0.000000  celldm(6)=   0.000000

     crystal axes: (cart. coord. in units of alat)
               a(1) = (   6.579727   0.000000   0.000000 )
               a(2) = (  -0.000775   5.961596   0.000000 )
               a(3) = (   0.000000   0.000000  25.155947 )

     reciprocal axes: (cart. coord. in units 2 pi/alat)
               b(1) = (  0.151982  0.000020  0.000000 )
               b(2) = (  0.000000  0.167740  0.000000 )
               b(3) = (  0.000000  0.000000  0.039752 )

     PseudoPot. # 1 for Ti read from file:
     /storage/coda1/p-amedford6/0/shared/rich_project_chbe-medford/medford-share/data/pseudos_module/espresso/nninc/pbe/van/Ti.UPF
     MD5 check sum: 8e4df49b7f0d34bbd5052bf3f5ea0213
     Pseudo is Ultrasoft, Zval = 12.0
     Generated by new atomic code, or converted to UPF format
     Using radial grid of  851 points,  6 beta functions with:
                l(1) =   0
                l(2) =   0
                l(3) =   1
                l(4) =   1
                l(5) =   2
                l(6) =   2
     Q(r) pseudized with  8 coefficients,  rinner =    1.000   1.000   1.000
                                                       1.000   1.000

     PseudoPot. # 2 for O  read from file:
     /storage/coda1/p-amedford6/0/shared/rich_project_chbe-medford/medford-share/data/pseudos_module/espresso/nninc/pbe/van/O.UPF
     MD5 check sum: 78c19812648e8988a0fe644b0f25305e
     Pseudo is Ultrasoft, Zval =  6.0
     Generated by new atomic code, or converted to UPF format
     Using radial grid of  737 points,  4 beta functions with:
                l(1) =   0
                l(2) =   0
                l(3) =   1
                l(4) =   1
     Q(r) pseudized with  8 coefficients,  rinner =    0.800   0.800   0.800

     PseudoPot. # 3 for N  read from file:
     /storage/coda1/p-amedford6/0/shared/rich_project_chbe-medford/medford-share/data/pseudos_module/espresso/nninc/pbe/van/N.UPF
     MD5 check sum: 90d10febe142ad51ac9d5be1deb811c4
     Pseudo is Ultrasoft, Zval =  5.0
     Generated by new atomic code, or converted to UPF format
     Using radial grid of  729 points,  4 beta functions with:
                l(1) =   0
                l(2) =   0
                l(3) =   1
                l(4) =   1
     Q(r) pseudized with  8 coefficients,  rinner =    0.800   0.800   0.800

     PseudoPot. # 4 for C  read from file:
     /storage/coda1/p-amedford6/0/shared/rich_project_chbe-medford/medford-share/data/pseudos_module/espresso/nninc/pbe/van/C.UPF
     MD5 check sum: 1a69bf6b8db32088f5b2163dbdb77a27
     Pseudo is Ultrasoft, Zval =  4.0
     Generated by new atomic code, or converted to UPF format
     Using radial grid of  721 points,  4 beta functions with:
                l(1) =   0
                l(2) =   0
                l(3) =   1
                l(4) =   1
     Q(r) pseudized with  8 coefficients,  rinner =    0.800   0.800   0.800

     PseudoPot. # 5 for H  read from file:
     /storage/coda1/p-amedford6/0/shared/rich_project_chbe-medford/medford-share/data/pseudos_module/espresso/nninc/pbe/van/H.UPF
     MD5 check sum: b5ee9d7bfd3a09ee7748110bda690ff7
     Pseudo is Ultrasoft, Zval =  1.0
     Generated by new atomic code, or converted to UPF format
     Using radial grid of  615 points,  1 beta functions with:
                l(1) =   0
     Q(r) pseudized with  8 coefficients,  rinner =    0.800

     atomic species   valence    mass     pseudopotential
        Ti1           12.00    47.86700     Ti( 1.00)
        O1             6.00    15.99900     O ( 1.00)
        N1             5.00    14.00700     N ( 1.00)
        C1             4.00    12.01100     C ( 1.00)
        H1             1.00     1.00800     H ( 1.00)

     Starting magnetic structure
     atomic species   magnetization
        Ti1          0.000
        O1           0.000
        N1           0.000
        C1           0.025
        H1           0.000

     No symmetry found

   Cartesian axes

     site n.     atom                  positions (alat units)
         1           Ti1 tau(   1) = (   0.0004258   2.9801865   6.0000000  )
         2           Ti1 tau(   2) = (   3.2906075   1.4906267   6.0002472  )
         3           O1  tau(   3) = (   0.0006271   0.0005054   7.9858123  )
         4           O1  tau(   4) = (   3.2906025   0.0005020   7.3038282  )
         5           O1  tau(   5) = (   4.5942328   1.4918067   9.2879030  )
         6           O1  tau(   6) = (   1.9868534   1.4903216   9.2879459  )
         7           Ti1 tau(   7) = (   3.2907910   2.8959150   9.1758416  )
         8           Ti1 tau(   8) = (   0.0015273   1.4827037   9.2680791  )
         9           O1  tau(   9) = (   3.3037365   0.0094216  11.3222111  )
        10           O1  tau(  10) = (   0.0116148   5.9584955  10.6183126  )
        11           O1  tau(  11) = (   1.3152514   1.5075076  12.6320051  )
        12           O1  tau(  12) = (   5.3186361   1.4995162  12.6508707  )
        13           Ti1 tau(  13) = (   6.5540705   2.9956815  12.5884341  )
        14           Ti1 tau(  14) = (   3.2234832   1.4927074  12.4921739  )
        15           O1  tau(  15) = (   0.0610261   5.9052480  14.6017706  )
        16           O1  tau(  16) = (   3.2936532   0.0132264  13.8830087  )
        17           O1  tau(  17) = (   4.5722397   1.5061520  16.0138922  )
        18           O1  tau(  18) = (   2.0767725   1.5295127  16.0808449  )
        19           Ti1 tau(  19) = (   3.3650854   3.0251465  15.6907462  )
        20           Ti1 tau(  20) = (   0.0387768   1.3037779  15.7216176  )
        21           O1  tau(  21) = (   3.2904802   0.0005063   4.7018136  )
        22           O1  tau(  22) = (   0.0189486   0.1070799  17.1824039  )
        23           O1  tau(  23) = (   1.3043587   1.4918075   6.0039043  )
        24           O1  tau(  24) = (   5.2767064   1.4903225   6.0039473  )
        25           Ti1 tau(  25) = (   0.0000382   5.9609847   6.0000000  )
        26           Ti1 tau(  26) = (   3.2902200   4.4714249   6.0002472  )
        27           O1  tau(  27) = (   0.0002396   2.9813036   7.9858123  )
        28           O1  tau(  28) = (   3.2902150   2.9813002   7.3038282  )
        29           O1  tau(  29) = (   4.5938453   4.4726049   9.2879030  )
        30           O1  tau(  30) = (   1.9864658   4.4711199   9.2879459  )
        31           Ti1 tau(  31) = (   3.2891106   5.8743827   9.1763621  )
        32           Ti1 tau(  32) = (   0.0006254   4.4649316   9.2693709  )
        33           O1  tau(  33) = (   3.3043114   2.9829305  11.3227053  )
        34           O1  tau(  34) = (   0.0092240   2.9805883  10.6323155  )
        35           O1  tau(  35) = (   1.3131995   4.4620516  12.6081187  )
        36           O1  tau(  36) = (   5.3117129   4.4692194  12.6284301  )
        37           Ti1 tau(  37) = (   6.5303063   5.9583428  12.5400172  )
        38           Ti1 tau(  38) = (   3.2255477   4.4746212  12.4748647  )
        39           O1  tau(  39) = (   0.0377805   3.0059521  14.8845374  )
        40           O1  tau(  40) = (   3.3120027   2.9986483  13.8863452  )
        41           O1  tau(  41) = (   4.5434534   4.5277214  16.0148975  )
        42           O1  tau(  42) = (   2.1165747   4.4940517  16.0783766  )
        43           Ti1 tau(  43) = (   3.3042555   0.0241951  15.7004812  )
        44           Ti1 tau(  44) = (   0.0495666   4.4505358  16.3362958  )
        45           O1  tau(  45) = (   3.2900926   2.9813045   4.7018136  )
        46           O1  tau(  46) = (   1.3039711   4.4726057   6.0039043  )
        47           O1  tau(  47) = (   5.2763189   4.4711207   6.0039473  )
        48           N1  tau(  48) = (   0.5348212   3.4288502  18.0689430  )
        49           C1  tau(  49) = (   1.3556880   3.0079929  19.2215664  )
        50           H1  tau(  50) = (   1.4862090   3.8900195  19.8496782  )
        51           H1  tau(  51) = (   0.8469181   2.2141957  19.7647163  )
        52           H1  tau(  52) = (   2.3296892   2.6851793  18.8724704  )
        53           N1  tau(  53) = (   5.9145885   3.2636146  17.9655992  )

     number of k points=    10  Fermi-Dirac smearing, width (Ry)=  0.0073
                       cart. coord. in units 2pi/alat
        k(    1) = (   0.0000000   0.0000000   0.0000000), wk =   0.0625000
        k(    2) = (   0.0000000   0.0419351   0.0000000), wk =   0.1250000
        k(    3) = (   0.0000000  -0.0838702   0.0000000), wk =   0.0625000
        k(    4) = (   0.0379955   0.0000049   0.0000000), wk =   0.1250000
        k(    5) = (   0.0379955   0.0419400   0.0000000), wk =   0.1250000
        k(    6) = (   0.0379955  -0.0838652   0.0000000), wk =   0.1250000
        k(    7) = (   0.0379955  -0.0419301   0.0000000), wk =   0.1250000
        k(    8) = (  -0.0759910  -0.0000099   0.0000000), wk =   0.0625000
[...]

     negative rho (up, down):  8.046E-03 8.053E-03

     %%%%%%%%%%%%%%%%%%%%%%%%%%%%%%%%%%%%%%%%%%%%%%%%%%%%%%%%%%%%%%%%%%%%%%%%
     %                                                                      %
     % You are using vdW-DF, which was implemented by the Thonhauser group. %
     % Please cite the following two papers that made this development      %
     % possible and the two reviews that describe the various versions:     %
     %                                                                      %
     %   T. Thonhauser et al., PRL 115, 136402 (2015).                      %
     %   T. Thonhauser et al., PRB 76, 125112 (2007).                       %
     %   K. Berland et al., Rep. Prog. Phys. 78, 066501 (2015).             %
     %   D.C. Langreth et al., J. Phys.: Condens. Matter 21, 084203 (2009). %
     %                                                                      %
     %                                                                      %
     % If you are calculating the stress with vdW-DF, please also cite:     %
     %                                                                      %
     %   R. Sabatini et al., J. Phys.: Condens. Matter 24, 424209 (2012).   %
     %                                                                      %
     %%%%%%%%%%%%%%%%%%%%%%%%%%%%%%%%%%%%%%%%%%%%%%%%%%%%%%%%%%%%%%%%%%%%%%%%

     Adding external electric field

     Computed dipole along edir(3) :
        Dipole               -8.5794 Ry au,        -21.8067 Debye
        Dipole field         -0.0162 Ry au,

        Potential amp.        1.5008 Ry
        Total length         46.3494 bohr

[...]

     Starting wfcs are  299 atomic wfcs
  @ DRIVER MODE: Message from server: STATUS
  @ DRIVER MODE: Message from server: POSDATA
  @ DRIVER MODE: Reading and sharing cell
  @ DRIVER MODE: Reading and sharing positions
  @ DRIVER MODE: Received positions

     Self-consistent Calculation

     iteration #  1     ecut=    29.40 Ry     beta= 0.05
     Davidson diagonalization with overlap
     c_bands:  1 eigenvalues not converged
     c_bands:  1 eigenvalues not converged
     c_bands:  1 eigenvalues not converged
     c_bands:  3 eigenvalues not converged
     c_bands:  1 eigenvalues not converged
     c_bands:  3 eigenvalues not converged
     c_bands:  1 eigenvalues not converged
     c_bands:  2 eigenvalues not converged
     c_bands:  1 eigenvalues not converged
     c_bands:  1 eigenvalues not converged
     c_bands:  1 eigenvalues not converged
     c_bands:  3 eigenvalues not converged
     c_bands:  1 eigenvalues not converged
     c_bands:  3 eigenvalues not converged
     c_bands:  1 eigenvalues not converged
     c_bands:  2 eigenvalues not converged
     ethr =  1.00E-05,  avg # of iterations = 19.2

[...]

     total energy              =   -2599.54788754 Ry
     estimated scf accuracy    <    3761.64405075 Ry

     total magnetization       =     0.00 Bohr mag/cell
     absolute magnetization    =     0.02 Bohr mag/cell

     iteration #  2     ecut=    29.40 Ry     beta= 0.05
     Davidson diagonalization with overlap
     ethr =  1.00E-02,  avg # of iterations = 22.6

[...]

     iteration # 47     ecut=    29.40 Ry     beta= 0.05
     Davidson diagonalization with overlap
     c_bands:  1 eigenvalues not converged
     c_bands:  1 eigenvalues not converged
     c_bands:  2 eigenvalues not converged
     c_bands:  1 eigenvalues not converged
     c_bands:  2 eigenvalues not converged
     c_bands:  2 eigenvalues not converged
     ethr =  2.03E-06,  avg # of iterations = 13.8

[...]

     total energy              =   -2939.12589642 Ry
     estimated scf accuracy    <       0.00000014 Ry

[...]

     iteration # 74     ecut=    29.40 Ry     beta= 0.05
     Davidson diagonalization with overlap
     ethr =  3.02E-11,  avg # of iterations = 11.3

     negative rho (up, down):  8.118E-03 8.117E-03

[...]

     Adding external electric field

     Computed dipole along edir(3) :
        Dipole                0.9128 Ry au,          2.3200 Debye
        Dipole field          0.0017 Ry au,

        Potential amp.       -0.1597 Ry
        Total length         46.3494 bohr

     Magnetic moment per site  (integrated on atomic sphere of radius R)
     atom   1 (R=0.727)  charge=  7.9485  magn= -0.0074
     atom   2 (R=0.727)  charge=  7.9315  magn= -0.0006
     atom   3 (R=0.727)  charge=  4.9369  magn=  0.0005
     atom   4 (R=0.727)  charge=  4.9738  magn=  0.0001
     atom   5 (R=0.727)  charge=  4.9424  magn=  0.0001
     atom   6 (R=0.727)  charge=  4.9431  magn=  0.0001
     atom   7 (R=0.727)  charge=  7.9299  magn= -0.0003
     atom   8 (R=0.727)  charge=  7.9249  magn= -0.0024
     atom   9 (R=0.727)  charge=  4.9562  magn=  0.0001
     atom  10 (R=0.727)  charge=  4.9398  magn=  0.0002
     atom  11 (R=0.727)  charge=  4.9438  magn=  0.0001
     atom  12 (R=0.727)  charge=  4.9403  magn=  0.0001
     atom  13 (R=0.727)  charge=  7.9199  magn= -0.0007
     atom  14 (R=0.727)  charge=  7.9286  magn= -0.0002
     atom  15 (R=0.727)  charge=  4.9368  magn= -0.0000
     atom  16 (R=0.727)  charge=  4.9585  magn=  0.0000
     atom  17 (R=0.727)  charge=  4.9268  magn= -0.0000
     atom  18 (R=0.727)  charge=  4.9195  magn= -0.0000
     atom  19 (R=0.727)  charge=  7.9516  magn=  0.0000
     atom  20 (R=0.727)  charge=  7.9765  magn= -0.0000
     atom  21 (R=0.727)  charge=  4.8265  magn=  0.0007
     atom  22 (R=0.727)  charge=  4.9097  magn= -0.0000
     atom  23 (R=0.727)  charge=  4.9340  magn=  0.0009
     atom  24 (R=0.727)  charge=  4.9341  magn=  0.0009
     atom  25 (R=0.727)  charge=  7.9485  magn= -0.0071
     atom  26 (R=0.727)  charge=  7.9316  magn= -0.0006
     atom  27 (R=0.727)  charge=  4.9364  magn=  0.0006
     atom  28 (R=0.727)  charge=  4.9740  magn=  0.0001
     atom  29 (R=0.727)  charge=  4.9433  magn=  0.0001
     atom  30 (R=0.727)  charge=  4.9439  magn=  0.0001
     atom  31 (R=0.727)  charge=  7.9304  magn= -0.0003
     atom  32 (R=0.727)  charge=  7.9251  magn= -0.0024
     atom  33 (R=0.727)  charge=  4.9554  magn=  0.0000
     atom  34 (R=0.727)  charge=  4.9242  magn=  0.0002
     atom  35 (R=0.727)  charge=  4.9448  magn=  0.0001
     atom  36 (R=0.727)  charge=  4.9438  magn=  0.0001
     atom  37 (R=0.727)  charge=  7.9230  magn= -0.0006
     atom  38 (R=0.727)  charge=  7.9295  magn= -0.0002
     atom  39 (R=0.727)  charge=  4.9078  magn= -0.0000
     atom  40 (R=0.727)  charge=  4.9611  magn= -0.0000
     atom  41 (R=0.727)  charge=  4.9355  magn= -0.0000
     atom  42 (R=0.727)  charge=  4.9347  magn= -0.0000
     atom  43 (R=0.727)  charge=  7.9537  magn=  0.0000
     atom  44 (R=0.727)  charge=  7.9725  magn=  0.0000
     atom  45 (R=0.727)  charge=  4.8266  magn=  0.0007
     atom  46 (R=0.727)  charge=  4.9340  magn=  0.0009
     atom  47 (R=0.727)  charge=  4.9341  magn=  0.0009
     atom  48 (R=0.501)  charge=  1.9975  magn= -0.0000
     atom  49 (R=0.447)  charge=  0.8415  magn=  0.0000
     atom  50 (R=0.447)  charge=  0.4963  magn= -0.0000
     atom  51 (R=0.447)  charge=  0.4999  magn= -0.0000
     atom  52 (R=0.447)  charge=  0.5032  magn= -0.0000
     atom  53 (R=0.501)  charge=  1.9556  magn=  0.0000

     End of self-consistent calculation

 ------ SPIN UP ------------

          k = 0.0000 0.0000 0.0000 ( 18029 PWs)   bands (ev):

   -55.7689 -55.7684 -55.7343 -55.7329 -55.6821 -55.6339 -55.5936 -55.5596
   -55.5544 -55.5207 -55.5188 -55.4458 -54.9555 -54.8069 -54.7543 -54.7202
   -32.3177 -32.2562 -32.1737 -32.0919 -32.0594 -32.0552 -32.0463 -32.0132
   -32.0046 -31.9693 -31.9391 -31.9206 -31.9192 -31.9039 -31.8811 -31.8780
   -31.8774 -31.8766 -31.8639 -31.8336 -31.8239 -31.8203 -31.7994 -31.7895
   -31.7863 -31.7813 -31.7797 -31.7541 -31.7401 -31.7344 -31.7229 -31.7094
   -31.7037 -31.6681 -31.6353 -31.5630 -31.4918 -31.3374 -31.1666 -31.1611
   -31.1046 -31.0729 -31.0657 -31.0506 -30.9780 -30.9127 -30.8915 -30.7803
   -19.4388 -16.5166 -16.2519 -15.9666 -15.9147 -15.8401 -15.7470 -15.6240
   -15.5286 -15.4097 -15.3710 -15.3153 -15.3074 -15.2631 -15.2361 -15.2320
   -15.2058 -15.1980 -15.1334 -15.1259 -15.0753 -15.0636 -15.0160 -14.9804
   -14.9693 -14.9145 -14.8453 -14.8040 -14.6846 -14.1594 -13.2574 -13.1410
   -12.3102  -7.2726  -4.9439  -4.7805  -3.8987  -3.7563  -3.7022  -3.6839
    -3.6396  -3.4388  -3.3502  -3.2831  -3.0432  -2.9519  -2.9274  -2.9166
    -2.8676  -2.7104  -2.6653  -2.6041  -2.5878  -2.5612  -2.5395  -2.5313
    -2.4960  -2.4858  -2.4602  -2.4256  -2.3257  -2.2123  -2.1831  -2.1054
    -2.0891  -2.0741  -2.0437  -2.0340  -2.0241  -2.0144  -1.9960  -1.9584
    -1.8955  -1.8509  -1.7863  -1.7017  -1.5603  -1.5384  -1.4600  -1.3842
    -1.3046  -1.2621  -1.2402  -1.2117  -1.1718  -1.0921  -1.0663  -0.9202
    -0.8231  -0.7901  -0.7729  -0.7306  -0.6945  -0.5923  -0.5707  -0.5417
    -0.5328  -0.5049  -0.4309  -0.3745  -0.2430  -0.2120  -0.2080  -0.1703
    -0.0996  -0.0457   0.0079   0.0568   0.0646   0.1004   0.1606   0.1856
     0.1903   0.2333   0.2756   0.3507   0.3768   0.4508   0.4548   0.5189
     0.5627   0.6445   0.7518   0.8740   1.0176   1.1546   1.1989   1.2677
     1.3634   1.4596   1.8375   1.8834   2.1438   3.3420   3.4541   3.4703
     3.4834   3.5894   3.8006   3.8195   3.8687   3.8893   3.8974

[...]

          k =-0.0760-0.0000 0.0000 ( 17886 PWs)   bands (ev):

[...]

 ------ SPIN DOWN ----------

[...]

          k = 0.0380-0.0419 0.0000 ( 17876 PWs)   bands (ev):

[...]

          k =-0.0760-0.0839 0.0000 ( 17948 PWs)   bands (ev):

   -55.7650 -55.7643 -55.7519 -55.7505 -55.6762 -55.6422 -55.5807 -55.5804
   -55.5384 -55.5380 -55.5142 -55.4500 -54.9541 -54.8080 -54.7387 -54.7386
   -32.1216 -32.1180 -32.0772 -32.0768 -32.0604 -32.0596 -32.0193 -32.0042
   -31.9979 -31.9894 -31.9206 -31.9155 -31.9062 -31.8999 -31.8856 -31.8851
   -31.8815 -31.8796 -31.8785 -31.8714 -31.8540 -31.8516 -31.8503 -31.8127
   -31.7834 -31.7830 -31.7813 -31.7677 -31.7675 -31.7597 -31.7588 -31.7555
   -31.7543 -31.7354 -31.7108 -31.6599 -31.4389 -31.3196 -31.1684 -31.1583
   -31.0830 -31.0649 -31.0647 -30.9752 -30.9750 -30.9362 -30.9361 -30.9156
   -19.4367 -15.9169 -15.9108 -15.7492 -15.7145 -15.6490 -15.6402 -15.5724
   -15.5054 -15.4602 -15.4552 -15.3403 -15.3383 -15.3236 -15.3021 -15.2479
   -15.2317 -15.2304 -15.2266 -15.2188 -15.2074 -15.1799 -15.1493 -15.0984
   -15.0934 -15.0727 -15.0626 -14.9411 -14.5313 -14.4697 -13.2408 -13.2406
   -12.3126  -7.2593  -4.9462  -4.7782  -3.6256  -3.2061  -3.1898  -3.0023
    -2.9186  -2.9074  -2.8923  -2.7406  -2.7281  -2.7107  -2.6533  -2.6463
    -2.6364  -2.5997  -2.5836  -2.5597  -2.5194  -2.5141  -2.4661  -2.4636
    -2.4482  -2.4329  -2.4078  -2.4025  -2.3888  -2.3741  -2.3365  -2.2801
    -2.2420  -2.2149  -2.1865  -2.0901  -2.0294  -1.9935  -1.9265  -1.9179
    -1.8669  -1.8421  -1.8276  -1.7617  -1.6909  -1.6613  -1.5771  -1.4855
    -1.4671  -1.4517  -1.3331  -1.3191  -1.2445  -1.2207  -1.1368  -1.1197
    -1.0800  -0.9695  -0.9461  -0.9149  -0.8801  -0.8361  -0.7725  -0.7354
    -0.7334  -0.6851  -0.6408  -0.5848  -0.5237  -0.5118  -0.4962  -0.4873
    -0.4239  -0.3902  -0.3683  -0.2859  -0.2707  -0.1890  -0.0453  -0.0125
     0.1451   0.1942   0.3032   0.3310   0.4217   0.4433   0.5378   0.5410
     0.5735   0.7025   0.7212   0.7389   0.7550   0.7748   0.7987   0.9376
     1.6332   1.6334   1.7049   1.7050   2.0810   3.6709   3.7080   3.7580
     3.7792   3.8805   3.8866   3.8894   3.8967   4.0192   4.0234

     the Fermi energy is     3.3520 ev

!    total energy              =   -2939.12590784 Ry
     estimated scf accuracy    <       0.00000005 Ry
     smearing contrib. (-TS)   =      -0.02051977 Ry
     internal energy E=F+TS    =   -2939.10538807 Ry

     The total energy is F=E-TS. E is the sum of the following terms:
     one-electron contribution =  -24212.95010535 Ry
     hartree contribution      =   12195.22707620 Ry
     xc contribution           =    -485.20200499 Ry
     ewald contribution        =    9563.81807384 Ry
     electric field correction =       0.00157222 Ry

     total magnetization       =    -0.03 Bohr mag/cell
     absolute magnetization    =     0.05 Bohr mag/cell

     convergence has been achieved in  74 iterations

     Forces acting on atoms (cartesian axes, Ry/au):

     atom    1 type  1   force =     0.00008741   -0.00020785    0.09580305
     atom    2 type  1   force =     0.00007411   -0.00063283   -0.17549533
     atom    3 type  2   force =     0.00017754   -0.00019462   -0.02304362
     atom    4 type  2   force =     0.00004093   -0.00128552    0.05261192
     atom    5 type  2   force =    -0.00977401   -0.00031743    0.00253243
     atom    6 type  2   force =     0.01165413    0.00022400    0.00291567
     atom    7 type  1   force =     0.00088406   -0.00000245   -0.00991053
     atom    8 type  1   force =     0.00000381    0.00530464    0.01815140
     atom    9 type  2   force =    -0.00001327   -0.00028717   -0.00011313
     atom   10 type  2   force =    -0.00253945    0.00216258   -0.01349801
     atom   11 type  2   force =    -0.00097436    0.00010910    0.00019069
     atom   12 type  2   force =     0.00039032   -0.00025577    0.00050542
     atom   13 type  1   force =     0.00009108   -0.00008312    0.00055000
     atom   14 type  1   force =    -0.00003625   -0.00013921   -0.00014194
     atom   15 type  2   force =    -0.00059508    0.00024101    0.00045075
     atom   16 type  2   force =    -0.00043547    0.00008026    0.00020513
     atom   17 type  2   force =    -0.00013529   -0.00008132   -0.00032575
     atom   18 type  2   force =     0.00028939    0.00021393    0.00005990
     atom   19 type  1   force =    -0.00061950   -0.00058631    0.00077862
     atom   20 type  1   force =    -0.00023658    0.00038055   -0.00074558
     atom   21 type  2   force =     0.00006774   -0.00006041    0.10322173
     atom   22 type  2   force =     0.00009084   -0.00005755   -0.00042617
     atom   23 type  2   force =    -0.07152880   -0.00019436   -0.02754495
     atom   24 type  2   force =     0.07150811    0.00030900   -0.02760524
     atom   25 type  1   force =     0.00011869   -0.00028069    0.09519398
     atom   26 type  1   force =     0.00008771   -0.00048649   -0.17565097
     atom   27 type  2   force =     0.00015945   -0.00012030   -0.02179362
     atom   28 type  2   force =     0.00008107   -0.00106137    0.05249101
     atom   29 type  2   force =    -0.01015296    0.00023311    0.00290960
     atom   30 type  2   force =     0.01196895    0.00051886    0.00328880
     atom   31 type  1   force =     0.00088688    0.00414303   -0.01178380
     atom   32 type  1   force =     0.00013569   -0.00633913    0.01829062
     atom   33 type  2   force =     0.00016449    0.00041531   -0.00011020
     atom   34 type  2   force =    -0.00308498   -0.00010529   -0.00867688
     atom   35 type  2   force =    -0.00021066    0.00006904    0.00002723
     atom   36 type  2   force =    -0.00003565    0.00028052   -0.00004951
     atom   37 type  1   force =     0.00042990   -0.00094491    0.00019999
     atom   38 type  1   force =    -0.00031603    0.00009849    0.00036681
     atom   39 type  2   force =     0.00010743   -0.00027118    0.00055755
     atom   40 type  2   force =    -0.00008261    0.00026743    0.00016203
     atom   41 type  2   force =     0.00003282   -0.00015095   -0.00019257
     atom   42 type  2   force =    -0.00045060    0.00014043   -0.00041382
     atom   43 type  1   force =     0.00024609    0.00053039    0.00013853
     atom   44 type  1   force =    -0.00020598   -0.00080476   -0.00090365
     atom   45 type  2   force =     0.00007529   -0.00005912    0.10316681
     atom   46 type  2   force =    -0.07154256   -0.00009140   -0.02753773
     atom   47 type  2   force =     0.07152569    0.00025934   -0.02760055
     atom   48 type  3   force =     0.00171337   -0.00098931    0.00028891
     atom   49 type  4   force =    -0.00306909    0.00112596    0.00232463
     atom   50 type  5   force =    -0.00031168    0.00038858    0.00010857
     atom   51 type  5   force =    -0.00125628   -0.00001282    0.00005577
     atom   52 type  5   force =     0.00350418   -0.00181701   -0.00381290
     atom   53 type  3   force =     0.00100993    0.00042510   -0.00017108

     Total force =     0.364788     Total SCF correction =     0.000506
  @ DRIVER MODE: Message from server: STATUS
  @ DRIVER MODE: Message from server: GETFORCE
  @ DRIVER MODE: Returning v,forces,stress,ensemble

     Writing output data file ./calc.save/
  @ DRIVER MODE: Message from server: EXIT
  @ DRIVE MODE: Exiting

     General routines

     Parallel routines

   This run was terminated on:  10:51:57  16Jul2021

   JOB DONE.