     Program PWSCF v.6.7GPU starts on  2Aug2021 at 12:40:29

     R & G space division:  proc/nbgrp/npool/nimage =      16
     Reading input from /storage/home/hcoda1/3/ntian30/research/carbon/02Aug_vib_paired/ads_slab/CH3NH3_a/out_0002/pw.inp
Warning: card &CELL ignored
Warning: card   CELL_DYNAMICS='IPI', ignored
Warning: card / ignored

     Current dimensions of program PWSCF are:
     Max number of different atomic species (ntypx) = 10
     Max number of k-points (npk) =  40000
     Max angular momentum in pseudopotentials (lmaxx) =  3
     Presently no symmetry can be used with electric field

     Message from routine cell_base_init:
     DEPRECATED: use true lattice parameter, not A to a.u. conversion factor

     IMPORTANT: XC functional enforced from input :
     Exchange-correlation= BEEF-VDW
                           (   1   4  43  14   2   0   0)
     Any further DFT definition will be discarded
     Please, verify this is what you really want

  @ DRIVER MODE: Connecting to
 qe_1139763_2482539.sched-torque.pace.gatech.edusy4q93jl_scratch
  using UNIX socket
  @ DRIVER MODE: Message from server: STATUS
  @ DRIVER MODE: Message from server: INIT
  @ DRIVER MODE: Receiving replica           0          -1
  @ DRIVER MODE: Receiving encoded integer          25
  @ DRIVER MODE:  SCF:  T  FORCE:  T  STRESS:  F  VC:  F  ENSEMBLE:  F
  @ DRIVER MODE:  SCF:  T  FORCE:  T  STRESS:  F  VC:  F  ENSEMBLE:  F

     Using Slab Decomposition

     bravais-lattice index     =            0
     lattice parameter (alat)  =       1.8897  a.u.
     unit-cell volume          =    6658.9804 (a.u.)^3
     number of atoms/cell      =           55
     number of atomic types    =            5
     number of electrons       =       393.00
     number of Kohn-Sham states=          206
     kinetic-energy cutoff     =      29.3995  Ry
     charge density cutoff     =     293.9946  Ry
     scf convergence threshold =      7.3E-08
     mixing beta               =       0.0500
     number of iterations used =            8  plain     mixing
     Exchange-correlation= BEEF-VDW
                           (   1   4  43  14   2   0   0)

     celldm(1)=   1.889726  celldm(2)=   0.000000  celldm(3)=   0.000000
     celldm(4)=   0.000000  celldm(5)=   0.000000  celldm(6)=   0.000000

     crystal axes: (cart. coord. in units of alat)
               a(1) = (   6.579727   0.000000   0.000000 )
               a(2) = (  -0.000775   5.961596   0.000000 )
               a(3) = (   0.000000   0.000000  25.155947 )

     reciprocal axes: (cart. coord. in units 2 pi/alat)
               b(1) = (  0.151982  0.000020  0.000000 )
               b(2) = (  0.000000  0.167740  0.000000 )
               b(3) = (  0.000000  0.000000  0.039752 )

     PseudoPot. # 1 for Ti read from file:
     /storage/coda1/p-amedford6/0/shared/rich_project_chbe-medford/medford-share/data/pseudos_module/espresso/nninc/pbe/van/Ti.UPF
     MD5 check sum: 8e4df49b7f0d34bbd5052bf3f5ea0213
     Pseudo is Ultrasoft, Zval = 12.0
     Generated by new atomic code, or converted to UPF format
     Using radial grid of  851 points,  6 beta functions with:
                l(1) =   0
                l(2) =   0
                l(3) =   1
                l(4) =   1
                l(5) =   2
                l(6) =   2
     Q(r) pseudized with  8 coefficients,  rinner =    1.000   1.000   1.000
                                                       1.000   1.000

     PseudoPot. # 2 for O  read from file:
     /storage/coda1/p-amedford6/0/shared/rich_project_chbe-medford/medford-share/data/pseudos_module/espresso/nninc/pbe/van/O.UPF
     MD5 check sum: 78c19812648e8988a0fe644b0f25305e
     Pseudo is Ultrasoft, Zval =  6.0
     Generated by new atomic code, or converted to UPF format
     Using radial grid of  737 points,  4 beta functions with:
                l(1) =   0
                l(2) =   0
                l(3) =   1
                l(4) =   1
     Q(r) pseudized with  8 coefficients,  rinner =    0.800   0.800   0.800

     PseudoPot. # 3 for C  read from file:
     /storage/coda1/p-amedford6/0/shared/rich_project_chbe-medford/medford-share/data/pseudos_module/espresso/nninc/pbe/van/C.UPF
     MD5 check sum: 1a69bf6b8db32088f5b2163dbdb77a27
     Pseudo is Ultrasoft, Zval =  4.0
     Generated by new atomic code, or converted to UPF format
     Using radial grid of  721 points,  4 beta functions with:
                l(1) =   0
                l(2) =   0
                l(3) =   1
                l(4) =   1
     Q(r) pseudized with  8 coefficients,  rinner =    0.800   0.800   0.800

     PseudoPot. # 4 for H  read from file:
     /storage/coda1/p-amedford6/0/shared/rich_project_chbe-medford/medford-share/data/pseudos_module/espresso/nninc/pbe/van/H.UPF
     MD5 check sum: b5ee9d7bfd3a09ee7748110bda690ff7
     Pseudo is Ultrasoft, Zval =  1.0
     Generated by new atomic code, or converted to UPF format
     Using radial grid of  615 points,  1 beta functions with:
                l(1) =   0
     Q(r) pseudized with  8 coefficients,  rinner =    0.800

     PseudoPot. # 5 for N  read from file:
     /storage/coda1/p-amedford6/0/shared/rich_project_chbe-medford/medford-share/data/pseudos_module/espresso/nninc/pbe/van/N.UPF
     MD5 check sum: 90d10febe142ad51ac9d5be1deb811c4
     Pseudo is Ultrasoft, Zval =  5.0
     Generated by new atomic code, or converted to UPF format
     Using radial grid of  729 points,  4 beta functions with:
                l(1) =   0
                l(2) =   0
                l(3) =   1
                l(4) =   1
     Q(r) pseudized with  8 coefficients,  rinner =    0.800   0.800   0.800

     atomic species   valence    mass     pseudopotential
        Ti1           12.00    47.86700     Ti( 1.00)
        O1             6.00    15.99900     O ( 1.00)
        C1             4.00    12.01100     C ( 1.00)
        H1             1.00     1.00800     H ( 1.00)
        N1             5.00    14.00700     N ( 1.00)

     No symmetry found

   Cartesian axes

     site n.     atom                  positions (alat units)
         1           Ti1 tau(   1) = (   0.0004258   2.9801865   6.0000000  )
         2           Ti1 tau(   2) = (   3.2906075   1.4906267   6.0002472  )
         3           O1  tau(   3) = (   0.0006271   0.0005054   7.9858123  )
         4           O1  tau(   4) = (   3.2906025   0.0005020   7.3038282  )
         5           O1  tau(   5) = (   4.5942328   1.4918067   9.2879030  )
         6           O1  tau(   6) = (   1.9868534   1.4903216   9.2879459  )
         7           Ti1 tau(   7) = (   3.2907910   2.8959150   9.1758416  )
         8           Ti1 tau(   8) = (   0.0015273   1.4827037   9.2680791  )
         9           O1  tau(   9) = (   3.2981156   0.0012339  11.3300471  )
        10           O1  tau(  10) = (   0.0116148   5.9584955  10.6183126  )
        11           O1  tau(  11) = (   1.3033605   1.5036236  12.6199488  )
        12           O1  tau(  12) = (   5.2811161   1.5074500  12.6162500  )
        13           Ti1 tau(  13) = (   0.0407500   2.9455431  12.6352795  )
        14           Ti1 tau(  14) = (   3.3444429   1.4910927  12.4779025  )
        15           O1  tau(  15) = (   0.0052662   0.0451097  14.6026341  )
        16           O1  tau(  16) = (   3.2946143   0.0124870  13.9210852  )
        17           O1  tau(  17) = (   4.5465206   1.5046604  16.0624161  )
        18           O1  tau(  18) = (   2.0546879   1.5048301  16.0609706  )
        19           Ti1 tau(  19) = (   3.2991624   2.9918142  15.6995589  )
        20           Ti1 tau(  20) = (   6.5707204   1.4025535  15.8059435  )
        21           O1  tau(  21) = (   3.2904802   0.0005063   4.7018136  )
        22           O1  tau(  22) = (   0.0164654   0.0145536  17.1360041  )
        23           O1  tau(  23) = (   1.3043587   1.4918075   6.0039043  )
        24           O1  tau(  24) = (   5.2767064   1.4903225   6.0039473  )
        25           Ti1 tau(  25) = (   0.0000382   5.9609847   6.0000000  )
        26           Ti1 tau(  26) = (   3.2902200   4.4714249   6.0002472  )
        27           O1  tau(  27) = (   0.0002396   2.9813036   7.9858123  )
        28           O1  tau(  28) = (   3.2902150   2.9813002   7.3038282  )
        29           O1  tau(  29) = (   4.5938453   4.4726049   9.2879030  )
        30           O1  tau(  30) = (   1.9864658   4.4711199   9.2879459  )
        31           Ti1 tau(  31) = (   3.2891106   5.8743827   9.1763621  )
        32           Ti1 tau(  32) = (   0.0006254   4.4649316   9.2693709  )
        33           O1  tau(  33) = (   3.2977166   2.9913250  11.3287690  )
        34           O1  tau(  34) = (   0.0092240   2.9805883  10.6323155  )
        35           O1  tau(  35) = (   1.3008534   4.4801743  12.6308489  )
        36           O1  tau(  36) = (   5.2850400   4.4860598  12.6280017  )
        37           Ti1 tau(  37) = (   0.0409916   5.9178611  12.5441859  )
        38           Ti1 tau(  38) = (   3.3442415   4.4710906  12.4862270  )
        39           O1  tau(  39) = (   0.0109228   2.9791018  14.7123696  )
        40           O1  tau(  40) = (   3.2998940   2.9912248  13.9043662  )
        41           O1  tau(  41) = (   4.5474046   4.4713503  16.0779382  )
        42           O1  tau(  42) = (   2.0618872   4.4767818  16.0643778  )
        43           Ti1 tau(  43) = (   3.2722838   0.0128901  15.7174356  )
        44           Ti1 tau(  44) = (   6.5592075   4.4947239  16.1563676  )
        45           O1  tau(  45) = (   3.2900926   2.9813045   4.7018136  )
        46           O1  tau(  46) = (   1.3039711   4.4726057   6.0039043  )
        47           O1  tau(  47) = (   5.2763189   4.4711207   6.0039473  )
        48           C1  tau(  48) = (   0.0459503   3.0870652  17.8341721  )
        49           H1  tau(  49) = (   5.8142062   3.6010452  18.3763092  )
        50           H1  tau(  50) = (   6.4784518   2.0305676  18.0614951  )
        51           H1  tau(  51) = (   0.9863100   3.3782628  18.2908018  )
        52           N1  tau(  52) = (   4.7642638   1.7931862  21.6370373  )
        53           H1  tau(  53) = (   4.5527921   2.7808570  21.5386679  )
        54           H1  tau(  54) = (   4.1042548   1.2952780  21.0483319  )
        55           H1  tau(  55) = (   4.5435699   1.5432347  22.5953497  )

     number of k points=    10  Fermi-Dirac smearing, width (Ry)=  0.0073
                       cart. coord. in units 2pi/alat
        k(    1) = (   0.0000000   0.0000000   0.0000000), wk =   0.1250000
        k(    2) = (   0.0000000   0.0419351   0.0000000), wk =   0.2500000
        k(    3) = (   0.0000000  -0.0838702   0.0000000), wk =   0.1250000
        k(    4) = (   0.0379955   0.0000049   0.0000000), wk =   0.2500000
        k(    5) = (   0.0379955   0.0419400   0.0000000), wk =   0.2500000
        k(    6) = (   0.0379955  -0.0838652   0.0000000), wk =   0.2500000
        k(    7) = (   0.0379955  -0.0419301   0.0000000), wk =   0.2500000
        k(    8) = (  -0.0759910  -0.0000099   0.0000000), wk =   0.1250000
        k(    9) = (  -0.0759910   0.0419252   0.0000000), wk =   0.2500000
        k(   10) = (  -0.0759910  -0.0838800   0.0000000), wk =   0.1250000

     Initial potential from superposition of free atoms

     starting charge  376.99914, renormalised to  393.00000

     negative rho (up, down):  1.000E-02 0.000E+00

     %%%%%%%%%%%%%%%%%%%%%%%%%%%%%%%%%%%%%%%%%%%%%%%%%%%%%%%%%%%%%%%%%%%%%%%%
     %                                                                      %
     % You are using vdW-DF, which was implemented by the Thonhauser group. %
     % Please cite the following two papers that made this development      %
     % possible and the two reviews that describe the various versions:     %
     %                                                                      %
     %   T. Thonhauser et al., PRL 115, 136402 (2015).                      %
     %   T. Thonhauser et al., PRB 76, 125112 (2007).                       %
     %   K. Berland et al., Rep. Prog. Phys. 78, 066501 (2015).             %
     %   D.C. Langreth et al., J. Phys.: Condens. Matter 21, 084203 (2009). %
     %                                                                      %
     %                                                                      %
     % If you are calculating the stress with vdW-DF, please also cite:     %
     %                                                                      %
     %   R. Sabatini et al., J. Phys.: Condens. Matter 24, 424209 (2012).   %
     %                                                                      %
     %%%%%%%%%%%%%%%%%%%%%%%%%%%%%%%%%%%%%%%%%%%%%%%%%%%%%%%%%%%%%%%%%%%%%%%%

     Adding external electric field

     Computed dipole along edir(3) :
        Dipole               -9.0616 Ry au,        -23.0322 Debye
        Dipole field         -0.0171 Ry au,

        Potential amp.        1.5852 Ry
        Total length         46.3494 bohr

     Starting wfcs are  298 atomic wfcs
  @ DRIVER MODE: Message from server: STATUS
  @ DRIVER MODE: Message from server: POSDATA
  @ DRIVER MODE: Reading and sharing cell
  @ DRIVER MODE: Reading and sharing positions
  @ DRIVER MODE: Received positions

     Self-consistent Calculation

     iteration #  1     ecut=    29.40 Ry     beta= 0.05
     Davidson diagonalization with overlap
     c_bands:  1 eigenvalues not converged
     c_bands:  1 eigenvalues not converged
     c_bands:  1 eigenvalues not converged
     ethr =  1.00E-05,  avg # of iterations = 17.8

[...]

     total energy              =   -2692.43123514 Ry
     estimated scf accuracy    <    2566.20844844 Ry

[...]

     iteration #  3     ecut=    29.40 Ry     beta= 0.05
     Davidson diagonalization with overlap
     ethr =  1.00E-02,  avg # of iterations = 16.8

[...]

     iteration # 56     ecut=    29.40 Ry     beta= 0.05
     Davidson diagonalization with overlap
     c_bands:  2 eigenvalues not converged
     ethr =  1.93E-07,  avg # of iterations = 16.3

[...]

     total energy              =   -2922.78942140 Ry
     estimated scf accuracy    <       0.00000009 Ry

     iteration # 74     ecut=    29.40 Ry     beta= 0.05
     Davidson diagonalization with overlap
     ethr =  2.17E-11,  avg # of iterations = 10.4

     negative rho (up, down):  1.132E-02 0.000E+00

     Adding external electric field

     Computed dipole along edir(3) :
        Dipole                0.5510 Ry au,          1.4006 Debye
        Dipole field          0.0010 Ry au,

        Potential amp.       -0.0964 Ry
        Total length         46.3494 bohr

     End of self-consistent calculation

          k = 0.0000 0.0000 0.0000 ( 18029 PWs)   bands (ev):

   -56.0330 -56.0292 -55.9990 -55.9928 -55.9007 -55.8659 -55.8654 -55.8409
   -55.8224 -55.8070 -55.8019 -55.7681 -55.5675 -55.4004 -55.0085 -54.9744
   -32.5875 -32.5150 -32.3602 -32.3541 -32.3403 -32.3391 -32.3261 -32.2925
   -32.2756 -32.2386 -32.2326 -32.2320 -32.2087 -32.1851 -32.1724 -32.1662
   -32.1369 -32.1344 -32.1202 -32.0901 -32.0801 -32.0691 -32.0378 -32.0327
   -32.0284 -32.0267 -32.0124 -32.0110 -32.0042 -31.9790 -31.9785 -31.9761
   -31.9712 -31.9704 -31.9550 -31.9458 -31.9142 -31.8463 -31.7818 -31.6881
   -31.6288 -31.5181 -31.4155 -31.3274 -31.3050 -31.2322 -31.1458 -31.0347
   -16.7675 -16.5041 -16.2722 -16.1815 -16.1317 -16.0452 -15.8677 -15.7512
   -15.7027 -15.6019 -15.5692 -15.5494 -15.5328 -15.5027 -15.4942 -15.4692
   -15.4580 -15.4516 -15.4170 -15.3890 -15.3639 -15.3492 -15.2292 -15.1771
   -15.1610 -15.1300 -15.0818 -15.0655 -14.6106 -13.6581 -13.5111 -13.3948
    -9.0481  -4.1422  -3.9620  -3.9366  -3.8883  -3.8466  -3.7167  -3.6995
    -3.6439  -3.5836  -3.2657  -3.2089  -3.2005  -3.1598  -3.1451  -2.9867
    -2.9228  -2.8493  -2.8332  -2.8276  -2.8019  -2.7967  -2.7916  -2.7493
    -2.7071  -2.6512  -2.6274  -2.5604  -2.5140  -2.4429  -2.3702  -2.3425
    -2.3010  -2.2994  -2.2612  -2.2488  -2.2409  -2.2311  -2.1953  -2.1822
    -2.0004  -1.9588  -1.8749  -1.8158  -1.7993  -1.6373  -1.5303  -1.4821
    -1.4641  -1.4571  -1.4389  -1.4219  -1.3262  -1.2085  -1.1753  -1.1255
    -1.0782  -1.0298  -0.9994  -0.8991  -0.8826  -0.7914  -0.7782  -0.7596
    -0.6492  -0.6270  -0.4904  -0.4681  -0.4636  -0.4025  -0.3872  -0.3143
    -0.2902  -0.2333  -0.1687  -0.1564  -0.0882  -0.0622  -0.0587  -0.0024
     0.0025   0.0476   0.0630   0.1721   0.2276   0.2771   0.3310   0.4384
     0.5172   0.6318   0.6784   0.7377   0.9396   1.0131   1.1227   1.1839
     1.2063   1.4637   1.5845   1.6300   3.1057   3.1906   3.2123   3.2382
     3.3457   3.3705   3.5560   3.5729   3.6074   3.6273

[...]

          k = 0.0380-0.0419 0.0000 ( 17876 PWs)   bands (ev):

[...]

          k =-0.0760-0.0000 0.0000 ( 17886 PWs)   bands (ev):

[...]

          k =-0.0760-0.0839 0.0000 ( 17948 PWs)   bands (ev):

   -56.0164 -56.0154 -56.0138 -56.0079 -55.8857 -55.8807 -55.8571 -55.8310
   -55.8246 -55.8227 -55.7863 -55.7839 -55.5661 -55.4018 -54.9915 -54.9913
   -32.3934 -32.3870 -32.3306 -32.3300 -32.3119 -32.3111 -32.2923 -32.2876
   -32.2213 -32.2203 -32.2173 -32.2065 -32.1663 -32.1652 -32.1460 -32.1415
   -32.1374 -32.1358 -32.1347 -32.1267 -32.1255 -32.1227 -32.0871 -32.0766
   -32.0719 -32.0497 -32.0455 -32.0317 -32.0228 -32.0219 -32.0180 -32.0161
   -32.0008 -31.9994 -31.9955 -31.9893 -31.9243 -31.8293 -31.7840 -31.6911
   -31.6729 -31.5622 -31.3177 -31.3176 -31.2284 -31.2282 -31.1891 -31.1890
   -16.2094 -16.1864 -15.9800 -15.9458 -15.9423 -15.9353 -15.8044 -15.7241
   -15.7235 -15.6977 -15.6371 -15.6256 -15.6036 -15.5649 -15.5407 -15.5381
   -15.5195 -15.5146 -15.4882 -15.4781 -15.4653 -15.4580 -15.3655 -15.3458
   -15.3420 -15.2924 -15.1471 -15.0007 -14.8911 -13.6573 -13.4967 -13.4965
    -9.0624  -3.7189  -3.7104  -3.5056  -3.4742  -3.2318  -3.1936  -3.1804
    -3.1114  -2.9550  -2.9154  -2.8974  -2.8897  -2.8453  -2.8377  -2.8327
    -2.8209  -2.7927  -2.7763  -2.7426  -2.7341  -2.7174  -2.7090  -2.6983
    -2.6812  -2.6514  -2.6425  -2.6076  -2.6045  -2.5850  -2.5716  -2.5421
    -2.5372  -2.4114  -2.2514  -2.2270  -2.1667  -2.1591  -2.1147  -2.1002
    -2.0931  -2.0660  -2.0365  -2.0112  -1.8527  -1.7392  -1.7248  -1.7079
    -1.6391  -1.6118  -1.5252  -1.4364  -1.3954  -1.3771  -1.3086  -1.3051
    -1.2557  -1.2307  -1.2101  -1.1425  -1.0859  -1.0488  -0.9919  -0.9857
    -0.9777  -0.9074  -0.8651  -0.7901  -0.7814  -0.7443  -0.7094  -0.6543
    -0.6240  -0.6084  -0.5190  -0.4862  -0.3740  -0.3251  -0.0666  -0.0165
     0.0346   0.0626   0.1278   0.1859   0.1901   0.2873   0.2911   0.3283
     0.4070   0.4283   0.4992   0.5185   0.5684   0.7302   1.2792   1.3773
     1.3781   1.4496   1.4499   1.4544   3.4035   3.4152   3.4224   3.4669
     3.6122   3.6168   3.6357   3.6371   3.7760   3.7987

     the Fermi energy is     3.1022 ev

!    total energy              =   -2922.78943097 Ry
     estimated scf accuracy    <       0.00000005 Ry
     smearing contrib. (-TS)   =      -0.02169664 Ry
     internal energy E=F+TS    =   -2922.76773433 Ry

     The total energy is F=E-TS. E is the sum of the following terms:
     one-electron contribution =  -23651.33781568 Ry
     hartree contribution      =   11909.88082419 Ry
     xc contribution           =    -482.26377722 Ry
     ewald contribution        =    9300.95246139 Ry
     electric field correction =       0.00057299 Ry

     convergence has been achieved in  74 iterations

     Forces acting on atoms (cartesian axes, Ry/au):

     atom    1 type  1   force =     0.00004713   -0.00022157    0.09685751
     atom    2 type  1   force =    -0.00017427   -0.00055874   -0.17514387
     atom    3 type  2   force =     0.00002310   -0.00004675   -0.02502386
     atom    4 type  2   force =     0.00002777   -0.00139951    0.05264913
     atom    5 type  2   force =    -0.01205905   -0.00050657    0.00330233
     atom    6 type  2   force =     0.01378826    0.00008931    0.00270138
     atom    7 type  1   force =    -0.00058198    0.00056572   -0.01157633
     atom    8 type  1   force =     0.00020485    0.01201316    0.02899659
     atom    9 type  2   force =    -0.00029707    0.00057310    0.00059406
     atom   10 type  2   force =    -0.00152984    0.00252530   -0.01947671
     atom   11 type  2   force =    -0.00018129   -0.00037093   -0.00014772
     atom   12 type  2   force =    -0.00090153    0.00002801   -0.00029379
     atom   13 type  1   force =     0.00055617   -0.00097455    0.00108623
     atom   14 type  1   force =     0.00144817    0.00057115   -0.00068551
     atom   15 type  2   force =    -0.00000889   -0.00107618    0.00039212
     atom   16 type  2   force =    -0.00019791   -0.00020135   -0.00145277
     atom   17 type  2   force =    -0.00045865    0.00089078    0.00013659
     atom   18 type  2   force =     0.00071120    0.00080774   -0.00009401
     atom   19 type  1   force =    -0.00035886   -0.00112900    0.00052853
     atom   20 type  1   force =     0.00015320    0.00045098   -0.00000732
     atom   21 type  2   force =     0.00004653   -0.00003944    0.10323387
     atom   22 type  2   force =     0.00028418   -0.00028710    0.00090674
     atom   23 type  2   force =    -0.07156068   -0.00014775   -0.02768927
     atom   24 type  2   force =     0.07145315    0.00026846   -0.02771909
     atom   25 type  1   force =     0.00005491   -0.00028681    0.09644756
     atom   26 type  1   force =    -0.00019419   -0.00028789   -0.17537574
     atom   27 type  2   force =     0.00008665   -0.00017335   -0.02380762
     atom   28 type  2   force =     0.00004354   -0.00114050    0.05273156
     atom   29 type  2   force =    -0.01210120    0.00085377    0.00276801
     atom   30 type  2   force =     0.01374535    0.00124169    0.00218529
     atom   31 type  1   force =    -0.00046888    0.00303131   -0.01243012
     atom   32 type  1   force =     0.00018868   -0.01423285    0.02940744
     atom   33 type  2   force =    -0.00022893   -0.00062623    0.00045092
     atom   34 type  2   force =    -0.00098669    0.00176207   -0.02268809
     atom   35 type  2   force =    -0.00067158   -0.00060322   -0.00012729
     atom   36 type  2   force =     0.00002583   -0.00014274   -0.00033956
     atom   37 type  1   force =     0.00065231    0.00026984    0.00056317
     atom   38 type  1   force =     0.00149988    0.00018898   -0.00068739
     atom   39 type  2   force =    -0.00003925    0.00012926   -0.00126808
     atom   40 type  2   force =    -0.00034690   -0.00010036    0.00177600
     atom   41 type  2   force =    -0.00056890   -0.00122192    0.00000169
     atom   42 type  2   force =     0.00048010   -0.00134480    0.00019750
     atom   43 type  1   force =     0.00005972    0.00066944    0.00103846
     atom   44 type  1   force =     0.00033725   -0.00020961    0.00078182
     atom   45 type  2   force =     0.00005773   -0.00009186    0.10319544
     atom   46 type  2   force =    -0.07154553   -0.00011274   -0.02769467
     atom   47 type  2   force =     0.07145216    0.00031581   -0.02772696
     atom   48 type  3   force =    -0.01724040    0.00045518   -0.00082476
     atom   49 type  4   force =     0.00561356   -0.00291401   -0.00445358
     atom   50 type  4   force =     0.00122038    0.00073947    0.00060657
     atom   51 type  4   force =     0.00812131    0.00190735    0.00412985
     atom   52 type  5   force =    -0.00011591   -0.00017701   -0.00037127
     atom   53 type  4   force =     0.00064898   -0.00003866   -0.00037343
     atom   54 type  4   force =     0.00006936    0.00019720   -0.00010858
     atom   55 type  4   force =    -0.00028304    0.00011893   -0.00007902

     Total force =     0.368965     Total SCF correction =     0.000691
  @ DRIVER MODE: Message from server: STATUS
  @ DRIVER MODE: Message from server: GETFORCE
  @ DRIVER MODE: Returning v,forces,stress,ensemble

     Writing output data file ./calc.save/
  @ DRIVER MODE: Message from server: EXIT
  @ DRIVE MODE: Exiting

     General routines

     Parallel routines

   This run was terminated on:  12:55:22   2Aug2021

   JOB DONE.