     Program PWSCF v.6.7GPU starts on 23Sep2021 at  8: 2:39

     R & G space division:  proc/nbgrp/npool/nimage =       8
     Reading input from /storage/home/hcoda1/3/ntian30/research/carbon/CxH_vib/H2O_calc/ads_slab/CH3HO_a/out_0029/pw.inp
Warning: card &CELL ignored
Warning: card   CELL_DYNAMICS='IPI', ignored
Warning: card / ignored

     Current dimensions of program PWSCF are:
     Max number of different atomic species (ntypx) = 10
     Max number of k-points (npk) =  40000
     Max angular momentum in pseudopotentials (lmaxx) =  3
     Presently no symmetry can be used with electric field

     Message from routine cell_base_init:
     DEPRECATED: use true lattice parameter, not A to a.u. conversion factor

     IMPORTANT: XC functional enforced from input :
     Exchange-correlation= BEEF-VDW
                           (   1   4  43  14   2   0   0)
     Any further DFT definition will be discarded
     Please, verify this is what you really want

  @ DRIVER MODE: Connecting to
 qe_1139763_2941010.sched-torque.pace.gatech.edu_jfky2u__scratch
  using UNIX socket
  @ DRIVER MODE: Message from server: STATUS
  @ DRIVER MODE: Message from server: INIT
  @ DRIVER MODE: Receiving replica           0          -1
  @ DRIVER MODE: Receiving encoded integer          25
  @ DRIVER MODE:  SCF:  T  FORCE:  T  STRESS:  F  VC:  F  ENSEMBLE:  F
  @ DRIVER MODE:  SCF:  T  FORCE:  T  STRESS:  F  VC:  F  ENSEMBLE:  F

     Using Slab Decomposition

     bravais-lattice index     =            0
     lattice parameter (alat)  =       1.8897  a.u.
     unit-cell volume          =    6658.9804 (a.u.)^3
     number of atoms/cell      =           53
     number of atomic types    =            4
     number of electrons       =       392.00
     number of Kohn-Sham states=          206
     kinetic-energy cutoff     =      29.3995  Ry
     charge density cutoff     =     293.9946  Ry
     scf convergence threshold =      7.3E-08
     mixing beta               =       0.0500
     number of iterations used =            8  plain     mixing
     Exchange-correlation= BEEF-VDW
                           (   1   4  43  14   2   0   0)

     celldm(1)=   1.889726  celldm(2)=   0.000000  celldm(3)=   0.000000
     celldm(4)=   0.000000  celldm(5)=   0.000000  celldm(6)=   0.000000

     crystal axes: (cart. coord. in units of alat)
               a(1) = (   6.579727   0.000000   0.000000 )
               a(2) = (  -0.000775   5.961596   0.000000 )
               a(3) = (   0.000000   0.000000  25.155947 )

     reciprocal axes: (cart. coord. in units 2 pi/alat)
               b(1) = (  0.151982  0.000020  0.000000 )
               b(2) = (  0.000000  0.167740  0.000000 )
               b(3) = (  0.000000  0.000000  0.039752 )

     PseudoPot. # 1 for Ti read from file:
     /storage/coda1/p-amedford6/0/shared/rich_project_chbe-medford/medford-share/data/pseudos_module/espresso/nninc/pbe/van/Ti.UPF
     MD5 check sum: 8e4df49b7f0d34bbd5052bf3f5ea0213
     Pseudo is Ultrasoft, Zval = 12.0
     Generated by new atomic code, or converted to UPF format
     Using radial grid of  851 points,  6 beta functions with:
                l(1) =   0
                l(2) =   0
                l(3) =   1
                l(4) =   1
                l(5) =   2
                l(6) =   2
     Q(r) pseudized with  8 coefficients,  rinner =    1.000   1.000   1.000
                                                       1.000   1.000

     PseudoPot. # 2 for O  read from file:
     /storage/coda1/p-amedford6/0/shared/rich_project_chbe-medford/medford-share/data/pseudos_module/espresso/nninc/pbe/van/O.UPF
     MD5 check sum: 78c19812648e8988a0fe644b0f25305e
     Pseudo is Ultrasoft, Zval =  6.0
     Generated by new atomic code, or converted to UPF format
     Using radial grid of  737 points,  4 beta functions with:
                l(1) =   0
                l(2) =   0
                l(3) =   1
                l(4) =   1
     Q(r) pseudized with  8 coefficients,  rinner =    0.800   0.800   0.800

     PseudoPot. # 3 for C  read from file:
     /storage/coda1/p-amedford6/0/shared/rich_project_chbe-medford/medford-share/data/pseudos_module/espresso/nninc/pbe/van/C.UPF
     MD5 check sum: 1a69bf6b8db32088f5b2163dbdb77a27
     Pseudo is Ultrasoft, Zval =  4.0
     Generated by new atomic code, or converted to UPF format
     Using radial grid of  721 points,  4 beta functions with:
                l(1) =   0
                l(2) =   0
                l(3) =   1
                l(4) =   1
     Q(r) pseudized with  8 coefficients,  rinner =    0.800   0.800   0.800

     PseudoPot. # 4 for H  read from file:
     /storage/coda1/p-amedford6/0/shared/rich_project_chbe-medford/medford-share/data/pseudos_module/espresso/nninc/pbe/van/H.UPF
     MD5 check sum: b5ee9d7bfd3a09ee7748110bda690ff7
     Pseudo is Ultrasoft, Zval =  1.0
     Generated by new atomic code, or converted to UPF format
     Using radial grid of  615 points,  1 beta functions with:
                l(1) =   0
     Q(r) pseudized with  8 coefficients,  rinner =    0.800

     atomic species   valence    mass     pseudopotential
        Ti1           12.00    47.86700     Ti( 1.00)
        O1             6.00    15.99900     O ( 1.00)
        C1             4.00    12.01100     C ( 1.00)
        H1             1.00     1.00800     H ( 1.00)

     No symmetry found

   Cartesian axes

     site n.     atom                  positions (alat units)
         1           Ti1 tau(   1) = (   0.0004258   2.9801865   6.0000000  )
         2           Ti1 tau(   2) = (   3.2906075   1.4906267   6.0002472  )
         3           O1  tau(   3) = (   0.0006271   0.0005054   7.9858123  )
         4           O1  tau(   4) = (   3.2906025   0.0005020   7.3038282  )
         5           O1  tau(   5) = (   4.5942328   1.4918067   9.2879030  )
         6           O1  tau(   6) = (   1.9868534   1.4903216   9.2879459  )
         7           Ti1 tau(   7) = (   3.2776386   2.8603028   9.2190116  )
         8           Ti1 tau(   8) = (   6.5598479   1.4304724   9.3580194  )
         9           O1  tau(   9) = (   3.2889234   5.9509398  11.3217173  )
        10           O1  tau(  10) = (   6.5764018   5.9495644  10.5876710  )
        11           O1  tau(  11) = (   1.2812264   1.4943635  12.6442538  )
        12           O1  tau(  12) = (   5.3065913   1.4950901  12.6410841  )
        13           Ti1 tau(  13) = (   0.0201148   2.8652118  12.8170930  )
        14           Ti1 tau(  14) = (   3.2957237   1.3106547  12.6889287  )
        15           O1  tau(  15) = (   6.5548780   5.9443598  14.6367865  )
        16           O1  tau(  16) = (   3.2877845   0.0417723  13.9217912  )
        17           O1  tau(  17) = (   4.5532326   1.5761655  16.0783859  )
        18           O1  tau(  18) = (   2.0366504   1.5601698  16.0762102  )
        19           Ti1 tau(  19) = (   3.2678531   3.0297845  15.6708759  )
        20           Ti1 tau(  20) = (   6.4629285   1.5188837  16.1410570  )
        21           O1  tau(  21) = (   3.2904802   0.0005063   4.7018136  )
        22           O1  tau(  22) = (   6.5629482   0.0231895  17.1619738  )
        23           O1  tau(  23) = (   1.3043587   1.4918075   6.0039043  )
        24           O1  tau(  24) = (   5.2767064   1.4903225   6.0039473  )
        25           Ti1 tau(  25) = (   0.0000382   5.9609847   6.0000000  )
        26           Ti1 tau(  26) = (   3.2902200   4.4714249   6.0002472  )
        27           O1  tau(  27) = (   0.0002396   2.9813036   7.9858123  )
        28           O1  tau(  28) = (   3.2902150   2.9813002   7.3038282  )
        29           O1  tau(  29) = (   4.5938453   4.4726049   9.2879030  )
        30           O1  tau(  30) = (   1.9864658   4.4711199   9.2879459  )
        31           Ti1 tau(  31) = (   3.2699525   5.8470351   9.1790592  )
        32           Ti1 tau(  32) = (   6.5580068   4.3764721   9.3475679  )
        33           O1  tau(  33) = (   3.2877686   3.0124297  11.2895287  )
        34           O1  tau(  34) = (   0.0005883   2.9642609  10.5504472  )
        35           O1  tau(  35) = (   1.2748618   4.4645017  12.6259732  )
        36           O1  tau(  36) = (   5.2954498   4.4639995  12.6225180  )
        37           Ti1 tau(  37) = (   6.5558271   5.8472513  12.6028672  )
        38           Ti1 tau(  38) = (   3.2807834   4.4064534  12.4217905  )
        39           O1  tau(  39) = (   6.5786029   2.9813041  14.7145626  )
        40           O1  tau(  40) = (   3.2869290   2.9992676  13.8921391  )
        41           O1  tau(  41) = (   4.5413935   4.4541386  16.0960746  )
        42           O1  tau(  42) = (   2.0104822   4.4576224  16.0708021  )
        43           Ti1 tau(  43) = (   3.1667734   0.0431258  16.3165854  )
        44           Ti1 tau(  44) = (   6.5007865   4.6242813  15.9014112  )
        45           O1  tau(  45) = (   3.2900926   2.9813045   4.7018136  )
        46           O1  tau(  46) = (   1.3039711   4.4726057   6.0039043  )
        47           O1  tau(  47) = (   5.2763189   4.4711207   6.0039473  )
        48           C1  tau(  48) = (   0.0287742   2.9159372  17.8309569  )
        49           H1  tau(  49) = (   0.0209232   3.9694834  18.1111783  )
        50           H1  tau(  50) = (   0.9459818   2.5003430  18.2552837  )
        51           H1  tau(  51) = (   5.7514102   2.4667126  18.3442606  )
        52           O1  tau(  52) = (   3.2249103   0.0683284  18.1261362  )
        53           H1  tau(  53) = (   3.4857875   5.2839856  18.6954204  )

     number of k points=    10  Fermi-Dirac smearing, width (Ry)=  0.0073
                       cart. coord. in units 2pi/alat
        k(    1) = (   0.0000000   0.0000000   0.0000000), wk =   0.1250000
        k(    2) = (   0.0000000   0.0419351   0.0000000), wk =   0.2500000
        k(    3) = (   0.0000000  -0.0838702   0.0000000), wk =   0.1250000
        k(    4) = (   0.0379955   0.0000049   0.0000000), wk =   0.2500000
        k(    5) = (   0.0379955   0.0419400   0.0000000), wk =   0.2500000
        k(    6) = (   0.0379955  -0.0838652   0.0000000), wk =   0.2500000
        k(    7) = (   0.0379955  -0.0419301   0.0000000), wk =   0.2500000
        k(    8) = (  -0.0759910  -0.0000099   0.0000000), wk =   0.1250000
        k(    9) = (  -0.0759910   0.0419252   0.0000000), wk =   0.2500000
        k(   10) = (  -0.0759910  -0.0838800   0.0000000), wk =   0.1250000

     Initial potential from superposition of free atoms

     starting charge  375.99917, renormalised to  392.00000

     negative rho (up, down):  1.891E-02 0.000E+00

     %%%%%%%%%%%%%%%%%%%%%%%%%%%%%%%%%%%%%%%%%%%%%%%%%%%%%%%%%%%%%%%%%%%%%%%%
     %                                                                      %
     % You are using vdW-DF, which was implemented by the Thonhauser group. %
     % Please cite the following two papers that made this development      %
     % possible and the two reviews that describe the various versions:     %
     %                                                                      %
     %   T. Thonhauser et al., PRL 115, 136402 (2015).                      %
     %   T. Thonhauser et al., PRB 76, 125112 (2007).                       %
     %   K. Berland et al., Rep. Prog. Phys. 78, 066501 (2015).             %
     %   D.C. Langreth et al., J. Phys.: Condens. Matter 21, 084203 (2009). %
     %                                                                      %
     %                                                                      %
     % If you are calculating the stress with vdW-DF, please also cite:     %
     %                                                                      %
     %   R. Sabatini et al., J. Phys.: Condens. Matter 24, 424209 (2012).   %
     %                                                                      %
     %%%%%%%%%%%%%%%%%%%%%%%%%%%%%%%%%%%%%%%%%%%%%%%%%%%%%%%%%%%%%%%%%%%%%%%%

     Adding external electric field

     Computed dipole along edir(3) :
        Dipole               -4.9986 Ry au,        -12.7051 Debye
        Dipole field         -0.0094 Ry au,

        Potential amp.        0.8744 Ry
        Total length         46.3494 bohr

     Starting wfcs are  296 atomic wfcs
  @ DRIVER MODE: Message from server: STATUS
  @ DRIVER MODE: Message from server: POSDATA
  @ DRIVER MODE: Reading and sharing cell
  @ DRIVER MODE: Reading and sharing positions
  @ DRIVER MODE: Received positions

     Self-consistent Calculation

     iteration #  1     ecut=    29.40 Ry     beta= 0.05
     Davidson diagonalization with overlap
     c_bands:  5 eigenvalues not converged
     c_bands:  4 eigenvalues not converged
     c_bands:  5 eigenvalues not converged
     c_bands:  3 eigenvalues not converged
     c_bands:  1 eigenvalues not converged
     c_bands:  2 eigenvalues not converged
     c_bands:  1 eigenvalues not converged
     c_bands:  2 eigenvalues not converged
     c_bands:  3 eigenvalues not converged
     ethr =  1.00E-05,  avg # of iterations = 19.8

[...]

     total energy              =   -2842.46441170 Ry
     estimated scf accuracy    <     997.09388313 Ry

     iteration #  2     ecut=    29.40 Ry     beta= 0.05
     Davidson diagonalization with overlap
     ethr =  1.00E-02,  avg # of iterations = 15.9

[...]

     iteration # 34     ecut=    29.40 Ry     beta= 0.05
     Davidson diagonalization with overlap
     c_bands:  1 eigenvalues not converged
     c_bands:  1 eigenvalues not converged
     ethr =  1.10E-06,  avg # of iterations =  5.6

[...]

     total energy              =   -2932.63104632 Ry
     estimated scf accuracy    <       0.00000013 Ry

     iteration # 79     ecut=    29.40 Ry     beta= 0.05
     Davidson diagonalization with overlap
     ethr =  2.32E-11,  avg # of iterations =  4.1

     negative rho (up, down):  1.833E-02 0.000E+00

     Adding external electric field

     Computed dipole along edir(3) :
        Dipole                0.4184 Ry au,          1.0634 Debye
        Dipole field          0.0008 Ry au,

        Potential amp.       -0.0732 Ry
        Total length         46.3494 bohr

     End of self-consistent calculation

          k = 0.0000 0.0000 0.0000 ( 18029 PWs)   bands (ev):

   -56.6030 -56.5529 -56.0607 -56.0297 -55.9943 -55.9236 -55.8981 -55.8836
   -55.8462 -55.8374 -55.7949 -55.7717 -55.7208 -55.6241 -55.2144 -55.1805
   -33.0149 -32.8681 -32.8138 -32.7818 -32.6861 -32.6410 -32.4931 -32.4783
   -32.4345 -32.3331 -32.3172 -32.3136 -32.3018 -32.2886 -32.2762 -32.2588
   -32.2346 -32.2142 -32.2086 -32.1330 -32.1309 -32.1278 -32.1151 -32.1031
   -32.0988 -32.0931 -32.0804 -32.0794 -32.0740 -32.0433 -32.0310 -32.0292
   -31.9992 -31.9925 -31.9849 -31.9726 -31.9572 -31.9449 -31.8808 -31.8477
   -31.8341 -31.8322 -31.6090 -31.5546 -31.5303 -31.4258 -31.3409 -31.2301
   -16.9301 -16.7594 -16.6211 -16.3984 -16.2580 -16.1474 -15.9300 -15.9189
   -15.7971 -15.7947 -15.7515 -15.6258 -15.6113 -15.5761 -15.5623 -15.5392
   -15.5257 -15.5155 -15.5112 -15.4864 -15.4511 -15.4286 -15.3852 -15.3134
   -15.2479 -15.2316 -15.1926 -15.1292 -15.1006 -14.8608 -13.7162 -13.6076
    -9.3778  -4.7098  -4.2856  -4.0698  -3.9556  -3.9134  -3.7761  -3.6297
    -3.4552  -3.3619  -3.2309  -3.2248  -3.1540  -3.1128  -3.1006  -3.0979
    -3.0113  -2.9645  -2.9387  -2.9091  -2.8944  -2.8414  -2.8077  -2.7650
    -2.7446  -2.7424  -2.6996  -2.6714  -2.5266  -2.4962  -2.4810  -2.4712
    -2.4322  -2.4138  -2.3792  -2.3618  -2.2825  -2.2000  -2.1830  -2.1198
    -2.0540  -2.0094  -1.8184  -1.8051  -1.7059  -1.6300  -1.6075  -1.5589
    -1.5196  -1.4857  -1.4128  -1.3917  -1.2992  -1.2549  -1.1969  -1.1883
    -1.1462  -1.1148  -1.0699  -0.9654  -0.9176  -0.9111  -0.8036  -0.7497
    -0.6827  -0.6786  -0.6219  -0.5912  -0.4919  -0.4699  -0.4411  -0.4058
    -0.3682  -0.3494  -0.2868  -0.2707  -0.2370  -0.1810  -0.1381  -0.1177
    -0.0870  -0.0722  -0.0086   0.0456   0.0670   0.1738   0.1915   0.2286
     0.2991   0.3895   0.4427   0.5308   0.7025   0.8028   0.8368   0.9402
     1.0170   1.0636   1.3543   1.4003   2.6985   2.8606   3.1398   3.2928
     3.3155   3.3702   3.4172   3.4733   3.6322   3.6721

[...]

          k = 0.0380-0.0419 0.0000 ( 17876 PWs)   bands (ev):

[...]

          k =-0.0760-0.0000 0.0000 ( 17886 PWs)   bands (ev):

[...]

          k =-0.0760-0.0839 0.0000 ( 17948 PWs)   bands (ev):

   -56.5966 -56.5593 -56.0596 -56.0274 -55.9896 -55.9281 -55.9002 -55.8844
   -55.8442 -55.8290 -55.8033 -55.7698 -55.7227 -55.6259 -55.1977 -55.1971
   -32.8639 -32.8474 -32.8177 -32.8154 -32.7483 -32.7166 -32.3675 -32.3475
   -32.3336 -32.3168 -32.2812 -32.2740 -32.2550 -32.2532 -32.2403 -32.2339
   -32.2103 -32.2068 -32.1975 -32.1780 -32.1733 -32.1549 -32.1504 -32.1270
   -32.1245 -32.1230 -32.1110 -32.0933 -32.0894 -32.0598 -32.0515 -32.0414
   -32.0371 -32.0301 -31.9999 -31.9936 -31.9840 -31.9766 -31.9577 -31.8819
   -31.8759 -31.8376 -31.5435 -31.5431 -31.4247 -31.4229 -31.3831 -31.3821
   -16.9160 -16.1555 -16.0726 -16.0662 -16.0553 -16.0256 -15.9806 -15.9112
   -15.9081 -15.8160 -15.7834 -15.7475 -15.7130 -15.6975 -15.6445 -15.6394
   -15.6223 -15.5582 -15.5158 -15.4892 -15.4710 -15.4672 -15.4390 -15.4190
   -15.4075 -15.3884 -15.3226 -15.2936 -15.2119 -15.0007 -13.7120 -13.7106
    -9.3924  -4.7171  -3.3841  -3.3152  -3.2437  -3.2241  -3.1463  -3.1024
    -3.0874  -3.0663  -3.0421  -3.0078  -2.9797  -2.9660  -2.9178  -2.9054
    -2.8989  -2.8963  -2.8874  -2.8743  -2.8491  -2.7955  -2.7855  -2.7791
    -2.7583  -2.7521  -2.7361  -2.7164  -2.6709  -2.6544  -2.6116  -2.4542
    -2.4198  -2.4123  -2.3651  -2.3425  -2.2920  -2.2626  -2.1871  -2.1725
    -2.1643  -2.1347  -2.0167  -1.9024  -1.7707  -1.7618  -1.7273  -1.6538
    -1.6200  -1.5555  -1.5274  -1.5051  -1.4791  -1.4365  -1.4167  -1.3357
    -1.3257  -1.2773  -1.2638  -1.2476  -1.1825  -1.1204  -1.0752  -1.0526
    -1.0144  -0.9787  -0.9203  -0.8729  -0.8613  -0.8307  -0.8120  -0.6941
    -0.6620  -0.6300  -0.4820  -0.4508  -0.4429  -0.3969  -0.2460  -0.1975
    -0.1489  -0.1084  -0.0753   0.0563   0.0930   0.1465   0.1549   0.2091
     0.3287   0.3510   0.3951   0.4631   0.4857   0.4962   0.5371   1.0315
     1.1958   1.1985   1.2069   1.2122   3.2399   3.2643   3.2768   3.3080
     3.4821   3.5502   3.5864   3.6143   3.6610   3.7211

     the Fermi energy is     2.1074 ev

!    total energy              =   -2932.63105342 Ry
     estimated scf accuracy    <       0.00000006 Ry
     smearing contrib. (-TS)   =      -0.00015657 Ry
     internal energy E=F+TS    =   -2932.63089686 Ry

     The total energy is F=E-TS. E is the sum of the following terms:
     one-electron contribution =  -24311.60334142 Ry
     hartree contribution      =   12240.08227069 Ry
     xc contribution           =    -482.65275566 Ry
     ewald contribution        =    9621.54259922 Ry
     electric field correction =       0.00033031 Ry

     convergence has been achieved in  79 iterations

     Forces acting on atoms (cartesian axes, Ry/au):

     atom    1 type  1   force =     0.00035475   -0.00031751    0.13236799
     atom    2 type  1   force =     0.00005352    0.00688028   -0.15777999
     atom    3 type  2   force =     0.00014799    0.00441345   -0.05305419
     atom    4 type  2   force =    -0.00038320   -0.00087228    0.04047979
     atom    5 type  2   force =    -0.00905986   -0.00264840    0.00214815
     atom    6 type  2   force =     0.00916561   -0.00496222    0.00181930
     atom    7 type  1   force =     0.00068921    0.00107724    0.00047911
     atom    8 type  1   force =    -0.00078557   -0.00011941   -0.00012753
     atom    9 type  2   force =     0.00000721   -0.00019233    0.00049151
     atom   10 type  2   force =     0.00005007   -0.00007403   -0.00008965
     atom   11 type  2   force =    -0.00062523    0.00022288   -0.00038416
     atom   12 type  2   force =    -0.00047819   -0.00054075   -0.00058943
     atom   13 type  1   force =     0.00097150   -0.00089275   -0.00011007
     atom   14 type  1   force =    -0.00106383   -0.00103703    0.00017650
     atom   15 type  2   force =     0.00000885    0.00015807   -0.00062393
     atom   16 type  2   force =     0.00011756    0.00006475   -0.00070608
     atom   17 type  2   force =     0.00043722    0.00011540    0.00007781
     atom   18 type  2   force =    -0.00050648    0.00046960    0.00005194
     atom   19 type  1   force =    -0.00010057   -0.00014966   -0.00114057
     atom   20 type  1   force =    -0.00013694   -0.00030663   -0.00055380
     atom   21 type  2   force =     0.00016262    0.00008992    0.09922884
     atom   22 type  2   force =     0.00013739    0.00017895    0.00028840
     atom   23 type  2   force =    -0.08040418    0.00141612   -0.03414183
     atom   24 type  2   force =     0.08049571    0.00191354   -0.03418157
     atom   25 type  1   force =     0.00021304   -0.00004916    0.14216915
     atom   26 type  1   force =     0.00009508   -0.00847455   -0.15824359
     atom   27 type  2   force =    -0.00010850   -0.00043315   -0.05128169
     atom   28 type  2   force =    -0.00024866   -0.00030789    0.04227080
     atom   29 type  2   force =    -0.00855631    0.00487485    0.00031538
     atom   30 type  2   force =     0.00770804    0.00352522    0.00001678
     atom   31 type  1   force =     0.00053761   -0.00129895    0.00090124
     atom   32 type  1   force =    -0.00091278    0.00037787   -0.00077739
     atom   33 type  2   force =     0.00002017   -0.00026833   -0.00018600
     atom   34 type  2   force =     0.00000510   -0.00100402    0.00037324
     atom   35 type  2   force =    -0.00041501    0.00006020   -0.00019678
     atom   36 type  2   force =     0.00024061   -0.00020376   -0.00021914
     atom   37 type  1   force =     0.00101475    0.00077945    0.00035979
     atom   38 type  1   force =    -0.00047889    0.00007345    0.00021884
     atom   39 type  2   force =    -0.00027856   -0.00025782    0.00000617
     atom   40 type  2   force =     0.00025858   -0.00026279   -0.00005213
     atom   41 type  2   force =     0.00044904   -0.00037220   -0.00008736
     atom   42 type  2   force =    -0.00029179   -0.00011850   -0.00004906
     atom   43 type  1   force =    -0.00014081    0.00035951   -0.00832302
     atom   44 type  1   force =     0.00028228    0.00009519   -0.00040731
     atom   45 type  2   force =     0.00015585    0.00004068    0.09876763
     atom   46 type  2   force =    -0.08044040   -0.00101167   -0.03414460
     atom   47 type  2   force =     0.08053349   -0.00053113   -0.03417839
     atom   48 type  3   force =    -0.00020994    0.00009441   -0.00004568
     atom   49 type  4   force =    -0.00008562    0.00014868    0.00057261
     atom   50 type  4   force =     0.00008468   -0.00031262    0.00045101
     atom   51 type  4   force =    -0.00039550   -0.00014518    0.00020246
     atom   52 type  2   force =     0.00399173   -0.01047537    0.01446665
     atom   53 type  4   force =    -0.00228244    0.01021039   -0.00702615

     Total force =     0.384468     Total SCF correction =     0.000530
  @ DRIVER MODE: Message from server: STATUS
  @ DRIVER MODE: Message from server: GETFORCE
  @ DRIVER MODE: Returning v,forces,stress,ensemble

     Writing output data file ./calc.save/
  @ DRIVER MODE: Message from server: EXIT
  @ DRIVE MODE: Exiting

     General routines

     Parallel routines

   This run was terminated on:   8:26: 3  23Sep2021

   JOB DONE.