     Program PWSCF v.6.7GPU starts on  9Sep2021 at  5:15:18

     R & G space division:  proc/nbgrp/npool/nimage =      10
     Reading input from /storage/home/hcoda1/3/ntian30/research/carbon/CxH_vib/CH3_calc/ads_slab/CH3OH_e/out_0023/pw.inp
Warning: card &CELL ignored
Warning: card   CELL_DYNAMICS='IPI', ignored
Warning: card / ignored

     Current dimensions of program PWSCF are:
     Max number of different atomic species (ntypx) = 10
     Max number of k-points (npk) =  40000
     Max angular momentum in pseudopotentials (lmaxx) =  3
     Presently no symmetry can be used with electric field

     Message from routine cell_base_init:
     DEPRECATED: use true lattice parameter, not A to a.u. conversion factor

     IMPORTANT: XC functional enforced from input :
     Exchange-correlation= BEEF-VDW
                           (   1   4  43  14   2   0   0)
     Any further DFT definition will be discarded
     Please, verify this is what you really want

  @ DRIVER MODE: Connecting to
 qe_1139763_2767404.sched-torque.pace.gatech.edu637tigzv_scratch
  using UNIX socket
  @ DRIVER MODE: Message from server: STATUS
  @ DRIVER MODE: Message from server: INIT
  @ DRIVER MODE: Receiving replica           0          -1
  @ DRIVER MODE: Receiving encoded integer          25
  @ DRIVER MODE:  SCF:  T  FORCE:  T  STRESS:  F  VC:  F  ENSEMBLE:  F
  @ DRIVER MODE:  SCF:  T  FORCE:  T  STRESS:  F  VC:  F  ENSEMBLE:  F

     Using Slab Decomposition

     bravais-lattice index     =            0
     lattice parameter (alat)  =       1.8897  a.u.
     unit-cell volume          =    6658.9804 (a.u.)^3
     number of atoms/cell      =           53
     number of atomic types    =            4
     number of electrons       =       392.00
     number of Kohn-Sham states=          206
     kinetic-energy cutoff     =      29.3995  Ry
     charge density cutoff     =     293.9946  Ry
     scf convergence threshold =      7.3E-08
     mixing beta               =       0.0500
     number of iterations used =            8  plain     mixing
     Exchange-correlation= BEEF-VDW
                           (   1   4  43  14   2   0   0)

     celldm(1)=   1.889726  celldm(2)=   0.000000  celldm(3)=   0.000000
     celldm(4)=   0.000000  celldm(5)=   0.000000  celldm(6)=   0.000000

     crystal axes: (cart. coord. in units of alat)
               a(1) = (   6.579727   0.000000   0.000000 )
               a(2) = (  -0.000775   5.961596   0.000000 )
               a(3) = (   0.000000   0.000000  25.155947 )

     reciprocal axes: (cart. coord. in units 2 pi/alat)
               b(1) = (  0.151982  0.000020  0.000000 )
               b(2) = (  0.000000  0.167740  0.000000 )
               b(3) = (  0.000000  0.000000  0.039752 )

     PseudoPot. # 1 for Ti read from file:
     /storage/coda1/p-amedford6/0/shared/rich_project_chbe-medford/medford-share/data/pseudos_module/espresso/nninc/pbe/van/Ti.UPF
     MD5 check sum: 8e4df49b7f0d34bbd5052bf3f5ea0213
     Pseudo is Ultrasoft, Zval = 12.0
     Generated by new atomic code, or converted to UPF format
     Using radial grid of  851 points,  6 beta functions with:
                l(1) =   0
                l(2) =   0
                l(3) =   1
                l(4) =   1
                l(5) =   2
                l(6) =   2
     Q(r) pseudized with  8 coefficients,  rinner =    1.000   1.000   1.000
                                                       1.000   1.000

     PseudoPot. # 2 for O  read from file:
     /storage/coda1/p-amedford6/0/shared/rich_project_chbe-medford/medford-share/data/pseudos_module/espresso/nninc/pbe/van/O.UPF
     MD5 check sum: 78c19812648e8988a0fe644b0f25305e
     Pseudo is Ultrasoft, Zval =  6.0
     Generated by new atomic code, or converted to UPF format
     Using radial grid of  737 points,  4 beta functions with:
                l(1) =   0
                l(2) =   0
                l(3) =   1
                l(4) =   1
     Q(r) pseudized with  8 coefficients,  rinner =    0.800   0.800   0.800

     PseudoPot. # 3 for C  read from file:
     /storage/coda1/p-amedford6/0/shared/rich_project_chbe-medford/medford-share/data/pseudos_module/espresso/nninc/pbe/van/C.UPF
     MD5 check sum: 1a69bf6b8db32088f5b2163dbdb77a27
     Pseudo is Ultrasoft, Zval =  4.0
     Generated by new atomic code, or converted to UPF format
     Using radial grid of  721 points,  4 beta functions with:
                l(1) =   0
                l(2) =   0
                l(3) =   1
                l(4) =   1
     Q(r) pseudized with  8 coefficients,  rinner =    0.800   0.800   0.800

     PseudoPot. # 4 for H  read from file:
     /storage/coda1/p-amedford6/0/shared/rich_project_chbe-medford/medford-share/data/pseudos_module/espresso/nninc/pbe/van/H.UPF
     MD5 check sum: b5ee9d7bfd3a09ee7748110bda690ff7
     Pseudo is Ultrasoft, Zval =  1.0
     Generated by new atomic code, or converted to UPF format
     Using radial grid of  615 points,  1 beta functions with:
                l(1) =   0
     Q(r) pseudized with  8 coefficients,  rinner =    0.800

     atomic species   valence    mass     pseudopotential
        Ti1           12.00    47.86700     Ti( 1.00)
        O1             6.00    15.99900     O ( 1.00)
        C1             4.00    12.01100     C ( 1.00)
        H1             1.00     1.00800     H ( 1.00)

     No symmetry found

   Cartesian axes

     site n.     atom                  positions (alat units)
         1           Ti1 tau(   1) = (   0.0004258   2.9801865   6.0000000  )
         2           Ti1 tau(   2) = (   3.2906075   1.4906267   6.0002472  )
         3           O1  tau(   3) = (   0.0006271   0.0005054   7.9858123  )
         4           O1  tau(   4) = (   3.2906025   0.0005020   7.3038282  )
         5           O1  tau(   5) = (   4.5942328   1.4918067   9.2879030  )
         6           O1  tau(   6) = (   1.9868534   1.4903216   9.2879459  )
         7           Ti1 tau(   7) = (   3.3184627   3.0104606   9.1553648  )
         8           Ti1 tau(   8) = (   0.0346466   1.5145919   9.2725854  )
         9           O1  tau(   9) = (   3.3323670   0.0074739  11.3628161  )
        10           O1  tau(  10) = (   0.0072146   0.0022432  10.6032180  )
        11           O1  tau(  11) = (   1.3334854   1.5010653  12.6312402  )
        12           O1  tau(  12) = (   5.3322653   1.4967215  12.6661074  )
        13           Ti1 tau(  13) = (   0.0399007   3.0049294  12.5399032  )
        14           Ti1 tau(  14) = (   3.3257882   1.5006484  12.5017209  )
        15           O1  tau(  15) = (   0.0958175   0.0109015  14.6781201  )
        16           O1  tau(  16) = (   3.3209445   0.0065530  13.9947117  )
        17           O1  tau(  17) = (   4.6470289   1.5235192  16.1521327  )
        18           O1  tau(  18) = (   2.1274687   1.5288575  16.1863263  )
        19           Ti1 tau(  19) = (   3.3866828   2.9872137  15.7186651  )
        20           Ti1 tau(  20) = (   0.0851359   1.3433488  15.9962781  )
        21           O1  tau(  21) = (   3.2904802   0.0005063   4.7018136  )
        22           O1  tau(  22) = (   0.0861787   0.0156205  17.2101336  )
        23           O1  tau(  23) = (   1.3043587   1.4918075   6.0039043  )
        24           O1  tau(  24) = (   5.2767064   1.4903225   6.0039473  )
        25           Ti1 tau(  25) = (   0.0000382   5.9609847   6.0000000  )
        26           Ti1 tau(  26) = (   3.2902200   4.4714249   6.0002472  )
        27           O1  tau(  27) = (   0.0002396   2.9813036   7.9858123  )
        28           O1  tau(  28) = (   3.2902150   2.9813002   7.3038282  )
        29           O1  tau(  29) = (   4.5938453   4.4726049   9.2879030  )
        30           O1  tau(  30) = (   1.9864658   4.4711199   9.2879459  )
        31           Ti1 tau(  31) = (   3.3160408   0.0312979   9.1533790  )
        32           Ti1 tau(  32) = (   0.0342031   4.4824714   9.2635914  )
        33           O1  tau(  33) = (   3.3296961   2.9874083  11.3532073  )
        34           O1  tau(  34) = (   0.0071558   2.9827229  10.6249429  )
        35           O1  tau(  35) = (   1.3339759   4.4780823  12.6303471  )
        36           O1  tau(  36) = (   5.3316377   4.4803543  12.6653953  )
        37           Ti1 tau(  37) = (   0.0318003   0.0267859  12.4824326  )
        38           Ti1 tau(  38) = (   3.3243002   4.4792164  12.4996646  )
        39           O1  tau(  39) = (   0.1017966   3.0039049  14.8467192  )
        40           O1  tau(  40) = (   3.3365867   2.9884115  13.9371009  )
        41           O1  tau(  41) = (   4.6519449   4.4651455  16.1366910  )
        42           O1  tau(  42) = (   2.1329502   4.4467914  16.2189938  )
        43           Ti1 tau(  43) = (   3.3530478   0.0116223  15.7847896  )
        44           Ti1 tau(  44) = (   0.0420906   4.5503417  15.8661587  )
        45           O1  tau(  45) = (   3.2900926   2.9813045   4.7018136  )
        46           O1  tau(  46) = (   1.3039711   4.4726057   6.0039043  )
        47           O1  tau(  47) = (   5.2763189   4.4711207   6.0039473  )
        48           C1  tau(  48) = (   6.0571888   3.1179766  18.9039971  )
        49           O1  tau(  49) = (   0.2335693   3.0433622  17.6694830  )
        50           H1  tau(  50) = (   5.0284728   2.8969007  18.6408099  )
        51           H1  tau(  51) = (   1.1757692   3.2348548  17.8188520  )
        52           H1  tau(  52) = (   6.4315421   2.3664480  19.5988381  )
        53           H1  tau(  53) = (   6.1352977   4.1238860  19.3131673  )

     number of k points=    10  Fermi-Dirac smearing, width (Ry)=  0.0073
                       cart. coord. in units 2pi/alat
        k(    1) = (   0.0000000   0.0000000   0.0000000), wk =   0.1250000
        k(    2) = (   0.0000000   0.0419351   0.0000000), wk =   0.2500000
        k(    3) = (   0.0000000  -0.0838702   0.0000000), wk =   0.1250000
        k(    4) = (   0.0379955   0.0000049   0.0000000), wk =   0.2500000
        k(    5) = (   0.0379955   0.0419400   0.0000000), wk =   0.2500000
        k(    6) = (   0.0379955  -0.0838652   0.0000000), wk =   0.2500000
        k(    7) = (   0.0379955  -0.0419301   0.0000000), wk =   0.2500000
        k(    8) = (  -0.0759910  -0.0000099   0.0000000), wk =   0.1250000
        k(    9) = (  -0.0759910   0.0419252   0.0000000), wk =   0.2500000
        k(   10) = (  -0.0759910  -0.0838800   0.0000000), wk =   0.1250000

     Initial potential from superposition of free atoms

     starting charge  375.99917, renormalised to  392.00000

     negative rho (up, down):  1.694E-02 0.000E+00

     %%%%%%%%%%%%%%%%%%%%%%%%%%%%%%%%%%%%%%%%%%%%%%%%%%%%%%%%%%%%%%%%%%%%%%%%
     %                                                                      %
     % You are using vdW-DF, which was implemented by the Thonhauser group. %
     % Please cite the following two papers that made this development      %
     % possible and the two reviews that describe the various versions:     %
     %                                                                      %
     %   T. Thonhauser et al., PRL 115, 136402 (2015).                      %
     %   T. Thonhauser et al., PRB 76, 125112 (2007).                       %
     %   K. Berland et al., Rep. Prog. Phys. 78, 066501 (2015).             %
     %   D.C. Langreth et al., J. Phys.: Condens. Matter 21, 084203 (2009). %
     %                                                                      %
     %                                                                      %
     % If you are calculating the stress with vdW-DF, please also cite:     %
     %                                                                      %
     %   R. Sabatini et al., J. Phys.: Condens. Matter 24, 424209 (2012).   %
     %                                                                      %
     %%%%%%%%%%%%%%%%%%%%%%%%%%%%%%%%%%%%%%%%%%%%%%%%%%%%%%%%%%%%%%%%%%%%%%%%

     Adding external electric field

     Computed dipole along edir(3) :
        Dipole               -7.1848 Ry au,        -18.2619 Debye
        Dipole field         -0.0136 Ry au,

        Potential amp.        1.2569 Ry
        Total length         46.3494 bohr

     Starting wfcs are  296 atomic wfcs
  @ DRIVER MODE: Message from server: STATUS
  @ DRIVER MODE: Message from server: POSDATA
  @ DRIVER MODE: Reading and sharing cell
  @ DRIVER MODE: Reading and sharing positions
  @ DRIVER MODE: Received positions

     Self-consistent Calculation

     iteration #  1     ecut=    29.40 Ry     beta= 0.05
     Davidson diagonalization with overlap
     c_bands:  1 eigenvalues not converged
     c_bands:  1 eigenvalues not converged
     c_bands:  2 eigenvalues not converged
     c_bands:  1 eigenvalues not converged
     c_bands:  1 eigenvalues not converged
     c_bands:  1 eigenvalues not converged
     ethr =  1.00E-05,  avg # of iterations = 19.0

[...]

     total energy              =   -2696.73389447 Ry
     estimated scf accuracy    <    2608.95452835 Ry

[...]

     iteration #  6     ecut=    29.40 Ry     beta= 0.05
     Davidson diagonalization with overlap
     ethr =  1.00E-02,  avg # of iterations =  2.7

[...]

     iteration # 56     ecut=    29.40 Ry     beta= 0.05
     Davidson diagonalization with overlap
     c_bands:  2 eigenvalues not converged
     ethr =  2.12E-09,  avg # of iterations = 10.4

[...]

     total energy              =   -2932.64530353 Ry
     estimated scf accuracy    <       0.00000011 Ry

     iteration # 65     ecut=    29.40 Ry     beta= 0.05
     Davidson diagonalization with overlap
     ethr =  2.83E-11,  avg # of iterations =  6.2

     negative rho (up, down):  1.738E-02 0.000E+00

     Adding external electric field

     Computed dipole along edir(3) :
        Dipole                1.3718 Ry au,          3.4867 Debye
        Dipole field          0.0026 Ry au,

        Potential amp.       -0.2400 Ry
        Total length         46.3494 bohr

     End of self-consistent calculation

          k = 0.0000 0.0000 0.0000 ( 18029 PWs)   bands (ev):

   -55.4026 -55.3704 -55.3664 -55.3360 -55.2968 -55.2909 -55.2891 -55.2452
   -55.2293 -55.2282 -55.1949 -55.1870 -55.1831 -55.1530 -54.4607 -54.4266
   -31.9783 -31.9093 -31.8654 -31.7759 -31.7301 -31.7067 -31.6993 -31.6981
   -31.6595 -31.6587 -31.6141 -31.6131 -31.6097 -31.6024 -31.5807 -31.5591
   -31.5546 -31.5372 -31.5321 -31.5244 -31.5218 -31.5112 -31.4873 -31.4868
   -31.4862 -31.4668 -31.4612 -31.4582 -31.4278 -31.4213 -31.4126 -31.3929
   -31.3911 -31.3909 -31.3711 -31.3655 -31.3565 -31.3452 -31.3310 -31.3236
   -31.3129 -31.2987 -30.8727 -30.7703 -30.7487 -30.6891 -30.6028 -30.4916
   -20.2555 -16.2501 -15.9833 -15.8484 -15.7440 -15.6218 -15.4936 -15.4818
   -15.3493 -15.2222 -15.1559 -15.1337 -15.0986 -15.0815 -15.0485 -15.0436
   -15.0286 -14.9574 -14.9309 -14.9121 -14.8861 -14.8821 -14.8446 -14.8344
   -14.7928 -14.7862 -14.6403 -14.5610 -14.4999 -14.2606 -12.9613 -12.8418
   -11.2543  -7.0018  -5.2136  -5.0608  -3.5849  -3.4135  -3.3614  -3.3343
    -3.3285  -3.1972  -3.0877  -3.0376  -2.8309  -2.7035  -2.6688  -2.6596
    -2.6258  -2.5862  -2.4722  -2.3826  -2.3567  -2.3435  -2.2970  -2.2902
    -2.2736  -2.2200  -2.1981  -2.1787  -2.1735  -2.0127  -1.9479  -1.8990
    -1.8870  -1.8405  -1.8026  -1.7427  -1.7393  -1.7242  -1.6867  -1.6826
    -1.6615  -1.6294  -1.6150  -1.4421  -1.3947  -1.3660  -1.2717  -1.1783
    -1.0903  -0.9926  -0.9759  -0.9616  -0.9168  -0.8493  -0.8407  -0.8074
    -0.7692  -0.6493  -0.5822  -0.5350  -0.4817  -0.4044  -0.4038  -0.3444
    -0.2070  -0.1926  -0.1841  -0.1688  -0.0655   0.0139   0.0266   0.0861
     0.1358   0.1586   0.2314   0.2511   0.3159   0.3393   0.4046   0.4217
     0.5087   0.5298   0.5439   0.5637   0.5818   0.6733   0.6997   0.7464
     0.7536   0.9085   1.0370   1.1601   1.1740   1.4546   1.5458   1.5654
     1.7247   2.1514   2.2062   3.6952   3.7596   3.8081   3.8168   3.8278
     3.9057   4.1844   4.1911   4.1966   4.2118   4.2210

[...]

          k = 0.0380-0.0419 0.0000 ( 17876 PWs)   bands (ev):

[...]

          k =-0.0760-0.0000 0.0000 ( 17886 PWs)   bands (ev):

[...]

          k =-0.0760-0.0839 0.0000 ( 17948 PWs)   bands (ev):

   -55.3854 -55.3835 -55.3550 -55.3512 -55.2906 -55.2874 -55.2833 -55.2528
   -55.2332 -55.2141 -55.2097 -55.1858 -55.1722 -55.1679 -54.4436 -54.4435
   -31.8274 -31.7813 -31.7799 -31.7061 -31.6821 -31.6785 -31.6660 -31.6483
   -31.6411 -31.6211 -31.6079 -31.6037 -31.5986 -31.5799 -31.5525 -31.5423
   -31.5337 -31.5302 -31.5302 -31.5272 -31.5259 -31.5226 -31.5144 -31.4876
   -31.4809 -31.4779 -31.4754 -31.4746 -31.4731 -31.4716 -31.4674 -31.4528
   -31.4441 -31.4383 -31.4250 -31.4143 -31.4126 -31.3944 -31.3898 -31.3731
   -31.3599 -31.3557 -30.7613 -30.7612 -30.6855 -30.6853 -30.6460 -30.6460
   -20.2519 -15.7779 -15.6873 -15.6125 -15.4233 -15.4119 -15.4030 -15.3966
   -15.2839 -15.2556 -15.2235 -15.1831 -15.1667 -15.1628 -15.1463 -15.1391
   -15.0013 -14.9976 -14.9925 -14.9910 -14.9202 -14.9153 -14.9008 -14.8861
   -14.8478 -14.8432 -14.8275 -14.8216 -14.7209 -14.5780 -12.9432 -12.9424
   -11.2561  -7.0020  -5.2036  -5.0507  -3.1001  -2.9651  -2.8836  -2.8733
    -2.6375  -2.6306  -2.5908  -2.5297  -2.4787  -2.4271  -2.4017  -2.3986
    -2.3209  -2.3170  -2.3102  -2.3047  -2.2725  -2.2691  -2.2257  -2.2017
    -2.1782  -2.1237  -2.1063  -2.0960  -2.0727  -2.0681  -2.0593  -2.0341
    -2.0294  -2.0108  -1.9435  -1.8635  -1.7920  -1.7750  -1.7403  -1.6270
    -1.6167  -1.5792  -1.5399  -1.4967  -1.4762  -1.4515  -1.4043  -1.3524
    -1.2503  -1.1974  -1.1897  -1.1496  -1.0812  -1.0358  -1.0027  -0.9537
    -0.9047  -0.8725  -0.8313  -0.7644  -0.7138  -0.6243  -0.6183  -0.5746
    -0.4344  -0.4289  -0.4037  -0.3929  -0.3901  -0.3042  -0.2903  -0.2450
    -0.1991  -0.1449  -0.1203  -0.1121   0.0839   0.0935   0.1783   0.2713
     0.2807   0.4357   0.4511   0.5183   0.5898   0.6335   0.6738   0.7370
     0.8369   0.8686   0.8917   0.9855   1.0272   1.0328   1.0595   1.9173
     1.9185   2.0204   2.0234   3.8370   3.9092   3.9418   4.0132   4.0744
     4.2041   4.2169   4.2471   4.2530   4.3282   4.3404

     the Fermi energy is     3.7502 ev

!    total energy              =   -2932.64532704 Ry
     estimated scf accuracy    <       0.00000007 Ry
     smearing contrib. (-TS)   =      -0.03689640 Ry
     internal energy E=F+TS    =   -2932.60843064 Ry

     The total energy is F=E-TS. E is the sum of the following terms:
     one-electron contribution =  -24389.88801525 Ry
     hartree contribution      =   12284.69952313 Ry
     xc contribution           =    -483.01951783 Ry
     ewald contribution        =    9655.59602811 Ry
     electric field correction =       0.00355120 Ry

     convergence has been achieved in  65 iterations

     Forces acting on atoms (cartesian axes, Ry/au):

     atom    1 type  1   force =    -0.00034317   -0.00014723    0.09279067
     atom    2 type  1   force =    -0.00024030    0.00065963   -0.18341128
     atom    3 type  2   force =     0.00047484    0.00086050   -0.02413924
     atom    4 type  2   force =     0.00075584    0.00051851    0.04950416
     atom    5 type  2   force =    -0.01309989    0.00029671    0.00324918
     atom    6 type  2   force =     0.01563534   -0.00028547    0.00544253
     atom    7 type  1   force =     0.00018464    0.00090252   -0.00001832
     atom    8 type  1   force =    -0.00021667   -0.00027015   -0.00039596
     atom    9 type  2   force =    -0.00005904    0.00022958   -0.00021589
     atom   10 type  2   force =     0.00013701    0.00048911    0.00164009
     atom   11 type  2   force =    -0.00000065   -0.00046346    0.00003580
     atom   12 type  2   force =    -0.00056249    0.00040937   -0.00027277
     atom   13 type  1   force =     0.00101685   -0.00065256    0.00010381
     atom   14 type  1   force =    -0.00081040    0.00093762    0.00065698
     atom   15 type  2   force =    -0.00063746   -0.00024364   -0.00027126
     atom   16 type  2   force =     0.00064327   -0.00024232   -0.00043937
     atom   17 type  2   force =    -0.00071586    0.00000909    0.00087413
     atom   18 type  2   force =    -0.00047871   -0.00012903    0.00017828
     atom   19 type  1   force =     0.00009714   -0.00091874    0.00004786
     atom   20 type  1   force =    -0.00059080    0.00014689    0.00001284
     atom   21 type  2   force =    -0.00005206    0.00001325    0.10496700
     atom   22 type  2   force =    -0.00018480   -0.00134867    0.00088952
     atom   23 type  2   force =    -0.06792395   -0.00003606   -0.02679201
     atom   24 type  2   force =     0.06769677    0.00039467   -0.02687500
     atom   25 type  1   force =    -0.00037714    0.00013810    0.09636623
     atom   26 type  1   force =    -0.00022470   -0.00047126   -0.18354514
     atom   27 type  2   force =     0.00041744    0.00059073   -0.02278084
     atom   28 type  2   force =     0.00079571    0.00033124    0.04920706
     atom   29 type  2   force =    -0.01324321    0.00068293    0.00321916
     atom   30 type  2   force =     0.01571168    0.00023903    0.00536714
     atom   31 type  1   force =     0.00029137   -0.00138584   -0.00018280
     atom   32 type  1   force =    -0.00005721   -0.00014920    0.00029784
     atom   33 type  2   force =     0.00033669   -0.00009653    0.00079891
     atom   34 type  2   force =     0.00036305    0.00036132    0.00038065
     atom   35 type  2   force =    -0.00035421    0.00004962    0.00013665
     atom   36 type  2   force =    -0.00026351    0.00028304    0.00001978
     atom   37 type  1   force =     0.00136705   -0.00001651   -0.00050820
     atom   38 type  1   force =    -0.00076955   -0.00078082    0.00090870
     atom   39 type  2   force =    -0.00061601    0.00020321   -0.00059529
     atom   40 type  2   force =    -0.00063113    0.00037297   -0.00013562
     atom   41 type  2   force =    -0.00072096   -0.00004180    0.00066206
     atom   42 type  2   force =    -0.00092872   -0.00043421    0.00033727
     atom   43 type  1   force =    -0.00026009    0.00103859    0.00039766
     atom   44 type  1   force =     0.00001107    0.00030890    0.00059154
     atom   45 type  2   force =    -0.00005402    0.00002984    0.10494201
     atom   46 type  2   force =    -0.06787655   -0.00057521   -0.02679220
     atom   47 type  2   force =     0.06765332   -0.00010176   -0.02687044
     atom   48 type  3   force =     0.00139271   -0.00070546   -0.00037667
     atom   49 type  2   force =    -0.00451088   -0.00174953   -0.00265362
     atom   50 type  4   force =     0.00008086   -0.00020380    0.00076139
     atom   51 type  4   force =     0.00254392    0.00052144    0.00292236
     atom   52 type  4   force =    -0.00055521    0.00037283   -0.00020912
     atom   53 type  4   force =    -0.00024718    0.00005802   -0.00022818

     Total force =     0.368091     Total SCF correction =     0.000724
  @ DRIVER MODE: Message from server: STATUS
  @ DRIVER MODE: Message from server: GETFORCE
  @ DRIVER MODE: Returning v,forces,stress,ensemble

     Writing output data file ./calc.save/
  @ DRIVER MODE: Message from server: EXIT
  @ DRIVE MODE: Exiting

     General routines

     Parallel routines

   This run was terminated on:   5:33:59   9Sep2021

   JOB DONE.