     Program PWSCF v.6.7GPU starts on 25Sep2021 at 17: 2: 6

     R & G space division:  proc/nbgrp/npool/nimage =       8
     Reading input from /storage/home/hcoda1/3/ntian30/research/carbon/CxH_vib/H2O_calc/ads_slab/CH3OH2O_a/out_0003/pw.inp
Warning: card &CELL ignored
Warning: card   CELL_DYNAMICS='IPI', ignored
Warning: card / ignored

     Current dimensions of program PWSCF are:
     Max number of different atomic species (ntypx) = 10
     Max number of k-points (npk) =  40000
     Max angular momentum in pseudopotentials (lmaxx) =  3
     Presently no symmetry can be used with electric field

     Message from routine cell_base_init:
     DEPRECATED: use true lattice parameter, not A to a.u. conversion factor

     IMPORTANT: XC functional enforced from input :
     Exchange-correlation= BEEF-VDW
                           (   1   4  43  14   2   0   0)
     Any further DFT definition will be discarded
     Please, verify this is what you really want

  @ DRIVER MODE: Connecting to
 qe_1139763_2971673.sched-torque.pace.gatech.edunnma83pn_scratch
  using UNIX socket
  @ DRIVER MODE: Message from server: STATUS
  @ DRIVER MODE: Message from server: INIT
  @ DRIVER MODE: Receiving replica           0          -1
  @ DRIVER MODE: Receiving encoded integer          25
  @ DRIVER MODE:  SCF:  T  FORCE:  T  STRESS:  F  VC:  F  ENSEMBLE:  F
  @ DRIVER MODE:  SCF:  T  FORCE:  T  STRESS:  F  VC:  F  ENSEMBLE:  F

     Using Slab Decomposition

     bravais-lattice index     =            0
     lattice parameter (alat)  =       1.8897  a.u.
     unit-cell volume          =    6658.9804 (a.u.)^3
     number of atoms/cell      =           55
     number of atomic types    =            4
     number of electrons       =       399.00
     number of Kohn-Sham states=          209
     kinetic-energy cutoff     =      29.3995  Ry
     charge density cutoff     =     293.9946  Ry
     scf convergence threshold =      7.3E-08
     mixing beta               =       0.0500
     number of iterations used =            8  plain     mixing
     Exchange-correlation= BEEF-VDW
                           (   1   4  43  14   2   0   0)

     celldm(1)=   1.889726  celldm(2)=   0.000000  celldm(3)=   0.000000
     celldm(4)=   0.000000  celldm(5)=   0.000000  celldm(6)=   0.000000

     crystal axes: (cart. coord. in units of alat)
               a(1) = (   6.579727   0.000000   0.000000 )
               a(2) = (  -0.000775   5.961596   0.000000 )
               a(3) = (   0.000000   0.000000  25.155947 )

     reciprocal axes: (cart. coord. in units 2 pi/alat)
               b(1) = (  0.151982  0.000020  0.000000 )
               b(2) = (  0.000000  0.167740  0.000000 )
               b(3) = (  0.000000  0.000000  0.039752 )

     PseudoPot. # 1 for Ti read from file:
     /storage/coda1/p-amedford6/0/shared/rich_project_chbe-medford/medford-share/data/pseudos_module/espresso/nninc/pbe/van/Ti.UPF
     MD5 check sum: 8e4df49b7f0d34bbd5052bf3f5ea0213
     Pseudo is Ultrasoft, Zval = 12.0
     Generated by new atomic code, or converted to UPF format
     Using radial grid of  851 points,  6 beta functions with:
                l(1) =   0
                l(2) =   0
                l(3) =   1
                l(4) =   1
                l(5) =   2
                l(6) =   2
     Q(r) pseudized with  8 coefficients,  rinner =    1.000   1.000   1.000
                                                       1.000   1.000

     PseudoPot. # 2 for O  read from file:
     /storage/coda1/p-amedford6/0/shared/rich_project_chbe-medford/medford-share/data/pseudos_module/espresso/nninc/pbe/van/O.UPF
     MD5 check sum: 78c19812648e8988a0fe644b0f25305e
     Pseudo is Ultrasoft, Zval =  6.0
     Generated by new atomic code, or converted to UPF format
     Using radial grid of  737 points,  4 beta functions with:
                l(1) =   0
                l(2) =   0
                l(3) =   1
                l(4) =   1
     Q(r) pseudized with  8 coefficients,  rinner =    0.800   0.800   0.800

     PseudoPot. # 3 for C  read from file:
     /storage/coda1/p-amedford6/0/shared/rich_project_chbe-medford/medford-share/data/pseudos_module/espresso/nninc/pbe/van/C.UPF
     MD5 check sum: 1a69bf6b8db32088f5b2163dbdb77a27
     Pseudo is Ultrasoft, Zval =  4.0
     Generated by new atomic code, or converted to UPF format
     Using radial grid of  721 points,  4 beta functions with:
                l(1) =   0
                l(2) =   0
                l(3) =   1
                l(4) =   1
     Q(r) pseudized with  8 coefficients,  rinner =    0.800   0.800   0.800

     PseudoPot. # 4 for H  read from file:
     /storage/coda1/p-amedford6/0/shared/rich_project_chbe-medford/medford-share/data/pseudos_module/espresso/nninc/pbe/van/H.UPF
     MD5 check sum: b5ee9d7bfd3a09ee7748110bda690ff7
     Pseudo is Ultrasoft, Zval =  1.0
     Generated by new atomic code, or converted to UPF format
     Using radial grid of  615 points,  1 beta functions with:
                l(1) =   0
     Q(r) pseudized with  8 coefficients,  rinner =    0.800

     atomic species   valence    mass     pseudopotential
        Ti1           12.00    47.86700     Ti( 1.00)
        O1             6.00    15.99900     O ( 1.00)
        C1             4.00    12.01100     C ( 1.00)
        H1             1.00     1.00800     H ( 1.00)

     No symmetry found

   Cartesian axes

     site n.     atom                  positions (alat units)
         1           Ti1 tau(   1) = (   0.0004258   2.9801865   6.0000000  )
         2           Ti1 tau(   2) = (   3.2906075   1.4906267   6.0002472  )
         3           O1  tau(   3) = (   0.0006271   0.0005054   7.9858123  )
         4           O1  tau(   4) = (   3.2906025   0.0005020   7.3038282  )
         5           O1  tau(   5) = (   4.5942328   1.4918067   9.2879030  )
         6           O1  tau(   6) = (   1.9868534   1.4903216   9.2879459  )
         7           Ti1 tau(   7) = (   3.2820359   3.0439161   9.1623595  )
         8           Ti1 tau(   8) = (   6.5599266   1.6132547   9.3553476  )
         9           O1  tau(   9) = (   3.2945286   0.0238644  11.3456088  )
        10           O1  tau(  10) = (   0.0063054   0.0138127  10.6020390  )
        11           O1  tau(  11) = (   1.2951583   1.5100513  12.6443238  )
        12           O1  tau(  12) = (   5.2990995   1.5148170  12.6233090  )
        13           Ti1 tau(  13) = (   0.0263474   3.0106421  12.7494805  )
        14           Ti1 tau(  14) = (   3.3336015   1.5167552  12.4948480  )
        15           O1  tau(  15) = (   6.5448532   0.0190031  14.6983011  )
        16           O1  tau(  16) = (   3.3224233   0.0259125  13.9568087  )
        17           O1  tau(  17) = (   4.5367000   1.5168325  16.1249780  )
        18           O1  tau(  18) = (   2.0218268   1.5507800  16.0022153  )
        19           Ti1 tau(  19) = (   3.2743302   2.9980917  15.6870858  )
        20           Ti1 tau(  20) = (   0.0201860   1.3869735  16.0719154  )
        21           O1  tau(  21) = (   3.2904802   0.0005063   4.7018136  )
        22           O1  tau(  22) = (   0.0925506   0.0150102  17.2361640  )
        23           O1  tau(  23) = (   1.3043587   1.4918075   6.0039043  )
        24           O1  tau(  24) = (   5.2767064   1.4903225   6.0039473  )
        25           Ti1 tau(  25) = (   0.0000382   5.9609847   6.0000000  )
        26           Ti1 tau(  26) = (   3.2902200   4.4714249   6.0002472  )
        27           O1  tau(  27) = (   0.0002396   2.9813036   7.9858123  )
        28           O1  tau(  28) = (   3.2902150   2.9813002   7.3038282  )
        29           O1  tau(  29) = (   4.5938453   4.4726049   9.2879030  )
        30           O1  tau(  30) = (   1.9864658   4.4711199   9.2879459  )
        31           Ti1 tau(  31) = (   3.2669230   0.0652730   9.1555536  )
        32           Ti1 tau(  32) = (   6.5613759   4.5453191   9.2698998  )
        33           O1  tau(  33) = (   3.2918870   3.0052186  11.3478826  )
        34           O1  tau(  34) = (   0.0060846   2.9950393  10.5821163  )
        35           O1  tau(  35) = (   1.2959246   4.5006532  12.6413340  )
        36           O1  tau(  36) = (   5.2961686   4.4944485  12.6189864  )
        37           Ti1 tau(  37) = (   0.0327138   0.0295606  12.5236923  )
        38           Ti1 tau(  38) = (   3.3339673   4.5113903  12.4983483  )
        39           O1  tau(  39) = (   6.5730609   3.0277731  14.6772624  )
        40           O1  tau(  40) = (   3.3208155   3.0007925  13.9016932  )
        41           O1  tau(  41) = (   4.5507661   4.4739758  16.0704957  )
        42           O1  tau(  42) = (   2.0281244   4.4521521  15.9894756  )
        43           Ti1 tau(  43) = (   3.3328935   0.0118079  15.7915215  )
        44           Ti1 tau(  44) = (   0.0096178   4.5175135  15.9069376  )
        45           O1  tau(  45) = (   3.2900926   2.9813045   4.7018136  )
        46           O1  tau(  46) = (   1.3039711   4.4726057   6.0039043  )
        47           O1  tau(  47) = (   5.2763189   4.4711207   6.0039473  )
        48           C1  tau(  48) = (   6.0108469   3.0392512  18.6187439  )
        49           O1  tau(  49) = (   6.5747659   3.0013081  17.3187206  )
        50           H1  tau(  50) = (   4.9221177   3.1735116  18.5649479  )
        51           H1  tau(  51) = (   6.2378858   2.1236533  19.1567593  )
        52           H1  tau(  52) = (   6.4208835   3.9027719  19.1655001  )
        53           O1  tau(  53) = (   2.8960476   5.8777769  18.1661119  )
        54           H1  tau(  54) = (   3.1709146   0.7341104  18.6084320  )
        55           H1  tau(  55) = (   1.9162551   5.9097105  18.1191095  )

     number of k points=    10  Fermi-Dirac smearing, width (Ry)=  0.0073
                       cart. coord. in units 2pi/alat
        k(    1) = (   0.0000000   0.0000000   0.0000000), wk =   0.1250000
        k(    2) = (   0.0000000   0.0419351   0.0000000), wk =   0.2500000
        k(    3) = (   0.0000000  -0.0838702   0.0000000), wk =   0.1250000
        k(    4) = (   0.0379955   0.0000049   0.0000000), wk =   0.2500000
        k(    5) = (   0.0379955   0.0419400   0.0000000), wk =   0.2500000
        k(    6) = (   0.0379955  -0.0838652   0.0000000), wk =   0.2500000
        k(    7) = (   0.0379955  -0.0419301   0.0000000), wk =   0.2500000
        k(    8) = (  -0.0759910  -0.0000099   0.0000000), wk =   0.1250000
        k(    9) = (  -0.0759910   0.0419252   0.0000000), wk =   0.2500000
        k(   10) = (  -0.0759910  -0.0838800   0.0000000), wk =   0.1250000

     Initial potential from superposition of free atoms

     starting charge  382.99916, renormalised to  399.00000

     negative rho (up, down):  1.705E-02 0.000E+00

     %%%%%%%%%%%%%%%%%%%%%%%%%%%%%%%%%%%%%%%%%%%%%%%%%%%%%%%%%%%%%%%%%%%%%%%%
     %                                                                      %
     % You are using vdW-DF, which was implemented by the Thonhauser group. %
     % Please cite the following two papers that made this development      %
     % possible and the two reviews that describe the various versions:     %
     %                                                                      %
     %   T. Thonhauser et al., PRL 115, 136402 (2015).                      %
     %   T. Thonhauser et al., PRB 76, 125112 (2007).                       %
     %   K. Berland et al., Rep. Prog. Phys. 78, 066501 (2015).             %
     %   D.C. Langreth et al., J. Phys.: Condens. Matter 21, 084203 (2009). %
     %                                                                      %
     %                                                                      %
     % If you are calculating the stress with vdW-DF, please also cite:     %
     %                                                                      %
     %   R. Sabatini et al., J. Phys.: Condens. Matter 24, 424209 (2012).   %
     %                                                                      %
     %%%%%%%%%%%%%%%%%%%%%%%%%%%%%%%%%%%%%%%%%%%%%%%%%%%%%%%%%%%%%%%%%%%%%%%%

     Adding external electric field

     Computed dipole along edir(3) :
        Dipole               -9.9871 Ry au,        -25.3847 Debye
        Dipole field         -0.0188 Ry au,

        Potential amp.        1.7471 Ry
        Total length         46.3494 bohr

     Starting wfcs are  301 atomic wfcs
  @ DRIVER MODE: Message from server: STATUS
  @ DRIVER MODE: Message from server: POSDATA
  @ DRIVER MODE: Reading and sharing cell
  @ DRIVER MODE: Reading and sharing positions
  @ DRIVER MODE: Received positions

     Self-consistent Calculation

     iteration #  1     ecut=    29.40 Ry     beta= 0.05
     Davidson diagonalization with overlap
     c_bands:  2 eigenvalues not converged
     c_bands:  2 eigenvalues not converged
     c_bands:  3 eigenvalues not converged
     c_bands:  3 eigenvalues not converged
     c_bands:  1 eigenvalues not converged
     c_bands:  3 eigenvalues not converged
     c_bands:  3 eigenvalues not converged
     c_bands:  1 eigenvalues not converged
     ethr =  1.00E-05,  avg # of iterations = 19.6

[...]

     total energy              =   -2489.87057640 Ry
     estimated scf accuracy    <    5304.37557364 Ry

     iteration #  2     ecut=    29.40 Ry     beta= 0.05
     Davidson diagonalization with overlap
     ethr =  1.00E-02,  avg # of iterations = 24.5

[...]

     iteration # 73     ecut=    29.40 Ry     beta= 0.05
     Davidson diagonalization with overlap
     c_bands:  1 eigenvalues not converged
     c_bands:  1 eigenvalues not converged
     c_bands:  1 eigenvalues not converged
     ethr =  5.46E-11,  avg # of iterations = 16.6

[...]

     total energy              =   -2966.34203574 Ry
     estimated scf accuracy    <       0.00000052 Ry

     iteration # 74     ecut=    29.40 Ry     beta= 0.05
     Davidson diagonalization with overlap
     ethr =  5.46E-11,  avg # of iterations = 12.0

     negative rho (up, down):  1.686E-02 0.000E+00

     Adding external electric field

     Computed dipole along edir(3) :
        Dipole                0.9473 Ry au,          2.4077 Debye
        Dipole field          0.0018 Ry au,

        Potential amp.       -0.1657 Ry
        Total length         46.3494 bohr

     End of self-consistent calculation

          k = 0.0000 0.0000 0.0000 ( 18029 PWs)   bands (ev):

   -55.7047 -55.6688 -55.6660 -55.6297 -55.6179 -55.6054 -55.5835 -55.5493
   -55.4946 -55.4811 -55.4707 -55.4545 -55.4197 -55.3792 -54.7081 -54.6740
   -32.2237 -32.1742 -32.0957 -32.0630 -32.0469 -31.9971 -31.9807 -31.9704
   -31.9371 -31.9341 -31.8932 -31.8825 -31.8768 -31.8714 -31.8643 -31.8485
   -31.8474 -31.8041 -31.7996 -31.7964 -31.7883 -31.7841 -31.7692 -31.7554
   -31.7490 -31.7440 -31.7262 -31.7032 -31.6965 -31.6951 -31.6883 -31.6851
   -31.6725 -31.6649 -31.6518 -31.6443 -31.6370 -31.6008 -31.5951 -31.5704
   -31.5616 -31.5551 -31.1171 -31.0221 -30.9997 -30.9339 -30.8478 -30.7365
   -18.9051 -17.5552 -16.4195 -16.1501 -15.9890 -15.8612 -15.8228 -15.6272
   -15.5111 -15.3866 -15.3603 -15.3053 -15.2808 -15.2409 -15.2350 -15.2261
   -15.2155 -15.2068 -15.1531 -15.1188 -15.1062 -15.0966 -15.0846 -15.0335
   -14.9813 -14.9173 -14.8450 -14.8220 -14.7975 -14.7258 -14.7047 -13.2086
   -13.0907  -9.4267  -6.6737  -4.2696  -4.1050  -3.7938  -3.7615  -3.6425
    -3.6173  -3.5875  -3.5062  -3.3084  -3.2759  -3.1530  -2.9415  -2.8831
    -2.8273  -2.8034  -2.7615  -2.6103  -2.5920  -2.5207  -2.5099  -2.4913
    -2.4805  -2.4488  -2.4308  -2.3981  -2.3711  -2.3322  -2.2855  -2.2253
    -2.0864  -2.0722  -2.0346  -2.0174  -2.0057  -1.9911  -1.9540  -1.9328
    -1.8996  -1.8816  -1.8717  -1.7715  -1.6636  -1.5696  -1.5340  -1.4636
    -1.3829  -1.2386  -1.2183  -1.1468  -1.1218  -1.1058  -1.0549  -1.0031
    -0.9409  -0.9379  -0.8803  -0.7816  -0.7160  -0.6949  -0.6578  -0.6092
    -0.5501  -0.4738  -0.4442  -0.4271  -0.4041  -0.3914  -0.2043  -0.1797
    -0.1369  -0.1100  -0.0273   0.0313   0.0483   0.0667   0.0927   0.1199
     0.1932   0.2528   0.2623   0.2888   0.3327   0.3474   0.3826   0.4464
     0.4976   0.5158   0.5635   0.6125   0.6645   0.8044   0.9087   0.9506
     1.0621   1.2272   1.3163   1.3902   1.4914   1.9018   1.9577   3.4752
     3.5071   3.5353   3.5565   3.6336   3.7255   3.8350   3.9274   3.9424
     3.9716

[...]

          k = 0.0380-0.0419 0.0000 ( 17876 PWs)   bands (ev):

[...]

          k =-0.0760-0.0000 0.0000 ( 17886 PWs)   bands (ev):

[...]

          k =-0.0760-0.0839 0.0000 ( 17948 PWs)   bands (ev):

   -55.6924 -55.6809 -55.6498 -55.6458 -55.6151 -55.6035 -55.5708 -55.5621
   -55.4969 -55.4778 -55.4728 -55.4417 -55.4326 -55.3821 -54.6915 -54.6905
   -32.0369 -32.0178 -31.9970 -31.9907 -31.9850 -31.9836 -31.9665 -31.9298
   -31.9204 -31.9121 -31.9033 -31.8939 -31.8562 -31.8457 -31.8316 -31.8268
   -31.8263 -31.8198 -31.8182 -31.8105 -31.8031 -31.8002 -31.7929 -31.7840
   -31.7753 -31.7718 -31.7670 -31.7666 -31.7563 -31.7404 -31.7142 -31.6972
   -31.6924 -31.6858 -31.6851 -31.6818 -31.6752 -31.6586 -31.6482 -31.6369
   -31.6070 -31.5727 -31.0130 -31.0118 -30.9304 -30.9296 -30.8913 -30.8904
   -18.9038 -17.5227 -15.8882 -15.7745 -15.6560 -15.5821 -15.5702 -15.5241
   -15.4939 -15.4677 -15.4100 -15.4027 -15.3549 -15.3533 -15.3025 -15.2966
   -15.2456 -15.2136 -15.2093 -15.1681 -15.1451 -15.1369 -15.1267 -15.0901
   -15.0734 -15.0635 -15.0285 -15.0193 -14.9703 -14.9316 -14.9054 -13.1930
   -13.1912  -9.4290  -6.6682  -4.1659  -4.0729  -3.7866  -3.3071  -3.1743
    -2.9707  -2.9015  -2.8361  -2.7737  -2.7699  -2.6540  -2.6341  -2.5954
    -2.5647  -2.5319  -2.5241  -2.5139  -2.4974  -2.4949  -2.4778  -2.4382
    -2.4183  -2.3936  -2.3721  -2.3602  -2.3390  -2.3166  -2.3090  -2.2892
    -2.2562  -2.2497  -2.2420  -2.1784  -2.1157  -1.9835  -1.9400  -1.9268
    -1.8414  -1.8068  -1.7903  -1.7611  -1.7531  -1.7376  -1.6067  -1.5869
    -1.4918  -1.4267  -1.4074  -1.3795  -1.2713  -1.2122  -1.1814  -1.1586
    -1.1227  -1.0749  -1.0077  -0.9673  -0.9152  -0.8580  -0.8140  -0.7978
    -0.7660  -0.6618  -0.6574  -0.6496  -0.6091  -0.5679  -0.5148  -0.4657
    -0.4600  -0.4338  -0.4016  -0.3595  -0.3406  -0.2434  -0.2326  -0.1935
    -0.1471  -0.0544   0.1252   0.2093   0.3163   0.3508   0.3899   0.4522
     0.4965   0.5495   0.5953   0.6439   0.6687   0.7131   0.7466   0.8288
     0.8473   0.8525   0.9209   1.6780   1.6784   1.7644   1.7729   3.7188
     3.7341   3.7865   3.8052   3.9435   3.9493   3.9630   3.9725   4.0712
     4.1297

     the Fermi energy is     3.4462 ev

!    total energy              =   -2966.34205071 Ry
     estimated scf accuracy    <       0.00000007 Ry
     smearing contrib. (-TS)   =      -0.02283116 Ry
     internal energy E=F+TS    =   -2966.31921955 Ry

     The total energy is F=E-TS. E is the sum of the following terms:
     one-electron contribution =  -24405.15962158 Ry
     hartree contribution      =   12294.57293869 Ry
     xc contribution           =    -490.96357492 Ry
     ewald contribution        =    9635.22934486 Ry
     electric field correction =       0.00169339 Ry

     convergence has been achieved in  74 iterations

     Forces acting on atoms (cartesian axes, Ry/au):

     atom    1 type  1   force =     0.00018054   -0.00146984    0.10507194
     atom    2 type  1   force =     0.00007293    0.00124845   -0.17892742
     atom    3 type  2   force =    -0.00001430   -0.00501049   -0.03283419
     atom    4 type  2   force =    -0.00058277    0.00074243    0.04593331
     atom    5 type  2   force =    -0.01792050   -0.00053191    0.00429495
     atom    6 type  2   force =     0.01742214    0.00073959    0.00348973
     atom    7 type  1   force =    -0.00005997   -0.00058252   -0.00007505
     atom    8 type  1   force =    -0.00038058   -0.00056480    0.00047962
     atom    9 type  2   force =     0.00014597   -0.00028876   -0.00002770
     atom   10 type  2   force =     0.00022752   -0.00001622    0.00055547
     atom   11 type  2   force =    -0.00000164   -0.00009742   -0.00005501
     atom   12 type  2   force =    -0.00013314   -0.00028301   -0.00025823
     atom   13 type  1   force =     0.00055897   -0.00057705   -0.00132729
     atom   14 type  1   force =     0.00001778   -0.00046202    0.00035098
     atom   15 type  2   force =    -0.00012953   -0.00052302    0.00002035
     atom   16 type  2   force =     0.00004875   -0.00064247   -0.00005764
     atom   17 type  2   force =    -0.00032936   -0.00014109   -0.00042558
     atom   18 type  2   force =     0.00052176   -0.00044381    0.00002380
     atom   19 type  1   force =     0.00003052    0.00049528    0.00021630
     atom   20 type  1   force =     0.00014083   -0.00096202    0.00056454
     atom   21 type  2   force =     0.00007324    0.00010743    0.10391754
     atom   22 type  2   force =    -0.00032115   -0.00028618   -0.00024027
     atom   23 type  2   force =    -0.06945984    0.00050200   -0.02942412
     atom   24 type  2   force =     0.06949143    0.00086751   -0.02945480
     atom   25 type  1   force =     0.00026763    0.00145542    0.11390636
     atom   26 type  1   force =    -0.00005699   -0.00044036   -0.17909498
     atom   27 type  2   force =    -0.00013393    0.00370431   -0.02689842
     atom   28 type  2   force =    -0.00026879    0.00101736    0.04787721
     atom   29 type  2   force =    -0.01573535    0.00042072    0.00353318
     atom   30 type  2   force =     0.01711167    0.00264402    0.00290775
     atom   31 type  1   force =     0.00036656    0.00005788   -0.00019111
     atom   32 type  1   force =    -0.00066647    0.00011050    0.00030548
     atom   33 type  2   force =     0.00025249   -0.00040417    0.00018132
     atom   34 type  2   force =     0.00006855   -0.00005887   -0.00006306
     atom   35 type  2   force =     0.00012304   -0.00019073    0.00022238
     atom   36 type  2   force =     0.00018509    0.00016407    0.00015274
     atom   37 type  1   force =     0.00034462    0.00076747   -0.00024551
     atom   38 type  1   force =    -0.00009123   -0.00053847    0.00001216
     atom   39 type  2   force =    -0.00047198    0.00024700    0.00026168
     atom   40 type  2   force =     0.00026060   -0.00064069   -0.00012905
     atom   41 type  2   force =     0.00010314   -0.00003992   -0.00012241
     atom   42 type  2   force =    -0.00038465   -0.00037704   -0.00038491
     atom   43 type  1   force =    -0.00012015   -0.00021830   -0.00006887
     atom   44 type  1   force =     0.00024635    0.00041103    0.00046534
     atom   45 type  2   force =     0.00007622    0.00008443    0.10394030
     atom   46 type  2   force =    -0.06915559   -0.00106391   -0.02943869
     atom   47 type  2   force =     0.06913062   -0.00059468   -0.02951341
     atom   48 type  3   force =    -0.00021712    0.02141943    0.00019770
     atom   49 type  2   force =    -0.00038793   -0.00206445    0.00006979
     atom   50 type  4   force =     0.00159270   -0.00175302    0.00068768
     atom   51 type  4   force =     0.00170861   -0.00811692    0.00301424
     atom   52 type  4   force =    -0.00315334   -0.00808584   -0.00323203
     atom   53 type  2   force =     0.00081530    0.00111942    0.00048831
     atom   54 type  4   force =    -0.00019527   -0.00088376   -0.00062906
     atom   55 type  4   force =    -0.00121396    0.00002801   -0.00002338

     Total force =     0.374861     Total SCF correction =     0.000652
  @ DRIVER MODE: Message from server: STATUS
  @ DRIVER MODE: Message from server: GETFORCE
  @ DRIVER MODE: Returning v,forces,stress,ensemble

     Writing output data file ./calc.save/
  @ DRIVER MODE: Message from server: EXIT
  @ DRIVE MODE: Exiting

     General routines

     Parallel routines

   This run was terminated on:  18:10:42  25Sep2021

   JOB DONE.