     Program PWSCF v.6.7GPU starts on 23Aug2021 at 23:22:33

     R & G space division:  proc/nbgrp/npool/nimage =       6
     Reading input from /storage/home/hcoda1/3/ntian30/research/carbon/CH_vib/ads_slab/CHNNH3_a/out_0021/pw.inp
Warning: card &CELL ignored
Warning: card   CELL_DYNAMICS='IPI', ignored
Warning: card / ignored

     Current dimensions of program PWSCF are:
     Max number of different atomic species (ntypx) = 10
     Max number of k-points (npk) =  40000
     Max angular momentum in pseudopotentials (lmaxx) =  3
     Presently no symmetry can be used with electric field

     Message from routine cell_base_init:
     DEPRECATED: use true lattice parameter, not A to a.u. conversion factor

     IMPORTANT: XC functional enforced from input :
     Exchange-correlation= BEEF-VDW
                           (   1   4  43  14   2   0   0)
     Any further DFT definition will be discarded
     Please, verify this is what you really want

  @ DRIVER MODE: Connecting to
 qe_1139763_2632800.sched-torque.pace.gatech.edubuyv2aam_scratch
  using UNIX socket
  @ DRIVER MODE: Message from server: STATUS
  @ DRIVER MODE: Message from server: INIT
  @ DRIVER MODE: Receiving replica           0          -1
  @ DRIVER MODE: Receiving encoded integer          25
  @ DRIVER MODE:  SCF:  T  FORCE:  T  STRESS:  F  VC:  F  ENSEMBLE:  F
  @ DRIVER MODE:  SCF:  T  FORCE:  T  STRESS:  F  VC:  F  ENSEMBLE:  F

     Using Slab Decomposition

     bravais-lattice index     =            0
     lattice parameter (alat)  =       1.8897  a.u.
     unit-cell volume          =    6658.9804 (a.u.)^3
     number of atoms/cell      =           54
     number of atomic types    =            5
     number of electrons       =       396.00
     number of Kohn-Sham states=          208
     kinetic-energy cutoff     =      29.3995  Ry
     charge density cutoff     =     293.9946  Ry
     scf convergence threshold =      7.3E-08
     mixing beta               =       0.0500
     number of iterations used =            8  plain     mixing
     Exchange-correlation= BEEF-VDW
                           (   1   4  43  14   2   0   0)

     celldm(1)=   1.889726  celldm(2)=   0.000000  celldm(3)=   0.000000
     celldm(4)=   0.000000  celldm(5)=   0.000000  celldm(6)=   0.000000

     crystal axes: (cart. coord. in units of alat)
               a(1) = (   6.579727   0.000000   0.000000 )
               a(2) = (  -0.000775   5.961596   0.000000 )
               a(3) = (   0.000000   0.000000  25.155947 )

     reciprocal axes: (cart. coord. in units 2 pi/alat)
               b(1) = (  0.151982  0.000020  0.000000 )
               b(2) = (  0.000000  0.167740  0.000000 )
               b(3) = (  0.000000  0.000000  0.039752 )

     PseudoPot. # 1 for Ti read from file:
     /storage/coda1/p-amedford6/0/shared/rich_project_chbe-medford/medford-share/data/pseudos_module/espresso/nninc/pbe/van/Ti.UPF
     MD5 check sum: 8e4df49b7f0d34bbd5052bf3f5ea0213
     Pseudo is Ultrasoft, Zval = 12.0
     Generated by new atomic code, or converted to UPF format
     Using radial grid of  851 points,  6 beta functions with:
                l(1) =   0
                l(2) =   0
                l(3) =   1
                l(4) =   1
                l(5) =   2
                l(6) =   2
     Q(r) pseudized with  8 coefficients,  rinner =    1.000   1.000   1.000
                                                       1.000   1.000

     PseudoPot. # 2 for O  read from file:
     /storage/coda1/p-amedford6/0/shared/rich_project_chbe-medford/medford-share/data/pseudos_module/espresso/nninc/pbe/van/O.UPF
     MD5 check sum: 78c19812648e8988a0fe644b0f25305e
     Pseudo is Ultrasoft, Zval =  6.0
     Generated by new atomic code, or converted to UPF format
     Using radial grid of  737 points,  4 beta functions with:
                l(1) =   0
                l(2) =   0
                l(3) =   1
                l(4) =   1
     Q(r) pseudized with  8 coefficients,  rinner =    0.800   0.800   0.800

     PseudoPot. # 3 for N  read from file:
     /storage/coda1/p-amedford6/0/shared/rich_project_chbe-medford/medford-share/data/pseudos_module/espresso/nninc/pbe/van/N.UPF
     MD5 check sum: 90d10febe142ad51ac9d5be1deb811c4
     Pseudo is Ultrasoft, Zval =  5.0
     Generated by new atomic code, or converted to UPF format
     Using radial grid of  729 points,  4 beta functions with:
                l(1) =   0
                l(2) =   0
                l(3) =   1
                l(4) =   1
     Q(r) pseudized with  8 coefficients,  rinner =    0.800   0.800   0.800

     PseudoPot. # 4 for C  read from file:
     /storage/coda1/p-amedford6/0/shared/rich_project_chbe-medford/medford-share/data/pseudos_module/espresso/nninc/pbe/van/C.UPF
     MD5 check sum: 1a69bf6b8db32088f5b2163dbdb77a27
     Pseudo is Ultrasoft, Zval =  4.0
     Generated by new atomic code, or converted to UPF format
     Using radial grid of  721 points,  4 beta functions with:
                l(1) =   0
                l(2) =   0
                l(3) =   1
                l(4) =   1
     Q(r) pseudized with  8 coefficients,  rinner =    0.800   0.800   0.800

     PseudoPot. # 5 for H  read from file:
     /storage/coda1/p-amedford6/0/shared/rich_project_chbe-medford/medford-share/data/pseudos_module/espresso/nninc/pbe/van/H.UPF
     MD5 check sum: b5ee9d7bfd3a09ee7748110bda690ff7
     Pseudo is Ultrasoft, Zval =  1.0
     Generated by new atomic code, or converted to UPF format
     Using radial grid of  615 points,  1 beta functions with:
                l(1) =   0
     Q(r) pseudized with  8 coefficients,  rinner =    0.800

     atomic species   valence    mass     pseudopotential
        Ti1           12.00    47.86700     Ti( 1.00)
        O1             6.00    15.99900     O ( 1.00)
        N1             5.00    14.00700     N ( 1.00)
        C1             4.00    12.01100     C ( 1.00)
        H1             1.00     1.00800     H ( 1.00)

     No symmetry found

   Cartesian axes

     site n.     atom                  positions (alat units)
         1           Ti1 tau(   1) = (   0.0004258   2.9801865   6.0000000  )
         2           Ti1 tau(   2) = (   3.2906075   1.4906267   6.0002472  )
         3           O1  tau(   3) = (   0.0006271   0.0005054   7.9858123  )
         4           O1  tau(   4) = (   3.2906025   0.0005020   7.3038282  )
         5           O1  tau(   5) = (   4.5942328   1.4918067   9.2879030  )
         6           O1  tau(   6) = (   1.9868534   1.4903216   9.2879459  )
         7           Ti1 tau(   7) = (   3.2907910   2.8959150   9.1758416  )
         8           Ti1 tau(   8) = (   0.0015273   1.4827037   9.2680791  )
         9           O1  tau(   9) = (   3.2881108   5.9505233  11.3735460  )
        10           O1  tau(  10) = (   0.0116148   5.9584955  10.6183126  )
        11           O1  tau(  11) = (   1.2866665   1.4805866  12.6825740  )
        12           O1  tau(  12) = (   5.2924821   1.4818622  12.6792165  )
        13           Ti1 tau(  13) = (   0.0021322   2.9639872  12.5157261  )
        14           Ti1 tau(  14) = (   3.2862601   1.4710115  12.5283183  )
        15           O1  tau(  15) = (   6.5551702   5.8950557  14.7042857  )
        16           O1  tau(  16) = (   3.2890300   5.9388001  13.9877656  )
        17           O1  tau(  17) = (   4.5349758   1.4880922  16.1718967  )
        18           O1  tau(  18) = (   2.0258431   1.4790072  16.1496753  )
        19           Ti1 tau(  19) = (   3.2732025   2.9690136  15.7622034  )
        20           Ti1 tau(  20) = (   6.5610264   1.3286824  15.8731419  )
        21           O1  tau(  21) = (   3.2904802   0.0005063   4.7018136  )
        22           O1  tau(  22) = (   6.5785393   0.0648448  17.2431192  )
        23           O1  tau(  23) = (   1.3043587   1.4918075   6.0039043  )
        24           O1  tau(  24) = (   5.2767064   1.4903225   6.0039473  )
        25           Ti1 tau(  25) = (   0.0000382   5.9609847   6.0000000  )
        26           Ti1 tau(  26) = (   3.2902200   4.4714249   6.0002472  )
        27           O1  tau(  27) = (   0.0002396   2.9813036   7.9858123  )
        28           O1  tau(  28) = (   3.2902150   2.9813002   7.3038282  )
        29           O1  tau(  29) = (   4.5938453   4.4726049   9.2879030  )
        30           O1  tau(  30) = (   1.9864658   4.4711199   9.2879459  )
        31           Ti1 tau(  31) = (   3.2891106   5.8743827   9.1763621  )
        32           Ti1 tau(  32) = (   0.0006254   4.4649316   9.2693709  )
        33           O1  tau(  33) = (   3.2883663   2.9615298  11.3703760  )
        34           O1  tau(  34) = (   0.0092240   2.9805883  10.6323155  )
        35           O1  tau(  35) = (   1.2870507   4.4533538  12.6624524  )
        36           O1  tau(  36) = (   5.2892318   4.4513974  12.6520950  )
        37           Ti1 tau(  37) = (   6.5724215   5.9362995  12.5032772  )
        38           Ti1 tau(  38) = (   3.2850067   4.4496593  12.5237361  )
        39           O1  tau(  39) = (   6.5755915   2.9911963  14.9688396  )
        40           O1  tau(  40) = (   3.2879019   2.9755095  13.9706832  )
        41           O1  tau(  41) = (   4.5370027   4.4458050  16.2043726  )
        42           O1  tau(  42) = (   2.0318725   4.4540161  16.1993262  )
        43           Ti1 tau(  43) = (   3.2771836   5.9440081  15.7837661  )
        44           Ti1 tau(  44) = (   6.5399960   4.5546841  16.0715688  )
        45           O1  tau(  45) = (   3.2900926   2.9813045   4.7018136  )
        46           O1  tau(  46) = (   1.3039711   4.4726057   6.0039043  )
        47           O1  tau(  47) = (   5.2763189   4.4711207   6.0039473  )
        48           N1  tau(  48) = (   0.1065663   3.2111123  17.9981644  )
        49           C1  tau(  49) = (   0.5134299   2.5375629  18.8400175  )
        50           H1  tau(  50) = (   1.0173682   1.8396193  19.5020221  )
        51           N1  tau(  51) = (   2.4304062   0.3008210  19.4519584  )
        52           H1  tau(  52) = (   3.2527645   0.6626300  18.9680575  )
        53           H1  tau(  53) = (   1.8610457   5.7841108  18.7610151  )
        54           H1  tau(  54) = (   2.7602249   5.5844085  20.1185638  )

     number of k points=    10  Fermi-Dirac smearing, width (Ry)=  0.0073
                       cart. coord. in units 2pi/alat
        k(    1) = (   0.0000000   0.0000000   0.0000000), wk =   0.1250000
        k(    2) = (   0.0000000   0.0419351   0.0000000), wk =   0.2500000
        k(    3) = (   0.0000000  -0.0838702   0.0000000), wk =   0.1250000
        k(    4) = (   0.0379955   0.0000049   0.0000000), wk =   0.2500000
        k(    5) = (   0.0379955   0.0419400   0.0000000), wk =   0.2500000
        k(    6) = (   0.0379955  -0.0838652   0.0000000), wk =   0.2500000
        k(    7) = (   0.0379955  -0.0419301   0.0000000), wk =   0.2500000
        k(    8) = (  -0.0759910  -0.0000099   0.0000000), wk =   0.1250000
        k(    9) = (  -0.0759910   0.0419252   0.0000000), wk =   0.2500000
        k(   10) = (  -0.0759910  -0.0838800   0.0000000), wk =   0.1250000

     Initial potential from superposition of free atoms

     starting charge  379.99915, renormalised to  396.00000

     negative rho (up, down):  1.529E-02 0.000E+00

     %%%%%%%%%%%%%%%%%%%%%%%%%%%%%%%%%%%%%%%%%%%%%%%%%%%%%%%%%%%%%%%%%%%%%%%%
     %                                                                      %
     % You are using vdW-DF, which was implemented by the Thonhauser group. %
     % Please cite the following two papers that made this development      %
     % possible and the two reviews that describe the various versions:     %
     %                                                                      %
     %   T. Thonhauser et al., PRL 115, 136402 (2015).                      %
     %   T. Thonhauser et al., PRB 76, 125112 (2007).                       %
     %   K. Berland et al., Rep. Prog. Phys. 78, 066501 (2015).             %
     %   D.C. Langreth et al., J. Phys.: Condens. Matter 21, 084203 (2009). %
     %                                                                      %
     %                                                                      %
     % If you are calculating the stress with vdW-DF, please also cite:     %
     %                                                                      %
     %   R. Sabatini et al., J. Phys.: Condens. Matter 24, 424209 (2012).   %
     %                                                                      %
     %%%%%%%%%%%%%%%%%%%%%%%%%%%%%%%%%%%%%%%%%%%%%%%%%%%%%%%%%%%%%%%%%%%%%%%%

     Adding external electric field

     Computed dipole along edir(3) :
        Dipole              -10.2017 Ry au,        -25.9301 Debye
        Dipole field         -0.0193 Ry au,

        Potential amp.        1.7846 Ry
        Total length         46.3494 bohr

     Starting wfcs are  300 atomic wfcs
  @ DRIVER MODE: Message from server: STATUS
  @ DRIVER MODE: Message from server: POSDATA
  @ DRIVER MODE: Reading and sharing cell
  @ DRIVER MODE: Reading and sharing positions
  @ DRIVER MODE: Received positions

     Self-consistent Calculation

     iteration #  1     ecut=    29.40 Ry     beta= 0.05
     Davidson diagonalization with overlap
     c_bands:  1 eigenvalues not converged
     c_bands:  2 eigenvalues not converged
     c_bands:  2 eigenvalues not converged
     c_bands:  1 eigenvalues not converged
     c_bands:  2 eigenvalues not converged
     c_bands:  2 eigenvalues not converged
     c_bands:  2 eigenvalues not converged
     c_bands:  3 eigenvalues not converged
     c_bands:  2 eigenvalues not converged
     c_bands:  1 eigenvalues not converged
     ethr =  1.00E-05,  avg # of iterations = 20.0

[...]

     total energy              =   -2543.45321463 Ry
     estimated scf accuracy    <    4455.94217594 Ry

     iteration #  2     ecut=    29.40 Ry     beta= 0.05
     Davidson diagonalization with overlap
     ethr =  1.00E-02,  avg # of iterations = 27.2

[...]

     iteration # 63     ecut=    29.40 Ry     beta= 0.05
     Davidson diagonalization with overlap
     c_bands:  1 eigenvalues not converged
     ethr =  2.67E-10,  avg # of iterations = 11.4

[...]

     total energy              =   -2940.42002312 Ry
     estimated scf accuracy    <       0.00000008 Ry

     iteration # 69     ecut=    29.40 Ry     beta= 0.05
     Davidson diagonalization with overlap
     ethr =  2.06E-11,  avg # of iterations =  7.0

     negative rho (up, down):  1.581E-02 0.000E+00

     Adding external electric field

     Computed dipole along edir(3) :
        Dipole                1.3078 Ry au,          3.3241 Debye
        Dipole field          0.0025 Ry au,

        Potential amp.       -0.2288 Ry
        Total length         46.3494 bohr

     End of self-consistent calculation

          k = 0.0000 0.0000 0.0000 ( 18029 PWs)   bands (ev):

   -55.3716 -55.3356 -55.3235 -55.2893 -55.2479 -55.2421 -55.2169 -55.2132
   -55.1890 -55.1723 -55.1547 -55.1527 -55.1191 -55.0880 -54.3513 -54.3173
   -31.9392 -31.8158 -31.8053 -31.7360 -31.6816 -31.6785 -31.6710 -31.6580
   -31.6124 -31.6023 -31.5800 -31.5721 -31.5680 -31.5413 -31.5265 -31.5206
   -31.5078 -31.4966 -31.4861 -31.4837 -31.4760 -31.4614 -31.4372 -31.4260
   -31.4256 -31.4195 -31.3915 -31.3914 -31.3807 -31.3786 -31.3708 -31.3518
   -31.3501 -31.3446 -31.3388 -31.3367 -31.3029 -31.2893 -31.2867 -31.2808
   -31.2637 -31.2119 -30.7607 -30.6666 -30.6445 -30.5771 -30.4903 -30.3794
   -16.9985 -16.1930 -15.9253 -15.7778 -15.6660 -15.5667 -15.4433 -15.4241
   -15.2932 -15.2052 -15.0853 -15.0413 -15.0185 -15.0049 -14.9898 -14.9836
   -14.9123 -14.9072 -14.8831 -14.8813 -14.8638 -14.8493 -14.8077 -14.8058
   -14.7656 -14.7450 -14.6951 -14.6076 -14.5263 -14.4575 -14.1639 -12.8540
   -12.7366  -8.1853  -5.0519  -4.8971  -4.3258  -3.5337  -3.3842  -3.2872
    -3.2686  -3.2630  -3.1195  -3.0712  -2.9631  -2.8800  -2.7621  -2.6987
    -2.6241  -2.5721  -2.5582  -2.5400  -2.3641  -2.3313  -2.2886  -2.2420
    -2.2106  -2.1765  -2.1553  -2.1278  -2.1151  -2.1086  -2.0758  -1.9320
    -1.8910  -1.8412  -1.7906  -1.7673  -1.7110  -1.6932  -1.6565  -1.6502
    -1.6447  -1.5992  -1.5801  -1.5506  -1.4592  -1.3916  -1.2767  -1.2187
    -1.0776  -1.0068  -0.9521  -0.9383  -0.8565  -0.8533  -0.8261  -0.7489
    -0.7414  -0.7088  -0.5878  -0.4890  -0.4521  -0.4012  -0.3528  -0.3239
    -0.2822  -0.1963  -0.1467  -0.1337  -0.1236  -0.0016   0.0249   0.0366
     0.1115   0.1570   0.1735   0.1786   0.2929   0.3066   0.3729   0.4219
     0.4514   0.5201   0.5682   0.5727   0.5827   0.6177   0.6192   0.7105
     0.7320   0.7404   0.8149   0.9604   1.1802   1.2366   1.2442   1.5779
     1.5804   1.6713   1.8551   2.2473   2.2955   3.7271   3.7992   3.8726
     3.8792   3.9044   3.9649   4.2036   4.2075   4.2309   4.2327   4.2614

[...]

          k = 0.0380-0.0419 0.0000 ( 17876 PWs)   bands (ev):

[...]

          k =-0.0760-0.0000 0.0000 ( 17886 PWs)   bands (ev):

[...]

          k =-0.0760-0.0839 0.0000 ( 17948 PWs)   bands (ev):

   -55.3549 -55.3520 -55.3066 -55.3061 -55.2373 -55.2332 -55.2279 -55.2145
   -55.1767 -55.1727 -55.1705 -55.1362 -55.1359 -55.0905 -54.3343 -54.3341
   -31.7440 -31.7416 -31.7256 -31.6470 -31.6311 -31.6307 -31.6253 -31.5978
   -31.5975 -31.5782 -31.5716 -31.5671 -31.5585 -31.5106 -31.5058 -31.5038
   -31.5025 -31.5022 -31.4963 -31.4915 -31.4693 -31.4657 -31.4452 -31.4438
   -31.4422 -31.4376 -31.4266 -31.4262 -31.4259 -31.4203 -31.4055 -31.4035
   -31.3999 -31.3859 -31.3834 -31.3677 -31.3655 -31.3649 -31.3168 -31.3166
   -31.3035 -31.2946 -30.6573 -30.6571 -30.5733 -30.5731 -30.5337 -30.5336
   -16.9908 -15.6986 -15.5968 -15.5781 -15.3863 -15.3699 -15.3384 -15.3343
   -15.1826 -15.1532 -15.1457 -15.1282 -15.0797 -15.0719 -15.0662 -15.0547
   -14.9755 -14.9645 -14.9624 -14.9453 -14.8843 -14.8801 -14.8743 -14.8712
   -14.8615 -14.8191 -14.8155 -14.7218 -14.7189 -14.6334 -14.5268 -12.8381
   -12.8381  -8.1871  -5.0433  -4.9054  -4.3243  -2.9994  -2.8966  -2.8547
    -2.8422  -2.8031  -2.5982  -2.5659  -2.5375  -2.4806  -2.4132  -2.3716
    -2.3611  -2.3412  -2.2816  -2.2331  -2.2285  -2.2106  -2.1904  -2.1886
    -2.1651  -2.1377  -2.0975  -2.0874  -2.0682  -2.0501  -2.0214  -2.0021
    -1.9735  -1.9551  -1.9329  -1.9263  -1.8172  -1.8033  -1.7269  -1.6928
    -1.6365  -1.5735  -1.5684  -1.4711  -1.4638  -1.4072  -1.3977  -1.3805
    -1.2617  -1.1762  -1.1220  -1.1111  -1.1035  -0.9921  -0.9419  -0.9116
    -0.8771  -0.8538  -0.7755  -0.7124  -0.6922  -0.6519  -0.5762  -0.5663
    -0.5063  -0.3936  -0.3638  -0.3431  -0.3260  -0.3204  -0.2665  -0.2547
    -0.1816  -0.1359  -0.1020  -0.0915  -0.0536   0.0034   0.1550   0.1670
     0.2076   0.3224   0.3821   0.4962   0.5707   0.5852   0.6648   0.6999
     0.7431   0.8036   0.8949   0.9363   0.9408   1.0195   1.0452   1.0876
     1.0957   2.0284   2.0287   2.1154   2.1156   3.8651   3.9787   3.9883
     4.0349   4.1348   4.1594   4.2466   4.2656   4.3125   4.3144   4.3857

     the Fermi energy is     3.7897 ev

!    total energy              =   -2940.42004613 Ry
     estimated scf accuracy    <       0.00000006 Ry
     smearing contrib. (-TS)   =      -0.03734152 Ry
     internal energy E=F+TS    =   -2940.38270461 Ry

     The total energy is F=E-TS. E is the sum of the following terms:
     one-electron contribution =  -23617.35330337 Ry
     hartree contribution      =   11900.50944738 Ry
     xc contribution           =    -485.97971158 Ry
     ewald contribution        =    9262.43763524 Ry
     electric field correction =       0.00322771 Ry

     convergence has been achieved in  69 iterations

     Forces acting on atoms (cartesian axes, Ry/au):

     atom    1 type  1   force =     0.00014031   -0.00014331    0.09349640
     atom    2 type  1   force =    -0.00005917   -0.00032986   -0.17807140
     atom    3 type  2   force =     0.00009815   -0.00033511   -0.02051240
     atom    4 type  2   force =     0.00002483   -0.00189680    0.05842032
     atom    5 type  2   force =    -0.01039101   -0.00109333    0.00772985
     atom    6 type  2   force =     0.01184559   -0.00048103    0.00668269
     atom    7 type  1   force =    -0.00029435    0.00214709   -0.01415898
     atom    8 type  1   force =     0.00033108    0.00051290   -0.00324954
     atom    9 type  2   force =    -0.00006476    0.00009080   -0.00002606
     atom   10 type  2   force =    -0.00246775    0.00082331    0.00004730
     atom   11 type  2   force =    -0.00017911   -0.00028643    0.00029774
     atom   12 type  2   force =    -0.00011535   -0.00013868   -0.00056522
     atom   13 type  1   force =    -0.00001685   -0.00007592   -0.00001038
     atom   14 type  1   force =     0.00009008    0.00017148    0.00007354
     atom   15 type  2   force =     0.00030120    0.00006079   -0.00025541
     atom   16 type  2   force =     0.00027822    0.00000097   -0.00005885
     atom   17 type  2   force =     0.00017837   -0.00015208   -0.00051873
     atom   18 type  2   force =     0.00021539    0.00032396   -0.00003775
     atom   19 type  1   force =    -0.00001782    0.00009480   -0.00006981
     atom   20 type  1   force =    -0.00065155    0.00031080   -0.00028839
     atom   21 type  2   force =     0.00009952    0.00000258    0.10388818
     atom   22 type  2   force =     0.00048290    0.00049864    0.00009335
     atom   23 type  2   force =    -0.07040377   -0.00011646   -0.02693793
     atom   24 type  2   force =     0.07038282    0.00034957   -0.02698765
     atom   25 type  1   force =     0.00019956   -0.00016564    0.09278167
     atom   26 type  1   force =    -0.00009739   -0.00030020   -0.17827203
     atom   27 type  2   force =     0.00012947   -0.00023639   -0.01951608
     atom   28 type  2   force =     0.00007215   -0.00167650    0.05800130
     atom   29 type  2   force =    -0.01079886   -0.00122363    0.00800169
     atom   30 type  2   force =     0.01214040   -0.00083973    0.00703985
     atom   31 type  1   force =    -0.00035527    0.00574640   -0.01491943
     atom   32 type  1   force =     0.00039240   -0.00108169   -0.00338820
     atom   33 type  2   force =    -0.00030985    0.00005608   -0.00020462
     atom   34 type  2   force =    -0.00155420   -0.00229922    0.00038708
     atom   35 type  2   force =    -0.00008066    0.00013794   -0.00003863
     atom   36 type  2   force =     0.00009840    0.00010586    0.00011803
     atom   37 type  1   force =     0.00024694   -0.00002598   -0.00004661
     atom   38 type  1   force =     0.00005419    0.00013897   -0.00014083
     atom   39 type  2   force =     0.00010941    0.00016885    0.00009857
     atom   40 type  2   force =     0.00014275    0.00001264   -0.00003580
     atom   41 type  2   force =    -0.00001380    0.00017643   -0.00003017
     atom   42 type  2   force =     0.00038402    0.00000347    0.00011919
     atom   43 type  1   force =    -0.00026299    0.00017263    0.00035126
     atom   44 type  1   force =    -0.00020924   -0.00026008   -0.00015579
     atom   45 type  2   force =     0.00009734   -0.00002123    0.10382200
     atom   46 type  2   force =    -0.07039387   -0.00004627   -0.02691883
     atom   47 type  2   force =     0.07035131    0.00036816   -0.02694720
     atom   48 type  3   force =    -0.00101607    0.00055700    0.00004198
     atom   49 type  4   force =     0.00090347    0.00018607    0.00015924
     atom   50 type  5   force =     0.00003269   -0.00026769   -0.00006011
     atom   51 type  3   force =     0.00409571    0.01603514   -0.00576545
     atom   52 type  5   force =    -0.00456487   -0.00277786    0.00285130
     atom   53 type  5   force =    -0.00268512   -0.00351471   -0.00363478
     atom   54 type  5   force =     0.00308501   -0.00946751    0.00732054

     Total force =     0.366723     Total SCF correction =     0.000511
  @ DRIVER MODE: Message from server: STATUS
  @ DRIVER MODE: Message from server: GETFORCE
  @ DRIVER MODE: Returning v,forces,stress,ensemble

     Writing output data file ./calc.save/
  @ DRIVER MODE: Message from server: EXIT
  @ DRIVE MODE: Exiting

     General routines

     Parallel routines

   This run was terminated on:  23:52:44  23Aug2021

   JOB DONE.