     Program PWSCF v.6.7GPU starts on 12Oct2021 at 13:35:50

     R & G space division:  proc/nbgrp/npool/nimage =       8
     Reading input from /storage/home/hcoda1/3/ntian30/research/carbon/ACS_vib/ads_slab/N2H6/out_0012/pw.inp
Warning: card &CELL ignored
Warning: card   CELL_DYNAMICS='IPI', ignored
Warning: card / ignored

     Current dimensions of program PWSCF are:
     Max number of different atomic species (ntypx) = 10
     Max number of k-points (npk) =  40000
     Max angular momentum in pseudopotentials (lmaxx) =  3
     Presently no symmetry can be used with electric field

     Message from routine cell_base_init:
     DEPRECATED: use true lattice parameter, not A to a.u. conversion factor

     IMPORTANT: XC functional enforced from input :
     Exchange-correlation= BEEF-VDW
                           (   1   4  43  14   2   0   0)
     Any further DFT definition will be discarded
     Please, verify this is what you really want

  @ DRIVER MODE: Connecting to
 qe_1139763_3181315.sched-torque.pace.gatech.eduifi_ibzh_scratch
  using UNIX socket
  @ DRIVER MODE: Message from server: STATUS
  @ DRIVER MODE: Message from server: INIT
  @ DRIVER MODE: Receiving replica           0          -1
  @ DRIVER MODE: Receiving encoded integer          25
  @ DRIVER MODE:  SCF:  T  FORCE:  T  STRESS:  F  VC:  F  ENSEMBLE:  F
  @ DRIVER MODE:  SCF:  T  FORCE:  T  STRESS:  F  VC:  F  ENSEMBLE:  F

     Using Slab Decomposition

     bravais-lattice index     =            0
     lattice parameter (alat)  =       1.8897  a.u.
     unit-cell volume          =    6658.9804 (a.u.)^3
     number of atoms/cell      =           55
     number of atomic types    =            4
     number of electrons       =       394.00
     number of Kohn-Sham states=          207
     kinetic-energy cutoff     =      29.3995  Ry
     charge density cutoff     =     293.9946  Ry
     scf convergence threshold =      7.3E-08
     mixing beta               =       0.0500
     number of iterations used =            8  plain     mixing
     Exchange-correlation= BEEF-VDW
                           (   1   4  43  14   2   0   0)

     celldm(1)=   1.889726  celldm(2)=   0.000000  celldm(3)=   0.000000
     celldm(4)=   0.000000  celldm(5)=   0.000000  celldm(6)=   0.000000

     crystal axes: (cart. coord. in units of alat)
               a(1) = (   6.579727   0.000000   0.000000 )
               a(2) = (  -0.000775   5.961596   0.000000 )
               a(3) = (   0.000000   0.000000  25.155947 )

     reciprocal axes: (cart. coord. in units 2 pi/alat)
               b(1) = (  0.151982  0.000020  0.000000 )
               b(2) = (  0.000000  0.167740  0.000000 )
               b(3) = (  0.000000  0.000000  0.039752 )

     PseudoPot. # 1 for Ti read from file:
     /storage/coda1/p-amedford6/0/shared/rich_project_chbe-medford/medford-share/data/pseudos_module/espresso/nninc/pbe/van/Ti.UPF
     MD5 check sum: 8e4df49b7f0d34bbd5052bf3f5ea0213
     Pseudo is Ultrasoft, Zval = 12.0
     Generated by new atomic code, or converted to UPF format
     Using radial grid of  851 points,  6 beta functions with:
                l(1) =   0
                l(2) =   0
                l(3) =   1
                l(4) =   1
                l(5) =   2
                l(6) =   2
     Q(r) pseudized with  8 coefficients,  rinner =    1.000   1.000   1.000
                                                       1.000   1.000

     PseudoPot. # 2 for O  read from file:
     /storage/coda1/p-amedford6/0/shared/rich_project_chbe-medford/medford-share/data/pseudos_module/espresso/nninc/pbe/van/O.UPF
     MD5 check sum: 78c19812648e8988a0fe644b0f25305e
     Pseudo is Ultrasoft, Zval =  6.0
     Generated by new atomic code, or converted to UPF format
     Using radial grid of  737 points,  4 beta functions with:
                l(1) =   0
                l(2) =   0
                l(3) =   1
                l(4) =   1
     Q(r) pseudized with  8 coefficients,  rinner =    0.800   0.800   0.800

     PseudoPot. # 3 for N  read from file:
     /storage/coda1/p-amedford6/0/shared/rich_project_chbe-medford/medford-share/data/pseudos_module/espresso/nninc/pbe/van/N.UPF
     MD5 check sum: 90d10febe142ad51ac9d5be1deb811c4
     Pseudo is Ultrasoft, Zval =  5.0
     Generated by new atomic code, or converted to UPF format
     Using radial grid of  729 points,  4 beta functions with:
                l(1) =   0
                l(2) =   0
                l(3) =   1
                l(4) =   1
     Q(r) pseudized with  8 coefficients,  rinner =    0.800   0.800   0.800

     PseudoPot. # 4 for H  read from file:
     /storage/coda1/p-amedford6/0/shared/rich_project_chbe-medford/medford-share/data/pseudos_module/espresso/nninc/pbe/van/H.UPF
     MD5 check sum: b5ee9d7bfd3a09ee7748110bda690ff7
     Pseudo is Ultrasoft, Zval =  1.0
     Generated by new atomic code, or converted to UPF format
     Using radial grid of  615 points,  1 beta functions with:
                l(1) =   0
     Q(r) pseudized with  8 coefficients,  rinner =    0.800

     atomic species   valence    mass     pseudopotential
        Ti1           12.00    47.86700     Ti( 1.00)
        O1             6.00    15.99900     O ( 1.00)
        N1             5.00    14.00700     N ( 1.00)
        H1             1.00     1.00800     H ( 1.00)

     No symmetry found

   Cartesian axes

     site n.     atom                  positions (alat units)
         1           Ti1 tau(   1) = (   0.0004258   2.9801865   6.0000000  )
         2           Ti1 tau(   2) = (   3.2906075   1.4906267   6.0002472  )
         3           O1  tau(   3) = (   0.0006271   0.0005054   7.9858123  )
         4           O1  tau(   4) = (   3.2906025   0.0005020   7.3038282  )
         5           O1  tau(   5) = (   4.5942328   1.4918067   9.2879030  )
         6           O1  tau(   6) = (   1.9868534   1.4903216   9.2879459  )
         7           Ti1 tau(   7) = (   3.2905188   2.9817269   9.1608671  )
         8           Ti1 tau(   8) = (   0.0008727   1.4903491   9.2579811  )
         9           O1  tau(   9) = (   3.2897677   5.9391746  11.3820438  )
        10           O1  tau(  10) = (  -0.0000005   5.9544960  10.6146985  )
        11           O1  tau(  11) = (   1.2884133   1.4789655  12.6516217  )
        12           O1  tau(  12) = (   5.2921206   1.4788385  12.6515509  )
        13           Ti1 tau(  13) = (   0.0005720   2.9629092  12.4975245  )
        14           Ti1 tau(  14) = (   3.2903801   1.4745319  12.5205501  )
        15           O1  tau(  15) = (   0.0004407   0.0388239  14.7059933  )
        16           O1  tau(  16) = (   3.2897445   5.9465346  14.0037610  )
        17           O1  tau(  17) = (   4.5472543   1.4569283  16.2215039  )
        18           O1  tau(  18) = (   2.0329396   1.4568822  16.2213506  )
        19           Ti1 tau(  19) = (   3.2899346   2.9358424  15.7577366  )
        20           Ti1 tau(  20) = (   0.0004932   1.4309995  16.0137732  )
        21           O1  tau(  21) = (   3.2904802   0.0005063   4.7018136  )
        22           O1  tau(  22) = (  -0.0003511   5.7889056  17.2622344  )
        23           O1  tau(  23) = (   1.3043587   1.4918075   6.0039043  )
        24           O1  tau(  24) = (   5.2767064   1.4903225   6.0039473  )
        25           Ti1 tau(  25) = (   0.0000382   5.9609847   6.0000000  )
        26           Ti1 tau(  26) = (   3.2902200   4.4714249   6.0002472  )
        27           O1  tau(  27) = (   0.0002396   2.9813036   7.9858123  )
        28           O1  tau(  28) = (   3.2902150   2.9813002   7.3038282  )
        29           O1  tau(  29) = (   4.5938453   4.4726049   9.2879030  )
        30           O1  tau(  30) = (   1.9864658   4.4711199   9.2879459  )
        31           Ti1 tau(  31) = (   3.2908958   0.0009406   9.1591437  )
        32           Ti1 tau(  32) = (   0.0004876   4.4725358   9.2579169  )
        33           O1  tau(  33) = (   3.2901541   2.9707129  11.3740276  )
        34           O1  tau(  34) = (   0.0003862   2.9798045  10.6274311  )
        35           O1  tau(  35) = (   1.2860740   4.4511954  12.6821393  )
        36           O1  tau(  36) = (   5.2936768   4.4510845  12.6820400  )
        37           Ti1 tau(  37) = (   0.0001324   5.9497034  12.4914426  )
        38           Ti1 tau(  38) = (   3.2900283   4.4525324  12.5305491  )
        39           O1  tau(  39) = (   0.0000299   2.9046373  14.9484161  )
        40           O1  tau(  40) = (   3.2901113   2.9423191  13.9685580  )
        41           O1  tau(  41) = (   4.5465916   4.4073028  16.1601725  )
        42           O1  tau(  42) = (   2.0329218   4.4072560  16.1600144  )
        43           Ti1 tau(  43) = (   3.2897320   5.9176933  15.7983882  )
        44           Ti1 tau(  44) = (   0.0000796   4.6311109  15.9036278  )
        45           O1  tau(  45) = (   3.2900926   2.9813045   4.7018136  )
        46           O1  tau(  46) = (   1.3039711   4.4726057   6.0039043  )
        47           O1  tau(  47) = (   5.2763189   4.4711207   6.0039473  )
        48           N1  tau(  48) = (   6.5791966   2.5420708  18.0661808  )
        49           H1  tau(  49) = (   6.5785613   1.6509345  18.5677087  )
        50           H1  tau(  50) = (   0.8131443   3.0604954  18.3807411  )
        51           H1  tau(  51) = (   5.7641953   3.0602838  18.3787844  )
        52           N1  tau(  52) = (  -0.0000615   4.8677125  20.5088556  )
        53           H1  tau(  53) = (   6.5774456   5.1124690  21.4935560  )
        54           H1  tau(  54) = (   0.8078797   5.3121143  20.0844266  )
        55           H1  tau(  55) = (   5.7710899   5.3082688  20.0816402  )

     number of k points=    10  Fermi-Dirac smearing, width (Ry)=  0.0073
                       cart. coord. in units 2pi/alat
        k(    1) = (   0.0000000   0.0000000   0.0000000), wk =   0.1250000
        k(    2) = (   0.0000000   0.0419351   0.0000000), wk =   0.2500000
        k(    3) = (   0.0000000  -0.0838702   0.0000000), wk =   0.1250000
        k(    4) = (   0.0379955   0.0000049   0.0000000), wk =   0.2500000
        k(    5) = (   0.0379955   0.0419400   0.0000000), wk =   0.2500000
        k(    6) = (   0.0379955  -0.0838652   0.0000000), wk =   0.2500000
        k(    7) = (   0.0379955  -0.0419301   0.0000000), wk =   0.2500000
        k(    8) = (  -0.0759910  -0.0000099   0.0000000), wk =   0.1250000
        k(    9) = (  -0.0759910   0.0419252   0.0000000), wk =   0.2500000
        k(   10) = (  -0.0759910  -0.0838800   0.0000000), wk =   0.1250000

     Initial potential from superposition of free atoms

     starting charge  377.99918, renormalised to  394.00000

     negative rho (up, down):  1.302E-02 0.000E+00

     %%%%%%%%%%%%%%%%%%%%%%%%%%%%%%%%%%%%%%%%%%%%%%%%%%%%%%%%%%%%%%%%%%%%%%%%
     %                                                                      %
     % You are using vdW-DF, which was implemented by the Thonhauser group. %
     % Please cite the following two papers that made this development      %
     % possible and the two reviews that describe the various versions:     %
     %                                                                      %
     %   T. Thonhauser et al., PRL 115, 136402 (2015).                      %
     %   T. Thonhauser et al., PRB 76, 125112 (2007).                       %
     %   K. Berland et al., Rep. Prog. Phys. 78, 066501 (2015).             %
     %   D.C. Langreth et al., J. Phys.: Condens. Matter 21, 084203 (2009). %
     %                                                                      %
     %                                                                      %
     % If you are calculating the stress with vdW-DF, please also cite:     %
     %                                                                      %
     %   R. Sabatini et al., J. Phys.: Condens. Matter 24, 424209 (2012).   %
     %                                                                      %
     %%%%%%%%%%%%%%%%%%%%%%%%%%%%%%%%%%%%%%%%%%%%%%%%%%%%%%%%%%%%%%%%%%%%%%%%

     Adding external electric field

     Computed dipole along edir(3) :
        Dipole               -9.7184 Ry au,        -24.7017 Debye
        Dipole field         -0.0183 Ry au,

        Potential amp.        1.7001 Ry
        Total length         46.3494 bohr

     Starting wfcs are  298 atomic wfcs
  @ DRIVER MODE: Message from server: STATUS
  @ DRIVER MODE: Message from server: POSDATA
  @ DRIVER MODE: Reading and sharing cell
  @ DRIVER MODE: Reading and sharing positions
  @ DRIVER MODE: Received positions

     Self-consistent Calculation

     iteration #  1     ecut=    29.40 Ry     beta= 0.05
     Davidson diagonalization with overlap
     c_bands:  1 eigenvalues not converged
     c_bands:  1 eigenvalues not converged
     c_bands:  1 eigenvalues not converged
     c_bands:  1 eigenvalues not converged
     ethr =  1.00E-05,  avg # of iterations = 18.0

[...]

     total energy              =   -2597.69102598 Ry
     estimated scf accuracy    <    3725.47724498 Ry

     iteration #  2     ecut=    29.40 Ry     beta= 0.05
     Davidson diagonalization with overlap
     ethr =  1.00E-02,  avg # of iterations = 22.5

[...]

     iteration # 57     ecut=    29.40 Ry     beta= 0.05
     Davidson diagonalization with overlap
     ethr =  7.01E-11,  avg # of iterations =  8.8

[...]

     total energy              =   -2931.48026612 Ry
     estimated scf accuracy    <       0.00000009 Ry

     iteration # 58     ecut=    29.40 Ry     beta= 0.05
     Davidson diagonalization with overlap
     c_bands:  1 eigenvalues not converged
     ethr =  2.34E-11,  avg # of iterations = 14.3

     negative rho (up, down):  1.427E-02 0.000E+00

     Adding external electric field

     Computed dipole along edir(3) :
        Dipole                1.3661 Ry au,          3.4723 Debye
        Dipole field          0.0026 Ry au,

        Potential amp.       -0.2390 Ry
        Total length         46.3494 bohr

     End of self-consistent calculation

          k = 0.0000 0.0000 0.0000 ( 18029 PWs)   bands (ev):

   -55.2793 -55.2429 -55.2313 -55.2010 -55.1971 -55.1645 -55.1510 -55.1166
   -55.1096 -55.0805 -55.0754 -55.0580 -55.0238 -54.9480 -54.3219 -54.2878
   -31.8473 -31.7342 -31.7305 -31.6372 -31.5970 -31.5863 -31.5835 -31.5697
   -31.5235 -31.5215 -31.4860 -31.4860 -31.4763 -31.4711 -31.4519 -31.4375
   -31.4322 -31.4195 -31.4151 -31.3889 -31.3828 -31.3737 -31.3635 -31.3511
   -31.3484 -31.3353 -31.3302 -31.3168 -31.2871 -31.2821 -31.2654 -31.2609
   -31.2551 -31.2520 -31.2487 -31.2414 -31.2081 -31.2033 -31.1901 -31.1721
   -31.1511 -31.1503 -30.7339 -30.6321 -30.6106 -30.5500 -30.4635 -30.3526
   -16.1109 -15.8733 -15.7426 -15.5855 -15.4949 -15.4486 -15.3555 -15.3303
   -15.2217 -15.1461 -15.0131 -14.9792 -14.9378 -14.9305 -14.9227 -14.9031
   -14.8970 -14.8262 -14.8138 -14.7966 -14.7879 -14.7657 -14.7644 -14.7450
   -14.7157 -14.6625 -14.6425 -14.5131 -14.4318 -14.3739 -14.1234 -12.8236
   -12.7044  -5.6101  -5.5103  -4.9598  -4.8102  -3.4419  -3.2880  -3.2535
    -3.2025  -3.1913  -3.0379  -2.8772  -2.7285  -2.7085  -2.5590  -2.5300
    -2.4779  -2.4560  -2.3048  -2.2797  -2.2348  -2.2092  -2.1593  -2.1490
    -2.1421  -2.1298  -2.0510  -2.0397  -2.0241  -1.8875  -1.8686  -1.7572
    -1.7169  -1.6610  -1.6490  -1.6432  -1.6086  -1.5905  -1.5500  -1.5393
    -1.5226  -1.4998  -1.4874  -1.3233  -1.2988  -1.1981  -1.1379  -1.0464
    -1.0302  -0.8858  -0.8504  -0.7615  -0.7445  -0.7255  -0.7110  -0.6781
    -0.6298  -0.5220  -0.4324  -0.4111  -0.3503  -0.3254  -0.2874  -0.1995
    -0.0955  -0.0672  -0.0338  -0.0320   0.0843   0.1090   0.1541   0.2206
     0.2352   0.2405   0.2646   0.3546   0.3691   0.4673   0.4909   0.4988
     0.5468   0.6357   0.6399   0.6542   0.6642   0.6906   0.7612   0.7679
     0.8675   0.8906   1.0068   1.2182   1.2893   1.3158   1.5942   1.6546
     1.7032   1.8659   2.2863   2.3388   3.8188   3.8853   3.9184   3.9515
     3.9878   4.0286   4.3161   4.3240   4.3367   4.3410   4.3776

[...]

          k = 0.0380-0.0419 0.0000 ( 17876 PWs)   bands (ev):

[...]

          k =-0.0760-0.0000 0.0000 ( 17886 PWs)   bands (ev):

[...]

          k =-0.0760-0.0839 0.0000 ( 17948 PWs)   bands (ev):

   -55.2638 -55.2581 -55.2143 -55.2140 -55.1995 -55.1610 -55.1347 -55.1328
   -55.0937 -55.0910 -55.0840 -55.0433 -55.0386 -54.9493 -54.3049 -54.3047
   -31.6525 -31.6484 -31.6483 -31.5681 -31.5453 -31.5452 -31.5386 -31.5069
   -31.5067 -31.4805 -31.4803 -31.4768 -31.4730 -31.4541 -31.4341 -31.4147
   -31.4098 -31.4082 -31.4080 -31.4020 -31.4006 -31.3978 -31.3588 -31.3578
   -31.3543 -31.3513 -31.3487 -31.3475 -31.3458 -31.3327 -31.3324 -31.3280
   -31.3254 -31.2911 -31.2892 -31.2733 -31.2706 -31.2651 -31.2280 -31.2273
   -31.2229 -31.1549 -30.6232 -30.6231 -30.5465 -30.5464 -30.5068 -30.5067
   -15.6291 -15.5179 -15.5024 -15.4722 -15.3191 -15.2981 -15.2607 -15.2459
   -15.1275 -15.0918 -15.0723 -15.0563 -15.0239 -15.0198 -15.0127 -14.9761
   -14.8923 -14.8725 -14.8670 -14.8548 -14.8182 -14.7908 -14.7854 -14.7787
   -14.7778 -14.7428 -14.7392 -14.6977 -14.6941 -14.6888 -14.3720 -12.8055
   -12.8053  -5.5915  -5.5131  -4.9235  -4.8191  -2.7909  -2.7347  -2.7345
    -2.5440  -2.4729  -2.4570  -2.4388  -2.3563  -2.3166  -2.2872  -2.2634
    -2.2330  -2.1907  -2.1868  -2.1656  -2.1571  -2.1428  -2.0957  -2.0773
    -2.0517  -1.9981  -1.9735  -1.9653  -1.9531  -1.9442  -1.9396  -1.9162
    -1.9141  -1.8880  -1.8768  -1.8211  -1.6699  -1.6540  -1.5759  -1.5096
    -1.5025  -1.5008  -1.4173  -1.3973  -1.3426  -1.3337  -1.3276  -1.0843
    -1.0635  -1.0622  -1.0569  -1.0256  -0.9107  -0.9010  -0.8284  -0.7985
    -0.7808  -0.6751  -0.6630  -0.6031  -0.5991  -0.4920  -0.4903  -0.4316
    -0.3035  -0.2970  -0.2837  -0.2588  -0.2570  -0.2154  -0.2112  -0.1039
    -0.0678  -0.0170  -0.0057   0.0267   0.1821   0.2317   0.2459   0.2742
     0.4076   0.4283   0.5621   0.5699   0.6247   0.7343   0.7644   0.8033
     0.8313   0.9805   0.9913   1.0132   1.1042   1.1183   1.1560   1.1625
     2.0540   2.0554   2.1568   2.1572   3.9795   4.0610   4.0865   4.1259
     4.2311   4.3291   4.3441   4.3453   4.3791   4.3821   4.4822

     the Fermi energy is     3.8824 ev

!    total energy              =   -2931.48031957 Ry
     estimated scf accuracy    <       0.00000005 Ry
     smearing contrib. (-TS)   =      -0.03684911 Ry
     internal energy E=F+TS    =   -2931.44347046 Ry

     The total energy is F=E-TS. E is the sum of the following terms:
     one-electron contribution =  -23480.60283639 Ry
     hartree contribution      =   11831.01326284 Ry
     xc contribution           =    -484.16434686 Ry
     ewald contribution        =    9202.30692809 Ry
     electric field correction =       0.00352187 Ry

     convergence has been achieved in  58 iterations

     Forces acting on atoms (cartesian axes, Ry/au):

     atom    1 type  1   force =     0.00008584   -0.00010232    0.09074488
     atom    2 type  1   force =    -0.00005890    0.00053380   -0.18273159
     atom    3 type  2   force =     0.00005411   -0.00002652   -0.02345878
     atom    4 type  2   force =     0.00001849   -0.00006228    0.05277087
     atom    5 type  2   force =    -0.01300715   -0.00097093    0.00606690
     atom    6 type  2   force =     0.01295252   -0.00047990    0.00605580
     atom    7 type  1   force =    -0.00000368    0.00067868   -0.00328789
     atom    8 type  1   force =     0.00002070   -0.00014919    0.00137831
     atom    9 type  2   force =    -0.00003184   -0.00016027   -0.00046679
     atom   10 type  2   force =     0.00001781   -0.00005336   -0.00021213
     atom   11 type  2   force =     0.00016322    0.00017066    0.00018159
     atom   12 type  2   force =    -0.00008030    0.00016912    0.00016008
     atom   13 type  1   force =    -0.00019728   -0.00018295    0.00000701
     atom   14 type  1   force =     0.00014831    0.00046309   -0.00096872
     atom   15 type  2   force =     0.00002348   -0.00058341    0.00012045
     atom   16 type  2   force =    -0.00002766    0.00000629    0.00044529
     atom   17 type  2   force =     0.00041302    0.00001655    0.00045895
     atom   18 type  2   force =    -0.00044270    0.00001081    0.00046129
     atom   19 type  1   force =     0.00006101   -0.00000098    0.00029178
     atom   20 type  1   force =    -0.00003063   -0.00101084    0.00077981
     atom   21 type  2   force =     0.00005710    0.00012521    0.10487574
     atom   22 type  2   force =     0.00000856   -0.00007699    0.00096700
     atom   23 type  2   force =    -0.06826947   -0.00022375   -0.02627579
     atom   24 type  2   force =     0.06818343    0.00021119   -0.02632610
     atom   25 type  1   force =     0.00008846    0.00005516    0.09037825
     atom   26 type  1   force =    -0.00005817   -0.00045064   -0.18290855
     atom   27 type  2   force =     0.00005162   -0.00093750   -0.02256178
     atom   28 type  2   force =     0.00001827   -0.00006972    0.05254950
     atom   29 type  2   force =    -0.01330682   -0.00073301    0.00528761
     atom   30 type  2   force =     0.01324631   -0.00024513    0.00527513
     atom   31 type  1   force =     0.00001156   -0.00072548   -0.00309170
     atom   32 type  1   force =     0.00001072   -0.00006401    0.00149881
     atom   33 type  2   force =    -0.00002904   -0.00015646    0.00021016
     atom   34 type  2   force =     0.00002186    0.00007450   -0.00047027
     atom   35 type  2   force =     0.00013173   -0.00013709    0.00024651
     atom   36 type  2   force =    -0.00005363   -0.00015144    0.00022315
     atom   37 type  1   force =    -0.00019475    0.00005592    0.00092187
     atom   38 type  1   force =     0.00014614   -0.00028477   -0.00097144
     atom   39 type  2   force =     0.00001465    0.00025843   -0.00006829
     atom   40 type  2   force =    -0.00003034   -0.00001272    0.00108621
     atom   41 type  2   force =     0.00059182   -0.00019090    0.00026297
     atom   42 type  2   force =    -0.00063854   -0.00019137    0.00027399
     atom   43 type  1   force =     0.00007589    0.00011716    0.00063457
     atom   44 type  1   force =    -0.00004026    0.00127834   -0.00116704
     atom   45 type  2   force =     0.00005560    0.00013972    0.10484433
     atom   46 type  2   force =    -0.06827741   -0.00008695   -0.02631478
     atom   47 type  2   force =     0.06817920    0.00033974   -0.02635339
     atom   48 type  3   force =    -0.00049931   -0.00699204    0.00416267
     atom   49 type  4   force =     0.00002422    0.00609757   -0.00374856
     atom   50 type  4   force =     0.00099815    0.00151817   -0.00008380
     atom   51 type  4   force =    -0.00054435    0.00123766   -0.00028101
     atom   52 type  3   force =    -0.00000986    0.00078692    0.00047293
     atom   53 type  4   force =    -0.00001772    0.00123551   -0.00144204
     atom   54 type  4   force =     0.00010081   -0.00004103   -0.00045502
     atom   55 type  4   force =    -0.00012481   -0.00002625   -0.00044894

     Total force =     0.366368     Total SCF correction =     0.000650
  @ DRIVER MODE: Message from server: STATUS
  @ DRIVER MODE: Message from server: GETFORCE
  @ DRIVER MODE: Returning v,forces,stress,ensemble

     Writing output data file ./calc.save/
  @ DRIVER MODE: Message from server: EXIT
  @ DRIVE MODE: Exiting

     General routines

     Parallel routines

   This run was terminated on:  13:57:30  12Oct2021

   JOB DONE.