     Program PWSCF v.6.7GPU starts on 16Sep2021 at  6:47:12

     R & G space division:  proc/nbgrp/npool/nimage =      10
     Reading input from /storage/home/hcoda1/3/ntian30/research/carbon/CxH_vib/H2O_calc/ads_slab/CH2N2H2O_b/out_0046/pw.inp
Warning: card &CELL ignored
Warning: card   CELL_DYNAMICS='IPI', ignored
Warning: card / ignored

     Current dimensions of program PWSCF are:
     Max number of different atomic species (ntypx) = 10
     Max number of k-points (npk) =  40000
     Max angular momentum in pseudopotentials (lmaxx) =  3
     Presently no symmetry can be used with electric field

     Message from routine cell_base_init:
     DEPRECATED: use true lattice parameter, not A to a.u. conversion factor

     IMPORTANT: XC functional enforced from input :
     Exchange-correlation= BEEF-VDW
                           (   1   4  43  14   2   0   0)
     Any further DFT definition will be discarded
     Please, verify this is what you really want

  @ DRIVER MODE: Connecting to
 qe_1139763_2852605.sched-torque.pace.gatech.edus3qyxq8j_scratch
  using UNIX socket
  @ DRIVER MODE: Message from server: STATUS
  @ DRIVER MODE: Message from server: INIT
  @ DRIVER MODE: Receiving replica           0          -1
  @ DRIVER MODE: Receiving encoded integer          25
  @ DRIVER MODE:  SCF:  T  FORCE:  T  STRESS:  F  VC:  F  ENSEMBLE:  F
  @ DRIVER MODE:  SCF:  T  FORCE:  T  STRESS:  F  VC:  F  ENSEMBLE:  F

     Using Slab Decomposition

     bravais-lattice index     =            0
     lattice parameter (alat)  =       1.8897  a.u.
     unit-cell volume          =    6658.9804 (a.u.)^3
     number of atoms/cell      =           55
     number of atomic types    =            5
     number of electrons       =       402.00
     number of Kohn-Sham states=          211
     kinetic-energy cutoff     =      29.3995  Ry
     charge density cutoff     =     293.9946  Ry
     scf convergence threshold =      7.3E-08
     mixing beta               =       0.0500
     number of iterations used =            8  plain     mixing
     Exchange-correlation= BEEF-VDW
                           (   1   4  43  14   2   0   0)

     celldm(1)=   1.889726  celldm(2)=   0.000000  celldm(3)=   0.000000
     celldm(4)=   0.000000  celldm(5)=   0.000000  celldm(6)=   0.000000

     crystal axes: (cart. coord. in units of alat)
               a(1) = (   6.579727   0.000000   0.000000 )
               a(2) = (  -0.000775   5.961596   0.000000 )
               a(3) = (   0.000000   0.000000  25.155947 )

     reciprocal axes: (cart. coord. in units 2 pi/alat)
               b(1) = (  0.151982  0.000020  0.000000 )
               b(2) = (  0.000000  0.167740  0.000000 )
               b(3) = (  0.000000  0.000000  0.039752 )

     PseudoPot. # 1 for Ti read from file:
     /storage/coda1/p-amedford6/0/shared/rich_project_chbe-medford/medford-share/data/pseudos_module/espresso/nninc/pbe/van/Ti.UPF
     MD5 check sum: 8e4df49b7f0d34bbd5052bf3f5ea0213
     Pseudo is Ultrasoft, Zval = 12.0
     Generated by new atomic code, or converted to UPF format
     Using radial grid of  851 points,  6 beta functions with:
                l(1) =   0
                l(2) =   0
                l(3) =   1
                l(4) =   1
                l(5) =   2
                l(6) =   2
     Q(r) pseudized with  8 coefficients,  rinner =    1.000   1.000   1.000
                                                       1.000   1.000

     PseudoPot. # 2 for O  read from file:
     /storage/coda1/p-amedford6/0/shared/rich_project_chbe-medford/medford-share/data/pseudos_module/espresso/nninc/pbe/van/O.UPF
     MD5 check sum: 78c19812648e8988a0fe644b0f25305e
     Pseudo is Ultrasoft, Zval =  6.0
     Generated by new atomic code, or converted to UPF format
     Using radial grid of  737 points,  4 beta functions with:
                l(1) =   0
                l(2) =   0
                l(3) =   1
                l(4) =   1
     Q(r) pseudized with  8 coefficients,  rinner =    0.800   0.800   0.800

     PseudoPot. # 3 for N  read from file:
     /storage/coda1/p-amedford6/0/shared/rich_project_chbe-medford/medford-share/data/pseudos_module/espresso/nninc/pbe/van/N.UPF
     MD5 check sum: 90d10febe142ad51ac9d5be1deb811c4
     Pseudo is Ultrasoft, Zval =  5.0
     Generated by new atomic code, or converted to UPF format
     Using radial grid of  729 points,  4 beta functions with:
                l(1) =   0
                l(2) =   0
                l(3) =   1
                l(4) =   1
     Q(r) pseudized with  8 coefficients,  rinner =    0.800   0.800   0.800

     PseudoPot. # 4 for C  read from file:
     /storage/coda1/p-amedford6/0/shared/rich_project_chbe-medford/medford-share/data/pseudos_module/espresso/nninc/pbe/van/C.UPF
     MD5 check sum: 1a69bf6b8db32088f5b2163dbdb77a27
     Pseudo is Ultrasoft, Zval =  4.0
     Generated by new atomic code, or converted to UPF format
     Using radial grid of  721 points,  4 beta functions with:
                l(1) =   0
                l(2) =   0
                l(3) =   1
                l(4) =   1
     Q(r) pseudized with  8 coefficients,  rinner =    0.800   0.800   0.800

     PseudoPot. # 5 for H  read from file:
     /storage/coda1/p-amedford6/0/shared/rich_project_chbe-medford/medford-share/data/pseudos_module/espresso/nninc/pbe/van/H.UPF
     MD5 check sum: b5ee9d7bfd3a09ee7748110bda690ff7
     Pseudo is Ultrasoft, Zval =  1.0
     Generated by new atomic code, or converted to UPF format
     Using radial grid of  615 points,  1 beta functions with:
                l(1) =   0
     Q(r) pseudized with  8 coefficients,  rinner =    0.800

     atomic species   valence    mass     pseudopotential
        Ti1           12.00    47.86700     Ti( 1.00)
        O1             6.00    15.99900     O ( 1.00)
        N1             5.00    14.00700     N ( 1.00)
        C1             4.00    12.01100     C ( 1.00)
        H1             1.00     1.00800     H ( 1.00)

     No symmetry found

   Cartesian axes

     site n.     atom                  positions (alat units)
         1           Ti1 tau(   1) = (   0.0004258   2.9801865   6.0000000  )
         2           Ti1 tau(   2) = (   3.2906075   1.4906267   6.0002472  )
         3           O1  tau(   3) = (   0.0006271   0.0005054   7.9858123  )
         4           O1  tau(   4) = (   3.2906025   0.0005020   7.3038282  )
         5           O1  tau(   5) = (   4.5942328   1.4918067   9.2879030  )
         6           O1  tau(   6) = (   1.9868534   1.4903216   9.2879459  )
         7           Ti1 tau(   7) = (   3.2907910   2.8959150   9.1758416  )
         8           Ti1 tau(   8) = (   0.0015273   1.4827037   9.2680791  )
         9           O1  tau(   9) = (   3.2934429   5.9466490  11.3040654  )
        10           O1  tau(  10) = (   0.0116148   5.9584955  10.6183126  )
        11           O1  tau(  11) = (   1.2867109   1.4782735  12.6190062  )
        12           O1  tau(  12) = (   5.2776945   1.4764076  12.5976694  )
        13           Ti1 tau(  13) = (   0.0846880   2.9559742  12.7004455  )
        14           Ti1 tau(  14) = (   3.4192946   1.4610250  12.4797112  )
        15           O1  tau(  15) = (   0.0040618   5.9510889  14.6015872  )
        16           O1  tau(  16) = (   3.2972055   5.9566395  13.8969661  )
        17           O1  tau(  17) = (   4.5327346   1.5242580  16.0225792  )
        18           O1  tau(  18) = (   2.0474321   1.5095568  15.9818283  )
        19           Ti1 tau(  19) = (   3.2830006   2.9631064  15.6531525  )
        20           Ti1 tau(  20) = (   6.5418150   1.5417905  15.9635021  )
        21           O1  tau(  21) = (   3.2904802   0.0005063   4.7018136  )
        22           O1  tau(  22) = (   0.0063621   0.0138944  17.1794403  )
        23           O1  tau(  23) = (   1.3043587   1.4918075   6.0039043  )
        24           O1  tau(  24) = (   5.2767064   1.4903225   6.0039473  )
        25           Ti1 tau(  25) = (   0.0000382   5.9609847   6.0000000  )
        26           Ti1 tau(  26) = (   3.2902200   4.4714249   6.0002472  )
        27           O1  tau(  27) = (   0.0002396   2.9813036   7.9858123  )
        28           O1  tau(  28) = (   3.2902150   2.9813002   7.3038282  )
        29           O1  tau(  29) = (   4.5938453   4.4726049   9.2879030  )
        30           O1  tau(  30) = (   1.9864658   4.4711199   9.2879459  )
        31           Ti1 tau(  31) = (   3.2891106   5.8743827   9.1763621  )
        32           Ti1 tau(  32) = (   0.0006254   4.4649316   9.2693709  )
        33           O1  tau(  33) = (   3.2987291   2.9703105  11.3060640  )
        34           O1  tau(  34) = (   0.0092240   2.9805883  10.6323155  )
        35           O1  tau(  35) = (   1.2872851   4.4534926  12.6272766  )
        36           O1  tau(  36) = (   5.2800973   4.4624318  12.6062822  )
        37           Ti1 tau(  37) = (   0.1009857   5.9355968  12.6779778  )
        38           Ti1 tau(  38) = (   3.4194502   4.4581092  12.4739500  )
        39           O1  tau(  39) = (   6.5579784   2.9468049  14.6267102  )
        40           O1  tau(  40) = (   3.2950467   2.9662764  13.8528306  )
        41           O1  tau(  41) = (   4.5369278   4.4531499  15.9976687  )
        42           O1  tau(  42) = (   2.0426393   4.4597293  15.9709435  )
        43           Ti1 tau(  43) = (   3.2485613   5.9322867  15.7552632  )
        44           Ti1 tau(  44) = (   6.5504849   4.5932964  16.0494500  )
        45           O1  tau(  45) = (   3.2900926   2.9813045   4.7018136  )
        46           O1  tau(  46) = (   1.3039711   4.4726057   6.0039043  )
        47           O1  tau(  47) = (   5.2763189   4.4711207   6.0039473  )
        48           N1  tau(  48) = (   0.6156314   2.9572148  18.5116157  )
        49           N1  tau(  49) = (   0.0870375   2.9660652  17.3203775  )
        50           C1  tau(  50) = (   6.5561155   3.1780822  19.6039678  )
        51           H1  tau(  51) = (   5.4868456   3.3930584  19.6151425  )
        52           H1  tau(  52) = (   0.5344647   3.1546629  20.5288580  )
        53           O1  tau(  53) = (   3.2552377   5.9566958  18.1335742  )
        54           H1  tau(  54) = (   4.0211122   0.5273114  18.4085372  )
        55           H1  tau(  55) = (   2.4596908   0.4832500  18.4230009  )

     number of k points=    10  Fermi-Dirac smearing, width (Ry)=  0.0073
                       cart. coord. in units 2pi/alat
        k(    1) = (   0.0000000   0.0000000   0.0000000), wk =   0.1250000
        k(    2) = (   0.0000000   0.0419351   0.0000000), wk =   0.2500000
        k(    3) = (   0.0000000  -0.0838702   0.0000000), wk =   0.1250000
        k(    4) = (   0.0379955   0.0000049   0.0000000), wk =   0.2500000
        k(    5) = (   0.0379955   0.0419400   0.0000000), wk =   0.2500000
        k(    6) = (   0.0379955  -0.0838652   0.0000000), wk =   0.2500000
        k(    7) = (   0.0379955  -0.0419301   0.0000000), wk =   0.2500000
        k(    8) = (  -0.0759910  -0.0000099   0.0000000), wk =   0.1250000
        k(    9) = (  -0.0759910   0.0419252   0.0000000), wk =   0.2500000
        k(   10) = (  -0.0759910  -0.0838800   0.0000000), wk =   0.1250000

     Initial potential from superposition of free atoms

     starting charge  385.99915, renormalised to  402.00000

     negative rho (up, down):  1.463E-02 0.000E+00

     %%%%%%%%%%%%%%%%%%%%%%%%%%%%%%%%%%%%%%%%%%%%%%%%%%%%%%%%%%%%%%%%%%%%%%%%
     %                                                                      %
     % You are using vdW-DF, which was implemented by the Thonhauser group. %
     % Please cite the following two papers that made this development      %
     % possible and the two reviews that describe the various versions:     %
     %                                                                      %
     %   T. Thonhauser et al., PRL 115, 136402 (2015).                      %
     %   T. Thonhauser et al., PRB 76, 125112 (2007).                       %
     %   K. Berland et al., Rep. Prog. Phys. 78, 066501 (2015).             %
     %   D.C. Langreth et al., J. Phys.: Condens. Matter 21, 084203 (2009). %
     %                                                                      %
     %                                                                      %
     % If you are calculating the stress with vdW-DF, please also cite:     %
     %                                                                      %
     %   R. Sabatini et al., J. Phys.: Condens. Matter 24, 424209 (2012).   %
     %                                                                      %
     %%%%%%%%%%%%%%%%%%%%%%%%%%%%%%%%%%%%%%%%%%%%%%%%%%%%%%%%%%%%%%%%%%%%%%%%

     Adding external electric field

     Computed dipole along edir(3) :
        Dipole              -11.9608 Ry au,        -30.4013 Debye
        Dipole field         -0.0226 Ry au,

        Potential amp.        2.0924 Ry
        Total length         46.3494 bohr

     Starting wfcs are  304 atomic wfcs
  @ DRIVER MODE: Message from server: STATUS
  @ DRIVER MODE: Message from server: POSDATA
  @ DRIVER MODE: Reading and sharing cell
  @ DRIVER MODE: Reading and sharing positions
  @ DRIVER MODE: Received positions

     Self-consistent Calculation

     iteration #  1     ecut=    29.40 Ry     beta= 0.05
     Davidson diagonalization with overlap
     c_bands:  3 eigenvalues not converged
     c_bands:  1 eigenvalues not converged
     c_bands:  5 eigenvalues not converged
     c_bands:  3 eigenvalues not converged
     c_bands:  3 eigenvalues not converged
     c_bands:  2 eigenvalues not converged
     c_bands:  4 eigenvalues not converged
     c_bands:  4 eigenvalues not converged
     c_bands:  3 eigenvalues not converged
     ethr =  1.00E-05,  avg # of iterations = 21.6

[...]

     total energy              =   -2415.34670913 Ry
     estimated scf accuracy    <    6284.06822614 Ry

     iteration #  2     ecut=    29.40 Ry     beta= 0.05
     Davidson diagonalization with overlap
     ethr =  1.00E-02,  avg # of iterations = 22.6

[...]

     iteration # 36     ecut=    29.40 Ry     beta= 0.05
     Davidson diagonalization with overlap
     c_bands:  1 eigenvalues not converged
     ethr =  1.65E-06,  avg # of iterations = 11.1

[...]

     total energy              =   -2972.73817823 Ry
     estimated scf accuracy    <       0.00000008 Ry

     iteration # 68     ecut=    29.40 Ry     beta= 0.05
     Davidson diagonalization with overlap
     ethr =  2.03E-11,  avg # of iterations =  5.1

     negative rho (up, down):  1.529E-02 0.000E+00

     Adding external electric field

     Computed dipole along edir(3) :
        Dipole                0.6719 Ry au,          1.7078 Debye
        Dipole field          0.0013 Ry au,

        Potential amp.       -0.1175 Ry
        Total length         46.3494 bohr

     End of self-consistent calculation

          k = 0.0000 0.0000 0.0000 ( 18029 PWs)   bands (ev):

   -56.1200 -56.0862 -55.6573 -55.6235 -55.5647 -55.5402 -55.5304 -55.5047
   -55.4196 -55.3707 -55.3301 -55.2617 -54.9366 -54.9027 -54.8613 -54.8217
   -32.5717 -32.4112 -32.3836 -32.2802 -32.1956 -32.1873 -32.1246 -32.0730
   -32.0510 -31.9004 -31.8771 -31.8733 -31.8412 -31.8397 -31.8217 -31.7878
   -31.7775 -31.7744 -31.7607 -31.7594 -31.7541 -31.7196 -31.7178 -31.7105
   -31.6764 -31.6741 -31.6606 -31.6496 -31.6300 -31.5986 -31.5408 -31.5386
   -31.5090 -31.4823 -31.4543 -31.4218 -31.3922 -31.3366 -31.2657 -31.2423
   -31.1542 -31.1073 -31.0742 -31.0689 -31.0581 -31.0346 -30.9577 -30.9476
   -18.6609 -17.4859 -16.4407 -16.2214 -15.9863 -15.7475 -15.6963 -15.5804
   -15.5668 -15.5588 -15.4460 -15.4283 -15.3719 -15.2656 -15.1957 -15.1595
   -15.1058 -15.0975 -15.0735 -14.9802 -14.9660 -14.9495 -14.9381 -14.8634
   -14.8202 -14.7997 -14.6930 -14.6255 -14.5605 -14.5312 -14.2353 -13.4365
   -13.3232 -11.6633  -6.5441  -6.4015  -4.4134  -3.9415  -3.9312  -3.7212
    -3.5598  -3.4581  -3.3295  -3.3128  -3.1856  -3.0810  -2.9459  -2.8857
    -2.8779  -2.8068  -2.7825  -2.7751  -2.6398  -2.6010  -2.5586  -2.5353
    -2.5053  -2.4281  -2.4153  -2.3596  -2.3190  -2.2860  -2.1800  -2.1412
    -2.1015  -2.0861  -2.0621  -2.0173  -1.9809  -1.9593  -1.9498  -1.9356
    -1.8968  -1.8052  -1.7553  -1.6563  -1.6007  -1.5002  -1.4559  -1.4406
    -1.3741  -1.2842  -1.1643  -1.1514  -1.0804  -1.0394  -0.9939  -0.9664
    -0.8931  -0.8839  -0.8135  -0.7740  -0.7002  -0.6496  -0.6175  -0.5942
    -0.5713  -0.4751  -0.4258  -0.3463  -0.2887  -0.2330  -0.2118  -0.1186
    -0.0895  -0.0575  -0.0329   0.0243   0.0667   0.0841   0.1044   0.1294
     0.1624   0.1866   0.3066   0.3599   0.3732   0.4063   0.4308   0.5412
     0.6020   0.6772   0.7366   0.7776   0.8802   0.8962   0.9407   1.0663
     1.0791   1.0859   1.1446   1.3037   1.6185   1.6440   1.6850   1.7777
     2.9505   3.1085   3.2250   3.4469   3.5451   3.5801   3.8454   3.9518
     3.9893   4.0159   4.0260

[...]

          k = 0.0380-0.0419 0.0000 ( 17876 PWs)   bands (ev):

[...]

          k =-0.0760-0.0000 0.0000 ( 17886 PWs)   bands (ev):

[...]

          k =-0.0760-0.0839 0.0000 ( 17948 PWs)   bands (ev):

   -56.1031 -56.1030 -55.6425 -55.6380 -55.5506 -55.5445 -55.5238 -55.5208
   -55.4176 -55.3610 -55.3398 -55.2635 -54.9197 -54.9195 -54.8515 -54.8313
   -32.3969 -32.3965 -32.3877 -32.3875 -32.2319 -32.2318 -31.9492 -31.9440
   -31.8942 -31.8928 -31.8901 -31.8695 -31.8329 -31.8281 -31.8093 -31.8080
   -31.7917 -31.7880 -31.7654 -31.7596 -31.7564 -31.7509 -31.7505 -31.7446
   -31.7110 -31.6719 -31.6664 -31.6595 -31.6343 -31.6230 -31.5873 -31.5729
   -31.5658 -31.5299 -31.5148 -31.4626 -31.2732 -31.2552 -31.2551 -31.1590
   -31.1507 -31.1505 -31.1117 -31.1116 -31.0667 -31.0542 -31.0453 -31.0275
   -18.6599 -17.4803 -15.8157 -15.8103 -15.7435 -15.7397 -15.6704 -15.6078
   -15.5079 -15.5041 -15.4609 -15.3730 -15.2952 -15.2764 -15.2063 -15.1999
   -15.1981 -15.1893 -15.1207 -15.1104 -15.0750 -15.0523 -15.0271 -15.0235
   -14.9951 -14.9718 -14.7586 -14.7021 -14.6358 -14.5603 -14.4097 -13.4259
   -13.4258 -11.6683  -6.5338  -6.4014  -4.3677  -3.9231  -3.1382  -3.0179
    -2.9363  -2.9248  -2.9005  -2.8046  -2.7830  -2.7378  -2.7106  -2.6899
    -2.6150  -2.6035  -2.5516  -2.5460  -2.5126  -2.4955  -2.4419  -2.4319
    -2.4215  -2.4165  -2.3677  -2.3323  -2.3283  -2.3178  -2.2958  -2.2272
    -2.1646  -2.1262  -2.0889  -2.0734  -2.0710  -2.0137  -1.9876  -1.9544
    -1.9023  -1.8984  -1.8645  -1.8135  -1.6842  -1.6735  -1.5430  -1.4708
    -1.4523  -1.3732  -1.3232  -1.2900  -1.2171  -1.1663  -1.1370  -1.0297
    -1.0079  -0.9765  -0.9624  -0.9274  -0.9227  -0.8822  -0.7736  -0.7538
    -0.7155  -0.7124  -0.6341  -0.6037  -0.5506  -0.5299  -0.5177  -0.4751
    -0.4569  -0.3733  -0.3504  -0.2945  -0.2401  -0.1972  -0.1467  -0.0951
    -0.0120   0.0541   0.1080   0.1992   0.2023   0.2139   0.4195   0.4251
     0.5247   0.6077   0.7341   0.7597   0.7738   0.8779   0.9180   0.9414
     0.9690   1.1330   1.1748   1.4698   1.4715   1.5013   1.5017   1.7267
     2.8911   3.6422   3.6423   3.6783   3.6796   3.9119   3.9162   3.9641
     3.9703   4.0263   4.0502

     the Fermi energy is     3.0501 ev

!    total energy              =   -2972.73819964 Ry
     estimated scf accuracy    <       0.00000005 Ry
     smearing contrib. (-TS)   =      -0.01267436 Ry
     internal energy E=F+TS    =   -2972.72552527 Ry

     The total energy is F=E-TS. E is the sum of the following terms:
     one-electron contribution =  -24071.28427496 Ry
     hartree contribution      =   12129.24824851 Ry
     xc contribution           =    -493.17313596 Ry
     ewald contribution        =    9462.48278516 Ry
     electric field correction =       0.00085197 Ry

     convergence has been achieved in  68 iterations

     Forces acting on atoms (cartesian axes, Ry/au):

     atom    1 type  1   force =     0.00012594   -0.00029927    0.10880329
     atom    2 type  1   force =    -0.00011470   -0.00041159   -0.16774824
     atom    3 type  2   force =    -0.00015690   -0.00000863   -0.04387114
     atom    4 type  2   force =     0.00005029   -0.00075047    0.03934748
     atom    5 type  2   force =    -0.01329533    0.00016535   -0.00457626
     atom    6 type  2   force =     0.01489404    0.00103751   -0.00540141
     atom    7 type  1   force =    -0.00093083   -0.00251222    0.01169529
     atom    8 type  1   force =     0.00124347    0.00154116    0.07747598
     atom    9 type  2   force =    -0.00005116   -0.00014946   -0.00023995
     atom   10 type  2   force =    -0.00115220    0.00038956   -0.05118341
     atom   11 type  2   force =    -0.00008039    0.00036118    0.00009173
     atom   12 type  2   force =    -0.00000566    0.00024613    0.00005164
     atom   13 type  1   force =     0.00045165    0.00001369    0.00004608
     atom   14 type  1   force =    -0.00023613   -0.00008664    0.00015364
     atom   15 type  2   force =    -0.00020157   -0.00012416    0.00039635
     atom   16 type  2   force =     0.00013941    0.00002268   -0.00009295
     atom   17 type  2   force =    -0.00075127    0.00039374   -0.00016952
     atom   18 type  2   force =     0.00036101    0.00032387   -0.00006114
     atom   19 type  1   force =     0.00037413   -0.00011373    0.00006679
     atom   20 type  1   force =    -0.00018341    0.00043560   -0.00009672
     atom   21 type  2   force =     0.00007998    0.00005652    0.10124328
     atom   22 type  2   force =    -0.00012821   -0.00004282    0.00001459
     atom   23 type  2   force =    -0.07509308   -0.00002373   -0.03017296
     atom   24 type  2   force =     0.07506701    0.00043225   -0.03016857
     atom   25 type  1   force =     0.00020940   -0.00028911    0.10844839
     atom   26 type  1   force =    -0.00010120   -0.00045025   -0.16776669
     atom   27 type  2   force =    -0.00002168   -0.00025260   -0.04287356
     atom   28 type  2   force =     0.00011603   -0.00047243    0.03870751
     atom   29 type  2   force =    -0.01361446    0.00094557   -0.00480661
     atom   30 type  2   force =     0.01514771    0.00120797   -0.00568374
     atom   31 type  1   force =    -0.00125321    0.00051495    0.00739384
     atom   32 type  1   force =     0.00132869   -0.00408699    0.07791198
     atom   33 type  2   force =    -0.00005478    0.00012528   -0.00027086
     atom   34 type  2   force =    -0.00138157    0.00034829   -0.05724414
     atom   35 type  2   force =    -0.00001769   -0.00049555   -0.00004734
     atom   36 type  2   force =    -0.00035219   -0.00021909   -0.00014614
     atom   37 type  1   force =    -0.00007059   -0.00002453   -0.00026120
     atom   38 type  1   force =    -0.00019565    0.00021763   -0.00012618
     atom   39 type  2   force =     0.00000724   -0.00001556   -0.00050596
     atom   40 type  2   force =    -0.00001047    0.00028933    0.00021766
     atom   41 type  2   force =    -0.00007436   -0.00010661    0.00007944
     atom   42 type  2   force =    -0.00027246    0.00002340   -0.00008073
     atom   43 type  1   force =     0.00028012    0.00072333    0.00019991
     atom   44 type  1   force =    -0.00001868    0.00009721    0.00021146
     atom   45 type  2   force =     0.00006850    0.00003909    0.10120750
     atom   46 type  2   force =    -0.07508177    0.00004031   -0.03013327
     atom   47 type  2   force =     0.07505781    0.00047360   -0.03014371
     atom   48 type  3   force =     0.00010229   -0.00004799    0.00032915
     atom   49 type  3   force =     0.00018122    0.00018310   -0.00000494
     atom   50 type  4   force =    -0.00015880    0.00009383   -0.00000212
     atom   51 type  5   force =     0.00022204    0.00052692   -0.00022884
     atom   52 type  5   force =    -0.00020625   -0.00017094    0.00003260
     atom   53 type  2   force =    -0.00720714    0.00599818    0.00364710
     atom   54 type  5   force =     0.00012289   -0.00122235   -0.00043223
     atom   55 type  5   force =     0.00684292   -0.00489051   -0.00323216

     Total force =     0.390740     Total SCF correction =     0.000562
  @ DRIVER MODE: Message from server: STATUS
  @ DRIVER MODE: Message from server: GETFORCE
  @ DRIVER MODE: Returning v,forces,stress,ensemble

     Writing output data file ./calc.save/
  @ DRIVER MODE: Message from server: EXIT
  @ DRIVE MODE: Exiting

     General routines

     Parallel routines

   This run was terminated on:   7: 6:18  16Sep2021

   JOB DONE.