     Program PWSCF v.6.7GPU starts on 23Aug2021 at 16: 7:28

     R & G space division:  proc/nbgrp/npool/nimage =       6
     Reading input from /storage/home/hcoda1/3/ntian30/research/carbon/CH_vib/ads_slab/CH_a/out_0008/pw.inp
Warning: card &CELL ignored
Warning: card   CELL_DYNAMICS='IPI', ignored
Warning: card / ignored

     Current dimensions of program PWSCF are:
     Max number of different atomic species (ntypx) = 10
     Max number of k-points (npk) =  40000
     Max angular momentum in pseudopotentials (lmaxx) =  3
     Presently no symmetry can be used with electric field

     Message from routine cell_base_init:
     DEPRECATED: use true lattice parameter, not A to a.u. conversion factor

     IMPORTANT: XC functional enforced from input :
     Exchange-correlation= BEEF-VDW
                           (   1   4  43  14   2   0   0)
     Any further DFT definition will be discarded
     Please, verify this is what you really want

  @ DRIVER MODE: Connecting to
 qe_1139763_2632798.sched-torque.pace.gatech.edu85xzqhs__scratch
  using UNIX socket
  @ DRIVER MODE: Message from server: STATUS
  @ DRIVER MODE: Message from server: INIT
  @ DRIVER MODE: Receiving replica           0          -1
  @ DRIVER MODE: Receiving encoded integer          25
  @ DRIVER MODE:  SCF:  T  FORCE:  T  STRESS:  F  VC:  F  ENSEMBLE:  F
  @ DRIVER MODE:  SCF:  T  FORCE:  T  STRESS:  F  VC:  F  ENSEMBLE:  F

     Using Slab Decomposition

     bravais-lattice index     =            0
     lattice parameter (alat)  =       1.8897  a.u.
     unit-cell volume          =    6658.9804 (a.u.)^3
     number of atoms/cell      =           49
     number of atomic types    =            4
     number of electrons       =       383.00
     number of Kohn-Sham states=          201
     kinetic-energy cutoff     =      29.3995  Ry
     charge density cutoff     =     293.9946  Ry
     scf convergence threshold =      7.3E-08
     mixing beta               =       0.0500
     number of iterations used =            8  plain     mixing
     Exchange-correlation= BEEF-VDW
                           (   1   4  43  14   2   0   0)

     celldm(1)=   1.889726  celldm(2)=   0.000000  celldm(3)=   0.000000
     celldm(4)=   0.000000  celldm(5)=   0.000000  celldm(6)=   0.000000

     crystal axes: (cart. coord. in units of alat)
               a(1) = (   6.579727   0.000000   0.000000 )
               a(2) = (  -0.000775   5.961596   0.000000 )
               a(3) = (   0.000000   0.000000  25.155947 )

     reciprocal axes: (cart. coord. in units 2 pi/alat)
               b(1) = (  0.151982  0.000020  0.000000 )
               b(2) = (  0.000000  0.167740  0.000000 )
               b(3) = (  0.000000  0.000000  0.039752 )

     PseudoPot. # 1 for Ti read from file:
     /storage/coda1/p-amedford6/0/shared/rich_project_chbe-medford/medford-share/data/pseudos_module/espresso/nninc/pbe/van/Ti.UPF
     MD5 check sum: 8e4df49b7f0d34bbd5052bf3f5ea0213
     Pseudo is Ultrasoft, Zval = 12.0
     Generated by new atomic code, or converted to UPF format
     Using radial grid of  851 points,  6 beta functions with:
                l(1) =   0
                l(2) =   0
                l(3) =   1
                l(4) =   1
                l(5) =   2
                l(6) =   2
     Q(r) pseudized with  8 coefficients,  rinner =    1.000   1.000   1.000
                                                       1.000   1.000

     PseudoPot. # 2 for O  read from file:
     /storage/coda1/p-amedford6/0/shared/rich_project_chbe-medford/medford-share/data/pseudos_module/espresso/nninc/pbe/van/O.UPF
     MD5 check sum: 78c19812648e8988a0fe644b0f25305e
     Pseudo is Ultrasoft, Zval =  6.0
     Generated by new atomic code, or converted to UPF format
     Using radial grid of  737 points,  4 beta functions with:
                l(1) =   0
                l(2) =   0
                l(3) =   1
                l(4) =   1
     Q(r) pseudized with  8 coefficients,  rinner =    0.800   0.800   0.800

     PseudoPot. # 3 for C  read from file:
     /storage/coda1/p-amedford6/0/shared/rich_project_chbe-medford/medford-share/data/pseudos_module/espresso/nninc/pbe/van/C.UPF
     MD5 check sum: 1a69bf6b8db32088f5b2163dbdb77a27
     Pseudo is Ultrasoft, Zval =  4.0
     Generated by new atomic code, or converted to UPF format
     Using radial grid of  721 points,  4 beta functions with:
                l(1) =   0
                l(2) =   0
                l(3) =   1
                l(4) =   1
     Q(r) pseudized with  8 coefficients,  rinner =    0.800   0.800   0.800

     PseudoPot. # 4 for H  read from file:
     /storage/coda1/p-amedford6/0/shared/rich_project_chbe-medford/medford-share/data/pseudos_module/espresso/nninc/pbe/van/H.UPF
     MD5 check sum: b5ee9d7bfd3a09ee7748110bda690ff7
     Pseudo is Ultrasoft, Zval =  1.0
     Generated by new atomic code, or converted to UPF format
     Using radial grid of  615 points,  1 beta functions with:
                l(1) =   0
     Q(r) pseudized with  8 coefficients,  rinner =    0.800

     atomic species   valence    mass     pseudopotential
        Ti1           12.00    47.86700     Ti( 1.00)
        O1             6.00    15.99900     O ( 1.00)
        C1             4.00    12.01100     C ( 1.00)
        H1             1.00     1.00800     H ( 1.00)

     No symmetry found

   Cartesian axes

     site n.     atom                  positions (alat units)
         1           Ti1 tau(   1) = (   0.0004258   2.9801865   6.0000000  )
         2           Ti1 tau(   2) = (   3.2906075   1.4906267   6.0002472  )
         3           O1  tau(   3) = (   0.0006271   0.0005054   7.9858123  )
         4           O1  tau(   4) = (   3.2906025   0.0005020   7.3038282  )
         5           O1  tau(   5) = (   4.5942328   1.4918067   9.2879030  )
         6           O1  tau(   6) = (   1.9868534   1.4903216   9.2879459  )
         7           Ti1 tau(   7) = (   3.2921849   2.8658251   9.1648892  )
         8           Ti1 tau(   8) = (   0.0073351   1.4983988   9.3831490  )
         9           O1  tau(   9) = (   3.2842540   0.0070318  11.3521760  )
        10           O1  tau(  10) = (   0.0010487   0.0043113  10.5580200  )
        11           O1  tau(  11) = (   1.2736759   1.5124129  12.6486185  )
        12           O1  tau(  12) = (   5.2630300   1.5084811  12.6300625  )
        13           Ti1 tau(  13) = (   0.0799159   2.9885021  12.8537609  )
        14           Ti1 tau(  14) = (   3.3962166   1.4899997  12.4930974  )
        15           O1  tau(  15) = (   6.5670857   5.9608082  14.6055349  )
        16           O1  tau(  16) = (   3.2779887   0.0262294  13.9455360  )
        17           O1  tau(  17) = (   4.5047259   1.5524619  16.1062024  )
        18           O1  tau(  18) = (   2.0328015   1.5482461  16.0993997  )
        19           Ti1 tau(  19) = (   3.2588990   3.0258902  15.7259251  )
        20           Ti1 tau(  20) = (   6.5443225   1.5921241  16.1654916  )
        21           O1  tau(  21) = (   3.2904802   0.0005063   4.7018136  )
        22           O1  tau(  22) = (   6.5577444   0.0567680  17.2452940  )
        23           O1  tau(  23) = (   1.3043587   1.4918075   6.0039043  )
        24           O1  tau(  24) = (   5.2767064   1.4903225   6.0039473  )
        25           Ti1 tau(  25) = (   0.0000382   5.9609847   6.0000000  )
        26           Ti1 tau(  26) = (   3.2902200   4.4714249   6.0002472  )
        27           O1  tau(  27) = (   0.0002396   2.9813036   7.9858123  )
        28           O1  tau(  28) = (   3.2902150   2.9813002   7.3038282  )
        29           O1  tau(  29) = (   4.5938453   4.4726049   9.2879030  )
        30           O1  tau(  30) = (   1.9864658   4.4711199   9.2879459  )
        31           Ti1 tau(  31) = (   3.2960881   5.8478476   9.1648656  )
        32           Ti1 tau(  32) = (   0.0086818   4.4758218   9.3788328  )
        33           O1  tau(  33) = (   3.2854246   2.9850844  11.3450670  )
        34           O1  tau(  34) = (   0.0004502   2.9836692  10.5560002  )
        35           O1  tau(  35) = (   1.2751814   4.4662498  12.6462591  )
        36           O1  tau(  36) = (   5.2612828   4.4711168  12.6263095  )
        37           Ti1 tau(  37) = (   0.0650160   0.0072273  12.8037121  )
        38           Ti1 tau(  38) = (   3.3952379   4.4681493  12.4860303  )
        39           O1  tau(  39) = (   6.5700874   2.9943110  14.6990684  )
        40           O1  tau(  40) = (   3.2774739   3.0059374  13.9302241  )
        41           O1  tau(  41) = (   4.5038310   4.5165569  16.1051355  )
        42           O1  tau(  42) = (   2.0336826   4.5180826  16.0999700  )
        43           Ti1 tau(  43) = (   3.2582433   0.0441072  15.7465997  )
        44           Ti1 tau(  44) = (   6.5393581   4.6163053  16.1595090  )
        45           O1  tau(  45) = (   3.2900926   2.9813045   4.7018136  )
        46           O1  tau(  46) = (   1.3039711   4.4726057   6.0039043  )
        47           O1  tau(  47) = (   5.2763189   4.4711207   6.0039473  )
        48           C1  tau(  48) = (   6.5669965   3.0274956  17.5143990  )
        49           H1  tau(  49) = (   0.0136594   3.1884539  18.5931066  )

     number of k points=    10  Fermi-Dirac smearing, width (Ry)=  0.0073
                       cart. coord. in units 2pi/alat
        k(    1) = (   0.0000000   0.0000000   0.0000000), wk =   0.1250000
        k(    2) = (   0.0000000   0.0419351   0.0000000), wk =   0.2500000
        k(    3) = (   0.0000000  -0.0838702   0.0000000), wk =   0.1250000
        k(    4) = (   0.0379955   0.0000049   0.0000000), wk =   0.2500000
        k(    5) = (   0.0379955   0.0419400   0.0000000), wk =   0.2500000
        k(    6) = (   0.0379955  -0.0838652   0.0000000), wk =   0.2500000
        k(    7) = (   0.0379955  -0.0419301   0.0000000), wk =   0.2500000
        k(    8) = (  -0.0759910  -0.0000099   0.0000000), wk =   0.1250000
        k(    9) = (  -0.0759910   0.0419252   0.0000000), wk =   0.2500000
        k(   10) = (  -0.0759910  -0.0838800   0.0000000), wk =   0.1250000

     Initial potential from superposition of free atoms

     starting charge  366.99920, renormalised to  383.00000

     negative rho (up, down):  2.156E-02 0.000E+00

     %%%%%%%%%%%%%%%%%%%%%%%%%%%%%%%%%%%%%%%%%%%%%%%%%%%%%%%%%%%%%%%%%%%%%%%%
     %                                                                      %
     % You are using vdW-DF, which was implemented by the Thonhauser group. %
     % Please cite the following two papers that made this development      %
     % possible and the two reviews that describe the various versions:     %
     %                                                                      %
     %   T. Thonhauser et al., PRL 115, 136402 (2015).                      %
     %   T. Thonhauser et al., PRB 76, 125112 (2007).                       %
     %   K. Berland et al., Rep. Prog. Phys. 78, 066501 (2015).             %
     %   D.C. Langreth et al., J. Phys.: Condens. Matter 21, 084203 (2009). %
     %                                                                      %
     %                                                                      %
     % If you are calculating the stress with vdW-DF, please also cite:     %
     %                                                                      %
     %   R. Sabatini et al., J. Phys.: Condens. Matter 24, 424209 (2012).   %
     %                                                                      %
     %%%%%%%%%%%%%%%%%%%%%%%%%%%%%%%%%%%%%%%%%%%%%%%%%%%%%%%%%%%%%%%%%%%%%%%%

     Adding external electric field

     Computed dipole along edir(3) :
        Dipole                0.0501 Ry au,          0.1273 Debye
        Dipole field          0.0001 Ry au,

        Potential amp.       -0.0088 Ry
        Total length         46.3494 bohr

     Starting wfcs are  289 atomic wfcs
  @ DRIVER MODE: Message from server: STATUS
  @ DRIVER MODE: Message from server: POSDATA
  @ DRIVER MODE: Reading and sharing cell
  @ DRIVER MODE: Reading and sharing positions
  @ DRIVER MODE: Received positions

     Self-consistent Calculation

     iteration #  1     ecut=    29.40 Ry     beta= 0.05
     Davidson diagonalization with overlap
     c_bands:  1 eigenvalues not converged
     c_bands:  1 eigenvalues not converged
     c_bands:  1 eigenvalues not converged
     c_bands:  1 eigenvalues not converged
     c_bands:  1 eigenvalues not converged
     c_bands:  1 eigenvalues not converged
     ethr =  1.00E-05,  avg # of iterations = 19.5

[...]

     total energy              =   -2897.80965994 Ry
     estimated scf accuracy    <      11.75325577 Ry

     iteration #  2     ecut=    29.40 Ry     beta= 0.05
     Davidson diagonalization with overlap
     ethr =  3.07E-03,  avg # of iterations =  1.0

[...]

     iteration # 50     ecut=    29.40 Ry     beta= 0.05
     Davidson diagonalization with overlap
     c_bands:  1 eigenvalues not converged
     ethr =  1.25E-07,  avg # of iterations =  9.2

[...]

     total energy              =   -2896.37514718 Ry
     estimated scf accuracy    <       0.00000011 Ry

     iteration # 78     ecut=    29.40 Ry     beta= 0.05
     Davidson diagonalization with overlap
     ethr =  2.55E-11,  avg # of iterations =  6.0

     negative rho (up, down):  2.070E-02 0.000E+00

     Adding external electric field

     Computed dipole along edir(3) :
        Dipole                0.3683 Ry au,          0.9362 Debye
        Dipole field          0.0007 Ry au,

        Potential amp.       -0.0644 Ry
        Total length         46.3494 bohr

     End of self-consistent calculation

          k = 0.0000 0.0000 0.0000 ( 18029 PWs)   bands (ev):

   -56.6404 -56.6066 -56.3429 -56.3060 -56.2273 -56.1662 -56.0430 -56.0401
   -56.0057 -55.9453 -55.9358 -55.9090 -55.4378 -55.4038 -55.3538 -55.2681
   -33.0688 -32.8869 -32.8861 -32.8585 -32.8325 -32.7412 -32.6956 -32.6801
   -32.6497 -32.5575 -32.5449 -32.5377 -32.5233 -32.5199 -32.5128 -32.4959
   -32.4729 -32.4552 -32.4448 -32.3493 -32.3119 -32.2888 -32.2866 -32.2763
   -32.2626 -32.2593 -32.1973 -32.1938 -32.1679 -32.1618 -32.1544 -32.1304
   -32.1223 -32.1126 -32.0991 -32.0414 -31.8962 -31.8382 -31.7631 -31.7393
   -31.6567 -31.6257 -31.5872 -31.5717 -31.5606 -31.4852 -31.4596 -31.3416
   -16.9975 -16.8093 -16.5770 -16.4419 -16.3520 -16.2790 -16.0121 -16.0100
   -15.9638 -15.8915 -15.8637 -15.8008 -15.7977 -15.7716 -15.7606 -15.7508
   -15.7326 -15.6844 -15.6681 -15.6403 -15.6070 -15.5659 -15.4438 -15.4243
   -15.4080 -15.2939 -15.2442 -15.2060 -15.0227 -13.9307 -13.8166  -7.7763
    -4.3999  -4.3414  -4.1871  -4.1626  -4.0707  -3.8267  -3.6994  -3.4770
    -3.4359  -3.4052  -3.3903  -3.3241  -3.2649  -3.1576  -3.1414  -3.1198
    -3.0797  -3.0712  -3.0492  -3.0353  -3.0105  -2.9700  -2.8872  -2.8484
    -2.8293  -2.7499  -2.7226  -2.6454  -2.6190  -2.5747  -2.5494  -2.4902
    -2.4836  -2.4199  -2.3490  -2.2909  -2.1394  -2.0990  -2.0906  -2.0835
    -2.0129  -1.9039  -1.7625  -1.7281  -1.6618  -1.6600  -1.6424  -1.6056
    -1.5140  -1.4951  -1.4106  -1.3043  -1.2946  -1.2436  -1.1909  -1.1501
    -1.1331  -1.1328  -1.0756  -1.0435  -1.0072  -0.8802  -0.8529  -0.7336
    -0.7163  -0.6813  -0.6441  -0.6391  -0.5886  -0.5304  -0.4772  -0.4466
    -0.4253  -0.3783  -0.3680  -0.3328  -0.3100  -0.2553  -0.1405  -0.1167
    -0.1061  -0.0414   0.1438   0.1692   0.2122   0.3013   0.3498   0.5116
     0.5322   0.5909   0.7990   0.8356   1.1814   1.2615   1.5398   2.2807
     2.6273   2.8222   3.0827   3.1190   3.1362   3.1679   3.3426   3.3771
     3.3955

[...]

          k = 0.0380-0.0419 0.0000 ( 17876 PWs)   bands (ev):

[...]

          k =-0.0760-0.0000 0.0000 ( 17886 PWs)   bands (ev):

[...]

          k =-0.0760-0.0839 0.0000 ( 17948 PWs)   bands (ev):

   -56.6256 -56.6213 -56.3288 -56.3200 -56.2219 -56.1715 -56.0401 -56.0253
   -56.0202 -55.9386 -55.9316 -55.9226 -55.4208 -55.4208 -55.3501 -55.2717
   -32.8879 -32.8844 -32.8750 -32.8697 -32.7869 -32.7832 -32.6939 -32.6871
   -32.6051 -32.5942 -32.5371 -32.5270 -32.5249 -32.5168 -32.4914 -32.4642
   -32.4278 -32.3733 -32.3606 -32.3528 -32.3490 -32.2847 -32.2757 -32.2699
   -32.2676 -32.2589 -32.2518 -32.2432 -32.2314 -32.2260 -32.1835 -32.1749
   -32.1428 -32.1416 -32.1345 -32.1335 -31.7940 -31.7522 -31.7522 -31.6523
   -31.6523 -31.6349 -31.6240 -31.6143 -31.6142 -31.5638 -31.5058 -31.3817
   -16.4532 -16.4344 -16.2206 -16.2114 -16.1127 -16.1123 -16.1115 -16.1091
   -16.0089 -16.0061 -15.9339 -15.9197 -15.8637 -15.8559 -15.8208 -15.8189
   -15.7976 -15.7943 -15.7525 -15.7458 -15.6172 -15.6150 -15.5092 -15.5055
   -15.4664 -15.4259 -15.3862 -15.3757 -15.1590 -13.9190 -13.9187  -7.7787
    -3.7511  -3.7204  -3.4359  -3.4322  -3.2497  -3.2472  -3.2458  -3.2265
    -3.1826  -3.1526  -3.1429  -3.1174  -3.0860  -3.0434  -3.0326  -3.0128
    -3.0082  -3.0024  -2.9897  -2.9884  -2.9654  -2.9563  -2.9041  -2.8827
    -2.8723  -2.8626  -2.8134  -2.8120  -2.7088  -2.5861  -2.5381  -2.5339
    -2.4848  -2.4507  -2.3669  -2.3643  -2.3355  -2.3194  -2.2727  -2.1695
    -2.0377  -2.0351  -1.9893  -1.9594  -1.8935  -1.8181  -1.7159  -1.6502
    -1.6187  -1.5891  -1.5228  -1.4651  -1.4574  -1.4383  -1.4276  -1.4196
    -1.4055  -1.3093  -1.2970  -1.2257  -1.1885  -1.1783  -1.1682  -1.1357
    -1.1105  -1.0462  -0.9509  -0.9482  -0.9359  -0.9082  -0.8033  -0.7595
    -0.7027  -0.6516  -0.6054  -0.3579  -0.3554  -0.2013  -0.0926  -0.0302
     0.0347   0.0588   0.1016   0.1669   0.2287   0.2340   0.2610   0.2634
     0.3592   0.3617   0.9771   0.9775   1.0361   1.0371   1.7715   2.2235
     3.1075   3.1505   3.1681   3.1734   3.1984   3.2263   3.2446   3.2550
     3.5843

     the Fermi energy is     2.1458 ev

!    total energy              =   -2896.37515344 Ry
     estimated scf accuracy    <       0.00000002 Ry
     smearing contrib. (-TS)   =      -0.01052718 Ry
     internal energy E=F+TS    =   -2896.36462626 Ry

     The total energy is F=E-TS. E is the sum of the following terms:
     one-electron contribution =  -24783.61712763 Ry
     hartree contribution      =   12469.83847153 Ry
     xc contribution           =    -472.98122871 Ry
     ewald contribution        =    9890.39500255 Ry
     electric field correction =       0.00025600 Ry

     convergence has been achieved in  78 iterations

     Forces acting on atoms (cartesian axes, Ry/au):

     atom    1 type  1   force =     0.00018675   -0.00055889    0.14916695
     atom    2 type  1   force =    -0.00002732   -0.00031047   -0.17025080
     atom    3 type  2   force =     0.00005977    0.00011933   -0.06123953
     atom    4 type  2   force =     0.00010980   -0.00167386    0.04074691
     atom    5 type  2   force =    -0.02327358    0.00030616    0.00410577
     atom    6 type  2   force =     0.02299435    0.00151510    0.00331206
     atom    7 type  1   force =    -0.00055036    0.00074241    0.00018206
     atom    8 type  1   force =     0.00020473    0.00084422   -0.00020632
     atom    9 type  2   force =    -0.00006144    0.00009777   -0.00049673
     atom   10 type  2   force =    -0.00002963   -0.00051037    0.00033207
     atom   11 type  2   force =    -0.00023082    0.00047123    0.00028799
     atom   12 type  2   force =     0.00033786    0.00012242    0.00023393
     atom   13 type  1   force =     0.00034210    0.00065267   -0.00097996
     atom   14 type  1   force =    -0.00045686    0.00097136   -0.00029804
     atom   15 type  2   force =     0.00014528   -0.00005291   -0.00019752
     atom   16 type  2   force =     0.00012978   -0.00026135   -0.00007066
     atom   17 type  2   force =     0.00069851    0.00015438    0.00006390
     atom   18 type  2   force =    -0.00071001    0.00029580    0.00012691
     atom   19 type  1   force =     0.00005786   -0.00107081    0.00059403
     atom   20 type  1   force =    -0.00014659   -0.00058195    0.00077549
     atom   21 type  2   force =     0.00008022   -0.00018410    0.10247972
     atom   22 type  2   force =    -0.00000987    0.00043674   -0.00033840
     atom   23 type  2   force =    -0.07444435    0.00019617   -0.03478377
     atom   24 type  2   force =     0.07440175    0.00062534   -0.03483340
     atom   25 type  1   force =    -0.00004186   -0.00050775    0.15020998
     atom   26 type  1   force =    -0.00002162   -0.00070693   -0.17019835
     atom   27 type  2   force =     0.00007299    0.00063731   -0.06044822
     atom   28 type  2   force =     0.00002956   -0.00161938    0.04019191
     atom   29 type  2   force =    -0.02285060    0.00144129    0.00428100
     atom   30 type  2   force =     0.02312261    0.00223736    0.00347950
     atom   31 type  1   force =    -0.00054421    0.00012726   -0.00079128
     atom   32 type  1   force =     0.00023060   -0.00110930    0.00051026
     atom   33 type  2   force =     0.00025659   -0.00007952    0.00119664
     atom   34 type  2   force =    -0.00004294    0.00059083   -0.00023072
     atom   35 type  2   force =    -0.00096860   -0.00042497    0.00003567
     atom   36 type  2   force =     0.00100497   -0.00022872    0.00010855
     atom   37 type  1   force =    -0.00004336   -0.00007386   -0.00024977
     atom   38 type  1   force =    -0.00070478   -0.00076704    0.00032124
     atom   39 type  2   force =    -0.00006213   -0.00018463   -0.00011430
     atom   40 type  2   force =     0.00009522   -0.00016093   -0.00077947
     atom   41 type  2   force =     0.00069878   -0.00034533    0.00043490
     atom   42 type  2   force =    -0.00077728   -0.00047402    0.00053796
     atom   43 type  1   force =     0.00003483    0.00082390   -0.00088836
     atom   44 type  1   force =     0.00003807   -0.00035331    0.00068417
     atom   45 type  2   force =     0.00007200   -0.00018383    0.10246599
     atom   46 type  2   force =    -0.07443356   -0.00013679   -0.03479024
     atom   47 type  2   force =     0.07438716    0.00030733   -0.03484307
     atom   48 type  3   force =     0.00069364   -0.00080452    0.00123176
     atom   49 type  4   force =    -0.00005400   -0.00035082   -0.00106843

     Total force =     0.404569     Total SCF correction =     0.000226
  @ DRIVER MODE: Message from server: STATUS
  @ DRIVER MODE: Message from server: GETFORCE
  @ DRIVER MODE: Returning v,forces,stress,ensemble

     Writing output data file ./calc.save/
  @ DRIVER MODE: Message from server: EXIT
  @ DRIVE MODE: Exiting

     General routines

     Parallel routines

   This run was terminated on:  16:38:47  23Aug2021

   JOB DONE.