     Program PWSCF v.6.7GPU starts on 23Sep2021 at 12: 1:16

     R & G space division:  proc/nbgrp/npool/nimage =       8
     Reading input from /storage/home/hcoda1/3/ntian30/research/carbon/CxH_vib/H2O_calc/ads_slab/CH3NHNH2HO_a/out_0003/pw.inp
Warning: card &CELL ignored
Warning: card   CELL_DYNAMICS='IPI', ignored
Warning: card / ignored

     Current dimensions of program PWSCF are:
     Max number of different atomic species (ntypx) = 10
     Max number of k-points (npk) =  40000
     Max angular momentum in pseudopotentials (lmaxx) =  3
     Presently no symmetry can be used with electric field

     Message from routine cell_base_init:
     DEPRECATED: use true lattice parameter, not A to a.u. conversion factor

     IMPORTANT: XC functional enforced from input :
     Exchange-correlation= BEEF-VDW
                           (   1   4  43  14   2   0   0)
     Any further DFT definition will be discarded
     Please, verify this is what you really want

  @ DRIVER MODE: Connecting to
 qe_1139763_2947307.sched-torque.pace.gatech.edufvv_f9ho_scratch
  using UNIX socket
  @ DRIVER MODE: Message from server: STATUS
  @ DRIVER MODE: Message from server: INIT
  @ DRIVER MODE: Receiving replica           0          -1
  @ DRIVER MODE: Receiving encoded integer          25
  @ DRIVER MODE:  SCF:  T  FORCE:  T  STRESS:  F  VC:  F  ENSEMBLE:  F
  @ DRIVER MODE:  SCF:  T  FORCE:  T  STRESS:  F  VC:  F  ENSEMBLE:  F

     Using Slab Decomposition

     bravais-lattice index     =            0
     lattice parameter (alat)  =       1.8897  a.u.
     unit-cell volume          =    6658.9804 (a.u.)^3
     number of atoms/cell      =           58
     number of atomic types    =            5
     number of electrons       =       405.00
     number of Kohn-Sham states=          212
     kinetic-energy cutoff     =      29.3995  Ry
     charge density cutoff     =     293.9946  Ry
     scf convergence threshold =      7.3E-08
     mixing beta               =       0.0500
     number of iterations used =            8  plain     mixing
     Exchange-correlation= BEEF-VDW
                           (   1   4  43  14   2   0   0)

     celldm(1)=   1.889726  celldm(2)=   0.000000  celldm(3)=   0.000000
     celldm(4)=   0.000000  celldm(5)=   0.000000  celldm(6)=   0.000000

     crystal axes: (cart. coord. in units of alat)
               a(1) = (   6.579727   0.000000   0.000000 )
               a(2) = (  -0.000775   5.961596   0.000000 )
               a(3) = (   0.000000   0.000000  25.155947 )

     reciprocal axes: (cart. coord. in units 2 pi/alat)
               b(1) = (  0.151982  0.000020  0.000000 )
               b(2) = (  0.000000  0.167740  0.000000 )
               b(3) = (  0.000000  0.000000  0.039752 )

     PseudoPot. # 1 for Ti read from file:
     /storage/coda1/p-amedford6/0/shared/rich_project_chbe-medford/medford-share/data/pseudos_module/espresso/nninc/pbe/van/Ti.UPF
     MD5 check sum: 8e4df49b7f0d34bbd5052bf3f5ea0213
     Pseudo is Ultrasoft, Zval = 12.0
     Generated by new atomic code, or converted to UPF format
     Using radial grid of  851 points,  6 beta functions with:
                l(1) =   0
                l(2) =   0
                l(3) =   1
                l(4) =   1
                l(5) =   2
                l(6) =   2
     Q(r) pseudized with  8 coefficients,  rinner =    1.000   1.000   1.000
                                                       1.000   1.000

     PseudoPot. # 2 for O  read from file:
     /storage/coda1/p-amedford6/0/shared/rich_project_chbe-medford/medford-share/data/pseudos_module/espresso/nninc/pbe/van/O.UPF
     MD5 check sum: 78c19812648e8988a0fe644b0f25305e
     Pseudo is Ultrasoft, Zval =  6.0
     Generated by new atomic code, or converted to UPF format
     Using radial grid of  737 points,  4 beta functions with:
                l(1) =   0
                l(2) =   0
                l(3) =   1
                l(4) =   1
     Q(r) pseudized with  8 coefficients,  rinner =    0.800   0.800   0.800

     PseudoPot. # 3 for N  read from file:
     /storage/coda1/p-amedford6/0/shared/rich_project_chbe-medford/medford-share/data/pseudos_module/espresso/nninc/pbe/van/N.UPF
     MD5 check sum: 90d10febe142ad51ac9d5be1deb811c4
     Pseudo is Ultrasoft, Zval =  5.0
     Generated by new atomic code, or converted to UPF format
     Using radial grid of  729 points,  4 beta functions with:
                l(1) =   0
                l(2) =   0
                l(3) =   1
                l(4) =   1
     Q(r) pseudized with  8 coefficients,  rinner =    0.800   0.800   0.800

     PseudoPot. # 4 for C  read from file:
     /storage/coda1/p-amedford6/0/shared/rich_project_chbe-medford/medford-share/data/pseudos_module/espresso/nninc/pbe/van/C.UPF
     MD5 check sum: 1a69bf6b8db32088f5b2163dbdb77a27
     Pseudo is Ultrasoft, Zval =  4.0
     Generated by new atomic code, or converted to UPF format
     Using radial grid of  721 points,  4 beta functions with:
                l(1) =   0
                l(2) =   0
                l(3) =   1
                l(4) =   1
     Q(r) pseudized with  8 coefficients,  rinner =    0.800   0.800   0.800

     PseudoPot. # 5 for H  read from file:
     /storage/coda1/p-amedford6/0/shared/rich_project_chbe-medford/medford-share/data/pseudos_module/espresso/nninc/pbe/van/H.UPF
     MD5 check sum: b5ee9d7bfd3a09ee7748110bda690ff7
     Pseudo is Ultrasoft, Zval =  1.0
     Generated by new atomic code, or converted to UPF format
     Using radial grid of  615 points,  1 beta functions with:
                l(1) =   0
     Q(r) pseudized with  8 coefficients,  rinner =    0.800

     atomic species   valence    mass     pseudopotential
        Ti1           12.00    47.86700     Ti( 1.00)
        O1             6.00    15.99900     O ( 1.00)
        N1             5.00    14.00700     N ( 1.00)
        C1             4.00    12.01100     C ( 1.00)
        H1             1.00     1.00800     H ( 1.00)

     No symmetry found

   Cartesian axes

     site n.     atom                  positions (alat units)
         1           Ti1 tau(   1) = (   0.0004258   2.9801865   6.0000000  )
         2           Ti1 tau(   2) = (   3.2906075   1.4906267   6.0002472  )
         3           O1  tau(   3) = (   0.0006271   0.0005054   7.9858123  )
         4           O1  tau(   4) = (   3.2906025   0.0005020   7.3038282  )
         5           O1  tau(   5) = (   4.5942328   1.4918067   9.2879030  )
         6           O1  tau(   6) = (   1.9868534   1.4903216   9.2879459  )
         7           Ti1 tau(   7) = (   3.2907910   2.8959150   9.1758416  )
         8           Ti1 tau(   8) = (   0.0015273   1.4827037   9.2680791  )
         9           O1  tau(   9) = (   3.3003128   0.0493987  11.3625472  )
        10           O1  tau(  10) = (   0.0116148   5.9584955  10.6183126  )
        11           O1  tau(  11) = (   1.2863924   1.5188706  12.6959087  )
        12           O1  tau(  12) = (   5.3173592   1.5183023  12.6957539  )
        13           Ti1 tau(  13) = (   0.0130489   2.9571150  12.5182267  )
        14           Ti1 tau(  14) = (   3.3124343   1.5987737  12.4587140  )
        15           O1  tau(  15) = (   0.0455642   5.8537743  14.6515032  )
        16           O1  tau(  16) = (   3.3135256   5.8999501  14.0036581  )
        17           O1  tau(  17) = (   4.5824137   1.5787328  16.0473457  )
        18           O1  tau(  18) = (   2.0456054   1.5356268  16.0652349  )
        19           Ti1 tau(  19) = (   3.2855744   2.9948502  15.7047272  )
        20           Ti1 tau(  20) = (   0.0729980   1.3194477  15.7501807  )
        21           O1  tau(  21) = (   3.2904802   0.0005063   4.7018136  )
        22           O1  tau(  22) = (   6.5643345   0.1786488  17.1561759  )
        23           O1  tau(  23) = (   1.3043587   1.4918075   6.0039043  )
        24           O1  tau(  24) = (   5.2767064   1.4903225   6.0039473  )
        25           Ti1 tau(  25) = (   0.0000382   5.9609847   6.0000000  )
        26           Ti1 tau(  26) = (   3.2902200   4.4714249   6.0002472  )
        27           O1  tau(  27) = (   0.0002396   2.9813036   7.9858123  )
        28           O1  tau(  28) = (   3.2902150   2.9813002   7.3038282  )
        29           O1  tau(  29) = (   4.5938453   4.4726049   9.2879030  )
        30           O1  tau(  30) = (   1.9864658   4.4711199   9.2879459  )
        31           Ti1 tau(  31) = (   3.2891106   5.8743827   9.1763621  )
        32           Ti1 tau(  32) = (   0.0006254   4.4649316   9.2693709  )
        33           O1  tau(  33) = (   3.3044115   2.9646987  11.3227374  )
        34           O1  tau(  34) = (   0.0092240   2.9805883  10.6323155  )
        35           O1  tau(  35) = (   1.2889249   4.4812606  12.6373974  )
        36           O1  tau(  36) = (   5.3198440   4.4849614  12.6453916  )
        37           Ti1 tau(  37) = (   0.0274371   5.9167426  12.5032498  )
        38           Ti1 tau(  38) = (   3.3124303   4.6827448  12.7121475  )
        39           O1  tau(  39) = (   0.0064664   3.0605765  14.9143048  )
        40           O1  tau(  40) = (   3.2921723   3.0190953  13.9337278  )
        41           O1  tau(  41) = (   4.5343043   4.4484976  16.2223827  )
        42           O1  tau(  42) = (   2.0055671   4.4324605  16.2273083  )
        43           Ti1 tau(  43) = (   3.3963104   0.0511244  16.3072024  )
        44           Ti1 tau(  44) = (   0.1011521   4.5293608  16.0606835  )
        45           O1  tau(  45) = (   3.2900926   2.9813045   4.7018136  )
        46           O1  tau(  46) = (   1.3039711   4.4726057   6.0039043  )
        47           O1  tau(  47) = (   5.2763189   4.4711207   6.0039473  )
        48           N1  tau(  48) = (   0.7799224   3.1360235  19.0808133  )
        49           N1  tau(  49) = (   6.3029119   3.3142126  18.0946246  )
        50           C1  tau(  50) = (   0.9829876   4.3811599  19.8296872  )
        51           H1  tau(  51) = (   0.0599524   4.7630682  20.2995108  )
        52           H1  tau(  52) = (   1.7087173   4.1728717  20.6153690  )
        53           H1  tau(  53) = (   1.3778604   5.1510331  19.1745456  )
        54           H1  tau(  54) = (   0.4845774   2.4057476  19.7140978  )
        55           H1  tau(  55) = (   5.5451363   3.8924421  18.4761980  )
        56           H1  tau(  56) = (   5.8791802   2.3931312  17.9634808  )
        57           O1  tau(  57) = (   3.3895457   0.1916509  18.1699706  )
        58           H1  tau(  58) = (   3.8128180   5.4341384  18.6581559  )

     number of k points=    10  Fermi-Dirac smearing, width (Ry)=  0.0073
                       cart. coord. in units 2pi/alat
        k(    1) = (   0.0000000   0.0000000   0.0000000), wk =   0.1250000
        k(    2) = (   0.0000000   0.0419351   0.0000000), wk =   0.2500000
        k(    3) = (   0.0000000  -0.0838702   0.0000000), wk =   0.1250000
        k(    4) = (   0.0379955   0.0000049   0.0000000), wk =   0.2500000
        k(    5) = (   0.0379955   0.0419400   0.0000000), wk =   0.2500000
        k(    6) = (   0.0379955  -0.0838652   0.0000000), wk =   0.2500000
        k(    7) = (   0.0379955  -0.0419301   0.0000000), wk =   0.2500000
        k(    8) = (  -0.0759910  -0.0000099   0.0000000), wk =   0.1250000
        k(    9) = (  -0.0759910   0.0419252   0.0000000), wk =   0.2500000
        k(   10) = (  -0.0759910  -0.0838800   0.0000000), wk =   0.1250000

     Initial potential from superposition of free atoms

     starting charge  388.99913, renormalised to  405.00000

     negative rho (up, down):  1.368E-02 0.000E+00

     %%%%%%%%%%%%%%%%%%%%%%%%%%%%%%%%%%%%%%%%%%%%%%%%%%%%%%%%%%%%%%%%%%%%%%%%
     %                                                                      %
     % You are using vdW-DF, which was implemented by the Thonhauser group. %
     % Please cite the following two papers that made this development      %
     % possible and the two reviews that describe the various versions:     %
     %                                                                      %
     %   T. Thonhauser et al., PRL 115, 136402 (2015).                      %
     %   T. Thonhauser et al., PRB 76, 125112 (2007).                       %
     %   K. Berland et al., Rep. Prog. Phys. 78, 066501 (2015).             %
     %   D.C. Langreth et al., J. Phys.: Condens. Matter 21, 084203 (2009). %
     %                                                                      %
     %                                                                      %
     % If you are calculating the stress with vdW-DF, please also cite:     %
     %                                                                      %
     %   R. Sabatini et al., J. Phys.: Condens. Matter 24, 424209 (2012).   %
     %                                                                      %
     %%%%%%%%%%%%%%%%%%%%%%%%%%%%%%%%%%%%%%%%%%%%%%%%%%%%%%%%%%%%%%%%%%%%%%%%

     Adding external electric field

     Computed dipole along edir(3) :
        Dipole              -14.8124 Ry au,        -37.6493 Debye
        Dipole field         -0.0280 Ry au,

        Potential amp.        2.5912 Ry
        Total length         46.3494 bohr

     Starting wfcs are  307 atomic wfcs
  @ DRIVER MODE: Message from server: STATUS
  @ DRIVER MODE: Message from server: POSDATA
  @ DRIVER MODE: Reading and sharing cell
  @ DRIVER MODE: Reading and sharing positions
  @ DRIVER MODE: Received positions

     Self-consistent Calculation

     iteration #  1     ecut=    29.40 Ry     beta= 0.05
     Davidson diagonalization with overlap
     c_bands:  5 eigenvalues not converged
     c_bands:  4 eigenvalues not converged
     c_bands:  5 eigenvalues not converged
     c_bands:  2 eigenvalues not converged
     c_bands:  3 eigenvalues not converged
     c_bands:  4 eigenvalues not converged
     c_bands:  2 eigenvalues not converged
     ethr =  1.00E-05,  avg # of iterations = 22.9

[...]

     total energy              =   -2202.99634219 Ry
     estimated scf accuracy    <    8803.78675864 Ry

     iteration #  2     ecut=    29.40 Ry     beta= 0.05
     Davidson diagonalization with overlap
     ethr =  1.00E-02,  avg # of iterations = 30.1

[...]

     iteration # 50     ecut=    29.40 Ry     beta= 0.05
     Davidson diagonalization with overlap
     c_bands:  1 eigenvalues not converged
     ethr =  2.25E-07,  avg # of iterations = 13.3

[...]

     total energy              =   -2976.46387650 Ry
     estimated scf accuracy    <       0.00000013 Ry

     iteration # 74     ecut=    29.40 Ry     beta= 0.05
     Davidson diagonalization with overlap
     ethr =  3.09E-11,  avg # of iterations = 12.3

     negative rho (up, down):  1.441E-02 0.000E+00

     Adding external electric field

     Computed dipole along edir(3) :
        Dipole                1.2273 Ry au,          3.1194 Debye
        Dipole field          0.0023 Ry au,

        Potential amp.       -0.2147 Ry
        Total length         46.3494 bohr

     End of self-consistent calculation

          k = 0.0000 0.0000 0.0000 ( 18029 PWs)   bands (ev):

   -55.4441 -55.3559 -55.3219 -55.2180 -55.2146 -55.1866 -55.1846 -55.1771
   -55.1526 -55.1293 -55.0861 -54.9846 -54.9363 -54.8931 -54.3307 -54.2967
   -31.8411 -31.7904 -31.7216 -31.7039 -31.6895 -31.6747 -31.6540 -31.6468
   -31.6154 -31.6021 -31.5962 -31.5084 -31.4936 -31.4866 -31.4664 -31.4630
   -31.4594 -31.4506 -31.4499 -31.4200 -31.4133 -31.3918 -31.3847 -31.3749
   -31.3701 -31.3537 -31.3533 -31.3209 -31.3207 -31.3143 -31.3136 -31.3073
   -31.2993 -31.2810 -31.2574 -31.2386 -31.1737 -31.1520 -31.1405 -31.1321
   -31.1113 -31.1023 -30.7367 -30.6503 -30.6279 -30.5542 -30.4678 -30.3560
   -17.7263 -16.3673 -16.0104 -15.8465 -15.6317 -15.5391 -15.5120 -15.3132
   -15.2182 -15.1600 -14.9587 -14.9314 -14.8938 -14.8809 -14.8720 -14.8510
   -14.8477 -14.7959 -14.7804 -14.7705 -14.7671 -14.7367 -14.7097 -14.6706
   -14.6108 -14.5971 -14.4944 -14.4391 -14.3992 -14.1580 -14.1378 -13.1488
   -12.8294 -12.7130  -9.4658  -6.4333  -5.7530  -4.2362  -3.9337  -3.3683
    -3.2670  -3.2553  -3.1987  -3.1312  -2.9486  -2.8836  -2.7825  -2.7432
    -2.6208  -2.5973  -2.4915  -2.4429  -2.3700  -2.3237  -2.2826  -2.2481
    -2.2201  -2.1637  -2.1416  -2.1156  -2.1046  -2.0317  -2.0134  -1.9242
    -1.8908  -1.8774  -1.7599  -1.7251  -1.6909  -1.6776  -1.6682  -1.6638
    -1.6189  -1.6078  -1.5971  -1.5565  -1.4549  -1.4468  -1.4289  -1.3385
    -1.2428  -0.9911  -0.9595  -0.9092  -0.8974  -0.8197  -0.7809  -0.7492
    -0.7167  -0.6477  -0.6360  -0.6097  -0.5485  -0.4727  -0.4184  -0.3708
    -0.3367  -0.2249  -0.1748  -0.1309  -0.0981  -0.0614   0.0016   0.0410
     0.0653   0.1083   0.1959   0.2588   0.2868   0.3034   0.3538   0.3956
     0.4334   0.4739   0.5458   0.5684   0.5785   0.6178   0.6262   0.6473
     0.7426   0.7612   0.8206   0.8478   0.9357   0.9668   1.0109   1.1801
     1.2495   1.3086   1.3838   1.4616   1.6410   1.6955   1.7202   1.8895
     2.2628   2.3082   3.7278   3.8753   3.8916   3.9692   3.9862   4.0503
     4.2167   4.2759   4.4134   4.4243

[...]

          k = 0.0380-0.0419 0.0000 ( 17876 PWs)   bands (ev):

[...]

          k =-0.0760-0.0000 0.0000 ( 17886 PWs)   bands (ev):

[...]

          k =-0.0760-0.0839 0.0000 ( 17948 PWs)   bands (ev):

   -55.4433 -55.3389 -55.3388 -55.2167 -55.2030 -55.1886 -55.1852 -55.1709
   -55.1680 -55.1212 -55.0943 -54.9815 -54.9373 -54.8961 -54.3136 -54.3136
   -31.7291 -31.6688 -31.6564 -31.6563 -31.6555 -31.6416 -31.6324 -31.6321
   -31.5751 -31.5304 -31.5089 -31.4979 -31.4926 -31.4875 -31.4644 -31.4587
   -31.4583 -31.4557 -31.4486 -31.4366 -31.4301 -31.4273 -31.4155 -31.3895
   -31.3846 -31.3827 -31.3751 -31.3672 -31.3490 -31.3436 -31.3399 -31.3395
   -31.3371 -31.3164 -31.3149 -31.2507 -31.2337 -31.2060 -31.1779 -31.1543
   -31.1483 -31.1072 -30.6406 -30.6405 -30.5497 -30.5494 -30.5111 -30.5109
   -17.7221 -16.3573 -15.5913 -15.4461 -15.3376 -15.3272 -15.2033 -15.1361
   -15.1263 -15.0925 -15.0700 -15.0483 -15.0295 -15.0145 -14.9598 -14.9198
   -14.8886 -14.8612 -14.8565 -14.8136 -14.8040 -14.7927 -14.7746 -14.7630
   -14.7079 -14.6715 -14.6618 -14.6038 -14.4644 -14.4439 -14.2883 -13.1500
   -12.8150 -12.8148  -9.4849  -6.4178  -5.7583  -4.2228  -3.9218  -2.9323
    -2.8007  -2.6576  -2.6167  -2.5621  -2.4488  -2.4266  -2.3664  -2.3161
    -2.2921  -2.2704  -2.2187  -2.2082  -2.1621  -2.1460  -2.1225  -2.1069
    -2.0907  -2.0841  -2.0561  -2.0404  -2.0300  -2.0178  -1.9900  -1.9791
    -1.9608  -1.9321  -1.9118  -1.9027  -1.8695  -1.8270  -1.7659  -1.6572
    -1.5823  -1.5720  -1.5269  -1.5015  -1.4852  -1.4443  -1.4317  -1.3908
    -1.3734  -1.3072  -1.1493  -1.1246  -1.1097  -0.9670  -0.9598  -0.9310
    -0.8569  -0.8151  -0.7933  -0.7355  -0.7059  -0.6671  -0.5885  -0.5452
    -0.4910  -0.4249  -0.3249  -0.3174  -0.3012  -0.2812  -0.2651  -0.2572
    -0.2241  -0.1868  -0.1137  -0.0673  -0.0585  -0.0524  -0.0015   0.0782
     0.1292   0.2437   0.3897   0.3944   0.4612   0.4622   0.6618   0.6702
     0.7474   0.7829   0.8174   0.8444   0.9383   0.9563   0.9939   1.0766
     1.1403   1.1697   1.1907   1.1954   1.2486   1.4413   2.0579   2.0657
     2.1285   2.1286   3.9686   4.2019   4.2422   4.2554   4.2737   4.3002
     4.3139   4.3282   4.3948   4.4181

     the Fermi energy is     3.7651 ev

!    total energy              =   -2976.46389195 Ry
     estimated scf accuracy    <       0.00000004 Ry
     smearing contrib. (-TS)   =      -0.01955630 Ry
     internal energy E=F+TS    =   -2976.44433565 Ry

     The total energy is F=E-TS. E is the sum of the following terms:
     one-electron contribution =  -23037.11753676 Ry
     hartree contribution      =   11616.28477446 Ry
     xc contribution           =    -495.72362474 Ry
     ewald contribution        =    8940.10920910 Ry
     electric field correction =       0.00284230 Ry

     convergence has been achieved in  74 iterations

     Forces acting on atoms (cartesian axes, Ry/au):

     atom    1 type  1   force =     0.00016337   -0.00023297    0.09414753
     atom    2 type  1   force =    -0.00009752    0.00017874   -0.17537026
     atom    3 type  2   force =     0.00005508   -0.00049337   -0.02103279
     atom    4 type  2   force =    -0.00002396   -0.00093906    0.05426215
     atom    5 type  2   force =    -0.00488897   -0.00215784    0.00107010
     atom    6 type  2   force =     0.00671214   -0.00138315    0.00108492
     atom    7 type  1   force =     0.00005402    0.00330554    0.00864057
     atom    8 type  1   force =    -0.00009971    0.00119053    0.00271275
     atom    9 type  2   force =    -0.00021944   -0.00030620   -0.00058546
     atom   10 type  2   force =    -0.00111940    0.00429095   -0.01024819
     atom   11 type  2   force =    -0.00007713   -0.00055146   -0.00011381
     atom   12 type  2   force =     0.00062122   -0.00031673   -0.00027354
     atom   13 type  1   force =    -0.00142733    0.00018444   -0.00058804
     atom   14 type  1   force =     0.00071010    0.00017133   -0.00046994
     atom   15 type  2   force =     0.00014056   -0.00005565    0.00006349
     atom   16 type  2   force =    -0.00009359   -0.00069967   -0.00030522
     atom   17 type  2   force =    -0.00048392    0.00064614    0.00002633
     atom   18 type  2   force =    -0.00073920    0.00028385   -0.00025187
     atom   19 type  1   force =     0.00039690   -0.00099927    0.00060029
     atom   20 type  1   force =    -0.00070109   -0.00002226    0.00061988
     atom   21 type  2   force =     0.00003617   -0.00001156    0.10320190
     atom   22 type  2   force =    -0.00011598   -0.00001201    0.00042448
     atom   23 type  2   force =    -0.07198956   -0.00021046   -0.02725771
     atom   24 type  2   force =     0.07186568    0.00024444   -0.02732557
     atom   25 type  1   force =     0.00007541   -0.00016652    0.09389465
     atom   26 type  1   force =    -0.00011746   -0.00136800   -0.17551255
     atom   27 type  2   force =     0.00011209   -0.00005586   -0.01983236
     atom   28 type  2   force =     0.00006528   -0.00105226    0.04981394
     atom   29 type  2   force =    -0.00747034    0.00209472    0.00339346
     atom   30 type  2   force =     0.00907597    0.00223768    0.00331054
     atom   31 type  1   force =     0.00018656    0.00151312    0.00003557
     atom   32 type  1   force =    -0.00008990   -0.00226561    0.00301545
     atom   33 type  2   force =    -0.00017594   -0.00031040   -0.00002429
     atom   34 type  2   force =    -0.00117006   -0.00218588   -0.00964105
     atom   35 type  2   force =     0.00063144    0.00005504   -0.00023184
     atom   36 type  2   force =     0.00038380    0.00011684   -0.00035945
     atom   37 type  1   force =    -0.00096204    0.00025536    0.00033958
     atom   38 type  1   force =     0.00096076   -0.00024561    0.00018110
     atom   39 type  2   force =    -0.00017152   -0.00051703    0.00009710
     atom   40 type  2   force =    -0.00019832   -0.00019246   -0.00018106
     atom   41 type  2   force =     0.00033348   -0.00034974   -0.00002988
     atom   42 type  2   force =    -0.00064885    0.00005709   -0.00010309
     atom   43 type  1   force =     0.00019641    0.00099199    0.00042192
     atom   44 type  1   force =    -0.00029904    0.00089191    0.00010069
     atom   45 type  2   force =     0.00002411    0.00003349    0.10301257
     atom   46 type  2   force =    -0.07194119   -0.00006808   -0.02721137
     atom   47 type  2   force =     0.07183048    0.00036263   -0.02729177
     atom   48 type  3   force =     0.00397612    0.02010587   -0.00500392
     atom   49 type  3   force =     0.00027791   -0.00419678    0.00007940
     atom   50 type  4   force =     0.00046858   -0.00702641   -0.00140774
     atom   51 type  5   force =    -0.00088815   -0.00105610   -0.00013946
     atom   52 type  5   force =     0.00058845    0.00010025    0.00052963
     atom   53 type  5   force =    -0.00036775   -0.00042253   -0.00118461
     atom   54 type  5   force =    -0.00396237   -0.00879611    0.00679638
     atom   55 type  5   force =     0.00104305   -0.00064561    0.00070503
     atom   56 type  5   force =    -0.00034519    0.00025915   -0.00102143
     atom   57 type  2   force =     0.00071062   -0.00119714    0.00020163
     atom   58 type  5   force =    -0.00081085    0.00093868    0.00021523

     Total force =     0.362888     Total SCF correction =     0.000378
  @ DRIVER MODE: Message from server: STATUS
  @ DRIVER MODE: Message from server: GETFORCE
  @ DRIVER MODE: Returning v,forces,stress,ensemble

     Writing output data file ./calc.save/
  @ DRIVER MODE: Message from server: EXIT
  @ DRIVE MODE: Exiting

     General routines

     Parallel routines

   This run was terminated on:  12:28:51  23Sep2021

   JOB DONE.