     Program PWSCF v.6.7GPU starts on  9Sep2021 at  0:31:21

     R & G space division:  proc/nbgrp/npool/nimage =      10
     Reading input from /storage/home/hcoda1/3/ntian30/research/carbon/CxH_vib/CH_calc/ads_slab/CHNNHH_a/out_0008/pw.inp
Warning: card &CELL ignored
Warning: card   CELL_DYNAMICS='IPI', ignored
Warning: card / ignored

     Current dimensions of program PWSCF are:
     Max number of different atomic species (ntypx) = 10
     Max number of k-points (npk) =  40000
     Max angular momentum in pseudopotentials (lmaxx) =  3
     Presently no symmetry can be used with electric field

     Message from routine cell_base_init:
     DEPRECATED: use true lattice parameter, not A to a.u. conversion factor

     IMPORTANT: XC functional enforced from input :
     Exchange-correlation= BEEF-VDW
                           (   1   4  43  14   2   0   0)
     Any further DFT definition will be discarded
     Please, verify this is what you really want

  @ DRIVER MODE: Connecting to
 qe_1139763_2767382.sched-torque.pace.gatech.edus8zduxpp_scratch
  using UNIX socket
  @ DRIVER MODE: Message from server: STATUS
  @ DRIVER MODE: Message from server: INIT
  @ DRIVER MODE: Receiving replica           0          -1
  @ DRIVER MODE: Receiving encoded integer          25
  @ DRIVER MODE:  SCF:  T  FORCE:  T  STRESS:  F  VC:  F  ENSEMBLE:  F
  @ DRIVER MODE:  SCF:  T  FORCE:  T  STRESS:  F  VC:  F  ENSEMBLE:  F

     Using Slab Decomposition

     bravais-lattice index     =            0
     lattice parameter (alat)  =       1.8897  a.u.
     unit-cell volume          =    6658.9804 (a.u.)^3
     number of atoms/cell      =           53
     number of atomic types    =            5
     number of electrons       =       395.00
     number of Kohn-Sham states=          207
     kinetic-energy cutoff     =      29.3995  Ry
     charge density cutoff     =     293.9946  Ry
     scf convergence threshold =      7.3E-08
     mixing beta               =       0.0500
     number of iterations used =            8  plain     mixing
     Exchange-correlation= BEEF-VDW
                           (   1   4  43  14   2   0   0)

     celldm(1)=   1.889726  celldm(2)=   0.000000  celldm(3)=   0.000000
     celldm(4)=   0.000000  celldm(5)=   0.000000  celldm(6)=   0.000000

     crystal axes: (cart. coord. in units of alat)
               a(1) = (   6.579727   0.000000   0.000000 )
               a(2) = (  -0.000775   5.961596   0.000000 )
               a(3) = (   0.000000   0.000000  25.155947 )

     reciprocal axes: (cart. coord. in units 2 pi/alat)
               b(1) = (  0.151982  0.000020  0.000000 )
               b(2) = (  0.000000  0.167740  0.000000 )
               b(3) = (  0.000000  0.000000  0.039752 )

     PseudoPot. # 1 for Ti read from file:
     /storage/coda1/p-amedford6/0/shared/rich_project_chbe-medford/medford-share/data/pseudos_module/espresso/nninc/pbe/van/Ti.UPF
     MD5 check sum: 8e4df49b7f0d34bbd5052bf3f5ea0213
     Pseudo is Ultrasoft, Zval = 12.0
     Generated by new atomic code, or converted to UPF format
     Using radial grid of  851 points,  6 beta functions with:
                l(1) =   0
                l(2) =   0
                l(3) =   1
                l(4) =   1
                l(5) =   2
                l(6) =   2
     Q(r) pseudized with  8 coefficients,  rinner =    1.000   1.000   1.000
                                                       1.000   1.000

     PseudoPot. # 2 for O  read from file:
     /storage/coda1/p-amedford6/0/shared/rich_project_chbe-medford/medford-share/data/pseudos_module/espresso/nninc/pbe/van/O.UPF
     MD5 check sum: 78c19812648e8988a0fe644b0f25305e
     Pseudo is Ultrasoft, Zval =  6.0
     Generated by new atomic code, or converted to UPF format
     Using radial grid of  737 points,  4 beta functions with:
                l(1) =   0
                l(2) =   0
                l(3) =   1
                l(4) =   1
     Q(r) pseudized with  8 coefficients,  rinner =    0.800   0.800   0.800

     PseudoPot. # 3 for N  read from file:
     /storage/coda1/p-amedford6/0/shared/rich_project_chbe-medford/medford-share/data/pseudos_module/espresso/nninc/pbe/van/N.UPF
     MD5 check sum: 90d10febe142ad51ac9d5be1deb811c4
     Pseudo is Ultrasoft, Zval =  5.0
     Generated by new atomic code, or converted to UPF format
     Using radial grid of  729 points,  4 beta functions with:
                l(1) =   0
                l(2) =   0
                l(3) =   1
                l(4) =   1
     Q(r) pseudized with  8 coefficients,  rinner =    0.800   0.800   0.800

     PseudoPot. # 4 for C  read from file:
     /storage/coda1/p-amedford6/0/shared/rich_project_chbe-medford/medford-share/data/pseudos_module/espresso/nninc/pbe/van/C.UPF
     MD5 check sum: 1a69bf6b8db32088f5b2163dbdb77a27
     Pseudo is Ultrasoft, Zval =  4.0
     Generated by new atomic code, or converted to UPF format
     Using radial grid of  721 points,  4 beta functions with:
                l(1) =   0
                l(2) =   0
                l(3) =   1
                l(4) =   1
     Q(r) pseudized with  8 coefficients,  rinner =    0.800   0.800   0.800

     PseudoPot. # 5 for H  read from file:
     /storage/coda1/p-amedford6/0/shared/rich_project_chbe-medford/medford-share/data/pseudos_module/espresso/nninc/pbe/van/H.UPF
     MD5 check sum: b5ee9d7bfd3a09ee7748110bda690ff7
     Pseudo is Ultrasoft, Zval =  1.0
     Generated by new atomic code, or converted to UPF format
     Using radial grid of  615 points,  1 beta functions with:
                l(1) =   0
     Q(r) pseudized with  8 coefficients,  rinner =    0.800

     atomic species   valence    mass     pseudopotential
        Ti1           12.00    47.86700     Ti( 1.00)
        O1             6.00    15.99900     O ( 1.00)
        N1             5.00    14.00700     N ( 1.00)
        C1             4.00    12.01100     C ( 1.00)
        H1             1.00     1.00800     H ( 1.00)

     No symmetry found

   Cartesian axes

     site n.     atom                  positions (alat units)
         1           Ti1 tau(   1) = (   0.0004258   2.9801865   6.0000000  )
         2           Ti1 tau(   2) = (   3.2906075   1.4906267   6.0002472  )
         3           O1  tau(   3) = (   0.0006271   0.0005054   7.9858123  )
         4           O1  tau(   4) = (   3.2906025   0.0005020   7.3038282  )
         5           O1  tau(   5) = (   4.5942328   1.4918067   9.2879030  )
         6           O1  tau(   6) = (   1.9868534   1.4903216   9.2879459  )
         7           Ti1 tau(   7) = (   3.2907910   2.8959150   9.1758416  )
         8           Ti1 tau(   8) = (   0.0015273   1.4827037   9.2680791  )
         9           O1  tau(   9) = (   3.2912281   5.9459940  11.3193265  )
        10           O1  tau(  10) = (   0.0116148   5.9584955  10.6183126  )
        11           O1  tau(  11) = (   1.3103257   1.4650607  12.6442557  )
        12           O1  tau(  12) = (   5.3047449   1.4806448  12.6312737  )
        13           Ti1 tau(  13) = (   6.5337005   3.0128982  12.6900614  )
        14           Ti1 tau(  14) = (   3.2207025   1.4698770  12.4715817  )
        15           O1  tau(  15) = (   6.5518216   5.9146589  14.6704082  )
        16           O1  tau(  16) = (   3.3240203   5.9583723  13.8895330  )
        17           O1  tau(  17) = (   4.5456974   1.5225049  16.1264218  )
        18           O1  tau(  18) = (   2.0489736   1.4727210  15.9535721  )
        19           Ti1 tau(  19) = (   3.2591190   2.9927146  15.6788090  )
        20           Ti1 tau(  20) = (   0.0289511   1.3544711  15.7732889  )
        21           O1  tau(  21) = (   3.2904802   0.0005063   4.7018136  )
        22           O1  tau(  22) = (   0.0559926   0.0451390  17.2112278  )
        23           O1  tau(  23) = (   1.3043587   1.4918075   6.0039043  )
        24           O1  tau(  24) = (   5.2767064   1.4903225   6.0039473  )
        25           Ti1 tau(  25) = (   0.0000382   5.9609847   6.0000000  )
        26           Ti1 tau(  26) = (   3.2902200   4.4714249   6.0002472  )
        27           O1  tau(  27) = (   0.0002396   2.9813036   7.9858123  )
        28           O1  tau(  28) = (   3.2902150   2.9813002   7.3038282  )
        29           O1  tau(  29) = (   4.5938453   4.4726049   9.2879030  )
        30           O1  tau(  30) = (   1.9864658   4.4711199   9.2879459  )
        31           Ti1 tau(  31) = (   3.2891106   5.8743827   9.1763621  )
        32           Ti1 tau(  32) = (   0.0006254   4.4649316   9.2693709  )
        33           O1  tau(  33) = (   3.2889932   2.9698301  11.3211337  )
        34           O1  tau(  34) = (   0.0092240   2.9805883  10.6323155  )
        35           O1  tau(  35) = (   1.3069247   4.4567274  12.6410950  )
        36           O1  tau(  36) = (   5.3013738   4.4587240  12.6283471  )
        37           Ti1 tau(  37) = (   6.5339814   0.0202798  12.5235249  )
        38           Ti1 tau(  38) = (   3.2191325   4.4512509  12.4750946  )
        39           O1  tau(  39) = (   6.5688456   2.9522374  14.7547250  )
        40           O1  tau(  40) = (   3.3031296   2.9710333  13.8824388  )
        41           O1  tau(  41) = (   4.5425837   4.4734130  15.9989242  )
        42           O1  tau(  42) = (   2.0771424   4.4889556  16.0364895  )
        43           Ti1 tau(  43) = (   3.3121389   0.0026565  15.6888161  )
        44           Ti1 tau(  44) = (   6.5128106   4.4989306  16.3061806  )
        45           O1  tau(  45) = (   3.2900926   2.9813045   4.7018136  )
        46           O1  tau(  46) = (   1.3039711   4.4726057   6.0039043  )
        47           O1  tau(  47) = (   5.2763189   4.4711207   6.0039473  )
        48           N1  tau(  48) = (   0.4628824   2.9849886  17.7976856  )
        49           C1  tau(  49) = (   1.4282946   2.9518240  18.6700831  )
        50           H1  tau(  50) = (   2.3503500   2.6458988  18.1556329  )
        51           N1  tau(  51) = (   5.7893717   3.5482605  18.2279111  )
        52           H1  tau(  52) = (   5.8942619   4.0012392  19.1365464  )
        53           H1  tau(  53) = (   5.0734348   2.8266848  18.2415795  )

     number of k points=    10  Fermi-Dirac smearing, width (Ry)=  0.0073
                       cart. coord. in units 2pi/alat
        k(    1) = (   0.0000000   0.0000000   0.0000000), wk =   0.1250000
        k(    2) = (   0.0000000   0.0419351   0.0000000), wk =   0.2500000
        k(    3) = (   0.0000000  -0.0838702   0.0000000), wk =   0.1250000
        k(    4) = (   0.0379955   0.0000049   0.0000000), wk =   0.2500000
        k(    5) = (   0.0379955   0.0419400   0.0000000), wk =   0.2500000
        k(    6) = (   0.0379955  -0.0838652   0.0000000), wk =   0.2500000
        k(    7) = (   0.0379955  -0.0419301   0.0000000), wk =   0.2500000
        k(    8) = (  -0.0759910  -0.0000099   0.0000000), wk =   0.1250000
        k(    9) = (  -0.0759910   0.0419252   0.0000000), wk =   0.2500000
        k(   10) = (  -0.0759910  -0.0838800   0.0000000), wk =   0.1250000

     Initial potential from superposition of free atoms

     starting charge  378.99916, renormalised to  395.00000

     negative rho (up, down):  1.775E-02 0.000E+00

     %%%%%%%%%%%%%%%%%%%%%%%%%%%%%%%%%%%%%%%%%%%%%%%%%%%%%%%%%%%%%%%%%%%%%%%%
     %                                                                      %
     % You are using vdW-DF, which was implemented by the Thonhauser group. %
     % Please cite the following two papers that made this development      %
     % possible and the two reviews that describe the various versions:     %
     %                                                                      %
     %   T. Thonhauser et al., PRL 115, 136402 (2015).                      %
     %   T. Thonhauser et al., PRB 76, 125112 (2007).                       %
     %   K. Berland et al., Rep. Prog. Phys. 78, 066501 (2015).             %
     %   D.C. Langreth et al., J. Phys.: Condens. Matter 21, 084203 (2009). %
     %                                                                      %
     %                                                                      %
     % If you are calculating the stress with vdW-DF, please also cite:     %
     %                                                                      %
     %   R. Sabatini et al., J. Phys.: Condens. Matter 24, 424209 (2012).   %
     %                                                                      %
     %%%%%%%%%%%%%%%%%%%%%%%%%%%%%%%%%%%%%%%%%%%%%%%%%%%%%%%%%%%%%%%%%%%%%%%%

     Adding external electric field

     Computed dipole along edir(3) :
        Dipole               -8.0620 Ry au,        -20.4914 Debye
        Dipole field         -0.0152 Ry au,

        Potential amp.        1.4103 Ry
        Total length         46.3494 bohr

     Starting wfcs are  299 atomic wfcs
  @ DRIVER MODE: Message from server: STATUS
  @ DRIVER MODE: Message from server: POSDATA
  @ DRIVER MODE: Reading and sharing cell
  @ DRIVER MODE: Reading and sharing positions
  @ DRIVER MODE: Received positions

     Self-consistent Calculation

     iteration #  1     ecut=    29.40 Ry     beta= 0.05
     Davidson diagonalization with overlap
     c_bands:  1 eigenvalues not converged
     c_bands:  1 eigenvalues not converged
     c_bands:  2 eigenvalues not converged
     c_bands:  3 eigenvalues not converged
     c_bands:  3 eigenvalues not converged
     c_bands:  2 eigenvalues not converged
     c_bands:  1 eigenvalues not converged
     ethr =  1.00E-05,  avg # of iterations = 19.3

[...]

     total energy              =   -2614.87177773 Ry
     estimated scf accuracy    <    3583.88366377 Ry

[...]

     iteration #  3     ecut=    29.40 Ry     beta= 0.05
     Davidson diagonalization with overlap
     ethr =  1.00E-02,  avg # of iterations = 14.8

[...]

     iteration # 65     ecut=    29.40 Ry     beta= 0.05
     Davidson diagonalization with overlap
     c_bands:  1 eigenvalues not converged
     ethr =  5.57E-10,  avg # of iterations =  9.9

[...]

     total energy              =   -2939.00589199 Ry
     estimated scf accuracy    <       0.00000011 Ry

     iteration # 72     ecut=    29.40 Ry     beta= 0.05
     Davidson diagonalization with overlap
     ethr =  2.67E-11,  avg # of iterations =  5.2

     negative rho (up, down):  1.646E-02 0.000E+00

     Adding external electric field

     Computed dipole along edir(3) :
        Dipole                0.3048 Ry au,          0.7747 Debye
        Dipole field          0.0006 Ry au,

        Potential amp.       -0.0533 Ry
        Total length         46.3494 bohr

     End of self-consistent calculation

          k = 0.0000 0.0000 0.0000 ( 18029 PWs)   bands (ev):

   -56.1069 -56.1043 -56.0728 -56.0680 -55.9946 -55.9607 -55.9545 -55.9195
   -55.9039 -55.8697 -55.8681 -55.8338 -55.6439 -55.5840 -55.0762 -55.0422
   -32.6634 -32.5881 -32.4863 -32.4263 -32.4119 -32.4078 -32.3993 -32.3592
   -32.3468 -32.3320 -32.3068 -32.2848 -32.2787 -32.2593 -32.2519 -32.2452
   -32.2101 -32.1966 -32.1938 -32.1893 -32.1851 -32.1643 -32.1562 -32.1418
   -32.1160 -32.1024 -32.1013 -32.1006 -32.0953 -32.0918 -32.0703 -32.0436
   -32.0434 -32.0290 -32.0212 -32.0019 -31.9801 -31.9502 -31.8719 -31.8430
   -31.8000 -31.7351 -31.4829 -31.3956 -31.3731 -31.2998 -31.2133 -31.1021
   -17.9462 -16.8724 -16.5827 -16.3672 -16.2618 -16.2464 -16.1401 -15.9547
   -15.8214 -15.7932 -15.6865 -15.6799 -15.6390 -15.6257 -15.5973 -15.5739
   -15.5651 -15.5390 -15.5364 -15.5203 -15.4755 -15.4524 -15.4332 -15.3357
   -15.2974 -15.2369 -15.2146 -15.1535 -15.0313 -14.7947 -13.5785 -13.4623
   -13.2757  -8.0646  -6.3630  -4.3691  -4.2465  -4.0701  -4.0094  -3.9725
    -3.9627  -3.7190  -3.6863  -3.3272  -3.2949  -3.2756  -3.2645  -3.2534
    -3.1433  -3.0182  -2.9622  -2.9209  -2.9105  -2.8998  -2.8926  -2.8797
    -2.8539  -2.8316  -2.7261  -2.6834  -2.6526  -2.5428  -2.5245  -2.4317
    -2.4166  -2.4043  -2.3708  -2.3504  -2.3416  -2.3155  -2.3044  -2.2770
    -2.1916  -2.1431  -2.0285  -1.9587  -1.8836  -1.8486  -1.7029  -1.6585
    -1.5704  -1.5639  -1.5455  -1.5243  -1.4912  -1.4050  -1.3277  -1.2411
    -1.1988  -1.1610  -1.1254  -1.0824  -1.0003  -0.9818  -0.9647  -0.8683
    -0.8645  -0.8554  -0.8108  -0.6103  -0.5828  -0.5520  -0.5392  -0.4602
    -0.4035  -0.3867  -0.3656  -0.3175  -0.2577  -0.1942  -0.1482  -0.1336
    -0.1223  -0.1192  -0.0835  -0.0583   0.0842   0.0953   0.1893   0.2008
     0.2256   0.3524   0.5255   0.5628   0.5876   0.7067   0.8768   0.9460
     1.0480   1.1390   1.5163   1.5615   2.4012   3.0312   3.1174   3.1513
     3.1707   3.2762   3.3096   3.4786   3.4941   3.5294   3.5484

[...]

          k = 0.0380-0.0419 0.0000 ( 17876 PWs)   bands (ev):

[...]

          k =-0.0760-0.0000 0.0000 ( 17886 PWs)   bands (ev):

[...]

          k =-0.0760-0.0839 0.0000 ( 17948 PWs)   bands (ev):

   -56.0908 -56.0888 -56.0881 -56.0840 -55.9853 -55.9637 -55.9511 -55.9289
   -55.8887 -55.8844 -55.8545 -55.8477 -55.6405 -55.5872 -55.0592 -55.0590
   -32.4669 -32.4624 -32.4040 -32.4029 -32.3856 -32.3841 -32.3658 -32.3533
   -32.3342 -32.3149 -32.2918 -32.2751 -32.2491 -32.2394 -32.2389 -32.2202
   -32.2201 -32.2107 -32.2083 -32.2022 -32.2011 -32.1930 -32.1871 -32.1734
   -32.1684 -32.1505 -32.1339 -32.1311 -32.0882 -32.0862 -32.0844 -32.0804
   -32.0706 -32.0693 -32.0652 -32.0641 -32.0599 -31.9684 -31.8832 -31.8363
   -31.8032 -31.7915 -31.3859 -31.3858 -31.2958 -31.2955 -31.2567 -31.2565
   -17.9360 -16.3084 -16.2923 -16.0758 -16.0313 -16.0271 -16.0063 -15.9176
   -15.8276 -15.8085 -15.7944 -15.7768 -15.7618 -15.6816 -15.6561 -15.6338
   -15.6299 -15.6170 -15.5623 -15.5566 -15.5534 -15.5485 -15.5284 -15.4952
   -15.4127 -15.4077 -15.3962 -15.1577 -15.0917 -15.0207 -13.5643 -13.5639
   -13.2889  -8.0209  -6.3009  -4.3948  -3.6012  -3.5824  -3.3573  -3.3154
    -3.2833  -3.2744  -3.1592  -3.0564  -3.0266  -3.0141  -2.9755  -2.9574
    -2.9448  -2.9322  -2.9196  -2.9004  -2.8749  -2.8404  -2.8352  -2.7898
    -2.7729  -2.7519  -2.7345  -2.7128  -2.7118  -2.6711  -2.6652  -2.6268
    -2.5884  -2.5433  -2.4313  -2.3796  -2.3374  -2.2879  -2.2352  -2.2236
    -2.2142  -2.1615  -2.1563  -2.1207  -2.0371  -1.9616  -1.8258  -1.8045
    -1.7714  -1.7292  -1.6972  -1.5981  -1.5555  -1.5060  -1.4548  -1.3985
    -1.3868  -1.3441  -1.3068  -1.2414  -1.2243  -1.1847  -1.1632  -1.1010
    -1.0601  -1.0559  -0.9917  -0.9247  -0.8670  -0.8624  -0.8418  -0.8276
    -0.7700  -0.7227  -0.6558  -0.6068  -0.5652  -0.4670  -0.4109  -0.2915
    -0.1864  -0.0669   0.0034   0.0077   0.0633   0.1407   0.1866   0.2203
     0.2321   0.2518   0.3412   0.4131   0.4317   0.4463   0.5171   0.6981
     1.3108   1.3119   1.3808   1.3817   2.4012   3.3196   3.3576   3.3719
     3.4030   3.5481   3.5508   3.5629   3.5665   3.6852   3.7334

     the Fermi energy is     3.0284 ev

!    total energy              =   -2939.00590666 Ry
     estimated scf accuracy    <       0.00000007 Ry
     smearing contrib. (-TS)   =      -0.02199502 Ry
     internal energy E=F+TS    =   -2938.98391164 Ry

     The total energy is F=E-TS. E is the sum of the following terms:
     one-electron contribution =  -24452.54761470 Ry
     hartree contribution      =   12311.35105547 Ry
     xc contribution           =    -485.12561211 Ry
     ewald contribution        =    9687.33808437 Ry
     electric field correction =       0.00017533 Ry

     convergence has been achieved in  72 iterations

     Forces acting on atoms (cartesian axes, Ry/au):

     atom    1 type  1   force =     0.00018566   -0.00028517    0.09689212
     atom    2 type  1   force =     0.00006478   -0.00078835   -0.17496678
     atom    3 type  2   force =     0.00014684   -0.00008566   -0.02553963
     atom    4 type  2   force =    -0.00003178   -0.00142533    0.05150791
     atom    5 type  2   force =    -0.01202611   -0.00173726    0.00279079
     atom    6 type  2   force =     0.01344956   -0.00134396    0.00223349
     atom    7 type  1   force =     0.00040286    0.00015933   -0.01209133
     atom    8 type  1   force =     0.00018750    0.02418326    0.02897060
     atom    9 type  2   force =    -0.00004336    0.00051427   -0.00005685
     atom   10 type  2   force =    -0.00266222    0.00014641   -0.01164748
     atom   11 type  2   force =    -0.00000985    0.00027203    0.00003344
     atom   12 type  2   force =    -0.00025902   -0.00001660    0.00013158
     atom   13 type  1   force =    -0.00012766    0.00115076   -0.00007252
     atom   14 type  1   force =    -0.00000681    0.00048446    0.00003379
     atom   15 type  2   force =     0.00010364   -0.00015947   -0.00011929
     atom   16 type  2   force =    -0.00021127    0.00022751   -0.00031885
     atom   17 type  2   force =     0.00026436    0.00023566   -0.00029191
     atom   18 type  2   force =    -0.00011878    0.00012655   -0.00008330
     atom   19 type  1   force =    -0.00022399   -0.00012339   -0.00091314
     atom   20 type  1   force =     0.00025886    0.00016426    0.00016544
     atom   21 type  2   force =     0.00006734   -0.00007230    0.10298066
     atom   22 type  2   force =    -0.00001021   -0.00016646   -0.00039641
     atom   23 type  2   force =    -0.07169850   -0.00017351   -0.02790264
     atom   24 type  2   force =     0.07159998    0.00028539   -0.02793957
     atom   25 type  1   force =     0.00003851   -0.00025372    0.09680013
     atom   26 type  1   force =    -0.00000674   -0.00017373   -0.17512079
     atom   27 type  2   force =     0.00015732   -0.00027008   -0.02420321
     atom   28 type  2   force =     0.00001464   -0.00118140    0.05206071
     atom   29 type  2   force =    -0.01218460    0.00078115    0.00247087
     atom   30 type  2   force =     0.01349164    0.00126612    0.00188275
     atom   31 type  1   force =     0.00044865    0.00287234   -0.01397219
     atom   32 type  1   force =     0.00038562   -0.02518474    0.03046316
     atom   33 type  2   force =     0.00004316   -0.00008063   -0.00015425
     atom   34 type  2   force =    -0.00183860   -0.00050485   -0.02072238
     atom   35 type  2   force =     0.00001393    0.00021782   -0.00006200
     atom   36 type  2   force =     0.00015799    0.00032818    0.00015492
     atom   37 type  1   force =    -0.00021396   -0.00084997    0.00001435
     atom   38 type  1   force =     0.00008310    0.00014210   -0.00022507
     atom   39 type  2   force =     0.00007507    0.00033367   -0.00035093
     atom   40 type  2   force =    -0.00005704    0.00008660    0.00048416
     atom   41 type  2   force =     0.00038554   -0.00002177   -0.00006254
     atom   42 type  2   force =    -0.00007291   -0.00004684   -0.00031211
     atom   43 type  1   force =    -0.00039405    0.00026287    0.00002212
     atom   44 type  1   force =     0.00036139   -0.00027913    0.00058739
     atom   45 type  2   force =     0.00005319   -0.00006908    0.10299812
     atom   46 type  2   force =    -0.07172772   -0.00011791   -0.02789936
     atom   47 type  2   force =     0.07161481    0.00025604   -0.02792265
     atom   48 type  3   force =     0.00988224   -0.00036314    0.00638566
     atom   49 type  4   force =    -0.02034127    0.00381052   -0.00337805
     atom   50 type  5   force =     0.00741576   -0.00188883   -0.00498107
     atom   51 type  3   force =     0.00295661   -0.00052383    0.00131639
     atom   52 type  5   force =    -0.00014168    0.00002741    0.00002119
     atom   53 type  5   force =     0.00009756   -0.00014758    0.00030461

     Total force =     0.369856     Total SCF correction =     0.000524
  @ DRIVER MODE: Message from server: STATUS
  @ DRIVER MODE: Message from server: GETFORCE
  @ DRIVER MODE: Returning v,forces,stress,ensemble

     Writing output data file ./calc.save/
  @ DRIVER MODE: Message from server: EXIT
  @ DRIVE MODE: Exiting

     General routines

     Parallel routines

   This run was terminated on:   0:52: 8   9Sep2021

   JOB DONE.