     Program PWSCF v.6.7GPU starts on  9Sep2021 at  4:59:17

     R & G space division:  proc/nbgrp/npool/nimage =      10
     Reading input from /storage/home/hcoda1/3/ntian30/research/carbon/CxH_vib/CH_calc/ads_slab/CHNNHH_a/out_0019/pw.inp
Warning: card &CELL ignored
Warning: card   CELL_DYNAMICS='IPI', ignored
Warning: card / ignored

     Current dimensions of program PWSCF are:
     Max number of different atomic species (ntypx) = 10
     Max number of k-points (npk) =  40000
     Max angular momentum in pseudopotentials (lmaxx) =  3
     Presently no symmetry can be used with electric field

     Message from routine cell_base_init:
     DEPRECATED: use true lattice parameter, not A to a.u. conversion factor

     IMPORTANT: XC functional enforced from input :
     Exchange-correlation= BEEF-VDW
                           (   1   4  43  14   2   0   0)
     Any further DFT definition will be discarded
     Please, verify this is what you really want

  @ DRIVER MODE: Connecting to
 qe_1139763_2767382.sched-torque.pace.gatech.edu0zxrwjdd_scratch
  using UNIX socket
  @ DRIVER MODE: Message from server: STATUS
  @ DRIVER MODE: Message from server: INIT
  @ DRIVER MODE: Receiving replica           0          -1
  @ DRIVER MODE: Receiving encoded integer          25
  @ DRIVER MODE:  SCF:  T  FORCE:  T  STRESS:  F  VC:  F  ENSEMBLE:  F
  @ DRIVER MODE:  SCF:  T  FORCE:  T  STRESS:  F  VC:  F  ENSEMBLE:  F

     Using Slab Decomposition

     bravais-lattice index     =            0
     lattice parameter (alat)  =       1.8897  a.u.
     unit-cell volume          =    6658.9804 (a.u.)^3
     number of atoms/cell      =           53
     number of atomic types    =            5
     number of electrons       =       395.00
     number of Kohn-Sham states=          207
     kinetic-energy cutoff     =      29.3995  Ry
     charge density cutoff     =     293.9946  Ry
     scf convergence threshold =      7.3E-08
     mixing beta               =       0.0500
     number of iterations used =            8  plain     mixing
     Exchange-correlation= BEEF-VDW
                           (   1   4  43  14   2   0   0)

     celldm(1)=   1.889726  celldm(2)=   0.000000  celldm(3)=   0.000000
     celldm(4)=   0.000000  celldm(5)=   0.000000  celldm(6)=   0.000000

     crystal axes: (cart. coord. in units of alat)
               a(1) = (   6.579727   0.000000   0.000000 )
               a(2) = (  -0.000775   5.961596   0.000000 )
               a(3) = (   0.000000   0.000000  25.155947 )

     reciprocal axes: (cart. coord. in units 2 pi/alat)
               b(1) = (  0.151982  0.000020  0.000000 )
               b(2) = (  0.000000  0.167740  0.000000 )
               b(3) = (  0.000000  0.000000  0.039752 )

     PseudoPot. # 1 for Ti read from file:
     /storage/coda1/p-amedford6/0/shared/rich_project_chbe-medford/medford-share/data/pseudos_module/espresso/nninc/pbe/van/Ti.UPF
     MD5 check sum: 8e4df49b7f0d34bbd5052bf3f5ea0213
     Pseudo is Ultrasoft, Zval = 12.0
     Generated by new atomic code, or converted to UPF format
     Using radial grid of  851 points,  6 beta functions with:
                l(1) =   0
                l(2) =   0
                l(3) =   1
                l(4) =   1
                l(5) =   2
                l(6) =   2
     Q(r) pseudized with  8 coefficients,  rinner =    1.000   1.000   1.000
                                                       1.000   1.000

     PseudoPot. # 2 for O  read from file:
     /storage/coda1/p-amedford6/0/shared/rich_project_chbe-medford/medford-share/data/pseudos_module/espresso/nninc/pbe/van/O.UPF
     MD5 check sum: 78c19812648e8988a0fe644b0f25305e
     Pseudo is Ultrasoft, Zval =  6.0
     Generated by new atomic code, or converted to UPF format
     Using radial grid of  737 points,  4 beta functions with:
                l(1) =   0
                l(2) =   0
                l(3) =   1
                l(4) =   1
     Q(r) pseudized with  8 coefficients,  rinner =    0.800   0.800   0.800

     PseudoPot. # 3 for N  read from file:
     /storage/coda1/p-amedford6/0/shared/rich_project_chbe-medford/medford-share/data/pseudos_module/espresso/nninc/pbe/van/N.UPF
     MD5 check sum: 90d10febe142ad51ac9d5be1deb811c4
     Pseudo is Ultrasoft, Zval =  5.0
     Generated by new atomic code, or converted to UPF format
     Using radial grid of  729 points,  4 beta functions with:
                l(1) =   0
                l(2) =   0
                l(3) =   1
                l(4) =   1
     Q(r) pseudized with  8 coefficients,  rinner =    0.800   0.800   0.800

     PseudoPot. # 4 for C  read from file:
     /storage/coda1/p-amedford6/0/shared/rich_project_chbe-medford/medford-share/data/pseudos_module/espresso/nninc/pbe/van/C.UPF
     MD5 check sum: 1a69bf6b8db32088f5b2163dbdb77a27
     Pseudo is Ultrasoft, Zval =  4.0
     Generated by new atomic code, or converted to UPF format
     Using radial grid of  721 points,  4 beta functions with:
                l(1) =   0
                l(2) =   0
                l(3) =   1
                l(4) =   1
     Q(r) pseudized with  8 coefficients,  rinner =    0.800   0.800   0.800

     PseudoPot. # 5 for H  read from file:
     /storage/coda1/p-amedford6/0/shared/rich_project_chbe-medford/medford-share/data/pseudos_module/espresso/nninc/pbe/van/H.UPF
     MD5 check sum: b5ee9d7bfd3a09ee7748110bda690ff7
     Pseudo is Ultrasoft, Zval =  1.0
     Generated by new atomic code, or converted to UPF format
     Using radial grid of  615 points,  1 beta functions with:
                l(1) =   0
     Q(r) pseudized with  8 coefficients,  rinner =    0.800

     atomic species   valence    mass     pseudopotential
        Ti1           12.00    47.86700     Ti( 1.00)
        O1             6.00    15.99900     O ( 1.00)
        N1             5.00    14.00700     N ( 1.00)
        C1             4.00    12.01100     C ( 1.00)
        H1             1.00     1.00800     H ( 1.00)

     No symmetry found

   Cartesian axes

     site n.     atom                  positions (alat units)
         1           Ti1 tau(   1) = (   0.0004258   2.9801865   6.0000000  )
         2           Ti1 tau(   2) = (   3.2906075   1.4906267   6.0002472  )
         3           O1  tau(   3) = (   0.0006271   0.0005054   7.9858123  )
         4           O1  tau(   4) = (   3.2906025   0.0005020   7.3038282  )
         5           O1  tau(   5) = (   4.5942328   1.4918067   9.2879030  )
         6           O1  tau(   6) = (   1.9868534   1.4903216   9.2879459  )
         7           Ti1 tau(   7) = (   3.2907910   2.8959150   9.1758416  )
         8           Ti1 tau(   8) = (   0.0015273   1.4827037   9.2680791  )
         9           O1  tau(   9) = (   3.2912281   5.9459940  11.3193265  )
        10           O1  tau(  10) = (   0.0116148   5.9584955  10.6183126  )
        11           O1  tau(  11) = (   1.3103257   1.4650607  12.6442557  )
        12           O1  tau(  12) = (   5.3047449   1.4806448  12.6312737  )
        13           Ti1 tau(  13) = (   6.5337005   3.0128982  12.6900614  )
        14           Ti1 tau(  14) = (   3.2207025   1.4698770  12.4715817  )
        15           O1  tau(  15) = (   6.5518216   5.9146589  14.6704082  )
        16           O1  tau(  16) = (   3.3240203   5.9583723  13.8895330  )
        17           O1  tau(  17) = (   4.5456974   1.5225049  16.1264218  )
        18           O1  tau(  18) = (   2.0489736   1.4727210  15.9535721  )
        19           Ti1 tau(  19) = (   3.2591190   2.9927146  15.6788090  )
        20           Ti1 tau(  20) = (   0.0289511   1.3544711  15.7732889  )
        21           O1  tau(  21) = (   3.2904802   0.0005063   4.7018136  )
        22           O1  tau(  22) = (   0.0559926   0.0451390  17.2112278  )
        23           O1  tau(  23) = (   1.3043587   1.4918075   6.0039043  )
        24           O1  tau(  24) = (   5.2767064   1.4903225   6.0039473  )
        25           Ti1 tau(  25) = (   0.0000382   5.9609847   6.0000000  )
        26           Ti1 tau(  26) = (   3.2902200   4.4714249   6.0002472  )
        27           O1  tau(  27) = (   0.0002396   2.9813036   7.9858123  )
        28           O1  tau(  28) = (   3.2902150   2.9813002   7.3038282  )
        29           O1  tau(  29) = (   4.5938453   4.4726049   9.2879030  )
        30           O1  tau(  30) = (   1.9864658   4.4711199   9.2879459  )
        31           Ti1 tau(  31) = (   3.2891106   5.8743827   9.1763621  )
        32           Ti1 tau(  32) = (   0.0006254   4.4649316   9.2693709  )
        33           O1  tau(  33) = (   3.2889932   2.9698301  11.3211337  )
        34           O1  tau(  34) = (   0.0092240   2.9805883  10.6323155  )
        35           O1  tau(  35) = (   1.3069247   4.4567274  12.6410950  )
        36           O1  tau(  36) = (   5.3013738   4.4587240  12.6283471  )
        37           Ti1 tau(  37) = (   6.5339814   0.0202798  12.5235249  )
        38           Ti1 tau(  38) = (   3.2191325   4.4512509  12.4750946  )
        39           O1  tau(  39) = (   6.5688456   2.9522374  14.7547250  )
        40           O1  tau(  40) = (   3.3031296   2.9710333  13.8824388  )
        41           O1  tau(  41) = (   4.5425837   4.4734130  15.9989242  )
        42           O1  tau(  42) = (   2.0771424   4.4889556  16.0364895  )
        43           Ti1 tau(  43) = (   3.3121389   0.0026565  15.6888161  )
        44           Ti1 tau(  44) = (   6.5128106   4.4989306  16.3061806  )
        45           O1  tau(  45) = (   3.2900926   2.9813045   4.7018136  )
        46           O1  tau(  46) = (   1.3039711   4.4726057   6.0039043  )
        47           O1  tau(  47) = (   5.2763189   4.4711207   6.0039473  )
        48           N1  tau(  48) = (   0.4628824   2.9849886  17.7976856  )
        49           C1  tau(  49) = (   1.4182946   2.9518240  18.6700831  )
        50           H1  tau(  50) = (   2.3503500   2.6458988  18.1556329  )
        51           N1  tau(  51) = (   5.7793717   3.5482605  18.2279111  )
        52           H1  tau(  52) = (   5.8942619   4.0012392  19.1365464  )
        53           H1  tau(  53) = (   5.0734348   2.8266848  18.2415795  )

     number of k points=    10  Fermi-Dirac smearing, width (Ry)=  0.0073
                       cart. coord. in units 2pi/alat
        k(    1) = (   0.0000000   0.0000000   0.0000000), wk =   0.1250000
        k(    2) = (   0.0000000   0.0419351   0.0000000), wk =   0.2500000
        k(    3) = (   0.0000000  -0.0838702   0.0000000), wk =   0.1250000
        k(    4) = (   0.0379955   0.0000049   0.0000000), wk =   0.2500000
        k(    5) = (   0.0379955   0.0419400   0.0000000), wk =   0.2500000
        k(    6) = (   0.0379955  -0.0838652   0.0000000), wk =   0.2500000
        k(    7) = (   0.0379955  -0.0419301   0.0000000), wk =   0.2500000
        k(    8) = (  -0.0759910  -0.0000099   0.0000000), wk =   0.1250000
        k(    9) = (  -0.0759910   0.0419252   0.0000000), wk =   0.2500000
        k(   10) = (  -0.0759910  -0.0838800   0.0000000), wk =   0.1250000

     Initial potential from superposition of free atoms

     starting charge  378.99916, renormalised to  395.00000

     negative rho (up, down):  1.775E-02 0.000E+00

     %%%%%%%%%%%%%%%%%%%%%%%%%%%%%%%%%%%%%%%%%%%%%%%%%%%%%%%%%%%%%%%%%%%%%%%%
     %                                                                      %
     % You are using vdW-DF, which was implemented by the Thonhauser group. %
     % Please cite the following two papers that made this development      %
     % possible and the two reviews that describe the various versions:     %
     %                                                                      %
     %   T. Thonhauser et al., PRL 115, 136402 (2015).                      %
     %   T. Thonhauser et al., PRB 76, 125112 (2007).                       %
     %   K. Berland et al., Rep. Prog. Phys. 78, 066501 (2015).             %
     %   D.C. Langreth et al., J. Phys.: Condens. Matter 21, 084203 (2009). %
     %                                                                      %
     %                                                                      %
     % If you are calculating the stress with vdW-DF, please also cite:     %
     %                                                                      %
     %   R. Sabatini et al., J. Phys.: Condens. Matter 24, 424209 (2012).   %
     %                                                                      %
     %%%%%%%%%%%%%%%%%%%%%%%%%%%%%%%%%%%%%%%%%%%%%%%%%%%%%%%%%%%%%%%%%%%%%%%%

     Adding external electric field

     Computed dipole along edir(3) :
        Dipole               -8.0620 Ry au,        -20.4914 Debye
        Dipole field         -0.0152 Ry au,

        Potential amp.        1.4103 Ry
        Total length         46.3494 bohr

     Starting wfcs are  299 atomic wfcs
  @ DRIVER MODE: Message from server: STATUS
  @ DRIVER MODE: Message from server: POSDATA
  @ DRIVER MODE: Reading and sharing cell
  @ DRIVER MODE: Reading and sharing positions
  @ DRIVER MODE: Received positions

     Self-consistent Calculation

     iteration #  1     ecut=    29.40 Ry     beta= 0.05
     Davidson diagonalization with overlap
     c_bands:  1 eigenvalues not converged
     c_bands:  1 eigenvalues not converged
     c_bands:  2 eigenvalues not converged
     c_bands:  3 eigenvalues not converged
     c_bands:  3 eigenvalues not converged
     c_bands:  2 eigenvalues not converged
     c_bands:  1 eigenvalues not converged
     ethr =  1.00E-05,  avg # of iterations = 19.3

[...]

     total energy              =   -2614.88172950 Ry
     estimated scf accuracy    <    3583.77213483 Ry

[...]

     iteration #  3     ecut=    29.40 Ry     beta= 0.05
     Davidson diagonalization with overlap
     ethr =  1.00E-02,  avg # of iterations = 14.6

[...]

     iteration # 70     ecut=    29.40 Ry     beta= 0.05
     Davidson diagonalization with overlap
     c_bands:  1 eigenvalues not converged
     ethr =  2.08E-11,  avg # of iterations = 13.1

[...]

     total energy              =   -2939.00591772 Ry
     estimated scf accuracy    <       0.00000008 Ry

     iteration # 71     ecut=    29.40 Ry     beta= 0.05
     Davidson diagonalization with overlap
     ethr =  2.07E-11,  avg # of iterations = 10.7

     negative rho (up, down):  1.647E-02 0.000E+00

     Adding external electric field

     Computed dipole along edir(3) :
        Dipole                0.3047 Ry au,          0.7744 Debye
        Dipole field          0.0006 Ry au,

        Potential amp.       -0.0533 Ry
        Total length         46.3494 bohr

     End of self-consistent calculation

          k = 0.0000 0.0000 0.0000 ( 18029 PWs)   bands (ev):

   -56.1074 -56.1052 -56.0733 -56.0688 -55.9953 -55.9610 -55.9551 -55.9199
   -55.9048 -55.8706 -55.8695 -55.8353 -55.6501 -55.5867 -55.0771 -55.0431
   -32.6643 -32.5886 -32.4870 -32.4266 -32.4126 -32.4086 -32.3999 -32.3607
   -32.3475 -32.3328 -32.3071 -32.2856 -32.2791 -32.2598 -32.2528 -32.2460
   -32.2105 -32.1972 -32.1947 -32.1901 -32.1863 -32.1648 -32.1593 -32.1425
   -32.1176 -32.1034 -32.1021 -32.1010 -32.0964 -32.0928 -32.0717 -32.0448
   -32.0443 -32.0294 -32.0226 -32.0029 -31.9815 -31.9541 -31.8767 -31.8491
   -31.8022 -31.7390 -31.4839 -31.3965 -31.3740 -31.3008 -31.2143 -31.1031
   -17.9051 -16.8731 -16.5834 -16.3673 -16.2625 -16.2472 -16.1407 -15.9555
   -15.8222 -15.7940 -15.6872 -15.6807 -15.6395 -15.6272 -15.5983 -15.5744
   -15.5661 -15.5400 -15.5370 -15.5208 -15.4766 -15.4534 -15.4343 -15.3380
   -15.2982 -15.2375 -15.2155 -15.1545 -15.0321 -14.7973 -13.5794 -13.4631
   -13.3348  -8.0014  -6.3739  -4.3496  -4.2472  -4.0708  -4.0099  -3.9675
    -3.9598  -3.7198  -3.6869  -3.3282  -3.2957  -3.2749  -3.2651  -3.2540
    -3.1271  -3.0193  -2.9641  -2.9214  -2.9114  -2.9006  -2.8935  -2.8807
    -2.8548  -2.8326  -2.7282  -2.6832  -2.6533  -2.5425  -2.5253  -2.4293
    -2.4170  -2.4050  -2.3708  -2.3505  -2.3424  -2.3165  -2.3053  -2.2752
    -2.1940  -2.1453  -2.0296  -1.9656  -1.8863  -1.8515  -1.7039  -1.6599
    -1.5727  -1.5666  -1.5471  -1.5251  -1.4920  -1.4060  -1.3346  -1.2425
    -1.1990  -1.1624  -1.1268  -1.0834  -1.0018  -0.9829  -0.9655  -0.8691
    -0.8654  -0.8560  -0.8131  -0.6118  -0.5861  -0.5527  -0.5401  -0.4628
    -0.4045  -0.3886  -0.3670  -0.3193  -0.2588  -0.1958  -0.1495  -0.1349
    -0.1233  -0.1198  -0.0852  -0.0595   0.0832   0.0938   0.1880   0.1999
     0.2231   0.3485   0.5233   0.5618   0.5797   0.7020   0.8759   0.9451
     1.0471   1.1381   1.5156   1.5608   2.4075   3.0305   3.1166   3.1504
     3.1697   3.2751   3.3082   3.4779   3.4933   3.5284   3.5477

[...]

          k = 0.0380-0.0419 0.0000 ( 17876 PWs)   bands (ev):

[...]

          k =-0.0760-0.0000 0.0000 ( 17886 PWs)   bands (ev):

[...]

          k =-0.0760-0.0839 0.0000 ( 17948 PWs)   bands (ev):

   -56.0914 -56.0893 -56.0889 -56.0849 -55.9861 -55.9643 -55.9514 -55.9293
   -55.8897 -55.8853 -55.8558 -55.8491 -55.6469 -55.5897 -55.0601 -55.0600
   -32.4677 -32.4632 -32.4045 -32.4033 -32.3863 -32.3847 -32.3664 -32.3540
   -32.3350 -32.3157 -32.2923 -32.2756 -32.2499 -32.2402 -32.2393 -32.2209
   -32.2205 -32.2112 -32.2088 -32.2030 -32.2020 -32.1943 -32.1885 -32.1740
   -32.1692 -32.1509 -32.1346 -32.1319 -32.0893 -32.0874 -32.0856 -32.0817
   -32.0733 -32.0707 -32.0671 -32.0654 -32.0613 -31.9722 -31.8883 -31.8424
   -31.8055 -31.7951 -31.3868 -31.3867 -31.2968 -31.2965 -31.2577 -31.2576
   -17.8945 -16.3090 -16.2931 -16.0767 -16.0320 -16.0278 -16.0071 -15.9186
   -15.8280 -15.8090 -15.7951 -15.7772 -15.7625 -15.6825 -15.6568 -15.6345
   -15.6307 -15.6180 -15.5631 -15.5574 -15.5541 -15.5491 -15.5292 -15.4961
   -15.4137 -15.4087 -15.3978 -15.1596 -15.0940 -15.0223 -13.5653 -13.5646
   -13.3480  -7.9572  -6.3146  -4.3669  -3.6018  -3.5831  -3.3548  -3.3003
    -3.2824  -3.2735  -3.1595  -3.0573  -3.0274  -3.0150  -2.9762  -2.9582
    -2.9453  -2.9331  -2.9203  -2.9012  -2.8756  -2.8418  -2.8364  -2.7904
    -2.7739  -2.7529  -2.7354  -2.7136  -2.7127  -2.6719  -2.6656  -2.6275
    -2.5893  -2.5423  -2.4294  -2.3807  -2.3408  -2.2908  -2.2363  -2.2248
    -2.2159  -2.1623  -2.1571  -2.1209  -2.0375  -1.9629  -1.8272  -1.8056
    -1.7725  -1.7313  -1.6986  -1.6019  -1.5584  -1.5079  -1.4563  -1.4001
    -1.3882  -1.3459  -1.3091  -1.2428  -1.2256  -1.1860  -1.1650  -1.1022
    -1.0607  -1.0565  -0.9927  -0.9253  -0.8681  -0.8659  -0.8453  -0.8288
    -0.7718  -0.7235  -0.6569  -0.6079  -0.5661  -0.4686  -0.4121  -0.2952
    -0.1876  -0.0681   0.0024   0.0066   0.0620   0.1398   0.1844   0.2195
     0.2291   0.2468   0.3400   0.4110   0.4306   0.4435   0.5065   0.6973
     1.3098   1.3110   1.3800   1.3811   2.4039   3.3187   3.3569   3.3711
     3.4023   3.5472   3.5499   3.5621   3.5658   3.6854   3.7314

     the Fermi energy is     3.0276 ev

!    total energy              =   -2939.00593290 Ry
     estimated scf accuracy    <       0.00000005 Ry
     smearing contrib. (-TS)   =      -0.02200853 Ry
     internal energy E=F+TS    =   -2938.98392438 Ry

     The total energy is F=E-TS. E is the sum of the following terms:
     one-electron contribution =  -24452.47920411 Ry
     hartree contribution      =   12311.30447352 Ry
     xc contribution           =    -485.12620870 Ry
     ewald contribution        =    9687.31683973 Ry
     electric field correction =       0.00017518 Ry

     convergence has been achieved in  71 iterations

     Forces acting on atoms (cartesian axes, Ry/au):

     atom    1 type  1   force =     0.00018024   -0.00028331    0.09689660
     atom    2 type  1   force =     0.00006709   -0.00077331   -0.17498507
     atom    3 type  2   force =     0.00014765   -0.00008447   -0.02552643
     atom    4 type  2   force =    -0.00003077   -0.00142530    0.05154016
     atom    5 type  2   force =    -0.01205317   -0.00173449    0.00279627
     atom    6 type  2   force =     0.01347584   -0.00134170    0.00223641
     atom    7 type  1   force =     0.00041359    0.00015420   -0.01208920
     atom    8 type  1   force =     0.00018432    0.02419434    0.02898159
     atom    9 type  2   force =    -0.00003773    0.00052000   -0.00007055
     atom   10 type  2   force =    -0.00266241    0.00014342   -0.01163131
     atom   11 type  2   force =    -0.00003454    0.00026995    0.00004270
     atom   12 type  2   force =    -0.00024112   -0.00001645    0.00014186
     atom   13 type  1   force =    -0.00012900    0.00115253   -0.00014860
     atom   14 type  1   force =     0.00000278    0.00049237    0.00005774
     atom   15 type  2   force =     0.00014333   -0.00020541   -0.00003543
     atom   16 type  2   force =    -0.00022157    0.00023653   -0.00034454
     atom   17 type  2   force =     0.00031607    0.00016568   -0.00040118
     atom   18 type  2   force =    -0.00025048    0.00012813   -0.00010758
     atom   19 type  1   force =    -0.00005870   -0.00012587   -0.00062961
     atom   20 type  1   force =     0.00016087    0.00011773   -0.00004155
     atom   21 type  2   force =     0.00006766   -0.00007339    0.10297006
     atom   22 type  2   force =    -0.00003565   -0.00043440   -0.00047818
     atom   23 type  2   force =    -0.07168366   -0.00017254   -0.02789932
     atom   24 type  2   force =     0.07158978    0.00028651   -0.02793724
     atom   25 type  1   force =     0.00004064   -0.00025929    0.09679566
     atom   26 type  1   force =    -0.00001152   -0.00018733   -0.17515697
     atom   27 type  2   force =     0.00015879   -0.00026815   -0.02418900
     atom   28 type  2   force =     0.00001671   -0.00117749    0.05209048
     atom   29 type  2   force =    -0.01220992    0.00077979    0.00247243
     atom   30 type  2   force =     0.01351666    0.00126277    0.00188472
     atom   31 type  1   force =     0.00045339    0.00286492   -0.01397147
     atom   32 type  1   force =     0.00037790   -0.02518291    0.03046916
     atom   33 type  2   force =     0.00004644   -0.00007924   -0.00017078
     atom   34 type  2   force =    -0.00184044   -0.00050220   -0.02070443
     atom   35 type  2   force =    -0.00000991    0.00021615   -0.00005228
     atom   36 type  2   force =     0.00018091    0.00032716    0.00016142
     atom   37 type  1   force =    -0.00021846   -0.00085939   -0.00005563
     atom   38 type  1   force =     0.00009048    0.00013982   -0.00020266
     atom   39 type  2   force =     0.00008437    0.00035319   -0.00022460
     atom   40 type  2   force =    -0.00007286    0.00008332    0.00041657
     atom   41 type  2   force =     0.00027563    0.00023260   -0.00065616
     atom   42 type  2   force =    -0.00040646   -0.00010552   -0.00018376
     atom   43 type  1   force =    -0.00024203    0.00024356    0.00012440
     atom   44 type  1   force =    -0.00023730   -0.00015793    0.00061019
     atom   45 type  2   force =     0.00005380   -0.00006806    0.10299762
     atom   46 type  2   force =    -0.07171502   -0.00011635   -0.02789895
     atom   47 type  2   force =     0.07160471    0.00025787   -0.02792245
     atom   48 type  3   force =    -0.00351557    0.00161837   -0.00015825
     atom   49 type  4   force =    -0.00316233    0.00055560   -0.00051171
     atom   50 type  5   force =     0.00008765    0.00066442   -0.00022010
     atom   51 type  3   force =     0.01760866    0.00744699    0.00104155
     atom   52 type  5   force =    -0.00237681   -0.00130650   -0.00147421
     atom   53 type  5   force =    -0.00788853   -0.00796691    0.00135164

     Total force =     0.369687     Total SCF correction =     0.000487
  @ DRIVER MODE: Message from server: STATUS
  @ DRIVER MODE: Message from server: GETFORCE
  @ DRIVER MODE: Returning v,forces,stress,ensemble

     Writing output data file ./calc.save/
  @ DRIVER MODE: Message from server: EXIT
  @ DRIVE MODE: Exiting

     General routines

     Parallel routines

   This run was terminated on:   5:24:31   9Sep2021

   JOB DONE.