     Program PWSCF v.6.7GPU starts on 24Sep2021 at 13: 3: 6

     R & G space division:  proc/nbgrp/npool/nimage =       8
     Reading input from /storage/home/hcoda1/3/ntian30/research/carbon/CxH_vib/H2O_calc/ads_slab/CH3NHNH2HO_a/out_0051/pw.inp
Warning: card &CELL ignored
Warning: card   CELL_DYNAMICS='IPI', ignored
Warning: card / ignored

     Current dimensions of program PWSCF are:
     Max number of different atomic species (ntypx) = 10
     Max number of k-points (npk) =  40000
     Max angular momentum in pseudopotentials (lmaxx) =  3
     Presently no symmetry can be used with electric field

     Message from routine cell_base_init:
     DEPRECATED: use true lattice parameter, not A to a.u. conversion factor

     IMPORTANT: XC functional enforced from input :
     Exchange-correlation= BEEF-VDW
                           (   1   4  43  14   2   0   0)
     Any further DFT definition will be discarded
     Please, verify this is what you really want

  @ DRIVER MODE: Connecting to
 qe_1139763_2947307.sched-torque.pace.gatech.edux_seaj_f_scratch
  using UNIX socket
  @ DRIVER MODE: Message from server: STATUS
  @ DRIVER MODE: Message from server: INIT
  @ DRIVER MODE: Receiving replica           0          -1
  @ DRIVER MODE: Receiving encoded integer          25
  @ DRIVER MODE:  SCF:  T  FORCE:  T  STRESS:  F  VC:  F  ENSEMBLE:  F
  @ DRIVER MODE:  SCF:  T  FORCE:  T  STRESS:  F  VC:  F  ENSEMBLE:  F

     Using Slab Decomposition

     bravais-lattice index     =            0
     lattice parameter (alat)  =       1.8897  a.u.
     unit-cell volume          =    6658.9804 (a.u.)^3
     number of atoms/cell      =           58
     number of atomic types    =            5
     number of electrons       =       405.00
     number of Kohn-Sham states=          212
     kinetic-energy cutoff     =      29.3995  Ry
     charge density cutoff     =     293.9946  Ry
     scf convergence threshold =      7.3E-08
     mixing beta               =       0.0500
     number of iterations used =            8  plain     mixing
     Exchange-correlation= BEEF-VDW
                           (   1   4  43  14   2   0   0)

     celldm(1)=   1.889726  celldm(2)=   0.000000  celldm(3)=   0.000000
     celldm(4)=   0.000000  celldm(5)=   0.000000  celldm(6)=   0.000000

     crystal axes: (cart. coord. in units of alat)
               a(1) = (   6.579727   0.000000   0.000000 )
               a(2) = (  -0.000775   5.961596   0.000000 )
               a(3) = (   0.000000   0.000000  25.155947 )

     reciprocal axes: (cart. coord. in units 2 pi/alat)
               b(1) = (  0.151982  0.000020  0.000000 )
               b(2) = (  0.000000  0.167740  0.000000 )
               b(3) = (  0.000000  0.000000  0.039752 )

     PseudoPot. # 1 for Ti read from file:
     /storage/coda1/p-amedford6/0/shared/rich_project_chbe-medford/medford-share/data/pseudos_module/espresso/nninc/pbe/van/Ti.UPF
     MD5 check sum: 8e4df49b7f0d34bbd5052bf3f5ea0213
     Pseudo is Ultrasoft, Zval = 12.0
     Generated by new atomic code, or converted to UPF format
     Using radial grid of  851 points,  6 beta functions with:
                l(1) =   0
                l(2) =   0
                l(3) =   1
                l(4) =   1
                l(5) =   2
                l(6) =   2
     Q(r) pseudized with  8 coefficients,  rinner =    1.000   1.000   1.000
                                                       1.000   1.000

     PseudoPot. # 2 for O  read from file:
     /storage/coda1/p-amedford6/0/shared/rich_project_chbe-medford/medford-share/data/pseudos_module/espresso/nninc/pbe/van/O.UPF
     MD5 check sum: 78c19812648e8988a0fe644b0f25305e
     Pseudo is Ultrasoft, Zval =  6.0
     Generated by new atomic code, or converted to UPF format
     Using radial grid of  737 points,  4 beta functions with:
                l(1) =   0
                l(2) =   0
                l(3) =   1
                l(4) =   1
     Q(r) pseudized with  8 coefficients,  rinner =    0.800   0.800   0.800

     PseudoPot. # 3 for N  read from file:
     /storage/coda1/p-amedford6/0/shared/rich_project_chbe-medford/medford-share/data/pseudos_module/espresso/nninc/pbe/van/N.UPF
     MD5 check sum: 90d10febe142ad51ac9d5be1deb811c4
     Pseudo is Ultrasoft, Zval =  5.0
     Generated by new atomic code, or converted to UPF format
     Using radial grid of  729 points,  4 beta functions with:
                l(1) =   0
                l(2) =   0
                l(3) =   1
                l(4) =   1
     Q(r) pseudized with  8 coefficients,  rinner =    0.800   0.800   0.800

     PseudoPot. # 4 for C  read from file:
     /storage/coda1/p-amedford6/0/shared/rich_project_chbe-medford/medford-share/data/pseudos_module/espresso/nninc/pbe/van/C.UPF
     MD5 check sum: 1a69bf6b8db32088f5b2163dbdb77a27
     Pseudo is Ultrasoft, Zval =  4.0
     Generated by new atomic code, or converted to UPF format
     Using radial grid of  721 points,  4 beta functions with:
                l(1) =   0
                l(2) =   0
                l(3) =   1
                l(4) =   1
     Q(r) pseudized with  8 coefficients,  rinner =    0.800   0.800   0.800

     PseudoPot. # 5 for H  read from file:
     /storage/coda1/p-amedford6/0/shared/rich_project_chbe-medford/medford-share/data/pseudos_module/espresso/nninc/pbe/van/H.UPF
     MD5 check sum: b5ee9d7bfd3a09ee7748110bda690ff7
     Pseudo is Ultrasoft, Zval =  1.0
     Generated by new atomic code, or converted to UPF format
     Using radial grid of  615 points,  1 beta functions with:
                l(1) =   0
     Q(r) pseudized with  8 coefficients,  rinner =    0.800

     atomic species   valence    mass     pseudopotential
        Ti1           12.00    47.86700     Ti( 1.00)
        O1             6.00    15.99900     O ( 1.00)
        N1             5.00    14.00700     N ( 1.00)
        C1             4.00    12.01100     C ( 1.00)
        H1             1.00     1.00800     H ( 1.00)

     No symmetry found

   Cartesian axes

     site n.     atom                  positions (alat units)
         1           Ti1 tau(   1) = (   0.0004258   2.9801865   6.0000000  )
         2           Ti1 tau(   2) = (   3.2906075   1.4906267   6.0002472  )
         3           O1  tau(   3) = (   0.0006271   0.0005054   7.9858123  )
         4           O1  tau(   4) = (   3.2906025   0.0005020   7.3038282  )
         5           O1  tau(   5) = (   4.5942328   1.4918067   9.2879030  )
         6           O1  tau(   6) = (   1.9868534   1.4903216   9.2879459  )
         7           Ti1 tau(   7) = (   3.2907910   2.8959150   9.1758416  )
         8           Ti1 tau(   8) = (   0.0015273   1.4827037   9.2680791  )
         9           O1  tau(   9) = (   3.3003128   0.0493987  11.3625472  )
        10           O1  tau(  10) = (   0.0116148   5.9584955  10.6183126  )
        11           O1  tau(  11) = (   1.2863924   1.5188706  12.6959087  )
        12           O1  tau(  12) = (   5.3173592   1.5183023  12.6957539  )
        13           Ti1 tau(  13) = (   0.0130489   2.9571150  12.5182267  )
        14           Ti1 tau(  14) = (   3.3124343   1.5987737  12.4587140  )
        15           O1  tau(  15) = (   0.0455642   5.8537743  14.6515032  )
        16           O1  tau(  16) = (   3.3135256   5.8999501  14.0036581  )
        17           O1  tau(  17) = (   4.5824137   1.5787328  16.0473457  )
        18           O1  tau(  18) = (   2.0456054   1.5356268  16.0652349  )
        19           Ti1 tau(  19) = (   3.2855744   2.9948502  15.7047272  )
        20           Ti1 tau(  20) = (   0.0729980   1.3194477  15.7501807  )
        21           O1  tau(  21) = (   3.2904802   0.0005063   4.7018136  )
        22           O1  tau(  22) = (   6.5643345   0.1786488  17.1561759  )
        23           O1  tau(  23) = (   1.3043587   1.4918075   6.0039043  )
        24           O1  tau(  24) = (   5.2767064   1.4903225   6.0039473  )
        25           Ti1 tau(  25) = (   0.0000382   5.9609847   6.0000000  )
        26           Ti1 tau(  26) = (   3.2902200   4.4714249   6.0002472  )
        27           O1  tau(  27) = (   0.0002396   2.9813036   7.9858123  )
        28           O1  tau(  28) = (   3.2902150   2.9813002   7.3038282  )
        29           O1  tau(  29) = (   4.5938453   4.4726049   9.2879030  )
        30           O1  tau(  30) = (   1.9864658   4.4711199   9.2879459  )
        31           Ti1 tau(  31) = (   3.2891106   5.8743827   9.1763621  )
        32           Ti1 tau(  32) = (   0.0006254   4.4649316   9.2693709  )
        33           O1  tau(  33) = (   3.3044115   2.9646987  11.3227374  )
        34           O1  tau(  34) = (   0.0092240   2.9805883  10.6323155  )
        35           O1  tau(  35) = (   1.2889249   4.4812606  12.6373974  )
        36           O1  tau(  36) = (   5.3198440   4.4849614  12.6453916  )
        37           Ti1 tau(  37) = (   0.0274371   5.9167426  12.5032498  )
        38           Ti1 tau(  38) = (   3.3124303   4.6827448  12.7121475  )
        39           O1  tau(  39) = (   0.0064664   3.0605765  14.9143048  )
        40           O1  tau(  40) = (   3.2921723   3.0190953  13.9337278  )
        41           O1  tau(  41) = (   4.5343043   4.4484976  16.2223827  )
        42           O1  tau(  42) = (   2.0055671   4.4324605  16.2273083  )
        43           Ti1 tau(  43) = (   3.3963104   0.0511244  16.3072024  )
        44           Ti1 tau(  44) = (   0.1011521   4.5293608  16.0606835  )
        45           O1  tau(  45) = (   3.2900926   2.9813045   4.7018136  )
        46           O1  tau(  46) = (   1.3039711   4.4726057   6.0039043  )
        47           O1  tau(  47) = (   5.2763189   4.4711207   6.0039473  )
        48           N1  tau(  48) = (   0.7799224   3.1460235  19.0808133  )
        49           N1  tau(  49) = (   6.3029119   3.3142126  18.0946246  )
        50           C1  tau(  50) = (   0.9829876   4.3811599  19.8296872  )
        51           H1  tau(  51) = (   0.0599524   4.7630682  20.2995108  )
        52           H1  tau(  52) = (   1.7087173   4.1728717  20.6153690  )
        53           H1  tau(  53) = (   1.3778604   5.1510331  19.1745456  )
        54           H1  tau(  54) = (   0.4845774   2.4057476  19.7140978  )
        55           H1  tau(  55) = (   5.5451363   3.8924421  18.4761980  )
        56           H1  tau(  56) = (   5.8791802   2.3831312  17.9634808  )
        57           O1  tau(  57) = (   3.3895457   0.1916509  18.1699706  )
        58           H1  tau(  58) = (   3.8128180   5.4341384  18.6581559  )

     number of k points=    10  Fermi-Dirac smearing, width (Ry)=  0.0073
                       cart. coord. in units 2pi/alat
        k(    1) = (   0.0000000   0.0000000   0.0000000), wk =   0.1250000
        k(    2) = (   0.0000000   0.0419351   0.0000000), wk =   0.2500000
        k(    3) = (   0.0000000  -0.0838702   0.0000000), wk =   0.1250000
        k(    4) = (   0.0379955   0.0000049   0.0000000), wk =   0.2500000
        k(    5) = (   0.0379955   0.0419400   0.0000000), wk =   0.2500000
        k(    6) = (   0.0379955  -0.0838652   0.0000000), wk =   0.2500000
        k(    7) = (   0.0379955  -0.0419301   0.0000000), wk =   0.2500000
        k(    8) = (  -0.0759910  -0.0000099   0.0000000), wk =   0.1250000
        k(    9) = (  -0.0759910   0.0419252   0.0000000), wk =   0.2500000
        k(   10) = (  -0.0759910  -0.0838800   0.0000000), wk =   0.1250000

     Initial potential from superposition of free atoms

     starting charge  388.99913, renormalised to  405.00000

     negative rho (up, down):  1.368E-02 0.000E+00

     %%%%%%%%%%%%%%%%%%%%%%%%%%%%%%%%%%%%%%%%%%%%%%%%%%%%%%%%%%%%%%%%%%%%%%%%
     %                                                                      %
     % You are using vdW-DF, which was implemented by the Thonhauser group. %
     % Please cite the following two papers that made this development      %
     % possible and the two reviews that describe the various versions:     %
     %                                                                      %
     %   T. Thonhauser et al., PRL 115, 136402 (2015).                      %
     %   T. Thonhauser et al., PRB 76, 125112 (2007).                       %
     %   K. Berland et al., Rep. Prog. Phys. 78, 066501 (2015).             %
     %   D.C. Langreth et al., J. Phys.: Condens. Matter 21, 084203 (2009). %
     %                                                                      %
     %                                                                      %
     % If you are calculating the stress with vdW-DF, please also cite:     %
     %                                                                      %
     %   R. Sabatini et al., J. Phys.: Condens. Matter 24, 424209 (2012).   %
     %                                                                      %
     %%%%%%%%%%%%%%%%%%%%%%%%%%%%%%%%%%%%%%%%%%%%%%%%%%%%%%%%%%%%%%%%%%%%%%%%

     Adding external electric field

     Computed dipole along edir(3) :
        Dipole              -14.8124 Ry au,        -37.6493 Debye
        Dipole field         -0.0280 Ry au,

        Potential amp.        2.5912 Ry
        Total length         46.3494 bohr

     Starting wfcs are  307 atomic wfcs
  @ DRIVER MODE: Message from server: STATUS
  @ DRIVER MODE: Message from server: POSDATA
  @ DRIVER MODE: Reading and sharing cell
  @ DRIVER MODE: Reading and sharing positions
  @ DRIVER MODE: Received positions

     Self-consistent Calculation

     iteration #  1     ecut=    29.40 Ry     beta= 0.05
     Davidson diagonalization with overlap
     c_bands:  4 eigenvalues not converged
     c_bands:  4 eigenvalues not converged
     c_bands:  5 eigenvalues not converged
     c_bands:  2 eigenvalues not converged
     c_bands:  3 eigenvalues not converged
     c_bands:  4 eigenvalues not converged
     c_bands:  2 eigenvalues not converged
     ethr =  1.00E-05,  avg # of iterations = 22.9

[...]

     total energy              =   -2203.01294332 Ry
     estimated scf accuracy    <    8803.83888434 Ry

     iteration #  2     ecut=    29.40 Ry     beta= 0.05
     Davidson diagonalization with overlap
     ethr =  1.00E-02,  avg # of iterations = 31.7

[...]

     iteration # 48     ecut=    29.40 Ry     beta= 0.05
     Davidson diagonalization with overlap
     c_bands:  1 eigenvalues not converged
     c_bands:  1 eigenvalues not converged
     ethr =  6.83E-07,  avg # of iterations = 15.7

[...]

     total energy              =   -2976.46391796 Ry
     estimated scf accuracy    <       0.00000009 Ry

     iteration # 69     ecut=    29.40 Ry     beta= 0.05
     Davidson diagonalization with overlap
     ethr =  2.23E-11,  avg # of iterations =  2.0

     negative rho (up, down):  1.441E-02 0.000E+00

     Adding external electric field

     Computed dipole along edir(3) :
        Dipole                1.2244 Ry au,          3.1120 Debye
        Dipole field          0.0023 Ry au,

        Potential amp.       -0.2142 Ry
        Total length         46.3494 bohr

     End of self-consistent calculation

          k = 0.0000 0.0000 0.0000 ( 18029 PWs)   bands (ev):

   -55.4453 -55.3572 -55.3232 -55.2189 -55.2159 -55.1882 -55.1859 -55.1784
   -55.1542 -55.1311 -55.0879 -54.9864 -54.9384 -54.8946 -54.3322 -54.2982
   -31.8424 -31.7916 -31.7227 -31.7052 -31.6909 -31.6759 -31.6552 -31.6480
   -31.6172 -31.6034 -31.5975 -31.5098 -31.4952 -31.4879 -31.4680 -31.4643
   -31.4607 -31.4515 -31.4510 -31.4213 -31.4147 -31.3931 -31.3862 -31.3764
   -31.3714 -31.3554 -31.3546 -31.3226 -31.3225 -31.3157 -31.3150 -31.3091
   -31.3008 -31.2827 -31.2591 -31.2404 -31.1755 -31.1540 -31.1419 -31.1340
   -31.1129 -31.1037 -30.7381 -30.6519 -30.6295 -30.5557 -30.4694 -30.3575
   -17.7267 -16.3680 -16.0116 -15.8478 -15.6330 -15.5403 -15.5132 -15.3144
   -15.2194 -15.1612 -14.9602 -14.9327 -14.8951 -14.8822 -14.8735 -14.8524
   -14.8489 -14.7972 -14.7817 -14.7718 -14.7683 -14.7381 -14.7110 -14.6718
   -14.6116 -14.5984 -14.4957 -14.4404 -14.4005 -14.1592 -14.1402 -13.1489
   -12.8309 -12.7145  -9.4356  -6.4184  -5.7365  -4.2645  -3.9347  -3.3696
    -3.2682  -3.2566  -3.1999  -3.1327  -2.9720  -2.8849  -2.7824  -2.7434
    -2.6098  -2.5975  -2.4929  -2.4442  -2.3711  -2.3249  -2.2838  -2.2490
    -2.2212  -2.1647  -2.1428  -2.1166  -2.1059  -2.0331  -2.0146  -1.9247
    -1.8922  -1.8786  -1.7608  -1.7264  -1.6917  -1.6783  -1.6693  -1.6619
    -1.6186  -1.6091  -1.5984  -1.5556  -1.4555  -1.4477  -1.4302  -1.3397
    -1.2410  -0.9917  -0.9610  -0.9106  -0.8990  -0.8208  -0.7822  -0.7506
    -0.7178  -0.6483  -0.6368  -0.6110  -0.5493  -0.4740  -0.4197  -0.3721
    -0.3380  -0.2261  -0.1762  -0.1322  -0.0994  -0.0626   0.0003   0.0397
     0.0639   0.1072   0.1948   0.2583   0.2855   0.3023   0.3526   0.3943
     0.4324   0.4725   0.5446   0.5671   0.5772   0.6165   0.6251   0.6460
     0.7414   0.7599   0.8194   0.8466   0.9346   0.9655   1.0097   1.1791
     1.2486   1.3072   1.3860   1.4798   1.6396   1.6941   1.7190   1.8880
     2.2614   2.3068   3.7263   3.8740   3.8901   3.9678   3.9848   4.0488
     4.2153   4.2745   4.4122   4.4226

[...]

          k = 0.0380-0.0419 0.0000 ( 17876 PWs)   bands (ev):

[...]

          k =-0.0760-0.0000 0.0000 ( 17886 PWs)   bands (ev):

[...]

          k =-0.0760-0.0839 0.0000 ( 17948 PWs)   bands (ev):

   -55.4445 -55.3403 -55.3400 -55.2176 -55.2043 -55.1900 -55.1866 -55.1724
   -55.1696 -55.1230 -55.0961 -54.9833 -54.9394 -54.8976 -54.3152 -54.3151
   -31.7302 -31.6700 -31.6578 -31.6576 -31.6567 -31.6427 -31.6337 -31.6333
   -31.5764 -31.5317 -31.5103 -31.4994 -31.4941 -31.4887 -31.4660 -31.4602
   -31.4596 -31.4570 -31.4503 -31.4379 -31.4313 -31.4283 -31.4167 -31.3908
   -31.3859 -31.3843 -31.3767 -31.3688 -31.3505 -31.3451 -31.3416 -31.3413
   -31.3387 -31.3182 -31.3167 -31.2524 -31.2353 -31.2081 -31.1797 -31.1563
   -31.1498 -31.1085 -30.6422 -30.6422 -30.5512 -30.5508 -30.5127 -30.5125
   -17.7225 -16.3580 -15.5924 -15.4473 -15.3389 -15.3285 -15.2046 -15.1375
   -15.1277 -15.0941 -15.0712 -15.0490 -15.0308 -15.0156 -14.9607 -14.9211
   -14.8898 -14.8624 -14.8578 -14.8148 -14.8052 -14.7938 -14.7759 -14.7643
   -14.7091 -14.6730 -14.6633 -14.6046 -14.4657 -14.4470 -14.2893 -13.1503
   -12.8164 -12.8163  -9.4546  -6.4028  -5.7422  -4.2508  -3.9232  -2.9577
    -2.8015  -2.6588  -2.6034  -2.5633  -2.4498  -2.4254  -2.3677  -2.3172
    -2.2930  -2.2715  -2.2194  -2.2094  -2.1629  -2.1472  -2.1232  -2.1081
    -2.0920  -2.0854  -2.0571  -2.0416  -2.0314  -2.0160  -1.9914  -1.9803
    -1.9621  -1.9332  -1.9131  -1.9040  -1.8700  -1.8283  -1.7669  -1.6557
    -1.5822  -1.5708  -1.5278  -1.5029  -1.4866  -1.4456  -1.4330  -1.3920
    -1.3745  -1.3084  -1.1505  -1.1255  -1.1107  -0.9684  -0.9611  -0.9322
    -0.8582  -0.8165  -0.7947  -0.7364  -0.7075  -0.6669  -0.5897  -0.5464
    -0.4921  -0.4261  -0.3261  -0.3186  -0.3025  -0.2825  -0.2662  -0.2584
    -0.2251  -0.1881  -0.1150  -0.0684  -0.0598  -0.0538  -0.0025   0.0772
     0.1282   0.2425   0.3886   0.3931   0.4598   0.4609   0.6606   0.6697
     0.7460   0.7816   0.8160   0.8431   0.9370   0.9549   0.9927   1.0746
     1.1390   1.1685   1.1895   1.1942   1.2473   1.4633   2.0564   2.0642
     2.1270   2.1272   3.9675   4.2004   4.2408   4.2540   4.2725   4.2991
     4.3124   4.3267   4.3935   4.4171

     the Fermi energy is     3.7637 ev

!    total energy              =   -2976.46395259 Ry
     estimated scf accuracy    <       0.00000007 Ry
     smearing contrib. (-TS)   =      -0.01955597 Ry
     internal energy E=F+TS    =   -2976.44439662 Ry

     The total energy is F=E-TS. E is the sum of the following terms:
     one-electron contribution =  -23037.18161025 Ry
     hartree contribution      =   11616.30606622 Ry
     xc contribution           =    -495.71821356 Ry
     ewald contribution        =    8940.14653206 Ry
     electric field correction =       0.00282892 Ry

     convergence has been achieved in  69 iterations

     Forces acting on atoms (cartesian axes, Ry/au):

     atom    1 type  1   force =     0.00016411   -0.00022851    0.09416563
     atom    2 type  1   force =    -0.00009655    0.00018339   -0.17535221
     atom    3 type  2   force =     0.00005475   -0.00049631   -0.02104585
     atom    4 type  2   force =    -0.00002508   -0.00093883    0.05425424
     atom    5 type  2   force =    -0.00489511   -0.00216041    0.00107296
     atom    6 type  2   force =     0.00671951   -0.00138677    0.00108795
     atom    7 type  1   force =     0.00005673    0.00331144    0.00864947
     atom    8 type  1   force =    -0.00010330    0.00120372    0.00271310
     atom    9 type  2   force =    -0.00021931   -0.00030771   -0.00058981
     atom   10 type  2   force =    -0.00112026    0.00428904   -0.01023779
     atom   11 type  2   force =    -0.00007657   -0.00055497   -0.00010876
     atom   12 type  2   force =     0.00061863   -0.00032025   -0.00027033
     atom   13 type  1   force =    -0.00143878    0.00019661   -0.00057416
     atom   14 type  1   force =     0.00070785    0.00017737   -0.00047022
     atom   15 type  2   force =     0.00013280    0.00001746    0.00005823
     atom   16 type  2   force =    -0.00009503   -0.00069478   -0.00030580
     atom   17 type  2   force =    -0.00043224    0.00062908    0.00003735
     atom   18 type  2   force =    -0.00077425    0.00030032   -0.00023768
     atom   19 type  1   force =     0.00043292   -0.00089419    0.00064481
     atom   20 type  1   force =    -0.00065141    0.00010913    0.00037682
     atom   21 type  2   force =     0.00003724   -0.00001149    0.10320466
     atom   22 type  2   force =    -0.00016451    0.00004995    0.00061303
     atom   23 type  2   force =    -0.07199350   -0.00020285   -0.02726085
     atom   24 type  2   force =     0.07187066    0.00025238   -0.02733096
     atom   25 type  1   force =     0.00007577   -0.00016181    0.09389646
     atom   26 type  1   force =    -0.00011828   -0.00136823   -0.17549991
     atom   27 type  2   force =     0.00011161   -0.00005386   -0.01985439
     atom   28 type  2   force =     0.00006496   -0.00105203    0.04980180
     atom   29 type  2   force =    -0.00747778    0.00209488    0.00339746
     atom   30 type  2   force =     0.00908206    0.00223576    0.00331633
     atom   31 type  1   force =     0.00019395    0.00151720    0.00004839
     atom   32 type  1   force =    -0.00008732   -0.00227568    0.00302576
     atom   33 type  2   force =    -0.00017630   -0.00031474   -0.00002664
     atom   34 type  2   force =    -0.00117021   -0.00218302   -0.00962914
     atom   35 type  2   force =     0.00064021    0.00005528   -0.00022708
     atom   36 type  2   force =     0.00037463    0.00011581   -0.00035349
     atom   37 type  1   force =    -0.00096931    0.00025574    0.00035074
     atom   38 type  1   force =     0.00096605   -0.00024678    0.00020728
     atom   39 type  2   force =    -0.00016657   -0.00053651    0.00009183
     atom   40 type  2   force =    -0.00019848   -0.00019072   -0.00017948
     atom   41 type  2   force =     0.00023595   -0.00027095   -0.00013740
     atom   42 type  2   force =    -0.00066531    0.00007109   -0.00012967
     atom   43 type  1   force =     0.00022650    0.00088119    0.00046689
     atom   44 type  1   force =    -0.00042535    0.00060209    0.00006879
     atom   45 type  2   force =     0.00002482    0.00003260    0.10301614
     atom   46 type  2   force =    -0.07194510   -0.00007833   -0.02721600
     atom   47 type  2   force =     0.07183542    0.00035359   -0.02729649
     atom   48 type  3   force =     0.00019468   -0.00067588   -0.00057119
     atom   49 type  3   force =    -0.00450465   -0.01248424   -0.00237292
     atom   50 type  4   force =     0.00008819   -0.00018516    0.00020446
     atom   51 type  5   force =    -0.00105960   -0.00018843    0.00049400
     atom   52 type  5   force =     0.00058416   -0.00006209    0.00039972
     atom   53 type  5   force =    -0.00021200    0.00064265   -0.00047012
     atom   54 type  5   force =     0.00069696   -0.00016746    0.00005011
     atom   55 type  5   force =     0.00007803   -0.00134818    0.00009929
     atom   56 type  5   force =     0.00506846    0.01265644    0.00158507
     atom   57 type  2   force =     0.00074172   -0.00112851    0.00011443
     atom   58 type  5   force =    -0.00081717    0.00093549    0.00023513

     Total force =     0.362490     Total SCF correction =     0.000547
  @ DRIVER MODE: Message from server: STATUS
  @ DRIVER MODE: Message from server: GETFORCE
  @ DRIVER MODE: Returning v,forces,stress,ensemble

     Writing output data file ./calc.save/
  @ DRIVER MODE: Message from server: EXIT
  @ DRIVE MODE: Exiting

     General routines

     Parallel routines

   This run was terminated on:  13:34:53  24Sep2021

   JOB DONE.