     Program PWSCF v.6.7GPU starts on  9Sep2021 at  4: 3:57

     R & G space division:  proc/nbgrp/npool/nimage =      10
     Reading input from /storage/home/hcoda1/3/ntian30/research/carbon/CxH_vib/CH3_calc/ads_slab/CH3NHNH2_a/out_0019/pw.inp
Warning: card &CELL ignored
Warning: card   CELL_DYNAMICS='IPI', ignored
Warning: card / ignored

     Current dimensions of program PWSCF are:
     Max number of different atomic species (ntypx) = 10
     Max number of k-points (npk) =  40000
     Max angular momentum in pseudopotentials (lmaxx) =  3
     Presently no symmetry can be used with electric field

     Message from routine cell_base_init:
     DEPRECATED: use true lattice parameter, not A to a.u. conversion factor

     IMPORTANT: XC functional enforced from input :
     Exchange-correlation= BEEF-VDW
                           (   1   4  43  14   2   0   0)
     Any further DFT definition will be discarded
     Please, verify this is what you really want

  @ DRIVER MODE: Connecting to
 qe_1139763_2767398.sched-torque.pace.gatech.eduq9ar2acm_scratch
  using UNIX socket
  @ DRIVER MODE: Message from server: STATUS
  @ DRIVER MODE: Message from server: INIT
  @ DRIVER MODE: Receiving replica           0          -1
  @ DRIVER MODE: Receiving encoded integer          25
  @ DRIVER MODE:  SCF:  T  FORCE:  T  STRESS:  F  VC:  F  ENSEMBLE:  F
  @ DRIVER MODE:  SCF:  T  FORCE:  T  STRESS:  F  VC:  F  ENSEMBLE:  F

     Using Slab Decomposition

     bravais-lattice index     =            0
     lattice parameter (alat)  =       1.8897  a.u.
     unit-cell volume          =    6658.9804 (a.u.)^3
     number of atoms/cell      =           56
     number of atomic types    =            5
     number of electrons       =       398.00
     number of Kohn-Sham states=          209
     kinetic-energy cutoff     =      29.3995  Ry
     charge density cutoff     =     293.9946  Ry
     scf convergence threshold =      7.3E-08
     mixing beta               =       0.0500
     number of iterations used =            8  plain     mixing
     Exchange-correlation= BEEF-VDW
                           (   1   4  43  14   2   0   0)

     celldm(1)=   1.889726  celldm(2)=   0.000000  celldm(3)=   0.000000
     celldm(4)=   0.000000  celldm(5)=   0.000000  celldm(6)=   0.000000

     crystal axes: (cart. coord. in units of alat)
               a(1) = (   6.579727   0.000000   0.000000 )
               a(2) = (  -0.000775   5.961596   0.000000 )
               a(3) = (   0.000000   0.000000  25.155947 )

     reciprocal axes: (cart. coord. in units 2 pi/alat)
               b(1) = (  0.151982  0.000020  0.000000 )
               b(2) = (  0.000000  0.167740  0.000000 )
               b(3) = (  0.000000  0.000000  0.039752 )

     PseudoPot. # 1 for Ti read from file:
     /storage/coda1/p-amedford6/0/shared/rich_project_chbe-medford/medford-share/data/pseudos_module/espresso/nninc/pbe/van/Ti.UPF
     MD5 check sum: 8e4df49b7f0d34bbd5052bf3f5ea0213
     Pseudo is Ultrasoft, Zval = 12.0
     Generated by new atomic code, or converted to UPF format
     Using radial grid of  851 points,  6 beta functions with:
                l(1) =   0
                l(2) =   0
                l(3) =   1
                l(4) =   1
                l(5) =   2
                l(6) =   2
     Q(r) pseudized with  8 coefficients,  rinner =    1.000   1.000   1.000
                                                       1.000   1.000

     PseudoPot. # 2 for O  read from file:
     /storage/coda1/p-amedford6/0/shared/rich_project_chbe-medford/medford-share/data/pseudos_module/espresso/nninc/pbe/van/O.UPF
     MD5 check sum: 78c19812648e8988a0fe644b0f25305e
     Pseudo is Ultrasoft, Zval =  6.0
     Generated by new atomic code, or converted to UPF format
     Using radial grid of  737 points,  4 beta functions with:
                l(1) =   0
                l(2) =   0
                l(3) =   1
                l(4) =   1
     Q(r) pseudized with  8 coefficients,  rinner =    0.800   0.800   0.800

     PseudoPot. # 3 for N  read from file:
     /storage/coda1/p-amedford6/0/shared/rich_project_chbe-medford/medford-share/data/pseudos_module/espresso/nninc/pbe/van/N.UPF
     MD5 check sum: 90d10febe142ad51ac9d5be1deb811c4
     Pseudo is Ultrasoft, Zval =  5.0
     Generated by new atomic code, or converted to UPF format
     Using radial grid of  729 points,  4 beta functions with:
                l(1) =   0
                l(2) =   0
                l(3) =   1
                l(4) =   1
     Q(r) pseudized with  8 coefficients,  rinner =    0.800   0.800   0.800

     PseudoPot. # 4 for C  read from file:
     /storage/coda1/p-amedford6/0/shared/rich_project_chbe-medford/medford-share/data/pseudos_module/espresso/nninc/pbe/van/C.UPF
     MD5 check sum: 1a69bf6b8db32088f5b2163dbdb77a27
     Pseudo is Ultrasoft, Zval =  4.0
     Generated by new atomic code, or converted to UPF format
     Using radial grid of  721 points,  4 beta functions with:
                l(1) =   0
                l(2) =   0
                l(3) =   1
                l(4) =   1
     Q(r) pseudized with  8 coefficients,  rinner =    0.800   0.800   0.800

     PseudoPot. # 5 for H  read from file:
     /storage/coda1/p-amedford6/0/shared/rich_project_chbe-medford/medford-share/data/pseudos_module/espresso/nninc/pbe/van/H.UPF
     MD5 check sum: b5ee9d7bfd3a09ee7748110bda690ff7
     Pseudo is Ultrasoft, Zval =  1.0
     Generated by new atomic code, or converted to UPF format
     Using radial grid of  615 points,  1 beta functions with:
                l(1) =   0
     Q(r) pseudized with  8 coefficients,  rinner =    0.800

     atomic species   valence    mass     pseudopotential
        Ti1           12.00    47.86700     Ti( 1.00)
        O1             6.00    15.99900     O ( 1.00)
        N1             5.00    14.00700     N ( 1.00)
        C1             4.00    12.01100     C ( 1.00)
        H1             1.00     1.00800     H ( 1.00)

     No symmetry found

   Cartesian axes

     site n.     atom                  positions (alat units)
         1           Ti1 tau(   1) = (   0.0004258   2.9801865   6.0000000  )
         2           Ti1 tau(   2) = (   3.2906075   1.4906267   6.0002472  )
         3           O1  tau(   3) = (   0.0006271   0.0005054   7.9858123  )
         4           O1  tau(   4) = (   3.2906025   0.0005020   7.3038282  )
         5           O1  tau(   5) = (   4.5942328   1.4918067   9.2879030  )
         6           O1  tau(   6) = (   1.9868534   1.4903216   9.2879459  )
         7           Ti1 tau(   7) = (   3.2907910   2.8959150   9.1758416  )
         8           Ti1 tau(   8) = (   0.0015273   1.4827037   9.2680791  )
         9           O1  tau(   9) = (   3.2714441   0.0289406  11.3813764  )
        10           O1  tau(  10) = (   0.0116148   5.9584955  10.6183126  )
        11           O1  tau(  11) = (   1.2692032   1.5162281  12.7122965  )
        12           O1  tau(  12) = (   5.2779133   1.5159715  12.6811497  )
        13           Ti1 tau(  13) = (   6.5579218   3.0031650  12.5037829  )
        14           Ti1 tau(  14) = (   3.2791490   1.5128154  12.5375672  )
        15           O1  tau(  15) = (   6.5208524   5.8954130  14.6845636  )
        16           O1  tau(  16) = (   3.2849572   0.0099931  14.0031570  )
        17           O1  tau(  17) = (   4.4884262   1.5607690  16.1641467  )
        18           O1  tau(  18) = (   1.9729656   1.5430890  16.0903287  )
        19           Ti1 tau(  19) = (   3.2372663   3.0309179  15.7728032  )
        20           Ti1 tau(  20) = (   6.5553692   1.3539605  15.8053163  )
        21           O1  tau(  21) = (   3.2904802   0.0005063   4.7018136  )
        22           O1  tau(  22) = (   6.5123495   0.2165906  17.2215032  )
        23           O1  tau(  23) = (   1.3043587   1.4918075   6.0039043  )
        24           O1  tau(  24) = (   5.2767064   1.4903225   6.0039473  )
        25           Ti1 tau(  25) = (   0.0000382   5.9609847   6.0000000  )
        26           Ti1 tau(  26) = (   3.2902200   4.4714249   6.0002472  )
        27           O1  tau(  27) = (   0.0002396   2.9813036   7.9858123  )
        28           O1  tau(  28) = (   3.2902150   2.9813002   7.3038282  )
        29           O1  tau(  29) = (   4.5938453   4.4726049   9.2879030  )
        30           O1  tau(  30) = (   1.9864658   4.4711199   9.2879459  )
        31           Ti1 tau(  31) = (   3.2891106   5.8743827   9.1763621  )
        32           Ti1 tau(  32) = (   0.0006254   4.4649316   9.2693709  )
        33           O1  tau(  33) = (   3.2699379   2.9911670  11.3762017  )
        34           O1  tau(  34) = (   0.0092240   2.9805883  10.6323155  )
        35           O1  tau(  35) = (   1.2730946   4.4825978  12.6662957  )
        36           O1  tau(  36) = (   5.2742290   4.4829497  12.6320226  )
        37           Ti1 tau(  37) = (   6.5783117   0.0079037  12.5026730  )
        38           Ti1 tau(  38) = (   3.2784283   4.4905194  12.5286134  )
        39           O1  tau(  39) = (   6.5033290   3.0824797  14.9867588  )
        40           O1  tau(  40) = (   3.2824109   3.0350539  13.9807796  )
        41           O1  tau(  41) = (   4.4804250   4.5097483  16.2808085  )
        42           O1  tau(  42) = (   1.9642025   4.5165872  16.2225063  )
        43           Ti1 tau(  43) = (   3.2609991   0.0502580  15.7998297  )
        44           Ti1 tau(  44) = (   6.5501253   4.5826093  16.0954727  )
        45           O1  tau(  45) = (   3.2900926   2.9813045   4.7018136  )
        46           O1  tau(  46) = (   1.3039711   4.4726057   6.0039043  )
        47           O1  tau(  47) = (   5.2763189   4.4711207   6.0039473  )
        48           N1  tau(  48) = (   0.8845045   3.2634721  19.1145209  )
        49           N1  tau(  49) = (   6.3504243   3.3997271  18.1887592  )
        50           C1  tau(  50) = (   1.2927081   4.5631590  19.6429350  )
        51           H1  tau(  51) = (   0.4558632   5.1229972  20.1056819  )
        52           H1  tau(  52) = (   2.0600825   4.3818216  20.3958833  )
        53           H1  tau(  53) = (   1.7018904   5.1738364  18.8453250  )
        54           H1  tau(  54) = (   0.5628611   2.6866381  19.8888112  )
        55           H1  tau(  55) = (   5.6051421   3.9827062  18.5884547  )
        56           H1  tau(  56) = (   5.9567982   2.4624696  18.0937858  )

     number of k points=    10  Fermi-Dirac smearing, width (Ry)=  0.0073
                       cart. coord. in units 2pi/alat
        k(    1) = (   0.0000000   0.0000000   0.0000000), wk =   0.1250000
        k(    2) = (   0.0000000   0.0419351   0.0000000), wk =   0.2500000
        k(    3) = (   0.0000000  -0.0838702   0.0000000), wk =   0.1250000
        k(    4) = (   0.0379955   0.0000049   0.0000000), wk =   0.2500000
        k(    5) = (   0.0379955   0.0419400   0.0000000), wk =   0.2500000
        k(    6) = (   0.0379955  -0.0838652   0.0000000), wk =   0.2500000
        k(    7) = (   0.0379955  -0.0419301   0.0000000), wk =   0.2500000
        k(    8) = (  -0.0759910  -0.0000099   0.0000000), wk =   0.1250000
        k(    9) = (  -0.0759910   0.0419252   0.0000000), wk =   0.2500000
        k(   10) = (  -0.0759910  -0.0838800   0.0000000), wk =   0.1250000

     Initial potential from superposition of free atoms

     starting charge  381.99914, renormalised to  398.00000

     negative rho (up, down):  1.416E-02 0.000E+00

     %%%%%%%%%%%%%%%%%%%%%%%%%%%%%%%%%%%%%%%%%%%%%%%%%%%%%%%%%%%%%%%%%%%%%%%%
     %                                                                      %
     % You are using vdW-DF, which was implemented by the Thonhauser group. %
     % Please cite the following two papers that made this development      %
     % possible and the two reviews that describe the various versions:     %
     %                                                                      %
     %   T. Thonhauser et al., PRL 115, 136402 (2015).                      %
     %   T. Thonhauser et al., PRB 76, 125112 (2007).                       %
     %   K. Berland et al., Rep. Prog. Phys. 78, 066501 (2015).             %
     %   D.C. Langreth et al., J. Phys.: Condens. Matter 21, 084203 (2009). %
     %                                                                      %
     %                                                                      %
     % If you are calculating the stress with vdW-DF, please also cite:     %
     %                                                                      %
     %   R. Sabatini et al., J. Phys.: Condens. Matter 24, 424209 (2012).   %
     %                                                                      %
     %%%%%%%%%%%%%%%%%%%%%%%%%%%%%%%%%%%%%%%%%%%%%%%%%%%%%%%%%%%%%%%%%%%%%%%%

     Adding external electric field

     Computed dipole along edir(3) :
        Dipole              -11.7171 Ry au,        -29.7818 Debye
        Dipole field         -0.0221 Ry au,

        Potential amp.        2.0497 Ry
        Total length         46.3494 bohr

     Starting wfcs are  302 atomic wfcs
  @ DRIVER MODE: Message from server: STATUS
  @ DRIVER MODE: Message from server: POSDATA
  @ DRIVER MODE: Reading and sharing cell
  @ DRIVER MODE: Reading and sharing positions
  @ DRIVER MODE: Received positions

     Self-consistent Calculation

     iteration #  1     ecut=    29.40 Ry     beta= 0.05
     Davidson diagonalization with overlap
     c_bands:  3 eigenvalues not converged
     c_bands:  1 eigenvalues not converged
     c_bands:  1 eigenvalues not converged
     c_bands:  4 eigenvalues not converged
     c_bands:  1 eigenvalues not converged
     c_bands:  4 eigenvalues not converged
     c_bands:  5 eigenvalues not converged
     c_bands:  2 eigenvalues not converged
     ethr =  1.00E-05,  avg # of iterations = 21.9

[...]

     total energy              =   -2424.57871302 Ry
     estimated scf accuracy    <    5830.27650218 Ry

     iteration #  2     ecut=    29.40 Ry     beta= 0.05
     Davidson diagonalization with overlap
     ethr =  1.00E-02,  avg # of iterations = 22.9

[...]

     iteration # 55     ecut=    29.40 Ry     beta= 0.05
     Davidson diagonalization with overlap
     c_bands:  1 eigenvalues not converged
     ethr =  3.72E-09,  avg # of iterations = 15.5

[...]

     total energy              =   -2942.84384630 Ry
     estimated scf accuracy    <       0.00000016 Ry

     iteration # 65     ecut=    29.40 Ry     beta= 0.05
     Davidson diagonalization with overlap
     ethr =  4.06E-11,  avg # of iterations =  4.9

     negative rho (up, down):  1.511E-02 0.000E+00

     Adding external electric field

     Computed dipole along edir(3) :
        Dipole                1.4937 Ry au,          3.7967 Debye
        Dipole field          0.0028 Ry au,

        Potential amp.       -0.2613 Ry
        Total length         46.3494 bohr

     End of self-consistent calculation

          k = 0.0000 0.0000 0.0000 ( 18029 PWs)   bands (ev):

   -55.2023 -55.1652 -55.1545 -55.1256 -55.1204 -55.0837 -55.0806 -55.0457
   -55.0264 -55.0135 -54.9921 -54.9873 -54.9536 -54.8567 -54.1869 -54.1528
   -31.7686 -31.6524 -31.6475 -31.5687 -31.5157 -31.5146 -31.5119 -31.4933
   -31.4434 -31.4399 -31.4120 -31.4098 -31.3994 -31.3826 -31.3695 -31.3639
   -31.3567 -31.3471 -31.3397 -31.3229 -31.3071 -31.3044 -31.2726 -31.2688
   -31.2581 -31.2572 -31.2385 -31.2291 -31.2117 -31.2110 -31.2068 -31.1861
   -31.1860 -31.1826 -31.1757 -31.1732 -31.1398 -31.1302 -31.1156 -31.0987
   -31.0699 -31.0506 -30.5964 -30.5018 -30.4798 -30.4127 -30.3259 -30.2150
   -17.9609 -16.0359 -15.7735 -15.6282 -15.5160 -15.4046 -15.2852 -15.2544
   -15.1346 -15.0585 -14.9246 -14.8982 -14.8760 -14.8523 -14.8404 -14.8279
   -14.7520 -14.7455 -14.7296 -14.7012 -14.6993 -14.6541 -14.6444 -14.6049
   -14.5800 -14.5589 -14.4542 -14.3659 -14.2919 -14.0751 -13.4399 -12.6897
   -12.5722  -9.6958  -6.5969  -6.0890  -4.5698  -3.3742  -3.2579  -3.2261
    -3.1393  -3.1060  -3.0967  -3.0026  -2.9509  -2.7927  -2.6503  -2.6245
    -2.4936  -2.4185  -2.4021  -2.3778  -2.2480  -2.2127  -2.1617  -2.1226
    -2.0635  -2.0331  -2.0092  -1.9935  -1.9625  -1.9533  -1.9282  -1.8391
    -1.7796  -1.6864  -1.6691  -1.6019  -1.5937  -1.5612  -1.5401  -1.4949
    -1.4845  -1.4348  -1.4276  -1.4151  -1.3951  -1.2664  -1.2236  -1.1138
    -1.0526  -0.9651  -0.8442  -0.8040  -0.7901  -0.6994  -0.6905  -0.6586
    -0.5820  -0.5789  -0.5482  -0.4400  -0.3751  -0.3115  -0.2526  -0.2262
    -0.1930  -0.1156  -0.0247   0.0114   0.0281   0.0513   0.1514   0.1864
     0.2420   0.3089   0.3204   0.3337   0.4136   0.4545   0.5297   0.5663
     0.5840   0.6727   0.6992   0.7269   0.7274   0.7652   0.7795   0.8191
     0.8679   0.8947   0.9811   1.0443   1.1022   1.3468   1.3994   1.4054
     1.7316   1.7393   1.8357   2.0192   2.4122   2.4606   3.8940   3.9629
     4.0385   4.0435   4.0660   4.1298   4.3678   4.3908   4.3997   4.4019
     4.4286

[...]

          k = 0.0380-0.0419 0.0000 ( 17876 PWs)   bands (ev):

[...]

          k =-0.0760-0.0000 0.0000 ( 17886 PWs)   bands (ev):

[...]

          k =-0.0760-0.0839 0.0000 ( 17948 PWs)   bands (ev):

   -55.1885 -55.1788 -55.1376 -55.1372 -55.1243 -55.0793 -55.0662 -55.0601
   -55.0178 -55.0106 -55.0075 -54.9707 -54.9703 -54.8578 -54.1700 -54.1696
   -31.5767 -31.5758 -31.5690 -31.4843 -31.4627 -31.4624 -31.4594 -31.4287
   -31.4285 -31.4132 -31.4024 -31.4008 -31.3921 -31.3663 -31.3571 -31.3441
   -31.3431 -31.3393 -31.3361 -31.3305 -31.3285 -31.3225 -31.2836 -31.2803
   -31.2801 -31.2787 -31.2608 -31.2595 -31.2573 -31.2569 -31.2521 -31.2436
   -31.2407 -31.2237 -31.2204 -31.2046 -31.2037 -31.2009 -31.1514 -31.1511
   -31.1264 -31.0744 -30.4926 -30.4923 -30.4090 -30.4087 -30.3694 -30.3692
   -17.9577 -15.5608 -15.4309 -15.4018 -15.2453 -15.2091 -15.1758 -15.1625
   -15.0416 -15.0044 -14.9797 -14.9703 -14.9527 -14.9123 -14.9066 -14.8998
   -14.8292 -14.8100 -14.8057 -14.7834 -14.7252 -14.7162 -14.7123 -14.7048
   -14.6542 -14.6505 -14.5701 -14.5598 -14.5566 -14.3765 -13.4433 -12.6737
   -12.6736  -9.7118  -6.5812  -6.0892  -4.5484  -3.2305  -2.9594  -2.6933
    -2.6884  -2.6604  -2.4592  -2.3966  -2.3659  -2.3603  -2.2630  -2.2264
    -2.2020  -2.1985  -2.1330  -2.1184  -2.0875  -2.0576  -2.0413  -2.0274
    -2.0116  -1.9975  -1.9723  -1.9347  -1.9267  -1.9184  -1.8865  -1.8649
    -1.8419  -1.8195  -1.8061  -1.7877  -1.7617  -1.7392  -1.6025  -1.5708
    -1.5006  -1.4572  -1.4140  -1.4097  -1.3380  -1.3016  -1.2515  -1.2392
    -1.2222  -1.0822  -1.0241  -0.9732  -0.9532  -0.9422  -0.8133  -0.7991
    -0.7260  -0.7084  -0.6921  -0.6167  -0.5666  -0.5283  -0.5147  -0.4214
    -0.4059  -0.3396  -0.2374  -0.2148  -0.2009  -0.1601  -0.1571  -0.1099
    -0.1028  -0.0187   0.0255   0.0606   0.0714   0.1071   0.3001   0.3160
     0.3261   0.4791   0.4951   0.6365   0.6801   0.7466   0.8054   0.8443
     0.9060   0.9432   1.0544   1.0861   1.1011   1.1091   1.1708   1.1827
     1.2455   1.2562   2.1918   2.1924   2.2804   2.2807   4.0400   4.1474
     4.1551   4.1967   4.3166   4.3470   4.4091   4.4364   4.4780   4.4812
     4.5416

     the Fermi energy is     3.9574 ev

!    total energy              =   -2942.84388178 Ry
     estimated scf accuracy    <       0.00000007 Ry
     smearing contrib. (-TS)   =      -0.03707558 Ry
     internal energy E=F+TS    =   -2942.80680620 Ry

     The total energy is F=E-TS. E is the sum of the following terms:
     one-electron contribution =  -23366.60707397 Ry
     hartree contribution      =   11777.46506625 Ry
     xc contribution           =    -487.73536891 Ry
     ewald contribution        =    9134.06635982 Ry
     electric field correction =       0.00421061 Ry

     convergence has been achieved in  65 iterations

     Forces acting on atoms (cartesian axes, Ry/au):

     atom    1 type  1   force =     0.00018087   -0.00032869    0.09333460
     atom    2 type  1   force =    -0.00006382   -0.00042022   -0.17821098
     atom    3 type  2   force =     0.00002724   -0.00031838   -0.02003448
     atom    4 type  2   force =     0.00002185   -0.00183155    0.05923644
     atom    5 type  2   force =    -0.01046891   -0.00026312    0.00863943
     atom    6 type  2   force =     0.01148354    0.00040639    0.00645074
     atom    7 type  1   force =    -0.00100159    0.00213390   -0.01398342
     atom    8 type  1   force =     0.00081790   -0.00094579   -0.00574362
     atom    9 type  2   force =    -0.00009920    0.00012355   -0.00000540
     atom   10 type  2   force =    -0.00185529    0.00411630    0.00025928
     atom   11 type  2   force =    -0.00006226   -0.00064265    0.00027836
     atom   12 type  2   force =    -0.00001519   -0.00041307    0.00053573
     atom   13 type  1   force =     0.00004571    0.00008790    0.00031147
     atom   14 type  1   force =    -0.00037977   -0.00000091    0.00007166
     atom   15 type  2   force =     0.00051968    0.00022703   -0.00033393
     atom   16 type  2   force =     0.00032133   -0.00035370   -0.00007034
     atom   17 type  2   force =    -0.00058956   -0.00001665   -0.00003339
     atom   18 type  2   force =     0.00054834   -0.00019209   -0.00000138
     atom   19 type  1   force =    -0.00002079   -0.00055142    0.00020724
     atom   20 type  1   force =     0.00069526    0.00006798    0.00092665
     atom   21 type  2   force =     0.00012521   -0.00012317    0.10400703
     atom   22 type  2   force =    -0.00039051    0.00020322   -0.00034571
     atom   23 type  2   force =    -0.07026804   -0.00021697   -0.02685004
     atom   24 type  2   force =     0.07025888    0.00021938   -0.02687606
     atom   25 type  1   force =     0.00007716   -0.00032464    0.09265127
     atom   26 type  1   force =    -0.00003753   -0.00059445   -0.17832429
     atom   27 type  2   force =     0.00013006   -0.00016508   -0.01908878
     atom   28 type  2   force =     0.00005073   -0.00163331    0.05859495
     atom   29 type  2   force =    -0.01107237   -0.00055791    0.00931858
     atom   30 type  2   force =     0.01199110   -0.00002149    0.00720746
     atom   31 type  1   force =    -0.00093150    0.00647554   -0.01505145
     atom   32 type  1   force =     0.00086220    0.00101266   -0.00588468
     atom   33 type  2   force =     0.00017489   -0.00056978   -0.00003795
     atom   34 type  2   force =    -0.00185937   -0.00052266   -0.00050089
     atom   35 type  2   force =    -0.00044267    0.00006233   -0.00043938
     atom   36 type  2   force =     0.00034180   -0.00011675    0.00017756
     atom   37 type  1   force =    -0.00051323   -0.00024953    0.00018631
     atom   38 type  1   force =    -0.00004772   -0.00015230   -0.00009579
     atom   39 type  2   force =     0.00029851   -0.00059273   -0.00000858
     atom   40 type  2   force =    -0.00060357   -0.00051078    0.00025258
     atom   41 type  2   force =    -0.00023655   -0.00073745   -0.00070004
     atom   42 type  2   force =     0.00046902   -0.00009137   -0.00010637
     atom   43 type  1   force =     0.00023663   -0.00020095   -0.00021544
     atom   44 type  1   force =     0.00052489    0.00008308    0.00081698
     atom   45 type  2   force =     0.00013752   -0.00014231    0.10396764
     atom   46 type  2   force =    -0.07026551   -0.00016049   -0.02682373
     atom   47 type  2   force =     0.07023905    0.00025829   -0.02688138
     atom   48 type  3   force =     0.00134857    0.00131621   -0.00074495
     atom   49 type  3   force =     0.00007952   -0.00107416    0.00006016
     atom   50 type  4   force =    -0.00651668    0.00122234    0.00269327
     atom   51 type  5   force =     0.00651975   -0.00184908   -0.00225058
     atom   52 type  5   force =    -0.00024099    0.00010130    0.00018843
     atom   53 type  5   force =     0.00041185    0.00068147   -0.00107446
     atom   54 type  5   force =     0.00003246   -0.00172495    0.00066795
     atom   55 type  5   force =     0.00005145   -0.00044611   -0.00007115
     atom   56 type  5   force =    -0.00104036    0.00025779   -0.00025310

     Total force =     0.366441     Total SCF correction =     0.001023
  @ DRIVER MODE: Message from server: STATUS
  @ DRIVER MODE: Message from server: GETFORCE
  @ DRIVER MODE: Returning v,forces,stress,ensemble

     Writing output data file ./calc.save/
  @ DRIVER MODE: Message from server: EXIT
  @ DRIVE MODE: Exiting

     General routines

     Parallel routines

   This run was terminated on:   4:21:26   9Sep2021

   JOB DONE.