     Program PWSCF v.6.7GPU starts on  9Sep2021 at 10:48:57

     R & G space division:  proc/nbgrp/npool/nimage =      10
     Reading input from /storage/home/hcoda1/3/ntian30/research/carbon/CxH_vib/CH3_calc/ads_slab/CH3NHNH_a/out_0041/pw.inp
Warning: card &CELL ignored
Warning: card   CELL_DYNAMICS='IPI', ignored
Warning: card / ignored

     Current dimensions of program PWSCF are:
     Max number of different atomic species (ntypx) = 10
     Max number of k-points (npk) =  40000
     Max angular momentum in pseudopotentials (lmaxx) =  3
     Presently no symmetry can be used with electric field

     Message from routine cell_base_init:
     DEPRECATED: use true lattice parameter, not A to a.u. conversion factor

     IMPORTANT: XC functional enforced from input :
     Exchange-correlation= BEEF-VDW
                           (   1   4  43  14   2   0   0)
     Any further DFT definition will be discarded
     Please, verify this is what you really want

  @ DRIVER MODE: Connecting to
 qe_1139763_2767401.sched-torque.pace.gatech.edu79mdacn6_scratch
  using UNIX socket
  @ DRIVER MODE: Message from server: STATUS
  @ DRIVER MODE: Message from server: INIT
  @ DRIVER MODE: Receiving replica           0          -1
  @ DRIVER MODE: Receiving encoded integer          25
  @ DRIVER MODE:  SCF:  T  FORCE:  T  STRESS:  F  VC:  F  ENSEMBLE:  F
  @ DRIVER MODE:  SCF:  T  FORCE:  T  STRESS:  F  VC:  F  ENSEMBLE:  F

     Using Slab Decomposition

     bravais-lattice index     =            0
     lattice parameter (alat)  =       1.8897  a.u.
     unit-cell volume          =    6658.9804 (a.u.)^3
     number of atoms/cell      =           55
     number of atomic types    =            5
     number of electrons       =       397.00
     number of Kohn-Sham states=          208
     kinetic-energy cutoff     =      29.3995  Ry
     charge density cutoff     =     293.9946  Ry
     scf convergence threshold =      7.3E-08
     mixing beta               =       0.0500
     number of iterations used =            8  plain     mixing
     Exchange-correlation= BEEF-VDW
                           (   1   4  43  14   2   0   0)

     celldm(1)=   1.889726  celldm(2)=   0.000000  celldm(3)=   0.000000
     celldm(4)=   0.000000  celldm(5)=   0.000000  celldm(6)=   0.000000

     crystal axes: (cart. coord. in units of alat)
               a(1) = (   6.579727   0.000000   0.000000 )
               a(2) = (  -0.000775   5.961596   0.000000 )
               a(3) = (   0.000000   0.000000  25.155947 )

     reciprocal axes: (cart. coord. in units 2 pi/alat)
               b(1) = (  0.151982  0.000020  0.000000 )
               b(2) = (  0.000000  0.167740  0.000000 )
               b(3) = (  0.000000  0.000000  0.039752 )

     PseudoPot. # 1 for Ti read from file:
     /storage/coda1/p-amedford6/0/shared/rich_project_chbe-medford/medford-share/data/pseudos_module/espresso/nninc/pbe/van/Ti.UPF
     MD5 check sum: 8e4df49b7f0d34bbd5052bf3f5ea0213
     Pseudo is Ultrasoft, Zval = 12.0
     Generated by new atomic code, or converted to UPF format
     Using radial grid of  851 points,  6 beta functions with:
                l(1) =   0
                l(2) =   0
                l(3) =   1
                l(4) =   1
                l(5) =   2
                l(6) =   2
     Q(r) pseudized with  8 coefficients,  rinner =    1.000   1.000   1.000
                                                       1.000   1.000

     PseudoPot. # 2 for O  read from file:
     /storage/coda1/p-amedford6/0/shared/rich_project_chbe-medford/medford-share/data/pseudos_module/espresso/nninc/pbe/van/O.UPF
     MD5 check sum: 78c19812648e8988a0fe644b0f25305e
     Pseudo is Ultrasoft, Zval =  6.0
     Generated by new atomic code, or converted to UPF format
     Using radial grid of  737 points,  4 beta functions with:
                l(1) =   0
                l(2) =   0
                l(3) =   1
                l(4) =   1
     Q(r) pseudized with  8 coefficients,  rinner =    0.800   0.800   0.800

     PseudoPot. # 3 for N  read from file:
     /storage/coda1/p-amedford6/0/shared/rich_project_chbe-medford/medford-share/data/pseudos_module/espresso/nninc/pbe/van/N.UPF
     MD5 check sum: 90d10febe142ad51ac9d5be1deb811c4
     Pseudo is Ultrasoft, Zval =  5.0
     Generated by new atomic code, or converted to UPF format
     Using radial grid of  729 points,  4 beta functions with:
                l(1) =   0
                l(2) =   0
                l(3) =   1
                l(4) =   1
     Q(r) pseudized with  8 coefficients,  rinner =    0.800   0.800   0.800

     PseudoPot. # 4 for C  read from file:
     /storage/coda1/p-amedford6/0/shared/rich_project_chbe-medford/medford-share/data/pseudos_module/espresso/nninc/pbe/van/C.UPF
     MD5 check sum: 1a69bf6b8db32088f5b2163dbdb77a27
     Pseudo is Ultrasoft, Zval =  4.0
     Generated by new atomic code, or converted to UPF format
     Using radial grid of  721 points,  4 beta functions with:
                l(1) =   0
                l(2) =   0
                l(3) =   1
                l(4) =   1
     Q(r) pseudized with  8 coefficients,  rinner =    0.800   0.800   0.800

     PseudoPot. # 5 for H  read from file:
     /storage/coda1/p-amedford6/0/shared/rich_project_chbe-medford/medford-share/data/pseudos_module/espresso/nninc/pbe/van/H.UPF
     MD5 check sum: b5ee9d7bfd3a09ee7748110bda690ff7
     Pseudo is Ultrasoft, Zval =  1.0
     Generated by new atomic code, or converted to UPF format
     Using radial grid of  615 points,  1 beta functions with:
                l(1) =   0
     Q(r) pseudized with  8 coefficients,  rinner =    0.800

     atomic species   valence    mass     pseudopotential
        Ti1           12.00    47.86700     Ti( 1.00)
        O1             6.00    15.99900     O ( 1.00)
        N1             5.00    14.00700     N ( 1.00)
        C1             4.00    12.01100     C ( 1.00)
        H1             1.00     1.00800     H ( 1.00)

     No symmetry found

   Cartesian axes

     site n.     atom                  positions (alat units)
         1           Ti1 tau(   1) = (   0.0004258   2.9801865   6.0000000  )
         2           Ti1 tau(   2) = (   3.2906075   1.4906267   6.0002472  )
         3           O1  tau(   3) = (   0.0006271   0.0005054   7.9858123  )
         4           O1  tau(   4) = (   3.2906025   0.0005020   7.3038282  )
         5           O1  tau(   5) = (   4.5942328   1.4918067   9.2879030  )
         6           O1  tau(   6) = (   1.9868534   1.4903216   9.2879459  )
         7           Ti1 tau(   7) = (   3.2907910   2.8959150   9.1758416  )
         8           Ti1 tau(   8) = (   0.0015273   1.4827037   9.2680791  )
         9           O1  tau(   9) = (   3.2830128   5.9597860  11.3344455  )
        10           O1  tau(  10) = (   0.0116148   5.9584955  10.6183126  )
        11           O1  tau(  11) = (   1.2885291   1.4855062  12.6376555  )
        12           O1  tau(  12) = (   5.2724004   1.4911608  12.5936499  )
        13           Ti1 tau(  13) = (   0.0410009   3.0319447  12.6084003  )
        14           Ti1 tau(  14) = (   3.3739341   1.4916561  12.4823474  )
        15           O1  tau(  15) = (   6.4862162   0.0153916  14.6455093  )
        16           O1  tau(  16) = (   3.3439542   5.9611638  13.9051029  )
        17           O1  tau(  17) = (   4.4933269   1.5483200  16.1231154  )
        18           O1  tau(  18) = (   1.9964937   1.4536654  15.9127221  )
        19           Ti1 tau(  19) = (   3.1412959   3.0017366  15.7441667  )
        20           Ti1 tau(  20) = (   6.4823597   1.5369342  15.8006069  )
        21           O1  tau(  21) = (   3.2904802   0.0005063   4.7018136  )
        22           O1  tau(  22) = (   6.5709111   0.0522475  17.2082838  )
        23           O1  tau(  23) = (   1.3043587   1.4918075   6.0039043  )
        24           O1  tau(  24) = (   5.2767064   1.4903225   6.0039473  )
        25           Ti1 tau(  25) = (   0.0000382   5.9609847   6.0000000  )
        26           Ti1 tau(  26) = (   3.2902200   4.4714249   6.0002472  )
        27           O1  tau(  27) = (   0.0002396   2.9813036   7.9858123  )
        28           O1  tau(  28) = (   3.2902150   2.9813002   7.3038282  )
        29           O1  tau(  29) = (   4.5938453   4.4726049   9.2879030  )
        30           O1  tau(  30) = (   1.9864658   4.4711199   9.2879459  )
        31           Ti1 tau(  31) = (   3.2891106   5.8743827   9.1763621  )
        32           Ti1 tau(  32) = (   0.0006254   4.4649316   9.2693709  )
        33           O1  tau(  33) = (   3.2833609   2.9822938  11.3349093  )
        34           O1  tau(  34) = (   0.0092240   2.9805883  10.6323155  )
        35           O1  tau(  35) = (   1.2838611   4.4860338  12.6468719  )
        36           O1  tau(  36) = (   5.2760156   4.4607002  12.6015494  )
        37           Ti1 tau(  37) = (   0.0673138   0.0440259  12.5461749  )
        38           Ti1 tau(  38) = (   3.3712377   4.4654930  12.4933830  )
        39           O1  tau(  39) = (   6.5217465   2.9589972  14.6412948  )
        40           O1  tau(  40) = (   3.2809526   2.9956502  13.9333893  )
        41           O1  tau(  41) = (   4.4911989   4.4583117  16.1637052  )
        42           O1  tau(  42) = (   1.9937212   4.5427850  15.9740970  )
        43           Ti1 tau(  43) = (   3.2955853   0.0167752  15.6963065  )
        44           Ti1 tau(  44) = (   6.5082246   4.6715011  16.1069148  )
        45           O1  tau(  45) = (   3.2900926   2.9813045   4.7018136  )
        46           O1  tau(  46) = (   1.3039711   4.4726057   6.0039043  )
        47           O1  tau(  47) = (   5.2763189   4.4711207   6.0039473  )
        48           N1  tau(  48) = (   1.3945086   2.8365607  18.1849301  )
        49           N1  tau(  49) = (   0.1777896   2.9650562  17.4211889  )
        50           C1  tau(  50) = (   1.4118813   3.7128676  19.3556819  )
        51           H1  tau(  51) = (   0.5171711   3.5996102  19.9880000  )
        52           H1  tau(  52) = (   2.2935099   3.4681107  19.9517681  )
        53           H1  tau(  53) = (   1.4703795   4.7520035  19.0319817  )
        54           H1  tau(  54) = (   1.4579882   1.8621926  18.4723179  )
        55           H1  tau(  55) = (   5.9558665   2.8747675  18.0551794  )

     number of k points=    10  Fermi-Dirac smearing, width (Ry)=  0.0073
                       cart. coord. in units 2pi/alat
        k(    1) = (   0.0000000   0.0000000   0.0000000), wk =   0.1250000
        k(    2) = (   0.0000000   0.0419351   0.0000000), wk =   0.2500000
        k(    3) = (   0.0000000  -0.0838702   0.0000000), wk =   0.1250000
        k(    4) = (   0.0379955   0.0000049   0.0000000), wk =   0.2500000
        k(    5) = (   0.0379955   0.0419400   0.0000000), wk =   0.2500000
        k(    6) = (   0.0379955  -0.0838652   0.0000000), wk =   0.2500000
        k(    7) = (   0.0379955  -0.0419301   0.0000000), wk =   0.2500000
        k(    8) = (  -0.0759910  -0.0000099   0.0000000), wk =   0.1250000
        k(    9) = (  -0.0759910   0.0419252   0.0000000), wk =   0.2500000
        k(   10) = (  -0.0759910  -0.0838800   0.0000000), wk =   0.1250000

     Initial potential from superposition of free atoms

     starting charge  380.99914, renormalised to  397.00000

     negative rho (up, down):  1.540E-02 0.000E+00

     %%%%%%%%%%%%%%%%%%%%%%%%%%%%%%%%%%%%%%%%%%%%%%%%%%%%%%%%%%%%%%%%%%%%%%%%
     %                                                                      %
     % You are using vdW-DF, which was implemented by the Thonhauser group. %
     % Please cite the following two papers that made this development      %
     % possible and the two reviews that describe the various versions:     %
     %                                                                      %
     %   T. Thonhauser et al., PRL 115, 136402 (2015).                      %
     %   T. Thonhauser et al., PRB 76, 125112 (2007).                       %
     %   K. Berland et al., Rep. Prog. Phys. 78, 066501 (2015).             %
     %   D.C. Langreth et al., J. Phys.: Condens. Matter 21, 084203 (2009). %
     %                                                                      %
     %                                                                      %
     % If you are calculating the stress with vdW-DF, please also cite:     %
     %                                                                      %
     %   R. Sabatini et al., J. Phys.: Condens. Matter 24, 424209 (2012).   %
     %                                                                      %
     %%%%%%%%%%%%%%%%%%%%%%%%%%%%%%%%%%%%%%%%%%%%%%%%%%%%%%%%%%%%%%%%%%%%%%%%

     Adding external electric field

     Computed dipole along edir(3) :
        Dipole               -9.6172 Ry au,        -24.4445 Debye
        Dipole field         -0.0181 Ry au,

        Potential amp.        1.6824 Ry
        Total length         46.3494 bohr

     Starting wfcs are  301 atomic wfcs
  @ DRIVER MODE: Message from server: STATUS
  @ DRIVER MODE: Message from server: POSDATA
  @ DRIVER MODE: Reading and sharing cell
  @ DRIVER MODE: Reading and sharing positions
  @ DRIVER MODE: Received positions

     Self-consistent Calculation

     iteration #  1     ecut=    29.40 Ry     beta= 0.05
     Davidson diagonalization with overlap
     c_bands:  1 eigenvalues not converged
     c_bands:  1 eigenvalues not converged
     c_bands:  1 eigenvalues not converged
     c_bands:  1 eigenvalues not converged
     c_bands:  1 eigenvalues not converged
     c_bands:  1 eigenvalues not converged
     c_bands:  2 eigenvalues not converged
     ethr =  1.00E-05,  avg # of iterations = 18.8

[...]

     total energy              =   -2533.53143265 Ry
     estimated scf accuracy    <    4539.75409602 Ry

     iteration #  2     ecut=    29.40 Ry     beta= 0.05
     Davidson diagonalization with overlap
     ethr =  1.00E-02,  avg # of iterations = 24.7

[...]

     iteration # 41     ecut=    29.40 Ry     beta= 0.05
     Davidson diagonalization with overlap
     c_bands:  1 eigenvalues not converged
     ethr =  1.40E-08,  avg # of iterations = 10.5

[...]

     total energy              =   -2941.66151848 Ry
     estimated scf accuracy    <       0.00000012 Ry

     iteration # 57     ecut=    29.40 Ry     beta= 0.05
     Davidson diagonalization with overlap
     ethr =  2.71E-11,  avg # of iterations =  6.4

     negative rho (up, down):  1.607E-02 0.000E+00

     Adding external electric field

     Computed dipole along edir(3) :
        Dipole                0.9409 Ry au,          2.3914 Debye
        Dipole field          0.0018 Ry au,

        Potential amp.       -0.1646 Ry
        Total length         46.3494 bohr

     End of self-consistent calculation

          k = 0.0000 0.0000 0.0000 ( 18029 PWs)   bands (ev):

   -55.6876 -55.6704 -55.6535 -55.6337 -55.5933 -55.5391 -55.5319 -55.5020
   -55.4959 -55.4680 -55.4659 -55.4318 -55.2589 -55.0347 -54.6677 -54.6336
   -32.2213 -32.1707 -32.0437 -32.0334 -32.0003 -31.9855 -31.9804 -31.9562
   -31.9316 -31.8995 -31.8974 -31.8910 -31.8479 -31.8398 -31.8259 -31.8240
   -31.8074 -31.7925 -31.7836 -31.7484 -31.7447 -31.7376 -31.7221 -31.7181
   -31.6956 -31.6911 -31.6884 -31.6807 -31.6665 -31.6642 -31.6569 -31.6474
   -31.6420 -31.6324 -31.6189 -31.6095 -31.5780 -31.5093 -31.4654 -31.3011
   -31.2916 -31.2370 -31.0749 -30.9864 -30.9640 -30.8917 -30.8051 -30.6941
   -16.7770 -16.4182 -16.1634 -15.9343 -15.8430 -15.8124 -15.6601 -15.5284
   -15.4189 -15.3374 -15.2526 -15.2334 -15.2264 -15.2158 -15.1893 -15.1835
   -15.1363 -15.1318 -15.1125 -15.0995 -15.0492 -15.0328 -15.0292 -14.9344
   -14.8707 -14.8355 -14.8207 -14.7858 -14.7485 -14.3347 -13.1703 -13.0539
   -11.8047  -8.9947  -5.4289  -4.3770  -3.8418  -3.7895  -3.6454  -3.5951
    -3.5346  -3.4963  -3.3181  -3.2158  -2.9429  -2.8859  -2.8564  -2.8473
    -2.7914  -2.7601  -2.6023  -2.5761  -2.5056  -2.4963  -2.4811  -2.4520
    -2.4435  -2.4366  -2.4004  -2.3769  -2.3485  -2.2441  -2.1047  -2.0952
    -2.0722  -2.0389  -2.0016  -1.9528  -1.9364  -1.9162  -1.8977  -1.8855
    -1.8725  -1.7376  -1.7025  -1.5863  -1.4968  -1.4500  -1.3698  -1.2994
    -1.2691  -1.1589  -1.1190  -1.1063  -1.0926  -1.0817  -0.9819  -0.8762
    -0.8589  -0.8210  -0.7659  -0.7103  -0.6397  -0.5948  -0.5439  -0.4915
    -0.4675  -0.4520  -0.4493  -0.4142  -0.3235  -0.1813  -0.1294  -0.0950
    -0.0729   0.0037   0.0390   0.0950   0.1193   0.1429   0.1789   0.2319
     0.2754   0.2818   0.2953   0.3099   0.3146   0.4889   0.5384   0.5802
     0.6133   0.6596   0.8207   0.8426   0.9645   1.0387   1.1996   1.2799
     1.3543   1.4325   1.5461   1.6287   1.9256   1.9713   3.4432   3.5307
     3.5755   3.5893   3.6846   3.7263   3.8960   3.9266   3.9412   4.0011

[...]

          k = 0.0380-0.0419 0.0000 ( 17876 PWs)   bands (ev):

[...]

          k =-0.0760-0.0000 0.0000 ( 17886 PWs)   bands (ev):

[...]

          k =-0.0760-0.0839 0.0000 ( 17948 PWs)   bands (ev):

   -55.6708 -55.6701 -55.6557 -55.6483 -55.5872 -55.5450 -55.5193 -55.5084
   -55.4854 -55.4840 -55.4518 -55.4460 -55.2578 -55.0357 -54.6506 -54.6506
   -32.0304 -32.0208 -31.9862 -31.9857 -31.9661 -31.9653 -31.9452 -31.9387
   -31.8858 -31.8851 -31.8749 -31.8697 -31.8528 -31.8350 -31.8101 -31.8055
   -31.8011 -31.7976 -31.7909 -31.7909 -31.7897 -31.7893 -31.7854 -31.7459
   -31.7374 -31.7258 -31.7176 -31.7064 -31.6858 -31.6849 -31.6828 -31.6761
   -31.6661 -31.6621 -31.6589 -31.6563 -31.6149 -31.5117 -31.4621 -31.3632
   -31.2937 -31.2631 -30.9767 -30.9766 -30.8877 -30.8876 -30.8484 -30.8484
   -16.7510 -15.8654 -15.8043 -15.6463 -15.6110 -15.5916 -15.5567 -15.4959
   -15.4128 -15.3857 -15.3810 -15.3343 -15.3083 -15.2756 -15.2374 -15.2228
   -15.2158 -15.1968 -15.1845 -15.1506 -15.1411 -15.1295 -15.1223 -15.0468
   -15.0091 -15.0047 -14.9993 -14.8957 -14.7692 -14.5026 -13.1557 -13.1556
   -11.8110  -9.0090  -5.4425  -4.3642  -3.7657  -3.1581  -3.0711  -2.8962
    -2.8407  -2.8119  -2.7960  -2.6302  -2.6196  -2.6043  -2.5590  -2.5367
    -2.5285  -2.5182  -2.5093  -2.4883  -2.4756  -2.4409  -2.4310  -2.3960
    -2.3818  -2.3636  -2.3467  -2.3298  -2.3100  -2.2961  -2.2798  -2.2386
    -2.2189  -2.2083  -2.1878  -2.1437  -1.9332  -1.8830  -1.8367  -1.8332
    -1.8226  -1.8032  -1.7484  -1.7434  -1.7096  -1.6582  -1.5797  -1.4348
    -1.3893  -1.3729  -1.2799  -1.2583  -1.2056  -1.1335  -1.0878  -1.0707
    -1.0359  -0.9718  -0.9360  -0.8981  -0.8316  -0.8071  -0.8015  -0.7076
    -0.6868  -0.6506  -0.6439  -0.5653  -0.5146  -0.4518  -0.4364  -0.4199
    -0.3884  -0.3549  -0.3368  -0.2689  -0.1769  -0.1758  -0.1532  -0.0437
     0.0470   0.2753   0.3381   0.3751   0.4199   0.5135   0.5819   0.6067
     0.6226   0.6443   0.6637   0.7115   0.8389   0.8490   0.8831   0.9961
     1.0980   1.6450   1.7178   1.7186   1.7911   1.7912   3.7448   3.7630
     3.7837   3.8300   3.9492   3.9562   3.9784   3.9805   4.1032   4.1160

     the Fermi energy is     3.4449 ev

!    total energy              =   -2941.66157976 Ry
     estimated scf accuracy    <       0.00000005 Ry
     smearing contrib. (-TS)   =      -0.02151511 Ry
     internal energy E=F+TS    =   -2941.64006466 Ry

     The total energy is F=E-TS. E is the sum of the following terms:
     one-electron contribution =  -24276.54548255 Ry
     hartree contribution      =   12228.72201641 Ry
     xc contribution           =    -486.87579425 Ry
     ewald contribution        =    9593.05752524 Ry
     electric field correction =       0.00167049 Ry

     convergence has been achieved in  57 iterations

     Forces acting on atoms (cartesian axes, Ry/au):

     atom    1 type  1   force =     0.00017732   -0.00012041    0.09638094
     atom    2 type  1   force =    -0.00021048   -0.00063237   -0.17549639
     atom    3 type  2   force =    -0.00004281   -0.00003711   -0.02418778
     atom    4 type  2   force =     0.00005079   -0.00143958    0.05290173
     atom    5 type  2   force =    -0.01181690   -0.00049180    0.00394794
     atom    6 type  2   force =     0.01312802    0.00023698    0.00228690
     atom    7 type  1   force =    -0.00140430    0.00080692   -0.01149453
     atom    8 type  1   force =     0.00053728    0.00920711    0.02520606
     atom    9 type  2   force =    -0.00010585    0.00017489    0.00039707
     atom   10 type  2   force =    -0.00086791    0.00148137   -0.01582411
     atom   11 type  2   force =    -0.00018920   -0.00049936    0.00038744
     atom   12 type  2   force =    -0.00014509   -0.00026498    0.00002383
     atom   13 type  1   force =     0.00055225   -0.00091543    0.00008021
     atom   14 type  1   force =    -0.00007810   -0.00040415    0.00024753
     atom   15 type  2   force =     0.00018797    0.00008023   -0.00033772
     atom   16 type  2   force =     0.00006340    0.00025558    0.00006022
     atom   17 type  2   force =    -0.00053450    0.00034384    0.00050196
     atom   18 type  2   force =     0.00007539    0.00009115    0.00037145
     atom   19 type  1   force =     0.00013962   -0.00045650    0.00020805
     atom   20 type  1   force =     0.00005613    0.00041618    0.00055337
     atom   21 type  2   force =     0.00007330   -0.00008151    0.10321027
     atom   22 type  2   force =    -0.00037033   -0.00017642    0.00030954
     atom   23 type  2   force =    -0.07148932   -0.00018175   -0.02770739
     atom   24 type  2   force =     0.07141235    0.00025086   -0.02770726
     atom   25 type  1   force =     0.00002879   -0.00027085    0.09584354
     atom   26 type  1   force =    -0.00014472   -0.00022944   -0.17567101
     atom   27 type  2   force =     0.00009095   -0.00012293   -0.02329388
     atom   28 type  2   force =     0.00007890   -0.00129754    0.05332878
     atom   29 type  2   force =    -0.01194365   -0.00005674    0.00374719
     atom   30 type  2   force =     0.01319417    0.00043097    0.00212512
     atom   31 type  1   force =    -0.00141805    0.00344999   -0.01082253
     atom   32 type  1   force =     0.00064300   -0.01010362    0.02561566
     atom   33 type  2   force =    -0.00038809    0.00005122    0.00005418
     atom   34 type  2   force =     0.00074583    0.00090413   -0.02309233
     atom   35 type  2   force =    -0.00010259    0.00029757   -0.00002914
     atom   36 type  2   force =    -0.00023617    0.00059652   -0.00029615
     atom   37 type  1   force =    -0.00082674   -0.00101612   -0.00011871
     atom   38 type  1   force =    -0.00002478   -0.00010263   -0.00001720
     atom   39 type  2   force =    -0.00034532    0.00002911    0.00054570
     atom   40 type  2   force =     0.00048203    0.00024148    0.00026013
     atom   41 type  2   force =     0.00001762    0.00052067    0.00027281
     atom   42 type  2   force =     0.00009945    0.00032725   -0.00020947
     atom   43 type  1   force =     0.00026366    0.00000217   -0.00024878
     atom   44 type  1   force =    -0.00031268   -0.00073911    0.00003392
     atom   45 type  2   force =     0.00006736   -0.00008594    0.10323441
     atom   46 type  2   force =    -0.07149895   -0.00017072   -0.02770662
     atom   47 type  2   force =     0.07142420    0.00030594   -0.02771983
     atom   48 type  3   force =    -0.00143750    0.00384572   -0.00275593
     atom   49 type  3   force =     0.00017301    0.00049533   -0.00020265
     atom   50 type  4   force =     0.00078983   -0.00132798    0.00108284
     atom   51 type  5   force =     0.00114515    0.00037828   -0.00060171
     atom   52 type  5   force =    -0.00030316    0.00076247   -0.00063300
     atom   53 type  5   force =    -0.00022960   -0.00179282    0.00039690
     atom   54 type  5   force =     0.00102012   -0.00267774    0.00268482
     atom   55 type  5   force =    -0.00025106   -0.00028840   -0.00012640

     Total force =     0.367389     Total SCF correction =     0.000792
  @ DRIVER MODE: Message from server: STATUS
  @ DRIVER MODE: Message from server: GETFORCE
  @ DRIVER MODE: Returning v,forces,stress,ensemble

     Writing output data file ./calc.save/
  @ DRIVER MODE: Message from server: EXIT
  @ DRIVE MODE: Exiting

     General routines

     Parallel routines

   This run was terminated on:  11: 4:53   9Sep2021

   JOB DONE.