     Program PWSCF v.6.7GPU starts on 10Sep2021 at  6:41:42

     R & G space division:  proc/nbgrp/npool/nimage =      10
     Reading input from /storage/home/hcoda1/3/ntian30/research/carbon/CxH_vib/CH3_calc/ads_slab/CH3N2H2O_e/out_0029/pw.inp
Warning: card &CELL ignored
Warning: card   CELL_DYNAMICS='IPI', ignored
Warning: card / ignored

     Current dimensions of program PWSCF are:
     Max number of different atomic species (ntypx) = 10
     Max number of k-points (npk) =  40000
     Max angular momentum in pseudopotentials (lmaxx) =  3
     Presently no symmetry can be used with electric field

     Message from routine cell_base_init:
     DEPRECATED: use true lattice parameter, not A to a.u. conversion factor

     IMPORTANT: XC functional enforced from input :
     Exchange-correlation= BEEF-VDW
                           (   1   4  43  14   2   0   0)
     Any further DFT definition will be discarded
     Please, verify this is what you really want

  @ DRIVER MODE: Connecting to
 qe_1139763_2779715.sched-torque.pace.gatech.edu94660du7_scratch
  using UNIX socket
  @ DRIVER MODE: Message from server: STATUS
  @ DRIVER MODE: Message from server: INIT
  @ DRIVER MODE: Receiving replica           0          -1
  @ DRIVER MODE: Receiving encoded integer          25
  @ DRIVER MODE:  SCF:  T  FORCE:  T  STRESS:  F  VC:  F  ENSEMBLE:  F
  @ DRIVER MODE:  SCF:  T  FORCE:  T  STRESS:  F  VC:  F  ENSEMBLE:  F

     Using Slab Decomposition

     bravais-lattice index     =            0
     lattice parameter (alat)  =       1.8897  a.u.
     unit-cell volume          =    6658.9804 (a.u.)^3
     number of atoms/cell      =           56
     number of atomic types    =            5
     number of electrons       =       403.00
     number of Kohn-Sham states=          211
     kinetic-energy cutoff     =      29.3995  Ry
     charge density cutoff     =     293.9946  Ry
     scf convergence threshold =      7.3E-08
     mixing beta               =       0.0500
     number of iterations used =            8  plain     mixing
     Exchange-correlation= BEEF-VDW
                           (   1   4  43  14   2   0   0)

     celldm(1)=   1.889726  celldm(2)=   0.000000  celldm(3)=   0.000000
     celldm(4)=   0.000000  celldm(5)=   0.000000  celldm(6)=   0.000000

     crystal axes: (cart. coord. in units of alat)
               a(1) = (   6.579727   0.000000   0.000000 )
               a(2) = (  -0.000775   5.961596   0.000000 )
               a(3) = (   0.000000   0.000000  25.155947 )

     reciprocal axes: (cart. coord. in units 2 pi/alat)
               b(1) = (  0.151982  0.000020  0.000000 )
               b(2) = (  0.000000  0.167740  0.000000 )
               b(3) = (  0.000000  0.000000  0.039752 )

     PseudoPot. # 1 for Ti read from file:
     /storage/coda1/p-amedford6/0/shared/rich_project_chbe-medford/medford-share/data/pseudos_module/espresso/nninc/pbe/van/Ti.UPF
     MD5 check sum: 8e4df49b7f0d34bbd5052bf3f5ea0213
     Pseudo is Ultrasoft, Zval = 12.0
     Generated by new atomic code, or converted to UPF format
     Using radial grid of  851 points,  6 beta functions with:
                l(1) =   0
                l(2) =   0
                l(3) =   1
                l(4) =   1
                l(5) =   2
                l(6) =   2
     Q(r) pseudized with  8 coefficients,  rinner =    1.000   1.000   1.000
                                                       1.000   1.000

     PseudoPot. # 2 for O  read from file:
     /storage/coda1/p-amedford6/0/shared/rich_project_chbe-medford/medford-share/data/pseudos_module/espresso/nninc/pbe/van/O.UPF
     MD5 check sum: 78c19812648e8988a0fe644b0f25305e
     Pseudo is Ultrasoft, Zval =  6.0
     Generated by new atomic code, or converted to UPF format
     Using radial grid of  737 points,  4 beta functions with:
                l(1) =   0
                l(2) =   0
                l(3) =   1
                l(4) =   1
     Q(r) pseudized with  8 coefficients,  rinner =    0.800   0.800   0.800

     PseudoPot. # 3 for N  read from file:
     /storage/coda1/p-amedford6/0/shared/rich_project_chbe-medford/medford-share/data/pseudos_module/espresso/nninc/pbe/van/N.UPF
     MD5 check sum: 90d10febe142ad51ac9d5be1deb811c4
     Pseudo is Ultrasoft, Zval =  5.0
     Generated by new atomic code, or converted to UPF format
     Using radial grid of  729 points,  4 beta functions with:
                l(1) =   0
                l(2) =   0
                l(3) =   1
                l(4) =   1
     Q(r) pseudized with  8 coefficients,  rinner =    0.800   0.800   0.800

     PseudoPot. # 4 for C  read from file:
     /storage/coda1/p-amedford6/0/shared/rich_project_chbe-medford/medford-share/data/pseudos_module/espresso/nninc/pbe/van/C.UPF
     MD5 check sum: 1a69bf6b8db32088f5b2163dbdb77a27
     Pseudo is Ultrasoft, Zval =  4.0
     Generated by new atomic code, or converted to UPF format
     Using radial grid of  721 points,  4 beta functions with:
                l(1) =   0
                l(2) =   0
                l(3) =   1
                l(4) =   1
     Q(r) pseudized with  8 coefficients,  rinner =    0.800   0.800   0.800

     PseudoPot. # 5 for H  read from file:
     /storage/coda1/p-amedford6/0/shared/rich_project_chbe-medford/medford-share/data/pseudos_module/espresso/nninc/pbe/van/H.UPF
     MD5 check sum: b5ee9d7bfd3a09ee7748110bda690ff7
     Pseudo is Ultrasoft, Zval =  1.0
     Generated by new atomic code, or converted to UPF format
     Using radial grid of  615 points,  1 beta functions with:
                l(1) =   0
     Q(r) pseudized with  8 coefficients,  rinner =    0.800

     atomic species   valence    mass     pseudopotential
        Ti1           12.00    47.86700     Ti( 1.00)
        O1             6.00    15.99900     O ( 1.00)
        N1             5.00    14.00700     N ( 1.00)
        C1             4.00    12.01100     C ( 1.00)
        H1             1.00     1.00800     H ( 1.00)

     No symmetry found

   Cartesian axes

     site n.     atom                  positions (alat units)
         1           Ti1 tau(   1) = (   0.0004258   2.9801865   6.0000000  )
         2           Ti1 tau(   2) = (   3.2906075   1.4906267   6.0002472  )
         3           O1  tau(   3) = (   0.0006271   0.0005054   7.9858123  )
         4           O1  tau(   4) = (   3.2906025   0.0005020   7.3038282  )
         5           O1  tau(   5) = (   4.5942328   1.4918067   9.2879030  )
         6           O1  tau(   6) = (   1.9868534   1.4903216   9.2879459  )
         7           Ti1 tau(   7) = (   3.2907910   2.8959150   9.1758416  )
         8           Ti1 tau(   8) = (   0.0015273   1.4827037   9.2680791  )
         9           O1  tau(   9) = (   3.2823942   0.0140684  11.3428430  )
        10           O1  tau(  10) = (   0.0116148   5.9584955  10.6183126  )
        11           O1  tau(  11) = (   1.2742013   1.4978990  12.6323156  )
        12           O1  tau(  12) = (   5.2614901   1.5083079  12.6129891  )
        13           Ti1 tau(  13) = (   0.0550148   2.9595524  12.6160221  )
        14           Ti1 tau(  14) = (   3.3718896   1.5084997  12.4944496  )
        15           O1  tau(  15) = (   6.5380961   0.0278828  14.6255036  )
        16           O1  tau(  16) = (   3.2758616   0.0189586  13.9121306  )
        17           O1  tau(  17) = (   4.4976875   1.5333668  16.0433440  )
        18           O1  tau(  18) = (   1.9922867   1.5271532  16.0291573  )
        19           Ti1 tau(  19) = (   3.1858679   3.0241111  15.7732818  )
        20           Ti1 tau(  20) = (   6.4842391   1.5502874  15.8011710  )
        21           O1  tau(  21) = (   3.2904802   0.0005063   4.7018136  )
        22           O1  tau(  22) = (   6.5196731   0.0665875  17.1891134  )
        23           O1  tau(  23) = (   1.3043587   1.4918075   6.0039043  )
        24           O1  tau(  24) = (   5.2767064   1.4903225   6.0039473  )
        25           Ti1 tau(  25) = (   0.0000382   5.9609847   6.0000000  )
        26           Ti1 tau(  26) = (   3.2902200   4.4714249   6.0002472  )
        27           O1  tau(  27) = (   0.0002396   2.9813036   7.9858123  )
        28           O1  tau(  28) = (   3.2902150   2.9813002   7.3038282  )
        29           O1  tau(  29) = (   4.5938453   4.4726049   9.2879030  )
        30           O1  tau(  30) = (   1.9864658   4.4711199   9.2879459  )
        31           Ti1 tau(  31) = (   3.2891106   5.8743827   9.1763621  )
        32           Ti1 tau(  32) = (   0.0006254   4.4649316   9.2693709  )
        33           O1  tau(  33) = (   3.2807012   2.9937711  11.3380227  )
        34           O1  tau(  34) = (   0.0092240   2.9805883  10.6323155  )
        35           O1  tau(  35) = (   1.2734598   4.4826339  12.6318047  )
        36           O1  tau(  36) = (   5.2665626   4.4910389  12.6093644  )
        37           Ti1 tau(  37) = (   0.0550181   5.9329888  12.5453996  )
        38           Ti1 tau(  38) = (   3.3741151   4.4737790  12.4977360  )
        39           O1  tau(  39) = (   6.5373474   2.9946220  14.6524478  )
        40           O1  tau(  40) = (   3.2677173   3.0168568  13.9399215  )
        41           O1  tau(  41) = (   4.4884636   4.5316779  16.1079578  )
        42           O1  tau(  42) = (   1.9830865   4.5332738  16.0531499  )
        43           Ti1 tau(  43) = (   3.2469912   0.0413792  15.7000251  )
        44           Ti1 tau(  44) = (   6.5198411   4.7064707  16.0702691  )
        45           O1  tau(  45) = (   3.2900926   2.9813045   4.7018136  )
        46           O1  tau(  46) = (   1.3039711   4.4726057   6.0039043  )
        47           O1  tau(  47) = (   5.2763189   4.4711207   6.0039473  )
        48           N1  tau(  48) = (   0.0943371   2.6987919  18.6315974  )
        49           N1  tau(  49) = (   6.5718678   2.9345059  17.4339123  )
        50           C1  tau(  50) = (   0.1779456   3.8407003  19.5793842  )
        51           H1  tau(  51) = (   6.4148796   4.7858965  19.1557567  )
        52           H1  tau(  52) = (   6.1971438   3.5603257  20.4615321  )
        53           H1  tau(  53) = (   1.2306852   3.9282498  19.8556806  )
        54           O1  tau(  54) = (   3.3096034   3.0730741  18.2289406  )
        55           H1  tau(  55) = (   4.0988663   3.6297178  18.3192648  )
        56           H1  tau(  56) = (   3.5789210   2.1977314  18.5501991  )

     number of k points=    10  Fermi-Dirac smearing, width (Ry)=  0.0073
                       cart. coord. in units 2pi/alat
        k(    1) = (   0.0000000   0.0000000   0.0000000), wk =   0.1250000
        k(    2) = (   0.0000000   0.0419351   0.0000000), wk =   0.2500000
        k(    3) = (   0.0000000  -0.0838702   0.0000000), wk =   0.1250000
        k(    4) = (   0.0379955   0.0000049   0.0000000), wk =   0.2500000
        k(    5) = (   0.0379955   0.0419400   0.0000000), wk =   0.2500000
        k(    6) = (   0.0379955  -0.0838652   0.0000000), wk =   0.2500000
        k(    7) = (   0.0379955  -0.0419301   0.0000000), wk =   0.2500000
        k(    8) = (  -0.0759910  -0.0000099   0.0000000), wk =   0.1250000
        k(    9) = (  -0.0759910   0.0419252   0.0000000), wk =   0.2500000
        k(   10) = (  -0.0759910  -0.0838800   0.0000000), wk =   0.1250000

     Initial potential from superposition of free atoms

     starting charge  386.99914, renormalised to  403.00000

     negative rho (up, down):  1.479E-02 0.000E+00

     %%%%%%%%%%%%%%%%%%%%%%%%%%%%%%%%%%%%%%%%%%%%%%%%%%%%%%%%%%%%%%%%%%%%%%%%
     %                                                                      %
     % You are using vdW-DF, which was implemented by the Thonhauser group. %
     % Please cite the following two papers that made this development      %
     % possible and the two reviews that describe the various versions:     %
     %                                                                      %
     %   T. Thonhauser et al., PRL 115, 136402 (2015).                      %
     %   T. Thonhauser et al., PRB 76, 125112 (2007).                       %
     %   K. Berland et al., Rep. Prog. Phys. 78, 066501 (2015).             %
     %   D.C. Langreth et al., J. Phys.: Condens. Matter 21, 084203 (2009). %
     %                                                                      %
     %                                                                      %
     % If you are calculating the stress with vdW-DF, please also cite:     %
     %                                                                      %
     %   R. Sabatini et al., J. Phys.: Condens. Matter 24, 424209 (2012).   %
     %                                                                      %
     %%%%%%%%%%%%%%%%%%%%%%%%%%%%%%%%%%%%%%%%%%%%%%%%%%%%%%%%%%%%%%%%%%%%%%%%

     Adding external electric field

     Computed dipole along edir(3) :
        Dipole              -13.2292 Ry au,        -33.6254 Debye
        Dipole field         -0.0250 Ry au,

        Potential amp.        2.3143 Ry
        Total length         46.3494 bohr

     Starting wfcs are  305 atomic wfcs
  @ DRIVER MODE: Message from server: STATUS
  @ DRIVER MODE: Message from server: POSDATA
  @ DRIVER MODE: Reading and sharing cell
  @ DRIVER MODE: Reading and sharing positions
  @ DRIVER MODE: Received positions

     Self-consistent Calculation

     iteration #  1     ecut=    29.40 Ry     beta= 0.05
     Davidson diagonalization with overlap
     c_bands:  5 eigenvalues not converged
     c_bands:  2 eigenvalues not converged
     c_bands:  5 eigenvalues not converged
     c_bands:  5 eigenvalues not converged
     c_bands:  1 eigenvalues not converged
     c_bands:  1 eigenvalues not converged
     c_bands:  4 eigenvalues not converged
     c_bands:  2 eigenvalues not converged
     c_bands:  3 eigenvalues not converged
     ethr =  1.00E-05,  avg # of iterations = 26.9

[...]

     total energy              =   -2368.02462773 Ry
     estimated scf accuracy    <    6913.32567825 Ry

     iteration #  2     ecut=    29.40 Ry     beta= 0.05
     Davidson diagonalization with overlap
     ethr =  1.00E-02,  avg # of iterations = 23.5

[...]

     iteration # 63     ecut=    29.40 Ry     beta= 0.05
     Davidson diagonalization with overlap
     c_bands:  1 eigenvalues not converged
     ethr =  5.97E-11,  avg # of iterations = 10.0

[...]

     total energy              =   -2973.98638675 Ry
     estimated scf accuracy    <       0.00000008 Ry

     iteration # 67     ecut=    29.40 Ry     beta= 0.05
     Davidson diagonalization with overlap
     ethr =  1.91E-11,  avg # of iterations =  8.8

     negative rho (up, down):  1.505E-02 0.000E+00

     Adding external electric field

     Computed dipole along edir(3) :
        Dipole                0.9079 Ry au,          2.3076 Debye
        Dipole field          0.0017 Ry au,

        Potential amp.       -0.1588 Ry
        Total length         46.3494 bohr

     End of self-consistent calculation

          k = 0.0000 0.0000 0.0000 ( 18029 PWs)   bands (ev):

   -55.6036 -55.5696 -55.5679 -55.5321 -55.4994 -55.4491 -55.4394 -55.4150
   -55.4029 -55.3810 -55.3796 -55.3456 -55.0089 -54.8376 -54.5835 -54.5494
   -32.1128 -32.0863 -31.9596 -31.9433 -31.9135 -31.8964 -31.8819 -31.8693
   -31.8468 -31.8069 -31.7992 -31.7683 -31.7558 -31.7466 -31.7380 -31.7281
   -31.7082 -31.6990 -31.6964 -31.6608 -31.6569 -31.6466 -31.6335 -31.6080
   -31.6035 -31.5989 -31.5935 -31.5866 -31.5789 -31.5695 -31.5549 -31.5548
   -31.5459 -31.5324 -31.5217 -31.5093 -31.4913 -31.2861 -31.1996 -31.0981
   -31.0931 -31.0565 -30.9906 -30.9021 -30.8797 -30.8073 -30.7208 -30.6098
   -19.0419 -18.3021 -16.3183 -16.0772 -15.8751 -15.7601 -15.7193 -15.5268
   -15.4287 -15.3301 -15.2334 -15.1650 -15.1419 -15.1345 -15.1307 -15.1050
   -15.0800 -15.0685 -15.0472 -15.0307 -15.0160 -14.9562 -14.9426 -14.9335
   -14.8440 -14.7891 -14.7547 -14.7359 -14.6783 -14.6597 -14.1777 -13.0854
   -12.9690 -11.3024  -6.8827  -6.7282  -4.1961  -4.0704  -3.8095  -3.6887
    -3.5569  -3.5096  -3.4489  -3.4183  -3.2213  -3.1025  -3.0315  -2.8442
    -2.7869  -2.7592  -2.7297  -2.6586  -2.5221  -2.4718  -2.4210  -2.4142
    -2.4023  -2.3708  -2.3661  -2.3452  -2.2456  -2.2422  -2.1922  -2.1507
    -2.0812  -2.0019  -1.9828  -1.9358  -1.9166  -1.9046  -1.8764  -1.8533
    -1.8424  -1.8074  -1.7953  -1.7224  -1.6187  -1.5512  -1.5028  -1.4636
    -1.3981  -1.3853  -1.2183  -1.1537  -1.1085  -1.0719  -1.0531  -1.0326
    -0.9989  -0.9913  -0.8824  -0.7579  -0.7538  -0.6740  -0.6136  -0.5355
    -0.5270  -0.4493  -0.3925  -0.3742  -0.3618  -0.3508  -0.3222  -0.2487
    -0.1034  -0.0601  -0.0356  -0.0002   0.0292   0.0948   0.1382   0.2077
     0.2426   0.2836   0.3188   0.3428   0.3671   0.3746   0.3899   0.4019
     0.4213   0.6037   0.6637   0.6851   0.7499   0.7794   0.9223   0.9889
     1.0528   1.1595   1.3643   1.4391   1.5299   1.6312   2.0105   2.0562
     2.7721   3.5306   3.6154   3.6622   3.7042   3.7768   3.7947   3.9670
     3.9861   4.0292   4.1901

[...]

          k = 0.0380-0.0419 0.0000 ( 17876 PWs)   bands (ev):

[...]

          k =-0.0760-0.0000 0.0000 ( 17886 PWs)   bands (ev):

[...]

          k =-0.0760-0.0839 0.0000 ( 17948 PWs)   bands (ev):

   -55.5869 -55.5861 -55.5510 -55.5488 -55.4926 -55.4558 -55.4271 -55.4152
   -55.3985 -55.3970 -55.3654 -55.3600 -55.0073 -54.8391 -54.5665 -54.5663
   -31.9270 -31.9115 -31.9018 -31.9013 -31.8822 -31.8814 -31.8516 -31.8173
   -31.7948 -31.7912 -31.7822 -31.7619 -31.7591 -31.7401 -31.7186 -31.7141
   -31.7121 -31.7075 -31.7065 -31.7056 -31.7049 -31.7028 -31.6985 -31.6590
   -31.6480 -31.6347 -31.6246 -31.6110 -31.5983 -31.5976 -31.5956 -31.5882
   -31.5794 -31.5758 -31.5689 -31.5653 -31.4267 -31.2879 -31.2051 -31.1540
   -31.0993 -31.0825 -30.8924 -30.8923 -30.8035 -30.8033 -30.7641 -30.7641
   -19.0369 -18.3038 -15.7647 -15.6828 -15.5603 -15.5217 -15.4782 -15.4343
   -15.4142 -15.3213 -15.3016 -15.2922 -15.2407 -15.2265 -15.2037 -15.1601
   -15.1380 -15.1287 -15.1246 -15.0889 -15.0605 -15.0438 -15.0403 -15.0345
   -14.9721 -14.9234 -14.9213 -14.9164 -14.7897 -14.6607 -14.3563 -13.0708
   -13.0707 -11.3001  -6.8836  -6.7416  -4.1254  -3.8806  -3.7888  -3.2835
    -3.0496  -2.8885  -2.8181  -2.7279  -2.6984  -2.6911  -2.5475  -2.5151
    -2.4853  -2.4378  -2.4330  -2.4290  -2.4219  -2.4063  -2.3998  -2.3835
    -2.3314  -2.3188  -2.2942  -2.2820  -2.2738  -2.2563  -2.2344  -2.2243
    -2.2023  -2.1683  -2.1540  -2.1185  -2.1124  -2.0218  -1.8364  -1.8272
    -1.7797  -1.7463  -1.7322  -1.7068  -1.6701  -1.6566  -1.6483  -1.5968
    -1.4755  -1.4325  -1.3441  -1.2964  -1.2792  -1.2283  -1.1627  -1.1388
    -1.0690  -1.0242  -0.9875  -0.9656  -0.9424  -0.7980  -0.7856  -0.7319
    -0.7188  -0.6817  -0.6342  -0.5760  -0.5637  -0.5535  -0.5368  -0.5034
    -0.4350  -0.3659  -0.3542  -0.3259  -0.2749  -0.2584  -0.2151  -0.1268
    -0.1070  -0.0705   0.0274   0.1295   0.2212   0.3558   0.4416   0.4649
     0.5211   0.5982   0.6962   0.7059   0.7144   0.7506   0.7744   0.8348
     0.9281   0.9481   0.9751   1.0978   1.8026   1.8033   1.8758   1.8761
     2.8132   3.7918   3.8513   3.8969   3.9159   4.0085   4.0417   4.0637
     4.0660   4.1131   4.2031

     the Fermi energy is     3.5297 ev

!    total energy              =   -2973.98641494 Ry
     estimated scf accuracy    <       0.00000007 Ry
     smearing contrib. (-TS)   =      -0.02191357 Ry
     internal energy E=F+TS    =   -2973.96450138 Ry

     The total energy is F=E-TS. E is the sum of the following terms:
     one-electron contribution =  -23875.74485052 Ry
     hartree contribution      =   12032.32906567 Ry
     xc contribution           =    -494.08868407 Ry
     ewald contribution        =    9363.53841203 Ry
     electric field correction =       0.00155552 Ry

     convergence has been achieved in  67 iterations

     Forces acting on atoms (cartesian axes, Ry/au):

     atom    1 type  1   force =     0.00006457   -0.00017173    0.09645260
     atom    2 type  1   force =    -0.00015580   -0.00063644   -0.17547260
     atom    3 type  2   force =    -0.00003673    0.00002046   -0.02462261
     atom    4 type  2   force =     0.00005834   -0.00136454    0.05309956
     atom    5 type  2   force =    -0.01209074    0.00003875    0.00387770
     atom    6 type  2   force =     0.01330828    0.00071456    0.00208425
     atom    7 type  1   force =    -0.00148492    0.00064029   -0.01048943
     atom    8 type  1   force =     0.00072687    0.00971392    0.02661178
     atom    9 type  2   force =    -0.00040548    0.00008873   -0.00029399
     atom   10 type  2   force =    -0.00180963    0.00306202   -0.01770925
     atom   11 type  2   force =    -0.00016003   -0.00023291    0.00012852
     atom   12 type  2   force =    -0.00018894   -0.00028968   -0.00029238
     atom   13 type  1   force =    -0.00020961   -0.00021154   -0.00008512
     atom   14 type  1   force =    -0.00035414   -0.00018153   -0.00034577
     atom   15 type  2   force =     0.00003448   -0.00089978    0.00026309
     atom   16 type  2   force =     0.00005989    0.00015666   -0.00001769
     atom   17 type  2   force =    -0.00006201   -0.00057171    0.00019361
     atom   18 type  2   force =     0.00024966   -0.00040670    0.00037642
     atom   19 type  1   force =     0.00040586   -0.00021215   -0.00011308
     atom   20 type  1   force =     0.00029392   -0.00069884    0.00013408
     atom   21 type  2   force =     0.00008568   -0.00004694    0.10319887
     atom   22 type  2   force =     0.00053393   -0.00050426   -0.00038494
     atom   23 type  2   force =    -0.07146612   -0.00008708   -0.02774205
     atom   24 type  2   force =     0.07140300    0.00029807   -0.02774160
     atom   25 type  1   force =     0.00006617   -0.00028960    0.09592804
     atom   26 type  1   force =    -0.00025312   -0.00023257   -0.17575007
     atom   27 type  2   force =     0.00006973   -0.00008723   -0.02364417
     atom   28 type  2   force =     0.00006335   -0.00118734    0.05338266
     atom   29 type  2   force =    -0.01232664    0.00061980    0.00391686
     atom   30 type  2   force =     0.01348115    0.00110215    0.00208634
     atom   31 type  1   force =    -0.00129743    0.00372535   -0.00846745
     atom   32 type  1   force =     0.00085319   -0.01166215    0.02703441
     atom   33 type  2   force =    -0.00002125    0.00013455   -0.00007736
     atom   34 type  2   force =    -0.00128309    0.00169497   -0.02362946
     atom   35 type  2   force =    -0.00024595   -0.00003088    0.00005002
     atom   36 type  2   force =     0.00003330   -0.00002386    0.00018829
     atom   37 type  1   force =     0.00000390   -0.00018658    0.00016770
     atom   38 type  1   force =    -0.00055582   -0.00029387    0.00054284
     atom   39 type  2   force =     0.00021752   -0.00062794    0.00051016
     atom   40 type  2   force =    -0.00002090   -0.00009281    0.00018982
     atom   41 type  2   force =     0.00019644   -0.00051379   -0.00033639
     atom   42 type  2   force =     0.00017979   -0.00036115   -0.00046468
     atom   43 type  1   force =     0.00074322   -0.00039728    0.00016821
     atom   44 type  1   force =    -0.00002988   -0.00016463   -0.00082665
     atom   45 type  2   force =     0.00009250   -0.00005579    0.10319345
     atom   46 type  2   force =    -0.07146196   -0.00007290   -0.02774713
     atom   47 type  2   force =     0.07140950    0.00035858   -0.02776027
     atom   48 type  3   force =    -0.00019616   -0.00052983    0.00021836
     atom   49 type  3   force =     0.00025744    0.00043871   -0.00050221
     atom   50 type  4   force =     0.00381001    0.00366965   -0.00845851
     atom   51 type  5   force =     0.00161044   -0.00067935   -0.00002652
     atom   52 type  5   force =    -0.00439449   -0.00218949    0.00861229
     atom   53 type  5   force =    -0.00018718   -0.00016621    0.00068154
     atom   54 type  2   force =    -0.00057469   -0.00113486    0.00000258
     atom   55 type  5   force =     0.00041778    0.00030292    0.00023887
     atom   56 type  5   force =     0.00054281    0.00071577   -0.00053156

     Total force =     0.368082     Total SCF correction =     0.001215
  @ DRIVER MODE: Message from server: STATUS
  @ DRIVER MODE: Message from server: GETFORCE
  @ DRIVER MODE: Returning v,forces,stress,ensemble

     Writing output data file ./calc.save/
  @ DRIVER MODE: Message from server: EXIT
  @ DRIVE MODE: Exiting

     General routines

     Parallel routines

   This run was terminated on:   7: 1:46  10Sep2021

   JOB DONE.