     Program PWSCF v.6.7GPU starts on 22Sep2021 at 20:49:22

     R & G space division:  proc/nbgrp/npool/nimage =      10
     Reading input from /storage/home/hcoda1/3/ntian30/research/carbon/CxH_vib/H2O_calc/ads_slab/CH3OHO_a/out_0014/pw.inp
Warning: card &CELL ignored
Warning: card   CELL_DYNAMICS='IPI', ignored
Warning: card / ignored

     Current dimensions of program PWSCF are:
     Max number of different atomic species (ntypx) = 10
     Max number of k-points (npk) =  40000
     Max angular momentum in pseudopotentials (lmaxx) =  3
     Presently no symmetry can be used with electric field

     Message from routine cell_base_init:
     DEPRECATED: use true lattice parameter, not A to a.u. conversion factor

     IMPORTANT: XC functional enforced from input :
     Exchange-correlation= BEEF-VDW
                           (   1   4  43  14   2   0   0)
     Any further DFT definition will be discarded
     Please, verify this is what you really want

  @ DRIVER MODE: Connecting to
 qe_1139763_2937320.sched-torque.pace.gatech.edu20wlk7vg_scratch
  using UNIX socket
  @ DRIVER MODE: Message from server: STATUS
  @ DRIVER MODE: Message from server: INIT
  @ DRIVER MODE: Receiving replica           0          -1
  @ DRIVER MODE: Receiving encoded integer          25
  @ DRIVER MODE:  SCF:  T  FORCE:  T  STRESS:  F  VC:  F  ENSEMBLE:  F
  @ DRIVER MODE:  SCF:  T  FORCE:  T  STRESS:  F  VC:  F  ENSEMBLE:  F

     Using Slab Decomposition

     bravais-lattice index     =            0
     lattice parameter (alat)  =       1.8897  a.u.
     unit-cell volume          =    6658.9804 (a.u.)^3
     number of atoms/cell      =           54
     number of atomic types    =            4
     number of electrons       =       398.00
     number of Kohn-Sham states=          209
     kinetic-energy cutoff     =      29.3995  Ry
     charge density cutoff     =     293.9946  Ry
     scf convergence threshold =      7.3E-08
     mixing beta               =       0.0500
     number of iterations used =            8  plain     mixing
     Exchange-correlation= BEEF-VDW
                           (   1   4  43  14   2   0   0)

     celldm(1)=   1.889726  celldm(2)=   0.000000  celldm(3)=   0.000000
     celldm(4)=   0.000000  celldm(5)=   0.000000  celldm(6)=   0.000000

     crystal axes: (cart. coord. in units of alat)
               a(1) = (   6.579727   0.000000   0.000000 )
               a(2) = (  -0.000775   5.961596   0.000000 )
               a(3) = (   0.000000   0.000000  25.155947 )

     reciprocal axes: (cart. coord. in units 2 pi/alat)
               b(1) = (  0.151982  0.000020  0.000000 )
               b(2) = (  0.000000  0.167740  0.000000 )
               b(3) = (  0.000000  0.000000  0.039752 )

     PseudoPot. # 1 for Ti read from file:
     /storage/coda1/p-amedford6/0/shared/rich_project_chbe-medford/medford-share/data/pseudos_module/espresso/nninc/pbe/van/Ti.UPF
     MD5 check sum: 8e4df49b7f0d34bbd5052bf3f5ea0213
     Pseudo is Ultrasoft, Zval = 12.0
     Generated by new atomic code, or converted to UPF format
     Using radial grid of  851 points,  6 beta functions with:
                l(1) =   0
                l(2) =   0
                l(3) =   1
                l(4) =   1
                l(5) =   2
                l(6) =   2
     Q(r) pseudized with  8 coefficients,  rinner =    1.000   1.000   1.000
                                                       1.000   1.000

     PseudoPot. # 2 for O  read from file:
     /storage/coda1/p-amedford6/0/shared/rich_project_chbe-medford/medford-share/data/pseudos_module/espresso/nninc/pbe/van/O.UPF
     MD5 check sum: 78c19812648e8988a0fe644b0f25305e
     Pseudo is Ultrasoft, Zval =  6.0
     Generated by new atomic code, or converted to UPF format
     Using radial grid of  737 points,  4 beta functions with:
                l(1) =   0
                l(2) =   0
                l(3) =   1
                l(4) =   1
     Q(r) pseudized with  8 coefficients,  rinner =    0.800   0.800   0.800

     PseudoPot. # 3 for C  read from file:
     /storage/coda1/p-amedford6/0/shared/rich_project_chbe-medford/medford-share/data/pseudos_module/espresso/nninc/pbe/van/C.UPF
     MD5 check sum: 1a69bf6b8db32088f5b2163dbdb77a27
     Pseudo is Ultrasoft, Zval =  4.0
     Generated by new atomic code, or converted to UPF format
     Using radial grid of  721 points,  4 beta functions with:
                l(1) =   0
                l(2) =   0
                l(3) =   1
                l(4) =   1
     Q(r) pseudized with  8 coefficients,  rinner =    0.800   0.800   0.800

     PseudoPot. # 4 for H  read from file:
     /storage/coda1/p-amedford6/0/shared/rich_project_chbe-medford/medford-share/data/pseudos_module/espresso/nninc/pbe/van/H.UPF
     MD5 check sum: b5ee9d7bfd3a09ee7748110bda690ff7
     Pseudo is Ultrasoft, Zval =  1.0
     Generated by new atomic code, or converted to UPF format
     Using radial grid of  615 points,  1 beta functions with:
                l(1) =   0
     Q(r) pseudized with  8 coefficients,  rinner =    0.800

     atomic species   valence    mass     pseudopotential
        Ti1           12.00    47.86700     Ti( 1.00)
        O1             6.00    15.99900     O ( 1.00)
        C1             4.00    12.01100     C ( 1.00)
        H1             1.00     1.00800     H ( 1.00)

     No symmetry found

   Cartesian axes

     site n.     atom                  positions (alat units)
         1           Ti1 tau(   1) = (   0.0004258   2.9801865   6.0000000  )
         2           Ti1 tau(   2) = (   3.2906075   1.4906267   6.0002472  )
         3           O1  tau(   3) = (   0.0006271   0.0005054   7.9858123  )
         4           O1  tau(   4) = (   3.2906025   0.0005020   7.3038282  )
         5           O1  tau(   5) = (   4.5942328   1.4918067   9.2879030  )
         6           O1  tau(   6) = (   1.9868534   1.4903216   9.2879459  )
         7           Ti1 tau(   7) = (   3.2957662   3.1068914   9.2181075  )
         8           Ti1 tau(   8) = (   0.0157633   1.6119101   9.3474628  )
         9           O1  tau(   9) = (   3.3075722   0.0245345  11.3221904  )
        10           O1  tau(  10) = (   0.0080709   0.0223756  10.5933645  )
        11           O1  tau(  11) = (   1.2996580   1.5014007  12.6293879  )
        12           O1  tau(  12) = (   5.3220639   1.4985920  12.6296061  )
        13           Ti1 tau(  13) = (   0.0338638   3.0995910  12.8036746  )
        14           Ti1 tau(  14) = (   3.3037623   1.5692239  12.4279754  )
        15           O1  tau(  15) = (   0.0261714   0.0103614  14.6808343  )
        16           O1  tau(  16) = (   3.3158872   5.9294016  13.9235834  )
        17           O1  tau(  17) = (   4.5845781   1.5190771  16.0542726  )
        18           O1  tau(  18) = (   2.0543804   1.5366111  16.0227792  )
        19           Ti1 tau(  19) = (   3.3281905   2.9581697  15.6655982  )
        20           Ti1 tau(  20) = (   0.0947853   1.4300879  15.9722461  )
        21           O1  tau(  21) = (   3.2904802   0.0005063   4.7018136  )
        22           O1  tau(  22) = (   0.0746355   0.0166105  17.2029963  )
        23           O1  tau(  23) = (   1.3043587   1.4918075   6.0039043  )
        24           O1  tau(  24) = (   5.2767064   1.4903225   6.0039473  )
        25           Ti1 tau(  25) = (   0.0000382   5.9609847   6.0000000  )
        26           Ti1 tau(  26) = (   3.2902200   4.4714249   6.0002472  )
        27           O1  tau(  27) = (   0.0002396   2.9813036   7.9858123  )
        28           O1  tau(  28) = (   3.2902150   2.9813002   7.3038282  )
        29           O1  tau(  29) = (   4.5938453   4.4726049   9.2879030  )
        30           O1  tau(  30) = (   1.9864658   4.4711199   9.2879459  )
        31           Ti1 tau(  31) = (   3.3049890   0.1224192   9.1815931  )
        32           Ti1 tau(  32) = (   0.0115838   4.5621182   9.3618056  )
        33           O1  tau(  33) = (   3.3056077   2.9569042  11.2892548  )
        34           O1  tau(  34) = (   0.0073068   3.0072357  10.5542745  )
        35           O1  tau(  35) = (   1.3032543   4.4799722  12.6367586  )
        36           O1  tau(  36) = (   5.3275811   4.4862388  12.6364370  )
        37           Ti1 tau(  37) = (   0.0060541   0.1153383  12.6179110  )
        38           Ti1 tau(  38) = (   3.3135592   4.6638430  12.6816895  )
        39           O1  tau(  39) = (   0.0323206   2.9919573  14.6814448  )
        40           O1  tau(  40) = (   3.3290587   2.9835885  13.8850256  )
        41           O1  tau(  41) = (   4.5809508   4.4372854  16.0867525  )
        42           O1  tau(  42) = (   2.0525355   4.4234120  16.0327814  )
        43           Ti1 tau(  43) = (   3.4083040   5.9395600  16.2643712  )
        44           Ti1 tau(  44) = (   0.1061243   4.5568233  16.0547075  )
        45           O1  tau(  45) = (   3.2900926   2.9813045   4.7018136  )
        46           O1  tau(  46) = (   1.3039711   4.4726057   6.0039043  )
        47           O1  tau(  47) = (   5.2763189   4.4711207   6.0039473  )
        48           C1  tau(  48) = (   6.0247352   2.9430639  18.6208924  )
        49           O1  tau(  49) = (   0.0129984   2.9830681  17.3098104  )
        50           H1  tau(  50) = (   4.9527965   2.8012130  18.5644550  )
        51           H1  tau(  51) = (   6.4567215   2.1053551  19.1708771  )
        52           H1  tau(  52) = (   6.2362830   3.8810018  19.1352789  )
        53           O1  tau(  53) = (   3.2195589   0.0134334  18.0862892  )
        54           H1  tau(  54) = (   2.3313237   0.1261415  18.4590370  )

     number of k points=    10  Fermi-Dirac smearing, width (Ry)=  0.0073
                       cart. coord. in units 2pi/alat
        k(    1) = (   0.0000000   0.0000000   0.0000000), wk =   0.1250000
        k(    2) = (   0.0000000   0.0419351   0.0000000), wk =   0.2500000
        k(    3) = (   0.0000000  -0.0838702   0.0000000), wk =   0.1250000
        k(    4) = (   0.0379955   0.0000049   0.0000000), wk =   0.2500000
        k(    5) = (   0.0379955   0.0419400   0.0000000), wk =   0.2500000
        k(    6) = (   0.0379955  -0.0838652   0.0000000), wk =   0.2500000
        k(    7) = (   0.0379955  -0.0419301   0.0000000), wk =   0.2500000
        k(    8) = (  -0.0759910  -0.0000099   0.0000000), wk =   0.1250000
        k(    9) = (  -0.0759910   0.0419252   0.0000000), wk =   0.2500000
        k(   10) = (  -0.0759910  -0.0838800   0.0000000), wk =   0.1250000

     Initial potential from superposition of free atoms

     starting charge  381.99917, renormalised to  398.00000

     negative rho (up, down):  1.724E-02 0.000E+00

     %%%%%%%%%%%%%%%%%%%%%%%%%%%%%%%%%%%%%%%%%%%%%%%%%%%%%%%%%%%%%%%%%%%%%%%%
     %                                                                      %
     % You are using vdW-DF, which was implemented by the Thonhauser group. %
     % Please cite the following two papers that made this development      %
     % possible and the two reviews that describe the various versions:     %
     %                                                                      %
     %   T. Thonhauser et al., PRL 115, 136402 (2015).                      %
     %   T. Thonhauser et al., PRB 76, 125112 (2007).                       %
     %   K. Berland et al., Rep. Prog. Phys. 78, 066501 (2015).             %
     %   D.C. Langreth et al., J. Phys.: Condens. Matter 21, 084203 (2009). %
     %                                                                      %
     %                                                                      %
     % If you are calculating the stress with vdW-DF, please also cite:     %
     %                                                                      %
     %   R. Sabatini et al., J. Phys.: Condens. Matter 24, 424209 (2012).   %
     %                                                                      %
     %%%%%%%%%%%%%%%%%%%%%%%%%%%%%%%%%%%%%%%%%%%%%%%%%%%%%%%%%%%%%%%%%%%%%%%%

     Adding external electric field

     Computed dipole along edir(3) :
        Dipole               -8.3452 Ry au,        -21.2113 Debye
        Dipole field         -0.0157 Ry au,

        Potential amp.        1.4599 Ry
        Total length         46.3494 bohr

     Starting wfcs are  300 atomic wfcs
  @ DRIVER MODE: Message from server: STATUS
  @ DRIVER MODE: Message from server: POSDATA
  @ DRIVER MODE: Reading and sharing cell
  @ DRIVER MODE: Reading and sharing positions
  @ DRIVER MODE: Received positions

     Self-consistent Calculation

     iteration #  1     ecut=    29.40 Ry     beta= 0.05
     Davidson diagonalization with overlap
     c_bands:  1 eigenvalues not converged
     c_bands:  1 eigenvalues not converged
     c_bands:  1 eigenvalues not converged
     c_bands:  1 eigenvalues not converged
     c_bands:  1 eigenvalues not converged
     ethr =  1.00E-05,  avg # of iterations = 18.3

[...]

     total energy              =   -2614.78958428 Ry
     estimated scf accuracy    <    3872.47824029 Ry

     iteration #  2     ecut=    29.40 Ry     beta= 0.05
     Davidson diagonalization with overlap
     ethr =  1.00E-02,  avg # of iterations = 22.5

[...]

     iteration # 30     ecut=    29.40 Ry     beta= 0.05
     Davidson diagonalization with overlap
     c_bands:  2 eigenvalues not converged
     ethr =  5.82E-07,  avg # of iterations =  3.8

[...]

     total energy              =   -2965.10846801 Ry
     estimated scf accuracy    <       0.00000007 Ry

     iteration # 52     ecut=    29.40 Ry     beta= 0.05
     Davidson diagonalization with overlap
     ethr =  1.85E-11,  avg # of iterations =  4.7

     negative rho (up, down):  1.732E-02 0.000E+00

     Adding external electric field

     Computed dipole along edir(3) :
        Dipole                0.5371 Ry au,          1.3653 Debye
        Dipole field          0.0010 Ry au,

        Potential amp.       -0.0940 Ry
        Total length         46.3494 bohr

     End of self-consistent calculation

          k = 0.0000 0.0000 0.0000 ( 18029 PWs)   bands (ev):

   -56.4417 -56.3949 -55.8698 -55.8380 -55.8285 -55.8167 -55.7730 -55.7359
   -55.7110 -55.6976 -55.6591 -55.6169 -55.6131 -55.4664 -55.0451 -55.0112
   -32.8541 -32.7067 -32.6571 -32.6211 -32.5267 -32.4806 -32.3614 -32.3152
   -32.3088 -32.1941 -32.1566 -32.1336 -32.1316 -32.1111 -32.1055 -32.0691
   -32.0658 -32.0516 -32.0343 -32.0287 -32.0164 -31.9789 -31.9679 -31.9513
   -31.9433 -31.9306 -31.9279 -31.9176 -31.9157 -31.9047 -31.8997 -31.8872
   -31.8627 -31.8613 -31.8557 -31.8223 -31.8108 -31.8101 -31.7809 -31.7222
   -31.6916 -31.6727 -31.4393 -31.3860 -31.3616 -31.2560 -31.1711 -31.0605
   -17.6009 -16.6290 -16.5865 -16.4414 -16.2035 -16.0569 -15.9756 -15.7562
   -15.7535 -15.6343 -15.6230 -15.5883 -15.4505 -15.4379 -15.4308 -15.3757
   -15.3600 -15.3490 -15.3430 -15.3358 -15.3227 -15.2745 -15.2616 -15.2097
   -15.1513 -15.0846 -15.0550 -15.0115 -14.9923 -14.9566 -14.7262 -13.5474
   -13.4391  -9.3717  -4.3372  -4.2476  -4.1215  -4.0347  -3.8813  -3.7794
    -3.7564  -3.6778  -3.5777  -3.4681  -3.2694  -3.1074  -3.0507  -3.0140
    -2.9809  -2.9274  -2.8725  -2.8139  -2.7685  -2.7398  -2.7107  -2.6437
    -2.6290  -2.6162  -2.5882  -2.5800  -2.5442  -2.5109  -2.5017  -2.3683
    -2.3389  -2.3016  -2.2961  -2.2370  -2.2179  -2.1932  -2.1870  -2.1360
    -2.0430  -1.9622  -1.9272  -1.8875  -1.6974  -1.6421  -1.5724  -1.5066
    -1.4280  -1.3811  -1.3614  -1.3405  -1.2679  -1.2399  -1.1285  -1.1063
    -1.0604  -0.9971  -0.9937  -0.9541  -0.8961  -0.8693  -0.8060  -0.7733
    -0.7474  -0.6044  -0.5791  -0.5513  -0.5085  -0.5000  -0.4008  -0.3374
    -0.2888  -0.2689  -0.2214  -0.1873  -0.1490  -0.1014  -0.0838  -0.0571
     0.0316   0.0576   0.0820   0.1255   0.1616   0.1845   0.2040   0.2968
     0.3448   0.3626   0.3784   0.5345   0.5730   0.5895   0.7184   0.7296
     0.9029   0.9714   1.0091   1.1884   1.2346   1.5213   1.5635   2.8599
     3.0182   3.2893   3.4364   3.5047   3.5437   3.5974   3.6146   3.7559
     3.7934

[...]

          k = 0.0380-0.0419 0.0000 ( 17876 PWs)   bands (ev):

[...]

          k =-0.0760-0.0000 0.0000 ( 17886 PWs)   bands (ev):

[...]

          k =-0.0760-0.0839 0.0000 ( 17948 PWs)   bands (ev):

   -56.4346 -56.4018 -55.8678 -55.8323 -55.8276 -55.8127 -55.7780 -55.7397
   -55.7127 -55.6990 -55.6507 -55.6253 -55.6112 -55.4682 -55.0283 -55.0279
   -32.7020 -32.6849 -32.6612 -32.6571 -32.5864 -32.5585 -32.2493 -32.1855
   -32.1590 -32.1274 -32.1045 -32.1008 -32.0901 -32.0753 -32.0681 -32.0534
   -32.0489 -32.0411 -32.0356 -32.0280 -32.0279 -32.0200 -31.9980 -31.9969
   -31.9945 -31.9794 -31.9679 -31.9531 -31.9447 -31.9384 -31.9176 -31.9046
   -31.9010 -31.8882 -31.8749 -31.8604 -31.8599 -31.8260 -31.8152 -31.7960
   -31.7244 -31.6763 -31.3747 -31.3745 -31.2548 -31.2532 -31.2134 -31.2125
   -17.5631 -16.6011 -15.9836 -15.9039 -15.8998 -15.8884 -15.8618 -15.8198
   -15.7424 -15.7355 -15.6645 -15.5977 -15.5643 -15.5193 -15.4968 -15.4851
   -15.4478 -15.4432 -15.3857 -15.3421 -15.3257 -15.3145 -15.2947 -15.2513
   -15.2455 -15.2429 -15.2192 -15.2037 -15.1535 -15.0532 -14.8667 -13.5435
   -13.5423  -9.3720  -4.2586  -4.1797  -3.9698  -3.7576  -3.2158  -3.1397
    -3.0653  -3.0573  -2.9826  -2.9229  -2.9083  -2.8635  -2.8564  -2.8247
    -2.7529  -2.7425  -2.7296  -2.7192  -2.7117  -2.7031  -2.6804  -2.6352
    -2.6221  -2.6148  -2.5996  -2.5903  -2.5786  -2.5750  -2.5488  -2.5091
    -2.4390  -2.3805  -2.2550  -2.2475  -2.2133  -2.1962  -2.1553  -2.1433
    -2.0892  -1.9973  -1.9851  -1.9823  -1.8934  -1.8371  -1.6243  -1.6096
    -1.5922  -1.5251  -1.4531  -1.3862  -1.3626  -1.3395  -1.3069  -1.2842
    -1.2353  -1.1864  -1.1512  -1.1148  -1.0987  -1.0598  -1.0076  -0.9580
    -0.9067  -0.9027  -0.8596  -0.8122  -0.7811  -0.7014  -0.6954  -0.6721
    -0.6488  -0.6092  -0.5241  -0.4723  -0.4295  -0.3353  -0.2933  -0.2600
    -0.1198  -0.0611  -0.0240   0.0517   0.0947   0.1960   0.2204   0.2974
     0.3097   0.3389   0.3633   0.4373   0.5057   0.5619   0.6036   0.6476
     0.6591   0.7085   0.7708   1.3654   1.3659   1.3732   1.3809   3.4053
     3.4301   3.4378   3.4677   3.6941   3.7117   3.7840   3.8134   3.8305
     3.8844

     the Fermi energy is     2.2696 ev

!    total energy              =   -2965.10856358 Ry
     estimated scf accuracy    <       0.00000003 Ry
     smearing contrib. (-TS)   =      -0.00015928 Ry
     internal energy E=F+TS    =   -2965.10840429 Ry

     The total energy is F=E-TS. E is the sum of the following terms:
     one-electron contribution =  -24223.09053402 Ry
     hartree contribution      =   12200.85852099 Ry
     xc contribution           =    -490.03581466 Ry
     ewald contribution        =    9547.15887891 Ry
     electric field correction =       0.00054447 Ry

     convergence has been achieved in  52 iterations

     Forces acting on atoms (cartesian axes, Ry/au):

     atom    1 type  1   force =    -0.00002343    0.00003053    0.13239818
     atom    2 type  1   force =    -0.00019273    0.00779736   -0.15735222
     atom    3 type  2   force =     0.00008568   -0.00480934   -0.05217582
     atom    4 type  2   force =     0.00035906    0.00109137    0.04042444
     atom    5 type  2   force =    -0.00611098   -0.00278553   -0.00018897
     atom    6 type  2   force =     0.00840039   -0.00338534    0.00078917
     atom    7 type  1   force =    -0.00002916   -0.00014623   -0.00000663
     atom    8 type  1   force =     0.00021569   -0.00056599    0.00039611
     atom    9 type  2   force =    -0.00004564    0.00020933   -0.00004091
     atom   10 type  2   force =    -0.00014536   -0.00038185   -0.00017704
     atom   11 type  2   force =     0.00042596    0.00026297   -0.00017389
     atom   12 type  2   force =    -0.00025832    0.00016092   -0.00004150
     atom   13 type  1   force =    -0.00068531    0.00047878   -0.00028177
     atom   14 type  1   force =     0.00007944   -0.00032731   -0.00022939
     atom   15 type  2   force =    -0.00021554    0.00002716   -0.00077155
     atom   16 type  2   force =    -0.00033134    0.00010404    0.00004388
     atom   17 type  2   force =     0.00005349    0.00001036    0.00006426
     atom   18 type  2   force =    -0.00061703    0.00016914   -0.00015756
     atom   19 type  1   force =     0.00000713   -0.00040883   -0.00013863
     atom   20 type  1   force =    -0.00001589   -0.00010631    0.00024126
     atom   21 type  2   force =    -0.00002012    0.00002293    0.09910253
     atom   22 type  2   force =     0.00001182    0.00012013    0.00016002
     atom   23 type  2   force =    -0.08091633    0.00049308   -0.03410322
     atom   24 type  2   force =     0.08071389    0.00095719   -0.03416549
     atom   25 type  1   force =    -0.00001821   -0.00026242    0.14101578
     atom   26 type  1   force =    -0.00012792   -0.00646925   -0.15700960
     atom   27 type  2   force =     0.00016228    0.00109353   -0.05217845
     atom   28 type  2   force =     0.00018947    0.00033644    0.04175928
     atom   29 type  2   force =    -0.00752566    0.00512490    0.00202250
     atom   30 type  2   force =     0.00859810    0.00383187    0.00272456
     atom   31 type  1   force =    -0.00003361    0.00016300    0.00001099
     atom   32 type  1   force =     0.00030822   -0.00005262   -0.00051351
     atom   33 type  2   force =    -0.00005802    0.00040077    0.00021182
     atom   34 type  2   force =    -0.00011801    0.00019443    0.00037900
     atom   35 type  2   force =    -0.00050527   -0.00034688   -0.00006082
     atom   36 type  2   force =     0.00049300   -0.00043893    0.00017397
     atom   37 type  1   force =    -0.00055487   -0.00030226   -0.00011182
     atom   38 type  1   force =     0.00001678   -0.00002927   -0.00045049
     atom   39 type  2   force =    -0.00001428   -0.00014442   -0.00024689
     atom   40 type  2   force =    -0.00013963   -0.00014701   -0.00033880
     atom   41 type  2   force =    -0.00010842    0.00013266   -0.00035894
     atom   42 type  2   force =    -0.00000440    0.00034990   -0.00018145
     atom   43 type  1   force =    -0.00023374    0.00033821   -0.00014688
     atom   44 type  1   force =     0.00001851   -0.00055659    0.00035078
     atom   45 type  2   force =    -0.00003023    0.00012355    0.09865716
     atom   46 type  2   force =    -0.08087099   -0.00164144   -0.03409792
     atom   47 type  2   force =     0.08068291   -0.00117100   -0.03416530
     atom   48 type  3   force =     0.01102881    0.00155596    0.00093219
     atom   49 type  2   force =     0.00051249    0.00034268   -0.00140977
     atom   50 type  4   force =    -0.01265438   -0.00119698   -0.00079530
     atom   51 type  4   force =     0.00057369    0.00004112    0.00025381
     atom   52 type  4   force =     0.00012011    0.00039170    0.00032331
     atom   53 type  2   force =     0.00032346   -0.00026864   -0.00122872
     atom   54 type  4   force =    -0.00077557   -0.00041156    0.00086424

     Total force =     0.383042     Total SCF correction =     0.000722
  @ DRIVER MODE: Message from server: STATUS
  @ DRIVER MODE: Message from server: GETFORCE
  @ DRIVER MODE: Returning v,forces,stress,ensemble

     Writing output data file ./calc.save/
  @ DRIVER MODE: Message from server: EXIT
  @ DRIVE MODE: Exiting

     General routines

     Parallel routines

   This run was terminated on:  21: 4: 7  22Sep2021

   JOB DONE.