     Program PWSCF v.6.7GPU starts on 22Sep2021 at  6:53:51

     R & G space division:  proc/nbgrp/npool/nimage =      10
     Reading input from /storage/home/hcoda1/3/ntian30/research/carbon/CxH_vib/CH_calc/ads_slab/CHNHNH2H2O_b/out_0025/pw.inp
Warning: card &CELL ignored
Warning: card   CELL_DYNAMICS='IPI', ignored
Warning: card / ignored

     Current dimensions of program PWSCF are:
     Max number of different atomic species (ntypx) = 10
     Max number of k-points (npk) =  40000
     Max angular momentum in pseudopotentials (lmaxx) =  3
     Presently no symmetry can be used with electric field

     Message from routine cell_base_init:
     DEPRECATED: use true lattice parameter, not A to a.u. conversion factor

     IMPORTANT: XC functional enforced from input :
     Exchange-correlation= BEEF-VDW
                           (   1   4  43  14   2   0   0)
     Any further DFT definition will be discarded
     Please, verify this is what you really want

  @ DRIVER MODE: Connecting to
 qe_1139763_2927425.sched-torque.pace.gatech.eduq3zre0kt_scratch
  using UNIX socket
  @ DRIVER MODE: Message from server: STATUS
  @ DRIVER MODE: Message from server: INIT
  @ DRIVER MODE: Receiving replica           0          -1
  @ DRIVER MODE: Receiving encoded integer          25
  @ DRIVER MODE:  SCF:  T  FORCE:  T  STRESS:  F  VC:  F  ENSEMBLE:  F
  @ DRIVER MODE:  SCF:  T  FORCE:  T  STRESS:  F  VC:  F  ENSEMBLE:  F

     Using Slab Decomposition

     bravais-lattice index     =            0
     lattice parameter (alat)  =       1.8897  a.u.
     unit-cell volume          =    6658.9804 (a.u.)^3
     number of atoms/cell      =           57
     number of atomic types    =            5
     number of electrons       =       404.00
     number of Kohn-Sham states=          212
     kinetic-energy cutoff     =      29.3995  Ry
     charge density cutoff     =     293.9946  Ry
     scf convergence threshold =      7.3E-08
     mixing beta               =       0.0500
     number of iterations used =            8  plain     mixing
     Exchange-correlation= BEEF-VDW
                           (   1   4  43  14   2   0   0)

     celldm(1)=   1.889726  celldm(2)=   0.000000  celldm(3)=   0.000000
     celldm(4)=   0.000000  celldm(5)=   0.000000  celldm(6)=   0.000000

     crystal axes: (cart. coord. in units of alat)
               a(1) = (   6.579727   0.000000   0.000000 )
               a(2) = (  -0.000775   5.961596   0.000000 )
               a(3) = (   0.000000   0.000000  25.155947 )

     reciprocal axes: (cart. coord. in units 2 pi/alat)
               b(1) = (  0.151982  0.000020  0.000000 )
               b(2) = (  0.000000  0.167740  0.000000 )
               b(3) = (  0.000000  0.000000  0.039752 )

     PseudoPot. # 1 for Ti read from file:
     /storage/coda1/p-amedford6/0/shared/rich_project_chbe-medford/medford-share/data/pseudos_module/espresso/nninc/pbe/van/Ti.UPF
     MD5 check sum: 8e4df49b7f0d34bbd5052bf3f5ea0213
     Pseudo is Ultrasoft, Zval = 12.0
     Generated by new atomic code, or converted to UPF format
     Using radial grid of  851 points,  6 beta functions with:
                l(1) =   0
                l(2) =   0
                l(3) =   1
                l(4) =   1
                l(5) =   2
                l(6) =   2
     Q(r) pseudized with  8 coefficients,  rinner =    1.000   1.000   1.000
                                                       1.000   1.000

     PseudoPot. # 2 for O  read from file:
     /storage/coda1/p-amedford6/0/shared/rich_project_chbe-medford/medford-share/data/pseudos_module/espresso/nninc/pbe/van/O.UPF
     MD5 check sum: 78c19812648e8988a0fe644b0f25305e
     Pseudo is Ultrasoft, Zval =  6.0
     Generated by new atomic code, or converted to UPF format
     Using radial grid of  737 points,  4 beta functions with:
                l(1) =   0
                l(2) =   0
                l(3) =   1
                l(4) =   1
     Q(r) pseudized with  8 coefficients,  rinner =    0.800   0.800   0.800

     PseudoPot. # 3 for N  read from file:
     /storage/coda1/p-amedford6/0/shared/rich_project_chbe-medford/medford-share/data/pseudos_module/espresso/nninc/pbe/van/N.UPF
     MD5 check sum: 90d10febe142ad51ac9d5be1deb811c4
     Pseudo is Ultrasoft, Zval =  5.0
     Generated by new atomic code, or converted to UPF format
     Using radial grid of  729 points,  4 beta functions with:
                l(1) =   0
                l(2) =   0
                l(3) =   1
                l(4) =   1
     Q(r) pseudized with  8 coefficients,  rinner =    0.800   0.800   0.800

     PseudoPot. # 4 for C  read from file:
     /storage/coda1/p-amedford6/0/shared/rich_project_chbe-medford/medford-share/data/pseudos_module/espresso/nninc/pbe/van/C.UPF
     MD5 check sum: 1a69bf6b8db32088f5b2163dbdb77a27
     Pseudo is Ultrasoft, Zval =  4.0
     Generated by new atomic code, or converted to UPF format
     Using radial grid of  721 points,  4 beta functions with:
                l(1) =   0
                l(2) =   0
                l(3) =   1
                l(4) =   1
     Q(r) pseudized with  8 coefficients,  rinner =    0.800   0.800   0.800

     PseudoPot. # 5 for H  read from file:
     /storage/coda1/p-amedford6/0/shared/rich_project_chbe-medford/medford-share/data/pseudos_module/espresso/nninc/pbe/van/H.UPF
     MD5 check sum: b5ee9d7bfd3a09ee7748110bda690ff7
     Pseudo is Ultrasoft, Zval =  1.0
     Generated by new atomic code, or converted to UPF format
     Using radial grid of  615 points,  1 beta functions with:
                l(1) =   0
     Q(r) pseudized with  8 coefficients,  rinner =    0.800

     atomic species   valence    mass     pseudopotential
        Ti1           12.00    47.86700     Ti( 1.00)
        O1             6.00    15.99900     O ( 1.00)
        N1             5.00    14.00700     N ( 1.00)
        C1             4.00    12.01100     C ( 1.00)
        H1             1.00     1.00800     H ( 1.00)

     No symmetry found

   Cartesian axes

     site n.     atom                  positions (alat units)
         1           Ti1 tau(   1) = (   0.0004258   2.9801865   6.0000000  )
         2           Ti1 tau(   2) = (   3.2906075   1.4906267   6.0002472  )
         3           O1  tau(   3) = (   0.0006271   0.0005054   7.9858123  )
         4           O1  tau(   4) = (   3.2906025   0.0005020   7.3038282  )
         5           O1  tau(   5) = (   4.5942328   1.4918067   9.2879030  )
         6           O1  tau(   6) = (   1.9868534   1.4903216   9.2879459  )
         7           Ti1 tau(   7) = (   3.2907910   2.8959150   9.1758416  )
         8           Ti1 tau(   8) = (   0.0015273   1.4827037   9.2680791  )
         9           O1  tau(   9) = (   3.3066417   5.9496923  11.3845403  )
        10           O1  tau(  10) = (   0.0116148   5.9584955  10.6183126  )
        11           O1  tau(  11) = (   1.3010148   1.4986442  12.6442229  )
        12           O1  tau(  12) = (   5.3085967   1.5001388  12.6592367  )
        13           Ti1 tau(  13) = (   0.0282779   2.9853959  12.5065338  )
        14           Ti1 tau(  14) = (   3.3279724   1.4707331  12.5413945  )
        15           O1  tau(  15) = (   0.0378505   0.0859181  14.6860672  )
        16           O1  tau(  16) = (   3.3018867   0.0259462  14.0338077  )
        17           O1  tau(  17) = (   4.5998927   1.5484098  16.1661054  )
        18           O1  tau(  18) = (   2.0454451   1.5021798  16.2221046  )
        19           Ti1 tau(  19) = (   3.3206312   2.9825829  15.7321521  )
        20           Ti1 tau(  20) = (   0.0140791   1.4435866  15.9983415  )
        21           O1  tau(  21) = (   3.2904802   0.0005063   4.7018136  )
        22           O1  tau(  22) = (   6.5273045   5.8164216  17.2577718  )
        23           O1  tau(  23) = (   1.3043587   1.4918075   6.0039043  )
        24           O1  tau(  24) = (   5.2767064   1.4903225   6.0039473  )
        25           Ti1 tau(  25) = (   0.0000382   5.9609847   6.0000000  )
        26           Ti1 tau(  26) = (   3.2902200   4.4714249   6.0002472  )
        27           O1  tau(  27) = (   0.0002396   2.9813036   7.9858123  )
        28           O1  tau(  28) = (   3.2902150   2.9813002   7.3038282  )
        29           O1  tau(  29) = (   4.5938453   4.4726049   9.2879030  )
        30           O1  tau(  30) = (   1.9864658   4.4711199   9.2879459  )
        31           Ti1 tau(  31) = (   3.2891106   5.8743827   9.1763621  )
        32           Ti1 tau(  32) = (   0.0006254   4.4649316   9.2693709  )
        33           O1  tau(  33) = (   3.3068470   2.9864458  11.3814114  )
        34           O1  tau(  34) = (   0.0092240   2.9805883  10.6323155  )
        35           O1  tau(  35) = (   1.2982948   4.4740332  12.6840172  )
        36           O1  tau(  36) = (   5.3097620   4.4704985  12.6972095  )
        37           Ti1 tau(  37) = (   0.0348817   0.0130325  12.4954113  )
        38           Ti1 tau(  38) = (   3.3270268   4.4633798  12.5435021  )
        39           O1  tau(  39) = (   0.0563025   2.9439880  14.9425960  )
        40           O1  tau(  40) = (   3.2900316   2.9661073  13.9503945  )
        41           O1  tau(  41) = (   4.5967999   4.4093095  16.0633277  )
        42           O1  tau(  42) = (   2.0412097   4.4536800  16.1303113  )
        43           Ti1 tau(  43) = (   3.2964201   5.9600488  15.8742613  )
        44           Ti1 tau(  44) = (   0.0241369   4.6516137  15.8518307  )
        45           O1  tau(  45) = (   3.2900926   2.9813045   4.7018136  )
        46           O1  tau(  46) = (   1.3039711   4.4726057   6.0039043  )
        47           O1  tau(  47) = (   5.2763189   4.4711207   6.0039473  )
        48           N1  tau(  48) = (   1.4509408   2.7109095  18.7602185  )
        49           N1  tau(  49) = (   0.0917387   2.5303350  18.2207845  )
        50           C1  tau(  50) = (   1.9503960   3.7723240  19.2784661  )
        51           H1  tau(  51) = (   1.1612915   4.5273475  19.4152495  )
        52           H1  tau(  52) = (   2.0108952   1.9183395  18.4664618  )
        53           H1  tau(  53) = (   6.1377449   3.3539424  18.4987646  )
        54           H1  tau(  54) = (   6.2616785   1.7135167  18.6767212  )
        55           O1  tau(  55) = (   3.7012217   5.9496235  18.2853534  )
        56           H1  tau(  56) = (   4.6684668   5.8470116  18.1670174  )
        57           H1  tau(  57) = (   3.3852657   5.1278045  18.7338684  )

     number of k points=    10  Fermi-Dirac smearing, width (Ry)=  0.0073
                       cart. coord. in units 2pi/alat
        k(    1) = (   0.0000000   0.0000000   0.0000000), wk =   0.1250000
        k(    2) = (   0.0000000   0.0419351   0.0000000), wk =   0.2500000
        k(    3) = (   0.0000000  -0.0838702   0.0000000), wk =   0.1250000
        k(    4) = (   0.0379955   0.0000049   0.0000000), wk =   0.2500000
        k(    5) = (   0.0379955   0.0419400   0.0000000), wk =   0.2500000
        k(    6) = (   0.0379955  -0.0838652   0.0000000), wk =   0.2500000
        k(    7) = (   0.0379955  -0.0419301   0.0000000), wk =   0.2500000
        k(    8) = (  -0.0759910  -0.0000099   0.0000000), wk =   0.1250000
        k(    9) = (  -0.0759910   0.0419252   0.0000000), wk =   0.2500000
        k(   10) = (  -0.0759910  -0.0838800   0.0000000), wk =   0.1250000

     Initial potential from superposition of free atoms

     starting charge  387.99913, renormalised to  404.00000

     negative rho (up, down):  1.598E-02 0.000E+00

     %%%%%%%%%%%%%%%%%%%%%%%%%%%%%%%%%%%%%%%%%%%%%%%%%%%%%%%%%%%%%%%%%%%%%%%%
     %                                                                      %
     % You are using vdW-DF, which was implemented by the Thonhauser group. %
     % Please cite the following two papers that made this development      %
     % possible and the two reviews that describe the various versions:     %
     %                                                                      %
     %   T. Thonhauser et al., PRL 115, 136402 (2015).                      %
     %   T. Thonhauser et al., PRB 76, 125112 (2007).                       %
     %   K. Berland et al., Rep. Prog. Phys. 78, 066501 (2015).             %
     %   D.C. Langreth et al., J. Phys.: Condens. Matter 21, 084203 (2009). %
     %                                                                      %
     %                                                                      %
     % If you are calculating the stress with vdW-DF, please also cite:     %
     %                                                                      %
     %   R. Sabatini et al., J. Phys.: Condens. Matter 24, 424209 (2012).   %
     %                                                                      %
     %%%%%%%%%%%%%%%%%%%%%%%%%%%%%%%%%%%%%%%%%%%%%%%%%%%%%%%%%%%%%%%%%%%%%%%%

     Adding external electric field

     Computed dipole along edir(3) :
        Dipole              -14.3585 Ry au,        -36.4957 Debye
        Dipole field         -0.0271 Ry au,

        Potential amp.        2.5118 Ry
        Total length         46.3494 bohr

     Starting wfcs are  306 atomic wfcs
  @ DRIVER MODE: Message from server: STATUS
  @ DRIVER MODE: Message from server: POSDATA
  @ DRIVER MODE: Reading and sharing cell
  @ DRIVER MODE: Reading and sharing positions
  @ DRIVER MODE: Received positions

     Self-consistent Calculation

     iteration #  1     ecut=    29.40 Ry     beta= 0.05
     Davidson diagonalization with overlap
     c_bands:  3 eigenvalues not converged
     c_bands:  4 eigenvalues not converged
     c_bands:  4 eigenvalues not converged
     c_bands:  4 eigenvalues not converged
     c_bands:  5 eigenvalues not converged
     c_bands:  3 eigenvalues not converged
     c_bands:  2 eigenvalues not converged
     c_bands:  4 eigenvalues not converged
     ethr =  1.00E-05,  avg # of iterations = 21.9

[...]

     total energy              =   -2220.92144768 Ry
     estimated scf accuracy    <    8587.38607292 Ry

     iteration #  2     ecut=    29.40 Ry     beta= 0.05
     Davidson diagonalization with overlap
     ethr =  1.00E-02,  avg # of iterations = 29.3

[...]

     iteration # 59     ecut=    29.40 Ry     beta= 0.05
     Davidson diagonalization with overlap
     c_bands:  1 eigenvalues not converged
     ethr =  2.51E-10,  avg # of iterations = 16.6

[...]

     total energy              =   -2975.10521620 Ry
     estimated scf accuracy    <       0.00000010 Ry

     iteration # 66     ecut=    29.40 Ry     beta= 0.05
     Davidson diagonalization with overlap
     ethr =  2.37E-11,  avg # of iterations =  7.6

     negative rho (up, down):  1.579E-02 0.000E+00

     Adding external electric field

     Computed dipole along edir(3) :
        Dipole                1.0252 Ry au,          2.6057 Debye
        Dipole field          0.0019 Ry au,

        Potential amp.       -0.1793 Ry
        Total length         46.3494 bohr

     End of self-consistent calculation

          k = 0.0000 0.0000 0.0000 ( 18029 PWs)   bands (ev):

   -55.3846 -55.3488 -55.3447 -55.3106 -55.3074 -55.3017 -55.2665 -55.2313
   -55.2161 -55.1813 -55.1746 -55.1592 -55.1409 -55.1118 -54.3758 -54.3418
   -31.9436 -31.8796 -31.8374 -31.7562 -31.7074 -31.7047 -31.6805 -31.6775
   -31.6334 -31.5977 -31.5906 -31.5892 -31.5823 -31.5787 -31.5607 -31.5586
   -31.5339 -31.5259 -31.5230 -31.5117 -31.4974 -31.4908 -31.4720 -31.4672
   -31.4588 -31.4458 -31.4451 -31.4163 -31.4020 -31.3982 -31.3951 -31.3730
   -31.3691 -31.3650 -31.3615 -31.3403 -31.3293 -31.3172 -31.3024 -31.3023
   -31.2921 -31.2856 -30.7853 -30.6908 -30.6688 -30.6016 -30.5149 -30.4040
   -18.8931 -18.4537 -16.2196 -15.9723 -15.8362 -15.7317 -15.5943 -15.4963
   -15.3870 -15.2738 -15.2507 -15.1571 -15.0825 -15.0786 -15.0414 -15.0159
   -14.9532 -14.9319 -14.9081 -14.9021 -14.8875 -14.8773 -14.8408 -14.8299
   -14.7972 -14.7859 -14.7686 -14.6504 -14.6263 -14.5514 -14.4808 -14.3443
   -12.8784 -12.7609  -9.8751  -6.9979  -6.3768  -6.0841  -4.4392  -3.7389
    -3.5435  -3.4098  -3.3314  -3.3032  -3.2851  -3.1536  -3.0593  -2.9013
    -2.8626  -2.8064  -2.6732  -2.5973  -2.5909  -2.5029  -2.4305  -2.4072
    -2.3742  -2.2650  -2.2587  -2.2091  -2.1915  -2.1684  -2.1592  -2.1126
    -2.0667  -2.0394  -1.9543  -1.8528  -1.8089  -1.7892  -1.7528  -1.7302
    -1.7256  -1.6818  -1.6756  -1.6518  -1.6131  -1.5888  -1.5434  -1.4313
    -1.3894  -1.2312  -1.1939  -1.0393  -1.0189  -0.9797  -0.9595  -0.9239
    -0.8932  -0.8767  -0.8618  -0.7716  -0.7133  -0.6474  -0.5831  -0.4922
    -0.4818  -0.4077  -0.3821  -0.3172  -0.2295  -0.1849  -0.1753  -0.1504
    -0.1470  -0.0334   0.0115   0.0718   0.0904   0.1478   0.1636   0.1858
     0.2558   0.3094   0.3789   0.4097   0.4887   0.5068   0.5420   0.5512
     0.5835   0.5940   0.6702   0.6850   0.7132   0.8159   0.9134   1.0060
     1.2163   1.2190   1.2494   1.5515   1.5537   1.6471   1.8304   2.2233
     2.2717   3.7052   3.7836   3.8332   3.8507   3.8553   3.9401   4.1947
     4.2090   4.2216   4.2279   4.2687

[...]

          k = 0.0380-0.0419 0.0000 ( 17876 PWs)   bands (ev):

[...]

          k =-0.0760-0.0000 0.0000 ( 17886 PWs)   bands (ev):

[...]

          k =-0.0760-0.0839 0.0000 ( 17948 PWs)   bands (ev):

   -55.3677 -55.3654 -55.3276 -55.3275 -55.3045 -55.3008 -55.2527 -55.2451
   -55.2018 -55.1952 -55.1610 -55.1586 -55.1570 -55.1135 -54.3587 -54.3587
   -31.7943 -31.7560 -31.7419 -31.6526 -31.6524 -31.6379 -31.6260 -31.6187
   -31.6186 -31.5978 -31.5928 -31.5896 -31.5667 -31.5590 -31.5470 -31.5332
   -31.5300 -31.5274 -31.5235 -31.5154 -31.5107 -31.5086 -31.5076 -31.4999
   -31.4680 -31.4666 -31.4475 -31.4473 -31.4468 -31.4419 -31.4393 -31.4347
   -31.4253 -31.4139 -31.4082 -31.3915 -31.3898 -31.3800 -31.3386 -31.3375
   -31.3369 -31.3182 -30.6814 -30.6814 -30.5979 -30.5977 -30.5583 -30.5582
   -18.8874 -18.4560 -15.8392 -15.6524 -15.5010 -15.4293 -15.4090 -15.3257
   -15.2704 -15.2671 -15.1939 -15.1760 -15.1636 -15.1420 -15.1322 -15.0849
   -15.0479 -15.0112 -14.9925 -14.9698 -14.9267 -14.9040 -14.9024 -14.8956
   -14.8879 -14.8476 -14.8423 -14.8390 -14.7473 -14.7453 -14.7093 -14.5606
   -12.8624 -12.8623  -9.8843  -6.9866  -6.3520  -6.0602  -4.4519  -3.6683
    -3.0215  -2.9104  -2.8999  -2.6708  -2.6527  -2.5916  -2.5792  -2.4911
    -2.4755  -2.4149  -2.3913  -2.3411  -2.3182  -2.2804  -2.2666  -2.2448
    -2.2237  -2.2100  -2.1835  -2.1674  -2.1505  -2.1309  -2.1197  -2.1084
    -2.0531  -2.0477  -2.0386  -2.0132  -1.9902  -1.9541  -1.9442  -1.9281
    -1.7724  -1.7566  -1.7351  -1.5999  -1.5955  -1.5617  -1.5213  -1.4938
    -1.4357  -1.4272  -1.3990  -1.3402  -1.1467  -1.1361  -1.1239  -1.1063
    -1.0353  -0.9792  -0.9654  -0.9476  -0.8939  -0.8157  -0.7822  -0.7294
    -0.6413  -0.5885  -0.5791  -0.5531  -0.4320  -0.4089  -0.3664  -0.3484
    -0.3321  -0.2978  -0.2962  -0.2388  -0.1861  -0.1506  -0.1277  -0.1135
    -0.0765   0.0782   0.1301   0.1467   0.2607   0.2903   0.4683   0.5111
     0.5328   0.6379   0.7213   0.7491   0.7637   0.8890   0.9113   0.9137
     0.9820   1.0042   1.0643   1.0700   1.2060   2.0031   2.0044   2.0915
     2.0918   3.8303   3.9530   3.9974   4.0331   4.1090   4.1619   4.2190
     4.2781   4.2897   4.2932   4.3595

     the Fermi energy is     3.7672 ev

!    total energy              =   -2975.10524699 Ry
     estimated scf accuracy    <       0.00000007 Ry
     smearing contrib. (-TS)   =      -0.03672122 Ry
     internal energy E=F+TS    =   -2975.06852577 Ry

     The total energy is F=E-TS. E is the sum of the following terms:
     one-electron contribution =  -23505.51753596 Ry
     hartree contribution      =   11848.78500025 Ry
     xc contribution           =    -494.92264723 Ry
     ewald contribution        =    9176.58467390 Ry
     electric field correction =       0.00198327 Ry

     convergence has been achieved in  66 iterations

     Forces acting on atoms (cartesian axes, Ry/au):

     atom    1 type  1   force =     0.00002616   -0.00025000    0.09308064
     atom    2 type  1   force =    -0.00017741   -0.00032178   -0.17839306
     atom    3 type  2   force =     0.00006089   -0.00017092   -0.02025002
     atom    4 type  2   force =     0.00001856   -0.00203714    0.05924611
     atom    5 type  2   force =    -0.01033763   -0.00110374    0.00808452
     atom    6 type  2   force =     0.01218267   -0.00054787    0.00816426
     atom    7 type  1   force =     0.00015045    0.00329868   -0.01111546
     atom    8 type  1   force =    -0.00030669    0.00052504   -0.00561618
     atom    9 type  2   force =     0.00004125    0.00017662   -0.00016338
     atom   10 type  2   force =    -0.00146353   -0.00003618   -0.00173375
     atom   11 type  2   force =     0.00038055   -0.00002880   -0.00006297
     atom   12 type  2   force =    -0.00009556    0.00011187   -0.00009210
     atom   13 type  1   force =    -0.00010457   -0.00017257   -0.00024256
     atom   14 type  1   force =    -0.00021261   -0.00035423    0.00033593
     atom   15 type  2   force =     0.00007016   -0.00048873    0.00009622
     atom   16 type  2   force =     0.00021827    0.00008907    0.00025571
     atom   17 type  2   force =     0.00037084   -0.00018256    0.00015160
     atom   18 type  2   force =    -0.00012866   -0.00012968   -0.00009058
     atom   19 type  1   force =    -0.00027126   -0.00049519    0.00008710
     atom   20 type  1   force =     0.00009212    0.00029473    0.00051015
     atom   21 type  2   force =    -0.00000089   -0.00007468    0.10402699
     atom   22 type  2   force =    -0.00006213   -0.00001513   -0.00002875
     atom   23 type  2   force =    -0.07033975   -0.00016089   -0.02684163
     atom   24 type  2   force =     0.07021045    0.00028695   -0.02691860
     atom   25 type  1   force =     0.00001724   -0.00015707    0.09274281
     atom   26 type  1   force =    -0.00015238   -0.00039593   -0.17833881
     atom   27 type  2   force =     0.00011188   -0.00030702   -0.01919079
     atom   28 type  2   force =     0.00004816   -0.00163426    0.05839654
     atom   29 type  2   force =    -0.01028928   -0.00064302    0.00729212
     atom   30 type  2   force =     0.01202610   -0.00031036    0.00742738
     atom   31 type  1   force =     0.00007589    0.00515730   -0.01465582
     atom   32 type  1   force =    -0.00014063   -0.00051235   -0.00596078
     atom   33 type  2   force =     0.00012796   -0.00039249   -0.00024471
     atom   34 type  2   force =    -0.00078644    0.00260714   -0.00104867
     atom   35 type  2   force =    -0.00006719   -0.00012176   -0.00012535
     atom   36 type  2   force =     0.00023612   -0.00000411   -0.00015293
     atom   37 type  1   force =    -0.00044990    0.00007614    0.00002239
     atom   38 type  1   force =    -0.00002772   -0.00025111   -0.00024781
     atom   39 type  2   force =    -0.00030037   -0.00019439   -0.00016137
     atom   40 type  2   force =    -0.00013522   -0.00005676   -0.00003648
     atom   41 type  2   force =    -0.00013915   -0.00014420    0.00036178
     atom   42 type  2   force =    -0.00007999   -0.00025571    0.00016199
     atom   43 type  1   force =     0.00002669   -0.00026582    0.00019190
     atom   44 type  1   force =    -0.00001023   -0.00004792    0.00016006
     atom   45 type  2   force =     0.00001087   -0.00011029    0.10399799
     atom   46 type  2   force =    -0.07036389   -0.00011945   -0.02686439
     atom   47 type  2   force =     0.07021049    0.00031617   -0.02692574
     atom   48 type  3   force =    -0.00615778    0.00691882    0.00228970
     atom   49 type  3   force =    -0.00181702    0.00007755    0.00038172
     atom   50 type  4   force =     0.00084799    0.00040198    0.00045131
     atom   51 type  5   force =     0.00006082   -0.00078168   -0.00054705
     atom   52 type  5   force =     0.00692202   -0.00688674   -0.00203601
     atom   53 type  5   force =    -0.00026183   -0.00004834   -0.00008390
     atom   54 type  5   force =     0.00017170    0.00055490   -0.00003260
     atom   55 type  2   force =     0.00011362   -0.00022048    0.00061275
     atom   56 type  5   force =     0.00020915   -0.00038464   -0.00041229
     atom   57 type  5   force =    -0.00035933   -0.00007695    0.00008489

     Total force =     0.366460     Total SCF correction =     0.000465
  @ DRIVER MODE: Message from server: STATUS
  @ DRIVER MODE: Message from server: GETFORCE
  @ DRIVER MODE: Returning v,forces,stress,ensemble

     Writing output data file ./calc.save/
  @ DRIVER MODE: Message from server: EXIT
  @ DRIVE MODE: Exiting

     General routines

     Parallel routines

   This run was terminated on:   7:13:35  22Sep2021

   JOB DONE.