     Program PWSCF v.6.7GPU starts on 14Sep2021 at 18: 9: 7

     R & G space division:  proc/nbgrp/npool/nimage =      10
     Reading input from /storage/home/hcoda1/3/ntian30/research/carbon/CxH_vib/CH2_calc/ads_slab/CH2OHN2_a/out_0013/pw.inp
Warning: card &CELL ignored
Warning: card   CELL_DYNAMICS='IPI', ignored
Warning: card / ignored

     Current dimensions of program PWSCF are:
     Max number of different atomic species (ntypx) = 10
     Max number of k-points (npk) =  40000
     Max angular momentum in pseudopotentials (lmaxx) =  3
     Presently no symmetry can be used with electric field

     Message from routine cell_base_init:
     DEPRECATED: use true lattice parameter, not A to a.u. conversion factor

     IMPORTANT: XC functional enforced from input :
     Exchange-correlation= BEEF-VDW
                           (   1   4  43  14   2   0   0)
     Any further DFT definition will be discarded
     Please, verify this is what you really want

  @ DRIVER MODE: Connecting to
 qe_1139763_2840440.sched-torque.pace.gatech.eduecoqut24_scratch
  using UNIX socket
  @ DRIVER MODE: Message from server: STATUS
  @ DRIVER MODE: Message from server: INIT
  @ DRIVER MODE: Receiving replica           0          -1
  @ DRIVER MODE: Receiving encoded integer          25
  @ DRIVER MODE:  SCF:  T  FORCE:  T  STRESS:  F  VC:  F  ENSEMBLE:  F
  @ DRIVER MODE:  SCF:  T  FORCE:  T  STRESS:  F  VC:  F  ENSEMBLE:  F

     Using Slab Decomposition

     bravais-lattice index     =            0
     lattice parameter (alat)  =       1.8897  a.u.
     unit-cell volume          =    6658.9804 (a.u.)^3
     number of atoms/cell      =           54
     number of atomic types    =            5
     number of electrons       =       401.00
     number of Kohn-Sham states=          210
     kinetic-energy cutoff     =      29.3995  Ry
     charge density cutoff     =     293.9946  Ry
     scf convergence threshold =      7.3E-08
     mixing beta               =       0.0500
     number of iterations used =            8  plain     mixing
     Exchange-correlation= BEEF-VDW
                           (   1   4  43  14   2   0   0)

     celldm(1)=   1.889726  celldm(2)=   0.000000  celldm(3)=   0.000000
     celldm(4)=   0.000000  celldm(5)=   0.000000  celldm(6)=   0.000000

     crystal axes: (cart. coord. in units of alat)
               a(1) = (   6.579727   0.000000   0.000000 )
               a(2) = (  -0.000775   5.961596   0.000000 )
               a(3) = (   0.000000   0.000000  25.155947 )

     reciprocal axes: (cart. coord. in units 2 pi/alat)
               b(1) = (  0.151982  0.000020  0.000000 )
               b(2) = (  0.000000  0.167740  0.000000 )
               b(3) = (  0.000000  0.000000  0.039752 )

     PseudoPot. # 1 for C  read from file:
     /storage/coda1/p-amedford6/0/shared/rich_project_chbe-medford/medford-share/data/pseudos_module/espresso/nninc/pbe/van/C.UPF
     MD5 check sum: 1a69bf6b8db32088f5b2163dbdb77a27
     Pseudo is Ultrasoft, Zval =  4.0
     Generated by new atomic code, or converted to UPF format
     Using radial grid of  721 points,  4 beta functions with:
                l(1) =   0
                l(2) =   0
                l(3) =   1
                l(4) =   1
     Q(r) pseudized with  8 coefficients,  rinner =    0.800   0.800   0.800

     PseudoPot. # 2 for H  read from file:
     /storage/coda1/p-amedford6/0/shared/rich_project_chbe-medford/medford-share/data/pseudos_module/espresso/nninc/pbe/van/H.UPF
     MD5 check sum: b5ee9d7bfd3a09ee7748110bda690ff7
     Pseudo is Ultrasoft, Zval =  1.0
     Generated by new atomic code, or converted to UPF format
     Using radial grid of  615 points,  1 beta functions with:
                l(1) =   0
     Q(r) pseudized with  8 coefficients,  rinner =    0.800

     PseudoPot. # 3 for O  read from file:
     /storage/coda1/p-amedford6/0/shared/rich_project_chbe-medford/medford-share/data/pseudos_module/espresso/nninc/pbe/van/O.UPF
     MD5 check sum: 78c19812648e8988a0fe644b0f25305e
     Pseudo is Ultrasoft, Zval =  6.0
     Generated by new atomic code, or converted to UPF format
     Using radial grid of  737 points,  4 beta functions with:
                l(1) =   0
                l(2) =   0
                l(3) =   1
                l(4) =   1
     Q(r) pseudized with  8 coefficients,  rinner =    0.800   0.800   0.800

     PseudoPot. # 4 for Ti read from file:
     /storage/coda1/p-amedford6/0/shared/rich_project_chbe-medford/medford-share/data/pseudos_module/espresso/nninc/pbe/van/Ti.UPF
     MD5 check sum: 8e4df49b7f0d34bbd5052bf3f5ea0213
     Pseudo is Ultrasoft, Zval = 12.0
     Generated by new atomic code, or converted to UPF format
     Using radial grid of  851 points,  6 beta functions with:
                l(1) =   0
                l(2) =   0
                l(3) =   1
                l(4) =   1
                l(5) =   2
                l(6) =   2
     Q(r) pseudized with  8 coefficients,  rinner =    1.000   1.000   1.000
                                                       1.000   1.000

     PseudoPot. # 5 for N  read from file:
     /storage/coda1/p-amedford6/0/shared/rich_project_chbe-medford/medford-share/data/pseudos_module/espresso/nninc/pbe/van/N.UPF
     MD5 check sum: 90d10febe142ad51ac9d5be1deb811c4
     Pseudo is Ultrasoft, Zval =  5.0
     Generated by new atomic code, or converted to UPF format
     Using radial grid of  729 points,  4 beta functions with:
                l(1) =   0
                l(2) =   0
                l(3) =   1
                l(4) =   1
     Q(r) pseudized with  8 coefficients,  rinner =    0.800   0.800   0.800

     atomic species   valence    mass     pseudopotential
        C1             4.00    12.01100     C ( 1.00)
        H1             1.00     1.00800     H ( 1.00)
        O1             6.00    15.99900     O ( 1.00)
        Ti1           12.00    47.86700     Ti( 1.00)
        N1             5.00    14.00700     N ( 1.00)

     No symmetry found

   Cartesian axes

     site n.     atom                  positions (alat units)
         1           C1  tau(   1) = (   5.1764158   1.5385028  19.8564928  )
         2           H1  tau(   2) = (   4.2418317   1.4168958  19.3325039  )
         3           H1  tau(   3) = (   6.1328006   2.9100337  18.2018079  )
         4           H1  tau(   4) = (   6.0297582   0.9181690  19.6386741  )
         5           O1  tau(   5) = (   0.0006271   0.0005054   7.9858123  )
         6           O1  tau(   6) = (   3.2906025   0.0005020   7.3038282  )
         7           O1  tau(   7) = (   4.5942328   1.4918067   9.2879030  )
         8           O1  tau(   8) = (   1.9868534   1.4903216   9.2879459  )
         9           O1  tau(   9) = (   3.2696825   0.0177092  11.3460806  )
        10           O1  tau(  10) = (   6.5743896   0.0111799  10.6115589  )
        11           O1  tau(  11) = (   1.2770957   1.5070501  12.6511825  )
        12           O1  tau(  12) = (   5.2749141   1.5057152  12.6378801  )
        13           O1  tau(  13) = (   6.5263050   0.0247340  14.7317399  )
        14           O1  tau(  14) = (   3.2747511   0.0213673  13.9312909  )
        15           O1  tau(  15) = (   4.4933390   1.5239927  16.1070736  )
        16           O1  tau(  16) = (   2.0026543   1.5217075  16.0711130  )
        17           O1  tau(  17) = (   3.2904802   0.0005063   4.7018136  )
        18           O1  tau(  18) = (   6.5469758   0.0421337  17.2556835  )
        19           O1  tau(  19) = (   1.3043587   1.4918075   6.0039043  )
        20           O1  tau(  20) = (   5.2767064   1.4903225   6.0039473  )
        21           O1  tau(  21) = (   0.0002396   2.9813036   7.9858123  )
        22           O1  tau(  22) = (   3.2902150   2.9813002   7.3038282  )
        23           O1  tau(  23) = (   4.5938453   4.4726049   9.2879030  )
        24           O1  tau(  24) = (   1.9864658   4.4711199   9.2879459  )
        25           O1  tau(  25) = (   3.2722311   3.0011533  11.3472759  )
        26           O1  tau(  26) = (   6.5787409   2.9955660  10.5677177  )
        27           O1  tau(  27) = (   1.2755865   4.4883074  12.6550720  )
        28           O1  tau(  28) = (   5.2773609   4.4903743  12.6413705  )
        29           O1  tau(  29) = (   6.5451067   2.9841024  14.7029789  )
        30           O1  tau(  30) = (   3.2773495   3.0062142  13.9304278  )
        31           O1  tau(  31) = (   4.4941242   4.5002890  16.1165364  )
        32           O1  tau(  32) = (   2.0016379   4.5015838  16.0818063  )
        33           O1  tau(  33) = (   3.2900926   2.9813045   4.7018136  )
        34           O1  tau(  34) = (   1.3039711   4.4726057   6.0039043  )
        35           O1  tau(  35) = (   5.2763189   4.4711207   6.0039473  )
        36           O1  tau(  36) = (   6.5536212   3.0044252  17.3297899  )
        37           Ti1 tau(  37) = (   0.0004258   2.9801865   6.0000000  )
        38           Ti1 tau(  38) = (   3.2906075   1.4906267   6.0002472  )
        39           Ti1 tau(  39) = (   3.3348906   3.0327224   9.1579215  )
        40           Ti1 tau(  40) = (   0.0203972   1.6099837   9.3624797  )
        41           Ti1 tau(  41) = (   6.5380572   3.0081639  12.8251979  )
        42           Ti1 tau(  42) = (   3.2225065   1.5141752  12.4854623  )
        43           Ti1 tau(  43) = (   3.2525775   3.0161725  15.7233172  )
        44           Ti1 tau(  44) = (   6.5465844   1.4469101  15.9770741  )
        45           Ti1 tau(  45) = (   0.0000382   5.9609847   6.0000000  )
        46           Ti1 tau(  46) = (   3.2902200   4.4714249   6.0002472  )
        47           Ti1 tau(  47) = (   3.2831171   0.0558662   9.1532617  )
        48           Ti1 tau(  48) = (   0.0294011   4.5318189   9.2743274  )
        49           Ti1 tau(  49) = (   6.5160019   0.0223579  12.5245727  )
        50           Ti1 tau(  50) = (   3.2107252   4.4944464  12.4919313  )
        51           Ti1 tau(  51) = (   3.2545639   0.0336594  15.7221480  )
        52           Ti1 tau(  52) = (   6.5427997   4.6104004  16.1309301  )
        53           N1  tau(  53) = (   5.0796009   2.6163306  22.0446247  )
        54           N1  tau(  54) = (   5.1188049   2.0915644  21.0330699  )

     number of k points=    10  Fermi-Dirac smearing, width (Ry)=  0.0073
                       cart. coord. in units 2pi/alat
        k(    1) = (   0.0000000   0.0000000   0.0000000), wk =   0.1250000
        k(    2) = (   0.0000000   0.0419351   0.0000000), wk =   0.2500000
        k(    3) = (   0.0000000  -0.0838702   0.0000000), wk =   0.1250000
        k(    4) = (   0.0379955   0.0000049   0.0000000), wk =   0.2500000
        k(    5) = (   0.0379955   0.0419400   0.0000000), wk =   0.2500000
        k(    6) = (   0.0379955  -0.0838652   0.0000000), wk =   0.2500000
        k(    7) = (   0.0379955  -0.0419301   0.0000000), wk =   0.2500000
        k(    8) = (  -0.0759910  -0.0000099   0.0000000), wk =   0.1250000
        k(    9) = (  -0.0759910   0.0419252   0.0000000), wk =   0.2500000
        k(   10) = (  -0.0759910  -0.0838800   0.0000000), wk =   0.1250000

     Initial potential from superposition of free atoms

     starting charge  384.99916, renormalised to  401.00000

     negative rho (up, down):  1.196E-02 0.000E+00

     %%%%%%%%%%%%%%%%%%%%%%%%%%%%%%%%%%%%%%%%%%%%%%%%%%%%%%%%%%%%%%%%%%%%%%%%
     %                                                                      %
     % You are using vdW-DF, which was implemented by the Thonhauser group. %
     % Please cite the following two papers that made this development      %
     % possible and the two reviews that describe the various versions:     %
     %                                                                      %
     %   T. Thonhauser et al., PRL 115, 136402 (2015).                      %
     %   T. Thonhauser et al., PRB 76, 125112 (2007).                       %
     %   K. Berland et al., Rep. Prog. Phys. 78, 066501 (2015).             %
     %   D.C. Langreth et al., J. Phys.: Condens. Matter 21, 084203 (2009). %
     %                                                                      %
     %                                                                      %
     % If you are calculating the stress with vdW-DF, please also cite:     %
     %                                                                      %
     %   R. Sabatini et al., J. Phys.: Condens. Matter 24, 424209 (2012).   %
     %                                                                      %
     %%%%%%%%%%%%%%%%%%%%%%%%%%%%%%%%%%%%%%%%%%%%%%%%%%%%%%%%%%%%%%%%%%%%%%%%

     Adding external electric field

     Computed dipole along edir(3) :
        Dipole              -14.0962 Ry au,        -35.8290 Debye
        Dipole field         -0.0266 Ry au,

        Potential amp.        2.4659 Ry
        Total length         46.3494 bohr

     Starting wfcs are  303 atomic wfcs
  @ DRIVER MODE: Message from server: STATUS
  @ DRIVER MODE: Message from server: POSDATA
  @ DRIVER MODE: Reading and sharing cell
  @ DRIVER MODE: Reading and sharing positions
  @ DRIVER MODE: Received positions

     Self-consistent Calculation

     iteration #  1     ecut=    29.40 Ry     beta= 0.05
     Davidson diagonalization with overlap
     c_bands:  5 eigenvalues not converged
     c_bands:  4 eigenvalues not converged
     c_bands:  5 eigenvalues not converged
     c_bands:  2 eigenvalues not converged
     c_bands:  4 eigenvalues not converged
     c_bands:  4 eigenvalues not converged
     c_bands:  4 eigenvalues not converged
     c_bands:  4 eigenvalues not converged
     c_bands:  5 eigenvalues not converged
     ethr =  1.00E-05,  avg # of iterations = 22.0

[...]

     total energy              =   -2410.40419188 Ry
     estimated scf accuracy    <    6379.23177210 Ry

     iteration #  2     ecut=    29.40 Ry     beta= 0.05
     Davidson diagonalization with overlap
     ethr =  1.00E-02,  avg # of iterations = 24.1

[...]

     iteration # 56     ecut=    29.40 Ry     beta= 0.05
     Davidson diagonalization with overlap
     c_bands:  1 eigenvalues not converged
     c_bands:  1 eigenvalues not converged
     ethr =  1.57E-06,  avg # of iterations = 16.9

[...]

     total energy              =   -2971.53802755 Ry
     estimated scf accuracy    <       0.00000010 Ry

     iteration # 77     ecut=    29.40 Ry     beta= 0.05
     Davidson diagonalization with overlap
     ethr =  2.40E-11,  avg # of iterations = 10.2

     negative rho (up, down):  1.325E-02 0.000E+00

     Adding external electric field

     Computed dipole along edir(3) :
        Dipole                0.4403 Ry au,          1.1190 Debye
        Dipole field          0.0008 Ry au,

        Potential amp.       -0.0770 Ry
        Total length         46.3494 bohr

     End of self-consistent calculation

          k = 0.0000 0.0000 0.0000 ( 18029 PWs)   bands (ev):

   -55.7645 -55.7516 -55.7274 -55.7154 -55.6725 -55.6519 -55.6257 -55.5936
   -55.5892 -55.5797 -55.5378 -55.5144 -55.4808 -55.4148 -54.7750 -54.7409
   -32.3153 -32.2316 -32.1988 -32.1142 -32.0840 -32.0660 -32.0561 -32.0329
   -31.9942 -31.9899 -31.9755 -31.9684 -31.9617 -31.9326 -31.9247 -31.9219
   -31.9176 -31.8954 -31.8895 -31.8611 -31.8538 -31.8316 -31.8295 -31.8239
   -31.8083 -31.8005 -31.7826 -31.7797 -31.7710 -31.7684 -31.7614 -31.7539
   -31.7430 -31.7386 -31.7342 -31.6951 -31.6940 -31.6594 -31.6368 -31.6207
   -31.6035 -31.6006 -31.1846 -31.0878 -31.0654 -31.0014 -30.9154 -30.8041
   -20.7424 -16.9998 -16.5007 -16.2060 -16.0397 -15.9123 -15.8850 -15.7820
   -15.5921 -15.4577 -15.4408 -15.3660 -15.3313 -15.3275 -15.2952 -15.2837
   -15.2781 -15.2679 -15.2209 -15.1976 -15.1804 -15.1652 -15.1391 -15.0879
   -15.0403 -14.9690 -14.9227 -14.8805 -14.8614 -14.7619 -14.7436 -13.9453
   -13.2754 -13.1572  -6.5485  -5.5895  -4.9825  -4.5197  -3.8638  -3.6890
    -3.6706  -3.6519  -3.5687  -3.5131  -3.3258  -3.3102  -3.0103  -2.9355
    -2.9111  -2.8979  -2.8867  -2.7108  -2.6485  -2.6000  -2.5901  -2.5740
    -2.5717  -2.5494  -2.5284  -2.5164  -2.4901  -2.4698  -2.4611  -2.3245
    -2.2950  -2.1777  -2.1579  -2.1472  -2.0895  -2.0636  -2.0307  -2.0094
    -2.0045  -1.9859  -1.9655  -1.9301  -1.8454  -1.8204  -1.6961  -1.5912
    -1.5543  -1.4603  -1.3148  -1.2403  -1.2215  -1.1944  -1.1633  -1.1451
    -1.1016  -1.0767  -1.0253  -0.9630  -0.9575  -0.8523  -0.7791  -0.7416
    -0.6660  -0.6436  -0.6268  -0.5061  -0.4865  -0.4767  -0.3029  -0.2396
    -0.2342  -0.2266  -0.0976  -0.0570  -0.0219  -0.0093   0.0213   0.0515
     0.0970   0.1391   0.1976   0.2227   0.2319   0.2391   0.2646   0.2903
     0.4050   0.4208   0.4343   0.5498   0.5722   0.7602   0.7682   0.8856
     0.9846   1.1536   1.2497   1.3197   1.4207   1.7207   1.8384   1.8988
     3.4251   3.4565   3.4875   3.5047   3.5760   3.6989   3.8063   3.8648
     3.8834   3.9048

[...]

          k = 0.0380-0.0419 0.0000 ( 17876 PWs)   bands (ev):

[...]

          k =-0.0760-0.0000 0.0000 ( 17886 PWs)   bands (ev):

[...]

          k =-0.0760-0.0839 0.0000 ( 17948 PWs)   bands (ev):

   -55.7533 -55.7385 -55.7339 -55.7328 -55.6690 -55.6470 -55.6137 -55.6012
   -55.5985 -55.5828 -55.5351 -55.4985 -55.4968 -55.4172 -54.7585 -54.7574
   -32.1186 -32.1153 -32.0988 -32.0555 -32.0453 -32.0401 -32.0228 -32.0215
   -32.0150 -31.9796 -31.9541 -31.9471 -31.9447 -31.9099 -31.9053 -31.8965
   -31.8865 -31.8815 -31.8795 -31.8703 -31.8699 -31.8602 -31.8552 -31.8479
   -31.8442 -31.8221 -31.8173 -31.8136 -31.8068 -31.8059 -31.8020 -31.7835
   -31.7764 -31.7584 -31.7550 -31.7489 -31.7335 -31.7168 -31.7037 -31.6966
   -31.6452 -31.6100 -31.0787 -31.0774 -30.9980 -30.9972 -30.9589 -30.9580
   -20.7422 -16.9343 -15.9427 -15.9336 -15.6925 -15.6844 -15.6805 -15.6108
   -15.5263 -15.5074 -15.4827 -15.4790 -15.4290 -15.4158 -15.4044 -15.3432
   -15.3130 -15.2849 -15.2716 -15.2632 -15.2116 -15.2066 -15.1628 -15.1393
   -15.1213 -15.1152 -15.0902 -15.0861 -15.0473 -14.9857 -14.9180 -13.9452
   -13.2596 -13.2573  -6.5427  -5.5919  -4.9208  -4.5185  -3.5126  -3.2336
    -3.2232  -2.9582  -2.9081  -2.8952  -2.8140  -2.7520  -2.6873  -2.6493
    -2.6193  -2.6103  -2.5994  -2.5924  -2.5844  -2.5686  -2.5646  -2.5488
    -2.5261  -2.5164  -2.4584  -2.4387  -2.4129  -2.3939  -2.3862  -2.3748
    -2.3373  -2.3197  -2.3081  -2.2935  -2.2870  -2.2069  -2.0611  -2.0185
    -1.9199  -1.8996  -1.8904  -1.8482  -1.8260  -1.8091  -1.7946  -1.7458
    -1.7293  -1.5616  -1.4923  -1.4764  -1.4562  -1.4252  -1.3681  -1.2782
    -1.2493  -1.1745  -1.1668  -1.1254  -1.0666  -0.9903  -0.9682  -0.9290
    -0.8709  -0.8333  -0.7775  -0.7427  -0.7214  -0.7130  -0.6610  -0.6062
    -0.5677  -0.5071  -0.4811  -0.4177  -0.3780  -0.3418  -0.2850  -0.2609
    -0.2231  -0.1135  -0.0068   0.1291   0.1906   0.2679   0.2817   0.3076
     0.3287   0.4453   0.4785   0.5038   0.5472   0.6344   0.6876   0.7589
     0.7786   0.8062   0.8624   1.6102   1.6114   1.7005   1.7113   1.7240
     3.6218   3.6582   3.6771   3.7264   3.8836   3.8880   3.9070   3.9147
     3.9668   4.0463

     the Fermi energy is     3.3910 ev

!    total energy              =   -2971.53805481 Ry
     estimated scf accuracy    <       0.00000006 Ry
     smearing contrib. (-TS)   =      -0.02330070 Ry
     internal energy E=F+TS    =   -2971.51475411 Ry

     The total energy is F=E-TS. E is the sum of the following terms:
     one-electron contribution =  -22751.47043583 Ry
     hartree contribution      =   11466.81133441 Ry
     xc contribution           =    -492.33220284 Ry
     ewald contribution        =    8805.47618439 Ry
     electric field correction =       0.00036577 Ry

     convergence has been achieved in  77 iterations

     Forces acting on atoms (cartesian axes, Ry/au):

     atom    1 type  1   force =    -0.00063855    0.00096905    0.00074082
     atom    2 type  2   force =    -0.00046162    0.00082982   -0.00060779
     atom    3 type  2   force =    -0.00145303   -0.00071803   -0.00051296
     atom    4 type  2   force =     0.00081762   -0.00050296   -0.00026000
     atom    5 type  3   force =     0.00035020   -0.00680657   -0.03336787
     atom    6 type  3   force =    -0.00003251    0.00054556    0.04530931
     atom    7 type  3   force =    -0.02046463    0.00053017    0.00450252
     atom    8 type  3   force =     0.01813516   -0.00159761    0.00413416
     atom    9 type  3   force =    -0.00024422   -0.00001610   -0.00003968
     atom   10 type  3   force =     0.00014478   -0.00007971    0.00024943
     atom   11 type  3   force =     0.00050063   -0.00008239   -0.00030901
     atom   12 type  3   force =     0.00084872    0.00011885   -0.00013022
     atom   13 type  3   force =     0.00045036   -0.00023188   -0.00025698
     atom   14 type  3   force =     0.00008445    0.00014255   -0.00013482
     atom   15 type  3   force =    -0.00023285   -0.00012969    0.00034458
     atom   16 type  3   force =     0.00025413   -0.00009631    0.00011726
     atom   17 type  3   force =     0.00003221    0.00005950    0.10417639
     atom   18 type  3   force =    -0.00011028    0.00012010    0.00062562
     atom   19 type  3   force =    -0.06900158    0.00070770   -0.02967673
     atom   20 type  3   force =     0.06876888    0.00126775   -0.02966813
     atom   21 type  3   force =     0.00039018    0.00378275   -0.02829792
     atom   22 type  3   force =     0.00084737    0.00084844    0.04700196
     atom   23 type  3   force =    -0.01801288    0.00140542    0.00368994
     atom   24 type  3   force =     0.01765440    0.00227847    0.00335421
     atom   25 type  3   force =    -0.00053095   -0.00017201    0.00008979
     atom   26 type  3   force =     0.00032680    0.00000730    0.00049556
     atom   27 type  3   force =    -0.00030678   -0.00009344    0.00028567
     atom   28 type  3   force =     0.00130916   -0.00016965    0.00063336
     atom   29 type  3   force =     0.00026478   -0.00051194   -0.00000152
     atom   30 type  3   force =    -0.00047211   -0.00027359    0.00029832
     atom   31 type  3   force =    -0.00035848   -0.00010233    0.00008215
     atom   32 type  3   force =    -0.00008200   -0.00020586   -0.00038111
     atom   33 type  3   force =     0.00004110    0.00004044    0.10424676
     atom   34 type  3   force =    -0.06857721   -0.00136378   -0.02971093
     atom   35 type  3   force =     0.06845514   -0.00098578   -0.02970484
     atom   36 type  3   force =     0.00113207    0.00049908    0.00012791
     atom   37 type  4   force =    -0.00001427   -0.00158238    0.10642017
     atom   38 type  4   force =    -0.00017029    0.00073906   -0.17961372
     atom   39 type  4   force =    -0.00029876    0.00006924   -0.00011699
     atom   40 type  4   force =    -0.00002913    0.00008356   -0.00016580
     atom   41 type  4   force =    -0.00277829    0.00023916   -0.00057100
     atom   42 type  4   force =     0.00036420    0.00002508    0.00010421
     atom   43 type  4   force =    -0.00005572   -0.00022105   -0.00045889
     atom   44 type  4   force =     0.00054354    0.00044065   -0.00033809
     atom   45 type  4   force =    -0.00001052    0.00120649    0.11837281
     atom   46 type  4   force =    -0.00000180   -0.00034791   -0.17984931
     atom   47 type  4   force =     0.00046800    0.00005752   -0.00023450
     atom   48 type  4   force =    -0.00019947    0.00024721   -0.00039934
     atom   49 type  4   force =    -0.00218574    0.00075400   -0.00008433
     atom   50 type  4   force =     0.00385675    0.00009171   -0.00096434
     atom   51 type  4   force =     0.00048673   -0.00079058   -0.00008765
     atom   52 type  4   force =     0.00079127   -0.00100634    0.00057703
     atom   53 type  5   force =     0.00066851    0.00129544    0.00004117
     atom   54 type  5   force =    -0.00126345   -0.00131418   -0.00007666

     Total force =     0.376601     Total SCF correction =     0.000681
  @ DRIVER MODE: Message from server: STATUS
  @ DRIVER MODE: Message from server: GETFORCE
  @ DRIVER MODE: Returning v,forces,stress,ensemble

     Writing output data file ./calc.save/
  @ DRIVER MODE: Message from server: EXIT
  @ DRIVE MODE: Exiting

     General routines

     Parallel routines

   This run was terminated on:  18:29:28  14Sep2021

   JOB DONE.