     Program PWSCF v.6.7GPU starts on 26Sep2021 at 16: 3:37

     R & G space division:  proc/nbgrp/npool/nimage =       8
     Reading input from /storage/home/hcoda1/3/ntian30/research/carbon/CxH_vib/H2O_calc/ads_slab/CH2OHN2HO_a/out_0044/pw.inp
Warning: card &CELL ignored
Warning: card   CELL_DYNAMICS='IPI', ignored
Warning: card / ignored

     Current dimensions of program PWSCF are:
     Max number of different atomic species (ntypx) = 10
     Max number of k-points (npk) =  40000
     Max angular momentum in pseudopotentials (lmaxx) =  3
     Presently no symmetry can be used with electric field

     Message from routine cell_base_init:
     DEPRECATED: use true lattice parameter, not A to a.u. conversion factor

     IMPORTANT: XC functional enforced from input :
     Exchange-correlation= BEEF-VDW
                           (   1   4  43  14   2   0   0)
     Any further DFT definition will be discarded
     Please, verify this is what you really want

  @ DRIVER MODE: Connecting to
 qe_1139763_2971670.sched-torque.pace.gatech.edu0n36o04b_scratch
  using UNIX socket
  @ DRIVER MODE: Message from server: STATUS
  @ DRIVER MODE: Message from server: INIT
  @ DRIVER MODE: Receiving replica           0          -1
  @ DRIVER MODE: Receiving encoded integer          25
  @ DRIVER MODE:  SCF:  T  FORCE:  T  STRESS:  F  VC:  F  ENSEMBLE:  F
  @ DRIVER MODE:  SCF:  T  FORCE:  T  STRESS:  F  VC:  F  ENSEMBLE:  F

     Using Slab Decomposition

     bravais-lattice index     =            0
     lattice parameter (alat)  =       1.8897  a.u.
     unit-cell volume          =    6658.9804 (a.u.)^3
     number of atoms/cell      =           56
     number of atomic types    =            5
     number of electrons       =       408.00
     number of Kohn-Sham states=          214
     kinetic-energy cutoff     =      29.3995  Ry
     charge density cutoff     =     293.9946  Ry
     scf convergence threshold =      7.3E-08
     mixing beta               =       0.0500
     number of iterations used =            8  plain     mixing
     Exchange-correlation= BEEF-VDW
                           (   1   4  43  14   2   0   0)

     celldm(1)=   1.889726  celldm(2)=   0.000000  celldm(3)=   0.000000
     celldm(4)=   0.000000  celldm(5)=   0.000000  celldm(6)=   0.000000

     crystal axes: (cart. coord. in units of alat)
               a(1) = (   6.579727   0.000000   0.000000 )
               a(2) = (  -0.000775   5.961596   0.000000 )
               a(3) = (   0.000000   0.000000  25.155947 )

     reciprocal axes: (cart. coord. in units 2 pi/alat)
               b(1) = (  0.151982  0.000020  0.000000 )
               b(2) = (  0.000000  0.167740  0.000000 )
               b(3) = (  0.000000  0.000000  0.039752 )

     PseudoPot. # 1 for C  read from file:
     /storage/coda1/p-amedford6/0/shared/rich_project_chbe-medford/medford-share/data/pseudos_module/espresso/nninc/pbe/van/C.UPF
     MD5 check sum: 1a69bf6b8db32088f5b2163dbdb77a27
     Pseudo is Ultrasoft, Zval =  4.0
     Generated by new atomic code, or converted to UPF format
     Using radial grid of  721 points,  4 beta functions with:
                l(1) =   0
                l(2) =   0
                l(3) =   1
                l(4) =   1
     Q(r) pseudized with  8 coefficients,  rinner =    0.800   0.800   0.800

     PseudoPot. # 2 for H  read from file:
     /storage/coda1/p-amedford6/0/shared/rich_project_chbe-medford/medford-share/data/pseudos_module/espresso/nninc/pbe/van/H.UPF
     MD5 check sum: b5ee9d7bfd3a09ee7748110bda690ff7
     Pseudo is Ultrasoft, Zval =  1.0
     Generated by new atomic code, or converted to UPF format
     Using radial grid of  615 points,  1 beta functions with:
                l(1) =   0
     Q(r) pseudized with  8 coefficients,  rinner =    0.800

     PseudoPot. # 3 for O  read from file:
     /storage/coda1/p-amedford6/0/shared/rich_project_chbe-medford/medford-share/data/pseudos_module/espresso/nninc/pbe/van/O.UPF
     MD5 check sum: 78c19812648e8988a0fe644b0f25305e
     Pseudo is Ultrasoft, Zval =  6.0
     Generated by new atomic code, or converted to UPF format
     Using radial grid of  737 points,  4 beta functions with:
                l(1) =   0
                l(2) =   0
                l(3) =   1
                l(4) =   1
     Q(r) pseudized with  8 coefficients,  rinner =    0.800   0.800   0.800

     PseudoPot. # 4 for Ti read from file:
     /storage/coda1/p-amedford6/0/shared/rich_project_chbe-medford/medford-share/data/pseudos_module/espresso/nninc/pbe/van/Ti.UPF
     MD5 check sum: 8e4df49b7f0d34bbd5052bf3f5ea0213
     Pseudo is Ultrasoft, Zval = 12.0
     Generated by new atomic code, or converted to UPF format
     Using radial grid of  851 points,  6 beta functions with:
                l(1) =   0
                l(2) =   0
                l(3) =   1
                l(4) =   1
                l(5) =   2
                l(6) =   2
     Q(r) pseudized with  8 coefficients,  rinner =    1.000   1.000   1.000
                                                       1.000   1.000

     PseudoPot. # 5 for N  read from file:
     /storage/coda1/p-amedford6/0/shared/rich_project_chbe-medford/medford-share/data/pseudos_module/espresso/nninc/pbe/van/N.UPF
     MD5 check sum: 90d10febe142ad51ac9d5be1deb811c4
     Pseudo is Ultrasoft, Zval =  5.0
     Generated by new atomic code, or converted to UPF format
     Using radial grid of  729 points,  4 beta functions with:
                l(1) =   0
                l(2) =   0
                l(3) =   1
                l(4) =   1
     Q(r) pseudized with  8 coefficients,  rinner =    0.800   0.800   0.800

     atomic species   valence    mass     pseudopotential
        C1             4.00    12.01100     C ( 1.00)
        H1             1.00     1.00800     H ( 1.00)
        O1             6.00    15.99900     O ( 1.00)
        Ti1           12.00    47.86700     Ti( 1.00)
        N1             5.00    14.00700     N ( 1.00)

     No symmetry found

   Cartesian axes

     site n.     atom                  positions (alat units)
         1           C1  tau(   1) = (   4.4694424   3.1333252  19.5683752  )
         2           H1  tau(   2) = (   3.5225350   3.1610456  19.0510688  )
         3           H1  tau(   3) = (   5.8501665   2.9975095  17.9951248  )
         4           H1  tau(   4) = (   4.8161173   2.2403860  20.0673745  )
         5           O1  tau(   5) = (   0.0006271   0.0005054   7.9858123  )
         6           O1  tau(   6) = (   3.2906025   0.0005020   7.3038282  )
         7           O1  tau(   7) = (   4.5942328   1.4918067   9.2879030  )
         8           O1  tau(   8) = (   1.9868534   1.4903216   9.2879459  )
         9           O1  tau(   9) = (   3.2658522   0.0207364  11.3165592  )
        10           O1  tau(  10) = (   0.0022773   0.0111808  10.5833539  )
        11           O1  tau(  11) = (   1.2584498   1.5025451  12.6333345  )
        12           O1  tau(  12) = (   5.2827793   1.4879884  12.6049259  )
        13           O1  tau(  13) = (   6.5229081   0.0016576  14.6697044  )
        14           O1  tau(  14) = (   3.2671471   5.9223268  13.9212949  )
        15           O1  tau(  15) = (   4.5038562   1.5078053  16.0770842  )
        16           O1  tau(  16) = (   1.9713840   1.5400684  15.9915579  )
        17           O1  tau(  17) = (   3.2904802   0.0005063   4.7018136  )
        18           O1  tau(  18) = (   0.0083768   5.9574009  17.1899481  )
        19           O1  tau(  19) = (   1.3043587   1.4918075   6.0039043  )
        20           O1  tau(  20) = (   5.2767064   1.4903225   6.0039473  )
        21           O1  tau(  21) = (   0.0002396   2.9813036   7.9858123  )
        22           O1  tau(  22) = (   3.2902150   2.9813002   7.3038282  )
        23           O1  tau(  23) = (   4.5938453   4.4726049   9.2879030  )
        24           O1  tau(  24) = (   1.9864658   4.4711199   9.2879459  )
        25           O1  tau(  25) = (   3.2699439   2.9592623  11.2883102  )
        26           O1  tau(  26) = (   0.0014687   2.9942081  10.5424492  )
        27           O1  tau(  27) = (   1.2624719   4.4656417  12.6394791  )
        28           O1  tau(  28) = (   5.2897987   4.4902883  12.6063686  )
        29           O1  tau(  29) = (   6.5205774   2.9949485  14.6561412  )
        30           O1  tau(  30) = (   3.3050662   2.9767913  13.8748461  )
        31           O1  tau(  31) = (   4.4950179   4.4323158  16.0974573  )
        32           O1  tau(  32) = (   1.9671975   4.4064719  15.9829847  )
        33           O1  tau(  33) = (   3.2900926   2.9813045   4.7018136  )
        34           O1  tau(  34) = (   1.3039711   4.4726057   6.0039043  )
        35           O1  tau(  35) = (   5.2763189   4.4711207   6.0039473  )
        36           O1  tau(  36) = (   6.5424668   2.9800173  17.2949776  )
        37           Ti1 tau(  37) = (   0.0004258   2.9801865   6.0000000  )
        38           Ti1 tau(  38) = (   3.2906075   1.4906267   6.0002472  )
        39           Ti1 tau(  39) = (   3.3167600   3.1006338   9.2159236  )
        40           Ti1 tau(  40) = (   0.0391818   1.5627686   9.3440282  )
        41           Ti1 tau(  41) = (   6.5783755   3.0458713  12.7937554  )
        42           Ti1 tau(  42) = (   3.2318486   1.5634082  12.4209175  )
        43           Ti1 tau(  43) = (   3.2670811   2.9501284  15.6494465  )
        44           Ti1 tau(  44) = (   0.0280251   1.4030395  16.0254105  )
        45           Ti1 tau(  45) = (   0.0000382   5.9609847   6.0000000  )
        46           Ti1 tau(  46) = (   3.2902200   4.4714249   6.0002472  )
        47           Ti1 tau(  47) = (   3.3194908   0.1157174   9.1781592  )
        48           Ti1 tau(  48) = (   0.0398790   4.5135925   9.3581580  )
        49           Ti1 tau(  49) = (   6.5007586   0.0629955  12.6074658  )
        50           Ti1 tau(  50) = (   3.2510718   4.6571100  12.6672192  )
        51           Ti1 tau(  51) = (   3.3282601   5.9350673  16.2366838  )
        52           Ti1 tau(  52) = (   0.0495319   4.5308688  15.9870001  )
        53           N1  tau(  53) = (   5.2748021   5.2735043  20.4272172  )
        54           N1  tau(  54) = (   4.8779203   4.2732533  20.0576380  )
        55           O1  tau(  55) = (   3.0502417   5.9484128  18.0530970  )
        56           H1  tau(  56) = (   2.1234608   0.1014992  18.3542784  )

     number of k points=    10  Fermi-Dirac smearing, width (Ry)=  0.0073
                       cart. coord. in units 2pi/alat
        k(    1) = (   0.0000000   0.0000000   0.0000000), wk =   0.1250000
        k(    2) = (   0.0000000   0.0419351   0.0000000), wk =   0.2500000
        k(    3) = (   0.0000000  -0.0838702   0.0000000), wk =   0.1250000
        k(    4) = (   0.0379955   0.0000049   0.0000000), wk =   0.2500000
        k(    5) = (   0.0379955   0.0419400   0.0000000), wk =   0.2500000
        k(    6) = (   0.0379955  -0.0838652   0.0000000), wk =   0.2500000
        k(    7) = (   0.0379955  -0.0419301   0.0000000), wk =   0.2500000
        k(    8) = (  -0.0759910  -0.0000099   0.0000000), wk =   0.1250000
        k(    9) = (  -0.0759910   0.0419252   0.0000000), wk =   0.2500000
        k(   10) = (  -0.0759910  -0.0838800   0.0000000), wk =   0.1250000

     Initial potential from superposition of free atoms

     starting charge  391.99915, renormalised to  408.00000

     negative rho (up, down):  1.414E-02 0.000E+00

     %%%%%%%%%%%%%%%%%%%%%%%%%%%%%%%%%%%%%%%%%%%%%%%%%%%%%%%%%%%%%%%%%%%%%%%%
     %                                                                      %
     % You are using vdW-DF, which was implemented by the Thonhauser group. %
     % Please cite the following two papers that made this development      %
     % possible and the two reviews that describe the various versions:     %
     %                                                                      %
     %   T. Thonhauser et al., PRL 115, 136402 (2015).                      %
     %   T. Thonhauser et al., PRB 76, 125112 (2007).                       %
     %   K. Berland et al., Rep. Prog. Phys. 78, 066501 (2015).             %
     %   D.C. Langreth et al., J. Phys.: Condens. Matter 21, 084203 (2009). %
     %                                                                      %
     %                                                                      %
     % If you are calculating the stress with vdW-DF, please also cite:     %
     %                                                                      %
     %   R. Sabatini et al., J. Phys.: Condens. Matter 24, 424209 (2012).   %
     %                                                                      %
     %%%%%%%%%%%%%%%%%%%%%%%%%%%%%%%%%%%%%%%%%%%%%%%%%%%%%%%%%%%%%%%%%%%%%%%%

     Adding external electric field

     Computed dipole along edir(3) :
        Dipole              -15.5929 Ry au,        -39.6331 Debye
        Dipole field         -0.0294 Ry au,

        Potential amp.        2.7277 Ry
        Total length         46.3494 bohr

     Starting wfcs are  308 atomic wfcs
  @ DRIVER MODE: Message from server: STATUS
  @ DRIVER MODE: Message from server: POSDATA
  @ DRIVER MODE: Reading and sharing cell
  @ DRIVER MODE: Reading and sharing positions
  @ DRIVER MODE: Received positions

     Self-consistent Calculation

     iteration #  1     ecut=    29.40 Ry     beta= 0.05
     Davidson diagonalization with overlap
     c_bands:  2 eigenvalues not converged
     c_bands:  1 eigenvalues not converged
     c_bands:  1 eigenvalues not converged
     c_bands:  2 eigenvalues not converged
     c_bands:  3 eigenvalues not converged
     c_bands:  2 eigenvalues not converged
     ethr =  1.00E-05,  avg # of iterations = 30.3

[...]

     total energy              =   -2234.30905677 Ry
     estimated scf accuracy    <    8817.42118244 Ry

     iteration #  2     ecut=    29.40 Ry     beta= 0.05
     Davidson diagonalization with overlap
     ethr =  1.00E-02,  avg # of iterations = 33.0

[...]

     iteration # 39     ecut=    29.40 Ry     beta= 0.05
     Davidson diagonalization with overlap
     c_bands:  1 eigenvalues not converged
     ethr =  3.01E-07,  avg # of iterations = 12.9

[...]

     total energy              =   -3005.15877459 Ry
     estimated scf accuracy    <       0.00000026 Ry

     iteration # 70     ecut=    29.40 Ry     beta= 0.05
     Davidson diagonalization with overlap
     ethr =  3.86E-11,  avg # of iterations =  4.5

     negative rho (up, down):  1.447E-02 0.000E+00

     Adding external electric field

     Computed dipole along edir(3) :
        Dipole                0.4981 Ry au,          1.2660 Debye
        Dipole field          0.0009 Ry au,

        Potential amp.       -0.0871 Ry
        Total length         46.3494 bohr

     End of self-consistent calculation

          k = 0.0000 0.0000 0.0000 ( 18029 PWs)   bands (ev):

   -56.1936 -56.1472 -55.6465 -55.6445 -55.6281 -55.5797 -55.5698 -55.5276
   -55.5159 -55.4874 -55.4435 -55.4010 -55.3962 -55.2726 -54.8179 -54.7840
   -32.6078 -32.4569 -32.4082 -32.3738 -32.2795 -32.2342 -32.1461 -32.0849
   -32.0753 -32.0183 -31.9516 -31.9414 -31.9396 -31.8853 -31.8837 -31.8755
   -31.8598 -31.8430 -31.8282 -31.8093 -31.8001 -31.7929 -31.7570 -31.7315
   -31.7280 -31.7106 -31.7056 -31.7025 -31.7006 -31.6922 -31.6862 -31.6773
   -31.6669 -31.6493 -31.6460 -31.6048 -31.5958 -31.5882 -31.5629 -31.5264
   -31.4861 -31.4745 -31.2128 -31.1571 -31.1328 -31.0297 -30.9448 -30.8339
   -20.6083 -16.8433 -16.3822 -16.3498 -16.2110 -15.9818 -15.8450 -15.7620
   -15.5312 -15.5146 -15.4024 -15.3929 -15.3499 -15.2377 -15.2241 -15.1874
   -15.1812 -15.1667 -15.1540 -15.1192 -15.1143 -15.1074 -15.0401 -15.0123
   -14.9847 -14.9406 -14.8865 -14.8459 -14.7759 -14.7714 -14.7260 -14.5209
   -13.7534 -13.3186 -13.2096  -6.3507  -5.3683  -4.8362  -4.2693  -3.9866
    -3.8818  -3.6659  -3.5715  -3.5621  -3.3973  -3.3700  -3.2735  -3.0541
    -2.9213  -2.8383  -2.8082  -2.7481  -2.7255  -2.6557  -2.6210  -2.6120
    -2.5714  -2.5209  -2.4700  -2.4555  -2.4429  -2.3992  -2.3858  -2.3538
    -2.3375  -2.3338  -2.2929  -2.1470  -2.1344  -2.0765  -2.0675  -2.0211
    -2.0155  -1.9862  -1.9757  -1.9295  -1.8926  -1.7534  -1.7348  -1.7216
    -1.6538  -1.4357  -1.4009  -1.3040  -1.2436  -1.2101  -1.1140  -1.1125
    -1.0806  -1.0508  -1.0019  -0.9215  -0.8878  -0.8317  -0.7863  -0.7805
    -0.7299  -0.6633  -0.6150  -0.5553  -0.5183  -0.4821  -0.4009  -0.3493
    -0.2829  -0.2639  -0.2123  -0.1752  -0.0849  -0.0495  -0.0218   0.0310
     0.0553   0.1200   0.1239   0.1649   0.1825   0.2627   0.2914   0.3090
     0.3590   0.3847   0.3992   0.4620   0.5250   0.5678   0.6139   0.7154
     0.7597   0.7855   0.8559   0.9326   1.1004   1.2005   1.2294   1.4249
     1.4572   1.7543   1.8023   1.8559   3.1046   3.2693   3.5570   3.6460
     3.6836   3.7148   3.8117   3.8413   3.9969   4.0409

[...]

          k = 0.0380-0.0419 0.0000 ( 17876 PWs)   bands (ev):

[...]

          k =-0.0760-0.0000 0.0000 ( 17886 PWs)   bands (ev):

[...]

          k =-0.0760-0.0839 0.0000 ( 17948 PWs)   bands (ev):

   -56.1863 -56.1543 -55.6446 -55.6425 -55.6227 -55.5754 -55.5729 -55.5341
   -55.5174 -55.4891 -55.4351 -55.4094 -55.3939 -55.2748 -54.8011 -54.8007
   -32.4521 -32.4383 -32.4125 -32.4108 -32.3388 -32.3116 -32.0354 -31.9513
   -31.9492 -31.9199 -31.9186 -31.8841 -31.8829 -31.8701 -31.8628 -31.8524
   -31.8421 -31.8313 -31.8163 -31.8073 -31.8010 -31.7988 -31.7901 -31.7870
   -31.7816 -31.7809 -31.7690 -31.7514 -31.7221 -31.7188 -31.7092 -31.7003
   -31.6987 -31.6740 -31.6576 -31.6471 -31.6425 -31.6229 -31.5930 -31.5872
   -31.5261 -31.4780 -31.1459 -31.1457 -31.0283 -31.0266 -30.9870 -30.9861
   -20.6076 -16.7672 -16.3453 -15.7978 -15.6681 -15.6600 -15.6592 -15.6239
   -15.5833 -15.5301 -15.5036 -15.4496 -15.3814 -15.3533 -15.3360 -15.3115
   -15.2678 -15.2356 -15.2215 -15.1481 -15.1112 -15.0990 -15.0837 -15.0728
   -15.0303 -15.0265 -15.0076 -15.0020 -14.9922 -14.9366 -14.8390 -14.6614
   -13.7606 -13.3137 -13.3128  -6.2828  -5.4114  -4.7851  -4.2398  -3.9583
    -3.4911  -3.0254  -2.9242  -2.8453  -2.8379  -2.7498  -2.7088  -2.6782
    -2.6583  -2.6405  -2.6131  -2.5643  -2.5402  -2.5047  -2.4949  -2.4935
    -2.4745  -2.4683  -2.4465  -2.4224  -2.4093  -2.3942  -2.3823  -2.3583
    -2.3463  -2.3366  -2.3196  -2.2892  -2.2457  -2.2253  -2.0483  -2.0169
    -2.0097  -2.0090  -1.9419  -1.9376  -1.8793  -1.8064  -1.7901  -1.7691
    -1.7502  -1.6369  -1.5008  -1.4530  -1.3959  -1.3742  -1.3066  -1.2538
    -1.1581  -1.1390  -1.1286  -1.1101  -1.0662  -1.0622  -0.9769  -0.9217
    -0.8788  -0.8746  -0.8546  -0.8104  -0.6911  -0.6818  -0.6439  -0.6207
    -0.6065  -0.5045  -0.4725  -0.4523  -0.4375  -0.4260  -0.3220  -0.2719
    -0.2261  -0.1787  -0.1199  -0.0591   0.0640   0.0893   0.1825   0.2135
     0.2523   0.3866   0.4129   0.4624   0.4979   0.5517   0.5892   0.6053
     0.7312   0.7871   0.8051   0.8718   0.8924   0.9310   0.9545   1.5930
     1.5991   1.6063   1.6088   1.7938   3.6469   3.6733   3.6795   3.7140
     3.8971   3.9264   4.0048   4.0281   4.0435   4.0539

     the Fermi energy is     2.5637 ev

!    total energy              =   -3005.15880640 Ry
     estimated scf accuracy    <       0.00000007 Ry
     smearing contrib. (-TS)   =      -0.00023904 Ry
     internal energy E=F+TS    =   -3005.15856736 Ry

     The total energy is F=E-TS. E is the sum of the following terms:
     one-electron contribution =  -22952.20865880 Ry
     hartree contribution      =   11572.03587689 Ry
     xc contribution           =    -500.29845105 Ry
     ewald contribution        =    8875.31219746 Ry
     electric field correction =       0.00046814 Ry

     convergence has been achieved in  70 iterations

     Forces acting on atoms (cartesian axes, Ry/au):

     atom    1 type  1   force =     0.00059909   -0.00029690    0.00019903
     atom    2 type  2   force =    -0.00018261    0.00020169   -0.00008807
     atom    3 type  2   force =    -0.00003407    0.00000680   -0.00029218
     atom    4 type  2   force =    -0.00040374   -0.00011550    0.00010632
     atom    5 type  3   force =     0.00027578   -0.00316547   -0.05387248
     atom    6 type  3   force =     0.00044559    0.00119875    0.04054678
     atom    7 type  3   force =    -0.00980521   -0.00221661    0.00043112
     atom    8 type  3   force =     0.00888101   -0.00511901   -0.00066947
     atom    9 type  3   force =     0.00010283    0.00005791   -0.00001969
     atom   10 type  3   force =    -0.00010365    0.00004633    0.00002151
     atom   11 type  3   force =     0.00011778   -0.00000356   -0.00009154
     atom   12 type  3   force =     0.00004064    0.00014202    0.00002223
     atom   13 type  3   force =     0.00002623    0.00001920    0.00004882
     atom   14 type  3   force =     0.00006604   -0.00012747    0.00004859
     atom   15 type  3   force =     0.00009160    0.00028247   -0.00012794
     atom   16 type  3   force =    -0.00000468   -0.00026292    0.00025656
     atom   17 type  3   force =    -0.00006887    0.00016419    0.09943029
     atom   18 type  3   force =     0.00029916   -0.00006382    0.00025830
     atom   19 type  3   force =    -0.08023116    0.00059055   -0.03416350
     atom   20 type  3   force =     0.08000116    0.00110450   -0.03418903
     atom   21 type  3   force =     0.00051661    0.00001863   -0.05294928
     atom   22 type  3   force =     0.00038301    0.00048896    0.04230194
     atom   23 type  3   force =    -0.01093376    0.00575602    0.00234534
     atom   24 type  3   force =     0.01005778    0.00212929    0.00120095
     atom   25 type  3   force =     0.00008049   -0.00000816    0.00007010
     atom   26 type  3   force =     0.00000845    0.00006516    0.00001479
     atom   27 type  3   force =     0.00004509    0.00007379    0.00000528
     atom   28 type  3   force =     0.00008839   -0.00002876    0.00008143
     atom   29 type  3   force =     0.00017114   -0.00012858    0.00016650
     atom   30 type  3   force =    -0.00003791   -0.00006581    0.00008232
     atom   31 type  3   force =     0.00023152   -0.00025158   -0.00030527
     atom   32 type  3   force =    -0.00000892   -0.00001081    0.00043814
     atom   33 type  3   force =    -0.00008001    0.00025350    0.09899551
     atom   34 type  3   force =    -0.08022923   -0.00144924   -0.03416351
     atom   35 type  3   force =     0.08000953   -0.00092664   -0.03421444
     atom   36 type  3   force =     0.00009138   -0.00013460    0.00008911
     atom   37 type  4   force =     0.00019449    0.00016674    0.13339218
     atom   38 type  4   force =     0.00002116    0.00798879   -0.15911312
     atom   39 type  4   force =    -0.00006006   -0.00006546   -0.00001044
     atom   40 type  4   force =    -0.00007948    0.00016017    0.00003096
     atom   41 type  4   force =    -0.00029367   -0.00001419   -0.00011887
     atom   42 type  4   force =    -0.00007305    0.00005179   -0.00005379
     atom   43 type  4   force =     0.00039748   -0.00003813   -0.00007234
     atom   44 type  4   force =     0.00000535    0.00004980   -0.00022041
     atom   45 type  4   force =    -0.00024161   -0.00009109    0.14215337
     atom   46 type  4   force =    -0.00018939   -0.00646853   -0.15858238
     atom   47 type  4   force =     0.00011249   -0.00007424    0.00002881
     atom   48 type  4   force =    -0.00015489    0.00015623    0.00012421
     atom   49 type  4   force =    -0.00012972   -0.00000546    0.00004414
     atom   50 type  4   force =    -0.00009335    0.00002891    0.00003992
     atom   51 type  4   force =     0.00089766    0.00003443   -0.00097505
     atom   52 type  4   force =    -0.00007101   -0.00014088   -0.00001405
     atom   53 type  5   force =     0.00023918   -0.00007884   -0.00041472
     atom   54 type  5   force =     0.00002401    0.00015886    0.00057981
     atom   55 type  3   force =    -0.01742962    0.00235133    0.00590236
     atom   56 type  2   force =     0.01641756   -0.00239455   -0.00473518

     Total force =     0.385854     Total SCF correction =     0.000708
  @ DRIVER MODE: Message from server: STATUS
  @ DRIVER MODE: Message from server: GETFORCE
  @ DRIVER MODE: Returning v,forces,stress,ensemble

     Writing output data file ./calc.save/
  @ DRIVER MODE: Message from server: EXIT
  @ DRIVE MODE: Exiting

     General routines

     Parallel routines

   This run was terminated on:  16:37:11  26Sep2021

   JOB DONE.