     Program PWSCF v.6.7GPU starts on  9Sep2021 at  2: 0: 5

     R & G space division:  proc/nbgrp/npool/nimage =      10
     Reading input from /storage/home/hcoda1/3/ntian30/research/carbon/CxH_vib/CH2_calc/ads_slab/CH2NNHHH_a/out_0013/pw.inp
Warning: card &CELL ignored
Warning: card   CELL_DYNAMICS='IPI', ignored
Warning: card / ignored

     Current dimensions of program PWSCF are:
     Max number of different atomic species (ntypx) = 10
     Max number of k-points (npk) =  40000
     Max angular momentum in pseudopotentials (lmaxx) =  3
     Presently no symmetry can be used with electric field

     Message from routine cell_base_init:
     DEPRECATED: use true lattice parameter, not A to a.u. conversion factor

     IMPORTANT: XC functional enforced from input :
     Exchange-correlation= BEEF-VDW
                           (   1   4  43  14   2   0   0)
     Any further DFT definition will be discarded
     Please, verify this is what you really want

  @ DRIVER MODE: Connecting to
 qe_1139763_2767390.sched-torque.pace.gatech.eduo02m907q_scratch
  using UNIX socket
  @ DRIVER MODE: Message from server: STATUS
  @ DRIVER MODE: Message from server: INIT
  @ DRIVER MODE: Receiving replica           0          -1
  @ DRIVER MODE: Receiving encoded integer          25
  @ DRIVER MODE:  SCF:  T  FORCE:  T  STRESS:  F  VC:  F  ENSEMBLE:  F
  @ DRIVER MODE:  SCF:  T  FORCE:  T  STRESS:  F  VC:  F  ENSEMBLE:  F

     Using Slab Decomposition

     bravais-lattice index     =            0
     lattice parameter (alat)  =       1.8897  a.u.
     unit-cell volume          =    6658.9804 (a.u.)^3
     number of atoms/cell      =           55
     number of atomic types    =            5
     number of electrons       =       397.00
     number of Kohn-Sham states=          208
     kinetic-energy cutoff     =      29.3995  Ry
     charge density cutoff     =     293.9946  Ry
     scf convergence threshold =      7.3E-08
     mixing beta               =       0.0500
     number of iterations used =            8  plain     mixing
     Exchange-correlation= BEEF-VDW
                           (   1   4  43  14   2   0   0)

     celldm(1)=   1.889726  celldm(2)=   0.000000  celldm(3)=   0.000000
     celldm(4)=   0.000000  celldm(5)=   0.000000  celldm(6)=   0.000000

     crystal axes: (cart. coord. in units of alat)
               a(1) = (   6.579727   0.000000   0.000000 )
               a(2) = (  -0.000775   5.961596   0.000000 )
               a(3) = (   0.000000   0.000000  25.155947 )

     reciprocal axes: (cart. coord. in units 2 pi/alat)
               b(1) = (  0.151982  0.000020  0.000000 )
               b(2) = (  0.000000  0.167740  0.000000 )
               b(3) = (  0.000000  0.000000  0.039752 )

     PseudoPot. # 1 for Ti read from file:
     /storage/coda1/p-amedford6/0/shared/rich_project_chbe-medford/medford-share/data/pseudos_module/espresso/nninc/pbe/van/Ti.UPF
     MD5 check sum: 8e4df49b7f0d34bbd5052bf3f5ea0213
     Pseudo is Ultrasoft, Zval = 12.0
     Generated by new atomic code, or converted to UPF format
     Using radial grid of  851 points,  6 beta functions with:
                l(1) =   0
                l(2) =   0
                l(3) =   1
                l(4) =   1
                l(5) =   2
                l(6) =   2
     Q(r) pseudized with  8 coefficients,  rinner =    1.000   1.000   1.000
                                                       1.000   1.000

     PseudoPot. # 2 for O  read from file:
     /storage/coda1/p-amedford6/0/shared/rich_project_chbe-medford/medford-share/data/pseudos_module/espresso/nninc/pbe/van/O.UPF
     MD5 check sum: 78c19812648e8988a0fe644b0f25305e
     Pseudo is Ultrasoft, Zval =  6.0
     Generated by new atomic code, or converted to UPF format
     Using radial grid of  737 points,  4 beta functions with:
                l(1) =   0
                l(2) =   0
                l(3) =   1
                l(4) =   1
     Q(r) pseudized with  8 coefficients,  rinner =    0.800   0.800   0.800

     PseudoPot. # 3 for N  read from file:
     /storage/coda1/p-amedford6/0/shared/rich_project_chbe-medford/medford-share/data/pseudos_module/espresso/nninc/pbe/van/N.UPF
     MD5 check sum: 90d10febe142ad51ac9d5be1deb811c4
     Pseudo is Ultrasoft, Zval =  5.0
     Generated by new atomic code, or converted to UPF format
     Using radial grid of  729 points,  4 beta functions with:
                l(1) =   0
                l(2) =   0
                l(3) =   1
                l(4) =   1
     Q(r) pseudized with  8 coefficients,  rinner =    0.800   0.800   0.800

     PseudoPot. # 4 for C  read from file:
     /storage/coda1/p-amedford6/0/shared/rich_project_chbe-medford/medford-share/data/pseudos_module/espresso/nninc/pbe/van/C.UPF
     MD5 check sum: 1a69bf6b8db32088f5b2163dbdb77a27
     Pseudo is Ultrasoft, Zval =  4.0
     Generated by new atomic code, or converted to UPF format
     Using radial grid of  721 points,  4 beta functions with:
                l(1) =   0
                l(2) =   0
                l(3) =   1
                l(4) =   1
     Q(r) pseudized with  8 coefficients,  rinner =    0.800   0.800   0.800

     PseudoPot. # 5 for H  read from file:
     /storage/coda1/p-amedford6/0/shared/rich_project_chbe-medford/medford-share/data/pseudos_module/espresso/nninc/pbe/van/H.UPF
     MD5 check sum: b5ee9d7bfd3a09ee7748110bda690ff7
     Pseudo is Ultrasoft, Zval =  1.0
     Generated by new atomic code, or converted to UPF format
     Using radial grid of  615 points,  1 beta functions with:
                l(1) =   0
     Q(r) pseudized with  8 coefficients,  rinner =    0.800

     atomic species   valence    mass     pseudopotential
        Ti1           12.00    47.86700     Ti( 1.00)
        O1             6.00    15.99900     O ( 1.00)
        N1             5.00    14.00700     N ( 1.00)
        C1             4.00    12.01100     C ( 1.00)
        H1             1.00     1.00800     H ( 1.00)

     No symmetry found

   Cartesian axes

     site n.     atom                  positions (alat units)
         1           Ti1 tau(   1) = (   0.0004258   2.9801865   6.0000000  )
         2           Ti1 tau(   2) = (   3.2906075   1.4906267   6.0002472  )
         3           O1  tau(   3) = (   0.0006271   0.0005054   7.9858123  )
         4           O1  tau(   4) = (   3.2906025   0.0005020   7.3038282  )
         5           O1  tau(   5) = (   4.5942328   1.4918067   9.2879030  )
         6           O1  tau(   6) = (   1.9868534   1.4903216   9.2879459  )
         7           Ti1 tau(   7) = (   3.2907910   2.8959150   9.1758416  )
         8           Ti1 tau(   8) = (   0.0015273   1.4827037   9.2680791  )
         9           O1  tau(   9) = (   3.2797308   5.9473376  11.3602069  )
        10           O1  tau(  10) = (   0.0116148   5.9584955  10.6183126  )
        11           O1  tau(  11) = (   1.2902197   1.4970218  12.6485984  )
        12           O1  tau(  12) = (   5.2825647   1.4998509  12.6204812  )
        13           Ti1 tau(  13) = (   6.5707130   2.9731531  12.5352273  )
        14           Ti1 tau(  14) = (   3.2824754   1.4851695  12.4964603  )
        15           O1  tau(  15) = (   6.5335774   0.0914421  14.6722524  )
        16           O1  tau(  16) = (   3.3157438   0.0180770  13.9903400  )
        17           O1  tau(  17) = (   4.5084513   1.5196572  16.2619966  )
        18           O1  tau(  18) = (   2.0062152   1.4815140  16.1839734  )
        19           Ti1 tau(  19) = (   3.2259906   2.9465836  15.7211513  )
        20           Ti1 tau(  20) = (   6.5090593   1.4075841  16.1508600  )
        21           O1  tau(  21) = (   3.2904802   0.0005063   4.7018136  )
        22           O1  tau(  22) = (   6.5630310   5.8123487  17.2302531  )
        23           O1  tau(  23) = (   1.3043587   1.4918075   6.0039043  )
        24           O1  tau(  24) = (   5.2767064   1.4903225   6.0039473  )
        25           Ti1 tau(  25) = (   0.0000382   5.9609847   6.0000000  )
        26           Ti1 tau(  26) = (   3.2902200   4.4714249   6.0002472  )
        27           O1  tau(  27) = (   0.0002396   2.9813036   7.9858123  )
        28           O1  tau(  28) = (   3.2902150   2.9813002   7.3038282  )
        29           O1  tau(  29) = (   4.5938453   4.4726049   9.2879030  )
        30           O1  tau(  30) = (   1.9864658   4.4711199   9.2879459  )
        31           Ti1 tau(  31) = (   3.2891106   5.8743827   9.1763621  )
        32           Ti1 tau(  32) = (   0.0006254   4.4649316   9.2693709  )
        33           O1  tau(  33) = (   3.2783824   2.9878764  11.3535400  )
        34           O1  tau(  34) = (   0.0092240   2.9805883  10.6323155  )
        35           O1  tau(  35) = (   1.2857266   4.4729298  12.7006550  )
        36           O1  tau(  36) = (   5.2845514   4.4687958  12.6640455  )
        37           Ti1 tau(  37) = (   6.5734551   0.0101047  12.5124135  )
        38           Ti1 tau(  38) = (   3.2852174   4.4611384  12.5175569  )
        39           O1  tau(  39) = (   6.5279837   2.9480221  14.9030702  )
        40           O1  tau(  40) = (   3.2956390   2.9588503  13.9390168  )
        41           O1  tau(  41) = (   4.4992944   4.4159585  16.2207858  )
        42           O1  tau(  42) = (   2.0104883   4.4624356  16.0673450  )
        43           Ti1 tau(  43) = (   3.2790961   0.0058003  15.7788240  )
        44           Ti1 tau(  44) = (   0.0606790   4.6093333  15.7554573  )
        45           O1  tau(  45) = (   3.2900926   2.9813045   4.7018136  )
        46           O1  tau(  46) = (   1.3039711   4.4726057   6.0039043  )
        47           O1  tau(  47) = (   5.2763189   4.4711207   6.0039473  )
        48           N1  tau(  48) = (   0.0403274   2.7191540  18.0026804  )
        49           C1  tau(  49) = (   0.9398849   2.4944932  18.9664025  )
        50           H1  tau(  50) = (   0.8973005   3.0183022  19.9142263  )
        51           H1  tau(  51) = (   1.7098349   1.7704235  18.7615287  )
        52           N1  tau(  52) = (   5.5765855   3.6054979  18.4816711  )
        53           H1  tau(  53) = (   5.9881759   4.5320851  18.7147717  )
        54           H1  tau(  54) = (   4.9344470   3.8465857  17.6610935  )
        55           H1  tau(  55) = (   5.0674124   3.1947177  19.2767304  )

     number of k points=    10  Fermi-Dirac smearing, width (Ry)=  0.0073
                       cart. coord. in units 2pi/alat
        k(    1) = (   0.0000000   0.0000000   0.0000000), wk =   0.1250000
        k(    2) = (   0.0000000   0.0419351   0.0000000), wk =   0.2500000
        k(    3) = (   0.0000000  -0.0838702   0.0000000), wk =   0.1250000
        k(    4) = (   0.0379955   0.0000049   0.0000000), wk =   0.2500000
        k(    5) = (   0.0379955   0.0419400   0.0000000), wk =   0.2500000
        k(    6) = (   0.0379955  -0.0838652   0.0000000), wk =   0.2500000
        k(    7) = (   0.0379955  -0.0419301   0.0000000), wk =   0.2500000
        k(    8) = (  -0.0759910  -0.0000099   0.0000000), wk =   0.1250000
        k(    9) = (  -0.0759910   0.0419252   0.0000000), wk =   0.2500000
        k(   10) = (  -0.0759910  -0.0838800   0.0000000), wk =   0.1250000

     Initial potential from superposition of free atoms

     starting charge  380.99914, renormalised to  397.00000

     negative rho (up, down):  1.589E-02 0.000E+00

     %%%%%%%%%%%%%%%%%%%%%%%%%%%%%%%%%%%%%%%%%%%%%%%%%%%%%%%%%%%%%%%%%%%%%%%%
     %                                                                      %
     % You are using vdW-DF, which was implemented by the Thonhauser group. %
     % Please cite the following two papers that made this development      %
     % possible and the two reviews that describe the various versions:     %
     %                                                                      %
     %   T. Thonhauser et al., PRL 115, 136402 (2015).                      %
     %   T. Thonhauser et al., PRB 76, 125112 (2007).                       %
     %   K. Berland et al., Rep. Prog. Phys. 78, 066501 (2015).             %
     %   D.C. Langreth et al., J. Phys.: Condens. Matter 21, 084203 (2009). %
     %                                                                      %
     %                                                                      %
     % If you are calculating the stress with vdW-DF, please also cite:     %
     %                                                                      %
     %   R. Sabatini et al., J. Phys.: Condens. Matter 24, 424209 (2012).   %
     %                                                                      %
     %%%%%%%%%%%%%%%%%%%%%%%%%%%%%%%%%%%%%%%%%%%%%%%%%%%%%%%%%%%%%%%%%%%%%%%%

     Adding external electric field

     Computed dipole along edir(3) :
        Dipole              -10.3122 Ry au,        -26.2111 Debye
        Dipole field         -0.0195 Ry au,

        Potential amp.        1.8040 Ry
        Total length         46.3494 bohr

     Starting wfcs are  301 atomic wfcs
  @ DRIVER MODE: Message from server: STATUS
  @ DRIVER MODE: Message from server: POSDATA
  @ DRIVER MODE: Reading and sharing cell
  @ DRIVER MODE: Reading and sharing positions
  @ DRIVER MODE: Received positions

     Self-consistent Calculation

     iteration #  1     ecut=    29.40 Ry     beta= 0.05
     Davidson diagonalization with overlap
     c_bands:  3 eigenvalues not converged
     c_bands:  2 eigenvalues not converged
     c_bands:  3 eigenvalues not converged
     c_bands:  2 eigenvalues not converged
     c_bands:  3 eigenvalues not converged
     c_bands:  2 eigenvalues not converged
     c_bands:  3 eigenvalues not converged
     c_bands:  2 eigenvalues not converged
     c_bands:  2 eigenvalues not converged
     c_bands:  3 eigenvalues not converged
     ethr =  1.00E-05,  avg # of iterations = 20.0

[...]

     total energy              =   -2480.06764159 Ry
     estimated scf accuracy    <    5159.15360133 Ry

     iteration #  2     ecut=    29.40 Ry     beta= 0.05
     Davidson diagonalization with overlap
     ethr =  1.00E-02,  avg # of iterations = 22.4

[...]

     iteration # 73     ecut=    29.40 Ry     beta= 0.05
     Davidson diagonalization with overlap
     c_bands:  1 eigenvalues not converged
     ethr =  3.74E-11,  avg # of iterations =  4.1

[...]

     total energy              =   -2941.49086799 Ry
     estimated scf accuracy    <       0.00000008 Ry

     iteration # 75     ecut=    29.40 Ry     beta= 0.05
     Davidson diagonalization with overlap
     ethr =  2.00E-11,  avg # of iterations =  6.9

     negative rho (up, down):  1.345E-02 0.000E+00

     Adding external electric field

     Computed dipole along edir(3) :
        Dipole                1.3639 Ry au,          3.4667 Debye
        Dipole field          0.0026 Ry au,

        Potential amp.       -0.2386 Ry
        Total length         46.3494 bohr

     End of self-consistent calculation

          k = 0.0000 0.0000 0.0000 ( 18029 PWs)   bands (ev):

   -55.2836 -55.2446 -55.2445 -55.2104 -55.1592 -55.1572 -55.1206 -55.0937
   -55.0765 -55.0754 -55.0590 -55.0421 -54.9562 -54.7907 -54.2627 -54.2286
   -31.8558 -31.7352 -31.6456 -31.6105 -31.5835 -31.5811 -31.5786 -31.5342
   -31.5316 -31.4915 -31.4897 -31.4890 -31.4570 -31.4540 -31.4400 -31.4185
   -31.4032 -31.3982 -31.3939 -31.3928 -31.3567 -31.3515 -31.3379 -31.3243
   -31.3014 -31.2963 -31.2900 -31.2860 -31.2736 -31.2704 -31.2606 -31.2505
   -31.2437 -31.2387 -31.2087 -31.2044 -31.1974 -31.1852 -31.1478 -31.1050
   -31.0615 -30.9321 -30.6714 -30.5787 -30.5566 -30.4880 -30.4012 -30.2902
   -19.2277 -16.1253 -15.8631 -15.7352 -15.5436 -15.4773 -15.3819 -15.2442
   -15.1927 -15.1318 -15.0822 -15.0421 -15.0288 -14.9632 -14.9061 -14.8175
   -14.8159 -14.7992 -14.7890 -14.7772 -14.7737 -14.7114 -14.7088 -14.6816
   -14.6669 -14.6567 -14.5160 -14.4320 -14.3705 -14.2788 -14.0255 -12.7653
   -12.6480  -9.1458  -7.8012  -7.0650  -5.9959  -3.8343  -3.4629  -3.2901
    -3.2436  -3.2031  -3.1782  -3.0097  -2.9281  -2.6607  -2.5927  -2.5530
    -2.5055  -2.4942  -2.4687  -2.2964  -2.2662  -2.2265  -2.1899  -2.1660
    -2.1262  -2.0983  -2.0824  -2.0531  -2.0401  -2.0380  -1.8558  -1.7844
    -1.7628  -1.7022  -1.6842  -1.6681  -1.6108  -1.5818  -1.5687  -1.5663
    -1.5435  -1.5264  -1.5038  -1.4608  -1.3739  -1.2823  -1.2379  -1.2167
    -1.1032  -1.0395  -0.9147  -0.8726  -0.8584  -0.8310  -0.7593  -0.6931
    -0.6651  -0.6294  -0.4894  -0.4848  -0.4003  -0.3910  -0.3176  -0.3008
    -0.2607  -0.2151  -0.1036  -0.0700  -0.0485   0.0031   0.0664   0.0885
     0.1703   0.2246   0.2813   0.2953   0.3748   0.4147   0.4522   0.4741
     0.5610   0.6029   0.6624   0.6687   0.7058   0.7092   0.7343   0.8207
     0.8340   0.8537   0.8946   1.0639   1.2642   1.3163   1.3371   1.6699
     1.6891   1.7599   1.9453   2.3347   2.3823   3.8176   3.8831   3.9537
     3.9681   3.9783   4.0501   4.0951   4.2850   4.3141   4.3171   4.3386

[...]

          k = 0.0380-0.0419 0.0000 ( 17876 PWs)   bands (ev):

[...]

          k =-0.0760-0.0000 0.0000 ( 17886 PWs)   bands (ev):

[...]

          k =-0.0760-0.0839 0.0000 ( 17948 PWs)   bands (ev):

   -55.2715 -55.2564 -55.2275 -55.2273 -55.1555 -55.1453 -55.1324 -55.0801
   -55.0774 -55.0745 -55.0592 -55.0588 -54.9546 -54.7922 -54.2456 -54.2455
   -31.6653 -31.6523 -31.5784 -31.5504 -31.5502 -31.5468 -31.5196 -31.5196
   -31.4922 -31.4838 -31.4792 -31.4754 -31.4209 -31.4121 -31.4119 -31.4084
   -31.4065 -31.4023 -31.3957 -31.3807 -31.3683 -31.3578 -31.3535 -31.3468
   -31.3467 -31.3448 -31.3434 -31.3276 -31.3108 -31.3078 -31.2915 -31.2887
   -31.2840 -31.2824 -31.2822 -31.2512 -31.2395 -31.2385 -31.1652 -31.0919
   -31.0623 -31.0098 -30.5692 -30.5692 -30.4840 -30.4839 -30.4446 -30.4446
   -19.2240 -15.5904 -15.5139 -15.4582 -15.3682 -15.2901 -15.2702 -15.2602
   -15.2270 -15.1602 -15.1368 -15.0718 -15.0368 -14.9910 -14.9881 -14.9731
   -14.8884 -14.8692 -14.8540 -14.8498 -14.7888 -14.7874 -14.7604 -14.7380
   -14.7313 -14.7276 -14.6278 -14.6268 -14.4628 -14.4324 -14.1991 -12.7496
   -12.7496  -9.1328  -7.8111  -7.0491  -6.0063  -3.8575  -2.8516  -2.7650
    -2.6756  -2.5191  -2.4817  -2.4718  -2.4165  -2.3258  -2.3000  -2.2867
    -2.2663  -2.2591  -2.1862  -2.1811  -2.1370  -2.1154  -2.1045  -2.0986
    -2.0647  -2.0515  -2.0379  -2.0012  -1.9927  -1.9765  -1.9422  -1.9226
    -1.8982  -1.8703  -1.8561  -1.8269  -1.7033  -1.6742  -1.6305  -1.5689
    -1.5434  -1.4764  -1.4711  -1.3700  -1.3569  -1.3460  -1.3049  -1.2909
    -1.2721  -1.1081  -1.0634  -1.0280  -1.0165  -1.0106  -0.8547  -0.8382
    -0.7702  -0.7544  -0.7395  -0.6630  -0.6217  -0.6060  -0.5254  -0.4858
    -0.4558  -0.4352  -0.2927  -0.2803  -0.2550  -0.2401  -0.2336  -0.1411
    -0.1206  -0.0846  -0.0504  -0.0124   0.0040   0.0631   0.2165   0.2429
     0.2798   0.4239   0.4393   0.5245   0.5719   0.6991   0.7638   0.7661
     0.8474   0.9174   1.0193   1.0318   1.0510   1.1370   1.1832   1.1882
     1.1894   2.1180   2.1188   2.2023   2.2025   3.6943   3.9572   4.0793
     4.0857   4.1281   4.2509   4.3344   4.3582   4.3960   4.3982   4.4719

     the Fermi energy is     3.8726 ev

!    total energy              =   -2941.49088206 Ry
     estimated scf accuracy    <       0.00000002 Ry
     smearing contrib. (-TS)   =      -0.04232256 Ry
     internal energy E=F+TS    =   -2941.44855951 Ry

     The total energy is F=E-TS. E is the sum of the following terms:
     one-electron contribution =  -23922.01198092 Ry
     hartree contribution      =   12054.18372481 Ry
     xc contribution           =    -486.85971990 Ry
     ewald contribution        =    9413.23590608 Ry
     electric field correction =       0.00351042 Ry

     convergence has been achieved in  75 iterations

     Forces acting on atoms (cartesian axes, Ry/au):

     atom    1 type  1   force =     0.00016833   -0.00017525    0.09403991
     atom    2 type  1   force =    -0.00004924   -0.00042852   -0.17753975
     atom    3 type  2   force =     0.00006650   -0.00005253   -0.02098338
     atom    4 type  2   force =     0.00001757   -0.00180428    0.05732898
     atom    5 type  2   force =    -0.01086976   -0.00090871    0.00782768
     atom    6 type  2   force =     0.01208115   -0.00033994    0.00622333
     atom    7 type  1   force =    -0.00065658    0.00289756   -0.01529306
     atom    8 type  1   force =     0.00059456    0.00235695    0.00235854
     atom    9 type  2   force =    -0.00010380    0.00012993    0.00093150
     atom   10 type  2   force =    -0.00165404   -0.00050501   -0.00379115
     atom   11 type  2   force =    -0.00005045   -0.00023701    0.00019991
     atom   12 type  2   force =    -0.00018814   -0.00039843    0.00026937
     atom   13 type  1   force =     0.00042549    0.00108781    0.00060473
     atom   14 type  1   force =     0.00020478   -0.00061995    0.00036113
     atom   15 type  2   force =    -0.00018161    0.00032469    0.00051800
     atom   16 type  2   force =    -0.00016545   -0.00024811   -0.00119453
     atom   17 type  2   force =     0.00006554   -0.00025969    0.00014684
     atom   18 type  2   force =    -0.00079663   -0.00032354    0.00013704
     atom   19 type  1   force =    -0.00053081    0.00108615   -0.00047242
     atom   20 type  1   force =    -0.00037562    0.00134488   -0.00117606
     atom   21 type  2   force =     0.00010784   -0.00004076    0.10377519
     atom   22 type  2   force =     0.00008310    0.00023408    0.00054234
     atom   23 type  2   force =    -0.07062832   -0.00018213   -0.02704819
     atom   24 type  2   force =     0.07056951    0.00029384   -0.02708655
     atom   25 type  1   force =     0.00015044   -0.00023942    0.09337037
     atom   26 type  1   force =    -0.00000916   -0.00037733   -0.17776471
     atom   27 type  2   force =     0.00010959   -0.00039350   -0.02000355
     atom   28 type  2   force =     0.00003378   -0.00146638    0.05681017
     atom   29 type  2   force =    -0.01076478   -0.00066097    0.00674553
     atom   30 type  2   force =     0.01188171   -0.00016756    0.00510262
     atom   31 type  1   force =    -0.00062982    0.00410738   -0.01560541
     atom   32 type  1   force =     0.00067357   -0.00280857    0.00213725
     atom   33 type  2   force =     0.00015754   -0.00021727   -0.00057710
     atom   34 type  2   force =    -0.00109225    0.00273194   -0.00200428
     atom   35 type  2   force =     0.00008944    0.00020059    0.00008815
     atom   36 type  2   force =    -0.00033181    0.00033851   -0.00008168
     atom   37 type  1   force =     0.00046701   -0.00008522    0.00030733
     atom   38 type  1   force =     0.00009284    0.00089498    0.00014795
     atom   39 type  2   force =    -0.00004143   -0.00098871    0.00041303
     atom   40 type  2   force =    -0.00023703   -0.00043292    0.00061791
     atom   41 type  2   force =    -0.00026733   -0.00007771   -0.00016069
     atom   42 type  2   force =     0.00013176    0.00000637    0.00022581
     atom   43 type  1   force =     0.00001198   -0.00146661    0.00088437
     atom   44 type  1   force =    -0.00007380   -0.00085102   -0.00138403
     atom   45 type  2   force =     0.00009644   -0.00008042    0.10375674
     atom   46 type  2   force =    -0.07064889   -0.00009239   -0.02705786
     atom   47 type  2   force =     0.07060305    0.00029043   -0.02709398
     atom   48 type  3   force =    -0.00089044   -0.00063854   -0.00088124
     atom   49 type  4   force =    -0.00127218    0.00052348    0.00161425
     atom   50 type  5   force =     0.00232611   -0.00094718   -0.00098387
     atom   51 type  5   force =    -0.00007482    0.00082734    0.00043203
     atom   52 type  3   force =    -0.00004144    0.00026979    0.00029900
     atom   53 type  5   force =     0.00036707   -0.00147648   -0.00068373
     atom   54 type  5   force =     0.00043890   -0.00022252    0.00100592
     atom   55 type  5   force =     0.00061003    0.00026789   -0.00035570

     Total force =     0.365713     Total SCF correction =     0.000444
  @ DRIVER MODE: Message from server: STATUS
  @ DRIVER MODE: Message from server: GETFORCE
  @ DRIVER MODE: Returning v,forces,stress,ensemble

     Writing output data file ./calc.save/
  @ DRIVER MODE: Message from server: EXIT
  @ DRIVE MODE: Exiting

     General routines

     Parallel routines

   This run was terminated on:   2:20:20   9Sep2021

   JOB DONE.