     Program PWSCF v.6.7GPU starts on 10Sep2021 at 15:43: 6

     R & G space division:  proc/nbgrp/npool/nimage =      10
     Reading input from /storage/home/hcoda1/3/ntian30/research/carbon/CxH_vib/CH_calc/ads_slab/CHNHNH_a/out_0016/pw.inp
Warning: card &CELL ignored
Warning: card   CELL_DYNAMICS='IPI', ignored
Warning: card / ignored

     Current dimensions of program PWSCF are:
     Max number of different atomic species (ntypx) = 10
     Max number of k-points (npk) =  40000
     Max angular momentum in pseudopotentials (lmaxx) =  3
     Presently no symmetry can be used with electric field

     Message from routine cell_base_init:
     DEPRECATED: use true lattice parameter, not A to a.u. conversion factor

     IMPORTANT: XC functional enforced from input :
     Exchange-correlation= BEEF-VDW
                           (   1   4  43  14   2   0   0)
     Any further DFT definition will be discarded
     Please, verify this is what you really want

  @ DRIVER MODE: Connecting to
 qe_1139763_2787518.sched-torque.pace.gatech.edumkhcmuyi_scratch
  using UNIX socket
  @ DRIVER MODE: Message from server: STATUS
  @ DRIVER MODE: Message from server: INIT
  @ DRIVER MODE: Receiving replica           0          -1
  @ DRIVER MODE: Receiving encoded integer          25
  @ DRIVER MODE:  SCF:  T  FORCE:  T  STRESS:  F  VC:  F  ENSEMBLE:  F
  @ DRIVER MODE:  SCF:  T  FORCE:  T  STRESS:  F  VC:  F  ENSEMBLE:  F

     Using Slab Decomposition

     bravais-lattice index     =            0
     lattice parameter (alat)  =       1.8897  a.u.
     unit-cell volume          =    6658.9804 (a.u.)^3
     number of atoms/cell      =           53
     number of atomic types    =            5
     number of electrons       =       395.00
     number of Kohn-Sham states=          207
     kinetic-energy cutoff     =      29.3995  Ry
     charge density cutoff     =     293.9946  Ry
     scf convergence threshold =      7.3E-08
     mixing beta               =       0.0500
     number of iterations used =            8  plain     mixing
     Exchange-correlation= BEEF-VDW
                           (   1   4  43  14   2   0   0)

     celldm(1)=   1.889726  celldm(2)=   0.000000  celldm(3)=   0.000000
     celldm(4)=   0.000000  celldm(5)=   0.000000  celldm(6)=   0.000000

     crystal axes: (cart. coord. in units of alat)
               a(1) = (   6.579727   0.000000   0.000000 )
               a(2) = (  -0.000775   5.961596   0.000000 )
               a(3) = (   0.000000   0.000000  25.155947 )

     reciprocal axes: (cart. coord. in units 2 pi/alat)
               b(1) = (  0.151982  0.000020  0.000000 )
               b(2) = (  0.000000  0.167740  0.000000 )
               b(3) = (  0.000000  0.000000  0.039752 )

     PseudoPot. # 1 for Ti read from file:
     /storage/coda1/p-amedford6/0/shared/rich_project_chbe-medford/medford-share/data/pseudos_module/espresso/nninc/pbe/van/Ti.UPF
     MD5 check sum: 8e4df49b7f0d34bbd5052bf3f5ea0213
     Pseudo is Ultrasoft, Zval = 12.0
     Generated by new atomic code, or converted to UPF format
     Using radial grid of  851 points,  6 beta functions with:
                l(1) =   0
                l(2) =   0
                l(3) =   1
                l(4) =   1
                l(5) =   2
                l(6) =   2
     Q(r) pseudized with  8 coefficients,  rinner =    1.000   1.000   1.000
                                                       1.000   1.000

     PseudoPot. # 2 for O  read from file:
     /storage/coda1/p-amedford6/0/shared/rich_project_chbe-medford/medford-share/data/pseudos_module/espresso/nninc/pbe/van/O.UPF
     MD5 check sum: 78c19812648e8988a0fe644b0f25305e
     Pseudo is Ultrasoft, Zval =  6.0
     Generated by new atomic code, or converted to UPF format
     Using radial grid of  737 points,  4 beta functions with:
                l(1) =   0
                l(2) =   0
                l(3) =   1
                l(4) =   1
     Q(r) pseudized with  8 coefficients,  rinner =    0.800   0.800   0.800

     PseudoPot. # 3 for N  read from file:
     /storage/coda1/p-amedford6/0/shared/rich_project_chbe-medford/medford-share/data/pseudos_module/espresso/nninc/pbe/van/N.UPF
     MD5 check sum: 90d10febe142ad51ac9d5be1deb811c4
     Pseudo is Ultrasoft, Zval =  5.0
     Generated by new atomic code, or converted to UPF format
     Using radial grid of  729 points,  4 beta functions with:
                l(1) =   0
                l(2) =   0
                l(3) =   1
                l(4) =   1
     Q(r) pseudized with  8 coefficients,  rinner =    0.800   0.800   0.800

     PseudoPot. # 4 for C  read from file:
     /storage/coda1/p-amedford6/0/shared/rich_project_chbe-medford/medford-share/data/pseudos_module/espresso/nninc/pbe/van/C.UPF
     MD5 check sum: 1a69bf6b8db32088f5b2163dbdb77a27
     Pseudo is Ultrasoft, Zval =  4.0
     Generated by new atomic code, or converted to UPF format
     Using radial grid of  721 points,  4 beta functions with:
                l(1) =   0
                l(2) =   0
                l(3) =   1
                l(4) =   1
     Q(r) pseudized with  8 coefficients,  rinner =    0.800   0.800   0.800

     PseudoPot. # 5 for H  read from file:
     /storage/coda1/p-amedford6/0/shared/rich_project_chbe-medford/medford-share/data/pseudos_module/espresso/nninc/pbe/van/H.UPF
     MD5 check sum: b5ee9d7bfd3a09ee7748110bda690ff7
     Pseudo is Ultrasoft, Zval =  1.0
     Generated by new atomic code, or converted to UPF format
     Using radial grid of  615 points,  1 beta functions with:
                l(1) =   0
     Q(r) pseudized with  8 coefficients,  rinner =    0.800

     atomic species   valence    mass     pseudopotential
        Ti1           12.00    47.86700     Ti( 1.00)
        O1             6.00    15.99900     O ( 1.00)
        N1             5.00    14.00700     N ( 1.00)
        C1             4.00    12.01100     C ( 1.00)
        H1             1.00     1.00800     H ( 1.00)

     No symmetry found

   Cartesian axes

     site n.     atom                  positions (alat units)
         1           Ti1 tau(   1) = (   0.0004258   2.9801865   6.0000000  )
         2           Ti1 tau(   2) = (   3.2906075   1.4906267   6.0002472  )
         3           O1  tau(   3) = (   0.0006271   0.0005054   7.9858123  )
         4           O1  tau(   4) = (   3.2906025   0.0005020   7.3038282  )
         5           O1  tau(   5) = (   4.5942328   1.4918067   9.2879030  )
         6           O1  tau(   6) = (   1.9868534   1.4903216   9.2879459  )
         7           Ti1 tau(   7) = (   3.2907910   2.8959150   9.1758416  )
         8           Ti1 tau(   8) = (   0.0015273   1.4827037   9.2680791  )
         9           O1  tau(   9) = (   3.2974950   5.9468587  11.3331085  )
        10           O1  tau(  10) = (   0.0116148   5.9584955  10.6183126  )
        11           O1  tau(  11) = (   1.3019594   1.4757037  12.6170356  )
        12           O1  tau(  12) = (   5.2841045   1.4688878  12.6073194  )
        13           Ti1 tau(  13) = (   0.0658538   3.0089988  12.6217963  )
        14           Ti1 tau(  14) = (   3.3903573   1.4765488  12.4775701  )
        15           O1  tau(  15) = (   6.5762050   0.0002902  14.6414759  )
        16           O1  tau(  16) = (   3.3078303   5.9588356  13.9306596  )
        17           O1  tau(  17) = (   4.5399328   1.5113171  16.0740780  )
        18           O1  tau(  18) = (   2.0525891   1.5105181  16.0861438  )
        19           Ti1 tau(  19) = (   3.3041007   2.9930787  15.6963055  )
        20           Ti1 tau(  20) = (   0.0280933   1.5113244  15.8467906  )
        21           O1  tau(  21) = (   3.2904802   0.0005063   4.7018136  )
        22           O1  tau(  22) = (   0.0368235   0.0128086  17.1990618  )
        23           O1  tau(  23) = (   1.3043587   1.4918075   6.0039043  )
        24           O1  tau(  24) = (   5.2767064   1.4903225   6.0039473  )
        25           Ti1 tau(  25) = (   0.0000382   5.9609847   6.0000000  )
        26           Ti1 tau(  26) = (   3.2902200   4.4714249   6.0002472  )
        27           O1  tau(  27) = (   0.0002396   2.9813036   7.9858123  )
        28           O1  tau(  28) = (   3.2902150   2.9813002   7.3038282  )
        29           O1  tau(  29) = (   4.5938453   4.4726049   9.2879030  )
        30           O1  tau(  30) = (   1.9864658   4.4711199   9.2879459  )
        31           Ti1 tau(  31) = (   3.2891106   5.8743827   9.1763621  )
        32           Ti1 tau(  32) = (   0.0006254   4.4649316   9.2693709  )
        33           O1  tau(  33) = (   3.3000731   2.9737533  11.3293525  )
        34           O1  tau(  34) = (   0.0092240   2.9805883  10.6323155  )
        35           O1  tau(  35) = (   1.3001503   4.4664650  12.6348062  )
        36           O1  tau(  36) = (   5.2875254   4.4541756  12.6228532  )
        37           Ti1 tau(  37) = (   0.0765437   0.0243871  12.5594496  )
        38           Ti1 tau(  38) = (   3.3883988   4.4566399  12.4818539  )
        39           O1  tau(  39) = (   0.0169469   2.9261715  14.6451004  )
        40           O1  tau(  40) = (   3.3035743   2.9719493  13.9037931  )
        41           O1  tau(  41) = (   4.5445893   4.4635849  16.0933648  )
        42           O1  tau(  42) = (   2.0554864   4.4706235  16.0676963  )
        43           Ti1 tau(  43) = (   3.3300396   0.0018144  15.7250798  )
        44           Ti1 tau(  44) = (   0.0441581   4.6348571  16.0952712  )
        45           O1  tau(  45) = (   3.2900926   2.9813045   4.7018136  )
        46           O1  tau(  46) = (   1.3039711   4.4726057   6.0039043  )
        47           O1  tau(  47) = (   5.2763189   4.4711207   6.0039473  )
        48           N1  tau(  48) = (   1.0252718   2.8101955  18.5330041  )
        49           N1  tau(  49) = (   6.5702222   2.9467621  17.4444712  )
        50           C1  tau(  50) = (   1.2122298   3.5380882  19.5702009  )
        51           H1  tau(  51) = (   0.5037382   4.3646449  19.6222421  )
        52           H1  tau(  52) = (   1.5845460   1.9874866  18.3412699  )
        53           H1  tau(  53) = (   5.6894004   2.9582294  17.9538253  )

     number of k points=    10  Fermi-Dirac smearing, width (Ry)=  0.0073
                       cart. coord. in units 2pi/alat
        k(    1) = (   0.0000000   0.0000000   0.0000000), wk =   0.1250000
        k(    2) = (   0.0000000   0.0419351   0.0000000), wk =   0.2500000
        k(    3) = (   0.0000000  -0.0838702   0.0000000), wk =   0.1250000
        k(    4) = (   0.0379955   0.0000049   0.0000000), wk =   0.2500000
        k(    5) = (   0.0379955   0.0419400   0.0000000), wk =   0.2500000
        k(    6) = (   0.0379955  -0.0838652   0.0000000), wk =   0.2500000
        k(    7) = (   0.0379955  -0.0419301   0.0000000), wk =   0.2500000
        k(    8) = (  -0.0759910  -0.0000099   0.0000000), wk =   0.1250000
        k(    9) = (  -0.0759910   0.0419252   0.0000000), wk =   0.2500000
        k(   10) = (  -0.0759910  -0.0838800   0.0000000), wk =   0.1250000

     Initial potential from superposition of free atoms

     starting charge  378.99916, renormalised to  395.00000

     negative rho (up, down):  1.643E-02 0.000E+00

     %%%%%%%%%%%%%%%%%%%%%%%%%%%%%%%%%%%%%%%%%%%%%%%%%%%%%%%%%%%%%%%%%%%%%%%%
     %                                                                      %
     % You are using vdW-DF, which was implemented by the Thonhauser group. %
     % Please cite the following two papers that made this development      %
     % possible and the two reviews that describe the various versions:     %
     %                                                                      %
     %   T. Thonhauser et al., PRL 115, 136402 (2015).                      %
     %   T. Thonhauser et al., PRB 76, 125112 (2007).                       %
     %   K. Berland et al., Rep. Prog. Phys. 78, 066501 (2015).             %
     %   D.C. Langreth et al., J. Phys.: Condens. Matter 21, 084203 (2009). %
     %                                                                      %
     %                                                                      %
     % If you are calculating the stress with vdW-DF, please also cite:     %
     %                                                                      %
     %   R. Sabatini et al., J. Phys.: Condens. Matter 24, 424209 (2012).   %
     %                                                                      %
     %%%%%%%%%%%%%%%%%%%%%%%%%%%%%%%%%%%%%%%%%%%%%%%%%%%%%%%%%%%%%%%%%%%%%%%%

     Adding external electric field

     Computed dipole along edir(3) :
        Dipole               -8.5017 Ry au,        -21.6093 Debye
        Dipole field         -0.0160 Ry au,

        Potential amp.        1.4872 Ry
        Total length         46.3494 bohr

     Starting wfcs are  299 atomic wfcs
  @ DRIVER MODE: Message from server: STATUS
  @ DRIVER MODE: Message from server: POSDATA
  @ DRIVER MODE: Reading and sharing cell
  @ DRIVER MODE: Reading and sharing positions
  @ DRIVER MODE: Received positions

     Self-consistent Calculation

     iteration #  1     ecut=    29.40 Ry     beta= 0.05
     Davidson diagonalization with overlap
     c_bands:  1 eigenvalues not converged
     c_bands:  1 eigenvalues not converged
     c_bands:  2 eigenvalues not converged
     c_bands:  3 eigenvalues not converged
     c_bands:  3 eigenvalues not converged
     c_bands:  1 eigenvalues not converged
     c_bands:  1 eigenvalues not converged
     ethr =  1.00E-05,  avg # of iterations = 19.2

[...]

     total energy              =   -2621.17367251 Ry
     estimated scf accuracy    <    3530.54478839 Ry

[...]

     iteration #  3     ecut=    29.40 Ry     beta= 0.05
     Davidson diagonalization with overlap
     ethr =  1.00E-02,  avg # of iterations = 14.9

[...]

     iteration # 44     ecut=    29.40 Ry     beta= 0.05
     Davidson diagonalization with overlap
     c_bands:  1 eigenvalues not converged
     ethr =  6.64E-07,  avg # of iterations = 10.3

[...]

     total energy              =   -2939.04796005 Ry
     estimated scf accuracy    <       0.00000009 Ry

     iteration # 69     ecut=    29.40 Ry     beta= 0.05
     Davidson diagonalization with overlap
     ethr =  2.22E-11,  avg # of iterations =  9.2

     negative rho (up, down):  1.569E-02 0.000E+00

     Adding external electric field

     Computed dipole along edir(3) :
        Dipole                0.0424 Ry au,          0.1078 Debye
        Dipole field          0.0001 Ry au,

        Potential amp.       -0.0074 Ry
        Total length         46.3494 bohr

     End of self-consistent calculation

          k = 0.0000 0.0000 0.0000 ( 18029 PWs)   bands (ev):

   -56.2407 -56.2345 -56.2067 -56.1985 -56.1494 -56.0781 -56.0773 -56.0488
   -56.0417 -56.0148 -56.0126 -55.9790 -55.7873 -55.5239 -55.2175 -55.1835
   -32.7910 -32.7229 -32.5910 -32.5786 -32.5589 -32.5476 -32.5339 -32.5033
   -32.4832 -32.4816 -32.4556 -32.4439 -32.4157 -32.3928 -32.3871 -32.3763
   -32.3756 -32.3448 -32.3293 -32.2977 -32.2902 -32.2876 -32.2636 -32.2436
   -32.2398 -32.2362 -32.2361 -32.2234 -32.2155 -32.2001 -32.1939 -32.1920
   -32.1877 -32.1792 -32.1656 -32.1556 -32.1248 -32.0396 -31.9769 -31.8019
   -31.7855 -31.7251 -31.6246 -31.5363 -31.5138 -31.4413 -31.3548 -31.2437
   -17.2738 -16.9891 -16.7169 -16.5074 -16.3962 -16.3645 -16.2649 -16.0815
   -15.9577 -15.9276 -15.8279 -15.8005 -15.7767 -15.7657 -15.7435 -15.7337
   -15.6869 -15.6820 -15.6697 -15.6544 -15.6012 -15.5760 -15.5474 -15.4383
   -15.4318 -15.3986 -15.3727 -15.2964 -15.2902 -14.8299 -13.7200 -13.6036
   -12.7390  -8.6656  -5.3148  -4.3650  -4.2216  -4.1930  -4.1458  -4.0938
    -3.8761  -3.8140  -3.7596  -3.6309  -3.4699  -3.4281  -3.4152  -3.3992
    -3.3698  -3.1433  -3.1179  -3.0544  -3.0309  -3.0251  -3.0140  -3.0044
    -2.9836  -2.9662  -2.8935  -2.7893  -2.7161  -2.6672  -2.6197  -2.6088
    -2.5524  -2.5058  -2.5016  -2.4842  -2.4793  -2.4701  -2.4333  -2.4246
    -2.2884  -2.2273  -2.0947  -2.0580  -2.0380  -1.8881  -1.8475  -1.7527
    -1.6861  -1.6690  -1.6596  -1.6309  -1.5457  -1.5228  -1.4039  -1.3812
    -1.3402  -1.2643  -1.2560  -1.2343  -1.1322  -1.1170  -1.0118  -1.0042
    -0.9978  -0.9808  -0.9211  -0.7321  -0.7092  -0.6818  -0.6620  -0.6279
    -0.5523  -0.5224  -0.4317  -0.4190  -0.3604  -0.3375  -0.3158  -0.2659
    -0.2601  -0.2481  -0.2443  -0.2284  -0.0528   0.0085   0.0656   0.1166
     0.1330   0.2891   0.3384   0.4169   0.5023   0.7300   0.8045   0.8431
     0.8930   0.9966   1.3758   1.4214   2.4390   2.9000   2.9803   3.0303
     3.0404   3.1345   3.1412   3.3483   3.3700   3.3758   3.4397

[...]

          k = 0.0380-0.0419 0.0000 ( 17876 PWs)   bands (ev):

[...]

          k =-0.0760-0.0000 0.0000 ( 17886 PWs)   bands (ev):

[...]

          k =-0.0760-0.0839 0.0000 ( 17948 PWs)   bands (ev):

   -56.2240 -56.2233 -56.2172 -56.2156 -56.1449 -56.0824 -56.0641 -56.0548
   -56.0327 -56.0305 -55.9962 -55.9956 -55.7863 -55.5248 -55.2005 -55.2003
   -32.5959 -32.5932 -32.5384 -32.5379 -32.5273 -32.5196 -32.5189 -32.5002
   -32.4425 -32.4413 -32.4356 -32.4325 -32.4075 -32.3725 -32.3615 -32.3571
   -32.3498 -32.3462 -32.3438 -32.3433 -32.3426 -32.3354 -32.3332 -32.2857
   -32.2847 -32.2737 -32.2557 -32.2456 -32.2312 -32.2307 -32.2280 -32.2277
   -32.2111 -32.2103 -32.2029 -32.2008 -32.1314 -32.0420 -31.9720 -31.8588
   -31.7946 -31.7502 -31.5266 -31.5265 -31.4374 -31.4372 -31.3981 -31.3980
   -17.2550 -16.4405 -16.4089 -16.1824 -16.1724 -16.1577 -16.1541 -16.0170
   -15.9493 -15.9462 -15.9394 -15.9075 -15.8797 -15.8417 -15.7966 -15.7750
   -15.7744 -15.7626 -15.7559 -15.7026 -15.6974 -15.6757 -15.6688 -15.5670
   -15.5559 -15.5524 -15.4991 -15.4106 -15.2817 -15.0042 -13.7055 -13.7054
   -12.7496  -8.6711  -5.3124  -3.8846  -3.7315  -3.6943  -3.5593  -3.4124
    -3.4082  -3.3972  -3.3239  -3.1565  -3.1421  -3.1196  -3.0953  -3.0684
    -3.0683  -3.0536  -3.0479  -3.0290  -3.0052  -2.9697  -2.9308  -2.9272
    -2.9051  -2.8953  -2.8694  -2.8556  -2.8257  -2.8138  -2.7982  -2.7801
    -2.7614  -2.7461  -2.5921  -2.4728  -2.4394  -2.3768  -2.3685  -2.3492
    -2.3148  -2.3039  -2.2909  -2.2288  -2.1277  -1.9909  -1.9438  -1.9365
    -1.9037  -1.8249  -1.8123  -1.6681  -1.6533  -1.6260  -1.5869  -1.5328
    -1.5169  -1.4666  -1.4029  -1.3914  -1.3595  -1.3290  -1.2538  -1.2033
    -1.2003  -1.1804  -1.1233  -1.0347  -1.0274  -1.0104  -1.0027  -0.9524
    -0.8754  -0.8616  -0.8294  -0.7449  -0.7275  -0.6279  -0.5449  -0.3394
    -0.2613  -0.2142  -0.1681  -0.1348  -0.0317   0.0150   0.0306   0.0665
     0.0796   0.1263   0.1854   0.2921   0.2991   0.3601   0.4696   0.8083
     1.1682   1.1690   1.2411   1.2412   2.3974   3.1599   3.1685   3.2240
     3.2463   3.3970   3.4028   3.4272   3.4284   3.5489   3.5671

     the Fermi energy is     2.8948 ev

!    total energy              =   -2939.04797876 Ry
     estimated scf accuracy    <       0.00000007 Ry
     smearing contrib. (-TS)   =      -0.02297809 Ry
     internal energy E=F+TS    =   -2939.02500067 Ry

     The total energy is F=E-TS. E is the sum of the following terms:
     one-electron contribution =  -24314.72472145 Ry
     hartree contribution      =   12241.20578368 Ry
     xc contribution           =    -485.12465421 Ry
     ewald contribution        =    9619.61858791 Ry
     electric field correction =       0.00000339 Ry

     convergence has been achieved in  69 iterations

     Forces acting on atoms (cartesian axes, Ry/au):

     atom    1 type  1   force =     0.00025712   -0.00023908    0.09665266
     atom    2 type  1   force =    -0.00018287   -0.00052592   -0.17528940
     atom    3 type  2   force =    -0.00000478   -0.00007525   -0.02504198
     atom    4 type  2   force =     0.00005847   -0.00154516    0.05297313
     atom    5 type  2   force =    -0.01216894   -0.00104370    0.00344086
     atom    6 type  2   force =     0.01404783   -0.00028428    0.00273226
     atom    7 type  1   force =    -0.00095264    0.00049568   -0.01193666
     atom    8 type  1   force =     0.00043915    0.00875508    0.02924466
     atom    9 type  2   force =     0.00051185    0.00031041   -0.00018295
     atom   10 type  2   force =    -0.00090079   -0.00020023   -0.01709582
     atom   11 type  2   force =     0.00036840    0.00017599    0.00035650
     atom   12 type  2   force =    -0.00106020    0.00081550    0.00049294
     atom   13 type  1   force =     0.00146950    0.00080985   -0.00007266
     atom   14 type  1   force =    -0.00124608    0.00035308   -0.00026455
     atom   15 type  2   force =    -0.00064732    0.00069109    0.00055115
     atom   16 type  2   force =     0.00032042   -0.00036006   -0.00019219
     atom   17 type  2   force =     0.00061470    0.00019820   -0.00017391
     atom   18 type  2   force =    -0.00064190    0.00004459   -0.00025695
     atom   19 type  1   force =    -0.00010491   -0.00057221    0.00006194
     atom   20 type  1   force =     0.00003127   -0.00005397    0.00037368
     atom   21 type  2   force =     0.00007963   -0.00006105    0.10319796
     atom   22 type  2   force =     0.00001180    0.00157281    0.00037058
     atom   23 type  2   force =    -0.07148016   -0.00015817   -0.02776269
     atom   24 type  2   force =     0.07142592    0.00026418   -0.02776449
     atom   25 type  1   force =     0.00007586   -0.00022882    0.09650251
     atom   26 type  1   force =    -0.00012990   -0.00033824   -0.17546543
     atom   27 type  2   force =     0.00006425   -0.00023989   -0.02407209
     atom   28 type  2   force =     0.00011743   -0.00128114    0.05274687
     atom   29 type  2   force =    -0.01228265    0.00002536    0.00300527
     atom   30 type  2   force =     0.01405031    0.00040556    0.00237518
     atom   31 type  1   force =    -0.00094092    0.00316690   -0.01288535
     atom   32 type  1   force =     0.00028892   -0.01002122    0.02992434
     atom   33 type  2   force =     0.00025649   -0.00014321    0.00046037
     atom   34 type  2   force =    -0.00003238   -0.00000217   -0.02437219
     atom   35 type  2   force =    -0.00033356    0.00022435   -0.00027954
     atom   36 type  2   force =    -0.00114816    0.00054415   -0.00007263
     atom   37 type  1   force =     0.00123435   -0.00092546    0.00044052
     atom   38 type  1   force =    -0.00091922   -0.00056707   -0.00003495
     atom   39 type  2   force =    -0.00022790   -0.00059750    0.00069443
     atom   40 type  2   force =     0.00008599    0.00054502    0.00012365
     atom   41 type  2   force =    -0.00106249   -0.00009974   -0.00023732
     atom   42 type  2   force =     0.00160454   -0.00020700   -0.00025877
     atom   43 type  1   force =    -0.00053808    0.00033226   -0.00042303
     atom   44 type  1   force =    -0.00009600    0.00014701   -0.00003766
     atom   45 type  2   force =     0.00005396   -0.00008619    0.10319064
     atom   46 type  2   force =    -0.07150229   -0.00015574   -0.02775221
     atom   47 type  2   force =     0.07147365    0.00033901   -0.02778978
     atom   48 type  3   force =    -0.00076713    0.01004963    0.00835930
     atom   49 type  3   force =     0.00002760   -0.00105500    0.00082842
     atom   50 type  4   force =     0.00578673   -0.01544625   -0.00915724
     atom   51 type  5   force =    -0.00580883    0.00780532   -0.00109406
     atom   52 type  5   force =     0.00122955   -0.00085722    0.00033047
     atom   53 type  5   force =    -0.00080559   -0.00070006    0.00053621

     Total force =     0.369190     Total SCF correction =     0.000943
  @ DRIVER MODE: Message from server: STATUS
  @ DRIVER MODE: Message from server: GETFORCE
  @ DRIVER MODE: Returning v,forces,stress,ensemble

     Writing output data file ./calc.save/
  @ DRIVER MODE: Message from server: EXIT
  @ DRIVE MODE: Exiting

     General routines

     Parallel routines

   This run was terminated on:  16: 1: 4  10Sep2021

   JOB DONE.