     Program PWSCF v.6.7GPU starts on 15Sep2021 at 19:46: 5

     R & G space division:  proc/nbgrp/npool/nimage =      10
     Reading input from /storage/home/hcoda1/3/ntian30/research/carbon/CxH_vib/H2O_calc/ads_slab/CH2NNHHH2O_a/out_0012/pw.inp
Warning: card &CELL ignored
Warning: card   CELL_DYNAMICS='IPI', ignored
Warning: card / ignored

     Current dimensions of program PWSCF are:
     Max number of different atomic species (ntypx) = 10
     Max number of k-points (npk) =  40000
     Max angular momentum in pseudopotentials (lmaxx) =  3
     Presently no symmetry can be used with electric field

     Message from routine cell_base_init:
     DEPRECATED: use true lattice parameter, not A to a.u. conversion factor

     IMPORTANT: XC functional enforced from input :
     Exchange-correlation= BEEF-VDW
                           (   1   4  43  14   2   0   0)
     Any further DFT definition will be discarded
     Please, verify this is what you really want

  @ DRIVER MODE: Connecting to
 qe_1139763_2852611.sched-torque.pace.gatech.eduuyjmldme_scratch
  using UNIX socket
  @ DRIVER MODE: Message from server: STATUS
  @ DRIVER MODE: Message from server: INIT
  @ DRIVER MODE: Receiving replica           0          -1
  @ DRIVER MODE: Receiving encoded integer          25
  @ DRIVER MODE:  SCF:  T  FORCE:  T  STRESS:  F  VC:  F  ENSEMBLE:  F
  @ DRIVER MODE:  SCF:  T  FORCE:  T  STRESS:  F  VC:  F  ENSEMBLE:  F

     Using Slab Decomposition

     bravais-lattice index     =            0
     lattice parameter (alat)  =       1.8897  a.u.
     unit-cell volume          =    6658.9804 (a.u.)^3
     number of atoms/cell      =           57
     number of atomic types    =            5
     number of electrons       =       404.00
     number of Kohn-Sham states=          212
     kinetic-energy cutoff     =      29.3995  Ry
     charge density cutoff     =     293.9946  Ry
     scf convergence threshold =      7.3E-08
     mixing beta               =       0.0500
     number of iterations used =            8  plain     mixing
     Exchange-correlation= BEEF-VDW
                           (   1   4  43  14   2   0   0)

     celldm(1)=   1.889726  celldm(2)=   0.000000  celldm(3)=   0.000000
     celldm(4)=   0.000000  celldm(5)=   0.000000  celldm(6)=   0.000000

     crystal axes: (cart. coord. in units of alat)
               a(1) = (   6.579727   0.000000   0.000000 )
               a(2) = (  -0.000775   5.961596   0.000000 )
               a(3) = (   0.000000   0.000000  25.155947 )

     reciprocal axes: (cart. coord. in units 2 pi/alat)
               b(1) = (  0.151982  0.000020  0.000000 )
               b(2) = (  0.000000  0.167740  0.000000 )
               b(3) = (  0.000000  0.000000  0.039752 )

     PseudoPot. # 1 for Ti read from file:
     /storage/coda1/p-amedford6/0/shared/rich_project_chbe-medford/medford-share/data/pseudos_module/espresso/nninc/pbe/van/Ti.UPF
     MD5 check sum: 8e4df49b7f0d34bbd5052bf3f5ea0213
     Pseudo is Ultrasoft, Zval = 12.0
     Generated by new atomic code, or converted to UPF format
     Using radial grid of  851 points,  6 beta functions with:
                l(1) =   0
                l(2) =   0
                l(3) =   1
                l(4) =   1
                l(5) =   2
                l(6) =   2
     Q(r) pseudized with  8 coefficients,  rinner =    1.000   1.000   1.000
                                                       1.000   1.000

     PseudoPot. # 2 for O  read from file:
     /storage/coda1/p-amedford6/0/shared/rich_project_chbe-medford/medford-share/data/pseudos_module/espresso/nninc/pbe/van/O.UPF
     MD5 check sum: 78c19812648e8988a0fe644b0f25305e
     Pseudo is Ultrasoft, Zval =  6.0
     Generated by new atomic code, or converted to UPF format
     Using radial grid of  737 points,  4 beta functions with:
                l(1) =   0
                l(2) =   0
                l(3) =   1
                l(4) =   1
     Q(r) pseudized with  8 coefficients,  rinner =    0.800   0.800   0.800

     PseudoPot. # 3 for N  read from file:
     /storage/coda1/p-amedford6/0/shared/rich_project_chbe-medford/medford-share/data/pseudos_module/espresso/nninc/pbe/van/N.UPF
     MD5 check sum: 90d10febe142ad51ac9d5be1deb811c4
     Pseudo is Ultrasoft, Zval =  5.0
     Generated by new atomic code, or converted to UPF format
     Using radial grid of  729 points,  4 beta functions with:
                l(1) =   0
                l(2) =   0
                l(3) =   1
                l(4) =   1
     Q(r) pseudized with  8 coefficients,  rinner =    0.800   0.800   0.800

     PseudoPot. # 4 for C  read from file:
     /storage/coda1/p-amedford6/0/shared/rich_project_chbe-medford/medford-share/data/pseudos_module/espresso/nninc/pbe/van/C.UPF
     MD5 check sum: 1a69bf6b8db32088f5b2163dbdb77a27
     Pseudo is Ultrasoft, Zval =  4.0
     Generated by new atomic code, or converted to UPF format
     Using radial grid of  721 points,  4 beta functions with:
                l(1) =   0
                l(2) =   0
                l(3) =   1
                l(4) =   1
     Q(r) pseudized with  8 coefficients,  rinner =    0.800   0.800   0.800

     PseudoPot. # 5 for H  read from file:
     /storage/coda1/p-amedford6/0/shared/rich_project_chbe-medford/medford-share/data/pseudos_module/espresso/nninc/pbe/van/H.UPF
     MD5 check sum: b5ee9d7bfd3a09ee7748110bda690ff7
     Pseudo is Ultrasoft, Zval =  1.0
     Generated by new atomic code, or converted to UPF format
     Using radial grid of  615 points,  1 beta functions with:
                l(1) =   0
     Q(r) pseudized with  8 coefficients,  rinner =    0.800

     atomic species   valence    mass     pseudopotential
        Ti1           12.00    47.86700     Ti( 1.00)
        O1             6.00    15.99900     O ( 1.00)
        N1             5.00    14.00700     N ( 1.00)
        C1             4.00    12.01100     C ( 1.00)
        H1             1.00     1.00800     H ( 1.00)

     No symmetry found

   Cartesian axes

     site n.     atom                  positions (alat units)
         1           Ti1 tau(   1) = (   0.0004258   2.9801865   6.0000000  )
         2           Ti1 tau(   2) = (   3.2906075   1.4906267   6.0002472  )
         3           O1  tau(   3) = (   0.0006271   0.0005054   7.9858123  )
         4           O1  tau(   4) = (   3.2906025   0.0005020   7.3038282  )
         5           O1  tau(   5) = (   4.5942328   1.4918067   9.2879030  )
         6           O1  tau(   6) = (   1.9868534   1.4903216   9.2879459  )
         7           Ti1 tau(   7) = (   3.2907910   2.8959150   9.1758416  )
         8           Ti1 tau(   8) = (   0.0015273   1.4827037   9.2680791  )
         9           O1  tau(   9) = (   3.3121314   5.9338840  11.3691909  )
        10           O1  tau(  10) = (   0.0116148   5.9584955  10.6183126  )
        11           O1  tau(  11) = (   1.3134021   1.4784130  12.6451072  )
        12           O1  tau(  12) = (   5.3172625   1.4801399  12.6491864  )
        13           Ti1 tau(  13) = (   0.0380378   2.9573341  12.5222382  )
        14           Ti1 tau(  14) = (   3.3404755   1.4532591  12.5245293  )
        15           O1  tau(  15) = (   0.0239237   0.0366503  14.6894071  )
        16           O1  tau(  16) = (   3.3255740   5.9570089  14.0129324  )
        17           O1  tau(  17) = (   4.5846449   1.4795273  16.1858442  )
        18           O1  tau(  18) = (   2.0539891   1.4908220  16.1938258  )
        19           Ti1 tau(  19) = (   3.3028508   2.9322526  15.7076921  )
        20           Ti1 tau(  20) = (   0.0088316   1.3655950  16.0522487  )
        21           O1  tau(  21) = (   3.2904802   0.0005063   4.7018136  )
        22           O1  tau(  22) = (   0.0586005   5.8320325  17.2288864  )
        23           O1  tau(  23) = (   1.3043587   1.4918075   6.0039043  )
        24           O1  tau(  24) = (   5.2767064   1.4903225   6.0039473  )
        25           Ti1 tau(  25) = (   0.0000382   5.9609847   6.0000000  )
        26           Ti1 tau(  26) = (   3.2902200   4.4714249   6.0002472  )
        27           O1  tau(  27) = (   0.0002396   2.9813036   7.9858123  )
        28           O1  tau(  28) = (   3.2902150   2.9813002   7.3038282  )
        29           O1  tau(  29) = (   4.5938453   4.4726049   9.2879030  )
        30           O1  tau(  30) = (   1.9864658   4.4711199   9.2879459  )
        31           Ti1 tau(  31) = (   3.2891106   5.8743827   9.1763621  )
        32           Ti1 tau(  32) = (   0.0006254   4.4649316   9.2693709  )
        33           O1  tau(  33) = (   3.3142679   2.9660735  11.3641874  )
        34           O1  tau(  34) = (   0.0092240   2.9805883  10.6323155  )
        35           O1  tau(  35) = (   1.3108675   4.4558178  12.6782323  )
        36           O1  tau(  36) = (   5.3175068   4.4537340  12.6790822  )
        37           Ti1 tau(  37) = (   0.0418451   5.9490355  12.4996082  )
        38           Ti1 tau(  38) = (   3.3402151   4.4429940  12.5219265  )
        39           O1  tau(  39) = (   0.0332256   2.9148708  14.9327709  )
        40           O1  tau(  40) = (   3.3156017   2.9437717  13.9283311  )
        41           O1  tau(  41) = (   4.5915719   4.3868214  16.1197993  )
        42           O1  tau(  42) = (   2.0539401   4.4017640  16.0846163  )
        43           Ti1 tau(  43) = (   3.3369130   5.9116756  15.8392261  )
        44           Ti1 tau(  44) = (   0.0533093   4.5818758  15.8415549  )
        45           O1  tau(  45) = (   3.2900926   2.9813045   4.7018136  )
        46           O1  tau(  46) = (   1.3039711   4.4726057   6.0039043  )
        47           O1  tau(  47) = (   5.2763189   4.4711207   6.0039473  )
        48           N1  tau(  48) = (   6.5287229   2.7802708  18.1865785  )
        49           C1  tau(  49) = (   0.9724842   2.7744648  18.9676868  )
        50           H1  tau(  50) = (   0.9153086   3.0669255  20.0057840  )
        51           H1  tau(  51) = (   1.9225290   2.4867234  18.5393133  )
        52           N1  tau(  52) = (   5.2958906   3.1014149  18.7352402  )
        53           H1  tau(  53) = (   5.3913054   3.6367428  19.5974321  )
        54           H1  tau(  54) = (   4.7863746   3.6605970  18.0522289  )
        55           O1  tau(  55) = (   3.2511457   5.8152340  18.3397965  )
        56           H1  tau(  56) = (   3.7467739   0.6636339  18.5518981  )
        57           H1  tau(  57) = (   2.3053106   0.0674530  18.4201010  )

     number of k points=    10  Fermi-Dirac smearing, width (Ry)=  0.0073
                       cart. coord. in units 2pi/alat
        k(    1) = (   0.0000000   0.0000000   0.0000000), wk =   0.1250000
        k(    2) = (   0.0000000   0.0419351   0.0000000), wk =   0.2500000
        k(    3) = (   0.0000000  -0.0838702   0.0000000), wk =   0.1250000
        k(    4) = (   0.0379955   0.0000049   0.0000000), wk =   0.2500000
        k(    5) = (   0.0379955   0.0419400   0.0000000), wk =   0.2500000
        k(    6) = (   0.0379955  -0.0838652   0.0000000), wk =   0.2500000
        k(    7) = (   0.0379955  -0.0419301   0.0000000), wk =   0.2500000
        k(    8) = (  -0.0759910  -0.0000099   0.0000000), wk =   0.1250000
        k(    9) = (  -0.0759910   0.0419252   0.0000000), wk =   0.2500000
        k(   10) = (  -0.0759910  -0.0838800   0.0000000), wk =   0.1250000

     Initial potential from superposition of free atoms

     starting charge  387.99913, renormalised to  404.00000

     negative rho (up, down):  1.527E-02 0.000E+00

     %%%%%%%%%%%%%%%%%%%%%%%%%%%%%%%%%%%%%%%%%%%%%%%%%%%%%%%%%%%%%%%%%%%%%%%%
     %                                                                      %
     % You are using vdW-DF, which was implemented by the Thonhauser group. %
     % Please cite the following two papers that made this development      %
     % possible and the two reviews that describe the various versions:     %
     %                                                                      %
     %   T. Thonhauser et al., PRL 115, 136402 (2015).                      %
     %   T. Thonhauser et al., PRB 76, 125112 (2007).                       %
     %   K. Berland et al., Rep. Prog. Phys. 78, 066501 (2015).             %
     %   D.C. Langreth et al., J. Phys.: Condens. Matter 21, 084203 (2009). %
     %                                                                      %
     %                                                                      %
     % If you are calculating the stress with vdW-DF, please also cite:     %
     %                                                                      %
     %   R. Sabatini et al., J. Phys.: Condens. Matter 24, 424209 (2012).   %
     %                                                                      %
     %%%%%%%%%%%%%%%%%%%%%%%%%%%%%%%%%%%%%%%%%%%%%%%%%%%%%%%%%%%%%%%%%%%%%%%%

     Adding external electric field

     Computed dipole along edir(3) :
        Dipole              -14.3275 Ry au,        -36.4169 Debye
        Dipole field         -0.0270 Ry au,

        Potential amp.        2.5064 Ry
        Total length         46.3494 bohr

     Starting wfcs are  306 atomic wfcs
  @ DRIVER MODE: Message from server: STATUS
  @ DRIVER MODE: Message from server: POSDATA
  @ DRIVER MODE: Reading and sharing cell
  @ DRIVER MODE: Reading and sharing positions
  @ DRIVER MODE: Received positions

     Self-consistent Calculation

     iteration #  1     ecut=    29.40 Ry     beta= 0.05
     Davidson diagonalization with overlap
     c_bands:  4 eigenvalues not converged
     c_bands:  3 eigenvalues not converged
     c_bands:  5 eigenvalues not converged
     c_bands:  1 eigenvalues not converged
     c_bands:  2 eigenvalues not converged
     c_bands:  1 eigenvalues not converged
     c_bands:  2 eigenvalues not converged
     c_bands:  5 eigenvalues not converged
     c_bands:  5 eigenvalues not converged
     ethr =  1.00E-05,  avg # of iterations = 24.6

[...]

     total energy              =   -2233.95850093 Ry
     estimated scf accuracy    <    8445.40423880 Ry

     iteration #  2     ecut=    29.40 Ry     beta= 0.05
     Davidson diagonalization with overlap
     ethr =  1.00E-02,  avg # of iterations = 25.4

[...]

     iteration # 58     ecut=    29.40 Ry     beta= 0.05
     Davidson diagonalization with overlap
     c_bands:  1 eigenvalues not converged
     ethr =  2.57E-09,  avg # of iterations = 10.8

[...]

     total energy              =   -2975.20571641 Ry
     estimated scf accuracy    <       0.00000008 Ry

     iteration # 66     ecut=    29.40 Ry     beta= 0.05
     Davidson diagonalization with overlap
     ethr =  2.04E-11,  avg # of iterations =  5.1

     negative rho (up, down):  1.520E-02 0.000E+00

     Adding external electric field

     Computed dipole along edir(3) :
        Dipole                1.3988 Ry au,          3.5555 Debye
        Dipole field          0.0026 Ry au,

        Potential amp.       -0.2447 Ry
        Total length         46.3494 bohr

     End of self-consistent calculation

          k = 0.0000 0.0000 0.0000 ( 18029 PWs)   bands (ev):

   -55.1919 -55.1560 -55.1523 -55.1182 -55.1045 -55.0725 -55.0368 -55.0345
   -55.0107 -54.9815 -54.9757 -54.9729 -54.9479 -54.8749 -54.1753 -54.1412
   -31.7572 -31.6439 -31.6001 -31.5611 -31.5108 -31.5001 -31.4932 -31.4861
   -31.4413 -31.4068 -31.4033 -31.3968 -31.3947 -31.3685 -31.3455 -31.3368
   -31.3356 -31.3296 -31.3101 -31.3041 -31.2833 -31.2793 -31.2654 -31.2515
   -31.2406 -31.2373 -31.2151 -31.2112 -31.2093 -31.2027 -31.1969 -31.1791
   -31.1743 -31.1639 -31.1590 -31.1461 -31.1249 -31.1213 -31.1096 -31.0919
   -31.0910 -31.0043 -30.5843 -30.4909 -30.4688 -30.4007 -30.3140 -30.2030
   -18.9088 -18.5128 -16.0172 -15.7518 -15.6153 -15.5054 -15.3906 -15.2601
   -15.2132 -15.0819 -15.0225 -14.9090 -14.8793 -14.8370 -14.8177 -14.8140
   -14.7559 -14.7292 -14.7221 -14.6968 -14.6868 -14.6654 -14.6260 -14.6198
   -14.5838 -14.5702 -14.5690 -14.4239 -14.3465 -14.2821 -13.9669 -13.6191
   -12.6777 -12.5604  -8.8050  -6.6971  -6.4407  -6.0591  -4.1164  -3.3603
    -3.2050  -3.1824  -3.1271  -3.0887  -3.0465  -3.0029  -2.9424  -2.7378
    -2.6038  -2.5766  -2.4580  -2.3920  -2.3874  -2.3344  -2.1918  -2.1864
    -2.1306  -2.0910  -2.0416  -2.0217  -1.9989  -1.9750  -1.9403  -1.9207
    -1.8949  -1.7593  -1.7383  -1.6656  -1.6033  -1.5935  -1.5352  -1.5118
    -1.4924  -1.4859  -1.4787  -1.4643  -1.4264  -1.4130  -1.3702  -1.3141
    -1.2107  -1.1287  -1.0304  -0.9501  -0.8873  -0.8263  -0.7646  -0.7554
    -0.6783  -0.6655  -0.5751  -0.5499  -0.5212  -0.4079  -0.3427  -0.3404
    -0.2778  -0.1765  -0.1473  -0.1300  -0.0585   0.0183   0.0369   0.0463
     0.0527   0.1776   0.2293   0.2648   0.2962   0.3658   0.3874   0.4414
     0.4854   0.4919   0.5693   0.6308   0.6852   0.7366   0.7501   0.7771
     0.7941   0.8057   0.8209   0.9003   0.9232   0.9601   1.0094   1.1652
     1.3270   1.4233   1.4402   1.7573   1.7708   1.8477   2.0321   2.4228
     2.4707   3.9041   3.9811   4.0405   4.0462   4.0553   4.1413   4.3858
     4.4012   4.4142   4.4267   4.4709

[...]

          k = 0.0380-0.0419 0.0000 ( 17876 PWs)   bands (ev):

[...]

          k =-0.0760-0.0000 0.0000 ( 17886 PWs)   bands (ev):

[...]

          k =-0.0760-0.0839 0.0000 ( 17948 PWs)   bands (ev):

   -55.1748 -55.1729 -55.1353 -55.1351 -55.1022 -55.0616 -55.0454 -55.0348
   -54.9962 -54.9897 -54.9750 -54.9650 -54.9646 -54.8768 -54.1582 -54.1582
   -31.5666 -31.5564 -31.5251 -31.4591 -31.4589 -31.4526 -31.4435 -31.4267
   -31.4265 -31.4054 -31.3948 -31.3919 -31.3795 -31.3536 -31.3293 -31.3238
   -31.3236 -31.3233 -31.3209 -31.3116 -31.3061 -31.2872 -31.2740 -31.2715
   -31.2575 -31.2547 -31.2546 -31.2518 -31.2419 -31.2397 -31.2296 -31.2274
   -31.2204 -31.2094 -31.2036 -31.1936 -31.1925 -31.1560 -31.1451 -31.1448
   -31.0989 -31.0906 -30.4815 -30.4814 -30.3969 -30.3967 -30.3574 -30.3574
   -18.9065 -18.5120 -15.5330 -15.4878 -15.3326 -15.1983 -15.1950 -15.1545
   -15.0984 -15.0263 -15.0053 -14.9629 -14.9519 -14.9334 -14.8963 -14.8899
   -14.8632 -14.7930 -14.7835 -14.7750 -14.7411 -14.7023 -14.6916 -14.6902
   -14.6734 -14.6436 -14.6405 -14.5430 -14.5408 -14.4464 -14.3057 -13.6340
   -12.6619 -12.6618  -8.7699  -6.6968  -6.3897  -6.0851  -4.1607  -3.1842
    -2.9182  -2.7518  -2.6460  -2.5437  -2.4174  -2.4121  -2.3265  -2.3179
    -2.2368  -2.2030  -2.1907  -2.1740  -2.0834  -2.0700  -2.0585  -2.0383
    -2.0219  -2.0037  -1.9720  -1.9651  -1.9415  -1.9158  -1.9055  -1.9034
    -1.8846  -1.8514  -1.8202  -1.8007  -1.7805  -1.7501  -1.7378  -1.6687
    -1.6296  -1.5430  -1.5066  -1.3933  -1.3913  -1.3722  -1.3109  -1.2941
    -1.2734  -1.2242  -1.2153  -1.1677  -1.0269  -0.9399  -0.9292  -0.8904
    -0.8404  -0.7923  -0.7464  -0.7292  -0.6639  -0.6436  -0.5505  -0.5349
    -0.4341  -0.3922  -0.3802  -0.3638  -0.2795  -0.2180  -0.1706  -0.1511
    -0.1466  -0.0951  -0.0817  -0.0684   0.0038   0.0504   0.0742   0.0886
     0.1309   0.2999   0.3591   0.3740   0.4935   0.5444   0.6541   0.7120
     0.7891   0.8030   0.8379   0.9277   0.9349   1.0112   1.1055   1.1193
     1.1590   1.2000   1.2491   1.2716   1.2765   2.2050   2.2064   2.2907
     2.2908   4.0489   4.1231   4.1827   4.2297   4.2369   4.3601   4.4214
     4.4645   4.4862   4.4885   4.5666

     the Fermi energy is     3.9621 ev

!    total energy              =   -2975.20575790 Ry
     estimated scf accuracy    <       0.00000005 Ry
     smearing contrib. (-TS)   =      -0.03732982 Ry
     internal energy E=F+TS    =   -2975.16842808 Ry

     The total energy is F=E-TS. E is the sum of the following terms:
     one-electron contribution =  -23536.19806638 Ry
     hartree contribution      =   11866.09514623 Ry
     xc contribution           =    -494.96745839 Ry
     ewald contribution        =    9189.89825786 Ry
     electric field correction =       0.00369260 Ry

     convergence has been achieved in  66 iterations

     Forces acting on atoms (cartesian axes, Ry/au):

     atom    1 type  1   force =     0.00005433   -0.00019411    0.09358647
     atom    2 type  1   force =    -0.00020051   -0.00021200   -0.17802045
     atom    3 type  2   force =     0.00010999   -0.00020553   -0.02064569
     atom    4 type  2   force =     0.00004846   -0.00197892    0.05806600
     atom    5 type  2   force =    -0.01002929   -0.00167151    0.00693625
     atom    6 type  2   force =     0.01217601   -0.00104150    0.00745011
     atom    7 type  1   force =     0.00022632    0.00249199   -0.01209650
     atom    8 type  1   force =    -0.00049269    0.00202470   -0.00192676
     atom    9 type  2   force =     0.00006974    0.00006300   -0.00005464
     atom   10 type  2   force =    -0.00044341   -0.00135130   -0.00317821
     atom   11 type  2   force =     0.00016780   -0.00007591   -0.00008694
     atom   12 type  2   force =    -0.00067728   -0.00011563    0.00007082
     atom   13 type  1   force =     0.00051389    0.00098131    0.00031607
     atom   14 type  1   force =    -0.00139892    0.00027838    0.00018008
     atom   15 type  2   force =    -0.00018497    0.00098735    0.00016321
     atom   16 type  2   force =    -0.00001113   -0.00042906    0.00009609
     atom   17 type  2   force =     0.00066247    0.00002675   -0.00033903
     atom   18 type  2   force =     0.00065001    0.00014376   -0.00045190
     atom   19 type  1   force =    -0.00124975    0.00097161    0.00072405
     atom   20 type  1   force =     0.00072237   -0.00003292   -0.00038163
     atom   21 type  2   force =     0.00001470   -0.00002323    0.10386052
     atom   22 type  2   force =     0.00003875    0.00085802   -0.00034432
     atom   23 type  2   force =    -0.07052154   -0.00010442   -0.02697135
     atom   24 type  2   force =     0.07046182    0.00032110   -0.02703245
     atom   25 type  1   force =     0.00001536   -0.00018703    0.09303620
     atom   26 type  1   force =    -0.00009194   -0.00048046   -0.17794751
     atom   27 type  2   force =     0.00017099   -0.00036605   -0.01953659
     atom   28 type  2   force =     0.00011072   -0.00160414    0.05714562
     atom   29 type  2   force =    -0.01008015   -0.00086140    0.00631679
     atom   30 type  2   force =     0.01214311   -0.00061524    0.00687408
     atom   31 type  1   force =     0.00032045    0.00503316   -0.01527081
     atom   32 type  1   force =    -0.00039312   -0.00267075   -0.00235705
     atom   33 type  2   force =    -0.00003009   -0.00025778   -0.00005053
     atom   34 type  2   force =     0.00046212    0.00031487   -0.00056918
     atom   35 type  2   force =    -0.00011022   -0.00037221   -0.00008557
     atom   36 type  2   force =    -0.00045644   -0.00036374    0.00023072
     atom   37 type  1   force =     0.00026831   -0.00103889    0.00055873
     atom   38 type  1   force =    -0.00122159    0.00024971    0.00129922
     atom   39 type  2   force =    -0.00013910   -0.00046635    0.00015601
     atom   40 type  2   force =     0.00003184   -0.00042219    0.00040468
     atom   41 type  2   force =    -0.00025426    0.00000240   -0.00002670
     atom   42 type  2   force =     0.00141281   -0.00022373   -0.00008325
     atom   43 type  1   force =    -0.00124515   -0.00075067    0.00017418
     atom   44 type  1   force =     0.00100798    0.00060010    0.00030870
     atom   45 type  2   force =     0.00004031   -0.00002072    0.10380315
     atom   46 type  2   force =    -0.07055496   -0.00008811   -0.02698084
     atom   47 type  2   force =     0.07046388    0.00037756   -0.02700927
     atom   48 type  3   force =     0.00765814    0.00039437    0.01069456
     atom   49 type  4   force =    -0.00208134   -0.00442089   -0.02479210
     atom   50 type  5   force =    -0.00138881    0.00287564    0.01032436
     atom   51 type  5   force =    -0.00410537    0.00135542    0.00391504
     atom   52 type  3   force =    -0.00088268    0.00091329   -0.00049868
     atom   53 type  5   force =    -0.00010175    0.00044550   -0.00045430
     atom   54 type  5   force =    -0.00075081    0.00074585    0.00032275
     atom   55 type  2   force =    -0.00050687    0.00074243   -0.00026177
     atom   56 type  5   force =    -0.00041659   -0.00035147    0.00085365
     atom   57 type  5   force =    -0.00000194   -0.00020039   -0.00041407

     Total force =     0.367031     Total SCF correction =     0.000398
  @ DRIVER MODE: Message from server: STATUS
  @ DRIVER MODE: Message from server: GETFORCE
  @ DRIVER MODE: Returning v,forces,stress,ensemble

     Writing output data file ./calc.save/
  @ DRIVER MODE: Message from server: EXIT
  @ DRIVE MODE: Exiting

     General routines

     Parallel routines

   This run was terminated on:  20: 5:10  15Sep2021

   JOB DONE.