     Program PWSCF v.6.7GPU starts on  2Aug2021 at 15:10:58

     R & G space division:  proc/nbgrp/npool/nimage =      16
     Reading input from /storage/home/hcoda1/3/ntian30/research/carbon/02Aug_vib_paired/ads_slab/CH3NNHHH_a/out_0011/pw.inp
Warning: card &CELL ignored
Warning: card   CELL_DYNAMICS='IPI', ignored
Warning: card / ignored

     Current dimensions of program PWSCF are:
     Max number of different atomic species (ntypx) = 10
     Max number of k-points (npk) =  40000
     Max angular momentum in pseudopotentials (lmaxx) =  3
     Presently no symmetry can be used with electric field

     Message from routine cell_base_init:
     DEPRECATED: use true lattice parameter, not A to a.u. conversion factor

     IMPORTANT: XC functional enforced from input :
     Exchange-correlation= BEEF-VDW
                           (   1   4  43  14   2   0   0)
     Any further DFT definition will be discarded
     Please, verify this is what you really want

  @ DRIVER MODE: Connecting to
 qe_1139763_2482545.sched-torque.pace.gatech.edulij9sir7_scratch
  using UNIX socket
  @ DRIVER MODE: Message from server: STATUS
  @ DRIVER MODE: Message from server: INIT
  @ DRIVER MODE: Receiving replica           0          -1
  @ DRIVER MODE: Receiving encoded integer          25
  @ DRIVER MODE:  SCF:  T  FORCE:  T  STRESS:  F  VC:  F  ENSEMBLE:  F
  @ DRIVER MODE:  SCF:  T  FORCE:  T  STRESS:  F  VC:  F  ENSEMBLE:  F

     Using Slab Decomposition

     bravais-lattice index     =            0
     lattice parameter (alat)  =       1.8897  a.u.
     unit-cell volume          =    6658.9804 (a.u.)^3
     number of atoms/cell      =           56
     number of atomic types    =            5
     number of electrons       =       398.00
     number of Kohn-Sham states=          209
     kinetic-energy cutoff     =      29.3995  Ry
     charge density cutoff     =     293.9946  Ry
     scf convergence threshold =      7.3E-08
     mixing beta               =       0.0500
     number of iterations used =            8  plain     mixing
     Exchange-correlation= BEEF-VDW
                           (   1   4  43  14   2   0   0)

     celldm(1)=   1.889726  celldm(2)=   0.000000  celldm(3)=   0.000000
     celldm(4)=   0.000000  celldm(5)=   0.000000  celldm(6)=   0.000000

     crystal axes: (cart. coord. in units of alat)
               a(1) = (   6.579727   0.000000   0.000000 )
               a(2) = (  -0.000775   5.961596   0.000000 )
               a(3) = (   0.000000   0.000000  25.155947 )

     reciprocal axes: (cart. coord. in units 2 pi/alat)
               b(1) = (  0.151982  0.000020  0.000000 )
               b(2) = (  0.000000  0.167740  0.000000 )
               b(3) = (  0.000000  0.000000  0.039752 )

     PseudoPot. # 1 for Ti read from file:
     /storage/coda1/p-amedford6/0/shared/rich_project_chbe-medford/medford-share/data/pseudos_module/espresso/nninc/pbe/van/Ti.UPF
     MD5 check sum: 8e4df49b7f0d34bbd5052bf3f5ea0213
     Pseudo is Ultrasoft, Zval = 12.0
     Generated by new atomic code, or converted to UPF format
     Using radial grid of  851 points,  6 beta functions with:
                l(1) =   0
                l(2) =   0
                l(3) =   1
                l(4) =   1
                l(5) =   2
                l(6) =   2
     Q(r) pseudized with  8 coefficients,  rinner =    1.000   1.000   1.000
                                                       1.000   1.000

     PseudoPot. # 2 for O  read from file:
     /storage/coda1/p-amedford6/0/shared/rich_project_chbe-medford/medford-share/data/pseudos_module/espresso/nninc/pbe/van/O.UPF
     MD5 check sum: 78c19812648e8988a0fe644b0f25305e
     Pseudo is Ultrasoft, Zval =  6.0
     Generated by new atomic code, or converted to UPF format
     Using radial grid of  737 points,  4 beta functions with:
                l(1) =   0
                l(2) =   0
                l(3) =   1
                l(4) =   1
     Q(r) pseudized with  8 coefficients,  rinner =    0.800   0.800   0.800

     PseudoPot. # 3 for N  read from file:
     /storage/coda1/p-amedford6/0/shared/rich_project_chbe-medford/medford-share/data/pseudos_module/espresso/nninc/pbe/van/N.UPF
     MD5 check sum: 90d10febe142ad51ac9d5be1deb811c4
     Pseudo is Ultrasoft, Zval =  5.0
     Generated by new atomic code, or converted to UPF format
     Using radial grid of  729 points,  4 beta functions with:
                l(1) =   0
                l(2) =   0
                l(3) =   1
                l(4) =   1
     Q(r) pseudized with  8 coefficients,  rinner =    0.800   0.800   0.800

     PseudoPot. # 4 for C  read from file:
     /storage/coda1/p-amedford6/0/shared/rich_project_chbe-medford/medford-share/data/pseudos_module/espresso/nninc/pbe/van/C.UPF
     MD5 check sum: 1a69bf6b8db32088f5b2163dbdb77a27
     Pseudo is Ultrasoft, Zval =  4.0
     Generated by new atomic code, or converted to UPF format
     Using radial grid of  721 points,  4 beta functions with:
                l(1) =   0
                l(2) =   0
                l(3) =   1
                l(4) =   1
     Q(r) pseudized with  8 coefficients,  rinner =    0.800   0.800   0.800

     PseudoPot. # 5 for H  read from file:
     /storage/coda1/p-amedford6/0/shared/rich_project_chbe-medford/medford-share/data/pseudos_module/espresso/nninc/pbe/van/H.UPF
     MD5 check sum: b5ee9d7bfd3a09ee7748110bda690ff7
     Pseudo is Ultrasoft, Zval =  1.0
     Generated by new atomic code, or converted to UPF format
     Using radial grid of  615 points,  1 beta functions with:
                l(1) =   0
     Q(r) pseudized with  8 coefficients,  rinner =    0.800

     atomic species   valence    mass     pseudopotential
        Ti1           12.00    47.86700     Ti( 1.00)
        O1             6.00    15.99900     O ( 1.00)
        N1             5.00    14.00700     N ( 1.00)
        C1             4.00    12.01100     C ( 1.00)
        H1             1.00     1.00800     H ( 1.00)

     No symmetry found

   Cartesian axes

     site n.     atom                  positions (alat units)
         1           Ti1 tau(   1) = (   0.0004258   2.9801865   6.0000000  )
         2           Ti1 tau(   2) = (   3.2906075   1.4906267   6.0002472  )
         3           O1  tau(   3) = (   0.0006271   0.0005054   7.9858123  )
         4           O1  tau(   4) = (   3.2906025   0.0005020   7.3038282  )
         5           O1  tau(   5) = (   4.5942328   1.4918067   9.2879030  )
         6           O1  tau(   6) = (   1.9868534   1.4903216   9.2879459  )
         7           Ti1 tau(   7) = (   3.2907910   2.8959150   9.1758416  )
         8           Ti1 tau(   8) = (   0.0015273   1.4827037   9.2680791  )
         9           O1  tau(   9) = (   3.2969863   5.9453513  11.3493076  )
        10           O1  tau(  10) = (   0.0116148   5.9584955  10.6183126  )
        11           O1  tau(  11) = (   1.3059050   1.4736943  12.6642453  )
        12           O1  tau(  12) = (   5.3003793   1.4775083  12.6459419  )
        13           Ti1 tau(  13) = (   0.0167275   2.9625105  12.5508078  )
        14           Ti1 tau(  14) = (   3.3131340   1.4712512  12.4909780  )
        15           O1  tau(  15) = (   6.5517612   5.9325698  14.7566896  )
        16           O1  tau(  16) = (   3.3302114   5.9429442  13.9823395  )
        17           O1  tau(  17) = (   4.5243935   1.5056208  16.2316672  )
        18           O1  tau(  18) = (   2.0170937   1.4633510  16.1378485  )
        19           Ti1 tau(  19) = (   3.2500237   2.9242626  15.6920970  )
        20           Ti1 tau(  20) = (   6.5441017   1.2779805  16.1516014  )
        21           O1  tau(  21) = (   3.2904802   0.0005063   4.7018136  )
        22           O1  tau(  22) = (   6.5540411   5.9581837  17.3465722  )
        23           O1  tau(  23) = (   1.3043587   1.4918075   6.0039043  )
        24           O1  tau(  24) = (   5.2767064   1.4903225   6.0039473  )
        25           Ti1 tau(  25) = (   0.0000382   5.9609847   6.0000000  )
        26           Ti1 tau(  26) = (   3.2902200   4.4714249   6.0002472  )
        27           O1  tau(  27) = (   0.0002396   2.9813036   7.9858123  )
        28           O1  tau(  28) = (   3.2902150   2.9813002   7.3038282  )
        29           O1  tau(  29) = (   4.5938453   4.4726049   9.2879030  )
        30           O1  tau(  30) = (   1.9864658   4.4711199   9.2879459  )
        31           Ti1 tau(  31) = (   3.2891106   5.8743827   9.1763621  )
        32           Ti1 tau(  32) = (   0.0006254   4.4649316   9.2693709  )
        33           O1  tau(  33) = (   3.2962403   2.9651072  11.3429128  )
        34           O1  tau(  34) = (   0.0092240   2.9805883  10.6323155  )
        35           O1  tau(  35) = (   1.3076126   4.4641214  12.6643835  )
        36           O1  tau(  36) = (   5.2981430   4.4591552  12.6429889  )
        37           Ti1 tau(  37) = (   0.0194730   5.9489450  12.5196332  )
        38           Ti1 tau(  38) = (   3.3150505   4.4522436  12.4946186  )
        39           O1  tau(  39) = (   6.5702761   2.9869041  14.8038460  )
        40           O1  tau(  40) = (   3.3119818   2.9576719  13.9204832  )
        41           O1  tau(  41) = (   4.5223198   4.3950437  16.2490866  )
        42           O1  tau(  42) = (   2.0356696   4.4339808  16.1311045  )
        43           Ti1 tau(  43) = (   3.3057863   5.9493229  15.7677403  )
        44           Ti1 tau(  44) = (   0.0958844   4.4293496  15.8701971  )
        45           O1  tau(  45) = (   3.2900926   2.9813045   4.7018136  )
        46           O1  tau(  46) = (   1.3039711   4.4726057   6.0039043  )
        47           O1  tau(  47) = (   5.2763189   4.4711207   6.0039473  )
        48           N1  tau(  48) = (   0.0620580   3.0375546  17.6897758  )
        49           C1  tau(  49) = (   1.1116374   2.9693208  18.6884743  )
        50           H1  tau(  50) = (   1.2951007   3.9532040  19.1583453  )
        51           H1  tau(  51) = (   0.8627774   2.2426413  19.4871689  )
        52           H1  tau(  52) = (   2.0263963   2.6228967  18.2308865  )
        53           N1  tau(  53) = (   5.4279256   3.3744730  18.4033390  )
        54           H1  tau(  54) = (   5.6103604   4.1199394  19.0852601  )
        55           H1  tau(  55) = (   4.7934260   3.8076565  17.6395878  )
        56           H1  tau(  56) = (   5.0090149   2.5598412  18.8678436  )

     number of k points=    10  Fermi-Dirac smearing, width (Ry)=  0.0073
                       cart. coord. in units 2pi/alat
        k(    1) = (   0.0000000   0.0000000   0.0000000), wk =   0.1250000
        k(    2) = (   0.0000000   0.0419351   0.0000000), wk =   0.2500000
        k(    3) = (   0.0000000  -0.0838702   0.0000000), wk =   0.1250000
        k(    4) = (   0.0379955   0.0000049   0.0000000), wk =   0.2500000
        k(    5) = (   0.0379955   0.0419400   0.0000000), wk =   0.2500000
        k(    6) = (   0.0379955  -0.0838652   0.0000000), wk =   0.2500000
        k(    7) = (   0.0379955  -0.0419301   0.0000000), wk =   0.2500000
        k(    8) = (  -0.0759910  -0.0000099   0.0000000), wk =   0.1250000
        k(    9) = (  -0.0759910   0.0419252   0.0000000), wk =   0.2500000
        k(   10) = (  -0.0759910  -0.0838800   0.0000000), wk =   0.1250000

     Initial potential from superposition of free atoms

     starting charge  381.99914, renormalised to  398.00000

     negative rho (up, down):  1.617E-02 0.000E+00

     %%%%%%%%%%%%%%%%%%%%%%%%%%%%%%%%%%%%%%%%%%%%%%%%%%%%%%%%%%%%%%%%%%%%%%%%
     %                                                                      %
     % You are using vdW-DF, which was implemented by the Thonhauser group. %
     % Please cite the following two papers that made this development      %
     % possible and the two reviews that describe the various versions:     %
     %                                                                      %
     %   T. Thonhauser et al., PRL 115, 136402 (2015).                      %
     %   T. Thonhauser et al., PRB 76, 125112 (2007).                       %
     %   K. Berland et al., Rep. Prog. Phys. 78, 066501 (2015).             %
     %   D.C. Langreth et al., J. Phys.: Condens. Matter 21, 084203 (2009). %
     %                                                                      %
     %                                                                      %
     % If you are calculating the stress with vdW-DF, please also cite:     %
     %                                                                      %
     %   R. Sabatini et al., J. Phys.: Condens. Matter 24, 424209 (2012).   %
     %                                                                      %
     %%%%%%%%%%%%%%%%%%%%%%%%%%%%%%%%%%%%%%%%%%%%%%%%%%%%%%%%%%%%%%%%%%%%%%%%

     Adding external electric field

     Computed dipole along edir(3) :
        Dipole              -10.5697 Ry au,        -26.8655 Debye
        Dipole field         -0.0199 Ry au,

        Potential amp.        1.8490 Ry
        Total length         46.3494 bohr

     Starting wfcs are  302 atomic wfcs
  @ DRIVER MODE: Message from server: STATUS
  @ DRIVER MODE: Message from server: POSDATA
  @ DRIVER MODE: Reading and sharing cell
  @ DRIVER MODE: Reading and sharing positions
  @ DRIVER MODE: Received positions

     Self-consistent Calculation

     iteration #  1     ecut=    29.40 Ry     beta= 0.05
     Davidson diagonalization with overlap
     c_bands:  3 eigenvalues not converged
     c_bands:  3 eigenvalues not converged
     c_bands:  1 eigenvalues not converged
     c_bands:  5 eigenvalues not converged
     c_bands:  5 eigenvalues not converged
     c_bands:  5 eigenvalues not converged
     c_bands:  1 eigenvalues not converged
     c_bands:  4 eigenvalues not converged
     c_bands:  3 eigenvalues not converged
     ethr =  1.00E-05,  avg # of iterations = 20.0

[...]

     total energy              =   -2442.74319647 Ry
     estimated scf accuracy    <    5591.47931966 Ry

     iteration #  2     ecut=    29.40 Ry     beta= 0.05
     Davidson diagonalization with overlap
     ethr =  1.00E-02,  avg # of iterations = 25.0

[...]

     iteration # 61     ecut=    29.40 Ry     beta= 0.05
     Davidson diagonalization with overlap
     ethr =  1.07E-10,  avg # of iterations =  7.8

[...]

     total energy              =   -2942.82492591 Ry
     estimated scf accuracy    <       0.00000013 Ry

     iteration # 63     ecut=    29.40 Ry     beta= 0.05
     Davidson diagonalization with overlap
     c_bands:  1 eigenvalues not converged
     ethr =  3.28E-11,  avg # of iterations = 11.2

     negative rho (up, down):  1.417E-02 0.000E+00

     Adding external electric field

     Computed dipole along edir(3) :
        Dipole                1.6008 Ry au,          4.0688 Debye
        Dipole field          0.0030 Ry au,

        Potential amp.       -0.2800 Ry
        Total length         46.3494 bohr

     End of self-consistent calculation

          k = 0.0000 0.0000 0.0000 ( 18029 PWs)   bands (ev):

   -55.1455 -55.1088 -55.1067 -55.0726 -55.0278 -55.0126 -54.9897 -54.9469
   -54.9345 -54.9262 -54.9118 -54.9016 -54.8660 -54.7946 -54.1187 -54.0847
   -31.7253 -31.5964 -31.5141 -31.4823 -31.4378 -31.4368 -31.4345 -31.4042
   -31.4003 -31.3967 -31.3701 -31.3551 -31.3517 -31.3230 -31.3052 -31.2801
   -31.2634 -31.2595 -31.2493 -31.2441 -31.2179 -31.2119 -31.2050 -31.1783
   -31.1636 -31.1570 -31.1500 -31.1427 -31.1424 -31.1311 -31.1292 -31.1229
   -31.1059 -31.0971 -31.0913 -31.0650 -31.0623 -31.0501 -31.0433 -31.0375
   -31.0263 -30.9842 -30.5273 -30.4353 -30.4131 -30.3439 -30.2572 -30.1462
   -18.9494 -16.0094 -15.7545 -15.6193 -15.3847 -15.3327 -15.2762 -15.0704
   -15.0672 -14.9954 -14.9804 -14.9321 -14.9125 -14.8453 -14.7608 -14.7409
   -14.6720 -14.6704 -14.6406 -14.6295 -14.6284 -14.5658 -14.5560 -14.5266
   -14.5135 -14.4884 -14.3703 -14.2858 -14.2273 -13.9752 -13.6333 -12.6215
   -12.5044  -9.7343  -7.7252  -7.2223  -5.4791  -3.7711  -3.3470  -3.3172
    -3.1708  -3.1432  -3.0665  -3.0366  -2.8518  -2.8316  -2.4892  -2.4495
    -2.4031  -2.3851  -2.3623  -2.3463  -2.1777  -2.1521  -2.0792  -2.0456
    -2.0274  -1.9873  -1.9709  -1.9607  -1.9270  -1.9214  -1.9123  -1.7050
    -1.6485  -1.5535  -1.5312  -1.5024  -1.4720  -1.4350  -1.4274  -1.4245
    -1.4185  -1.4049  -1.3921  -1.3121  -1.2512  -1.1727  -1.1633  -1.1274
    -1.0234  -0.9778  -0.7763  -0.7625  -0.7170  -0.6748  -0.6120  -0.5904
    -0.5241  -0.4935  -0.4733  -0.3520  -0.3233  -0.2832  -0.2556  -0.1885
    -0.1569  -0.1130  -0.0277   0.0432   0.0779   0.0964   0.1558   0.2864
     0.2970   0.3261   0.3876   0.4508   0.4922   0.5121   0.5306   0.5678
     0.6166   0.7423   0.7872   0.8069   0.8111   0.8452   0.8687   0.9195
     0.9442   1.0038   1.0094   1.1283   1.1975   1.4273   1.4608   1.4838
     1.8160   1.8395   1.9037   2.0897   2.4777   2.5250   3.9590   4.0196
     4.0765   4.0933   4.1122   4.2009   4.2220   4.4218   4.4492   4.4530
     4.4559

[...]

          k = 0.0380-0.0419 0.0000 ( 17876 PWs)   bands (ev):

[...]

          k =-0.0760-0.0000 0.0000 ( 17886 PWs)   bands (ev):

[...]

          k =-0.0760-0.0839 0.0000 ( 17948 PWs)   bands (ev):

   -55.1300 -55.1241 -55.0895 -55.0895 -55.0171 -55.0090 -55.0003 -54.9308
   -54.9295 -54.9268 -54.9192 -54.9177 -54.8623 -54.7983 -54.1017 -54.1016
   -31.5290 -31.5261 -31.4491 -31.4274 -31.4116 -31.4115 -31.3822 -31.3820
   -31.3563 -31.3507 -31.3478 -31.3472 -31.3126 -31.2782 -31.2718 -31.2673
   -31.2660 -31.2621 -31.2600 -31.2537 -31.2227 -31.2190 -31.2165 -31.2136
   -31.2089 -31.2089 -31.1951 -31.1930 -31.1655 -31.1608 -31.1454 -31.1414
   -31.1390 -31.1384 -31.1367 -31.1287 -31.1040 -31.1002 -31.0975 -31.0745
   -31.0492 -31.0316 -30.4258 -30.4257 -30.3400 -30.3398 -30.3006 -30.3005
   -18.9445 -15.5164 -15.4066 -15.2992 -15.2327 -15.1906 -15.1392 -15.1217
   -15.1112 -15.0656 -15.0358 -14.9669 -14.9029 -14.8500 -14.8490 -14.8142
   -14.7360 -14.7221 -14.7150 -14.7045 -14.6479 -14.6412 -14.6097 -14.5887
   -14.5856 -14.5560 -14.4820 -14.4796 -14.3925 -14.1832 -13.6699 -12.6060
   -12.6059  -9.7032  -7.7219  -7.1676  -5.4845  -3.7926  -3.4703  -2.7655
    -2.6539  -2.4432  -2.4170  -2.3574  -2.3362  -2.2479  -2.1907  -2.1696
    -2.1464  -2.1122  -2.1094  -2.0849  -2.0633  -2.0099  -1.9803  -1.9698
    -1.9638  -1.9491  -1.9364  -1.9158  -1.8597  -1.8495  -1.8422  -1.7998
    -1.7889  -1.7570  -1.7510  -1.7120  -1.6950  -1.6189  -1.5265  -1.5020
    -1.4422  -1.3411  -1.3278  -1.3222  -1.2289  -1.2204  -1.1909  -1.1601
    -1.1047  -1.0055  -0.9502  -0.8751  -0.8718  -0.8412  -0.7543  -0.6903
    -0.6568  -0.6472  -0.6072  -0.5508  -0.5272  -0.4945  -0.4112  -0.3703
    -0.3424  -0.3086  -0.2134  -0.1531  -0.1288  -0.0982  -0.0948  -0.0058
     0.0276   0.0644   0.0851   0.1235   0.1500   0.2161   0.2378   0.3473
     0.4190   0.4478   0.5664   0.5904   0.6547   0.7867   0.8580   0.8996
     0.9527   1.0097   1.0366   1.1670   1.1742   1.1992   1.2926   1.3330
     1.3400   1.3529   2.2625   2.2635   2.3450   2.3452   4.0911   4.1778
     4.2210   4.2585   4.3661   4.4755   4.4941   4.5371   4.5381   4.6129
     4.6190

     the Fermi energy is     4.0113 ev

!    total energy              =   -2942.82495814 Ry
     estimated scf accuracy    <       0.00000005 Ry
     smearing contrib. (-TS)   =      -0.03686519 Ry
     internal energy E=F+TS    =   -2942.78809294 Ry

     The total energy is F=E-TS. E is the sum of the following terms:
     one-electron contribution =  -23974.03295300 Ry
     hartree contribution      =   12082.47755377 Ry
     xc contribution           =    -487.77167752 Ry
     ewald contribution        =    9436.53414789 Ry
     electric field correction =       0.00483592 Ry

     convergence has been achieved in  63 iterations

     Forces acting on atoms (cartesian axes, Ry/au):

     atom    1 type  1   force =     0.00014531   -0.00023937    0.09430264
     atom    2 type  1   force =    -0.00009715   -0.00033672   -0.17740877
     atom    3 type  2   force =     0.00005626   -0.00016588   -0.02135575
     atom    4 type  2   force =    -0.00001561   -0.00172370    0.05657024
     atom    5 type  2   force =    -0.01054831   -0.00127643    0.00623603
     atom    6 type  2   force =     0.01221320   -0.00074284    0.00570779
     atom    7 type  1   force =    -0.00034296    0.00173537   -0.01623067
     atom    8 type  1   force =    -0.00010698    0.00438093    0.00558191
     atom    9 type  2   force =     0.00000722   -0.00004114   -0.00005525
     atom   10 type  2   force =    -0.00074679   -0.00021903   -0.00046210
     atom   11 type  2   force =     0.00033919    0.00012283   -0.00019490
     atom   12 type  2   force =    -0.00051871    0.00000042   -0.00012768
     atom   13 type  1   force =     0.00002710   -0.00033578    0.00019767
     atom   14 type  1   force =     0.00056778    0.00010639   -0.00027374
     atom   15 type  2   force =    -0.00039789    0.00026579   -0.00022449
     atom   16 type  2   force =    -0.00033184    0.00019790   -0.00006215
     atom   17 type  2   force =    -0.00024831    0.00007180    0.00034519
     atom   18 type  2   force =     0.00016639    0.00026302   -0.00025492
     atom   19 type  1   force =     0.00018617    0.00006507    0.00007194
     atom   20 type  1   force =     0.00000205    0.00032190   -0.00039381
     atom   21 type  2   force =     0.00003480    0.00004063    0.10358306
     atom   22 type  2   force =    -0.00005483   -0.00073904   -0.00065101
     atom   23 type  2   force =    -0.07080093   -0.00009978   -0.02718624
     atom   24 type  2   force =     0.07066394    0.00033701   -0.02721807
     atom   25 type  1   force =    -0.00008852   -0.00020778    0.09375260
     atom   26 type  1   force =    -0.00013611   -0.00032030   -0.17730738
     atom   27 type  2   force =     0.00008727   -0.00035583   -0.02046211
     atom   28 type  2   force =     0.00003182   -0.00143901    0.05588123
     atom   29 type  2   force =    -0.01091113   -0.00073348    0.00608489
     atom   30 type  2   force =     0.01246033   -0.00029387    0.00556319
     atom   31 type  1   force =    -0.00015561    0.00465676   -0.01720078
     atom   32 type  1   force =    -0.00003267   -0.00482198    0.00558275
     atom   33 type  2   force =     0.00005777    0.00012720    0.00026012
     atom   34 type  2   force =     0.00005669   -0.00085038   -0.00298383
     atom   35 type  2   force =     0.00022941    0.00003223    0.00007250
     atom   36 type  2   force =    -0.00042635    0.00015623   -0.00006798
     atom   37 type  1   force =    -0.00013307   -0.00011081   -0.00006926
     atom   38 type  1   force =     0.00044962   -0.00027421    0.00041350
     atom   39 type  2   force =    -0.00044226    0.00011316    0.00062662
     atom   40 type  2   force =    -0.00012215    0.00019309   -0.00020770
     atom   41 type  2   force =     0.00000256    0.00031833    0.00012024
     atom   42 type  2   force =    -0.00007676    0.00022468   -0.00015035
     atom   43 type  1   force =    -0.00044016    0.00057905    0.00008526
     atom   44 type  1   force =    -0.00032384    0.00037691   -0.00030407
     atom   45 type  2   force =     0.00002735    0.00000641    0.10359505
     atom   46 type  2   force =    -0.07080158   -0.00004074   -0.02719263
     atom   47 type  2   force =     0.07066842    0.00037594   -0.02720045
     atom   48 type  3   force =    -0.00297674   -0.00062426   -0.00544127
     atom   49 type  4   force =    -0.00303337    0.00088295    0.01778124
     atom   50 type  5   force =    -0.00025253   -0.00294428   -0.00285173
     atom   51 type  5   force =     0.00137946    0.00346616   -0.00562764
     atom   52 type  5   force =     0.00326941   -0.00146479   -0.00359962
     atom   53 type  3   force =     0.00122596    0.00073790    0.00128965
     atom   54 type  5   force =     0.00028485    0.00009977   -0.00006047
     atom   55 type  5   force =     0.00006838    0.00010291   -0.00078054
     atom   56 type  5   force =    -0.00014557    0.00004273   -0.00009794

     Total force =     0.366157     Total SCF correction =     0.000567
  @ DRIVER MODE: Message from server: STATUS
  @ DRIVER MODE: Message from server: GETFORCE
  @ DRIVER MODE: Returning v,forces,stress,ensemble

     Writing output data file ./calc.save/
  @ DRIVER MODE: Message from server: EXIT
  @ DRIVE MODE: Exiting

     General routines

     Parallel routines

   This run was terminated on:  15:24:59   2Aug2021

   JOB DONE.