     Program PWSCF v.6.7GPU starts on 23Sep2021 at  3:24:59

     R & G space division:  proc/nbgrp/npool/nimage =       8
     Reading input from /storage/home/hcoda1/3/ntian30/research/carbon/CxH_vib/H2O_calc/ads_slab/CH2OHHO_a/out_0015/pw.inp
Warning: card &CELL ignored
Warning: card   CELL_DYNAMICS='IPI', ignored
Warning: card / ignored

     Current dimensions of program PWSCF are:
     Max number of different atomic species (ntypx) = 10
     Max number of k-points (npk) =  40000
     Max angular momentum in pseudopotentials (lmaxx) =  3
     Presently no symmetry can be used with electric field

     Message from routine cell_base_init:
     DEPRECATED: use true lattice parameter, not A to a.u. conversion factor

     IMPORTANT: XC functional enforced from input :
     Exchange-correlation= BEEF-VDW
                           (   1   4  43  14   2   0   0)
     Any further DFT definition will be discarded
     Please, verify this is what you really want

  @ DRIVER MODE: Connecting to
 qe_1139763_2941013.sched-torque.pace.gatech.eduvdj8v3sh_scratch
  using UNIX socket
  @ DRIVER MODE: Message from server: STATUS
  @ DRIVER MODE: Message from server: INIT
  @ DRIVER MODE: Receiving replica           0          -1
  @ DRIVER MODE: Receiving encoded integer          25
  @ DRIVER MODE:  SCF:  T  FORCE:  T  STRESS:  F  VC:  F  ENSEMBLE:  F
  @ DRIVER MODE:  SCF:  T  FORCE:  T  STRESS:  F  VC:  F  ENSEMBLE:  F

     Using Slab Decomposition

     bravais-lattice index     =            0
     lattice parameter (alat)  =       1.8897  a.u.
     unit-cell volume          =    6658.9804 (a.u.)^3
     number of atoms/cell      =           54
     number of atomic types    =            4
     number of electrons       =       398.00
     number of Kohn-Sham states=          209
     kinetic-energy cutoff     =      29.3995  Ry
     charge density cutoff     =     293.9946  Ry
     scf convergence threshold =      7.3E-08
     mixing beta               =       0.0500
     number of iterations used =            8  plain     mixing
     Exchange-correlation= BEEF-VDW
                           (   1   4  43  14   2   0   0)

     celldm(1)=   1.889726  celldm(2)=   0.000000  celldm(3)=   0.000000
     celldm(4)=   0.000000  celldm(5)=   0.000000  celldm(6)=   0.000000

     crystal axes: (cart. coord. in units of alat)
               a(1) = (   6.579727   0.000000   0.000000 )
               a(2) = (  -0.000775   5.961596   0.000000 )
               a(3) = (   0.000000   0.000000  25.155947 )

     reciprocal axes: (cart. coord. in units 2 pi/alat)
               b(1) = (  0.151982  0.000020  0.000000 )
               b(2) = (  0.000000  0.167740  0.000000 )
               b(3) = (  0.000000  0.000000  0.039752 )

     PseudoPot. # 1 for Ti read from file:
     /storage/coda1/p-amedford6/0/shared/rich_project_chbe-medford/medford-share/data/pseudos_module/espresso/nninc/pbe/van/Ti.UPF
     MD5 check sum: 8e4df49b7f0d34bbd5052bf3f5ea0213
     Pseudo is Ultrasoft, Zval = 12.0
     Generated by new atomic code, or converted to UPF format
     Using radial grid of  851 points,  6 beta functions with:
                l(1) =   0
                l(2) =   0
                l(3) =   1
                l(4) =   1
                l(5) =   2
                l(6) =   2
     Q(r) pseudized with  8 coefficients,  rinner =    1.000   1.000   1.000
                                                       1.000   1.000

     PseudoPot. # 2 for O  read from file:
     /storage/coda1/p-amedford6/0/shared/rich_project_chbe-medford/medford-share/data/pseudos_module/espresso/nninc/pbe/van/O.UPF
     MD5 check sum: 78c19812648e8988a0fe644b0f25305e
     Pseudo is Ultrasoft, Zval =  6.0
     Generated by new atomic code, or converted to UPF format
     Using radial grid of  737 points,  4 beta functions with:
                l(1) =   0
                l(2) =   0
                l(3) =   1
                l(4) =   1
     Q(r) pseudized with  8 coefficients,  rinner =    0.800   0.800   0.800

     PseudoPot. # 3 for C  read from file:
     /storage/coda1/p-amedford6/0/shared/rich_project_chbe-medford/medford-share/data/pseudos_module/espresso/nninc/pbe/van/C.UPF
     MD5 check sum: 1a69bf6b8db32088f5b2163dbdb77a27
     Pseudo is Ultrasoft, Zval =  4.0
     Generated by new atomic code, or converted to UPF format
     Using radial grid of  721 points,  4 beta functions with:
                l(1) =   0
                l(2) =   0
                l(3) =   1
                l(4) =   1
     Q(r) pseudized with  8 coefficients,  rinner =    0.800   0.800   0.800

     PseudoPot. # 4 for H  read from file:
     /storage/coda1/p-amedford6/0/shared/rich_project_chbe-medford/medford-share/data/pseudos_module/espresso/nninc/pbe/van/H.UPF
     MD5 check sum: b5ee9d7bfd3a09ee7748110bda690ff7
     Pseudo is Ultrasoft, Zval =  1.0
     Generated by new atomic code, or converted to UPF format
     Using radial grid of  615 points,  1 beta functions with:
                l(1) =   0
     Q(r) pseudized with  8 coefficients,  rinner =    0.800

     atomic species   valence    mass     pseudopotential
        Ti1           12.00    47.86700     Ti( 1.00)
        O1             6.00    15.99900     O ( 1.00)
        C1             4.00    12.01100     C ( 1.00)
        H1             1.00     1.00800     H ( 1.00)

     No symmetry found

   Cartesian axes

     site n.     atom                  positions (alat units)
         1           Ti1 tau(   1) = (   0.0004258   2.9801865   6.0000000  )
         2           Ti1 tau(   2) = (   3.2906075   1.4906267   6.0002472  )
         3           O1  tau(   3) = (   0.0006271   0.0005054   7.9858123  )
         4           O1  tau(   4) = (   3.2906025   0.0005020   7.3038282  )
         5           O1  tau(   5) = (   4.5942328   1.4918067   9.2879030  )
         6           O1  tau(   6) = (   1.9868534   1.4903216   9.2879459  )
         7           Ti1 tau(   7) = (   3.2053781   3.0281819   9.2289109  )
         8           Ti1 tau(   8) = (   6.4789090   1.5422439   9.3246958  )
         9           O1  tau(   9) = (   3.3131828   0.0076525  11.3143355  )
        10           O1  tau(  10) = (   0.0036331   0.0073455  10.5537702  )
        11           O1  tau(  11) = (   1.2849538   1.5262321  12.5678262  )
        12           O1  tau(  12) = (   5.3289628   1.4687457  12.6164477  )
        13           Ti1 tau(  13) = (   0.0494698   3.0469090  12.7547230  )
        14           Ti1 tau(  14) = (   3.2845375   1.6334081  12.5308488  )
        15           O1  tau(  15) = (   0.1943872   0.0117586  14.6058021  )
        16           O1  tau(  16) = (   3.1943342   5.9422946  13.9142442  )
        17           O1  tau(  17) = (   4.6623408   1.4089460  15.7678261  )
        18           O1  tau(  18) = (   2.0428328   1.6351894  16.0888801  )
        19           Ti1 tau(  19) = (   3.4388860   2.9458104  15.8736401  )
        20           Ti1 tau(  20) = (   0.1295272   1.3814375  15.8666627  )
        21           O1  tau(  21) = (   3.2904802   0.0005063   4.7018136  )
        22           O1  tau(  22) = (   0.0846747   0.0144810  17.1090220  )
        23           O1  tau(  23) = (   1.3043587   1.4918075   6.0039043  )
        24           O1  tau(  24) = (   5.2767064   1.4903225   6.0039473  )
        25           Ti1 tau(  25) = (   0.0000382   5.9609847   6.0000000  )
        26           Ti1 tau(  26) = (   3.2902200   4.4714249   6.0002472  )
        27           O1  tau(  27) = (   0.0002396   2.9813036   7.9858123  )
        28           O1  tau(  28) = (   3.2902150   2.9813002   7.3038282  )
        29           O1  tau(  29) = (   4.5938453   4.4726049   9.2879030  )
        30           O1  tau(  30) = (   1.9864658   4.4711199   9.2879459  )
        31           Ti1 tau(  31) = (   3.2224821   0.0470802   9.2230333  )
        32           Ti1 tau(  32) = (   6.4759698   4.4664252   9.3127940  )
        33           O1  tau(  33) = (   3.3094535   2.9663607  11.2852029  )
        34           O1  tau(  34) = (   6.5591786   2.9896559  10.5312464  )
        35           O1  tau(  35) = (   1.2916819   4.4480478  12.5709280  )
        36           O1  tau(  36) = (   5.3369627   4.5124161  12.6303246  )
        37           Ti1 tau(  37) = (   6.5569224   0.0640291  12.4639877  )
        38           Ti1 tau(  38) = (   3.2972653   4.6387695  12.6472152  )
        39           O1  tau(  39) = (   0.0654804   2.9943531  14.6628162  )
        40           O1  tau(  40) = (   3.3673531   2.9793459  13.8791815  )
        41           O1  tau(  41) = (   4.6654837   4.5585741  15.7845026  )
        42           O1  tau(  42) = (   2.0434307   4.3527116  16.0649513  )
        43           Ti1 tau(  43) = (   3.4443475   5.9291804  16.0141943  )
        44           Ti1 tau(  44) = (   0.1552736   4.5966999  15.8683145  )
        45           O1  tau(  45) = (   3.2900926   2.9813045   4.7018136  )
        46           O1  tau(  46) = (   1.3039711   4.4726057   6.0039043  )
        47           O1  tau(  47) = (   5.2763189   4.4711207   6.0039473  )
        48           C1  tau(  48) = (   4.6056898   2.9812133  17.8228851  )
        49           O1  tau(  49) = (   6.0966523   2.9907575  17.4046881  )
        50           H1  tau(  50) = (   0.0599730   2.9807033  18.2108262  )
        51           H1  tau(  51) = (   4.4920754   2.0732530  18.4117920  )
        52           H1  tau(  52) = (   4.4771298   3.8877196  18.4106030  )
        53           O1  tau(  53) = (   3.3127961   5.9530928  17.8757943  )
        54           H1  tau(  54) = (   2.4287022   0.1083392  18.2542858  )

     number of k points=    10  Fermi-Dirac smearing, width (Ry)=  0.0073
                       cart. coord. in units 2pi/alat
        k(    1) = (   0.0000000   0.0000000   0.0000000), wk =   0.1250000
        k(    2) = (   0.0000000   0.0419351   0.0000000), wk =   0.2500000
        k(    3) = (   0.0000000  -0.0838702   0.0000000), wk =   0.1250000
        k(    4) = (   0.0379955   0.0000049   0.0000000), wk =   0.2500000
        k(    5) = (   0.0379955   0.0419400   0.0000000), wk =   0.2500000
        k(    6) = (   0.0379955  -0.0838652   0.0000000), wk =   0.2500000
        k(    7) = (   0.0379955  -0.0419301   0.0000000), wk =   0.2500000
        k(    8) = (  -0.0759910  -0.0000099   0.0000000), wk =   0.1250000
        k(    9) = (  -0.0759910   0.0419252   0.0000000), wk =   0.2500000
        k(   10) = (  -0.0759910  -0.0838800   0.0000000), wk =   0.1250000

     Initial potential from superposition of free atoms

     starting charge  381.99917, renormalised to  398.00000

     negative rho (up, down):  1.911E-02 0.000E+00

     %%%%%%%%%%%%%%%%%%%%%%%%%%%%%%%%%%%%%%%%%%%%%%%%%%%%%%%%%%%%%%%%%%%%%%%%
     %                                                                      %
     % You are using vdW-DF, which was implemented by the Thonhauser group. %
     % Please cite the following two papers that made this development      %
     % possible and the two reviews that describe the various versions:     %
     %                                                                      %
     %   T. Thonhauser et al., PRL 115, 136402 (2015).                      %
     %   T. Thonhauser et al., PRB 76, 125112 (2007).                       %
     %   K. Berland et al., Rep. Prog. Phys. 78, 066501 (2015).             %
     %   D.C. Langreth et al., J. Phys.: Condens. Matter 21, 084203 (2009). %
     %                                                                      %
     %                                                                      %
     % If you are calculating the stress with vdW-DF, please also cite:     %
     %                                                                      %
     %   R. Sabatini et al., J. Phys.: Condens. Matter 24, 424209 (2012).   %
     %                                                                      %
     %%%%%%%%%%%%%%%%%%%%%%%%%%%%%%%%%%%%%%%%%%%%%%%%%%%%%%%%%%%%%%%%%%%%%%%%

     Adding external electric field

     Computed dipole along edir(3) :
        Dipole               -7.9392 Ry au,        -20.1794 Debye
        Dipole field         -0.0150 Ry au,

        Potential amp.        1.3888 Ry
        Total length         46.3494 bohr

     Starting wfcs are  300 atomic wfcs
  @ DRIVER MODE: Message from server: STATUS
  @ DRIVER MODE: Message from server: POSDATA
  @ DRIVER MODE: Reading and sharing cell
  @ DRIVER MODE: Reading and sharing positions
  @ DRIVER MODE: Received positions

     Self-consistent Calculation

     iteration #  1     ecut=    29.40 Ry     beta= 0.05
     Davidson diagonalization with overlap
     c_bands:  1 eigenvalues not converged
     c_bands:  2 eigenvalues not converged
     c_bands:  2 eigenvalues not converged
     c_bands:  1 eigenvalues not converged
     c_bands:  1 eigenvalues not converged
     c_bands:  1 eigenvalues not converged
     ethr =  1.00E-05,  avg # of iterations = 18.8

[...]

     total energy              =   -2649.59103682 Ry
     estimated scf accuracy    <    3499.59676680 Ry

[...]

     iteration #  3     ecut=    29.40 Ry     beta= 0.05
     Davidson diagonalization with overlap
     ethr =  1.00E-02,  avg # of iterations = 14.0

[...]

     iteration # 34     ecut=    29.40 Ry     beta= 0.05
     Davidson diagonalization with overlap
     c_bands:  1 eigenvalues not converged
     ethr =  9.35E-08,  avg # of iterations =  9.2

[...]

     total energy              =   -2964.91874719 Ry
     estimated scf accuracy    <       0.00000051 Ry

     iteration # 52     ecut=    29.40 Ry     beta= 0.05
     Davidson diagonalization with overlap
     ethr =  3.17E-11,  avg # of iterations =  4.8

     negative rho (up, down):  1.875E-02 0.000E+00

     Adding external electric field

     Computed dipole along edir(3) :
        Dipole                0.6456 Ry au,          1.6409 Debye
        Dipole field          0.0012 Ry au,

        Potential amp.       -0.1129 Ry
        Total length         46.3494 bohr

     End of self-consistent calculation

          k = 0.0000 0.0000 0.0000 ( 18029 PWs)   bands (ev):

   -56.4312 -56.3663 -55.7976 -55.7955 -55.7496 -55.7454 -55.7419 -55.7014
   -55.6944 -55.6469 -55.4588 -55.4441 -55.3801 -55.3623 -54.9569 -54.9230
   -32.8336 -32.7068 -32.6300 -32.6022 -32.5003 -32.4583 -32.4110 -32.3222
   -32.2152 -32.1833 -32.1047 -32.0617 -32.0412 -32.0046 -32.0033 -31.9954
   -31.9761 -31.9614 -31.9564 -31.9448 -31.9401 -31.9363 -31.9240 -31.9064
   -31.8936 -31.8917 -31.8734 -31.8637 -31.8519 -31.8339 -31.8240 -31.7991
   -31.7598 -31.7042 -31.6617 -31.6476 -31.6230 -31.5932 -31.5905 -31.5604
   -31.5494 -31.4203 -31.3496 -31.3039 -31.2794 -31.1654 -31.0793 -30.9704
   -19.3233 -16.5891 -16.4377 -16.3076 -16.1710 -15.9568 -15.9278 -15.8248
   -15.7239 -15.6822 -15.6016 -15.5725 -15.4346 -15.3849 -15.3566 -15.3353
   -15.3158 -15.2964 -15.2820 -15.2441 -15.2286 -15.1945 -15.1413 -15.0757
   -15.0544 -15.0020 -14.9706 -14.9538 -14.8699 -14.8053 -14.7246 -13.4642
   -13.3584  -9.1609  -6.1928  -4.0871  -3.9802  -3.9301  -3.8813  -3.7851
    -3.7197  -3.6857  -3.6208  -3.3068  -3.1750  -3.0809  -3.0266  -3.0031
    -2.9280  -2.9266  -2.9127  -2.7946  -2.7356  -2.7095  -2.6479  -2.6310
    -2.5880  -2.5532  -2.5488  -2.5343  -2.4921  -2.4519  -2.4123  -2.3923
    -2.3469  -2.2639  -2.2458  -2.1685  -2.1340  -2.1124  -2.0250  -1.9599
    -1.9503  -1.9129  -1.8898  -1.7823  -1.6062  -1.5194  -1.4618  -1.4077
    -1.3862  -1.3185  -1.3092  -1.2501  -1.1931  -1.1694  -1.1656  -1.0491
    -0.9967  -0.9640  -0.9178  -0.8835  -0.8189  -0.7720  -0.7558  -0.7256
    -0.7120  -0.6037  -0.5171  -0.4975  -0.4688  -0.4359  -0.3148  -0.2683
    -0.2361  -0.2085  -0.1917  -0.1506  -0.1063  -0.0384   0.0066   0.0624
     0.1011   0.1721   0.1823   0.2208   0.2561   0.2920   0.3555   0.3707
     0.4743   0.5036   0.5597   0.5965   0.7411   0.7699   0.9292   0.9914
     1.0537   1.1483   1.2744   1.3365   1.5840   1.6234   1.7823   2.8838
     3.0467   3.3144   3.3591   3.4944   3.5646   3.6223   3.7639   3.7908
     3.8442

[...]

          k = 0.0380-0.0419 0.0000 ( 17876 PWs)   bands (ev):

[...]

          k =-0.0760-0.0000 0.0000 ( 17886 PWs)   bands (ev):

[...]

          k =-0.0760-0.0839 0.0000 ( 17948 PWs)   bands (ev):

   -56.4265 -56.3709 -55.7898 -55.7891 -55.7571 -55.7482 -55.7381 -55.7086
   -55.6872 -55.6541 -55.4557 -55.4392 -55.3848 -55.3652 -54.9400 -54.9397
   -32.7038 -32.6725 -32.6321 -32.6268 -32.5737 -32.5259 -32.3334 -32.1613
   -32.1072 -32.0735 -32.0534 -32.0353 -32.0347 -32.0221 -32.0148 -32.0129
   -31.9976 -31.9817 -31.9761 -31.9567 -31.9554 -31.9529 -31.9497 -31.9371
   -31.9242 -31.9038 -31.8929 -31.8840 -31.8675 -31.8384 -31.7870 -31.7677
   -31.7573 -31.7227 -31.7156 -31.6821 -31.6624 -31.6493 -31.6346 -31.6027
   -31.5965 -31.4213 -31.2926 -31.2923 -31.1634 -31.1629 -31.1226 -31.1223
   -19.3158 -16.2408 -16.1288 -15.9406 -15.9049 -15.8287 -15.8270 -15.7776
   -15.7378 -15.6409 -15.5857 -15.5673 -15.4950 -15.4710 -15.4538 -15.4279
   -15.3775 -15.3524 -15.3289 -15.3178 -15.2736 -15.2499 -15.2460 -15.1990
   -15.1454 -15.1198 -15.1018 -15.0503 -14.9943 -14.9354 -14.8826 -13.4657
   -13.4598  -9.1690  -6.1745  -4.0890  -3.6707  -3.6288  -3.3384  -3.1557
    -2.9763  -2.9646  -2.9509  -2.9431  -2.8742  -2.8675  -2.8187  -2.7785
    -2.7229  -2.7027  -2.6755  -2.6702  -2.6640  -2.6226  -2.6120  -2.5857
    -2.5591  -2.5538  -2.5107  -2.5037  -2.4838  -2.4365  -2.4228  -2.3899
    -2.3599  -2.3339  -2.2811  -2.2245  -2.2053  -2.1920  -2.0646  -1.9959
    -1.9913  -1.9156  -1.9014  -1.8727  -1.8332  -1.7573  -1.6953  -1.6563
    -1.5245  -1.5046  -1.4483  -1.4113  -1.3367  -1.3252  -1.2416  -1.2123
    -1.1682  -1.1390  -1.1068  -1.0855  -1.0652  -1.0616  -0.9376  -0.9062
    -0.8514  -0.8394  -0.8064  -0.7735  -0.7497  -0.6937  -0.6251  -0.6166
    -0.5679  -0.5207  -0.4534  -0.4144  -0.3343  -0.2767  -0.2373  -0.1701
    -0.0641   0.0571   0.0959   0.2005   0.2976   0.3052   0.3712   0.4204
     0.4475   0.4925   0.5777   0.5886   0.6557   0.6669   0.7006   0.7579
     0.8070   0.8777   1.4240   1.4400   1.4617   1.4645   1.7202   3.4274
     3.4542   3.4742   3.5169   3.6631   3.7564   3.7832   3.8494   3.8942
     3.9193

     the Fermi energy is     2.4063 ev

!    total energy              =   -2964.91883690 Ry
     estimated scf accuracy    <       0.00000006 Ry
     smearing contrib. (-TS)   =      -0.00043757 Ry
     internal energy E=F+TS    =   -2964.91839933 Ry

     The total energy is F=E-TS. E is the sum of the following terms:
     one-electron contribution =  -24900.69042631 Ry
     hartree contribution      =   12540.72075573 Ry
     xc contribution           =    -490.06840831 Ry
     ewald contribution        =    9885.11889300 Ry
     electric field correction =       0.00078655 Ry

     convergence has been achieved in  52 iterations

     Forces acting on atoms (cartesian axes, Ry/au):

     atom    1 type  1   force =     0.00009513   -0.00022787    0.12246782
     atom    2 type  1   force =     0.00009482    0.00183625   -0.15175416
     atom    3 type  2   force =    -0.00068483   -0.00092418   -0.05775002
     atom    4 type  2   force =    -0.00119285    0.00052218    0.04764172
     atom    5 type  2   force =    -0.01072497   -0.00519389   -0.00143854
     atom    6 type  2   force =     0.01360653    0.00025413   -0.00014986
     atom    7 type  1   force =    -0.00026920    0.00015108    0.00007605
     atom    8 type  1   force =     0.00039944   -0.00014289   -0.00040643
     atom    9 type  2   force =     0.00000841   -0.00024280    0.00041524
     atom   10 type  2   force =    -0.00012559   -0.00005642    0.00011634
     atom   11 type  2   force =    -0.00046607   -0.00026611    0.00025261
     atom   12 type  2   force =     0.00018229    0.00007906   -0.00002493
     atom   13 type  1   force =     0.00041288   -0.00010899   -0.00002619
     atom   14 type  1   force =    -0.00011145   -0.00027966   -0.00001611
     atom   15 type  2   force =    -0.00029486   -0.00022646   -0.00023247
     atom   16 type  2   force =     0.00018460    0.00007454   -0.00010519
     atom   17 type  2   force =    -0.00024942   -0.00014746   -0.00001662
     atom   18 type  2   force =    -0.00003283   -0.00020948    0.00013613
     atom   19 type  1   force =    -0.00036467    0.00003048   -0.00011418
     atom   20 type  1   force =    -0.00023482    0.00010504   -0.00061246
     atom   21 type  2   force =     0.00027129    0.00013165    0.09727806
     atom   22 type  2   force =    -0.00031013   -0.00018294   -0.00025800
     atom   23 type  2   force =    -0.08313023    0.00238779   -0.03357438
     atom   24 type  2   force =     0.08317763    0.00267527   -0.03364377
     atom   25 type  1   force =     0.00041403    0.00037416    0.13903340
     atom   26 type  1   force =     0.00005545   -0.00119749   -0.15158678
     atom   27 type  2   force =    -0.00070172    0.00143637   -0.05288993
     atom   28 type  2   force =    -0.00117893    0.00017649    0.04595130
     atom   29 type  2   force =    -0.01133593    0.00058785   -0.00073384
     atom   30 type  2   force =     0.01407389    0.00412889    0.00076695
     atom   31 type  1   force =    -0.00049336   -0.00017084    0.00015721
     atom   32 type  1   force =     0.00034530   -0.00004493   -0.00017027
     atom   33 type  2   force =    -0.00024878    0.00010840    0.00008842
     atom   34 type  2   force =     0.00013894    0.00008386    0.00010901
     atom   35 type  2   force =    -0.00020321    0.00054053    0.00033352
     atom   36 type  2   force =     0.00022629   -0.00001101   -0.00018788
     atom   37 type  1   force =    -0.00061387    0.00027706    0.00025161
     atom   38 type  1   force =    -0.00033450   -0.00038807   -0.00017512
     atom   39 type  2   force =     0.00006244   -0.00008686    0.00030190
     atom   40 type  2   force =    -0.00028376   -0.00009697    0.00029868
     atom   41 type  2   force =    -0.00001891   -0.00047612    0.00001632
     atom   42 type  2   force =    -0.00034142   -0.00019458    0.00025896
     atom   43 type  1   force =    -0.00012362    0.00000057   -0.00027042
     atom   44 type  1   force =    -0.00006797   -0.00004197    0.00021386
     atom   45 type  2   force =     0.00023071    0.00013577    0.09736119
     atom   46 type  2   force =    -0.08305244   -0.00265229   -0.03359447
     atom   47 type  2   force =     0.08308498   -0.00230534   -0.03369668
     atom   48 type  3   force =    -0.00007741   -0.00004685    0.00001186
     atom   49 type  2   force =     0.00006657   -0.00043991   -0.00003013
     atom   50 type  4   force =     0.00024834    0.00048134   -0.00034526
     atom   51 type  4   force =     0.00009153   -0.00015130    0.00022032
     atom   52 type  4   force =    -0.00016956   -0.00000317   -0.00013264
     atom   53 type  2   force =    -0.00070218    0.00059110    0.00079480
     atom   54 type  4   force =     0.00066799   -0.00065299   -0.00061652

     Total force =     0.377712     Total SCF correction =     0.000970
  @ DRIVER MODE: Message from server: STATUS
  @ DRIVER MODE: Message from server: GETFORCE
  @ DRIVER MODE: Returning v,forces,stress,ensemble

     Writing output data file ./calc.save/
  @ DRIVER MODE: Message from server: EXIT
  @ DRIVE MODE: Exiting

     General routines

     Parallel routines

   This run was terminated on:   3:44:35  23Sep2021

   JOB DONE.