     Program PWSCF v.6.7GPU starts on 27Jul2021 at 17:55:57

     R & G space division:  proc/nbgrp/npool/nimage =      16
     Reading input from /storage/home/hcoda1/3/ntian30/research/carbon/15Jul_vib/ads_slab/CH3NHHH_a/out_0017/pw.inp
Warning: card &CELL ignored
Warning: card   CELL_DYNAMICS='IPI', ignored
Warning: card / ignored

     Current dimensions of program PWSCF are:
     Max number of different atomic species (ntypx) = 10
     Max number of k-points (npk) =  40000
     Max angular momentum in pseudopotentials (lmaxx) =  3
     Presently no symmetry can be used with electric field

     Message from routine cell_base_init:
     DEPRECATED: use true lattice parameter, not A to a.u. conversion factor

     IMPORTANT: XC functional enforced from input :
     Exchange-correlation= BEEF-VDW
                           (   1   4  43  14   2   0   0)
     Any further DFT definition will be discarded
     Please, verify this is what you really want

  @ DRIVER MODE: Connecting to
 qe_1139763_2431568.sched-torque.pace.gatech.edu8nqywk0u_scratch
  using UNIX socket
  @ DRIVER MODE: Message from server: STATUS
  @ DRIVER MODE: Message from server: INIT
  @ DRIVER MODE: Receiving replica           0          -1
  @ DRIVER MODE: Receiving encoded integer          25
  @ DRIVER MODE:  SCF:  T  FORCE:  T  STRESS:  F  VC:  F  ENSEMBLE:  F
  @ DRIVER MODE:  SCF:  T  FORCE:  T  STRESS:  F  VC:  F  ENSEMBLE:  F

     Using Slab Decomposition

     bravais-lattice index     =            0
     lattice parameter (alat)  =       1.8897  a.u.
     unit-cell volume          =    6658.9804 (a.u.)^3
     number of atoms/cell      =           55
     number of atomic types    =            5
     number of electrons       =       393.00
     number of Kohn-Sham states=          206
     kinetic-energy cutoff     =      29.3995  Ry
     charge density cutoff     =     293.9946  Ry
     scf convergence threshold =      7.3E-08
     mixing beta               =       0.0500
     number of iterations used =            8  plain     mixing
     Exchange-correlation= BEEF-VDW
                           (   1   4  43  14   2   0   0)

     celldm(1)=   1.889726  celldm(2)=   0.000000  celldm(3)=   0.000000
     celldm(4)=   0.000000  celldm(5)=   0.000000  celldm(6)=   0.000000

     crystal axes: (cart. coord. in units of alat)
               a(1) = (   6.579727   0.000000   0.000000 )
               a(2) = (  -0.000775   5.961596   0.000000 )
               a(3) = (   0.000000   0.000000  25.155947 )

     reciprocal axes: (cart. coord. in units 2 pi/alat)
               b(1) = (  0.151982  0.000020  0.000000 )
               b(2) = (  0.000000  0.167740  0.000000 )
               b(3) = (  0.000000  0.000000  0.039752 )

     PseudoPot. # 1 for Ti read from file:
     /storage/coda1/p-amedford6/0/shared/rich_project_chbe-medford/medford-share/data/pseudos_module/espresso/nninc/pbe/van/Ti.UPF
     MD5 check sum: 8e4df49b7f0d34bbd5052bf3f5ea0213
     Pseudo is Ultrasoft, Zval = 12.0
     Generated by new atomic code, or converted to UPF format
     Using radial grid of  851 points,  6 beta functions with:
                l(1) =   0
                l(2) =   0
                l(3) =   1
                l(4) =   1
                l(5) =   2
                l(6) =   2
     Q(r) pseudized with  8 coefficients,  rinner =    1.000   1.000   1.000
                                                       1.000   1.000

     PseudoPot. # 2 for O  read from file:
     /storage/coda1/p-amedford6/0/shared/rich_project_chbe-medford/medford-share/data/pseudos_module/espresso/nninc/pbe/van/O.UPF
     MD5 check sum: 78c19812648e8988a0fe644b0f25305e
     Pseudo is Ultrasoft, Zval =  6.0
     Generated by new atomic code, or converted to UPF format
     Using radial grid of  737 points,  4 beta functions with:
                l(1) =   0
                l(2) =   0
                l(3) =   1
                l(4) =   1
     Q(r) pseudized with  8 coefficients,  rinner =    0.800   0.800   0.800

     PseudoPot. # 3 for N  read from file:
     /storage/coda1/p-amedford6/0/shared/rich_project_chbe-medford/medford-share/data/pseudos_module/espresso/nninc/pbe/van/N.UPF
     MD5 check sum: 90d10febe142ad51ac9d5be1deb811c4
     Pseudo is Ultrasoft, Zval =  5.0
     Generated by new atomic code, or converted to UPF format
     Using radial grid of  729 points,  4 beta functions with:
                l(1) =   0
                l(2) =   0
                l(3) =   1
                l(4) =   1
     Q(r) pseudized with  8 coefficients,  rinner =    0.800   0.800   0.800

     PseudoPot. # 4 for C  read from file:
     /storage/coda1/p-amedford6/0/shared/rich_project_chbe-medford/medford-share/data/pseudos_module/espresso/nninc/pbe/van/C.UPF
     MD5 check sum: 1a69bf6b8db32088f5b2163dbdb77a27
     Pseudo is Ultrasoft, Zval =  4.0
     Generated by new atomic code, or converted to UPF format
     Using radial grid of  721 points,  4 beta functions with:
                l(1) =   0
                l(2) =   0
                l(3) =   1
                l(4) =   1
     Q(r) pseudized with  8 coefficients,  rinner =    0.800   0.800   0.800

     PseudoPot. # 5 for H  read from file:
     /storage/coda1/p-amedford6/0/shared/rich_project_chbe-medford/medford-share/data/pseudos_module/espresso/nninc/pbe/van/H.UPF
     MD5 check sum: b5ee9d7bfd3a09ee7748110bda690ff7
     Pseudo is Ultrasoft, Zval =  1.0
     Generated by new atomic code, or converted to UPF format
     Using radial grid of  615 points,  1 beta functions with:
                l(1) =   0
     Q(r) pseudized with  8 coefficients,  rinner =    0.800

     atomic species   valence    mass     pseudopotential
        Ti1           12.00    47.86700     Ti( 1.00)
        O1             6.00    15.99900     O ( 1.00)
        N1             5.00    14.00700     N ( 1.00)
        C1             4.00    12.01100     C ( 1.00)
        H1             1.00     1.00800     H ( 1.00)

     Starting magnetic structure
     atomic species   magnetization
        Ti1          0.000
        O1           0.000
        N1           0.040
        C1           0.025
        H1           0.000

     No symmetry found

   Cartesian axes

     site n.     atom                  positions (alat units)
         1           Ti1 tau(   1) = (   0.0004258   2.9801865   6.0000000  )
         2           Ti1 tau(   2) = (   3.2906075   1.4906267   6.0002472  )
         3           O1  tau(   3) = (   0.0006271   0.0005054   7.9858123  )
         4           O1  tau(   4) = (   3.2906025   0.0005020   7.3038282  )
         5           O1  tau(   5) = (   4.5942328   1.4918067   9.2879030  )
         6           O1  tau(   6) = (   1.9868534   1.4903216   9.2879459  )
         7           Ti1 tau(   7) = (   3.2907910   2.8959150   9.1758416  )
         8           Ti1 tau(   8) = (   0.0015273   1.4827037   9.2680791  )
         9           O1  tau(   9) = (   3.2636084   5.9406443  11.4082010  )
        10           O1  tau(  10) = (   0.0116148   5.9584955  10.6183126  )
        11           O1  tau(  11) = (   1.2642105   1.4849797  12.6947803  )
        12           O1  tau(  12) = (   5.2691575   1.4821021  12.6650678  )
        13           Ti1 tau(  13) = (   6.5574234   2.9640577  12.4921542  )
        14           Ti1 tau(  14) = (   3.2619390   1.4709553  12.5527290  )
        15           O1  tau(  15) = (   6.5247406   5.9594380  14.6832748  )
        16           O1  tau(  16) = (   3.2695906   5.9428997  14.0562986  )
        17           O1  tau(  17) = (   4.5175969   1.4707097  16.2986306  )
        18           O1  tau(  18) = (   1.9406912   1.4777946  16.2473769  )
        19           Ti1 tau(  19) = (   3.2491105   2.9422209  15.8109686  )
        20           Ti1 tau(  20) = (   6.5361480   1.3378720  15.9626387  )
        21           O1  tau(  21) = (   3.2904802   0.0005063   4.7018136  )
        22           O1  tau(  22) = (   6.5280740   5.8897732  17.4332532  )
        23           O1  tau(  23) = (   1.3043587   1.4918075   6.0039043  )
        24           O1  tau(  24) = (   5.2767064   1.4903225   6.0039473  )
        25           Ti1 tau(  25) = (   0.0000382   5.9609847   6.0000000  )
        26           Ti1 tau(  26) = (   3.2902200   4.4714249   6.0002472  )
        27           O1  tau(  27) = (   0.0002396   2.9813036   7.9858123  )
        28           O1  tau(  28) = (   3.2902150   2.9813002   7.3038282  )
        29           O1  tau(  29) = (   4.5938453   4.4726049   9.2879030  )
        30           O1  tau(  30) = (   1.9864658   4.4711199   9.2879459  )
        31           Ti1 tau(  31) = (   3.2891106   5.8743827   9.1763621  )
        32           Ti1 tau(  32) = (   0.0006254   4.4649316   9.2693709  )
        33           O1  tau(  33) = (   3.2649920   2.9642658  11.3997388  )
        34           O1  tau(  34) = (   0.0092240   2.9805883  10.6323155  )
        35           O1  tau(  35) = (   1.2634527   4.4478426  12.7061968  )
        36           O1  tau(  36) = (   5.2693862   4.4495813  12.6755241  )
        37           Ti1 tau(  37) = (   6.5522441   5.9483113  12.5008436  )
        38           Ti1 tau(  38) = (   3.2626494   4.4468850  12.5575576  )
        39           O1  tau(  39) = (   6.4970557   2.9363996  15.0046851  )
        40           O1  tau(  40) = (   3.2722650   2.9529576  14.0194401  )
        41           O1  tau(  41) = (   4.5170401   4.4205294  16.2730734  )
        42           O1  tau(  42) = (   1.9466746   4.4191161  16.2235312  )
        43           Ti1 tau(  43) = (   3.2419262   5.9323414  15.8513663  )
        44           Ti1 tau(  44) = (   6.5549466   4.5556212  15.8889459  )
        45           O1  tau(  45) = (   3.2900926   2.9813045   4.7018136  )
        46           O1  tau(  46) = (   1.3039711   4.4726057   6.0039043  )
        47           O1  tau(  47) = (   5.2763189   4.4711207   6.0039473  )
        48           N1  tau(  48) = (   4.8657738   4.5798987  19.4796958  )
        49           C1  tau(  49) = (   5.7271871   3.4329544  19.8049648  )
        50           H1  tau(  50) = (   6.3241292   3.1721029  18.9198488  )
        51           H1  tau(  51) = (   6.4229137   3.7195585  20.5942015  )
        52           H1  tau(  52) = (   5.1874390   2.5328885  20.1195193  )
        53           H1  tau(  53) = (   5.9066942   5.7389963  18.1772939  )
        54           H1  tau(  54) = (   4.2103208   4.3266459  18.7469397  )
        55           H1  tau(  55) = (   4.3187305   4.8545830  20.2870342  )

     number of k points=    10  Fermi-Dirac smearing, width (Ry)=  0.0073
                       cart. coord. in units 2pi/alat
        k(    1) = (   0.0000000   0.0000000   0.0000000), wk =   0.0625000
        k(    2) = (   0.0000000   0.0419351   0.0000000), wk =   0.1250000
        k(    3) = (   0.0000000  -0.0838702   0.0000000), wk =   0.0625000
        k(    4) = (   0.0379955   0.0000049   0.0000000), wk =   0.1250000
        k(    5) = (   0.0379955   0.0419400   0.0000000), wk =   0.1250000
        k(    6) = (   0.0379955  -0.0838652   0.0000000), wk =   0.1250000
[...]

     Initial potential from superposition of free atoms

     starting charge  376.99914, renormalised to  393.00000

     negative rho (up, down):  6.648E-03 6.649E-03

     %%%%%%%%%%%%%%%%%%%%%%%%%%%%%%%%%%%%%%%%%%%%%%%%%%%%%%%%%%%%%%%%%%%%%%%%
     %                                                                      %
     % You are using vdW-DF, which was implemented by the Thonhauser group. %
     % Please cite the following two papers that made this development      %
     % possible and the two reviews that describe the various versions:     %
     %                                                                      %
     %   T. Thonhauser et al., PRL 115, 136402 (2015).                      %
     %   T. Thonhauser et al., PRB 76, 125112 (2007).                       %
     %   K. Berland et al., Rep. Prog. Phys. 78, 066501 (2015).             %
     %   D.C. Langreth et al., J. Phys.: Condens. Matter 21, 084203 (2009). %
     %                                                                      %
     %                                                                      %
     % If you are calculating the stress with vdW-DF, please also cite:     %
     %                                                                      %
     %   R. Sabatini et al., J. Phys.: Condens. Matter 24, 424209 (2012).   %
     %                                                                      %
     %%%%%%%%%%%%%%%%%%%%%%%%%%%%%%%%%%%%%%%%%%%%%%%%%%%%%%%%%%%%%%%%%%%%%%%%

     Adding external electric field

     Computed dipole along edir(3) :
        Dipole               -9.4910 Ry au,        -24.1236 Debye
        Dipole field         -0.0179 Ry au,

        Potential amp.        1.6603 Ry
        Total length         46.3494 bohr

[...]

     Starting wfcs are  298 atomic wfcs
  @ DRIVER MODE: Message from server: STATUS
  @ DRIVER MODE: Message from server: POSDATA
  @ DRIVER MODE: Reading and sharing cell
  @ DRIVER MODE: Reading and sharing positions
  @ DRIVER MODE: Received positions

     Self-consistent Calculation

     iteration #  1     ecut=    29.40 Ry     beta= 0.05
     Davidson diagonalization with overlap
     c_bands:  2 eigenvalues not converged
     c_bands:  1 eigenvalues not converged
     c_bands:  2 eigenvalues not converged
     c_bands:  3 eigenvalues not converged
     c_bands:  3 eigenvalues not converged
     c_bands:  1 eigenvalues not converged
     c_bands:  2 eigenvalues not converged
     c_bands:  1 eigenvalues not converged
     c_bands:  2 eigenvalues not converged
     c_bands:  3 eigenvalues not converged
     c_bands:  3 eigenvalues not converged
     c_bands:  1 eigenvalues not converged
     ethr =  1.00E-05,  avg # of iterations = 18.9

[...]

     total energy              =   -2620.52687280 Ry
     estimated scf accuracy    <    3389.59704614 Ry

     total magnetization       =     0.00 Bohr mag/cell
     absolute magnetization    =     0.01 Bohr mag/cell

[...]

     iteration #  3     ecut=    29.40 Ry     beta= 0.05
     Davidson diagonalization with overlap
     ethr =  1.00E-02,  avg # of iterations = 14.9

[...]

     iteration #149     ecut=    29.40 Ry     beta= 0.05
     Davidson diagonalization with overlap
     ethr =  8.37E-10,  avg # of iterations = 10.2

[...]

     total energy              =   -2922.77419487 Ry
     estimated scf accuracy    <       0.00000008 Ry

[...]

     iteration #158     ecut=    29.40 Ry     beta= 0.05
     Davidson diagonalization with overlap
     c_bands:  1 eigenvalues not converged
     ethr =  2.14E-11,  avg # of iterations = 13.6

     negative rho (up, down):  7.249E-03 7.248E-03

[...]

     Adding external electric field

     Computed dipole along edir(3) :
        Dipole                1.4059 Ry au,          3.5735 Debye
        Dipole field          0.0027 Ry au,

        Potential amp.       -0.2459 Ry
        Total length         46.3494 bohr

     Magnetic moment per site  (integrated on atomic sphere of radius R)
     atom   1 (R=0.739)  charge=  8.0547  magn=  0.0007
     atom   2 (R=0.739)  charge=  8.0362  magn=  0.0000
     atom   3 (R=0.405)  charge=  2.0075  magn=  0.0001
     atom   4 (R=0.405)  charge=  2.0190  magn=  0.0000
     atom   5 (R=0.405)  charge=  2.0104  magn=  0.0000
     atom   6 (R=0.405)  charge=  2.0107  magn=  0.0000
     atom   7 (R=0.739)  charge=  8.0371  magn= -0.0001
     atom   8 (R=0.739)  charge=  8.0393  magn= -0.0024
     atom   9 (R=0.405)  charge=  2.0112  magn=  0.0000
     atom  10 (R=0.405)  charge=  2.0118  magn=  0.0001
     atom  11 (R=0.405)  charge=  2.0092  magn=  0.0001
     atom  12 (R=0.405)  charge=  2.0092  magn=  0.0001
     atom  13 (R=0.739)  charge=  8.0499  magn= -0.0010
     atom  14 (R=0.739)  charge=  8.0432  magn= -0.0006
     atom  15 (R=0.405)  charge=  2.0128  magn=  0.0000
     atom  16 (R=0.405)  charge=  2.0108  magn= -0.0000
     atom  17 (R=0.405)  charge=  2.0009  magn= -0.0001
     atom  18 (R=0.405)  charge=  2.0012  magn= -0.0001
     atom  19 (R=0.739)  charge=  8.0824  magn=  0.0011
     atom  20 (R=0.739)  charge=  8.1004  magn=  0.0005
     atom  21 (R=0.405)  charge=  1.9825  magn=  0.0000
     atom  22 (R=0.405)  charge=  2.0201  magn=  0.0000
     atom  23 (R=0.405)  charge=  2.0078  magn= -0.0001
     atom  24 (R=0.405)  charge=  2.0078  magn= -0.0001
     atom  25 (R=0.739)  charge=  8.0548  magn=  0.0007
     atom  26 (R=0.739)  charge=  8.0362  magn=  0.0000
     atom  27 (R=0.405)  charge=  2.0075  magn=  0.0001
     atom  28 (R=0.405)  charge=  2.0191  magn=  0.0000
     atom  29 (R=0.405)  charge=  2.0107  magn=  0.0000
     atom  30 (R=0.405)  charge=  2.0109  magn=  0.0000
     atom  31 (R=0.739)  charge=  8.0373  magn= -0.0001
     atom  32 (R=0.739)  charge=  8.0393  magn= -0.0024
     atom  33 (R=0.405)  charge=  2.0120  magn=  0.0000
     atom  34 (R=0.405)  charge=  2.0122  magn=  0.0001
     atom  35 (R=0.405)  charge=  2.0082  magn=  0.0001
     atom  36 (R=0.405)  charge=  2.0092  magn=  0.0001
     atom  37 (R=0.739)  charge=  8.0419  magn= -0.0011
     atom  38 (R=0.739)  charge=  8.0432  magn= -0.0006
     atom  39 (R=0.405)  charge=  2.0116  magn=  0.0000
     atom  40 (R=0.405)  charge=  2.0126  magn= -0.0001
     atom  41 (R=0.405)  charge=  2.0020  magn= -0.0001
     atom  42 (R=0.405)  charge=  2.0020  magn= -0.0001
     atom  43 (R=0.739)  charge=  8.0813  magn=  0.0002
     atom  44 (R=0.739)  charge=  8.1024  magn=  0.0004
     atom  45 (R=0.405)  charge=  1.9825  magn= -0.0000
     atom  46 (R=0.405)  charge=  2.0078  magn= -0.0001
     atom  47 (R=0.405)  charge=  2.0078  magn= -0.0001
     atom  48 (R=0.418)  charge=  1.3245  magn= -0.0000
     atom  49 (R=0.450)  charge=  0.8476  magn= -0.0000
     atom  50 (R=0.405)  charge=  0.4091  magn=  0.0000
     atom  51 (R=0.405)  charge=  0.4139  magn=  0.0000
     atom  52 (R=0.405)  charge=  0.4128  magn=  0.0000
     atom  53 (R=0.405)  charge=  0.3971  magn=  0.0000
     atom  54 (R=0.405)  charge=  0.4210  magn=  0.0000
     atom  55 (R=0.405)  charge=  0.4256  magn=  0.0000

     End of self-consistent calculation

 ------ SPIN UP ------------

          k = 0.0000 0.0000 0.0000 ( 18029 PWs)   bands (ev):

   -55.3069 -55.2710 -55.2568 -55.2227 -55.1703 -55.1474 -55.1464 -55.1359
   -55.1130 -55.0807 -55.0732 -55.0468 -55.0304 -54.9723 -54.2994 -54.2654
   -31.8742 -31.7503 -31.6878 -31.6588 -31.6351 -31.6143 -31.5880 -31.5497
   -31.5451 -31.5444 -31.5139 -31.5039 -31.5002 -31.4744 -31.4642 -31.4582
   -31.4454 -31.4358 -31.4098 -31.3991 -31.3960 -31.3795 -31.3716 -31.3529
   -31.3513 -31.3141 -31.3135 -31.3025 -31.3016 -31.2881 -31.2815 -31.2808
   -31.2741 -31.2732 -31.2589 -31.2559 -31.2249 -31.2071 -31.1994 -31.1912
   -31.1813 -31.1058 -30.7095 -30.6131 -30.5911 -30.5255 -30.4386 -30.3281
   -16.8232 -16.1463 -15.8900 -15.7691 -15.6600 -15.5905 -15.5193 -15.4404
   -15.3563 -15.2559 -15.1945 -15.0896 -15.0546 -15.0151 -15.0004 -14.9814
   -14.9546 -14.8745 -14.8636 -14.8530 -14.8273 -14.8088 -14.7806 -14.7719
   -14.7652 -14.7258 -14.6883 -14.5763 -14.4858 -14.4001 -12.8025 -12.6847
    -9.9951  -5.8554  -4.7419  -4.4256  -3.5075  -3.4712  -3.3420  -3.2367
    -3.2036  -3.1957  -3.0744  -2.8913  -2.7961  -2.7692  -2.6850  -2.6283
    -2.5323  -2.5286  -2.4883  -2.3881  -2.3503  -2.3235  -2.2404  -2.2135
    -2.1673  -2.1164  -2.1061  -2.1030  -2.0824  -2.0420  -2.0032  -1.8844
    -1.7995  -1.7777  -1.7042  -1.6879  -1.6818  -1.6535  -1.6106  -1.5915
    -1.5422  -1.5252  -1.4844  -1.4157  -1.3543  -1.2722  -1.2352  -1.1983
    -0.9922  -0.9634  -0.9128  -0.9104  -0.8820  -0.8137  -0.7841  -0.7544
    -0.6884  -0.6860  -0.6575  -0.5513  -0.5085  -0.3876  -0.3169  -0.2375
    -0.1156  -0.1025  -0.0784  -0.0290  -0.0054   0.0542   0.1143   0.1508
     0.1903   0.2030   0.2903   0.3198   0.3967   0.4110   0.4489   0.5125
     0.5290   0.5552   0.5724   0.5848   0.6191   0.6349   0.6691   0.7356
     0.7678   0.8692   0.9179   1.2016   1.2871   1.5960   1.6197   1.7230
     1.9042   2.3013   2.3505   3.7894   3.8492   3.8887   3.9318   3.9337
     4.0171   4.1473   4.2907   4.2994   4.3113   4.3182

[...]

          k =-0.0760-0.0000 0.0000 ( 17886 PWs)   bands (ev):

[...]

 ------ SPIN DOWN ----------

[...]

          k = 0.0380-0.0419 0.0000 ( 17876 PWs)   bands (ev):

[...]

          k =-0.0760-0.0839 0.0000 ( 17948 PWs)   bands (ev):

   -55.2915 -55.2886 -55.2384 -55.2376 -55.1558 -55.1545 -55.1424 -55.1322
   -55.1280 -55.0748 -55.0695 -55.0670 -55.0229 -54.9789 -54.2824 -54.2822
   -31.6823 -31.6772 -31.5867 -31.5812 -31.5650 -31.5645 -31.5557 -31.5288
   -31.5280 -31.5089 -31.5037 -31.5020 -31.4880 -31.4621 -31.4572 -31.4567
   -31.4309 -31.4305 -31.4237 -31.4021 -31.3813 -31.3791 -31.3671 -31.3627
   -31.3626 -31.3574 -31.3566 -31.3501 -31.3482 -31.3417 -31.3379 -31.3222
   -31.3197 -31.3075 -31.3044 -31.2920 -31.2636 -31.2497 -31.2477 -31.2411
   -31.2248 -31.1717 -30.6038 -30.6037 -30.5220 -30.5218 -30.4820 -30.4820
   -16.7616 -15.8190 -15.5919 -15.5390 -15.4982 -15.4033 -15.3296 -15.2987
   -15.2885 -15.2755 -15.1496 -15.1214 -15.1117 -15.0836 -15.0520 -15.0274
   -15.0236 -14.9886 -14.9314 -14.9252 -14.9174 -14.9092 -14.8455 -14.8374
   -14.8336 -14.8267 -14.7612 -14.7588 -14.6768 -14.6748 -12.7861 -12.7860
   -10.0048  -5.8559  -4.8688  -4.4076  -3.5169  -2.8226  -2.7952  -2.7430
    -2.7029  -2.6120  -2.5261  -2.4991  -2.4626  -2.4049  -2.3525  -2.3052
    -2.3030  -2.2673  -2.2477  -2.2290  -2.1853  -2.1636  -2.1412  -2.1230
    -2.1083  -2.0546  -2.0518  -2.0427  -2.0183  -1.9840  -1.9666  -1.9530
    -1.9370  -1.9187  -1.8933  -1.8739  -1.7311  -1.7101  -1.6697  -1.5522
    -1.5344  -1.5310  -1.4979  -1.4541  -1.4294  -1.4219  -1.3479  -1.3407
    -1.3076  -1.1513  -1.0788  -1.0770  -1.0538  -1.0299  -0.9347  -0.8832
    -0.8428  -0.7929  -0.7172  -0.6859  -0.6671  -0.5947  -0.5677  -0.4762
    -0.3869  -0.3600  -0.3518  -0.2743  -0.2729  -0.2394  -0.2263  -0.1573
    -0.0970  -0.0456  -0.0416  -0.0374   0.0911   0.1283   0.2083   0.3224
     0.4028   0.4112   0.4622   0.5226   0.6052   0.6515   0.6672   0.7896
     0.7915   0.9779   0.9812   1.0296   1.0447   1.1250   1.1302   2.0771
     2.0777   2.1701   2.1705   3.7624   3.9464   3.9996   4.0716   4.0972
     4.1961   4.2807   4.3145   4.3447   4.3668   4.3739

     the Fermi energy is     3.8555 ev

!    total energy              =   -2922.77419543 Ry
     estimated scf accuracy    <       0.00000006 Ry
     smearing contrib. (-TS)   =      -0.04551640 Ry
     internal energy E=F+TS    =   -2922.72867903 Ry

     The total energy is F=E-TS. E is the sum of the following terms:
     one-electron contribution =  -23202.07002271 Ry
     hartree contribution      =   11691.33555016 Ry
     xc contribution           =    -482.54342762 Ry
     ewald contribution        =    9070.54549099 Ry
     electric field correction =       0.00373016 Ry

     total magnetization       =    -0.01 Bohr mag/cell
     absolute magnetization    =     0.02 Bohr mag/cell

     convergence has been achieved in 158 iterations

     Forces acting on atoms (cartesian axes, Ry/au):

     atom    1 type  1   force =     0.00016942   -0.00009000    0.09306297
     atom    2 type  1   force =     0.00001289   -0.00016256   -0.17886008
     atom    3 type  2   force =     0.00002321   -0.00029706   -0.02023869
     atom    4 type  2   force =    -0.00000148   -0.00223923    0.06097865
     atom    5 type  2   force =    -0.01149903   -0.00127821    0.01054446
     atom    6 type  2   force =     0.01241125   -0.00058456    0.00810853
     atom    7 type  1   force =    -0.00122463    0.00343947   -0.01491676
     atom    8 type  1   force =     0.00122985   -0.00358092   -0.00843528
     atom    9 type  2   force =     0.00001071   -0.00004864   -0.00025692
     atom   10 type  2   force =    -0.00281527   -0.00047803    0.00153627
     atom   11 type  2   force =     0.00012349   -0.00023080   -0.00028449
     atom   12 type  2   force =    -0.00000314    0.00009281   -0.00009681
     atom   13 type  1   force =    -0.00019786   -0.00031849   -0.00063402
     atom   14 type  1   force =    -0.00005178   -0.00005105    0.00024403
     atom   15 type  2   force =    -0.00011253   -0.00023553   -0.00012940
     atom   16 type  2   force =     0.00032821    0.00035553   -0.00009658
     atom   17 type  2   force =     0.00077342    0.00028251   -0.00025360
     atom   18 type  2   force =     0.00010158   -0.00027683   -0.00004913
     atom   19 type  1   force =     0.00025169    0.00042714   -0.00046381
     atom   20 type  1   force =     0.00012127    0.00004266    0.00048639
     atom   21 type  2   force =     0.00012709   -0.00003018    0.10426521
     atom   22 type  2   force =    -0.00051742    0.00016179    0.00016937
     atom   23 type  2   force =    -0.06991887   -0.00011145   -0.02679653
     atom   24 type  2   force =     0.06989083    0.00034974   -0.02679516
     atom   25 type  1   force =     0.00018345   -0.00019669    0.09236890
     atom   26 type  1   force =    -0.00006641   -0.00035713   -0.17903350
     atom   27 type  2   force =     0.00004195   -0.00025741   -0.01897145
     atom   28 type  2   force =     0.00006432   -0.00192977    0.06023571
     atom   29 type  2   force =    -0.01168905   -0.00162370    0.01034039
     atom   30 type  2   force =     0.01247367   -0.00120754    0.00786992
     atom   31 type  1   force =    -0.00101699    0.00609432   -0.01578074
     atom   32 type  1   force =     0.00118456    0.00333732   -0.00864992
     atom   33 type  2   force =     0.00002703    0.00019780   -0.00024321
     atom   34 type  2   force =    -0.00240845   -0.00054143    0.00060112
     atom   35 type  2   force =     0.00000286   -0.00000293    0.00005902
     atom   36 type  2   force =     0.00003317   -0.00007607    0.00037241
     atom   37 type  1   force =     0.00034898   -0.00004466   -0.00007665
     atom   38 type  1   force =    -0.00035876   -0.00032150    0.00048589
     atom   39 type  2   force =     0.00035937   -0.00014736    0.00062138
     atom   40 type  2   force =     0.00025181   -0.00017781    0.00005287
     atom   41 type  2   force =     0.00004656    0.00036246   -0.00039069
     atom   42 type  2   force =     0.00051235    0.00022386   -0.00018031
     atom   43 type  1   force =     0.00023179   -0.00019923   -0.00039150
     atom   44 type  1   force =     0.00015950   -0.00124208    0.00063192
     atom   45 type  2   force =     0.00012104   -0.00005047    0.10422072
     atom   46 type  2   force =    -0.06993024   -0.00005128   -0.02678585
     atom   47 type  2   force =     0.06991859    0.00035013   -0.02680479
     atom   48 type  3   force =     0.00107542    0.00022426   -0.00096573
     atom   49 type  4   force =     0.00459033   -0.00041607   -0.00855277
     atom   50 type  5   force =    -0.00433185    0.00181052    0.00848040
     atom   51 type  5   force =    -0.00020666   -0.00045953   -0.00046631
     atom   52 type  5   force =    -0.00000131   -0.00038872   -0.00000477
     atom   53 type  5   force =     0.00016079    0.00074856   -0.00103231
     atom   54 type  5   force =    -0.00031107    0.00021183   -0.00045516
     atom   55 type  5   force =    -0.00069968    0.00099222    0.00135641

     Total force =     0.367922     Total SCF correction =     0.000272
  @ DRIVER MODE: Message from server: STATUS
  @ DRIVER MODE: Message from server: GETFORCE
  @ DRIVER MODE: Returning v,forces,stress,ensemble

     Writing output data file ./calc.save/
  @ DRIVER MODE: Message from server: EXIT
  @ DRIVE MODE: Exiting

     General routines

     Parallel routines

   This run was terminated on:  18:48:28  27Jul2021

   JOB DONE.