     Program PWSCF v.6.7GPU starts on 22Sep2021 at 18:30:36

     R & G space division:  proc/nbgrp/npool/nimage =      10
     Reading input from /storage/home/hcoda1/3/ntian30/research/carbon/CxH_vib/H2O_calc/ads_slab/CHNHHHO_a/out_0008/pw.inp
Warning: card &CELL ignored
Warning: card   CELL_DYNAMICS='IPI', ignored
Warning: card / ignored

     Current dimensions of program PWSCF are:
     Max number of different atomic species (ntypx) = 10
     Max number of k-points (npk) =  40000
     Max angular momentum in pseudopotentials (lmaxx) =  3
     Presently no symmetry can be used with electric field

     Message from routine cell_base_init:
     DEPRECATED: use true lattice parameter, not A to a.u. conversion factor

     IMPORTANT: XC functional enforced from input :
     Exchange-correlation= BEEF-VDW
                           (   1   4  43  14   2   0   0)
     Any further DFT definition will be discarded
     Please, verify this is what you really want

  @ DRIVER MODE: Connecting to
 qe_1139763_2937313.sched-torque.pace.gatech.eduo_zxyedk_scratch
  using UNIX socket
  @ DRIVER MODE: Message from server: STATUS
  @ DRIVER MODE: Message from server: INIT
  @ DRIVER MODE: Receiving replica           0          -1
  @ DRIVER MODE: Receiving encoded integer          25
  @ DRIVER MODE:  SCF:  T  FORCE:  T  STRESS:  F  VC:  F  ENSEMBLE:  F
  @ DRIVER MODE:  SCF:  T  FORCE:  T  STRESS:  F  VC:  F  ENSEMBLE:  F

     Using Slab Decomposition

     bravais-lattice index     =            0
     lattice parameter (alat)  =       1.8897  a.u.
     unit-cell volume          =    6658.9804 (a.u.)^3
     number of atoms/cell      =           54
     number of atomic types    =            5
     number of electrons       =       397.00
     number of Kohn-Sham states=          208
     kinetic-energy cutoff     =      29.3995  Ry
     charge density cutoff     =     293.9946  Ry
     scf convergence threshold =      7.3E-08
     mixing beta               =       0.0500
     number of iterations used =            8  plain     mixing
     Exchange-correlation= BEEF-VDW
                           (   1   4  43  14   2   0   0)

     celldm(1)=   1.889726  celldm(2)=   0.000000  celldm(3)=   0.000000
     celldm(4)=   0.000000  celldm(5)=   0.000000  celldm(6)=   0.000000

     crystal axes: (cart. coord. in units of alat)
               a(1) = (   6.579727   0.000000   0.000000 )
               a(2) = (  -0.000775   5.961596   0.000000 )
               a(3) = (   0.000000   0.000000  25.155947 )

     reciprocal axes: (cart. coord. in units 2 pi/alat)
               b(1) = (  0.151982  0.000020  0.000000 )
               b(2) = (  0.000000  0.167740  0.000000 )
               b(3) = (  0.000000  0.000000  0.039752 )

     PseudoPot. # 1 for Ti read from file:
     /storage/coda1/p-amedford6/0/shared/rich_project_chbe-medford/medford-share/data/pseudos_module/espresso/nninc/pbe/van/Ti.UPF
     MD5 check sum: 8e4df49b7f0d34bbd5052bf3f5ea0213
     Pseudo is Ultrasoft, Zval = 12.0
     Generated by new atomic code, or converted to UPF format
     Using radial grid of  851 points,  6 beta functions with:
                l(1) =   0
                l(2) =   0
                l(3) =   1
                l(4) =   1
                l(5) =   2
                l(6) =   2
     Q(r) pseudized with  8 coefficients,  rinner =    1.000   1.000   1.000
                                                       1.000   1.000

     PseudoPot. # 2 for O  read from file:
     /storage/coda1/p-amedford6/0/shared/rich_project_chbe-medford/medford-share/data/pseudos_module/espresso/nninc/pbe/van/O.UPF
     MD5 check sum: 78c19812648e8988a0fe644b0f25305e
     Pseudo is Ultrasoft, Zval =  6.0
     Generated by new atomic code, or converted to UPF format
     Using radial grid of  737 points,  4 beta functions with:
                l(1) =   0
                l(2) =   0
                l(3) =   1
                l(4) =   1
     Q(r) pseudized with  8 coefficients,  rinner =    0.800   0.800   0.800

     PseudoPot. # 3 for N  read from file:
     /storage/coda1/p-amedford6/0/shared/rich_project_chbe-medford/medford-share/data/pseudos_module/espresso/nninc/pbe/van/N.UPF
     MD5 check sum: 90d10febe142ad51ac9d5be1deb811c4
     Pseudo is Ultrasoft, Zval =  5.0
     Generated by new atomic code, or converted to UPF format
     Using radial grid of  729 points,  4 beta functions with:
                l(1) =   0
                l(2) =   0
                l(3) =   1
                l(4) =   1
     Q(r) pseudized with  8 coefficients,  rinner =    0.800   0.800   0.800

     PseudoPot. # 4 for C  read from file:
     /storage/coda1/p-amedford6/0/shared/rich_project_chbe-medford/medford-share/data/pseudos_module/espresso/nninc/pbe/van/C.UPF
     MD5 check sum: 1a69bf6b8db32088f5b2163dbdb77a27
     Pseudo is Ultrasoft, Zval =  4.0
     Generated by new atomic code, or converted to UPF format
     Using radial grid of  721 points,  4 beta functions with:
                l(1) =   0
                l(2) =   0
                l(3) =   1
                l(4) =   1
     Q(r) pseudized with  8 coefficients,  rinner =    0.800   0.800   0.800

     PseudoPot. # 5 for H  read from file:
     /storage/coda1/p-amedford6/0/shared/rich_project_chbe-medford/medford-share/data/pseudos_module/espresso/nninc/pbe/van/H.UPF
     MD5 check sum: b5ee9d7bfd3a09ee7748110bda690ff7
     Pseudo is Ultrasoft, Zval =  1.0
     Generated by new atomic code, or converted to UPF format
     Using radial grid of  615 points,  1 beta functions with:
                l(1) =   0
     Q(r) pseudized with  8 coefficients,  rinner =    0.800

     atomic species   valence    mass     pseudopotential
        Ti1           12.00    47.86700     Ti( 1.00)
        O1             6.00    15.99900     O ( 1.00)
        N1             5.00    14.00700     N ( 1.00)
        C1             4.00    12.01100     C ( 1.00)
        H1             1.00     1.00800     H ( 1.00)

     No symmetry found

   Cartesian axes

     site n.     atom                  positions (alat units)
         1           Ti1 tau(   1) = (   0.0004258   2.9801865   6.0000000  )
         2           Ti1 tau(   2) = (   3.2906075   1.4906267   6.0002472  )
         3           O1  tau(   3) = (   0.0006271   0.0005054   7.9858123  )
         4           O1  tau(   4) = (   3.2906025   0.0005020   7.3038282  )
         5           O1  tau(   5) = (   4.5942328   1.4918067   9.2879030  )
         6           O1  tau(   6) = (   1.9868534   1.4903216   9.2879459  )
         7           Ti1 tau(   7) = (   3.2907910   2.8959150   9.1758416  )
         8           Ti1 tau(   8) = (   0.0015273   1.4827037   9.2680791  )
         9           O1  tau(   9) = (   3.2973591   5.9237820  11.3497511  )
        10           O1  tau(  10) = (   0.0116148   5.9584955  10.6183126  )
        11           O1  tau(  11) = (   1.2811460   1.4768824  12.6391447  )
        12           O1  tau(  12) = (   5.3079631   1.4871840  12.6405626  )
        13           Ti1 tau(  13) = (   6.5754896   2.9244875  12.5445406  )
        14           Ti1 tau(  14) = (   3.3102182   1.2813077  12.7057081  )
        15           O1  tau(  15) = (   6.5763362   0.0566486  14.6337039  )
        16           O1  tau(  16) = (   3.2990834   0.0566264  13.9960278  )
        17           O1  tau(  17) = (   4.5749688   1.5338778  16.1314031  )
        18           O1  tau(  18) = (   2.0677763   1.5208417  16.2171153  )
        19           Ti1 tau(  19) = (   3.2830944   2.9922577  15.6820260  )
        20           Ti1 tau(  20) = (   6.5002293   1.4748383  16.0237708  )
        21           O1  tau(  21) = (   3.2904802   0.0005063   4.7018136  )
        22           O1  tau(  22) = (   0.0234767   5.8639946  17.1540191  )
        23           O1  tau(  23) = (   1.3043587   1.4918075   6.0039043  )
        24           O1  tau(  24) = (   5.2767064   1.4903225   6.0039473  )
        25           Ti1 tau(  25) = (   0.0000382   5.9609847   6.0000000  )
        26           Ti1 tau(  26) = (   3.2902200   4.4714249   6.0002472  )
        27           O1  tau(  27) = (   0.0002396   2.9813036   7.9858123  )
        28           O1  tau(  28) = (   3.2902150   2.9813002   7.3038282  )
        29           O1  tau(  29) = (   4.5938453   4.4726049   9.2879030  )
        30           O1  tau(  30) = (   1.9864658   4.4711199   9.2879459  )
        31           Ti1 tau(  31) = (   3.2891106   5.8743827   9.1763621  )
        32           Ti1 tau(  32) = (   0.0006254   4.4649316   9.2693709  )
        33           O1  tau(  33) = (   3.2952530   2.9960894  11.3054589  )
        34           O1  tau(  34) = (   0.0092240   2.9805883  10.6323155  )
        35           O1  tau(  35) = (   1.2848436   4.4566134  12.6628561  )
        36           O1  tau(  36) = (   5.3073415   4.4462911  12.6631571  )
        37           Ti1 tau(  37) = (   0.0411484   5.9123939  12.5136797  )
        38           Ti1 tau(  38) = (   3.3147701   4.3652790  12.4361622  )
        39           O1  tau(  39) = (   0.0290229   2.9306538  14.8412286  )
        40           O1  tau(  40) = (   3.2875986   2.9640914  13.9120161  )
        41           O1  tau(  41) = (   4.5659564   4.3862643  16.1232528  )
        42           O1  tau(  42) = (   2.0245242   4.4195217  16.0560026  )
        43           Ti1 tau(  43) = (   3.2475481   5.9608109  16.2864591  )
        44           Ti1 tau(  44) = (   0.0132903   4.6514137  15.7972829  )
        45           O1  tau(  45) = (   3.2900926   2.9813045   4.7018136  )
        46           O1  tau(  46) = (   1.3039711   4.4726057   6.0039043  )
        47           O1  tau(  47) = (   5.2763189   4.4711207   6.0039473  )
        48           N1  tau(  48) = (   5.7184149   3.3872802  18.6644769  )
        49           C1  tau(  49) = (   6.5636674   2.6142045  18.0347456  )
        50           H1  tau(  50) = (   0.7520291   2.2354638  18.7052436  )
        51           H1  tau(  51) = (   4.9873861   3.8928837  18.1615307  )
        52           H1  tau(  52) = (   5.8197376   3.6397576  19.6419508  )
        53           O1  tau(  53) = (   3.3578172   5.8156178  18.1613732  )
        54           H1  tau(  54) = (   2.9124532   0.5526369  18.6599525  )

     number of k points=    10  Fermi-Dirac smearing, width (Ry)=  0.0073
                       cart. coord. in units 2pi/alat
        k(    1) = (   0.0000000   0.0000000   0.0000000), wk =   0.1250000
        k(    2) = (   0.0000000   0.0419351   0.0000000), wk =   0.2500000
        k(    3) = (   0.0000000  -0.0838702   0.0000000), wk =   0.1250000
        k(    4) = (   0.0379955   0.0000049   0.0000000), wk =   0.2500000
        k(    5) = (   0.0379955   0.0419400   0.0000000), wk =   0.2500000
        k(    6) = (   0.0379955  -0.0838652   0.0000000), wk =   0.2500000
        k(    7) = (   0.0379955  -0.0419301   0.0000000), wk =   0.2500000
        k(    8) = (  -0.0759910  -0.0000099   0.0000000), wk =   0.1250000
        k(    9) = (  -0.0759910   0.0419252   0.0000000), wk =   0.2500000
        k(   10) = (  -0.0759910  -0.0838800   0.0000000), wk =   0.1250000

     Initial potential from superposition of free atoms

     starting charge  380.99916, renormalised to  397.00000

     negative rho (up, down):  1.674E-02 0.000E+00

     %%%%%%%%%%%%%%%%%%%%%%%%%%%%%%%%%%%%%%%%%%%%%%%%%%%%%%%%%%%%%%%%%%%%%%%%
     %                                                                      %
     % You are using vdW-DF, which was implemented by the Thonhauser group. %
     % Please cite the following two papers that made this development      %
     % possible and the two reviews that describe the various versions:     %
     %                                                                      %
     %   T. Thonhauser et al., PRL 115, 136402 (2015).                      %
     %   T. Thonhauser et al., PRB 76, 125112 (2007).                       %
     %   K. Berland et al., Rep. Prog. Phys. 78, 066501 (2015).             %
     %   D.C. Langreth et al., J. Phys.: Condens. Matter 21, 084203 (2009). %
     %                                                                      %
     %                                                                      %
     % If you are calculating the stress with vdW-DF, please also cite:     %
     %                                                                      %
     %   R. Sabatini et al., J. Phys.: Condens. Matter 24, 424209 (2012).   %
     %                                                                      %
     %%%%%%%%%%%%%%%%%%%%%%%%%%%%%%%%%%%%%%%%%%%%%%%%%%%%%%%%%%%%%%%%%%%%%%%%

     Adding external electric field

     Computed dipole along edir(3) :
        Dipole               -9.3089 Ry au,        -23.6608 Debye
        Dipole field         -0.0176 Ry au,

        Potential amp.        1.6284 Ry
        Total length         46.3494 bohr

     Starting wfcs are  300 atomic wfcs
  @ DRIVER MODE: Message from server: STATUS
  @ DRIVER MODE: Message from server: POSDATA
  @ DRIVER MODE: Reading and sharing cell
  @ DRIVER MODE: Reading and sharing positions
  @ DRIVER MODE: Received positions

     Self-consistent Calculation

     iteration #  1     ecut=    29.40 Ry     beta= 0.05
     Davidson diagonalization with overlap
     c_bands:  1 eigenvalues not converged
     c_bands:  2 eigenvalues not converged
     c_bands:  1 eigenvalues not converged
     c_bands:  1 eigenvalues not converged
     c_bands:  1 eigenvalues not converged
     c_bands:  2 eigenvalues not converged
     c_bands:  1 eigenvalues not converged
     c_bands:  1 eigenvalues not converged
     c_bands:  2 eigenvalues not converged
     ethr =  1.00E-05,  avg # of iterations = 19.6

[...]

     total energy              =   -2539.08398656 Ry
     estimated scf accuracy    <    4593.60242638 Ry

     iteration #  2     ecut=    29.40 Ry     beta= 0.05
     Davidson diagonalization with overlap
     ethr =  1.00E-02,  avg # of iterations = 23.7

[...]

     iteration # 74     ecut=    29.40 Ry     beta= 0.05
     Davidson diagonalization with overlap
     c_bands:  1 eigenvalues not converged
     ethr =  6.77E-11,  avg # of iterations = 10.7

[...]

     total energy              =   -2952.67082642 Ry
     estimated scf accuracy    <       0.00000022 Ry

     iteration # 75     ecut=    29.40 Ry     beta= 0.05
     Davidson diagonalization with overlap
     ethr =  5.46E-11,  avg # of iterations =  6.9

     negative rho (up, down):  1.682E-02 0.000E+00

     Adding external electric field

     Computed dipole along edir(3) :
        Dipole                1.2996 Ry au,          3.3032 Debye
        Dipole field          0.0025 Ry au,

        Potential amp.       -0.2273 Ry
        Total length         46.3494 bohr

     End of self-consistent calculation

          k = 0.0000 0.0000 0.0000 ( 18029 PWs)   bands (ev):

   -55.6278 -55.5520 -55.5180 -55.3697 -55.3441 -55.3357 -55.3086 -55.2990
   -55.2857 -55.2353 -55.1418 -55.1114 -55.0338 -55.0052 -54.5035 -54.4694
   -32.0333 -31.9600 -31.8717 -31.8510 -31.8438 -31.8302 -31.8262 -31.7969
   -31.7694 -31.7218 -31.7045 -31.6706 -31.6555 -31.6331 -31.6253 -31.6148
   -31.6097 -31.5914 -31.5592 -31.5428 -31.5244 -31.5226 -31.5090 -31.5056
   -31.4976 -31.4857 -31.4828 -31.4823 -31.4534 -31.4406 -31.4328 -31.4039
   -31.3927 -31.3892 -31.3861 -31.3073 -31.3016 -31.2798 -31.2478 -31.2385
   -31.2246 -31.1532 -30.9082 -30.8248 -30.8022 -30.7261 -30.6398 -30.5278
   -17.2365 -16.4828 -16.1363 -15.9701 -15.7730 -15.6695 -15.5994 -15.4120
   -15.3275 -15.2695 -15.0768 -15.0751 -15.0416 -15.0274 -14.9999 -14.9689
   -14.9640 -14.9587 -14.9314 -14.8977 -14.8806 -14.8537 -14.8352 -14.7766
   -14.7450 -14.7323 -14.6733 -14.5778 -14.5127 -14.2992 -14.1470 -13.0017
   -12.8858  -9.6243  -7.2749  -4.7871  -4.0622  -3.5060  -3.4389  -3.3764
    -3.3252  -3.2529  -3.0205  -2.8730  -2.7627  -2.7334  -2.6419  -2.6108
    -2.5695  -2.4969  -2.4294  -2.4062  -2.3579  -2.3226  -2.2891  -2.2667
    -2.2419  -2.2200  -2.1668  -2.1246  -2.0514  -2.0012  -1.9308  -1.9095
    -1.8550  -1.8160  -1.8132  -1.7965  -1.7611  -1.7558  -1.7459  -1.7288
    -1.6200  -1.5887  -1.5386  -1.4972  -1.3305  -1.1441  -1.1258  -1.0302
    -0.9896  -0.9564  -0.9273  -0.9125  -0.8858  -0.8615  -0.7664  -0.7471
    -0.6678  -0.6062  -0.5619  -0.5115  -0.4081  -0.3439  -0.3167  -0.2707
    -0.2646  -0.2339  -0.2189  -0.1287  -0.0535  -0.0047   0.0085   0.0590
     0.1464   0.1638   0.2177   0.2503   0.2896   0.3247   0.3956   0.4213
     0.4433   0.4564   0.4739   0.5314   0.5696   0.6020   0.6724   0.7740
     0.7855   0.8563   0.8596   0.8694   1.0710   1.1566   1.1809   1.2604
     1.4820   1.5231   1.6156   1.7192   2.0876   2.1318   3.5509   3.6945
     3.7120   3.7767   3.8254   3.9388   3.9496   4.0357   4.1656   4.2533

[...]

          k = 0.0380-0.0419 0.0000 ( 17876 PWs)   bands (ev):

[...]

          k =-0.0760-0.0000 0.0000 ( 17886 PWs)   bands (ev):

[...]

          k =-0.0760-0.0839 0.0000 ( 17948 PWs)   bands (ev):

   -55.6271 -55.5353 -55.5346 -55.3528 -55.3523 -55.3306 -55.3219 -55.2994
   -55.2792 -55.2417 -55.1396 -55.1078 -55.0374 -55.0073 -54.4869 -54.4859
   -31.9055 -31.8489 -31.8485 -31.8398 -31.8296 -31.8290 -31.8288 -31.7024
   -31.6778 -31.6715 -31.6552 -31.6545 -31.6477 -31.6388 -31.6276 -31.6087
   -31.5986 -31.5956 -31.5638 -31.5611 -31.5452 -31.5450 -31.5308 -31.5268
   -31.5204 -31.5159 -31.5076 -31.5036 -31.4974 -31.4905 -31.4654 -31.4588
   -31.4078 -31.3895 -31.3851 -31.3684 -31.3110 -31.3052 -31.2872 -31.2448
   -31.2423 -31.2268 -30.8153 -30.8145 -30.7219 -30.7206 -30.6834 -30.6826
   -17.2319 -16.4733 -15.5963 -15.5862 -15.4785 -15.4609 -15.3590 -15.2922
   -15.2552 -15.2310 -15.2127 -15.1821 -15.1772 -15.1275 -15.0852 -15.0665
   -15.0386 -15.0128 -14.9959 -14.9591 -14.9285 -14.9109 -14.8875 -14.8502
   -14.8433 -14.8294 -14.8161 -14.6418 -14.5987 -14.4483 -14.4255 -12.9880
   -12.9875  -9.6260  -7.2744  -4.7818  -4.0588  -2.8621  -2.8027  -2.6865
    -2.6137  -2.5876  -2.5125  -2.4819  -2.4674  -2.3810  -2.3708  -2.3664
    -2.3252  -2.3038  -2.2837  -2.2558  -2.2515  -2.2443  -2.2093  -2.2020
    -2.1861  -2.1646  -2.1476  -2.1308  -2.1166  -2.1084  -2.0843  -2.0635
    -2.0349  -1.9926  -1.8321  -1.7962  -1.7677  -1.6555  -1.6446  -1.6276
    -1.6158  -1.6033  -1.5697  -1.5036  -1.4860  -1.4793  -1.3154  -1.2343
    -1.1928  -1.1307  -1.1066  -1.0813  -0.9914  -0.9781  -0.9507  -0.9126
    -0.8631  -0.7909  -0.6930  -0.6859  -0.6407  -0.5338  -0.4835  -0.4728
    -0.4692  -0.4187  -0.4081  -0.3906  -0.3510  -0.2789  -0.2619  -0.2382
    -0.2062  -0.1896  -0.1476  -0.0798   0.0231   0.1074   0.2126   0.2453
     0.3278   0.3539   0.3691   0.5224   0.5837   0.6235   0.6723   0.6780
     0.7806   0.7914   0.8055   0.8879   0.9883   1.0039   1.0647   1.0822
     1.1007   1.1398   1.8884   1.8964   1.9520   1.9523   3.7405   4.0280
     4.0778   4.0883   4.1092   4.1238   4.1310   4.1584   4.2146   4.2455

     the Fermi energy is     3.5757 ev

!    total energy              =   -2952.67084618 Ry
     estimated scf accuracy    <       0.00000007 Ry
     smearing contrib. (-TS)   =      -0.01998760 Ry
     internal energy E=F+TS    =   -2952.65085857 Ry

     The total energy is F=E-TS. E is the sum of the following terms:
     one-electron contribution =  -23943.14326329 Ry
     hartree contribution      =   12064.46675222 Ry
     xc contribution           =    -487.97397188 Ry
     ewald contribution        =    9413.99643717 Ry
     electric field correction =       0.00318721 Ry

     convergence has been achieved in  75 iterations

     Forces acting on atoms (cartesian axes, Ry/au):

     atom    1 type  1   force =     0.00004054   -0.00030915    0.09544101
     atom    2 type  1   force =    -0.00013253    0.00030956   -0.17424315
     atom    3 type  2   force =    -0.00002029   -0.00015454   -0.02258715
     atom    4 type  2   force =     0.00003770   -0.00185871    0.05176440
     atom    5 type  2   force =    -0.00670086   -0.00271210    0.00166499
     atom    6 type  2   force =     0.00825107   -0.00220274    0.00114491
     atom    7 type  1   force =    -0.00012743   -0.00382586    0.01184969
     atom    8 type  1   force =     0.00015865    0.00378740    0.01279509
     atom    9 type  2   force =     0.00021013    0.00037049    0.00074652
     atom   10 type  2   force =    -0.00197654   -0.00129835   -0.01624774
     atom   11 type  2   force =     0.00113625   -0.00021464   -0.00033332
     atom   12 type  2   force =    -0.00058078    0.00012968   -0.00028941
     atom   13 type  1   force =    -0.00022326   -0.00150187    0.00075830
     atom   14 type  1   force =     0.00008355   -0.00041824    0.00003615
     atom   15 type  2   force =     0.00016540    0.00035670   -0.00105214
     atom   16 type  2   force =     0.00005587    0.00110460   -0.00061397
     atom   17 type  2   force =     0.00003328    0.00030759    0.00022077
     atom   18 type  2   force =     0.00046456    0.00003228   -0.00037051
     atom   19 type  1   force =    -0.00029886    0.00005523    0.00043181
     atom   20 type  1   force =     0.00045849    0.00044446   -0.00008623
     atom   21 type  2   force =     0.00006182    0.00011028    0.10288322
     atom   22 type  2   force =    -0.00029748    0.00054785    0.00034210
     atom   23 type  2   force =    -0.07248996   -0.00013889   -0.02754330
     atom   24 type  2   force =     0.07239581    0.00027508   -0.02757110
     atom   25 type  1   force =     0.00009099   -0.00014666    0.09504036
     atom   26 type  1   force =    -0.00010840   -0.00128217   -0.17427046
     atom   27 type  2   force =     0.00015698   -0.00025616   -0.02134076
     atom   28 type  2   force =     0.00004725   -0.00014560    0.04736488
     atom   29 type  2   force =    -0.00548094    0.00230418   -0.00006479
     atom   30 type  2   force =     0.00705381    0.00274059   -0.00057317
     atom   31 type  1   force =    -0.00016408    0.00658881    0.00054654
     atom   32 type  1   force =     0.00007723   -0.00556064    0.01185075
     atom   33 type  2   force =    -0.00014416   -0.00040598    0.00002785
     atom   34 type  2   force =    -0.00121650    0.00016314   -0.01579899
     atom   35 type  2   force =    -0.00039931    0.00044717    0.00010403
     atom   36 type  2   force =     0.00104627    0.00059983    0.00036904
     atom   37 type  1   force =    -0.00023304    0.00178779    0.00038804
     atom   38 type  1   force =    -0.00006247    0.00023472    0.00046830
     atom   39 type  2   force =    -0.00014604    0.00013772   -0.00043888
     atom   40 type  2   force =     0.00037218   -0.00033468   -0.00031837
     atom   41 type  2   force =    -0.00058095    0.00038796    0.00014174
     atom   42 type  2   force =     0.00085816    0.00023931    0.00016467
     atom   43 type  1   force =     0.00015780    0.00017732    0.00076452
     atom   44 type  1   force =     0.00034972    0.00001614    0.00116978
     atom   45 type  2   force =     0.00006083   -0.00009058    0.10266891
     atom   46 type  2   force =    -0.07253363   -0.00004972   -0.02756620
     atom   47 type  2   force =     0.07246187    0.00040670   -0.02759184
     atom   48 type  3   force =     0.00888644   -0.00725537   -0.00458910
     atom   49 type  4   force =    -0.01652585    0.00928247   -0.00125722
     atom   50 type  5   force =     0.00567567   -0.00249035    0.00502407
     atom   51 type  5   force =     0.00126230   -0.00032435   -0.00045487
     atom   52 type  5   force =    -0.00051624    0.00038622    0.00017112
     atom   53 type  2   force =    -0.00011561   -0.00001352   -0.00104102
     atom   54 type  5   force =    -0.00103539   -0.00074039   -0.00009983

     Total force =     0.363090     Total SCF correction =     0.000722
  @ DRIVER MODE: Message from server: STATUS
  @ DRIVER MODE: Message from server: GETFORCE
  @ DRIVER MODE: Returning v,forces,stress,ensemble

     Writing output data file ./calc.save/
  @ DRIVER MODE: Message from server: EXIT
  @ DRIVE MODE: Exiting

     General routines

     Parallel routines

   This run was terminated on:  18:49:16  22Sep2021

   JOB DONE.