     Program PWSCF v.6.7GPU starts on 16Sep2021 at 12:35:30

     R & G space division:  proc/nbgrp/npool/nimage =      10
     Reading input from /storage/home/hcoda1/3/ntian30/research/carbon/CxH_vib/H2O_calc/ads_slab/CH2NNHHHH2O_a/out_0058/pw.inp
Warning: card &CELL ignored
Warning: card   CELL_DYNAMICS='IPI', ignored
Warning: card / ignored

     Current dimensions of program PWSCF are:
     Max number of different atomic species (ntypx) = 10
     Max number of k-points (npk) =  40000
     Max angular momentum in pseudopotentials (lmaxx) =  3
     Presently no symmetry can be used with electric field

     Message from routine cell_base_init:
     DEPRECATED: use true lattice parameter, not A to a.u. conversion factor

     IMPORTANT: XC functional enforced from input :
     Exchange-correlation= BEEF-VDW
                           (   1   4  43  14   2   0   0)
     Any further DFT definition will be discarded
     Please, verify this is what you really want

  @ DRIVER MODE: Connecting to
 qe_1139763_2852612.sched-torque.pace.gatech.edus7x1vg8l_scratch
  using UNIX socket
  @ DRIVER MODE: Message from server: STATUS
  @ DRIVER MODE: Message from server: INIT
  @ DRIVER MODE: Receiving replica           0          -1
  @ DRIVER MODE: Receiving encoded integer          25
  @ DRIVER MODE:  SCF:  T  FORCE:  T  STRESS:  F  VC:  F  ENSEMBLE:  F
  @ DRIVER MODE:  SCF:  T  FORCE:  T  STRESS:  F  VC:  F  ENSEMBLE:  F

     Using Slab Decomposition

     bravais-lattice index     =            0
     lattice parameter (alat)  =       1.8897  a.u.
     unit-cell volume          =    6658.9804 (a.u.)^3
     number of atoms/cell      =           58
     number of atomic types    =            5
     number of electrons       =       405.00
     number of Kohn-Sham states=          212
     kinetic-energy cutoff     =      29.3995  Ry
     charge density cutoff     =     293.9946  Ry
     scf convergence threshold =      7.3E-08
     mixing beta               =       0.0500
     number of iterations used =            8  plain     mixing
     Exchange-correlation= BEEF-VDW
                           (   1   4  43  14   2   0   0)

     celldm(1)=   1.889726  celldm(2)=   0.000000  celldm(3)=   0.000000
     celldm(4)=   0.000000  celldm(5)=   0.000000  celldm(6)=   0.000000

     crystal axes: (cart. coord. in units of alat)
               a(1) = (   6.579727   0.000000   0.000000 )
               a(2) = (  -0.000775   5.961596   0.000000 )
               a(3) = (   0.000000   0.000000  25.155947 )

     reciprocal axes: (cart. coord. in units 2 pi/alat)
               b(1) = (  0.151982  0.000020  0.000000 )
               b(2) = (  0.000000  0.167740  0.000000 )
               b(3) = (  0.000000  0.000000  0.039752 )

     PseudoPot. # 1 for Ti read from file:
     /storage/coda1/p-amedford6/0/shared/rich_project_chbe-medford/medford-share/data/pseudos_module/espresso/nninc/pbe/van/Ti.UPF
     MD5 check sum: 8e4df49b7f0d34bbd5052bf3f5ea0213
     Pseudo is Ultrasoft, Zval = 12.0
     Generated by new atomic code, or converted to UPF format
     Using radial grid of  851 points,  6 beta functions with:
                l(1) =   0
                l(2) =   0
                l(3) =   1
                l(4) =   1
                l(5) =   2
                l(6) =   2
     Q(r) pseudized with  8 coefficients,  rinner =    1.000   1.000   1.000
                                                       1.000   1.000

     PseudoPot. # 2 for O  read from file:
     /storage/coda1/p-amedford6/0/shared/rich_project_chbe-medford/medford-share/data/pseudos_module/espresso/nninc/pbe/van/O.UPF
     MD5 check sum: 78c19812648e8988a0fe644b0f25305e
     Pseudo is Ultrasoft, Zval =  6.0
     Generated by new atomic code, or converted to UPF format
     Using radial grid of  737 points,  4 beta functions with:
                l(1) =   0
                l(2) =   0
                l(3) =   1
                l(4) =   1
     Q(r) pseudized with  8 coefficients,  rinner =    0.800   0.800   0.800

     PseudoPot. # 3 for N  read from file:
     /storage/coda1/p-amedford6/0/shared/rich_project_chbe-medford/medford-share/data/pseudos_module/espresso/nninc/pbe/van/N.UPF
     MD5 check sum: 90d10febe142ad51ac9d5be1deb811c4
     Pseudo is Ultrasoft, Zval =  5.0
     Generated by new atomic code, or converted to UPF format
     Using radial grid of  729 points,  4 beta functions with:
                l(1) =   0
                l(2) =   0
                l(3) =   1
                l(4) =   1
     Q(r) pseudized with  8 coefficients,  rinner =    0.800   0.800   0.800

     PseudoPot. # 4 for C  read from file:
     /storage/coda1/p-amedford6/0/shared/rich_project_chbe-medford/medford-share/data/pseudos_module/espresso/nninc/pbe/van/C.UPF
     MD5 check sum: 1a69bf6b8db32088f5b2163dbdb77a27
     Pseudo is Ultrasoft, Zval =  4.0
     Generated by new atomic code, or converted to UPF format
     Using radial grid of  721 points,  4 beta functions with:
                l(1) =   0
                l(2) =   0
                l(3) =   1
                l(4) =   1
     Q(r) pseudized with  8 coefficients,  rinner =    0.800   0.800   0.800

     PseudoPot. # 5 for H  read from file:
     /storage/coda1/p-amedford6/0/shared/rich_project_chbe-medford/medford-share/data/pseudos_module/espresso/nninc/pbe/van/H.UPF
     MD5 check sum: b5ee9d7bfd3a09ee7748110bda690ff7
     Pseudo is Ultrasoft, Zval =  1.0
     Generated by new atomic code, or converted to UPF format
     Using radial grid of  615 points,  1 beta functions with:
                l(1) =   0
     Q(r) pseudized with  8 coefficients,  rinner =    0.800

     atomic species   valence    mass     pseudopotential
        Ti1           12.00    47.86700     Ti( 1.00)
        O1             6.00    15.99900     O ( 1.00)
        N1             5.00    14.00700     N ( 1.00)
        C1             4.00    12.01100     C ( 1.00)
        H1             1.00     1.00800     H ( 1.00)

     No symmetry found

   Cartesian axes

     site n.     atom                  positions (alat units)
         1           Ti1 tau(   1) = (   0.0004258   2.9801865   6.0000000  )
         2           Ti1 tau(   2) = (   3.2906075   1.4906267   6.0002472  )
         3           O1  tau(   3) = (   0.0006271   0.0005054   7.9858123  )
         4           O1  tau(   4) = (   3.2906025   0.0005020   7.3038282  )
         5           O1  tau(   5) = (   4.5942328   1.4918067   9.2879030  )
         6           O1  tau(   6) = (   1.9868534   1.4903216   9.2879459  )
         7           Ti1 tau(   7) = (   3.2907910   2.8959150   9.1758416  )
         8           Ti1 tau(   8) = (   0.0015273   1.4827037   9.2680791  )
         9           O1  tau(   9) = (   3.2987819   5.9401718  11.3551833  )
        10           O1  tau(  10) = (   0.0116148   5.9584955  10.6183126  )
        11           O1  tau(  11) = (   1.3094369   1.4889762  12.6418845  )
        12           O1  tau(  12) = (   5.3041503   1.4933078  12.6143371  )
        13           Ti1 tau(  13) = (   0.0302489   2.9730182  12.5448133  )
        14           Ti1 tau(  14) = (   3.3273137   1.4751619  12.4920661  )
        15           O1  tau(  15) = (   6.5331299   0.0759724  14.6728253  )
        16           O1  tau(  16) = (   3.3443954   0.0128112  13.9985917  )
        17           O1  tau(  17) = (   4.5384157   1.5150964  16.2525342  )
        18           O1  tau(  18) = (   2.0107438   1.5096167  16.1239609  )
        19           Ti1 tau(  19) = (   3.2468703   2.9375149  15.6823127  )
        20           Ti1 tau(  20) = (   6.5402329   1.3810098  16.1103674  )
        21           O1  tau(  21) = (   3.2904802   0.0005063   4.7018136  )
        22           O1  tau(  22) = (   0.0855018   5.8309792  17.2460454  )
        23           O1  tau(  23) = (   1.3043587   1.4918075   6.0039043  )
        24           O1  tau(  24) = (   5.2767064   1.4903225   6.0039473  )
        25           Ti1 tau(  25) = (   0.0000382   5.9609847   6.0000000  )
        26           Ti1 tau(  26) = (   3.2902200   4.4714249   6.0002472  )
        27           O1  tau(  27) = (   0.0002396   2.9813036   7.9858123  )
        28           O1  tau(  28) = (   3.2902150   2.9813002   7.3038282  )
        29           O1  tau(  29) = (   4.5938453   4.4726049   9.2879030  )
        30           O1  tau(  30) = (   1.9864658   4.4711199   9.2879459  )
        31           Ti1 tau(  31) = (   3.2891106   5.8743827   9.1763621  )
        32           Ti1 tau(  32) = (   0.0006254   4.4649316   9.2693709  )
        33           O1  tau(  33) = (   3.2978634   2.9839445  11.3486163  )
        34           O1  tau(  34) = (   0.0092240   2.9805883  10.6323155  )
        35           O1  tau(  35) = (   1.3057425   4.4725738  12.6940039  )
        36           O1  tau(  36) = (   5.3035974   4.4670288  12.6562451  )
        37           Ti1 tau(  37) = (   0.0240142   0.0094741  12.5095027  )
        38           Ti1 tau(  38) = (   3.3290383   4.4615466  12.5202027  )
        39           O1  tau(  39) = (   6.5484913   2.9337383  14.8377676  )
        40           O1  tau(  40) = (   3.3243726   2.9440003  13.9069550  )
        41           O1  tau(  41) = (   4.5478640   4.3999133  16.1372545  )
        42           O1  tau(  42) = (   2.0209518   4.4226222  15.9786897  )
        43           Ti1 tau(  43) = (   3.3220059   5.9437776  15.8132296  )
        44           Ti1 tau(  44) = (   0.0730556   4.5544523  15.7304118  )
        45           O1  tau(  45) = (   3.2900926   2.9813045   4.7018136  )
        46           O1  tau(  46) = (   1.3039711   4.4726057   6.0039043  )
        47           O1  tau(  47) = (   5.2763189   4.4711207   6.0039473  )
        48           N1  tau(  48) = (   0.0453545   2.8788619  17.9090770  )
        49           C1  tau(  49) = (   1.0089482   2.8008358  18.8431878  )
        50           H1  tau(  50) = (   1.0080222   3.4413729  19.7168629  )
        51           H1  tau(  51) = (   1.8954070   2.2543435  18.5800802  )
        52           N1  tau(  52) = (   5.5320326   3.6725468  18.4365114  )
        53           H1  tau(  53) = (   5.8975581   4.6271042  18.6377988  )
        54           H1  tau(  54) = (   4.8553295   3.8628436  17.6443034  )
        55           H1  tau(  55) = (   5.1025442   3.2364756  19.2632064  )
        56           O1  tau(  56) = (   2.8928424   5.6518753  18.2681889  )
        57           H1  tau(  57) = (   3.0708471   0.5234993  18.7460362  )
        58           H1  tau(  58) = (   1.9180978   5.6479514  18.1114729  )

     number of k points=    10  Fermi-Dirac smearing, width (Ry)=  0.0073
                       cart. coord. in units 2pi/alat
        k(    1) = (   0.0000000   0.0000000   0.0000000), wk =   0.1250000
        k(    2) = (   0.0000000   0.0419351   0.0000000), wk =   0.2500000
        k(    3) = (   0.0000000  -0.0838702   0.0000000), wk =   0.1250000
        k(    4) = (   0.0379955   0.0000049   0.0000000), wk =   0.2500000
        k(    5) = (   0.0379955   0.0419400   0.0000000), wk =   0.2500000
        k(    6) = (   0.0379955  -0.0838652   0.0000000), wk =   0.2500000
        k(    7) = (   0.0379955  -0.0419301   0.0000000), wk =   0.2500000
        k(    8) = (  -0.0759910  -0.0000099   0.0000000), wk =   0.1250000
        k(    9) = (  -0.0759910   0.0419252   0.0000000), wk =   0.2500000
        k(   10) = (  -0.0759910  -0.0838800   0.0000000), wk =   0.1250000

     Initial potential from superposition of free atoms

     starting charge  388.99913, renormalised to  405.00000

     negative rho (up, down):  1.580E-02 0.000E+00

     %%%%%%%%%%%%%%%%%%%%%%%%%%%%%%%%%%%%%%%%%%%%%%%%%%%%%%%%%%%%%%%%%%%%%%%%
     %                                                                      %
     % You are using vdW-DF, which was implemented by the Thonhauser group. %
     % Please cite the following two papers that made this development      %
     % possible and the two reviews that describe the various versions:     %
     %                                                                      %
     %   T. Thonhauser et al., PRL 115, 136402 (2015).                      %
     %   T. Thonhauser et al., PRB 76, 125112 (2007).                       %
     %   K. Berland et al., Rep. Prog. Phys. 78, 066501 (2015).             %
     %   D.C. Langreth et al., J. Phys.: Condens. Matter 21, 084203 (2009). %
     %                                                                      %
     %                                                                      %
     % If you are calculating the stress with vdW-DF, please also cite:     %
     %                                                                      %
     %   R. Sabatini et al., J. Phys.: Condens. Matter 24, 424209 (2012).   %
     %                                                                      %
     %%%%%%%%%%%%%%%%%%%%%%%%%%%%%%%%%%%%%%%%%%%%%%%%%%%%%%%%%%%%%%%%%%%%%%%%

     Adding external electric field

     Computed dipole along edir(3) :
        Dipole              -14.4816 Ry au,        -36.8086 Debye
        Dipole field         -0.0273 Ry au,

        Potential amp.        2.5333 Ry
        Total length         46.3494 bohr

     Starting wfcs are  307 atomic wfcs
  @ DRIVER MODE: Message from server: STATUS
  @ DRIVER MODE: Message from server: POSDATA
  @ DRIVER MODE: Reading and sharing cell
  @ DRIVER MODE: Reading and sharing positions
  @ DRIVER MODE: Received positions

     Self-consistent Calculation

     iteration #  1     ecut=    29.40 Ry     beta= 0.05
     Davidson diagonalization with overlap
     c_bands:  2 eigenvalues not converged
     c_bands:  5 eigenvalues not converged
     c_bands:  1 eigenvalues not converged
     c_bands:  3 eigenvalues not converged
     c_bands:  3 eigenvalues not converged
     c_bands:  4 eigenvalues not converged
     ethr =  1.00E-05,  avg # of iterations = 27.0

[...]

     total energy              =   -2173.29225919 Ry
     estimated scf accuracy    <    9121.37370777 Ry

[...]

     iteration #  3     ecut=    29.40 Ry     beta= 0.05
     Davidson diagonalization with overlap
     ethr =  1.00E-02,  avg # of iterations = 16.5

[...]

     iteration # 68     ecut=    29.40 Ry     beta= 0.05
     Davidson diagonalization with overlap
     c_bands:  1 eigenvalues not converged
     c_bands:  1 eigenvalues not converged
     ethr =  6.95E-11,  avg # of iterations = 12.9

[...]

     total energy              =   -2976.32706125 Ry
     estimated scf accuracy    <       0.00000046 Ry

     iteration # 71     ecut=    29.40 Ry     beta= 0.05
     Davidson diagonalization with overlap
     ethr =  6.48E-11,  avg # of iterations =  6.3

     negative rho (up, down):  1.317E-02 0.000E+00

     Adding external electric field

     Computed dipole along edir(3) :
        Dipole                1.3375 Ry au,          3.3996 Debye
        Dipole field          0.0025 Ry au,

        Potential amp.       -0.2340 Ry
        Total length         46.3494 bohr

     End of self-consistent calculation

          k = 0.0000 0.0000 0.0000 ( 18029 PWs)   bands (ev):

   -55.1723 -55.1429 -55.1312 -55.1088 -55.0928 -55.0495 -55.0085 -54.9820
   -54.9712 -54.9558 -54.9464 -54.9384 -54.8726 -54.7254 -54.1550 -54.1210
   -31.7389 -31.6327 -31.5369 -31.5032 -31.4818 -31.4743 -31.4711 -31.4327
   -31.4097 -31.3879 -31.3821 -31.3797 -31.3677 -31.3466 -31.3202 -31.3172
   -31.3072 -31.2956 -31.2900 -31.2853 -31.2542 -31.2372 -31.2307 -31.2112
   -31.1998 -31.1821 -31.1803 -31.1797 -31.1705 -31.1680 -31.1514 -31.1422
   -31.1321 -31.1309 -31.1089 -31.1014 -31.0973 -31.0796 -31.0537 -31.0175
   -31.0021 -30.8712 -30.5634 -30.4715 -30.4493 -30.3801 -30.2934 -30.1823
   -19.0892 -18.7529 -16.0093 -15.7515 -15.6243 -15.4469 -15.3671 -15.2134
   -15.1434 -15.0609 -15.0334 -14.9692 -14.9306 -14.9000 -14.7873 -14.7799
   -14.7069 -14.7063 -14.6978 -14.6656 -14.6620 -14.6578 -14.6017 -14.5990
   -14.5597 -14.5485 -14.5361 -14.3941 -14.3191 -14.2621 -14.0907 -13.9756
   -12.6574 -12.5403  -9.0027  -7.6884  -6.9451  -6.5035  -5.7619  -3.8059
    -3.3469  -3.2124  -3.1761  -3.1156  -3.0725  -2.9849  -2.8950  -2.7731
    -2.5552  -2.4782  -2.4379  -2.3890  -2.3806  -2.3339  -2.2452  -2.1614
    -2.1289  -2.0931  -2.0435  -2.0284  -1.9874  -1.9611  -1.9419  -1.9005
    -1.8914  -1.7449  -1.6851  -1.6299  -1.5818  -1.5607  -1.5591  -1.5018
    -1.4881  -1.4669  -1.4639  -1.4535  -1.4230  -1.3862  -1.3808  -1.3271
    -1.2904  -1.1648  -1.0908  -0.9752  -0.9157  -0.8839  -0.8011  -0.7325
    -0.7162  -0.6441  -0.5796  -0.5603  -0.5030  -0.4635  -0.3744  -0.3398
    -0.2912  -0.2652  -0.1568  -0.1438  -0.1279  -0.0569   0.0320   0.0409
     0.0650   0.1107   0.1948   0.2297   0.2831   0.3096   0.4094   0.4406
     0.4827   0.5006   0.5260   0.6071   0.6784   0.7152   0.7759   0.7853
     0.8202   0.8251   0.8483   0.9426   0.9733   0.9779   1.0260   1.1929
     1.2506   1.4494   1.4514   1.7817   1.8173   1.8679   2.0541   2.4417
     2.4889   3.9268   3.9930   4.0419   4.0586   4.0770   4.1349   4.1695
     4.3973   4.4201   4.4343   4.4478

[...]

          k = 0.0380-0.0419 0.0000 ( 17876 PWs)   bands (ev):

[...]

          k =-0.0760-0.0000 0.0000 ( 17886 PWs)   bands (ev):

[...]

          k =-0.0760-0.0839 0.0000 ( 17948 PWs)   bands (ev):

   -55.1616 -55.1417 -55.1259 -55.1257 -55.0906 -55.0402 -55.0178 -54.9664
   -54.9607 -54.9578 -54.9562 -54.9544 -54.8708 -54.7271 -54.1379 -54.1379
   -31.5501 -31.5351 -31.4480 -31.4477 -31.4476 -31.4381 -31.4182 -31.4180
   -31.3838 -31.3783 -31.3688 -31.3670 -31.3369 -31.3086 -31.3012 -31.2991
   -31.2965 -31.2929 -31.2904 -31.2857 -31.2765 -31.2627 -31.2487 -31.2452
   -31.2450 -31.2431 -31.2406 -31.2146 -31.1997 -31.1916 -31.1807 -31.1763
   -31.1757 -31.1752 -31.1564 -31.1552 -31.1361 -31.1337 -31.0716 -31.0098
   -31.0060 -30.9452 -30.4620 -30.4620 -30.3761 -30.3759 -30.3368 -30.3367
   -19.0823 -18.7554 -15.5112 -15.3749 -15.3362 -15.2459 -15.1643 -15.1482
   -15.1404 -15.1062 -15.0539 -14.9942 -14.9493 -14.9145 -14.8739 -14.8724
   -14.8595 -14.7592 -14.7481 -14.7406 -14.7238 -14.6756 -14.6658 -14.6491
   -14.6238 -14.6221 -14.5970 -14.5164 -14.5154 -14.4168 -14.3105 -14.0370
   -12.6419 -12.6418  -8.9903  -7.7040  -6.9018  -6.4929  -5.7760  -3.8874
    -3.0004  -2.7691  -2.5745  -2.5462  -2.4273  -2.3753  -2.3295  -2.3082
    -2.2217  -2.1815  -2.1647  -2.1589  -2.1391  -2.0819  -2.0608  -2.0216
    -2.0019  -1.9877  -1.9791  -1.9547  -1.9499  -1.9182  -1.9018  -1.8835
    -1.8776  -1.8408  -1.8022  -1.7909  -1.7534  -1.7327  -1.7245  -1.6673
    -1.5678  -1.5350  -1.4910  -1.4252  -1.3622  -1.3584  -1.2879  -1.2684
    -1.2497  -1.2319  -1.1963  -1.1842  -1.0709  -1.0145  -0.9102  -0.8975
    -0.8916  -0.7860  -0.7525  -0.7111  -0.6806  -0.6436  -0.5872  -0.5092
    -0.5023  -0.4272  -0.3892  -0.3782  -0.3595  -0.2180  -0.1877  -0.1545
    -0.1306  -0.1258  -0.0718  -0.0290   0.0012   0.0388   0.0657   0.0985
     0.1146   0.1906   0.3277   0.3596   0.4017   0.5343   0.5618   0.6767
     0.7026   0.8227   0.8963   0.9409   0.9611   1.0389   1.1164   1.1377
     1.1434   1.2540   1.3048   1.3068   1.3242   2.2266   2.2281   2.3090
     2.3092   3.7807   4.0726   4.1977   4.2144   4.2552   4.3790   4.4442
     4.4795   4.5013   4.5041   4.5912

     the Fermi energy is     3.9757 ev

!    total energy              =   -2976.32708297 Ry
     estimated scf accuracy    <       0.00000006 Ry
     smearing contrib. (-TS)   =      -0.04070298 Ry
     internal energy E=F+TS    =   -2976.28637999 Ry

     The total energy is F=E-TS. E is the sum of the following terms:
     one-electron contribution =  -23820.58703111 Ry
     hartree contribution      =   12009.13630996 Ry
     xc contribution           =    -495.75091766 Ry
     ewald contribution        =    9330.91188283 Ry
     electric field correction =       0.00337599 Ry

     convergence has been achieved in  71 iterations

     Forces acting on atoms (cartesian axes, Ry/au):

     atom    1 type  1   force =     0.00015624   -0.00020039    0.09425265
     atom    2 type  1   force =    -0.00010935   -0.00035415   -0.17723316
     atom    3 type  2   force =     0.00008573    0.00003636   -0.02133581
     atom    4 type  2   force =     0.00001865   -0.00174193    0.05668467
     atom    5 type  2   force =    -0.01044118   -0.00127823    0.00673665
     atom    6 type  2   force =     0.01219993   -0.00072311    0.00624923
     atom    7 type  1   force =    -0.00028557    0.00288175   -0.01264913
     atom    8 type  1   force =    -0.00014663    0.00440394    0.00453114
     atom    9 type  2   force =    -0.00036340    0.00009069    0.00075715
     atom   10 type  2   force =    -0.00008322   -0.00089265   -0.00641002
     atom   11 type  2   force =    -0.00041721   -0.00033164    0.00006414
     atom   12 type  2   force =    -0.00032253   -0.00042635    0.00015221
     atom   13 type  1   force =    -0.00034753   -0.00016644   -0.00033180
     atom   14 type  1   force =     0.00003601   -0.00044119   -0.00034156
     atom   15 type  2   force =    -0.00019694   -0.00009714    0.00003536
     atom   16 type  2   force =    -0.00066046    0.00023470   -0.00035447
     atom   17 type  2   force =    -0.00012535    0.00007997    0.00018803
     atom   18 type  2   force =     0.00036146   -0.00005464    0.00029474
     atom   19 type  1   force =     0.00024077   -0.00097449   -0.00000349
     atom   20 type  1   force =     0.00021492   -0.00025696    0.00069864
     atom   21 type  2   force =     0.00004875    0.00001541    0.10364013
     atom   22 type  2   force =    -0.00034717    0.00014830    0.00047517
     atom   23 type  2   force =    -0.07082799   -0.00011474   -0.02716155
     atom   24 type  2   force =     0.07072596    0.00032299   -0.02719110
     atom   25 type  1   force =    -0.00006430   -0.00022889    0.09367816
     atom   26 type  1   force =    -0.00012942   -0.00042542   -0.17736741
     atom   27 type  2   force =     0.00014855   -0.00039174   -0.02029395
     atom   28 type  2   force =     0.00005351   -0.00137873    0.05583455
     atom   29 type  2   force =    -0.01031027   -0.00030109    0.00538767
     atom   30 type  2   force =     0.01198270    0.00009755    0.00502689
     atom   31 type  1   force =    -0.00017485    0.00359228   -0.01531399
     atom   32 type  1   force =    -0.00018720   -0.00486871    0.00438102
     atom   33 type  2   force =    -0.00006739   -0.00017043    0.00031349
     atom   34 type  2   force =     0.00120436    0.00258932   -0.00429646
     atom   35 type  2   force =    -0.00071137   -0.00016030    0.00018090
     atom   36 type  2   force =    -0.00001103   -0.00002662    0.00045894
     atom   37 type  1   force =     0.00038653    0.00041288   -0.00030604
     atom   38 type  1   force =    -0.00000286    0.00053235   -0.00157426
     atom   39 type  2   force =     0.00027122   -0.00044765   -0.00020987
     atom   40 type  2   force =     0.00004576    0.00004716    0.00059501
     atom   41 type  2   force =    -0.00022138   -0.00028223   -0.00018295
     atom   42 type  2   force =     0.00047157   -0.00037609    0.00004694
     atom   43 type  1   force =    -0.00067528    0.00066284    0.00070712
     atom   44 type  1   force =    -0.00009682    0.00006538   -0.00005443
     atom   45 type  2   force =     0.00004021   -0.00002522    0.10364404
     atom   46 type  2   force =    -0.07086572   -0.00005628   -0.02716020
     atom   47 type  2   force =     0.07076082    0.00034469   -0.02719053
     atom   48 type  3   force =     0.00037477    0.00034540   -0.00025959
     atom   49 type  4   force =     0.00069278   -0.00047116    0.00052844
     atom   50 type  5   force =     0.00118614   -0.00014430   -0.00028809
     atom   51 type  5   force =    -0.00086841    0.00081671   -0.00047356
     atom   52 type  3   force =     0.00063203   -0.00011976    0.00016529
     atom   53 type  5   force =    -0.00136514   -0.00009917    0.00037903
     atom   54 type  5   force =     0.00026224   -0.00036756    0.00054406
     atom   55 type  5   force =    -0.00062761   -0.00002121    0.00024226
     atom   56 type  2   force =     0.00303710    0.01480198    0.00719897
     atom   57 type  5   force =    -0.00328585   -0.01462362   -0.00743942
     atom   58 type  5   force =    -0.00129929    0.00051758    0.00135016

     Total force =     0.366085     Total SCF correction =     0.000505
  @ DRIVER MODE: Message from server: STATUS
  @ DRIVER MODE: Message from server: GETFORCE
  @ DRIVER MODE: Returning v,forces,stress,ensemble

     Writing output data file ./calc.save/
  @ DRIVER MODE: Message from server: EXIT
  @ DRIVE MODE: Exiting

     General routines

     Parallel routines

   This run was terminated on:  12:55:32  16Sep2021

   JOB DONE.