     Program PWSCF v.6.7GPU starts on  9Sep2021 at  8:57:47

     R & G space division:  proc/nbgrp/npool/nimage =      10
     Reading input from /storage/home/hcoda1/3/ntian30/research/carbon/CxH_vib/CH_calc/ads_slab/CHNNHH_a/out_0029/pw.inp
Warning: card &CELL ignored
Warning: card   CELL_DYNAMICS='IPI', ignored
Warning: card / ignored

     Current dimensions of program PWSCF are:
     Max number of different atomic species (ntypx) = 10
     Max number of k-points (npk) =  40000
     Max angular momentum in pseudopotentials (lmaxx) =  3
     Presently no symmetry can be used with electric field

     Message from routine cell_base_init:
     DEPRECATED: use true lattice parameter, not A to a.u. conversion factor

     IMPORTANT: XC functional enforced from input :
     Exchange-correlation= BEEF-VDW
                           (   1   4  43  14   2   0   0)
     Any further DFT definition will be discarded
     Please, verify this is what you really want

  @ DRIVER MODE: Connecting to
 qe_1139763_2767382.sched-torque.pace.gatech.edu3ozzo058_scratch
  using UNIX socket
  @ DRIVER MODE: Message from server: STATUS
  @ DRIVER MODE: Message from server: INIT
  @ DRIVER MODE: Receiving replica           0          -1
  @ DRIVER MODE: Receiving encoded integer          25
  @ DRIVER MODE:  SCF:  T  FORCE:  T  STRESS:  F  VC:  F  ENSEMBLE:  F
  @ DRIVER MODE:  SCF:  T  FORCE:  T  STRESS:  F  VC:  F  ENSEMBLE:  F

     Using Slab Decomposition

     bravais-lattice index     =            0
     lattice parameter (alat)  =       1.8897  a.u.
     unit-cell volume          =    6658.9804 (a.u.)^3
     number of atoms/cell      =           53
     number of atomic types    =            5
     number of electrons       =       395.00
     number of Kohn-Sham states=          207
     kinetic-energy cutoff     =      29.3995  Ry
     charge density cutoff     =     293.9946  Ry
     scf convergence threshold =      7.3E-08
     mixing beta               =       0.0500
     number of iterations used =            8  plain     mixing
     Exchange-correlation= BEEF-VDW
                           (   1   4  43  14   2   0   0)

     celldm(1)=   1.889726  celldm(2)=   0.000000  celldm(3)=   0.000000
     celldm(4)=   0.000000  celldm(5)=   0.000000  celldm(6)=   0.000000

     crystal axes: (cart. coord. in units of alat)
               a(1) = (   6.579727   0.000000   0.000000 )
               a(2) = (  -0.000775   5.961596   0.000000 )
               a(3) = (   0.000000   0.000000  25.155947 )

     reciprocal axes: (cart. coord. in units 2 pi/alat)
               b(1) = (  0.151982  0.000020  0.000000 )
               b(2) = (  0.000000  0.167740  0.000000 )
               b(3) = (  0.000000  0.000000  0.039752 )

     PseudoPot. # 1 for Ti read from file:
     /storage/coda1/p-amedford6/0/shared/rich_project_chbe-medford/medford-share/data/pseudos_module/espresso/nninc/pbe/van/Ti.UPF
     MD5 check sum: 8e4df49b7f0d34bbd5052bf3f5ea0213
     Pseudo is Ultrasoft, Zval = 12.0
     Generated by new atomic code, or converted to UPF format
     Using radial grid of  851 points,  6 beta functions with:
                l(1) =   0
                l(2) =   0
                l(3) =   1
                l(4) =   1
                l(5) =   2
                l(6) =   2
     Q(r) pseudized with  8 coefficients,  rinner =    1.000   1.000   1.000
                                                       1.000   1.000

     PseudoPot. # 2 for O  read from file:
     /storage/coda1/p-amedford6/0/shared/rich_project_chbe-medford/medford-share/data/pseudos_module/espresso/nninc/pbe/van/O.UPF
     MD5 check sum: 78c19812648e8988a0fe644b0f25305e
     Pseudo is Ultrasoft, Zval =  6.0
     Generated by new atomic code, or converted to UPF format
     Using radial grid of  737 points,  4 beta functions with:
                l(1) =   0
                l(2) =   0
                l(3) =   1
                l(4) =   1
     Q(r) pseudized with  8 coefficients,  rinner =    0.800   0.800   0.800

     PseudoPot. # 3 for N  read from file:
     /storage/coda1/p-amedford6/0/shared/rich_project_chbe-medford/medford-share/data/pseudos_module/espresso/nninc/pbe/van/N.UPF
     MD5 check sum: 90d10febe142ad51ac9d5be1deb811c4
     Pseudo is Ultrasoft, Zval =  5.0
     Generated by new atomic code, or converted to UPF format
     Using radial grid of  729 points,  4 beta functions with:
                l(1) =   0
                l(2) =   0
                l(3) =   1
                l(4) =   1
     Q(r) pseudized with  8 coefficients,  rinner =    0.800   0.800   0.800

     PseudoPot. # 4 for C  read from file:
     /storage/coda1/p-amedford6/0/shared/rich_project_chbe-medford/medford-share/data/pseudos_module/espresso/nninc/pbe/van/C.UPF
     MD5 check sum: 1a69bf6b8db32088f5b2163dbdb77a27
     Pseudo is Ultrasoft, Zval =  4.0
     Generated by new atomic code, or converted to UPF format
     Using radial grid of  721 points,  4 beta functions with:
                l(1) =   0
                l(2) =   0
                l(3) =   1
                l(4) =   1
     Q(r) pseudized with  8 coefficients,  rinner =    0.800   0.800   0.800

     PseudoPot. # 5 for H  read from file:
     /storage/coda1/p-amedford6/0/shared/rich_project_chbe-medford/medford-share/data/pseudos_module/espresso/nninc/pbe/van/H.UPF
     MD5 check sum: b5ee9d7bfd3a09ee7748110bda690ff7
     Pseudo is Ultrasoft, Zval =  1.0
     Generated by new atomic code, or converted to UPF format
     Using radial grid of  615 points,  1 beta functions with:
                l(1) =   0
     Q(r) pseudized with  8 coefficients,  rinner =    0.800

     atomic species   valence    mass     pseudopotential
        Ti1           12.00    47.86700     Ti( 1.00)
        O1             6.00    15.99900     O ( 1.00)
        N1             5.00    14.00700     N ( 1.00)
        C1             4.00    12.01100     C ( 1.00)
        H1             1.00     1.00800     H ( 1.00)

     No symmetry found

   Cartesian axes

     site n.     atom                  positions (alat units)
         1           Ti1 tau(   1) = (   0.0004258   2.9801865   6.0000000  )
         2           Ti1 tau(   2) = (   3.2906075   1.4906267   6.0002472  )
         3           O1  tau(   3) = (   0.0006271   0.0005054   7.9858123  )
         4           O1  tau(   4) = (   3.2906025   0.0005020   7.3038282  )
         5           O1  tau(   5) = (   4.5942328   1.4918067   9.2879030  )
         6           O1  tau(   6) = (   1.9868534   1.4903216   9.2879459  )
         7           Ti1 tau(   7) = (   3.2907910   2.8959150   9.1758416  )
         8           Ti1 tau(   8) = (   0.0015273   1.4827037   9.2680791  )
         9           O1  tau(   9) = (   3.2912281   5.9459940  11.3193265  )
        10           O1  tau(  10) = (   0.0116148   5.9584955  10.6183126  )
        11           O1  tau(  11) = (   1.3103257   1.4650607  12.6442557  )
        12           O1  tau(  12) = (   5.3047449   1.4806448  12.6312737  )
        13           Ti1 tau(  13) = (   6.5337005   3.0128982  12.6900614  )
        14           Ti1 tau(  14) = (   3.2207025   1.4698770  12.4715817  )
        15           O1  tau(  15) = (   6.5518216   5.9146589  14.6704082  )
        16           O1  tau(  16) = (   3.3240203   5.9583723  13.8895330  )
        17           O1  tau(  17) = (   4.5456974   1.5225049  16.1264218  )
        18           O1  tau(  18) = (   2.0489736   1.4727210  15.9535721  )
        19           Ti1 tau(  19) = (   3.2591190   2.9927146  15.6788090  )
        20           Ti1 tau(  20) = (   0.0289511   1.3544711  15.7732889  )
        21           O1  tau(  21) = (   3.2904802   0.0005063   4.7018136  )
        22           O1  tau(  22) = (   0.0559926   0.0451390  17.2112278  )
        23           O1  tau(  23) = (   1.3043587   1.4918075   6.0039043  )
        24           O1  tau(  24) = (   5.2767064   1.4903225   6.0039473  )
        25           Ti1 tau(  25) = (   0.0000382   5.9609847   6.0000000  )
        26           Ti1 tau(  26) = (   3.2902200   4.4714249   6.0002472  )
        27           O1  tau(  27) = (   0.0002396   2.9813036   7.9858123  )
        28           O1  tau(  28) = (   3.2902150   2.9813002   7.3038282  )
        29           O1  tau(  29) = (   4.5938453   4.4726049   9.2879030  )
        30           O1  tau(  30) = (   1.9864658   4.4711199   9.2879459  )
        31           Ti1 tau(  31) = (   3.2891106   5.8743827   9.1763621  )
        32           Ti1 tau(  32) = (   0.0006254   4.4649316   9.2693709  )
        33           O1  tau(  33) = (   3.2889932   2.9698301  11.3211337  )
        34           O1  tau(  34) = (   0.0092240   2.9805883  10.6323155  )
        35           O1  tau(  35) = (   1.3069247   4.4567274  12.6410950  )
        36           O1  tau(  36) = (   5.3013738   4.4587240  12.6283471  )
        37           Ti1 tau(  37) = (   6.5339814   0.0202798  12.5235249  )
        38           Ti1 tau(  38) = (   3.2191325   4.4512509  12.4750946  )
        39           O1  tau(  39) = (   6.5688456   2.9522374  14.7547250  )
        40           O1  tau(  40) = (   3.3031296   2.9710333  13.8824388  )
        41           O1  tau(  41) = (   4.5425837   4.4734130  15.9989242  )
        42           O1  tau(  42) = (   2.0771424   4.4889556  16.0364895  )
        43           Ti1 tau(  43) = (   3.3121389   0.0026565  15.6888161  )
        44           Ti1 tau(  44) = (   6.5128106   4.4989306  16.3061806  )
        45           O1  tau(  45) = (   3.2900926   2.9813045   4.7018136  )
        46           O1  tau(  46) = (   1.3039711   4.4726057   6.0039043  )
        47           O1  tau(  47) = (   5.2763189   4.4711207   6.0039473  )
        48           N1  tau(  48) = (   0.4628824   2.9849886  17.7976856  )
        49           C1  tau(  49) = (   1.4182946   2.9518240  18.6700831  )
        50           H1  tau(  50) = (   2.3503500   2.6458988  18.1556329  )
        51           N1  tau(  51) = (   5.7893717   3.5482605  18.2279111  )
        52           H1  tau(  52) = (   5.8942619   4.0012392  19.1265464  )
        53           H1  tau(  53) = (   5.0734348   2.8266848  18.2415795  )

     number of k points=    10  Fermi-Dirac smearing, width (Ry)=  0.0073
                       cart. coord. in units 2pi/alat
        k(    1) = (   0.0000000   0.0000000   0.0000000), wk =   0.1250000
        k(    2) = (   0.0000000   0.0419351   0.0000000), wk =   0.2500000
        k(    3) = (   0.0000000  -0.0838702   0.0000000), wk =   0.1250000
        k(    4) = (   0.0379955   0.0000049   0.0000000), wk =   0.2500000
        k(    5) = (   0.0379955   0.0419400   0.0000000), wk =   0.2500000
        k(    6) = (   0.0379955  -0.0838652   0.0000000), wk =   0.2500000
        k(    7) = (   0.0379955  -0.0419301   0.0000000), wk =   0.2500000
        k(    8) = (  -0.0759910  -0.0000099   0.0000000), wk =   0.1250000
        k(    9) = (  -0.0759910   0.0419252   0.0000000), wk =   0.2500000
        k(   10) = (  -0.0759910  -0.0838800   0.0000000), wk =   0.1250000

     Initial potential from superposition of free atoms

     starting charge  378.99916, renormalised to  395.00000

     negative rho (up, down):  1.776E-02 0.000E+00

     %%%%%%%%%%%%%%%%%%%%%%%%%%%%%%%%%%%%%%%%%%%%%%%%%%%%%%%%%%%%%%%%%%%%%%%%
     %                                                                      %
     % You are using vdW-DF, which was implemented by the Thonhauser group. %
     % Please cite the following two papers that made this development      %
     % possible and the two reviews that describe the various versions:     %
     %                                                                      %
     %   T. Thonhauser et al., PRL 115, 136402 (2015).                      %
     %   T. Thonhauser et al., PRB 76, 125112 (2007).                       %
     %   K. Berland et al., Rep. Prog. Phys. 78, 066501 (2015).             %
     %   D.C. Langreth et al., J. Phys.: Condens. Matter 21, 084203 (2009). %
     %                                                                      %
     %                                                                      %
     % If you are calculating the stress with vdW-DF, please also cite:     %
     %                                                                      %
     %   R. Sabatini et al., J. Phys.: Condens. Matter 24, 424209 (2012).   %
     %                                                                      %
     %%%%%%%%%%%%%%%%%%%%%%%%%%%%%%%%%%%%%%%%%%%%%%%%%%%%%%%%%%%%%%%%%%%%%%%%

     Adding external electric field

     Computed dipole along edir(3) :
        Dipole               -8.0612 Ry au,        -20.4894 Debye
        Dipole field         -0.0152 Ry au,

        Potential amp.        1.4102 Ry
        Total length         46.3494 bohr

     Starting wfcs are  299 atomic wfcs
  @ DRIVER MODE: Message from server: STATUS
  @ DRIVER MODE: Message from server: POSDATA
  @ DRIVER MODE: Reading and sharing cell
  @ DRIVER MODE: Reading and sharing positions
  @ DRIVER MODE: Received positions

     Self-consistent Calculation

     iteration #  1     ecut=    29.40 Ry     beta= 0.05
     Davidson diagonalization with overlap
     c_bands:  1 eigenvalues not converged
     c_bands:  1 eigenvalues not converged
     c_bands:  2 eigenvalues not converged
     c_bands:  3 eigenvalues not converged
     c_bands:  3 eigenvalues not converged
     c_bands:  2 eigenvalues not converged
     c_bands:  1 eigenvalues not converged
     ethr =  1.00E-05,  avg # of iterations = 19.2

[...]

     total energy              =   -2614.85338833 Ry
     estimated scf accuracy    <    3583.84859356 Ry

[...]

     iteration #  3     ecut=    29.40 Ry     beta= 0.05
     Davidson diagonalization with overlap
     ethr =  1.00E-02,  avg # of iterations = 14.6

[...]

     iteration # 62     ecut=    29.40 Ry     beta= 0.05
     Davidson diagonalization with overlap
     c_bands:  1 eigenvalues not converged
     c_bands:  1 eigenvalues not converged
     ethr =  8.82E-11,  avg # of iterations = 13.1

[...]

     total energy              =   -2939.00594895 Ry
     estimated scf accuracy    <       0.00000013 Ry

     iteration # 64     ecut=    29.40 Ry     beta= 0.05
     Davidson diagonalization with overlap
     ethr =  3.37E-11,  avg # of iterations = 12.0

     negative rho (up, down):  1.649E-02 0.000E+00

     Adding external electric field

     Computed dipole along edir(3) :
        Dipole                0.3046 Ry au,          0.7742 Debye
        Dipole field          0.0006 Ry au,

        Potential amp.       -0.0533 Ry
        Total length         46.3494 bohr

     End of self-consistent calculation

          k = 0.0000 0.0000 0.0000 ( 18029 PWs)   bands (ev):

   -56.1070 -56.1047 -56.0729 -56.0684 -55.9951 -55.9609 -55.9549 -55.9199
   -55.9043 -55.8701 -55.8686 -55.8343 -55.6472 -55.5860 -55.0766 -55.0425
   -32.6639 -32.5881 -32.4868 -32.4267 -32.4123 -32.4081 -32.3996 -32.3597
   -32.3471 -32.3324 -32.3067 -32.2852 -32.2791 -32.2593 -32.2523 -32.2456
   -32.2101 -32.1971 -32.1944 -32.1898 -32.1855 -32.1644 -32.1583 -32.1423
   -32.1171 -32.1028 -32.1018 -32.1010 -32.0957 -32.0922 -32.0708 -32.0441
   -32.0438 -32.0294 -32.0217 -32.0023 -31.9806 -31.9530 -31.8750 -31.8461
   -31.8017 -31.7376 -31.4833 -31.3960 -31.3735 -31.3002 -31.2137 -31.1025
   -17.9913 -16.8731 -16.5832 -16.3684 -16.2623 -16.2470 -16.1408 -15.9552
   -15.8218 -15.7938 -15.6871 -15.6806 -15.6391 -15.6272 -15.5979 -15.5747
   -15.5663 -15.5396 -15.5371 -15.5205 -15.4763 -15.4530 -15.4338 -15.3378
   -15.2980 -15.2371 -15.2159 -15.1540 -15.0318 -14.7974 -13.5790 -13.4627
   -13.3312  -8.0679  -6.3983  -4.3648  -4.2472  -4.0706  -4.0095  -3.9685
    -3.9618  -3.7195  -3.6869  -3.3278  -3.2954  -3.2761  -3.2652  -3.2540
    -3.1419  -3.0191  -2.9637  -2.9214  -2.9111  -2.9004  -2.8932  -2.8804
    -2.8544  -2.8322  -2.7291  -2.6846  -2.6532  -2.5433  -2.5250  -2.4342
    -2.4170  -2.4068  -2.3717  -2.3513  -2.3422  -2.3164  -2.3051  -2.2787
    -2.1939  -2.1453  -2.0294  -1.9655  -1.8865  -1.8515  -1.7034  -1.6601
    -1.5723  -1.5662  -1.5470  -1.5246  -1.4915  -1.4056  -1.3321  -1.2420
    -1.2003  -1.1623  -1.1266  -1.0832  -1.0021  -0.9828  -0.9655  -0.8690
    -0.8650  -0.8557  -0.8131  -0.6113  -0.5870  -0.5527  -0.5400  -0.4628
    -0.4042  -0.3877  -0.3666  -0.3187  -0.2584  -0.1952  -0.1494  -0.1344
    -0.1230  -0.1195  -0.0853  -0.0593   0.0834   0.0939   0.1881   0.2001
     0.2232   0.3493   0.5242   0.5623   0.5828   0.7037   0.8763   0.9456
     1.0474   1.1386   1.5159   1.5612   2.4090   3.0308   3.1171   3.1507
     3.1703   3.2758   3.3084   3.4782   3.4936   3.5287   3.5479

[...]

          k = 0.0380-0.0419 0.0000 ( 17876 PWs)   bands (ev):

[...]

          k =-0.0760-0.0000 0.0000 ( 17886 PWs)   bands (ev):

[...]

          k =-0.0760-0.0839 0.0000 ( 17948 PWs)   bands (ev):

   -56.0910 -56.0888 -56.0885 -56.0845 -55.9859 -55.9641 -55.9512 -55.9294
   -55.8891 -55.8848 -55.8549 -55.8482 -55.6439 -55.5891 -55.0596 -55.0594
   -32.4673 -32.4629 -32.4041 -32.4028 -32.3859 -32.3843 -32.3660 -32.3537
   -32.3347 -32.3154 -32.2919 -32.2755 -32.2495 -32.2398 -32.2393 -32.2206
   -32.2205 -32.2107 -32.2084 -32.2027 -32.2015 -32.1935 -32.1877 -32.1738
   -32.1689 -32.1508 -32.1345 -32.1317 -32.0886 -32.0866 -32.0849 -32.0809
   -32.0722 -32.0698 -32.0663 -32.0646 -32.0607 -31.9712 -31.8866 -31.8394
   -31.8050 -31.7938 -31.3863 -31.3861 -31.2962 -31.2959 -31.2570 -31.2569
   -17.9815 -16.3090 -16.2931 -16.0763 -16.0319 -16.0278 -16.0066 -15.9184
   -15.8284 -15.8092 -15.7948 -15.7774 -15.7625 -15.6823 -15.6567 -15.6342
   -15.6304 -15.6180 -15.5628 -15.5573 -15.5543 -15.5488 -15.5288 -15.4957
   -15.4132 -15.4083 -15.3976 -15.1595 -15.0941 -15.0222 -13.5648 -13.5643
   -13.3440  -8.0273  -6.3356  -4.3806  -3.6019  -3.5831  -3.3577  -3.3138
    -3.2840  -3.2750  -3.1596  -3.0574  -3.0274  -3.0147  -2.9761  -2.9580
    -2.9456  -2.9331  -2.9202  -2.9009  -2.8753  -2.8419  -2.8365  -2.7905
    -2.7735  -2.7525  -2.7350  -2.7133  -2.7123  -2.6717  -2.6660  -2.6274
    -2.5894  -2.5444  -2.4351  -2.3808  -2.3422  -2.2921  -2.2358  -2.2248
    -2.2158  -2.1620  -2.1568  -2.1239  -2.0381  -1.9628  -1.8271  -1.8051
    -1.7721  -1.7315  -1.6983  -1.6017  -1.5573  -1.5079  -1.4561  -1.4001
    -1.3882  -1.3458  -1.3087  -1.2423  -1.2254  -1.1857  -1.1646  -1.1022
    -1.0603  -1.0561  -0.9929  -0.9257  -0.8676  -0.8650  -0.8446  -0.8284
    -0.7713  -0.7234  -0.6566  -0.6075  -0.5658  -0.4691  -0.4120  -0.2958
    -0.1873  -0.0684   0.0028   0.0065   0.0622   0.1395   0.1848   0.2200
     0.2302   0.2480   0.3401   0.4118   0.4311   0.4447   0.5112   0.6976
     1.3103   1.3115   1.3805   1.3813   2.4058   3.3189   3.3570   3.3713
     3.4024   3.5477   3.5504   3.5627   3.5663   3.6846   3.7277

     the Fermi energy is     3.0279 ev

!    total energy              =   -2939.00598121 Ry
     estimated scf accuracy    <       0.00000007 Ry
     smearing contrib. (-TS)   =      -0.02201559 Ry
     internal energy E=F+TS    =   -2938.98396562 Ry

     The total energy is F=E-TS. E is the sum of the following terms:
     one-electron contribution =  -24453.27074218 Ry
     hartree contribution      =   12311.69887900 Ry
     xc contribution           =    -485.13690671 Ry
     ewald contribution        =    9687.72462918 Ry
     electric field correction =       0.00017509 Ry

     convergence has been achieved in  64 iterations

     Forces acting on atoms (cartesian axes, Ry/au):

     atom    1 type  1   force =     0.00018643   -0.00028717    0.09690691
     atom    2 type  1   force =     0.00006394   -0.00079403   -0.17497948
     atom    3 type  2   force =     0.00014721   -0.00008694   -0.02552269
     atom    4 type  2   force =    -0.00003349   -0.00142596    0.05153513
     atom    5 type  2   force =    -0.01204944   -0.00173240    0.00279054
     atom    6 type  2   force =     0.01346717   -0.00134086    0.00223073
     atom    7 type  1   force =     0.00040582    0.00015859   -0.01208258
     atom    8 type  1   force =     0.00019280    0.02419582    0.02896680
     atom    9 type  2   force =    -0.00004242    0.00052339   -0.00006543
     atom   10 type  2   force =    -0.00266335    0.00014712   -0.01165472
     atom   11 type  2   force =    -0.00002751    0.00027613    0.00004510
     atom   12 type  2   force =    -0.00025402   -0.00000969    0.00014297
     atom   13 type  1   force =    -0.00012497    0.00114336   -0.00015068
     atom   14 type  1   force =    -0.00000355    0.00050181    0.00002116
     atom   15 type  2   force =     0.00010256   -0.00010536   -0.00005111
     atom   16 type  2   force =    -0.00021219    0.00023350   -0.00028528
     atom   17 type  2   force =     0.00036873    0.00019980   -0.00031903
     atom   18 type  2   force =    -0.00024891    0.00009959   -0.00010783
     atom   19 type  1   force =    -0.00018617   -0.00018051   -0.00059012
     atom   20 type  1   force =     0.00021219    0.00001600   -0.00019645
     atom   21 type  2   force =     0.00006652   -0.00007252    0.10295698
     atom   22 type  2   force =     0.00001979   -0.00020431   -0.00028194
     atom   23 type  2   force =    -0.07168042   -0.00017632   -0.02790755
     atom   24 type  2   force =     0.07158401    0.00028229   -0.02794536
     atom   25 type  1   force =     0.00003624   -0.00025568    0.09679370
     atom   26 type  1   force =    -0.00000431   -0.00017964   -0.17514600
     atom   27 type  2   force =     0.00015593   -0.00026916   -0.02418414
     atom   28 type  2   force =     0.00001409   -0.00118015    0.05208789
     atom   29 type  2   force =    -0.01220756    0.00078190    0.00246909
     atom   30 type  2   force =     0.01350854    0.00126324    0.00187780
     atom   31 type  1   force =     0.00045247    0.00287308   -0.01396911
     atom   32 type  1   force =     0.00038893   -0.02519100    0.03045850
     atom   33 type  2   force =     0.00004156   -0.00008329   -0.00016896
     atom   34 type  2   force =    -0.00184067   -0.00050281   -0.02072397
     atom   35 type  2   force =    -0.00000057    0.00021429   -0.00005163
     atom   36 type  2   force =     0.00016343    0.00032588    0.00016437
     atom   37 type  1   force =    -0.00020891   -0.00085088   -0.00003024
     atom   38 type  1   force =     0.00008295    0.00012285   -0.00023767
     atom   39 type  2   force =     0.00007109    0.00031832   -0.00021151
     atom   40 type  2   force =    -0.00006820    0.00008540    0.00043717
     atom   41 type  2   force =     0.00045579    0.00004165   -0.00012982
     atom   42 type  2   force =    -0.00027188   -0.00005798   -0.00021188
     atom   43 type  1   force =    -0.00037271    0.00030714    0.00007159
     atom   44 type  1   force =     0.00011481   -0.00011431   -0.00000598
     atom   45 type  2   force =     0.00005482   -0.00006654    0.10297505
     atom   46 type  2   force =    -0.07171163   -0.00011439   -0.02790651
     atom   47 type  2   force =     0.07159702    0.00026370   -0.02793227
     atom   48 type  3   force =     0.00043157    0.00031870   -0.00059095
     atom   49 type  4   force =    -0.00035930    0.00010831    0.00004989
     atom   50 type  5   force =     0.00030504    0.00053273   -0.00022495
     atom   51 type  3   force =    -0.00132045   -0.00629499   -0.01216730
     atom   52 type  5   force =     0.00116810    0.00598097    0.01263306
     atom   53 type  5   force =     0.00003310    0.00026131    0.00041869

     Total force =     0.369474     Total SCF correction =     0.000777
  @ DRIVER MODE: Message from server: STATUS
  @ DRIVER MODE: Message from server: GETFORCE
  @ DRIVER MODE: Returning v,forces,stress,ensemble

     Writing output data file ./calc.save/
  @ DRIVER MODE: Message from server: EXIT
  @ DRIVE MODE: Exiting

     General routines

     Parallel routines

   This run was terminated on:   9:18:24   9Sep2021

   JOB DONE.