     Program PWSCF v.6.7GPU starts on 10Sep2021 at 12:41:18

     R & G space division:  proc/nbgrp/npool/nimage =      10
     Reading input from /storage/home/hcoda1/3/ntian30/research/carbon/CxH_vib/CH3_calc/ads_slab/CH3N2H2O_g/out_0047/pw.inp
Warning: card &CELL ignored
Warning: card   CELL_DYNAMICS='IPI', ignored
Warning: card / ignored

     Current dimensions of program PWSCF are:
     Max number of different atomic species (ntypx) = 10
     Max number of k-points (npk) =  40000
     Max angular momentum in pseudopotentials (lmaxx) =  3
     Presently no symmetry can be used with electric field

     Message from routine cell_base_init:
     DEPRECATED: use true lattice parameter, not A to a.u. conversion factor

     IMPORTANT: XC functional enforced from input :
     Exchange-correlation= BEEF-VDW
                           (   1   4  43  14   2   0   0)
     Any further DFT definition will be discarded
     Please, verify this is what you really want

  @ DRIVER MODE: Connecting to
 qe_1139763_2779714.sched-torque.pace.gatech.eduglziorex_scratch
  using UNIX socket
  @ DRIVER MODE: Message from server: STATUS
  @ DRIVER MODE: Message from server: INIT
  @ DRIVER MODE: Receiving replica           0          -1
  @ DRIVER MODE: Receiving encoded integer          25
  @ DRIVER MODE:  SCF:  T  FORCE:  T  STRESS:  F  VC:  F  ENSEMBLE:  F
  @ DRIVER MODE:  SCF:  T  FORCE:  T  STRESS:  F  VC:  F  ENSEMBLE:  F

     Using Slab Decomposition

     bravais-lattice index     =            0
     lattice parameter (alat)  =       1.8897  a.u.
     unit-cell volume          =    6658.9804 (a.u.)^3
     number of atoms/cell      =           56
     number of atomic types    =            5
     number of electrons       =       403.00
     number of Kohn-Sham states=          211
     kinetic-energy cutoff     =      29.3995  Ry
     charge density cutoff     =     293.9946  Ry
     scf convergence threshold =      7.3E-08
     mixing beta               =       0.0500
     number of iterations used =            8  plain     mixing
     Exchange-correlation= BEEF-VDW
                           (   1   4  43  14   2   0   0)

     celldm(1)=   1.889726  celldm(2)=   0.000000  celldm(3)=   0.000000
     celldm(4)=   0.000000  celldm(5)=   0.000000  celldm(6)=   0.000000

     crystal axes: (cart. coord. in units of alat)
               a(1) = (   6.579727   0.000000   0.000000 )
               a(2) = (  -0.000775   5.961596   0.000000 )
               a(3) = (   0.000000   0.000000  25.155947 )

     reciprocal axes: (cart. coord. in units 2 pi/alat)
               b(1) = (  0.151982  0.000020  0.000000 )
               b(2) = (  0.000000  0.167740  0.000000 )
               b(3) = (  0.000000  0.000000  0.039752 )

     PseudoPot. # 1 for Ti read from file:
     /storage/coda1/p-amedford6/0/shared/rich_project_chbe-medford/medford-share/data/pseudos_module/espresso/nninc/pbe/van/Ti.UPF
     MD5 check sum: 8e4df49b7f0d34bbd5052bf3f5ea0213
     Pseudo is Ultrasoft, Zval = 12.0
     Generated by new atomic code, or converted to UPF format
     Using radial grid of  851 points,  6 beta functions with:
                l(1) =   0
                l(2) =   0
                l(3) =   1
                l(4) =   1
                l(5) =   2
                l(6) =   2
     Q(r) pseudized with  8 coefficients,  rinner =    1.000   1.000   1.000
                                                       1.000   1.000

     PseudoPot. # 2 for O  read from file:
     /storage/coda1/p-amedford6/0/shared/rich_project_chbe-medford/medford-share/data/pseudos_module/espresso/nninc/pbe/van/O.UPF
     MD5 check sum: 78c19812648e8988a0fe644b0f25305e
     Pseudo is Ultrasoft, Zval =  6.0
     Generated by new atomic code, or converted to UPF format
     Using radial grid of  737 points,  4 beta functions with:
                l(1) =   0
                l(2) =   0
                l(3) =   1
                l(4) =   1
     Q(r) pseudized with  8 coefficients,  rinner =    0.800   0.800   0.800

     PseudoPot. # 3 for N  read from file:
     /storage/coda1/p-amedford6/0/shared/rich_project_chbe-medford/medford-share/data/pseudos_module/espresso/nninc/pbe/van/N.UPF
     MD5 check sum: 90d10febe142ad51ac9d5be1deb811c4
     Pseudo is Ultrasoft, Zval =  5.0
     Generated by new atomic code, or converted to UPF format
     Using radial grid of  729 points,  4 beta functions with:
                l(1) =   0
                l(2) =   0
                l(3) =   1
                l(4) =   1
     Q(r) pseudized with  8 coefficients,  rinner =    0.800   0.800   0.800

     PseudoPot. # 4 for C  read from file:
     /storage/coda1/p-amedford6/0/shared/rich_project_chbe-medford/medford-share/data/pseudos_module/espresso/nninc/pbe/van/C.UPF
     MD5 check sum: 1a69bf6b8db32088f5b2163dbdb77a27
     Pseudo is Ultrasoft, Zval =  4.0
     Generated by new atomic code, or converted to UPF format
     Using radial grid of  721 points,  4 beta functions with:
                l(1) =   0
                l(2) =   0
                l(3) =   1
                l(4) =   1
     Q(r) pseudized with  8 coefficients,  rinner =    0.800   0.800   0.800

     PseudoPot. # 5 for H  read from file:
     /storage/coda1/p-amedford6/0/shared/rich_project_chbe-medford/medford-share/data/pseudos_module/espresso/nninc/pbe/van/H.UPF
     MD5 check sum: b5ee9d7bfd3a09ee7748110bda690ff7
     Pseudo is Ultrasoft, Zval =  1.0
     Generated by new atomic code, or converted to UPF format
     Using radial grid of  615 points,  1 beta functions with:
                l(1) =   0
     Q(r) pseudized with  8 coefficients,  rinner =    0.800

     atomic species   valence    mass     pseudopotential
        Ti1           12.00    47.86700     Ti( 1.00)
        O1             6.00    15.99900     O ( 1.00)
        N1             5.00    14.00700     N ( 1.00)
        C1             4.00    12.01100     C ( 1.00)
        H1             1.00     1.00800     H ( 1.00)

     No symmetry found

   Cartesian axes

     site n.     atom                  positions (alat units)
         1           Ti1 tau(   1) = (   0.0004258   2.9801865   6.0000000  )
         2           Ti1 tau(   2) = (   3.2906075   1.4906267   6.0002472  )
         3           O1  tau(   3) = (   0.0006271   0.0005054   7.9858123  )
         4           O1  tau(   4) = (   3.2906025   0.0005020   7.3038282  )
         5           O1  tau(   5) = (   4.5942328   1.4918067   9.2879030  )
         6           O1  tau(   6) = (   1.9868534   1.4903216   9.2879459  )
         7           Ti1 tau(   7) = (   3.2907910   2.8959150   9.1758416  )
         8           Ti1 tau(   8) = (   0.0015273   1.4827037   9.2680791  )
         9           O1  tau(   9) = (   3.3002115   5.9463602  11.3460011  )
        10           O1  tau(  10) = (   0.0116148   5.9584955  10.6183126  )
        11           O1  tau(  11) = (   1.3192008   1.4768417  12.6238339  )
        12           O1  tau(  12) = (   5.3062067   1.4698383  12.6193417  )
        13           Ti1 tau(  13) = (   6.5330844   2.9444840  12.6148558  )
        14           Ti1 tau(  14) = (   3.2222230   1.4676475  12.5013840  )
        15           O1  tau(  15) = (   0.0064324   5.9471174  14.6352917  )
        16           O1  tau(  16) = (   3.3028336   5.9445487  13.9678148  )
        17           O1  tau(  17) = (   4.5628415   1.5226527  16.0793330  )
        18           O1  tau(  18) = (   2.0474444   1.5206590  16.0184434  )
        19           Ti1 tau(  19) = (   3.3141275   2.9607752  15.6908890  )
        20           Ti1 tau(  20) = (   6.5660065   1.5097775  15.7997320  )
        21           O1  tau(  21) = (   3.2904802   0.0005063   4.7018136  )
        22           O1  tau(  22) = (   0.0269361   0.0086655  17.1987262  )
        23           O1  tau(  23) = (   1.3043587   1.4918075   6.0039043  )
        24           O1  tau(  24) = (   5.2767064   1.4903225   6.0039473  )
        25           Ti1 tau(  25) = (   0.0000382   5.9609847   6.0000000  )
        26           Ti1 tau(  26) = (   3.2902200   4.4714249   6.0002472  )
        27           O1  tau(  27) = (   0.0002396   2.9813036   7.9858123  )
        28           O1  tau(  28) = (   3.2902150   2.9813002   7.3038282  )
        29           O1  tau(  29) = (   4.5938453   4.4726049   9.2879030  )
        30           O1  tau(  30) = (   1.9864658   4.4711199   9.2879459  )
        31           Ti1 tau(  31) = (   3.2891106   5.8743827   9.1763621  )
        32           Ti1 tau(  32) = (   0.0006254   4.4649316   9.2693709  )
        33           O1  tau(  33) = (   3.2944391   2.9688829  11.3444728  )
        34           O1  tau(  34) = (   0.0092240   2.9805883  10.6323155  )
        35           O1  tau(  35) = (   1.3142520   4.4635248  12.6275686  )
        36           O1  tau(  36) = (   5.3078217   4.4601700  12.6226734  )
        37           Ti1 tau(  37) = (   6.5374036   5.9186568  12.5467527  )
        38           Ti1 tau(  38) = (   3.2213306   4.4595164  12.5065882  )
        39           O1  tau(  39) = (   6.5756885   2.9534048  14.6511233  )
        40           O1  tau(  40) = (   3.3206316   2.9687378  13.8980937  )
        41           O1  tau(  41) = (   4.5543359   4.4428353  16.0905846  )
        42           O1  tau(  42) = (   2.0427057   4.4323087  16.0570365  )
        43           Ti1 tau(  43) = (   3.2570595   5.9269474  15.8069103  )
        44           Ti1 tau(  44) = (   6.5609319   4.6488967  16.0725391  )
        45           O1  tau(  45) = (   3.2900926   2.9813045   4.7018136  )
        46           O1  tau(  46) = (   1.3039711   4.4726057   6.0039043  )
        47           O1  tau(  47) = (   5.2763189   4.4711207   6.0039473  )
        48           N1  tau(  48) = (   0.2492319   2.6641403  18.6309932  )
        49           N1  tau(  49) = (   0.0782707   2.8835230  17.4382120  )
        50           C1  tau(  50) = (   0.2622466   3.8234900  19.5663878  )
        51           H1  tau(  51) = (   6.1755609   4.6233469  19.2444151  )
        52           H1  tau(  52) = (   6.5754044   3.4477461  20.5519103  )
        53           H1  tau(  53) = (   1.2857956   4.2073973  19.6006198  )
        54           O1  tau(  54) = (   3.1761146   0.0362278  18.2233714  )
        55           H1  tau(  55) = (   3.9097821   0.6076051  18.4938283  )
        56           H1  tau(  56) = (   2.3516031   0.5117379  18.4309238  )

     number of k points=    10  Fermi-Dirac smearing, width (Ry)=  0.0073
                       cart. coord. in units 2pi/alat
        k(    1) = (   0.0000000   0.0000000   0.0000000), wk =   0.1250000
        k(    2) = (   0.0000000   0.0419351   0.0000000), wk =   0.2500000
        k(    3) = (   0.0000000  -0.0838702   0.0000000), wk =   0.1250000
        k(    4) = (   0.0379955   0.0000049   0.0000000), wk =   0.2500000
        k(    5) = (   0.0379955   0.0419400   0.0000000), wk =   0.2500000
        k(    6) = (   0.0379955  -0.0838652   0.0000000), wk =   0.2500000
        k(    7) = (   0.0379955  -0.0419301   0.0000000), wk =   0.2500000
        k(    8) = (  -0.0759910  -0.0000099   0.0000000), wk =   0.1250000
        k(    9) = (  -0.0759910   0.0419252   0.0000000), wk =   0.2500000
        k(   10) = (  -0.0759910  -0.0838800   0.0000000), wk =   0.1250000

     Initial potential from superposition of free atoms

     starting charge  386.99914, renormalised to  403.00000

     negative rho (up, down):  1.449E-02 0.000E+00

     %%%%%%%%%%%%%%%%%%%%%%%%%%%%%%%%%%%%%%%%%%%%%%%%%%%%%%%%%%%%%%%%%%%%%%%%
     %                                                                      %
     % You are using vdW-DF, which was implemented by the Thonhauser group. %
     % Please cite the following two papers that made this development      %
     % possible and the two reviews that describe the various versions:     %
     %                                                                      %
     %   T. Thonhauser et al., PRL 115, 136402 (2015).                      %
     %   T. Thonhauser et al., PRB 76, 125112 (2007).                       %
     %   K. Berland et al., Rep. Prog. Phys. 78, 066501 (2015).             %
     %   D.C. Langreth et al., J. Phys.: Condens. Matter 21, 084203 (2009). %
     %                                                                      %
     %                                                                      %
     % If you are calculating the stress with vdW-DF, please also cite:     %
     %                                                                      %
     %   R. Sabatini et al., J. Phys.: Condens. Matter 24, 424209 (2012).   %
     %                                                                      %
     %%%%%%%%%%%%%%%%%%%%%%%%%%%%%%%%%%%%%%%%%%%%%%%%%%%%%%%%%%%%%%%%%%%%%%%%

     Adding external electric field

     Computed dipole along edir(3) :
        Dipole              -13.2081 Ry au,        -33.5717 Debye
        Dipole field         -0.0249 Ry au,

        Potential amp.        2.3106 Ry
        Total length         46.3494 bohr

     Starting wfcs are  305 atomic wfcs
  @ DRIVER MODE: Message from server: STATUS
  @ DRIVER MODE: Message from server: POSDATA
  @ DRIVER MODE: Reading and sharing cell
  @ DRIVER MODE: Reading and sharing positions
  @ DRIVER MODE: Received positions

     Self-consistent Calculation

     iteration #  1     ecut=    29.40 Ry     beta= 0.05
     Davidson diagonalization with overlap
     c_bands:  4 eigenvalues not converged
     c_bands:  2 eigenvalues not converged
     c_bands:  2 eigenvalues not converged
     c_bands:  5 eigenvalues not converged
     c_bands:  1 eigenvalues not converged
     c_bands:  1 eigenvalues not converged
     c_bands:  4 eigenvalues not converged
     c_bands:  1 eigenvalues not converged
     c_bands:  1 eigenvalues not converged
     ethr =  1.00E-05,  avg # of iterations = 28.0

[...]

     total energy              =   -2367.58054278 Ry
     estimated scf accuracy    <    6915.87133526 Ry

     iteration #  2     ecut=    29.40 Ry     beta= 0.05
     Davidson diagonalization with overlap
     ethr =  1.00E-02,  avg # of iterations = 23.8

[...]

     iteration # 84     ecut=    29.40 Ry     beta= 0.05
     Davidson diagonalization with overlap
     c_bands:  2 eigenvalues not converged
     ethr =  5.77E-11,  avg # of iterations = 15.7

[...]

     total energy              =   -2974.00272754 Ry
     estimated scf accuracy    <       0.00000047 Ry

     iteration # 85     ecut=    29.40 Ry     beta= 0.05
     Davidson diagonalization with overlap
     ethr =  5.77E-11,  avg # of iterations = 11.6

     negative rho (up, down):  1.477E-02 0.000E+00

     Adding external electric field

     Computed dipole along edir(3) :
        Dipole                0.8868 Ry au,          2.2540 Debye
        Dipole field          0.0017 Ry au,

        Potential amp.       -0.1551 Ry
        Total length         46.3494 bohr

     End of self-consistent calculation

          k = 0.0000 0.0000 0.0000 ( 18029 PWs)   bands (ev):

   -55.6211 -55.5871 -55.5798 -55.5625 -55.5431 -55.4494 -55.4311 -55.4103
   -55.3972 -55.3962 -55.3683 -55.3624 -55.0053 -54.8650 -54.5998 -54.5658
   -32.1220 -32.1036 -31.9643 -31.9469 -31.9299 -31.9140 -31.8857 -31.8804
   -31.8640 -31.8107 -31.8045 -31.7863 -31.7733 -31.7580 -31.7420 -31.7330
   -31.7254 -31.7125 -31.7073 -31.6783 -31.6696 -31.6524 -31.6235 -31.6194
   -31.6037 -31.6010 -31.6005 -31.5951 -31.5710 -31.5669 -31.5635 -31.5586
   -31.5488 -31.5447 -31.5377 -31.5111 -31.5079 -31.2756 -31.2009 -31.1254
   -31.1082 -31.0740 -31.0070 -30.9184 -30.8960 -30.8236 -30.7371 -30.6262
   -18.8778 -18.3063 -16.3132 -16.0846 -15.8553 -15.7673 -15.7187 -15.5192
   -15.4171 -15.3446 -15.2223 -15.1592 -15.1475 -15.1330 -15.1145 -15.1126
   -15.0598 -15.0531 -15.0493 -15.0412 -15.0080 -14.9674 -14.9524 -14.9421
   -14.8481 -14.7750 -14.7575 -14.7339 -14.6882 -14.6716 -14.1987 -13.1021
   -12.9857 -11.2541  -6.8719  -6.6609  -4.2006  -3.8408  -3.7969  -3.6857
    -3.5584  -3.5250  -3.4430  -3.3697  -3.2328  -3.1958  -3.0351  -2.8487
    -2.7881  -2.7616  -2.7092  -2.6423  -2.5288  -2.4695  -2.4248  -2.4182
    -2.4006  -2.3929  -2.3691  -2.3565  -2.2553  -2.2338  -2.1553  -2.1509
    -2.0996  -1.9827  -1.9680  -1.9331  -1.9202  -1.8969  -1.8751  -1.8550
    -1.8442  -1.8202  -1.7695  -1.7008  -1.6329  -1.5970  -1.5103  -1.4413
    -1.3996  -1.3536  -1.2310  -1.1382  -1.1041  -1.0625  -1.0549  -1.0418
    -1.0129  -0.9955  -0.8825  -0.7685  -0.7516  -0.6863  -0.6262  -0.5452
    -0.5176  -0.4387  -0.3847  -0.3664  -0.3628  -0.3175  -0.2875  -0.2285
    -0.0946  -0.0431  -0.0094   0.0001   0.0587   0.1024   0.1312   0.2186
     0.2249   0.2701   0.3083   0.3408   0.3540   0.3690   0.3873   0.4170
     0.4318   0.6231   0.6596   0.6986   0.7363   0.7790   0.9175   0.9416
     1.0401   1.1491   1.3486   1.4223   1.5271   1.6145   1.9938   2.0396
     2.7444   3.5141   3.6013   3.6462   3.6751   3.7589   3.7727   3.9688
     3.9849   4.0237   4.1568

[...]

          k = 0.0380-0.0419 0.0000 ( 17876 PWs)   bands (ev):

[...]

          k =-0.0760-0.0000 0.0000 ( 17886 PWs)   bands (ev):

[...]

          k =-0.0760-0.0839 0.0000 ( 17948 PWs)   bands (ev):

   -55.6046 -55.6035 -55.5656 -55.5610 -55.5570 -55.4391 -55.4207 -55.4147
   -55.4129 -55.3811 -55.3777 -55.3697 -55.0034 -54.8668 -54.5828 -54.5826
   -31.9356 -31.9194 -31.9192 -31.9185 -31.8999 -31.8989 -31.8498 -31.8434
   -31.8226 -31.7972 -31.7850 -31.7759 -31.7719 -31.7335 -31.7292 -31.7273
   -31.7241 -31.7230 -31.7209 -31.7181 -31.7155 -31.7100 -31.6740 -31.6563
   -31.6377 -31.6335 -31.6261 -31.6141 -31.6136 -31.6107 -31.6051 -31.5957
   -31.5922 -31.5815 -31.5806 -31.5727 -31.4223 -31.2775 -31.2169 -31.1642
   -31.1266 -31.1005 -30.9088 -30.9086 -30.8199 -30.8197 -30.7805 -30.7804
   -18.8767 -18.3026 -15.7718 -15.6613 -15.5705 -15.5363 -15.4789 -15.4099
   -15.4021 -15.3153 -15.2992 -15.2962 -15.2308 -15.2099 -15.1728 -15.1657
   -15.1428 -15.1274 -15.1207 -15.0710 -15.0592 -15.0561 -15.0492 -15.0445
   -14.9685 -14.9377 -14.9338 -14.9252 -14.7974 -14.6729 -14.3703 -13.0876
   -13.0874 -11.2517  -6.9005  -6.6367  -4.1263  -3.8724  -3.7596  -3.2085
    -3.0543  -2.8399  -2.8216  -2.7259  -2.7138  -2.6794  -2.5485  -2.5078
    -2.4669  -2.4506  -2.4315  -2.4300  -2.4130  -2.4073  -2.3863  -2.3605
    -2.3364  -2.3161  -2.2869  -2.2835  -2.2706  -2.2576  -2.2344  -2.2221
    -2.2062  -2.1751  -2.1496  -2.1337  -2.0657  -1.9946  -1.8341  -1.7959
    -1.7564  -1.7503  -1.7336  -1.7030  -1.6869  -1.6690  -1.6221  -1.5861
    -1.5009  -1.3598  -1.3403  -1.3163  -1.2955  -1.2844  -1.2124  -1.1040
    -1.0850  -1.0137  -1.0054  -0.8990  -0.8912  -0.8059  -0.7975  -0.7870
    -0.7125  -0.6855  -0.6705  -0.5815  -0.5793  -0.5553  -0.5058  -0.4787
    -0.4145  -0.3719  -0.3412  -0.3379  -0.2920  -0.2698  -0.2257  -0.1598
    -0.1061  -0.0700   0.0266   0.1309   0.2316   0.3469   0.4620   0.4759
     0.5575   0.5914   0.6760   0.6921   0.7005   0.7725   0.7774   0.8759
     0.9211   0.9356   0.9760   1.0986   1.7856   1.7870   1.8592   1.8594
     2.7687   3.7316   3.8513   3.8934   3.9112   3.9858   4.0283   4.0477
     4.0501   4.0843   4.1908

     the Fermi energy is     3.5129 ev

!    total energy              =   -2974.00274187 Ry
     estimated scf accuracy    <       0.00000004 Ry
     smearing contrib. (-TS)   =      -0.02182455 Ry
     internal energy E=F+TS    =   -2973.98091731 Ry

     The total energy is F=E-TS. E is the sum of the following terms:
     one-electron contribution =  -23848.47246647 Ry
     hartree contribution      =   12018.63142263 Ry
     xc contribution           =    -494.03151024 Ry
     ewald contribution        =    9349.89015272 Ry
     electric field correction =       0.00148404 Ry

     convergence has been achieved in  85 iterations

     Forces acting on atoms (cartesian axes, Ry/au):

     atom    1 type  1   force =     0.00003253   -0.00023362    0.09649164
     atom    2 type  1   force =     0.00005246   -0.00043343   -0.17542137
     atom    3 type  2   force =     0.00011534   -0.00009641   -0.02475679
     atom    4 type  2   force =     0.00004232   -0.00157673    0.05349060
     atom    5 type  2   force =    -0.01196068   -0.00100589    0.00307661
     atom    6 type  2   force =     0.01370361   -0.00064915    0.00291587
     atom    7 type  1   force =     0.00074735    0.00067740   -0.00683845
     atom    8 type  1   force =     0.00022034    0.00948766    0.02713826
     atom    9 type  2   force =    -0.00014439   -0.00006258   -0.00006922
     atom   10 type  2   force =    -0.00204709    0.00048553   -0.01821029
     atom   11 type  2   force =    -0.00057635    0.00033014    0.00011260
     atom   12 type  2   force =     0.00068504    0.00012952    0.00030540
     atom   13 type  1   force =    -0.00014888   -0.00009386   -0.00015987
     atom   14 type  1   force =    -0.00041332   -0.00016293    0.00024470
     atom   15 type  2   force =     0.00002657   -0.00060198    0.00068048
     atom   16 type  2   force =    -0.00025477   -0.00006433   -0.00039771
     atom   17 type  2   force =    -0.00025238    0.00009954   -0.00013850
     atom   18 type  2   force =     0.00002542    0.00022466   -0.00028466
     atom   19 type  1   force =    -0.00040079    0.00028655   -0.00008117
     atom   20 type  1   force =    -0.00037073    0.00003852    0.00035181
     atom   21 type  2   force =     0.00008519    0.00001591    0.10326351
     atom   22 type  2   force =     0.00010872    0.00043347    0.00004896
     atom   23 type  2   force =    -0.07145123   -0.00008899   -0.02773321
     atom   24 type  2   force =     0.07140855    0.00036494   -0.02780596
     atom   25 type  1   force =     0.00018080   -0.00033311    0.09615707
     atom   26 type  1   force =     0.00000876   -0.00038229   -0.17575793
     atom   27 type  2   force =     0.00021004   -0.00020429   -0.02374635
     atom   28 type  2   force =     0.00002479   -0.00128163    0.05295009
     atom   29 type  2   force =    -0.01219769    0.00024193    0.00290391
     atom   30 type  2   force =     0.01386126    0.00081972    0.00272261
     atom   31 type  1   force =     0.00042228    0.00343470   -0.00987048
     atom   32 type  1   force =     0.00036404   -0.01131674    0.02755394
     atom   33 type  2   force =     0.00010180    0.00014611   -0.00001315
     atom   34 type  2   force =    -0.00188259   -0.00045040   -0.02416077
     atom   35 type  2   force =     0.00041094    0.00002867   -0.00027931
     atom   36 type  2   force =    -0.00029283   -0.00006489    0.00007098
     atom   37 type  1   force =    -0.00030747   -0.00013847    0.00009518
     atom   38 type  1   force =    -0.00080362    0.00014417   -0.00050898
     atom   39 type  2   force =     0.00008453   -0.00031011   -0.00022491
     atom   40 type  2   force =     0.00020842    0.00033877    0.00047663
     atom   41 type  2   force =     0.00024534    0.00011996   -0.00030952
     atom   42 type  2   force =    -0.00044248   -0.00013534   -0.00038355
     atom   43 type  1   force =     0.00009150    0.00059690    0.00024779
     atom   44 type  1   force =    -0.00007164    0.00105667   -0.00063937
     atom   45 type  2   force =     0.00008481   -0.00002841    0.10324775
     atom   46 type  2   force =    -0.07145817   -0.00002589   -0.02774342
     atom   47 type  2   force =     0.07141645    0.00040239   -0.02780446
     atom   48 type  3   force =    -0.00037801    0.00012459   -0.00155307
     atom   49 type  3   force =    -0.00009959   -0.00043141    0.00132289
     atom   50 type  4   force =     0.00011513    0.00053896    0.00037182
     atom   51 type  5   force =     0.00111492   -0.00074086   -0.00028202
     atom   52 type  5   force =    -0.00010704    0.00013461   -0.00017131
     atom   53 type  5   force =    -0.00003349   -0.00068628    0.00015822
     atom   54 type  2   force =    -0.00388682   -0.00295666   -0.00283808
     atom   55 type  5   force =     0.00378991    0.00338826    0.00204218
     atom   56 type  5   force =    -0.00000713    0.00046640   -0.00025759

     Total force =     0.368058     Total SCF correction =     0.000514
  @ DRIVER MODE: Message from server: STATUS
  @ DRIVER MODE: Message from server: GETFORCE
  @ DRIVER MODE: Returning v,forces,stress,ensemble

     Writing output data file ./calc.save/
  @ DRIVER MODE: Message from server: EXIT
  @ DRIVE MODE: Exiting

     General routines

     Parallel routines

   This run was terminated on:  13: 3:53  10Sep2021

   JOB DONE.