     Program PWSCF v.6.7GPU starts on 18Jul2021 at  9:44:39

     R & G space division:  proc/nbgrp/npool/nimage =      16
     Reading input from /storage/home/hcoda1/3/ntian30/research/carbon/15Jul_vib/ads_slab/CH3NH2_a/out_0040/pw.inp
Warning: card &CELL ignored
Warning: card   CELL_DYNAMICS='IPI', ignored
Warning: card / ignored

     Current dimensions of program PWSCF are:
     Max number of different atomic species (ntypx) = 10
     Max number of k-points (npk) =  40000
     Max angular momentum in pseudopotentials (lmaxx) =  3
     Presently no symmetry can be used with electric field

     Message from routine cell_base_init:
     DEPRECATED: use true lattice parameter, not A to a.u. conversion factor

     IMPORTANT: XC functional enforced from input :
     Exchange-correlation= BEEF-VDW
                           (   1   4  43  14   2   0   0)
     Any further DFT definition will be discarded
     Please, verify this is what you really want

  @ DRIVER MODE: Connecting to
 qe_1139763_2351647.sched-torque.pace.gatech.edug58s2u61_scratch
  using UNIX socket
  @ DRIVER MODE: Message from server: STATUS
  @ DRIVER MODE: Message from server: INIT
  @ DRIVER MODE: Receiving replica           0          -1
  @ DRIVER MODE: Receiving encoded integer          25
  @ DRIVER MODE:  SCF:  T  FORCE:  T  STRESS:  F  VC:  F  ENSEMBLE:  F
  @ DRIVER MODE:  SCF:  T  FORCE:  T  STRESS:  F  VC:  F  ENSEMBLE:  F

     Using Slab Decomposition

     bravais-lattice index     =            0
     lattice parameter (alat)  =       1.8897  a.u.
     unit-cell volume          =    6658.9804 (a.u.)^3
     number of atoms/cell      =           54
     number of atomic types    =            5
     number of electrons       =       392.00
     number of Kohn-Sham states=          206
     kinetic-energy cutoff     =      29.3995  Ry
     charge density cutoff     =     293.9946  Ry
     scf convergence threshold =      7.3E-08
     mixing beta               =       0.0500
     number of iterations used =            8  plain     mixing
     Exchange-correlation= BEEF-VDW
                           (   1   4  43  14   2   0   0)

     celldm(1)=   1.889726  celldm(2)=   0.000000  celldm(3)=   0.000000
     celldm(4)=   0.000000  celldm(5)=   0.000000  celldm(6)=   0.000000

     crystal axes: (cart. coord. in units of alat)
               a(1) = (   6.579727   0.000000   0.000000 )
               a(2) = (  -0.000775   5.961596   0.000000 )
               a(3) = (   0.000000   0.000000  25.155947 )

     reciprocal axes: (cart. coord. in units 2 pi/alat)
               b(1) = (  0.151982  0.000020  0.000000 )
               b(2) = (  0.000000  0.167740  0.000000 )
               b(3) = (  0.000000  0.000000  0.039752 )

     PseudoPot. # 1 for Ti read from file:
     /storage/coda1/p-amedford6/0/shared/rich_project_chbe-medford/medford-share/data/pseudos_module/espresso/nninc/pbe/van/Ti.UPF
     MD5 check sum: 8e4df49b7f0d34bbd5052bf3f5ea0213
     Pseudo is Ultrasoft, Zval = 12.0
     Generated by new atomic code, or converted to UPF format
     Using radial grid of  851 points,  6 beta functions with:
                l(1) =   0
                l(2) =   0
                l(3) =   1
                l(4) =   1
                l(5) =   2
                l(6) =   2
     Q(r) pseudized with  8 coefficients,  rinner =    1.000   1.000   1.000
                                                       1.000   1.000

     PseudoPot. # 2 for O  read from file:
     /storage/coda1/p-amedford6/0/shared/rich_project_chbe-medford/medford-share/data/pseudos_module/espresso/nninc/pbe/van/O.UPF
     MD5 check sum: 78c19812648e8988a0fe644b0f25305e
     Pseudo is Ultrasoft, Zval =  6.0
     Generated by new atomic code, or converted to UPF format
     Using radial grid of  737 points,  4 beta functions with:
                l(1) =   0
                l(2) =   0
                l(3) =   1
                l(4) =   1
     Q(r) pseudized with  8 coefficients,  rinner =    0.800   0.800   0.800

     PseudoPot. # 3 for H  read from file:
     /storage/coda1/p-amedford6/0/shared/rich_project_chbe-medford/medford-share/data/pseudos_module/espresso/nninc/pbe/van/H.UPF
     MD5 check sum: b5ee9d7bfd3a09ee7748110bda690ff7
     Pseudo is Ultrasoft, Zval =  1.0
     Generated by new atomic code, or converted to UPF format
     Using radial grid of  615 points,  1 beta functions with:
                l(1) =   0
     Q(r) pseudized with  8 coefficients,  rinner =    0.800

     PseudoPot. # 4 for N  read from file:
     /storage/coda1/p-amedford6/0/shared/rich_project_chbe-medford/medford-share/data/pseudos_module/espresso/nninc/pbe/van/N.UPF
     MD5 check sum: 90d10febe142ad51ac9d5be1deb811c4
     Pseudo is Ultrasoft, Zval =  5.0
     Generated by new atomic code, or converted to UPF format
     Using radial grid of  729 points,  4 beta functions with:
                l(1) =   0
                l(2) =   0
                l(3) =   1
                l(4) =   1
     Q(r) pseudized with  8 coefficients,  rinner =    0.800   0.800   0.800

     PseudoPot. # 5 for C  read from file:
     /storage/coda1/p-amedford6/0/shared/rich_project_chbe-medford/medford-share/data/pseudos_module/espresso/nninc/pbe/van/C.UPF
     MD5 check sum: 1a69bf6b8db32088f5b2163dbdb77a27
     Pseudo is Ultrasoft, Zval =  4.0
     Generated by new atomic code, or converted to UPF format
     Using radial grid of  721 points,  4 beta functions with:
                l(1) =   0
                l(2) =   0
                l(3) =   1
                l(4) =   1
     Q(r) pseudized with  8 coefficients,  rinner =    0.800   0.800   0.800

     atomic species   valence    mass     pseudopotential
        Ti1           12.00    47.86700     Ti( 1.00)
        O1             6.00    15.99900     O ( 1.00)
        H1             1.00     1.00800     H ( 1.00)
        N1             5.00    14.00700     N ( 1.00)
        C1             4.00    12.01100     C ( 1.00)

     Starting magnetic structure
     atomic species   magnetization
        Ti1          0.000
        O1           0.000
        H1           0.000
        N1           0.000
        C1           0.025

     No symmetry found

   Cartesian axes

     site n.     atom                  positions (alat units)
         1           Ti1 tau(   1) = (   0.0004258   2.9801865   6.0000000  )
         2           Ti1 tau(   2) = (   3.2906075   1.4906267   6.0002472  )
         3           O1  tau(   3) = (   0.0006271   0.0005054   7.9858123  )
         4           O1  tau(   4) = (   3.2906025   0.0005020   7.3038282  )
         5           O1  tau(   5) = (   4.5942328   1.4918067   9.2879030  )
         6           O1  tau(   6) = (   1.9868534   1.4903216   9.2879459  )
         7           Ti1 tau(   7) = (   3.2907910   2.8959150   9.1758416  )
         8           Ti1 tau(   8) = (   0.0015273   1.4827037   9.2680791  )
         9           O1  tau(   9) = (   3.2764298   0.0032354  11.3770789  )
        10           O1  tau(  10) = (   0.0116148   5.9584955  10.6183126  )
        11           O1  tau(  11) = (   1.2747638   1.4931710  12.6971893  )
        12           O1  tau(  12) = (   5.2817712   1.4903522  12.6806618  )
        13           Ti1 tau(  13) = (   6.5676529   2.9732189  12.5062122  )
        14           Ti1 tau(  14) = (   3.2766800   1.4809802  12.5336434  )
        15           O1  tau(  15) = (   6.5470194   5.8867849  14.7036171  )
        16           O1  tau(  16) = (   3.2776651   5.9556151  14.0032320  )
        17           O1  tau(  17) = (   4.5091997   1.5331545  16.1660716  )
        18           O1  tau(  18) = (   1.9944719   1.5276542  16.1393230  )
        19           Ti1 tau(  19) = (   3.2573122   3.0077756  15.7593658  )
        20           Ti1 tau(  20) = (   6.5589466   1.3143649  15.8680718  )
        21           O1  tau(  21) = (   3.2904802   0.0005063   4.7018136  )
        22           O1  tau(  22) = (   6.5386106   0.1512346  17.2501133  )
        23           O1  tau(  23) = (   1.3043587   1.4918075   6.0039043  )
        24           O1  tau(  24) = (   5.2767064   1.4903225   6.0039473  )
        25           Ti1 tau(  25) = (   0.0000382   5.9609847   6.0000000  )
        26           Ti1 tau(  26) = (   3.2902200   4.4714249   6.0002472  )
        27           O1  tau(  27) = (   0.0002396   2.9813036   7.9858123  )
        28           O1  tau(  28) = (   3.2902150   2.9813002   7.3038282  )
        29           O1  tau(  29) = (   4.5938453   4.4726049   9.2879030  )
        30           O1  tau(  30) = (   1.9864658   4.4711199   9.2879459  )
        31           Ti1 tau(  31) = (   3.2891106   5.8743827   9.1763621  )
        32           Ti1 tau(  32) = (   0.0006254   4.4649316   9.2693709  )
        33           O1  tau(  33) = (   3.2800745   2.9703478  11.3709363  )
        34           O1  tau(  34) = (   0.0092240   2.9805883  10.6323155  )
        35           O1  tau(  35) = (   1.2777299   4.4606407  12.6608526  )
        36           O1  tau(  36) = (   5.2778393   4.4632610  12.6460003  )
        37           Ti1 tau(  37) = (   6.5690533   5.9429793  12.5031582  )
        38           Ti1 tau(  38) = (   3.2786254   4.4589551  12.5214668  )
        39           O1  tau(  39) = (   6.5354733   3.0384833  14.9766919  )
        40           O1  tau(  40) = (   3.2791638   3.0036098  13.9700814  )
        41           O1  tau(  41) = (   4.4983502   4.4848413  16.2456934  )
        42           O1  tau(  42) = (   1.9866127   4.4820094  16.2221982  )
        43           Ti1 tau(  43) = (   3.2666378   0.0261420  15.7997788  )
        44           Ti1 tau(  44) = (   6.5668271   4.5279224  16.0664899  )
        45           O1  tau(  45) = (   3.2900926   2.9813045   4.7018136  )
        46           O1  tau(  46) = (   1.3039711   4.4726057   6.0039043  )
        47           O1  tau(  47) = (   5.2763189   4.4711207   6.0039473  )
        48           H1  tau(  48) = (   5.7254277   4.1132278  18.4743583  )
        49           H1  tau(  49) = (   5.8544422   2.5125186  18.2095680  )
        50           N1  tau(  50) = (   6.3703568   3.3906518  18.1617682  )
        51           C1  tau(  51) = (   0.9530889   3.3347298  19.0741625  )
        52           H1  tau(  52) = (   1.4659278   4.2935310  19.0402106  )
        53           H1  tau(  53) = (   0.6569204   3.1189037  20.1036144  )
        54           H1  tau(  54) = (   1.6325849   2.5661260  18.7331930  )

     number of k points=    10  Fermi-Dirac smearing, width (Ry)=  0.0073
                       cart. coord. in units 2pi/alat
        k(    1) = (   0.0000000   0.0000000   0.0000000), wk =   0.0625000
        k(    2) = (   0.0000000   0.0419351   0.0000000), wk =   0.1250000
        k(    3) = (   0.0000000  -0.0838702   0.0000000), wk =   0.0625000
        k(    4) = (   0.0379955   0.0000049   0.0000000), wk =   0.1250000
        k(    5) = (   0.0379955   0.0419400   0.0000000), wk =   0.1250000
        k(    6) = (   0.0379955  -0.0838652   0.0000000), wk =   0.1250000
        k(    7) = (   0.0379955  -0.0419301   0.0000000), wk =   0.1250000
[...]
        k(   10) = (  -0.0759910  -0.0838800   0.0000000), wk =   0.0625000

     Initial potential from superposition of free atoms

     starting charge  375.99915, renormalised to  392.00000

     negative rho (up, down):  8.113E-03 8.120E-03

     %%%%%%%%%%%%%%%%%%%%%%%%%%%%%%%%%%%%%%%%%%%%%%%%%%%%%%%%%%%%%%%%%%%%%%%%
     %                                                                      %
     % You are using vdW-DF, which was implemented by the Thonhauser group. %
     % Please cite the following two papers that made this development      %
     % possible and the two reviews that describe the various versions:     %
     %                                                                      %
     %   T. Thonhauser et al., PRL 115, 136402 (2015).                      %
     %   T. Thonhauser et al., PRB 76, 125112 (2007).                       %
     %   K. Berland et al., Rep. Prog. Phys. 78, 066501 (2015).             %
     %   D.C. Langreth et al., J. Phys.: Condens. Matter 21, 084203 (2009). %
     %                                                                      %
     %                                                                      %
     % If you are calculating the stress with vdW-DF, please also cite:     %
     %                                                                      %
     %   R. Sabatini et al., J. Phys.: Condens. Matter 24, 424209 (2012).   %
     %                                                                      %
     %%%%%%%%%%%%%%%%%%%%%%%%%%%%%%%%%%%%%%%%%%%%%%%%%%%%%%%%%%%%%%%%%%%%%%%%

     Adding external electric field

     Computed dipole along edir(3) :
        Dipole               -7.5680 Ry au,        -19.2360 Debye
        Dipole field         -0.0143 Ry au,

        Potential amp.        1.3239 Ry
        Total length         46.3494 bohr

[...]

     Starting wfcs are  297 atomic wfcs
  @ DRIVER MODE: Message from server: STATUS
  @ DRIVER MODE: Message from server: POSDATA
  @ DRIVER MODE: Reading and sharing cell
  @ DRIVER MODE: Reading and sharing positions
  @ DRIVER MODE: Received positions

     Self-consistent Calculation

     iteration #  1     ecut=    29.40 Ry     beta= 0.05
     Davidson diagonalization with overlap
     c_bands:  1 eigenvalues not converged
     c_bands:  2 eigenvalues not converged
     c_bands:  1 eigenvalues not converged
     c_bands:  1 eigenvalues not converged
     c_bands:  1 eigenvalues not converged
     c_bands:  1 eigenvalues not converged
     c_bands:  1 eigenvalues not converged
     c_bands:  2 eigenvalues not converged
     c_bands:  2 eigenvalues not converged
     c_bands:  1 eigenvalues not converged
     c_bands:  1 eigenvalues not converged
     c_bands:  1 eigenvalues not converged
     ethr =  1.00E-05,  avg # of iterations = 19.6

[...]

     total energy              =   -2678.28003608 Ry
     estimated scf accuracy    <    2693.23589425 Ry

     total magnetization       =     0.00 Bohr mag/cell
     absolute magnetization    =     0.01 Bohr mag/cell

[...]

     iteration #  3     ecut=    29.40 Ry     beta= 0.05
     Davidson diagonalization with overlap
     ethr =  1.00E-02,  avg # of iterations = 14.6

[...]

     iteration # 71     ecut=    29.40 Ry     beta= 0.05
     Davidson diagonalization with overlap
     c_bands:  3 eigenvalues not converged
     c_bands:  2 eigenvalues not converged
     c_bands:  1 eigenvalues not converged
     ethr =  2.22E-11,  avg # of iterations = 12.6

[...]

     total energy              =   -2921.63341844 Ry
     estimated scf accuracy    <       0.00000008 Ry

[...]

     iteration # 72     ecut=    29.40 Ry     beta= 0.05
     Davidson diagonalization with overlap
     ethr =  2.03E-11,  avg # of iterations =  8.5

     negative rho (up, down):  8.559E-03 8.558E-03

[...]

     Adding external electric field

     Computed dipole along edir(3) :
        Dipole                1.3074 Ry au,          3.3231 Debye
        Dipole field          0.0025 Ry au,

        Potential amp.       -0.2287 Ry
        Total length         46.3494 bohr

     Magnetic moment per site  (integrated on atomic sphere of radius R)
     atom   1 (R=0.738)  charge=  8.0465  magn= -0.0011
     atom   2 (R=0.738)  charge=  8.0283  magn= -0.0002
     atom   3 (R=0.738)  charge=  5.0153  magn=  0.0002
     atom   4 (R=0.738)  charge=  5.0522  magn=  0.0001
     atom   5 (R=0.738)  charge=  5.0214  magn=  0.0000
     atom   6 (R=0.738)  charge=  5.0219  magn=  0.0000
     atom   7 (R=0.738)  charge=  8.0284  magn= -0.0001
     atom   8 (R=0.738)  charge=  8.0296  magn= -0.0012
     atom   9 (R=0.738)  charge=  5.0287  magn=  0.0000
     atom  10 (R=0.738)  charge=  5.0292  magn=  0.0000
     atom  11 (R=0.738)  charge=  5.0169  magn= -0.0000
     atom  12 (R=0.738)  charge=  5.0160  magn= -0.0000
     atom  13 (R=0.738)  charge=  8.0366  magn= -0.0001
     atom  14 (R=0.738)  charge=  8.0338  magn= -0.0006
     atom  15 (R=0.738)  charge=  5.0279  magn= -0.0000
     atom  16 (R=0.738)  charge=  5.0249  magn=  0.0003
     atom  17 (R=0.738)  charge=  5.0031  magn=  0.0003
     atom  18 (R=0.738)  charge=  5.0056  magn=  0.0003
     atom  19 (R=0.738)  charge=  8.0664  magn= -0.0046
     atom  20 (R=0.738)  charge=  8.0804  magn= -0.0009
     atom  21 (R=0.738)  charge=  4.9002  magn=  0.0003
     atom  22 (R=0.738)  charge=  4.9790  magn=  0.0002
     atom  23 (R=0.738)  charge=  5.0125  magn=  0.0001
     atom  24 (R=0.738)  charge=  5.0127  magn=  0.0001
     atom  25 (R=0.738)  charge=  8.0466  magn= -0.0011
     atom  26 (R=0.738)  charge=  8.0284  magn= -0.0002
     atom  27 (R=0.738)  charge=  5.0151  magn=  0.0002
     atom  28 (R=0.738)  charge=  5.0526  magn=  0.0001
     atom  29 (R=0.738)  charge=  5.0223  magn=  0.0000
     atom  30 (R=0.738)  charge=  5.0226  magn=  0.0000
     atom  31 (R=0.738)  charge=  8.0285  magn= -0.0001
     atom  32 (R=0.738)  charge=  8.0297  magn= -0.0012
     atom  33 (R=0.738)  charge=  5.0280  magn= -0.0000
     atom  34 (R=0.738)  charge=  5.0267  magn=  0.0000
     atom  35 (R=0.738)  charge=  5.0201  magn= -0.0000
     atom  36 (R=0.738)  charge=  5.0197  magn= -0.0000
     atom  37 (R=0.738)  charge=  8.0323  magn= -0.0002
     atom  38 (R=0.738)  charge=  8.0346  magn= -0.0007
     atom  39 (R=0.738)  charge=  5.0089  magn=  0.0001
     atom  40 (R=0.738)  charge=  5.0372  magn=  0.0003
     atom  41 (R=0.738)  charge=  5.0005  magn=  0.0004
     atom  42 (R=0.738)  charge=  5.0042  magn=  0.0004
     atom  43 (R=0.738)  charge=  8.0647  magn= -0.0046
     atom  44 (R=0.738)  charge=  8.0445  magn= -0.0020
     atom  45 (R=0.738)  charge=  4.9002  magn=  0.0002
     atom  46 (R=0.738)  charge=  5.0125  magn=  0.0001
     atom  47 (R=0.738)  charge=  5.0127  magn=  0.0001
     atom  48 (R=0.420)  charge=  0.4510  magn=  0.0000
     atom  49 (R=0.420)  charge=  0.4507  magn=  0.0000
     atom  50 (R=0.420)  charge=  1.3397  magn= -0.0000
     atom  51 (R=0.446)  charge=  0.8327  magn=  0.0000
     atom  52 (R=0.420)  charge=  0.4445  magn= -0.0000
     atom  53 (R=0.420)  charge=  0.4464  magn= -0.0000
     atom  54 (R=0.420)  charge=  0.4489  magn= -0.0000

     End of self-consistent calculation

 ------ SPIN UP ------------

          k = 0.0000 0.0000 0.0000 ( 18029 PWs)   bands (ev):

   -55.4285 -55.3912 -55.3780 -55.3506 -55.3438 -55.3073 -55.3044 -55.2729
   -55.2486 -55.2276 -55.2141 -55.2093 -55.1756 -55.0990 -54.4092 -54.3751
   -31.9964 -31.8799 -31.8709 -31.7948 -31.7404 -31.7380 -31.7289 -31.7153
   -31.6665 -31.6648 -31.6379 -31.6345 -31.6225 -31.6118 -31.5966 -31.5878
   -31.5835 -31.5726 -31.5655 -31.5451 -31.5303 -31.5284 -31.4947 -31.4923
   -31.4839 -31.4792 -31.4715 -31.4510 -31.4373 -31.4349 -31.4291 -31.4095
   -31.4081 -31.4001 -31.3982 -31.3952 -31.3622 -31.3467 -31.3372 -31.3206
   -31.3049 -31.2883 -30.8184 -30.7241 -30.7020 -30.6347 -30.5479 -30.4371
   -16.2813 -16.1566 -15.9726 -15.8221 -15.7365 -15.6274 -15.5084 -15.4899
   -15.3580 -15.2800 -15.1545 -15.1285 -15.1002 -15.0835 -15.0728 -15.0595
   -14.9737 -14.9679 -14.9520 -14.9229 -14.9222 -14.8764 -14.8673 -14.8263
   -14.8031 -14.7933 -14.6774 -14.5883 -14.5152 -14.2721 -12.9123 -12.7948
   -10.2373  -6.2802  -4.8274  -3.9656  -3.6000  -3.4485  -3.3557  -3.3262
    -3.3200  -3.1840  -3.0319  -2.8859  -2.8372  -2.8323  -2.7127  -2.6391
    -2.6284  -2.6087  -2.4560  -2.4249  -2.3763  -2.3301  -2.2882  -2.2373
    -2.2192  -2.2095  -2.1937  -2.1697  -2.1594  -2.0506  -1.9951  -1.9095
    -1.8534  -1.8292  -1.7798  -1.7635  -1.7375  -1.7181  -1.7084  -1.6617
    -1.6362  -1.6221  -1.5688  -1.4559  -1.3508  -1.3011  -1.1818  -1.0662
    -1.0279  -1.0135  -0.9639  -0.9242  -0.9128  -0.8432  -0.8055  -0.7748
    -0.7135  -0.6595  -0.5909  -0.5421  -0.4754  -0.4593  -0.4161  -0.3530
    -0.2461  -0.2102  -0.1951  -0.1671  -0.0711  -0.0389   0.0108   0.0920
     0.0974   0.1105   0.2138   0.2284   0.3002   0.3492   0.3668   0.4529
     0.4873   0.5025   0.5060   0.5325   0.5567   0.6119   0.6451   0.6729
     0.7481   0.8716   1.0941   1.1641   1.1835   1.5093   1.5185   1.6132
     1.7967   2.1892   2.2376   3.6699   3.7381   3.8164   3.8210   3.8421
     3.9070   4.1449   4.1663   4.1767   4.1793   4.2023

[...]

          k =-0.0760-0.0000 0.0000 ( 17886 PWs)   bands (ev):

[...]

 ------ SPIN DOWN ----------

[...]

          k = 0.0380-0.0419 0.0000 ( 17876 PWs)   bands (ev):

[...]

          k =-0.0760-0.0839 0.0000 ( 17948 PWs)   bands (ev):

   -55.4156 -55.4055 -55.3629 -55.3624 -55.3528 -55.3085 -55.2907 -55.2890
   -55.2394 -55.2334 -55.2293 -55.1951 -55.1942 -55.1018 -54.3928 -54.3925
   -31.8048 -31.8004 -31.7975 -31.7123 -31.6889 -31.6870 -31.6867 -31.6540
   -31.6537 -31.6370 -31.6301 -31.6278 -31.6215 -31.5960 -31.5859 -31.5700
   -31.5661 -31.5617 -31.5608 -31.5571 -31.5531 -31.5506 -31.5094 -31.5084
   -31.5047 -31.5042 -31.4981 -31.4835 -31.4826 -31.4822 -31.4798 -31.4664
   -31.4624 -31.4464 -31.4423 -31.4274 -31.4273 -31.4243 -31.3759 -31.3755
   -31.3670 -31.3118 -30.7153 -30.7150 -30.6315 -30.6313 -30.5919 -30.5918
   -16.1290 -15.7639 -15.6764 -15.6287 -15.4651 -15.4323 -15.4114 -15.3941
   -15.2637 -15.2373 -15.2129 -15.1953 -15.1730 -15.1365 -15.1309 -15.1253
   -15.0496 -15.0335 -15.0288 -15.0106 -14.9478 -14.9382 -14.9351 -14.9280
   -14.8772 -14.8736 -14.8082 -14.7814 -14.7783 -14.5613 -12.8955 -12.8954
   -10.2410  -6.2525  -4.8233  -3.9298  -2.9476  -2.9198  -2.8826  -2.8795
    -2.6809  -2.6306  -2.5968  -2.5700  -2.4810  -2.4459  -2.4228  -2.4186
    -2.3471  -2.3306  -2.3122  -2.2708  -2.2639  -2.2494  -2.2269  -2.1910
    -2.1643  -2.1552  -2.1482  -2.1259  -2.0816  -2.0680  -2.0515  -2.0272
    -2.0233  -2.0129  -1.9845  -1.9368  -1.8104  -1.8011  -1.7267  -1.6362
    -1.6313  -1.5554  -1.5393  -1.4922  -1.4752  -1.4611  -1.4195  -1.2355
    -1.1981  -1.1756  -1.1655  -1.0994  -1.0386  -1.0218  -0.9487  -0.9326
    -0.9162  -0.8078  -0.7608  -0.7494  -0.6576  -0.6472  -0.5690  -0.5097
    -0.4550  -0.4346  -0.3943  -0.3840  -0.3810  -0.3356  -0.3283  -0.2428
    -0.1985  -0.1627  -0.1491  -0.1156   0.0856   0.0912   0.1139   0.2573
     0.2893   0.4137   0.4456   0.4987   0.5746   0.6080   0.6832   0.7180
     0.8508   0.8779   0.8788   0.9508   0.9601   1.0241   1.0338   1.9702
     1.9709   2.0582   2.0585   3.8206   3.9060   3.9320   3.9718   4.0850
     4.1609   4.1838   4.2056   4.2540   4.2572   4.3178

     the Fermi energy is     3.7332 ev

!    total energy              =   -2921.63343724 Ry
     estimated scf accuracy    <       0.00000005 Ry
     smearing contrib. (-TS)   =      -0.03705162 Ry
     internal energy E=F+TS    =   -2921.59638562 Ry

     The total energy is F=E-TS. E is the sum of the following terms:
     one-electron contribution =  -23999.94921667 Ry
     hartree contribution      =   12089.12080059 Ry
     xc contribution           =    -481.74120737 Ry
     ewald contribution        =    9470.97001214 Ry
     electric field correction =       0.00322568 Ry

     total magnetization       =    -0.03 Bohr mag/cell
     absolute magnetization    =     0.03 Bohr mag/cell

     convergence has been achieved in  72 iterations

     Forces acting on atoms (cartesian axes, Ry/au):

     atom    1 type  1   force =     0.00019568   -0.00022019    0.09326370
     atom    2 type  1   force =    -0.00004076   -0.00042435   -0.17829935
     atom    3 type  2   force =     0.00007995   -0.00039935   -0.02017167
     atom    4 type  2   force =     0.00001499   -0.00194765    0.05890443
     atom    5 type  2   force =    -0.01034371   -0.00094808    0.00824265
     atom    6 type  2   force =     0.01152866   -0.00018325    0.00657632
     atom    7 type  1   force =    -0.00063269    0.00208111   -0.01451175
     atom    8 type  1   force =     0.00068031   -0.00093700   -0.00515855
     atom    9 type  2   force =     0.00014076    0.00031723    0.00007913
     atom   10 type  2   force =    -0.00249339    0.00189600    0.00100041
     atom   11 type  2   force =    -0.00015490    0.00003812    0.00028127
     atom   12 type  2   force =     0.00001370    0.00030167    0.00017198
     atom   13 type  1   force =    -0.00002094    0.00006980    0.00005184
     atom   14 type  1   force =     0.00005922   -0.00003093    0.00010127
     atom   15 type  2   force =     0.00007461   -0.00018677   -0.00004009
     atom   16 type  2   force =     0.00034369    0.00000466   -0.00003671
     atom   17 type  2   force =     0.00006852   -0.00036748    0.00007335
     atom   18 type  2   force =     0.00008271    0.00002460    0.00002105
     atom   19 type  1   force =     0.00047608   -0.00004368    0.00046673
     atom   20 type  1   force =     0.00032435    0.00040854    0.00036798
     atom   21 type  2   force =     0.00014225   -0.00008888    0.10394121
     atom   22 type  2   force =     0.00011467    0.00061772    0.00050494
     atom   23 type  2   force =    -0.07032550   -0.00018796   -0.02691382
     atom   24 type  2   force =     0.07033986    0.00027427   -0.02694656
     atom   25 type  1   force =     0.00013986   -0.00019041    0.09283894
     atom   26 type  1   force =    -0.00005469   -0.00052768   -0.17831942
     atom   27 type  2   force =     0.00011736   -0.00026007   -0.01924947
     atom   28 type  2   force =     0.00008643   -0.00170955    0.05821774
     atom   29 type  2   force =    -0.01084444   -0.00099023    0.00881656
     atom   30 type  2   force =     0.01195125   -0.00068178    0.00713398
     atom   31 type  1   force =    -0.00065738    0.00612311   -0.01533076
     atom   32 type  1   force =     0.00081641    0.00034998   -0.00555611
     atom   33 type  2   force =    -0.00037680   -0.00032767    0.00016818
     atom   34 type  2   force =    -0.00223872   -0.00204265   -0.00003049
     atom   35 type  2   force =    -0.00072963    0.00026498    0.00033821
     atom   36 type  2   force =     0.00075764   -0.00010153   -0.00018530
     atom   37 type  1   force =     0.00003896    0.00022314    0.00002011
     atom   38 type  1   force =    -0.00029107    0.00022975    0.00047478
     atom   39 type  2   force =    -0.00037716   -0.00007580   -0.00002778
     atom   40 type  2   force =    -0.00006383   -0.00009078    0.00033842
     atom   41 type  2   force =    -0.00028574    0.00005531   -0.00009887
     atom   42 type  2   force =     0.00045321   -0.00019786   -0.00010676
     atom   43 type  1   force =    -0.00027134    0.00001660    0.00010098
     atom   44 type  1   force =     0.00044462   -0.00007107    0.00009035
     atom   45 type  2   force =     0.00012464   -0.00010821    0.10390174
     atom   46 type  2   force =    -0.07030955   -0.00012352   -0.02686973
     atom   47 type  2   force =     0.07030494    0.00029344   -0.02690525
     atom   48 type  3   force =     0.00015002   -0.00034970    0.00009557
     atom   49 type  3   force =     0.00061431    0.00073915   -0.00096752
     atom   50 type  4   force =    -0.00060980   -0.00052294   -0.00021789
     atom   51 type  5   force =    -0.00345321    0.00737626    0.00165618
     atom   52 type  3   force =    -0.00070454    0.00022908    0.00030963
     atom   53 type  3   force =     0.00019173   -0.00019318   -0.00019391
     atom   54 type  3   force =     0.00440841   -0.00740433   -0.00241188

     Total force =     0.366461     Total SCF correction =     0.000653
  @ DRIVER MODE: Message from server: STATUS
  @ DRIVER MODE: Message from server: GETFORCE
  @ DRIVER MODE: Returning v,forces,stress,ensemble

     Writing output data file ./calc.save/
  @ DRIVER MODE: Message from server: EXIT
  @ DRIVE MODE: Exiting

     General routines

     Parallel routines

   This run was terminated on:  10:17: 5  18Jul2021

   JOB DONE.