     Program PWSCF v.6.7GPU starts on 24Sep2021 at  3: 5:53

     R & G space division:  proc/nbgrp/npool/nimage =       8
     Reading input from /storage/home/hcoda1/3/ntian30/research/carbon/CxH_vib/H2O_calc/ads_slab/CH3NNHHHHO_a/out_0040/pw.inp
Warning: card &CELL ignored
Warning: card   CELL_DYNAMICS='IPI', ignored
Warning: card / ignored

     Current dimensions of program PWSCF are:
     Max number of different atomic species (ntypx) = 10
     Max number of k-points (npk) =  40000
     Max angular momentum in pseudopotentials (lmaxx) =  3
     Presently no symmetry can be used with electric field

     Message from routine cell_base_init:
     DEPRECATED: use true lattice parameter, not A to a.u. conversion factor

     IMPORTANT: XC functional enforced from input :
     Exchange-correlation= BEEF-VDW
                           (   1   4  43  14   2   0   0)
     Any further DFT definition will be discarded
     Please, verify this is what you really want

  @ DRIVER MODE: Connecting to
 qe_1139763_2947308.sched-torque.pace.gatech.eduyq20oamt_scratch
  using UNIX socket
  @ DRIVER MODE: Message from server: STATUS
  @ DRIVER MODE: Message from server: INIT
  @ DRIVER MODE: Receiving replica           0          -1
  @ DRIVER MODE: Receiving encoded integer          25
  @ DRIVER MODE:  SCF:  T  FORCE:  T  STRESS:  F  VC:  F  ENSEMBLE:  F
  @ DRIVER MODE:  SCF:  T  FORCE:  T  STRESS:  F  VC:  F  ENSEMBLE:  F

     Using Slab Decomposition

     bravais-lattice index     =            0
     lattice parameter (alat)  =       1.8897  a.u.
     unit-cell volume          =    6658.9804 (a.u.)^3
     number of atoms/cell      =           58
     number of atomic types    =            5
     number of electrons       =       405.00
     number of Kohn-Sham states=          212
     kinetic-energy cutoff     =      29.3995  Ry
     charge density cutoff     =     293.9946  Ry
     scf convergence threshold =      7.3E-08
     mixing beta               =       0.0500
     number of iterations used =            8  plain     mixing
     Exchange-correlation= BEEF-VDW
                           (   1   4  43  14   2   0   0)

     celldm(1)=   1.889726  celldm(2)=   0.000000  celldm(3)=   0.000000
     celldm(4)=   0.000000  celldm(5)=   0.000000  celldm(6)=   0.000000

     crystal axes: (cart. coord. in units of alat)
               a(1) = (   6.579727   0.000000   0.000000 )
               a(2) = (  -0.000775   5.961596   0.000000 )
               a(3) = (   0.000000   0.000000  25.155947 )

     reciprocal axes: (cart. coord. in units 2 pi/alat)
               b(1) = (  0.151982  0.000020  0.000000 )
               b(2) = (  0.000000  0.167740  0.000000 )
               b(3) = (  0.000000  0.000000  0.039752 )

     PseudoPot. # 1 for Ti read from file:
     /storage/coda1/p-amedford6/0/shared/rich_project_chbe-medford/medford-share/data/pseudos_module/espresso/nninc/pbe/van/Ti.UPF
     MD5 check sum: 8e4df49b7f0d34bbd5052bf3f5ea0213
     Pseudo is Ultrasoft, Zval = 12.0
     Generated by new atomic code, or converted to UPF format
     Using radial grid of  851 points,  6 beta functions with:
                l(1) =   0
                l(2) =   0
                l(3) =   1
                l(4) =   1
                l(5) =   2
                l(6) =   2
     Q(r) pseudized with  8 coefficients,  rinner =    1.000   1.000   1.000
                                                       1.000   1.000

     PseudoPot. # 2 for O  read from file:
     /storage/coda1/p-amedford6/0/shared/rich_project_chbe-medford/medford-share/data/pseudos_module/espresso/nninc/pbe/van/O.UPF
     MD5 check sum: 78c19812648e8988a0fe644b0f25305e
     Pseudo is Ultrasoft, Zval =  6.0
     Generated by new atomic code, or converted to UPF format
     Using radial grid of  737 points,  4 beta functions with:
                l(1) =   0
                l(2) =   0
                l(3) =   1
                l(4) =   1
     Q(r) pseudized with  8 coefficients,  rinner =    0.800   0.800   0.800

     PseudoPot. # 3 for N  read from file:
     /storage/coda1/p-amedford6/0/shared/rich_project_chbe-medford/medford-share/data/pseudos_module/espresso/nninc/pbe/van/N.UPF
     MD5 check sum: 90d10febe142ad51ac9d5be1deb811c4
     Pseudo is Ultrasoft, Zval =  5.0
     Generated by new atomic code, or converted to UPF format
     Using radial grid of  729 points,  4 beta functions with:
                l(1) =   0
                l(2) =   0
                l(3) =   1
                l(4) =   1
     Q(r) pseudized with  8 coefficients,  rinner =    0.800   0.800   0.800

     PseudoPot. # 4 for C  read from file:
     /storage/coda1/p-amedford6/0/shared/rich_project_chbe-medford/medford-share/data/pseudos_module/espresso/nninc/pbe/van/C.UPF
     MD5 check sum: 1a69bf6b8db32088f5b2163dbdb77a27
     Pseudo is Ultrasoft, Zval =  4.0
     Generated by new atomic code, or converted to UPF format
     Using radial grid of  721 points,  4 beta functions with:
                l(1) =   0
                l(2) =   0
                l(3) =   1
                l(4) =   1
     Q(r) pseudized with  8 coefficients,  rinner =    0.800   0.800   0.800

     PseudoPot. # 5 for H  read from file:
     /storage/coda1/p-amedford6/0/shared/rich_project_chbe-medford/medford-share/data/pseudos_module/espresso/nninc/pbe/van/H.UPF
     MD5 check sum: b5ee9d7bfd3a09ee7748110bda690ff7
     Pseudo is Ultrasoft, Zval =  1.0
     Generated by new atomic code, or converted to UPF format
     Using radial grid of  615 points,  1 beta functions with:
                l(1) =   0
     Q(r) pseudized with  8 coefficients,  rinner =    0.800

     atomic species   valence    mass     pseudopotential
        Ti1           12.00    47.86700     Ti( 1.00)
        O1             6.00    15.99900     O ( 1.00)
        N1             5.00    14.00700     N ( 1.00)
        C1             4.00    12.01100     C ( 1.00)
        H1             1.00     1.00800     H ( 1.00)

     No symmetry found

   Cartesian axes

     site n.     atom                  positions (alat units)
         1           Ti1 tau(   1) = (   0.0004258   2.9801865   6.0000000  )
         2           Ti1 tau(   2) = (   3.2906075   1.4906267   6.0002472  )
         3           O1  tau(   3) = (   0.0006271   0.0005054   7.9858123  )
         4           O1  tau(   4) = (   3.2906025   0.0005020   7.3038282  )
         5           O1  tau(   5) = (   4.5942328   1.4918067   9.2879030  )
         6           O1  tau(   6) = (   1.9868534   1.4903216   9.2879459  )
         7           Ti1 tau(   7) = (   3.2907910   2.8959150   9.1758416  )
         8           Ti1 tau(   8) = (   0.0015273   1.4827037   9.2680791  )
         9           O1  tau(   9) = (   3.3066316   0.0080679  11.3583267  )
        10           O1  tau(  10) = (   0.0116148   5.9584955  10.6183126  )
        11           O1  tau(  11) = (   1.3000076   1.5005770  12.6434233  )
        12           O1  tau(  12) = (   5.3281586   1.4930334  12.6431679  )
        13           Ti1 tau(  13) = (   0.0126194   3.0144704  12.5166071  )
        14           Ti1 tau(  14) = (   3.3185830   1.5708444  12.4374219  )
        15           O1  tau(  15) = (   0.0449490   0.0685618  14.6579901  )
        16           O1  tau(  16) = (   3.3164028   5.8986079  13.9921319  )
        17           O1  tau(  17) = (   4.5763498   1.4919541  16.1892649  )
        18           O1  tau(  18) = (   2.0390356   1.5007807  16.1677599  )
        19           Ti1 tau(  19) = (   3.3152479   2.9236451  15.6986563  )
        20           Ti1 tau(  20) = (   0.0808212   1.4292116  16.0039943  )
        21           O1  tau(  21) = (   3.2904802   0.0005063   4.7018136  )
        22           O1  tau(  22) = (   0.0303022   5.8046116  17.1736243  )
        23           O1  tau(  23) = (   1.3043587   1.4918075   6.0039043  )
        24           O1  tau(  24) = (   5.2767064   1.4903225   6.0039473  )
        25           Ti1 tau(  25) = (   0.0000382   5.9609847   6.0000000  )
        26           Ti1 tau(  26) = (   3.2902200   4.4714249   6.0002472  )
        27           O1  tau(  27) = (   0.0002396   2.9813036   7.9858123  )
        28           O1  tau(  28) = (   3.2902150   2.9813002   7.3038282  )
        29           O1  tau(  29) = (   4.5938453   4.4726049   9.2879030  )
        30           O1  tau(  30) = (   1.9864658   4.4711199   9.2879459  )
        31           Ti1 tau(  31) = (   3.2891106   5.8743827   9.1763621  )
        32           Ti1 tau(  32) = (   0.0006254   4.4649316   9.2693709  )
        33           O1  tau(  33) = (   3.3101163   2.9547251  11.3177968  )
        34           O1  tau(  34) = (   0.0092240   2.9805883  10.6323155  )
        35           O1  tau(  35) = (   1.2917786   4.4638488  12.6831265  )
        36           O1  tau(  36) = (   5.3332004   4.4701953  12.6833355  )
        37           Ti1 tau(  37) = (   0.0360484   0.0435164  12.5022323  )
        38           Ti1 tau(  38) = (   3.3166134   4.6596848  12.7231989  )
        39           O1  tau(  39) = (   6.5734590   2.9070644  14.8960501  )
        40           O1  tau(  40) = (   3.3256711   2.9499323  13.9293234  )
        41           O1  tau(  41) = (   4.5718193   4.3849529  16.1598725  )
        42           O1  tau(  42) = (   2.0293811   4.3548050  16.0908550  )
        43           Ti1 tau(  43) = (   3.3839698   5.9011270  16.3477160  )
        44           Ti1 tau(  44) = (   0.0762916   4.6312412  15.8077656  )
        45           O1  tau(  45) = (   3.2900926   2.9813045   4.7018136  )
        46           O1  tau(  46) = (   1.3039711   4.4726057   6.0039043  )
        47           O1  tau(  47) = (   5.2763189   4.4711207   6.0039473  )
        48           N1  tau(  48) = (   1.0338470   3.0145746  18.8549854  )
        49           N1  tau(  49) = (   6.4614719   2.5758313  18.0922931  )
        50           C1  tau(  50) = (   0.6385090   3.7489381  20.0602371  )
        51           H1  tau(  51) = (   6.5128770   4.5633600  19.8465500  )
        52           H1  tau(  52) = (   0.1876125   3.0656416  20.7809517  )
        53           H1  tau(  53) = (   1.5398112   4.1767214  20.4987412  )
        54           H1  tau(  54) = (   5.7034478   3.2765398  18.1448723  )
        55           H1  tau(  55) = (   6.1095767   1.7263867  18.5341855  )
        56           H1  tau(  56) = (   1.5400177   3.6533120  18.2466354  )
        57           O1  tau(  57) = (   3.2295176   5.8880611  18.1942677  )
        58           H1  tau(  58) = (   2.6769533   0.6239085  18.5854980  )

     number of k points=    10  Fermi-Dirac smearing, width (Ry)=  0.0073
                       cart. coord. in units 2pi/alat
        k(    1) = (   0.0000000   0.0000000   0.0000000), wk =   0.1250000
        k(    2) = (   0.0000000   0.0419351   0.0000000), wk =   0.2500000
        k(    3) = (   0.0000000  -0.0838702   0.0000000), wk =   0.1250000
        k(    4) = (   0.0379955   0.0000049   0.0000000), wk =   0.2500000
        k(    5) = (   0.0379955   0.0419400   0.0000000), wk =   0.2500000
        k(    6) = (   0.0379955  -0.0838652   0.0000000), wk =   0.2500000
        k(    7) = (   0.0379955  -0.0419301   0.0000000), wk =   0.2500000
        k(    8) = (  -0.0759910  -0.0000099   0.0000000), wk =   0.1250000
        k(    9) = (  -0.0759910   0.0419252   0.0000000), wk =   0.2500000
        k(   10) = (  -0.0759910  -0.0838800   0.0000000), wk =   0.1250000

     Initial potential from superposition of free atoms

     starting charge  388.99913, renormalised to  405.00000

     negative rho (up, down):  1.325E-02 0.000E+00

     %%%%%%%%%%%%%%%%%%%%%%%%%%%%%%%%%%%%%%%%%%%%%%%%%%%%%%%%%%%%%%%%%%%%%%%%
     %                                                                      %
     % You are using vdW-DF, which was implemented by the Thonhauser group. %
     % Please cite the following two papers that made this development      %
     % possible and the two reviews that describe the various versions:     %
     %                                                                      %
     %   T. Thonhauser et al., PRL 115, 136402 (2015).                      %
     %   T. Thonhauser et al., PRB 76, 125112 (2007).                       %
     %   K. Berland et al., Rep. Prog. Phys. 78, 066501 (2015).             %
     %   D.C. Langreth et al., J. Phys.: Condens. Matter 21, 084203 (2009). %
     %                                                                      %
     %                                                                      %
     % If you are calculating the stress with vdW-DF, please also cite:     %
     %                                                                      %
     %   R. Sabatini et al., J. Phys.: Condens. Matter 24, 424209 (2012).   %
     %                                                                      %
     %%%%%%%%%%%%%%%%%%%%%%%%%%%%%%%%%%%%%%%%%%%%%%%%%%%%%%%%%%%%%%%%%%%%%%%%

     Adding external electric field

     Computed dipole along edir(3) :
        Dipole              -14.7651 Ry au,        -37.5293 Debye
        Dipole field         -0.0279 Ry au,

        Potential amp.        2.5829 Ry
        Total length         46.3494 bohr

     Starting wfcs are  307 atomic wfcs
  @ DRIVER MODE: Message from server: STATUS
  @ DRIVER MODE: Message from server: POSDATA
  @ DRIVER MODE: Reading and sharing cell
  @ DRIVER MODE: Reading and sharing positions
  @ DRIVER MODE: Received positions

     Self-consistent Calculation

     iteration #  1     ecut=    29.40 Ry     beta= 0.05
     Davidson diagonalization with overlap
     c_bands:  3 eigenvalues not converged
     c_bands:  4 eigenvalues not converged
     c_bands:  2 eigenvalues not converged
     c_bands:  3 eigenvalues not converged
     c_bands:  3 eigenvalues not converged
     c_bands:  3 eigenvalues not converged
     ethr =  1.00E-05,  avg # of iterations = 23.2

[...]

     total energy              =   -2204.25431411 Ry
     estimated scf accuracy    <    8785.87913032 Ry

     iteration #  2     ecut=    29.40 Ry     beta= 0.05
     Davidson diagonalization with overlap
     ethr =  1.00E-02,  avg # of iterations = 30.5

[...]

     iteration # 40     ecut=    29.40 Ry     beta= 0.05
     Davidson diagonalization with overlap
     c_bands:  1 eigenvalues not converged
     c_bands:  1 eigenvalues not converged
     c_bands:  1 eigenvalues not converged
     c_bands:  1 eigenvalues not converged
     c_bands:  1 eigenvalues not converged
     c_bands:  1 eigenvalues not converged
     ethr =  2.88E-06,  avg # of iterations = 17.6

[...]

     total energy              =   -2976.49816594 Ry
     estimated scf accuracy    <       0.00000013 Ry

     iteration # 64     ecut=    29.40 Ry     beta= 0.05
     Davidson diagonalization with overlap
     ethr =  3.24E-11,  avg # of iterations =  3.8

     negative rho (up, down):  1.443E-02 0.000E+00

     Adding external electric field

     Computed dipole along edir(3) :
        Dipole                0.9919 Ry au,          2.5212 Debye
        Dipole field          0.0019 Ry au,

        Potential amp.       -0.1735 Ry
        Total length         46.3494 bohr

     End of self-consistent calculation

          k = 0.0000 0.0000 0.0000 ( 18029 PWs)   bands (ev):

   -55.5818 -55.4986 -55.4646 -55.3639 -55.3424 -55.3263 -55.3121 -55.3059
   -55.2925 -55.2629 -55.2191 -55.0971 -55.0865 -55.0094 -54.4673 -54.4333
   -31.9832 -31.9182 -31.8776 -31.8300 -31.8284 -31.8091 -31.7986 -31.7895
   -31.7494 -31.7445 -31.7260 -31.6512 -31.6275 -31.6069 -31.6052 -31.6029
   -31.5974 -31.5853 -31.5829 -31.5562 -31.5499 -31.5244 -31.5238 -31.5122
   -31.4967 -31.4858 -31.4781 -31.4613 -31.4565 -31.4536 -31.4440 -31.4380
   -31.4343 -31.4148 -31.3730 -31.3712 -31.3009 -31.2937 -31.2799 -31.2590
   -31.2221 -31.2148 -30.8729 -30.7875 -30.7650 -30.6906 -30.6043 -30.4923
   -17.5718 -16.4000 -16.1394 -15.9769 -15.7611 -15.6758 -15.6471 -15.4546
   -15.3493 -15.2963 -15.1104 -15.0639 -15.0333 -15.0221 -15.0068 -14.9841
   -14.9644 -14.9261 -14.9177 -14.9074 -14.9018 -14.8633 -14.8408 -14.7903
   -14.7674 -14.7049 -14.6328 -14.5651 -14.5177 -14.2574 -14.2390 -12.9657
   -12.9483 -12.8494  -9.4550  -6.1370  -5.2023  -4.6301  -3.9616  -3.5040
    -3.4032  -3.3872  -3.3321  -3.2686  -3.1684  -2.9956  -2.8870  -2.8332
    -2.7324  -2.6250  -2.5702  -2.5067  -2.4792  -2.4302  -2.3972  -2.3854
    -2.3786  -2.2824  -2.2738  -2.2467  -2.2113  -2.1554  -2.1396  -2.0620
    -2.0255  -2.0170  -1.8924  -1.8800  -1.8142  -1.8099  -1.8037  -1.7700
    -1.7489  -1.7340  -1.7049  -1.6212  -1.5681  -1.4979  -1.4751  -1.4451
    -1.1858  -1.0939  -1.0565  -1.0289  -0.9308  -0.9133  -0.9004  -0.8975
    -0.8835  -0.8339  -0.7873  -0.7035  -0.5935  -0.5720  -0.5650  -0.5199
    -0.4549  -0.3727  -0.2996  -0.2701  -0.2328  -0.2194  -0.1534  -0.0759
    -0.0599  -0.0477   0.0613   0.0756   0.1579   0.2166   0.2305   0.2754
     0.3164   0.3488   0.4056   0.4420   0.4724   0.4783   0.5116   0.5560
     0.6119   0.6421   0.6701   0.7523   0.8079   0.8534   0.8810   1.0524
     1.0827   1.1407   1.1788   1.2660   1.5089   1.5592   1.5982   1.7535
     2.1255   2.1706   3.5862   3.7373   3.7524   3.8219   3.8471   3.9380
     4.0753   4.1432   4.2753   4.2852

[...]

          k = 0.0380-0.0419 0.0000 ( 17876 PWs)   bands (ev):

[...]

          k =-0.0760-0.0000 0.0000 ( 17886 PWs)   bands (ev):

[...]

          k =-0.0760-0.0839 0.0000 ( 17948 PWs)   bands (ev):

   -55.5811 -55.4816 -55.4814 -55.3626 -55.3294 -55.3188 -55.3127 -55.3094
   -55.3090 -55.2550 -55.2270 -55.0940 -55.0876 -55.0124 -54.4504 -54.4500
   -31.8656 -31.8077 -31.8031 -31.7986 -31.7985 -31.7836 -31.7751 -31.7748
   -31.7055 -31.6498 -31.6417 -31.6343 -31.6295 -31.6161 -31.6016 -31.6015
   -31.5992 -31.5991 -31.5844 -31.5743 -31.5666 -31.5581 -31.5372 -31.5187
   -31.5158 -31.5121 -31.5048 -31.5019 -31.4896 -31.4821 -31.4798 -31.4738
   -31.4687 -31.4500 -31.4442 -31.3673 -31.3557 -31.3413 -31.3029 -31.2978
   -31.2643 -31.2182 -30.7779 -30.7776 -30.6860 -30.6856 -30.6477 -30.6473
   -17.5657 -16.3859 -15.7479 -15.5696 -15.4733 -15.4668 -15.3360 -15.2704
   -15.2614 -15.2272 -15.2082 -15.1931 -15.1602 -15.1427 -15.1034 -15.0505
   -15.0172 -14.9945 -14.9830 -14.9459 -14.9334 -14.9115 -14.9041 -14.8954
   -14.8372 -14.8050 -14.7959 -14.7653 -14.5698 -14.5486 -14.3716 -12.9514
   -12.9512 -12.9499  -9.4524  -6.1224  -5.2040  -4.6400  -3.9577  -3.1692
    -2.9219  -2.7784  -2.7022  -2.5682  -2.5583  -2.5005  -2.4912  -2.4477
    -2.4392  -2.3982  -2.3441  -2.3282  -2.2850  -2.2800  -2.2493  -2.2367
    -2.2260  -2.2170  -2.1917  -2.1723  -2.1634  -2.1226  -2.1181  -2.1022
    -2.0820  -2.0662  -2.0386  -2.0275  -1.9874  -1.9480  -1.8823  -1.8090
    -1.7233  -1.6405  -1.6299  -1.6191  -1.5728  -1.5663  -1.5196  -1.5078
    -1.4606  -1.4087  -1.2953  -1.1719  -1.1325  -1.1060  -1.0740  -1.0418
    -0.9873  -0.9644  -0.9295  -0.8813  -0.8492  -0.7257  -0.7144  -0.6490
    -0.5638  -0.5309  -0.4554  -0.4422  -0.4275  -0.4114  -0.3897  -0.3729
    -0.3432  -0.3269  -0.2231  -0.1991  -0.1959  -0.1731  -0.1219  -0.0198
     0.0547   0.1372   0.2400   0.2898   0.3175   0.3510   0.4511   0.5693
     0.5944   0.6578   0.6897   0.7324   0.7997   0.8203   0.8682   0.9527
     1.0067   1.0390   1.0654   1.0702   1.1250   1.1569   1.9222   1.9307
     1.9909   1.9911   3.7998   4.0760   4.1016   4.1177   4.1549   4.1592
     4.1811   4.1954   4.2616   4.2763

     the Fermi energy is     3.6231 ev

!    total energy              =   -2976.49821380 Ry
     estimated scf accuracy    <       0.00000007 Ry
     smearing contrib. (-TS)   =      -0.01953002 Ry
     internal energy E=F+TS    =   -2976.47868378 Ry

     The total energy is F=E-TS. E is the sum of the following terms:
     one-electron contribution =  -23034.43669364 Ry
     hartree contribution      =   11613.57811700 Ry
     xc contribution           =    -495.70378759 Ry
     ewald contribution        =    8940.08182369 Ry
     electric field correction =       0.00185676 Ry

     convergence has been achieved in  64 iterations

     Forces acting on atoms (cartesian axes, Ry/au):

     atom    1 type  1   force =     0.00001342   -0.00022950    0.09405383
     atom    2 type  1   force =    -0.00016074    0.00025486   -0.17515892
     atom    3 type  2   force =     0.00007496   -0.00016464   -0.02117130
     atom    4 type  2   force =     0.00000394   -0.00104358    0.05354036
     atom    5 type  2   force =    -0.00454424   -0.00322415    0.00113928
     atom    6 type  2   force =     0.00660335   -0.00242420    0.00160544
     atom    7 type  1   force =     0.00037473    0.00457372    0.01037137
     atom    8 type  1   force =    -0.00056140    0.00198755    0.00311680
     atom    9 type  2   force =     0.00010348   -0.00050347   -0.00049277
     atom   10 type  2   force =    -0.00030886   -0.00004459   -0.01130450
     atom   11 type  2   force =    -0.00023216    0.00046452    0.00004334
     atom   12 type  2   force =    -0.00026975    0.00067948    0.00007978
     atom   13 type  1   force =     0.00061713   -0.00065458    0.00022906
     atom   14 type  1   force =    -0.00035571    0.00017484    0.00019591
     atom   15 type  2   force =    -0.00016494    0.00006748    0.00054633
     atom   16 type  2   force =     0.00004579   -0.00002534    0.00042992
     atom   17 type  2   force =    -0.00039543    0.00020125    0.00003760
     atom   18 type  2   force =     0.00002110    0.00008910    0.00024153
     atom   19 type  1   force =    -0.00007466    0.00048755   -0.00022322
     atom   20 type  1   force =    -0.00003938   -0.00000003   -0.00010666
     atom   21 type  2   force =     0.00003012   -0.00001369    0.10314420
     atom   22 type  2   force =    -0.00008169   -0.00013904   -0.00027936
     atom   23 type  2   force =    -0.07215110   -0.00020641   -0.02726942
     atom   24 type  2   force =     0.07205402    0.00023666   -0.02734726
     atom   25 type  1   force =     0.00006984   -0.00034803    0.09403230
     atom   26 type  1   force =    -0.00000242   -0.00129164   -0.17518820
     atom   27 type  2   force =     0.00015523   -0.00021458   -0.01994699
     atom   28 type  2   force =     0.00008828   -0.00111322    0.04906041
     atom   29 type  2   force =    -0.00668119    0.00152419    0.00211693
     atom   30 type  2   force =     0.00855083    0.00170242    0.00248806
     atom   31 type  1   force =     0.00049755   -0.00019571    0.00052799
     atom   32 type  1   force =    -0.00020472   -0.00145811    0.00351154
     atom   33 type  2   force =    -0.00007808    0.00000312   -0.00003498
     atom   34 type  2   force =    -0.00088723    0.00246386   -0.01151191
     atom   35 type  2   force =     0.00003683   -0.00044086    0.00048826
     atom   36 type  2   force =    -0.00053331   -0.00041708    0.00034473
     atom   37 type  1   force =     0.00036457    0.00027765    0.00001147
     atom   38 type  1   force =    -0.00037981    0.00019999    0.00029678
     atom   39 type  2   force =    -0.00050628    0.00044660    0.00048335
     atom   40 type  2   force =    -0.00002101   -0.00007256   -0.00005010
     atom   41 type  2   force =    -0.00034977   -0.00025319    0.00026761
     atom   42 type  2   force =    -0.00025224   -0.00025441   -0.00024755
     atom   43 type  1   force =    -0.00004617   -0.00030280    0.00074418
     atom   44 type  1   force =    -0.00014115    0.00012044    0.00001998
     atom   45 type  2   force =     0.00002041   -0.00001669    0.10300349
     atom   46 type  2   force =    -0.07215719   -0.00009125   -0.02726588
     atom   47 type  2   force =     0.07201185    0.00034644   -0.02730792
     atom   48 type  3   force =     0.00092776   -0.00097284   -0.00021634
     atom   49 type  3   force =    -0.00612548    0.00805327    0.00039452
     atom   50 type  4   force =     0.00048457   -0.00045557    0.00018309
     atom   51 type  5   force =    -0.00035352    0.00026144   -0.00001115
     atom   52 type  5   force =    -0.00011321   -0.00077311    0.00000604
     atom   53 type  5   force =     0.00020911   -0.00051255    0.00003075
     atom   54 type  5   force =     0.00606208   -0.00798982   -0.00104202
     atom   55 type  5   force =    -0.00114399    0.00112700    0.00065729
     atom   56 type  5   force =     0.00035840    0.00018203   -0.00036075
     atom   57 type  2   force =    -0.00022841    0.00052014   -0.00072793
     atom   58 type  5   force =    -0.00023412   -0.00059835   -0.00017842

     Total force =     0.362029     Total SCF correction =     0.000790
  @ DRIVER MODE: Message from server: STATUS
  @ DRIVER MODE: Message from server: GETFORCE
  @ DRIVER MODE: Returning v,forces,stress,ensemble

     Writing output data file ./calc.save/
  @ DRIVER MODE: Message from server: EXIT
  @ DRIVE MODE: Exiting

     General routines

     Parallel routines

   This run was terminated on:   3:29:13  24Sep2021

   JOB DONE.