     Program PWSCF v.6.7GPU starts on 23Sep2021 at  0:57:42

     R & G space division:  proc/nbgrp/npool/nimage =      10
     Reading input from /storage/home/hcoda1/3/ntian30/research/carbon/CxH_vib/H2O_calc/ads_slab/CH2NHNHO_a/out_0027/pw.inp
Warning: card &CELL ignored
Warning: card   CELL_DYNAMICS='IPI', ignored
Warning: card / ignored

     Current dimensions of program PWSCF are:
     Max number of different atomic species (ntypx) = 10
     Max number of k-points (npk) =  40000
     Max angular momentum in pseudopotentials (lmaxx) =  3
     Presently no symmetry can be used with electric field

     Message from routine cell_base_init:
     DEPRECATED: use true lattice parameter, not A to a.u. conversion factor

     IMPORTANT: XC functional enforced from input :
     Exchange-correlation= BEEF-VDW
                           (   1   4  43  14   2   0   0)
     Any further DFT definition will be discarded
     Please, verify this is what you really want

  @ DRIVER MODE: Connecting to
 qe_1139763_2937322.sched-torque.pace.gatech.edul5ci2_va_scratch
  using UNIX socket
  @ DRIVER MODE: Message from server: STATUS
  @ DRIVER MODE: Message from server: INIT
  @ DRIVER MODE: Receiving replica           0          -1
  @ DRIVER MODE: Receiving encoded integer          25
  @ DRIVER MODE:  SCF:  T  FORCE:  T  STRESS:  F  VC:  F  ENSEMBLE:  F
  @ DRIVER MODE:  SCF:  T  FORCE:  T  STRESS:  F  VC:  F  ENSEMBLE:  F

     Using Slab Decomposition

     bravais-lattice index     =            0
     lattice parameter (alat)  =       1.8897  a.u.
     unit-cell volume          =    6658.9804 (a.u.)^3
     number of atoms/cell      =           55
     number of atomic types    =            5
     number of electrons       =       402.00
     number of Kohn-Sham states=          211
     kinetic-energy cutoff     =      29.3995  Ry
     charge density cutoff     =     293.9946  Ry
     scf convergence threshold =      7.3E-08
     mixing beta               =       0.0500
     number of iterations used =            8  plain     mixing
     Exchange-correlation= BEEF-VDW
                           (   1   4  43  14   2   0   0)

     celldm(1)=   1.889726  celldm(2)=   0.000000  celldm(3)=   0.000000
     celldm(4)=   0.000000  celldm(5)=   0.000000  celldm(6)=   0.000000

     crystal axes: (cart. coord. in units of alat)
               a(1) = (   6.579727   0.000000   0.000000 )
               a(2) = (  -0.000775   5.961596   0.000000 )
               a(3) = (   0.000000   0.000000  25.155947 )

     reciprocal axes: (cart. coord. in units 2 pi/alat)
               b(1) = (  0.151982  0.000020  0.000000 )
               b(2) = (  0.000000  0.167740  0.000000 )
               b(3) = (  0.000000  0.000000  0.039752 )

     PseudoPot. # 1 for Ti read from file:
     /storage/coda1/p-amedford6/0/shared/rich_project_chbe-medford/medford-share/data/pseudos_module/espresso/nninc/pbe/van/Ti.UPF
     MD5 check sum: 8e4df49b7f0d34bbd5052bf3f5ea0213
     Pseudo is Ultrasoft, Zval = 12.0
     Generated by new atomic code, or converted to UPF format
     Using radial grid of  851 points,  6 beta functions with:
                l(1) =   0
                l(2) =   0
                l(3) =   1
                l(4) =   1
                l(5) =   2
                l(6) =   2
     Q(r) pseudized with  8 coefficients,  rinner =    1.000   1.000   1.000
                                                       1.000   1.000

     PseudoPot. # 2 for O  read from file:
     /storage/coda1/p-amedford6/0/shared/rich_project_chbe-medford/medford-share/data/pseudos_module/espresso/nninc/pbe/van/O.UPF
     MD5 check sum: 78c19812648e8988a0fe644b0f25305e
     Pseudo is Ultrasoft, Zval =  6.0
     Generated by new atomic code, or converted to UPF format
     Using radial grid of  737 points,  4 beta functions with:
                l(1) =   0
                l(2) =   0
                l(3) =   1
                l(4) =   1
     Q(r) pseudized with  8 coefficients,  rinner =    0.800   0.800   0.800

     PseudoPot. # 3 for N  read from file:
     /storage/coda1/p-amedford6/0/shared/rich_project_chbe-medford/medford-share/data/pseudos_module/espresso/nninc/pbe/van/N.UPF
     MD5 check sum: 90d10febe142ad51ac9d5be1deb811c4
     Pseudo is Ultrasoft, Zval =  5.0
     Generated by new atomic code, or converted to UPF format
     Using radial grid of  729 points,  4 beta functions with:
                l(1) =   0
                l(2) =   0
                l(3) =   1
                l(4) =   1
     Q(r) pseudized with  8 coefficients,  rinner =    0.800   0.800   0.800

     PseudoPot. # 4 for C  read from file:
     /storage/coda1/p-amedford6/0/shared/rich_project_chbe-medford/medford-share/data/pseudos_module/espresso/nninc/pbe/van/C.UPF
     MD5 check sum: 1a69bf6b8db32088f5b2163dbdb77a27
     Pseudo is Ultrasoft, Zval =  4.0
     Generated by new atomic code, or converted to UPF format
     Using radial grid of  721 points,  4 beta functions with:
                l(1) =   0
                l(2) =   0
                l(3) =   1
                l(4) =   1
     Q(r) pseudized with  8 coefficients,  rinner =    0.800   0.800   0.800

     PseudoPot. # 5 for H  read from file:
     /storage/coda1/p-amedford6/0/shared/rich_project_chbe-medford/medford-share/data/pseudos_module/espresso/nninc/pbe/van/H.UPF
     MD5 check sum: b5ee9d7bfd3a09ee7748110bda690ff7
     Pseudo is Ultrasoft, Zval =  1.0
     Generated by new atomic code, or converted to UPF format
     Using radial grid of  615 points,  1 beta functions with:
                l(1) =   0
     Q(r) pseudized with  8 coefficients,  rinner =    0.800

     atomic species   valence    mass     pseudopotential
        Ti1           12.00    47.86700     Ti( 1.00)
        O1             6.00    15.99900     O ( 1.00)
        N1             5.00    14.00700     N ( 1.00)
        C1             4.00    12.01100     C ( 1.00)
        H1             1.00     1.00800     H ( 1.00)

     No symmetry found

   Cartesian axes

     site n.     atom                  positions (alat units)
         1           Ti1 tau(   1) = (   0.0004258   2.9801865   6.0000000  )
         2           Ti1 tau(   2) = (   3.2906075   1.4906267   6.0002472  )
         3           O1  tau(   3) = (   0.0006271   0.0005054   7.9858123  )
         4           O1  tau(   4) = (   3.2906025   0.0005020   7.3038282  )
         5           O1  tau(   5) = (   4.5942328   1.4918067   9.2879030  )
         6           O1  tau(   6) = (   1.9868534   1.4903216   9.2879459  )
         7           Ti1 tau(   7) = (   3.2907910   2.8959150   9.1758416  )
         8           Ti1 tau(   8) = (   0.0015273   1.4827037   9.2680791  )
         9           O1  tau(   9) = (   3.2865774   0.0244666  11.2672233  )
        10           O1  tau(  10) = (   0.0116148   5.9584955  10.6183126  )
        11           O1  tau(  11) = (   1.2851059   1.4881214  12.6284388  )
        12           O1  tau(  12) = (   5.2821296   1.4859116  12.6239949  )
        13           Ti1 tau(  13) = (   6.5757640   3.1226837  12.6583379  )
        14           Ti1 tau(  14) = (   3.2808560   1.5553189  12.4169499  )
        15           O1  tau(  15) = (   6.5631415   0.0020138  14.6662933  )
        16           O1  tau(  16) = (   3.2768600   5.9282172  13.8639556  )
        17           O1  tau(  17) = (   4.5247100   1.5609280  15.9911388  )
        18           O1  tau(  18) = (   2.0319249   1.5505618  16.0334288  )
        19           Ti1 tau(  19) = (   3.2655126   3.0139642  15.6417618  )
        20           Ti1 tau(  20) = (   6.4701730   1.5779936  15.7979382  )
        21           O1  tau(  21) = (   3.2904802   0.0005063   4.7018136  )
        22           O1  tau(  22) = (   6.5470303   0.0764028  17.2486596  )
        23           O1  tau(  23) = (   1.3043587   1.4918075   6.0039043  )
        24           O1  tau(  24) = (   5.2767064   1.4903225   6.0039473  )
        25           Ti1 tau(  25) = (   0.0000382   5.9609847   6.0000000  )
        26           Ti1 tau(  26) = (   3.2902200   4.4714249   6.0002472  )
        27           O1  tau(  27) = (   0.0002396   2.9813036   7.9858123  )
        28           O1  tau(  28) = (   3.2902150   2.9813002   7.3038282  )
        29           O1  tau(  29) = (   4.5938453   4.4726049   9.2879030  )
        30           O1  tau(  30) = (   1.9864658   4.4711199   9.2879459  )
        31           Ti1 tau(  31) = (   3.2891106   5.8743827   9.1763621  )
        32           Ti1 tau(  32) = (   0.0006254   4.4649316   9.2693709  )
        33           O1  tau(  33) = (   3.2856154   2.9374191  11.2445503  )
        34           O1  tau(  34) = (   0.0092240   2.9805883  10.6323155  )
        35           O1  tau(  35) = (   1.2776263   4.4762221  12.6158080  )
        36           O1  tau(  36) = (   5.2889682   4.4773653  12.6103441  )
        37           Ti1 tau(  37) = (   6.5721904   0.1276321  12.6579576  )
        38           Ti1 tau(  38) = (   3.2825792   4.6513186  12.6446142  )
        39           O1  tau(  39) = (   6.5601178   2.9984380  14.6401328  )
        40           O1  tau(  40) = (   3.2784952   3.0022753  13.8540846  )
        41           O1  tau(  41) = (   4.5130724   4.4679886  16.1105769  )
        42           O1  tau(  42) = (   2.0068779   4.4712703  16.0772645  )
        43           Ti1 tau(  43) = (   3.1879138   0.0422448  16.2953621  )
        44           Ti1 tau(  44) = (   6.5239028   4.6756254  16.1574449  )
        45           O1  tau(  45) = (   3.2900926   2.9813045   4.7018136  )
        46           O1  tau(  46) = (   1.3039711   4.4726057   6.0039043  )
        47           O1  tau(  47) = (   5.2763189   4.4711207   6.0039473  )
        48           N1  tau(  48) = (   0.1470516   2.5879757  18.5611170  )
        49           N1  tau(  49) = (   6.5778558   2.9357776  17.3215245  )
        50           C1  tau(  50) = (   0.2601206   3.3452726  19.6311682  )
        51           H1  tau(  51) = (   0.3627438   2.8498571  20.5812141  )
        52           H1  tau(  52) = (   0.2464683   4.4074571  19.5160682  )
        53           H1  tau(  53) = (   0.1772712   1.5612145  18.6921905  )
        54           O1  tau(  54) = (   3.2326362   0.0923429  18.1472848  )
        55           H1  tau(  55) = (   3.6209404   5.2806276  18.5811828  )

     number of k points=    10  Fermi-Dirac smearing, width (Ry)=  0.0073
                       cart. coord. in units 2pi/alat
        k(    1) = (   0.0000000   0.0000000   0.0000000), wk =   0.1250000
        k(    2) = (   0.0000000   0.0419351   0.0000000), wk =   0.2500000
        k(    3) = (   0.0000000  -0.0838702   0.0000000), wk =   0.1250000
        k(    4) = (   0.0379955   0.0000049   0.0000000), wk =   0.2500000
        k(    5) = (   0.0379955   0.0419400   0.0000000), wk =   0.2500000
        k(    6) = (   0.0379955  -0.0838652   0.0000000), wk =   0.2500000
        k(    7) = (   0.0379955  -0.0419301   0.0000000), wk =   0.2500000
        k(    8) = (  -0.0759910  -0.0000099   0.0000000), wk =   0.1250000
        k(    9) = (  -0.0759910   0.0419252   0.0000000), wk =   0.2500000
        k(   10) = (  -0.0759910  -0.0838800   0.0000000), wk =   0.1250000

     Initial potential from superposition of free atoms

     starting charge  385.99915, renormalised to  402.00000

     negative rho (up, down):  1.462E-02 0.000E+00

     %%%%%%%%%%%%%%%%%%%%%%%%%%%%%%%%%%%%%%%%%%%%%%%%%%%%%%%%%%%%%%%%%%%%%%%%
     %                                                                      %
     % You are using vdW-DF, which was implemented by the Thonhauser group. %
     % Please cite the following two papers that made this development      %
     % possible and the two reviews that describe the various versions:     %
     %                                                                      %
     %   T. Thonhauser et al., PRL 115, 136402 (2015).                      %
     %   T. Thonhauser et al., PRB 76, 125112 (2007).                       %
     %   K. Berland et al., Rep. Prog. Phys. 78, 066501 (2015).             %
     %   D.C. Langreth et al., J. Phys.: Condens. Matter 21, 084203 (2009). %
     %                                                                      %
     %                                                                      %
     % If you are calculating the stress with vdW-DF, please also cite:     %
     %                                                                      %
     %   R. Sabatini et al., J. Phys.: Condens. Matter 24, 424209 (2012).   %
     %                                                                      %
     %%%%%%%%%%%%%%%%%%%%%%%%%%%%%%%%%%%%%%%%%%%%%%%%%%%%%%%%%%%%%%%%%%%%%%%%

     Adding external electric field

     Computed dipole along edir(3) :
        Dipole              -11.6290 Ry au,        -29.5581 Debye
        Dipole field         -0.0219 Ry au,

        Potential amp.        2.0343 Ry
        Total length         46.3494 bohr

     Starting wfcs are  304 atomic wfcs
  @ DRIVER MODE: Message from server: STATUS
  @ DRIVER MODE: Message from server: POSDATA
  @ DRIVER MODE: Reading and sharing cell
  @ DRIVER MODE: Reading and sharing positions
  @ DRIVER MODE: Received positions

     Self-consistent Calculation

     iteration #  1     ecut=    29.40 Ry     beta= 0.05
     Davidson diagonalization with overlap
     c_bands:  3 eigenvalues not converged
     c_bands:  2 eigenvalues not converged
     c_bands:  3 eigenvalues not converged
     c_bands:  4 eigenvalues not converged
     c_bands:  1 eigenvalues not converged
     c_bands:  4 eigenvalues not converged
     c_bands:  5 eigenvalues not converged
     c_bands:  5 eigenvalues not converged
     c_bands:  5 eigenvalues not converged
     ethr =  1.00E-05,  avg # of iterations = 23.9

[...]

     total energy              =   -2412.14062557 Ry
     estimated scf accuracy    <    6293.18876521 Ry

     iteration #  2     ecut=    29.40 Ry     beta= 0.05
     Davidson diagonalization with overlap
     ethr =  1.00E-02,  avg # of iterations = 23.7

[...]

     iteration # 47     ecut=    29.40 Ry     beta= 0.05
     Davidson diagonalization with overlap
     c_bands:  1 eigenvalues not converged
     ethr =  7.91E-07,  avg # of iterations =  3.8

[...]

     total energy              =   -2972.74102089 Ry
     estimated scf accuracy    <       0.00000010 Ry

     iteration # 73     ecut=    29.40 Ry     beta= 0.05
     Davidson diagonalization with overlap
     ethr =  2.49E-11,  avg # of iterations =  6.0

     negative rho (up, down):  1.521E-02 0.000E+00

     Adding external electric field

     Computed dipole along edir(3) :
        Dipole                0.6660 Ry au,          1.6927 Debye
        Dipole field          0.0013 Ry au,

        Potential amp.       -0.1165 Ry
        Total length         46.3494 bohr

     End of self-consistent calculation

          k = 0.0000 0.0000 0.0000 ( 18029 PWs)   bands (ev):

   -56.5002 -56.4666 -55.7006 -55.6666 -55.4416 -55.3852 -55.1390 -55.1074
   -55.0886 -55.0548 -55.0341 -54.9830 -54.9793 -54.7866 -54.7540 -54.6414
   -32.9239 -32.7778 -32.7498 -32.6740 -32.5834 -32.5505 -32.1840 -31.9227
   -31.9218 -31.8920 -31.8407 -31.8361 -31.8165 -31.6708 -31.6627 -31.6156
   -31.5917 -31.5878 -31.5459 -31.5133 -31.4751 -31.4607 -31.4336 -31.4092
   -31.3728 -31.3715 -31.3679 -31.3570 -31.3053 -31.2954 -31.2723 -31.2494
   -31.2309 -31.2152 -31.2137 -31.2021 -31.1833 -31.1720 -31.1570 -31.1020
   -31.0466 -31.0260 -30.9969 -30.9851 -30.9697 -30.9183 -30.8565 -30.8320
   -18.6483 -16.6349 -16.1282 -16.0788 -15.8374 -15.7752 -15.7193 -15.7151
   -15.6697 -15.4285 -15.3909 -15.3578 -15.3140 -15.2172 -15.0870 -14.9903
   -14.7986 -14.7444 -14.7424 -14.7126 -14.6876 -14.6552 -14.6300 -14.5984
   -14.5941 -14.5611 -14.5058 -14.3340 -14.2687 -14.0589 -14.0441 -13.5863
   -13.4784 -12.4123  -8.5788  -6.0079  -4.6032  -4.2010  -3.6417  -3.6079
    -3.4304  -3.3426  -3.2494  -3.1682  -3.0860  -3.0416  -2.9626  -2.9224
    -2.9060  -2.8427  -2.8175  -2.6549  -2.6285  -2.6097  -2.5212  -2.4930
    -2.3305  -2.3062  -2.2241  -2.1510  -2.1310  -2.0739  -2.0611  -2.0007
    -1.9489  -1.9316  -1.8655  -1.8595  -1.8447  -1.7317  -1.7167  -1.6803
    -1.6326  -1.5718  -1.5613  -1.5074  -1.4227  -1.4090  -1.2759  -1.1924
    -1.1482  -1.1431  -1.1070  -1.0644  -1.0171  -0.8836  -0.8730  -0.7628
    -0.7431  -0.7412  -0.6736  -0.5772  -0.5557  -0.5231  -0.4475  -0.4112
    -0.3677  -0.3167  -0.2629  -0.1412  -0.1337  -0.1171  -0.0723  -0.0303
    -0.0150   0.0599   0.1508   0.1674   0.2726   0.2889   0.3370   0.4300
     0.5113   0.5216   0.5407   0.6022   0.6446   0.6792   0.7538   0.7726
     0.8134   0.8254   0.8745   0.9331   0.9605   1.0613   1.1085   1.1276
     1.1613   1.2092   1.2883   1.3715   1.4679   1.5097   1.5413   1.8115
     2.3274   2.7827   2.9453   3.2229   3.3342   3.6451   3.7698   3.7707
     3.7813   3.9848   4.1336

[...]

          k = 0.0380-0.0419 0.0000 ( 17876 PWs)   bands (ev):

[...]

          k =-0.0760-0.0000 0.0000 ( 17886 PWs)   bands (ev):

[...]

          k =-0.0760-0.0839 0.0000 ( 17948 PWs)   bands (ev):

   -56.4836 -56.4830 -55.6865 -55.6805 -55.4359 -55.3908 -55.1378 -55.1030
   -55.0718 -55.0714 -55.0383 -54.9821 -54.9797 -54.7879 -54.7518 -54.6435
   -32.7638 -32.7633 -32.7412 -32.7407 -32.6276 -32.6270 -32.0065 -32.0017
   -31.8814 -31.8759 -31.8709 -31.8609 -31.7431 -31.7083 -31.6641 -31.6572
   -31.6172 -31.6134 -31.4444 -31.4353 -31.4223 -31.4222 -31.3824 -31.3773
   -31.3618 -31.3537 -31.3409 -31.3217 -31.3002 -31.2934 -31.2927 -31.2746
   -31.2550 -31.2550 -31.2539 -31.2396 -31.2212 -31.1869 -31.1788 -31.1488
   -31.1341 -31.0504 -31.0060 -31.0010 -30.9863 -30.9483 -30.8710 -30.8586
   -18.6446 -16.0693 -16.0040 -16.0012 -15.9409 -15.9392 -15.7065 -15.7025
   -15.4667 -15.4385 -15.2802 -15.1871 -15.1692 -15.1074 -15.0693 -15.0171
   -14.9627 -14.9336 -14.8230 -14.7856 -14.7542 -14.7165 -14.6897 -14.6697
   -14.6095 -14.5730 -14.5491 -14.4501 -14.4263 -14.1914 -14.1826 -13.5826
   -13.5823 -12.4172  -8.5814  -6.0027  -4.5602  -3.6638  -3.3338  -3.0716
    -3.0677  -3.0615  -3.0565  -3.0332  -2.8172  -2.8137  -2.6604  -2.6270
    -2.6152  -2.5899  -2.5589  -2.4552  -2.3790  -2.3622  -2.3606  -2.3564
    -2.3073  -2.2991  -2.2479  -2.1698  -2.1066  -2.0981  -2.0639  -2.0023
    -1.9432  -1.8948  -1.8903  -1.8525  -1.8294  -1.7982  -1.7790  -1.7574
    -1.7125  -1.6290  -1.5049  -1.4293  -1.3978  -1.3807  -1.3426  -1.2956
    -1.2826  -1.2707  -1.2189  -1.2042  -1.1397  -1.1101  -1.0695  -0.9732
    -0.9134  -0.8822  -0.8577  -0.7531  -0.7140  -0.6392  -0.5942  -0.5597
    -0.5240  -0.5007  -0.4392  -0.4278  -0.3459  -0.2780  -0.2508  -0.1951
    -0.1814  -0.1694  -0.1516  -0.1069  -0.0012   0.0143   0.0477   0.1464
     0.2099   0.2822   0.3004   0.3921   0.4206   0.4916   0.6070   0.6451
     0.7144   0.7784   0.8522   0.9373   0.9852   1.0304   1.1363   1.2213
     1.2366   1.2838   1.3108   1.3158   1.3171   1.3699   1.3901   1.5180
     2.1637   3.3661   3.3678   3.4246   3.4293   3.7290   3.7343   3.8404
     3.8439   4.0939   4.1150

     the Fermi energy is     2.5938 ev

!    total energy              =   -2972.74103489 Ry
     estimated scf accuracy    <       0.00000004 Ry
     smearing contrib. (-TS)   =      -0.00419404 Ry
     internal energy E=F+TS    =   -2972.73684085 Ry

     The total energy is F=E-TS. E is the sum of the following terms:
     one-electron contribution =  -23700.07824464 Ry
     hartree contribution      =   11945.33876056 Ry
     xc contribution           =    -493.12939287 Ry
     ewald contribution        =    9275.13119917 Ry
     electric field correction =       0.00083692 Ry

     convergence has been achieved in  73 iterations

     Forces acting on atoms (cartesian axes, Ry/au):

     atom    1 type  1   force =     0.00016466   -0.00043416    0.12199863
     atom    2 type  1   force =    -0.00004367    0.00028224   -0.15638081
     atom    3 type  2   force =     0.00004753   -0.00048070   -0.06054086
     atom    4 type  2   force =     0.00005207    0.00071603    0.01972973
     atom    5 type  2   force =    -0.00084255   -0.00260016   -0.01519291
     atom    6 type  2   force =     0.00219624   -0.00198525   -0.01655277
     atom    7 type  1   force =    -0.00030166   -0.00091274    0.05416648
     atom    8 type  1   force =     0.00081943    0.00108065    0.09008646
     atom    9 type  2   force =    -0.00035859   -0.00027585    0.00007312
     atom   10 type  2   force =    -0.00296037    0.00316606   -0.05930346
     atom   11 type  2   force =    -0.00025341    0.00019043    0.00005446
     atom   12 type  2   force =    -0.00022857    0.00014153   -0.00037568
     atom   13 type  1   force =    -0.00052472    0.00039919    0.00036964
     atom   14 type  1   force =     0.00006593    0.00141797   -0.00109186
     atom   15 type  2   force =    -0.00001870   -0.00064647   -0.00147252
     atom   16 type  2   force =     0.00011730    0.00068386    0.00050071
     atom   17 type  2   force =    -0.00083521   -0.00042021   -0.00011585
     atom   18 type  2   force =     0.00044988    0.00011922   -0.00032358
     atom   19 type  1   force =     0.00004149    0.00124168   -0.00012788
     atom   20 type  1   force =     0.00008969    0.00042839    0.00031763
     atom   21 type  2   force =     0.00009381   -0.00002586    0.09827890
     atom   22 type  2   force =     0.00035194   -0.00053108    0.00020873
     atom   23 type  2   force =    -0.08163220   -0.00005068   -0.03247237
     atom   24 type  2   force =     0.08161708    0.00036679   -0.03250260
     atom   25 type  1   force =     0.00002802   -0.00029152    0.12168280
     atom   26 type  1   force =     0.00002845   -0.00154512   -0.15641585
     atom   27 type  2   force =     0.00012902    0.00020948   -0.05950031
     atom   28 type  2   force =     0.00005537    0.00039043    0.01459633
     atom   29 type  2   force =    -0.00455239    0.00218086   -0.01162583
     atom   30 type  2   force =     0.00588492    0.00262761   -0.01293421
     atom   31 type  1   force =    -0.00043965   -0.00214248    0.04016556
     atom   32 type  1   force =     0.00079151   -0.00225172    0.09110900
     atom   33 type  2   force =    -0.00012482    0.00037650    0.00008936
     atom   34 type  2   force =    -0.00234952    0.00049117   -0.06881681
     atom   35 type  2   force =    -0.00022156    0.00005932    0.00026941
     atom   36 type  2   force =     0.00059830   -0.00026751    0.00003241
     atom   37 type  1   force =    -0.00002926    0.00021587   -0.00069426
     atom   38 type  1   force =     0.00013489    0.00104967   -0.00045886
     atom   39 type  2   force =    -0.00048885   -0.00119856    0.00039628
     atom   40 type  2   force =    -0.00001582    0.00044604   -0.00013107
     atom   41 type  2   force =     0.00076879   -0.00042562   -0.00001263
     atom   42 type  2   force =    -0.00057866   -0.00070771   -0.00071789
     atom   43 type  1   force =    -0.00017813   -0.00127679    0.00006321
     atom   44 type  1   force =    -0.00012110   -0.00061333    0.00052794
     atom   45 type  2   force =     0.00009563    0.00008358    0.09806115
     atom   46 type  2   force =    -0.08158566   -0.00002830   -0.03246774
     atom   47 type  2   force =     0.08157161    0.00041356   -0.03248518
     atom   48 type  3   force =     0.00020596   -0.00061988    0.00031990
     atom   49 type  3   force =    -0.00019809   -0.00138494    0.00047518
     atom   50 type  4   force =     0.00048355   -0.01305532    0.00112197
     atom   51 type  5   force =     0.00069869    0.00025729   -0.00071486
     atom   52 type  5   force =     0.00040492    0.01280149   -0.00123617
     atom   53 type  5   force =     0.00001561    0.00134015   -0.00000387
     atom   54 type  2   force =    -0.00050389    0.00102074   -0.00100877
     atom   55 type  5   force =     0.00138477   -0.00002582    0.00098246

     Total force =     0.408738     Total SCF correction =     0.000425
  @ DRIVER MODE: Message from server: STATUS
  @ DRIVER MODE: Message from server: GETFORCE
  @ DRIVER MODE: Returning v,forces,stress,ensemble

     Writing output data file ./calc.save/
  @ DRIVER MODE: Message from server: EXIT
  @ DRIVE MODE: Exiting

     General routines

     Parallel routines

   This run was terminated on:   1:16:28  23Sep2021

   JOB DONE.