     Program PWSCF v.6.7GPU starts on 25Sep2021 at 18:24:37

     R & G space division:  proc/nbgrp/npool/nimage =       8
     Reading input from /storage/home/hcoda1/3/ntian30/research/carbon/CxH_vib/H2O_calc/ads_slab/CH3N2OHHO_l/out_0008/pw.inp
Warning: card &CELL ignored
Warning: card   CELL_DYNAMICS='IPI', ignored
Warning: card / ignored

     Current dimensions of program PWSCF are:
     Max number of different atomic species (ntypx) = 10
     Max number of k-points (npk) =  40000
     Max angular momentum in pseudopotentials (lmaxx) =  3
     Presently no symmetry can be used with electric field

     Message from routine cell_base_init:
     DEPRECATED: use true lattice parameter, not A to a.u. conversion factor

     IMPORTANT: XC functional enforced from input :
     Exchange-correlation= BEEF-VDW
                           (   1   4  43  14   2   0   0)
     Any further DFT definition will be discarded
     Please, verify this is what you really want

  @ DRIVER MODE: Connecting to
 qe_1139763_2971669.sched-torque.pace.gatech.edunrcwlxug_scratch
  using UNIX socket
  @ DRIVER MODE: Message from server: STATUS
  @ DRIVER MODE: Message from server: INIT
  @ DRIVER MODE: Receiving replica           0          -1
  @ DRIVER MODE: Receiving encoded integer          25
  @ DRIVER MODE:  SCF:  T  FORCE:  T  STRESS:  F  VC:  F  ENSEMBLE:  F
  @ DRIVER MODE:  SCF:  T  FORCE:  T  STRESS:  F  VC:  F  ENSEMBLE:  F

     Using Slab Decomposition

     bravais-lattice index     =            0
     lattice parameter (alat)  =       1.8897  a.u.
     unit-cell volume          =    6658.9804 (a.u.)^3
     number of atoms/cell      =           57
     number of atomic types    =            5
     number of electrons       =       409.00
     number of Kohn-Sham states=          214
     kinetic-energy cutoff     =      29.3995  Ry
     charge density cutoff     =     293.9946  Ry
     scf convergence threshold =      7.3E-08
     mixing beta               =       0.0500
     number of iterations used =            8  plain     mixing
     Exchange-correlation= BEEF-VDW
                           (   1   4  43  14   2   0   0)

     celldm(1)=   1.889726  celldm(2)=   0.000000  celldm(3)=   0.000000
     celldm(4)=   0.000000  celldm(5)=   0.000000  celldm(6)=   0.000000

     crystal axes: (cart. coord. in units of alat)
               a(1) = (   6.579727   0.000000   0.000000 )
               a(2) = (  -0.000775   5.961596   0.000000 )
               a(3) = (   0.000000   0.000000  25.155947 )

     reciprocal axes: (cart. coord. in units 2 pi/alat)
               b(1) = (  0.151982  0.000020  0.000000 )
               b(2) = (  0.000000  0.167740  0.000000 )
               b(3) = (  0.000000  0.000000  0.039752 )

     PseudoPot. # 1 for Ti read from file:
     /storage/coda1/p-amedford6/0/shared/rich_project_chbe-medford/medford-share/data/pseudos_module/espresso/nninc/pbe/van/Ti.UPF
     MD5 check sum: 8e4df49b7f0d34bbd5052bf3f5ea0213
     Pseudo is Ultrasoft, Zval = 12.0
     Generated by new atomic code, or converted to UPF format
     Using radial grid of  851 points,  6 beta functions with:
                l(1) =   0
                l(2) =   0
                l(3) =   1
                l(4) =   1
                l(5) =   2
                l(6) =   2
     Q(r) pseudized with  8 coefficients,  rinner =    1.000   1.000   1.000
                                                       1.000   1.000

     PseudoPot. # 2 for O  read from file:
     /storage/coda1/p-amedford6/0/shared/rich_project_chbe-medford/medford-share/data/pseudos_module/espresso/nninc/pbe/van/O.UPF
     MD5 check sum: 78c19812648e8988a0fe644b0f25305e
     Pseudo is Ultrasoft, Zval =  6.0
     Generated by new atomic code, or converted to UPF format
     Using radial grid of  737 points,  4 beta functions with:
                l(1) =   0
                l(2) =   0
                l(3) =   1
                l(4) =   1
     Q(r) pseudized with  8 coefficients,  rinner =    0.800   0.800   0.800

     PseudoPot. # 3 for N  read from file:
     /storage/coda1/p-amedford6/0/shared/rich_project_chbe-medford/medford-share/data/pseudos_module/espresso/nninc/pbe/van/N.UPF
     MD5 check sum: 90d10febe142ad51ac9d5be1deb811c4
     Pseudo is Ultrasoft, Zval =  5.0
     Generated by new atomic code, or converted to UPF format
     Using radial grid of  729 points,  4 beta functions with:
                l(1) =   0
                l(2) =   0
                l(3) =   1
                l(4) =   1
     Q(r) pseudized with  8 coefficients,  rinner =    0.800   0.800   0.800

     PseudoPot. # 4 for C  read from file:
     /storage/coda1/p-amedford6/0/shared/rich_project_chbe-medford/medford-share/data/pseudos_module/espresso/nninc/pbe/van/C.UPF
     MD5 check sum: 1a69bf6b8db32088f5b2163dbdb77a27
     Pseudo is Ultrasoft, Zval =  4.0
     Generated by new atomic code, or converted to UPF format
     Using radial grid of  721 points,  4 beta functions with:
                l(1) =   0
                l(2) =   0
                l(3) =   1
                l(4) =   1
     Q(r) pseudized with  8 coefficients,  rinner =    0.800   0.800   0.800

     PseudoPot. # 5 for H  read from file:
     /storage/coda1/p-amedford6/0/shared/rich_project_chbe-medford/medford-share/data/pseudos_module/espresso/nninc/pbe/van/H.UPF
     MD5 check sum: b5ee9d7bfd3a09ee7748110bda690ff7
     Pseudo is Ultrasoft, Zval =  1.0
     Generated by new atomic code, or converted to UPF format
     Using radial grid of  615 points,  1 beta functions with:
                l(1) =   0
     Q(r) pseudized with  8 coefficients,  rinner =    0.800

     atomic species   valence    mass     pseudopotential
        Ti1           12.00    47.86700     Ti( 1.00)
        O1             6.00    15.99900     O ( 1.00)
        N1             5.00    14.00700     N ( 1.00)
        C1             4.00    12.01100     C ( 1.00)
        H1             1.00     1.00800     H ( 1.00)

     No symmetry found

   Cartesian axes

     site n.     atom                  positions (alat units)
         1           Ti1 tau(   1) = (   0.0004258   2.9801865   6.0000000  )
         2           Ti1 tau(   2) = (   3.2906075   1.4906267   6.0002472  )
         3           O1  tau(   3) = (   0.0006271   0.0005054   7.9858123  )
         4           O1  tau(   4) = (   3.2906025   0.0005020   7.3038282  )
         5           O1  tau(   5) = (   4.5942328   1.4918067   9.2879030  )
         6           O1  tau(   6) = (   1.9868534   1.4903216   9.2879459  )
         7           Ti1 tau(   7) = (   3.2907910   2.8959150   9.1758416  )
         8           Ti1 tau(   8) = (   0.0015273   1.4827037   9.2680791  )
         9           O1  tau(   9) = (   3.2779673   5.9607700  11.3423085  )
        10           O1  tau(  10) = (   0.0116148   5.9584955  10.6183126  )
        11           O1  tau(  11) = (   1.2787083   1.4818767  12.6451794  )
        12           O1  tau(  12) = (   5.2707140   1.4872516  12.6060838  )
        13           Ti1 tau(  13) = (   0.0520196   2.9452147  12.6012095  )
        14           Ti1 tau(  14) = (   3.3669591   1.4706787  12.5087448  )
        15           O1  tau(  15) = (   6.5166736   5.9505275  14.6414754  )
        16           O1  tau(  16) = (   3.3002175   0.0041348  13.9548274  )
        17           O1  tau(  17) = (   4.5235890   1.5203341  16.0633414  )
        18           O1  tau(  18) = (   1.9992342   1.5602939  15.9747780  )
        19           Ti1 tau(  19) = (   3.2541499   3.0080313  15.6961896  )
        20           Ti1 tau(  20) = (   6.5591015   1.5323982  15.7823192  )
        21           O1  tau(  21) = (   3.2904802   0.0005063   4.7018136  )
        22           O1  tau(  22) = (   0.0960927   0.0099221  17.2178370  )
        23           O1  tau(  23) = (   1.3043587   1.4918075   6.0039043  )
        24           O1  tau(  24) = (   5.2767064   1.4903225   6.0039473  )
        25           Ti1 tau(  25) = (   0.0000382   5.9609847   6.0000000  )
        26           Ti1 tau(  26) = (   3.2902200   4.4714249   6.0002472  )
        27           O1  tau(  27) = (   0.0002396   2.9813036   7.9858123  )
        28           O1  tau(  28) = (   3.2902150   2.9813002   7.3038282  )
        29           O1  tau(  29) = (   4.5938453   4.4726049   9.2879030  )
        30           O1  tau(  30) = (   1.9864658   4.4711199   9.2879459  )
        31           Ti1 tau(  31) = (   3.2891106   5.8743827   9.1763621  )
        32           Ti1 tau(  32) = (   0.0006254   4.4649316   9.2693709  )
        33           O1  tau(  33) = (   3.2807211   2.9768430  11.3440791  )
        34           O1  tau(  34) = (   0.0092240   2.9805883  10.6323155  )
        35           O1  tau(  35) = (   1.2789702   4.4681595  12.6395138  )
        36           O1  tau(  36) = (   5.2737968   4.4775610  12.6008310  )
        37           Ti1 tau(  37) = (   0.0460201   5.9176504  12.5434570  )
        38           Ti1 tau(  38) = (   3.3658678   4.4646095  12.4976877  )
        39           O1  tau(  39) = (   6.5297297   2.9761478  14.6509524  )
        40           O1  tau(  40) = (   3.3085871   2.9961499  13.9017917  )
        41           O1  tau(  41) = (   4.5138497   4.4896837  16.1272785  )
        42           O1  tau(  42) = (   1.9961282   4.4344792  16.0060688  )
        43           Ti1 tau(  43) = (   3.3116018   0.0224549  15.7990204  )
        44           Ti1 tau(  44) = (   6.5775847   4.6577750  16.0638065  )
        45           O1  tau(  45) = (   3.2900926   2.9813045   4.7018136  )
        46           O1  tau(  46) = (   1.3039711   4.4726057   6.0039043  )
        47           O1  tau(  47) = (   5.2763189   4.4711207   6.0039473  )
        48           N1  tau(  48) = (   6.5065777   2.6139801  18.6303060  )
        49           N1  tau(  49) = (   6.5464102   2.8728423  17.4370429  )
        50           C1  tau(  50) = (   6.4341180   3.7235584  19.6105657  )
        51           H1  tau(  51) = (   6.3066687   4.7022679  19.1488110  )
        52           H1  tau(  52) = (   5.6164842   3.4805663  20.2913871  )
        53           H1  tau(  53) = (   0.7823074   3.6964598  20.1845303  )
        54           O1  tau(  54) = (   3.0314481   5.0835218  18.9911038  )
        55           H1  tau(  55) = (   1.7414717   0.2044793  18.0242669  )
        56           O1  tau(  56) = (   2.7372941   0.2572207  18.0778760  )
        57           H1  tau(  57) = (   3.9343361   5.3466317  19.2487757  )

     number of k points=    10  Fermi-Dirac smearing, width (Ry)=  0.0073
                       cart. coord. in units 2pi/alat
        k(    1) = (   0.0000000   0.0000000   0.0000000), wk =   0.1250000
        k(    2) = (   0.0000000   0.0419351   0.0000000), wk =   0.2500000
        k(    3) = (   0.0000000  -0.0838702   0.0000000), wk =   0.1250000
        k(    4) = (   0.0379955   0.0000049   0.0000000), wk =   0.2500000
        k(    5) = (   0.0379955   0.0419400   0.0000000), wk =   0.2500000
        k(    6) = (   0.0379955  -0.0838652   0.0000000), wk =   0.2500000
        k(    7) = (   0.0379955  -0.0419301   0.0000000), wk =   0.2500000
        k(    8) = (  -0.0759910  -0.0000099   0.0000000), wk =   0.1250000
        k(    9) = (  -0.0759910   0.0419252   0.0000000), wk =   0.2500000
        k(   10) = (  -0.0759910  -0.0838800   0.0000000), wk =   0.1250000

     Initial potential from superposition of free atoms

     starting charge  392.99914, renormalised to  409.00000

     negative rho (up, down):  1.422E-02 0.000E+00

     %%%%%%%%%%%%%%%%%%%%%%%%%%%%%%%%%%%%%%%%%%%%%%%%%%%%%%%%%%%%%%%%%%%%%%%%
     %                                                                      %
     % You are using vdW-DF, which was implemented by the Thonhauser group. %
     % Please cite the following two papers that made this development      %
     % possible and the two reviews that describe the various versions:     %
     %                                                                      %
     %   T. Thonhauser et al., PRL 115, 136402 (2015).                      %
     %   T. Thonhauser et al., PRB 76, 125112 (2007).                       %
     %   K. Berland et al., Rep. Prog. Phys. 78, 066501 (2015).             %
     %   D.C. Langreth et al., J. Phys.: Condens. Matter 21, 084203 (2009). %
     %                                                                      %
     %                                                                      %
     % If you are calculating the stress with vdW-DF, please also cite:     %
     %                                                                      %
     %   R. Sabatini et al., J. Phys.: Condens. Matter 24, 424209 (2012).   %
     %                                                                      %
     %%%%%%%%%%%%%%%%%%%%%%%%%%%%%%%%%%%%%%%%%%%%%%%%%%%%%%%%%%%%%%%%%%%%%%%%

     Adding external electric field

     Computed dipole along edir(3) :
        Dipole              -16.7505 Ry au,        -42.5754 Debye
        Dipole field         -0.0316 Ry au,

        Potential amp.        2.9302 Ry
        Total length         46.3494 bohr

     Starting wfcs are  309 atomic wfcs
  @ DRIVER MODE: Message from server: STATUS
  @ DRIVER MODE: Message from server: POSDATA
  @ DRIVER MODE: Reading and sharing cell
  @ DRIVER MODE: Reading and sharing positions
  @ DRIVER MODE: Received positions

     Self-consistent Calculation

     iteration #  1     ecut=    29.40 Ry     beta= 0.05
     Davidson diagonalization with overlap
     c_bands:  5 eigenvalues not converged
     c_bands:  5 eigenvalues not converged
     c_bands:  3 eigenvalues not converged
     c_bands:  1 eigenvalues not converged
     c_bands:  4 eigenvalues not converged
     c_bands:  2 eigenvalues not converged
     c_bands:  5 eigenvalues not converged
     ethr =  1.00E-05,  avg # of iterations = 26.6

[...]

     total energy              =   -2110.46783555 Ry
     estimated scf accuracy    <   10326.52382972 Ry

     iteration #  2     ecut=    29.40 Ry     beta= 0.05
     Davidson diagonalization with overlap
     ethr =  1.00E-02,  avg # of iterations = 32.0

[...]

     iteration # 55     ecut=    29.40 Ry     beta= 0.05
     Davidson diagonalization with overlap
     c_bands:  1 eigenvalues not converged
     c_bands:  1 eigenvalues not converged
     ethr =  8.68E-10,  avg # of iterations = 13.1

[...]

     total energy              =   -3006.13722262 Ry
     estimated scf accuracy    <       0.00000009 Ry

     iteration # 65     ecut=    29.40 Ry     beta= 0.05
     Davidson diagonalization with overlap
     ethr =  2.12E-11,  avg # of iterations =  7.4

     negative rho (up, down):  1.470E-02 0.000E+00

     Adding external electric field

     Computed dipole along edir(3) :
        Dipole                0.8080 Ry au,          2.0537 Debye
        Dipole field          0.0015 Ry au,

        Potential amp.       -0.1413 Ry
        Total length         46.3494 bohr

     End of self-consistent calculation

          k = 0.0000 0.0000 0.0000 ( 18029 PWs)   bands (ev):

   -55.6053 -55.5712 -55.5631 -55.5344 -55.5269 -55.4411 -55.4196 -55.4041
   -55.3857 -55.3835 -55.3658 -55.3498 -54.9881 -54.9178 -54.5858 -54.5518
   -32.1039 -32.0885 -31.9489 -31.9409 -31.9181 -31.8979 -31.8734 -31.8603
   -31.8491 -31.7947 -31.7797 -31.7641 -31.7577 -31.7408 -31.7289 -31.7192
   -31.7103 -31.7015 -31.6900 -31.6629 -31.6626 -31.6423 -31.6104 -31.6092
   -31.5997 -31.5953 -31.5928 -31.5821 -31.5638 -31.5599 -31.5541 -31.5491
   -31.5382 -31.5368 -31.5274 -31.5150 -31.4956 -31.2660 -31.2093 -31.1784
   -31.1246 -31.1023 -30.9929 -30.9045 -30.8821 -30.8097 -30.7232 -30.6121
   -20.7369 -18.2920 -16.3053 -16.0792 -15.8951 -15.7657 -15.7107 -15.5537
   -15.4957 -15.4099 -15.3395 -15.2027 -15.1503 -15.1418 -15.1354 -15.1168
   -15.1110 -15.0508 -15.0396 -15.0381 -15.0272 -14.9993 -14.9602 -14.9470
   -14.9422 -14.8592 -14.7661 -14.7433 -14.7229 -14.7195 -14.6619 -14.2754
   -13.0876 -12.9711 -11.2801  -6.8135  -5.7519  -5.3630  -4.1814  -3.8014
    -3.7699  -3.6726  -3.5502  -3.5114  -3.4318  -3.3847  -3.2308  -3.0795
    -3.0259  -2.8518  -2.7830  -2.7556  -2.7122  -2.6285  -2.5212  -2.4679
    -2.4129  -2.4091  -2.3948  -2.3772  -2.3615  -2.3448  -2.2374  -2.2189
    -2.1640  -2.1461  -2.1223  -1.9848  -1.9570  -1.9286  -1.9188  -1.8910
    -1.8782  -1.8646  -1.8376  -1.8189  -1.7791  -1.7551  -1.6230  -1.5806
    -1.5406  -1.4488  -1.3883  -1.3284  -1.2333  -1.2010  -1.1311  -1.0622
    -1.0566  -1.0365  -1.0032  -0.9950  -0.8687  -0.7642  -0.7539  -0.6808
    -0.6196  -0.5679  -0.5280  -0.4625  -0.3793  -0.3619  -0.3542  -0.3333
    -0.2815  -0.2577  -0.0980  -0.0588  -0.0110   0.0141   0.0716   0.1045
     0.1474   0.1872   0.2280   0.2774   0.3116   0.3448   0.3629   0.3773
     0.3927   0.4240   0.4447   0.6106   0.6459   0.6691   0.7302   0.7598
     0.8463   0.9033   0.9668   1.0504   1.1588   1.3640   1.4369   1.5280
     1.6288   2.0081   2.0539   2.8304   3.5240   3.6160   3.6570   3.6874
     3.7689   3.7809   3.9819   4.0037   4.0335   4.1086

[...]

          k = 0.0380-0.0419 0.0000 ( 17876 PWs)   bands (ev):

[...]

          k =-0.0760-0.0000 0.0000 ( 17886 PWs)   bands (ev):

[...]

          k =-0.0760-0.0839 0.0000 ( 17948 PWs)   bands (ev):

   -55.5887 -55.5877 -55.5479 -55.5419 -55.5326 -55.4293 -55.4160 -55.4029
   -55.4019 -55.3680 -55.3675 -55.3655 -54.9841 -54.9216 -54.5689 -54.5686
   -31.9180 -31.9040 -31.9034 -31.9007 -31.8837 -31.8828 -31.8266 -31.8180
   -31.8055 -31.7858 -31.7774 -31.7537 -31.7489 -31.7228 -31.7170 -31.7162
   -31.7084 -31.7077 -31.7075 -31.7058 -31.7035 -31.7014 -31.6743 -31.6463
   -31.6326 -31.6287 -31.6199 -31.6037 -31.6027 -31.5976 -31.5924 -31.5834
   -31.5804 -31.5729 -31.5718 -31.5701 -31.4170 -31.2677 -31.2480 -31.1860
   -31.1640 -31.1260 -30.8949 -30.8947 -30.8057 -30.8055 -30.7666 -30.7665
   -20.7363 -18.2879 -15.7427 -15.6957 -15.6310 -15.5641 -15.5290 -15.4589
   -15.4154 -15.3734 -15.3214 -15.2835 -15.2746 -15.2146 -15.1946 -15.1618
   -15.1526 -15.1230 -15.1133 -15.1110 -15.0576 -15.0517 -15.0457 -15.0388
   -15.0325 -14.9734 -14.9336 -14.9258 -14.9208 -14.8224 -14.6998 -14.4438
   -13.0730 -13.0729 -11.2784  -6.8364  -5.7492  -5.3395  -4.1097  -3.8038
    -3.7546  -3.1136  -3.0213  -2.8276  -2.7973  -2.7145  -2.7105  -2.6676
    -2.5454  -2.5125  -2.4662  -2.4483  -2.4272  -2.4186  -2.4130  -2.3925
    -2.3865  -2.3682  -2.3387  -2.3188  -2.2860  -2.2737  -2.2608  -2.2519
    -2.2385  -2.2156  -2.2134  -2.1651  -2.1445  -2.1258  -2.0622  -2.0295
    -1.8433  -1.7941  -1.7491  -1.7422  -1.7210  -1.6901  -1.6750  -1.6581
    -1.6113  -1.5902  -1.5117  -1.4671  -1.3288  -1.3091  -1.2937  -1.2731
    -1.2064  -1.1485  -1.0984  -1.0126  -1.0074  -0.9586  -0.8651  -0.8063
    -0.7984  -0.7668  -0.7115  -0.7020  -0.6612  -0.5682  -0.5625  -0.5440
    -0.5380  -0.4625  -0.4185  -0.3563  -0.3482  -0.3282  -0.2974  -0.2691
    -0.2360  -0.1969  -0.1012  -0.0679   0.0258   0.1313   0.2087   0.3436
     0.4624   0.4749   0.5598   0.5841   0.6852   0.6968   0.7088   0.7503
     0.7861   0.8107   0.9302   0.9441   0.9672   0.9951   1.0816   1.8003
     1.8012   1.8736   1.8738   2.8197   3.7654   3.8795   3.9116   3.9222
     4.0070   4.0440   4.0628   4.0647   4.1296   4.2021

     the Fermi energy is     3.5268 ev

!    total energy              =   -3006.13726036 Ry
     estimated scf accuracy    <       0.00000007 Ry
     smearing contrib. (-TS)   =      -0.02166790 Ry
     internal energy E=F+TS    =   -3006.11559246 Ry

     The total energy is F=E-TS. E is the sum of the following terms:
     one-electron contribution =  -23513.94748349 Ry
     hartree contribution      =   11854.94885480 Ry
     xc contribution           =    -501.16752684 Ry
     ewald contribution        =    9154.04933112 Ry
     electric field correction =       0.00123196 Ry

     convergence has been achieved in  65 iterations

     Forces acting on atoms (cartesian axes, Ry/au):

     atom    1 type  1   force =     0.00021108   -0.00032021    0.09616307
     atom    2 type  1   force =    -0.00012820   -0.00051247   -0.17560496
     atom    3 type  2   force =    -0.00002685   -0.00015789   -0.02419036
     atom    4 type  2   force =     0.00000810   -0.00155735    0.05346008
     atom    5 type  2   force =    -0.01165559   -0.00075721    0.00384819
     atom    6 type  2   force =     0.01284787   -0.00002200    0.00196167
     atom    7 type  1   force =    -0.00131650    0.00026369   -0.00662724
     atom    8 type  1   force =     0.00074520    0.00794513    0.02424002
     atom    9 type  2   force =     0.00001448    0.00002812    0.00002687
     atom   10 type  2   force =    -0.00082111    0.00167031   -0.01691594
     atom   11 type  2   force =    -0.00001676    0.00004546   -0.00001131
     atom   12 type  2   force =    -0.00000276    0.00000928   -0.00001025
     atom   13 type  1   force =     0.00002358   -0.00000948    0.00007082
     atom   14 type  1   force =    -0.00000385    0.00004254    0.00003250
     atom   15 type  2   force =     0.00022252    0.00002601   -0.00007172
     atom   16 type  2   force =     0.00000928   -0.00003633   -0.00004660
     atom   17 type  2   force =     0.00030302    0.00016145    0.00022935
     atom   18 type  2   force =     0.00031487   -0.00016023   -0.00025577
     atom   19 type  1   force =    -0.00023739   -0.00009234    0.00006793
     atom   20 type  1   force =     0.00024683    0.00001588    0.00003653
     atom   21 type  2   force =     0.00006000   -0.00004747    0.10322381
     atom   22 type  2   force =    -0.00013824   -0.00005540   -0.00009230
     atom   23 type  2   force =    -0.07149247   -0.00011736   -0.02770191
     atom   24 type  2   force =     0.07139963    0.00029322   -0.02771123
     atom   25 type  1   force =    -0.00002616   -0.00028688    0.09580877
     atom   26 type  1   force =    -0.00023839   -0.00034477   -0.17586232
     atom   27 type  2   force =     0.00004919   -0.00017650   -0.02324110
     atom   28 type  2   force =     0.00007156   -0.00125687    0.05306478
     atom   29 type  2   force =    -0.01200611    0.00042250    0.00402420
     atom   30 type  2   force =     0.01309383    0.00076827    0.00211191
     atom   31 type  1   force =    -0.00118645    0.00401177   -0.00992003
     atom   32 type  1   force =     0.00067940   -0.01005914    0.02471326
     atom   33 type  2   force =     0.00001966   -0.00000835    0.00000774
     atom   34 type  2   force =    -0.00025303    0.00012332   -0.02261336
     atom   35 type  2   force =    -0.00000253   -0.00000979   -0.00002613
     atom   36 type  2   force =    -0.00000727    0.00002133   -0.00002731
     atom   37 type  1   force =    -0.00001125   -0.00004098    0.00005391
     atom   38 type  1   force =     0.00001098    0.00006698    0.00005970
     atom   39 type  2   force =    -0.00014706   -0.00001375   -0.00005440
     atom   40 type  2   force =     0.00000384   -0.00003884   -0.00004208
     atom   41 type  2   force =     0.00039279   -0.00021332    0.00020269
     atom   42 type  2   force =     0.00030171    0.00013617   -0.00022930
     atom   43 type  1   force =    -0.00017113   -0.00000451   -0.00006052
     atom   44 type  1   force =     0.00033780    0.00006591    0.00006574
     atom   45 type  2   force =     0.00004887   -0.00008879    0.10322668
     atom   46 type  2   force =    -0.07150505   -0.00008476   -0.02772373
     atom   47 type  2   force =     0.07142064    0.00035333   -0.02771270
     atom   48 type  3   force =     0.00089980    0.00000537   -0.00047987
     atom   49 type  3   force =    -0.00220447   -0.00004910    0.00059274
     atom   50 type  4   force =    -0.00024397    0.00003231   -0.00014501
     atom   51 type  5   force =     0.00008183   -0.00003053    0.00005684
     atom   52 type  5   force =     0.00006190    0.00002780    0.00000196
     atom   53 type  5   force =    -0.00004851    0.00001667   -0.00003584
     atom   54 type  2   force =     0.00100587   -0.00003588   -0.00131380
     atom   55 type  5   force =    -0.00011876   -0.00002134   -0.00005332
     atom   56 type  2   force =    -0.00114421   -0.00002753    0.00136669
     atom   57 type  5   force =     0.00026791    0.00008454    0.00006198

     Total force =     0.367149     Total SCF correction =     0.000365
  @ DRIVER MODE: Message from server: STATUS
  @ DRIVER MODE: Message from server: GETFORCE
  @ DRIVER MODE: Returning v,forces,stress,ensemble

     Writing output data file ./calc.save/
  @ DRIVER MODE: Message from server: EXIT
  @ DRIVE MODE: Exiting

     General routines

     Parallel routines

   This run was terminated on:  18:58:30  25Sep2021

   JOB DONE.