     Program PWSCF v.6.7GPU starts on 10Sep2021 at  6:28:48

     R & G space division:  proc/nbgrp/npool/nimage =      10
     Reading input from /storage/home/hcoda1/3/ntian30/research/carbon/CxH_vib/CH3_calc/ads_slab/CH3N2OH_j/out_0029/pw.inp
Warning: card &CELL ignored
Warning: card   CELL_DYNAMICS='IPI', ignored
Warning: card / ignored

     Current dimensions of program PWSCF are:
     Max number of different atomic species (ntypx) = 10
     Max number of k-points (npk) =  40000
     Max angular momentum in pseudopotentials (lmaxx) =  3
     Presently no symmetry can be used with electric field

     Message from routine cell_base_init:
     DEPRECATED: use true lattice parameter, not A to a.u. conversion factor

     IMPORTANT: XC functional enforced from input :
     Exchange-correlation= BEEF-VDW
                           (   1   4  43  14   2   0   0)
     Any further DFT definition will be discarded
     Please, verify this is what you really want

  @ DRIVER MODE: Connecting to
 qe_1139763_2779713.sched-torque.pace.gatech.eduwa69jtoy_scratch
  using UNIX socket
  @ DRIVER MODE: Message from server: STATUS
  @ DRIVER MODE: Message from server: INIT
  @ DRIVER MODE: Receiving replica           0          -1
  @ DRIVER MODE: Receiving encoded integer          25
  @ DRIVER MODE:  SCF:  T  FORCE:  T  STRESS:  F  VC:  F  ENSEMBLE:  F
  @ DRIVER MODE:  SCF:  T  FORCE:  T  STRESS:  F  VC:  F  ENSEMBLE:  F

     Using Slab Decomposition

     bravais-lattice index     =            0
     lattice parameter (alat)  =       1.8897  a.u.
     unit-cell volume          =    6658.9804 (a.u.)^3
     number of atoms/cell      =           55
     number of atomic types    =            5
     number of electrons       =       402.00
     number of Kohn-Sham states=          211
     kinetic-energy cutoff     =      29.3995  Ry
     charge density cutoff     =     293.9946  Ry
     scf convergence threshold =      7.3E-08
     mixing beta               =       0.0500
     number of iterations used =            8  plain     mixing
     Exchange-correlation= BEEF-VDW
                           (   1   4  43  14   2   0   0)

     celldm(1)=   1.889726  celldm(2)=   0.000000  celldm(3)=   0.000000
     celldm(4)=   0.000000  celldm(5)=   0.000000  celldm(6)=   0.000000

     crystal axes: (cart. coord. in units of alat)
               a(1) = (   6.579727   0.000000   0.000000 )
               a(2) = (  -0.000775   5.961596   0.000000 )
               a(3) = (   0.000000   0.000000  25.155947 )

     reciprocal axes: (cart. coord. in units 2 pi/alat)
               b(1) = (  0.151982  0.000020  0.000000 )
               b(2) = (  0.000000  0.167740  0.000000 )
               b(3) = (  0.000000  0.000000  0.039752 )

     PseudoPot. # 1 for Ti read from file:
     /storage/coda1/p-amedford6/0/shared/rich_project_chbe-medford/medford-share/data/pseudos_module/espresso/nninc/pbe/van/Ti.UPF
     MD5 check sum: 8e4df49b7f0d34bbd5052bf3f5ea0213
     Pseudo is Ultrasoft, Zval = 12.0
     Generated by new atomic code, or converted to UPF format
     Using radial grid of  851 points,  6 beta functions with:
                l(1) =   0
                l(2) =   0
                l(3) =   1
                l(4) =   1
                l(5) =   2
                l(6) =   2
     Q(r) pseudized with  8 coefficients,  rinner =    1.000   1.000   1.000
                                                       1.000   1.000

     PseudoPot. # 2 for O  read from file:
     /storage/coda1/p-amedford6/0/shared/rich_project_chbe-medford/medford-share/data/pseudos_module/espresso/nninc/pbe/van/O.UPF
     MD5 check sum: 78c19812648e8988a0fe644b0f25305e
     Pseudo is Ultrasoft, Zval =  6.0
     Generated by new atomic code, or converted to UPF format
     Using radial grid of  737 points,  4 beta functions with:
                l(1) =   0
                l(2) =   0
                l(3) =   1
                l(4) =   1
     Q(r) pseudized with  8 coefficients,  rinner =    0.800   0.800   0.800

     PseudoPot. # 3 for N  read from file:
     /storage/coda1/p-amedford6/0/shared/rich_project_chbe-medford/medford-share/data/pseudos_module/espresso/nninc/pbe/van/N.UPF
     MD5 check sum: 90d10febe142ad51ac9d5be1deb811c4
     Pseudo is Ultrasoft, Zval =  5.0
     Generated by new atomic code, or converted to UPF format
     Using radial grid of  729 points,  4 beta functions with:
                l(1) =   0
                l(2) =   0
                l(3) =   1
                l(4) =   1
     Q(r) pseudized with  8 coefficients,  rinner =    0.800   0.800   0.800

     PseudoPot. # 4 for C  read from file:
     /storage/coda1/p-amedford6/0/shared/rich_project_chbe-medford/medford-share/data/pseudos_module/espresso/nninc/pbe/van/C.UPF
     MD5 check sum: 1a69bf6b8db32088f5b2163dbdb77a27
     Pseudo is Ultrasoft, Zval =  4.0
     Generated by new atomic code, or converted to UPF format
     Using radial grid of  721 points,  4 beta functions with:
                l(1) =   0
                l(2) =   0
                l(3) =   1
                l(4) =   1
     Q(r) pseudized with  8 coefficients,  rinner =    0.800   0.800   0.800

     PseudoPot. # 5 for H  read from file:
     /storage/coda1/p-amedford6/0/shared/rich_project_chbe-medford/medford-share/data/pseudos_module/espresso/nninc/pbe/van/H.UPF
     MD5 check sum: b5ee9d7bfd3a09ee7748110bda690ff7
     Pseudo is Ultrasoft, Zval =  1.0
     Generated by new atomic code, or converted to UPF format
     Using radial grid of  615 points,  1 beta functions with:
                l(1) =   0
     Q(r) pseudized with  8 coefficients,  rinner =    0.800

     atomic species   valence    mass     pseudopotential
        Ti1           12.00    47.86700     Ti( 1.00)
        O1             6.00    15.99900     O ( 1.00)
        N1             5.00    14.00700     N ( 1.00)
        C1             4.00    12.01100     C ( 1.00)
        H1             1.00     1.00800     H ( 1.00)

     No symmetry found

   Cartesian axes

     site n.     atom                  positions (alat units)
         1           Ti1 tau(   1) = (   0.0004258   2.9801865   6.0000000  )
         2           Ti1 tau(   2) = (   3.2906075   1.4906267   6.0002472  )
         3           O1  tau(   3) = (   0.0006271   0.0005054   7.9858123  )
         4           O1  tau(   4) = (   3.2906025   0.0005020   7.3038282  )
         5           O1  tau(   5) = (   4.5942328   1.4918067   9.2879030  )
         6           O1  tau(   6) = (   1.9868534   1.4903216   9.2879459  )
         7           Ti1 tau(   7) = (   3.2907910   2.8959150   9.1758416  )
         8           Ti1 tau(   8) = (   0.0015273   1.4827037   9.2680791  )
         9           O1  tau(   9) = (   3.2817971   0.0424577  11.2706337  )
        10           O1  tau(  10) = (   0.0116148   5.9584955  10.6183126  )
        11           O1  tau(  11) = (   1.2813654   1.4951502  12.6332405  )
        12           O1  tau(  12) = (   5.2815101   1.4921423  12.6269808  )
        13           Ti1 tau(  13) = (   6.5662594   2.8603684  12.6843660  )
        14           Ti1 tau(  14) = (   3.2717346   1.4252475  12.4210995  )
        15           O1  tau(  15) = (   6.5710910   0.0045200  14.6317625  )
        16           O1  tau(  16) = (   3.2759495   0.0084639  13.8932321  )
        17           O1  tau(  17) = (   4.5517014   1.4983445  16.0008815  )
        18           O1  tau(  18) = (   2.0271237   1.5070609  16.0478782  )
        19           Ti1 tau(  19) = (   3.2345769   3.0092735  16.2435900  )
        20           Ti1 tau(  20) = (   6.4941389   1.4975806  15.8145731  )
        21           O1  tau(  21) = (   3.2904802   0.0005063   4.7018136  )
        22           O1  tau(  22) = (   6.5579512   0.0396517  17.1742205  )
        23           O1  tau(  23) = (   1.3043587   1.4918075   6.0039043  )
        24           O1  tau(  24) = (   5.2767064   1.4903225   6.0039473  )
        25           Ti1 tau(  25) = (   0.0000382   5.9609847   6.0000000  )
        26           Ti1 tau(  26) = (   3.2902200   4.4714249   6.0002472  )
        27           O1  tau(  27) = (   0.0002396   2.9813036   7.9858123  )
        28           O1  tau(  28) = (   3.2902150   2.9813002   7.3038282  )
        29           O1  tau(  29) = (   4.5938453   4.4726049   9.2879030  )
        30           O1  tau(  30) = (   1.9864658   4.4711199   9.2879459  )
        31           Ti1 tau(  31) = (   3.2891106   5.8743827   9.1763621  )
        32           Ti1 tau(  32) = (   0.0006254   4.4649316   9.2693709  )
        33           O1  tau(  33) = (   3.2800217   2.9666125  11.2981572  )
        34           O1  tau(  34) = (   0.0092240   2.9805883  10.6323155  )
        35           O1  tau(  35) = (   1.2755083   4.4823741  12.6262202  )
        36           O1  tau(  36) = (   5.2848398   4.4807727  12.6177486  )
        37           Ti1 tau(  37) = (   6.5672004   5.8338186  12.5551636  )
        38           Ti1 tau(  38) = (   3.2732152   4.2974050  12.6602233  )
        39           O1  tau(  39) = (   6.5693882   2.9786051  14.6782399  )
        40           O1  tau(  40) = (   3.2805734   3.0393479  13.9038923  )
        41           O1  tau(  41) = (   4.5335661   4.5240572  16.0872286  )
        42           O1  tau(  42) = (   2.0073973   4.5295938  16.0607137  )
        43           Ti1 tau(  43) = (   3.2598295   0.0330142  15.6732764  )
        44           Ti1 tau(  44) = (   6.5464637   4.6748829  16.0422594  )
        45           O1  tau(  45) = (   3.2900926   2.9813045   4.7018136  )
        46           O1  tau(  46) = (   1.3039711   4.4726057   6.0039043  )
        47           O1  tau(  47) = (   5.2763189   4.4711207   6.0039473  )
        48           N1  tau(  48) = (   0.1126456   2.6876119  18.6539570  )
        49           N1  tau(  49) = (   0.0165868   2.9082207  17.4746156  )
        50           C1  tau(  50) = (   0.2746321   3.7930379  19.6319179  )
        51           H1  tau(  51) = (   0.1055085   4.7742840  19.1878107  )
        52           H1  tau(  52) = (   6.1760284   3.5871646  20.4491619  )
        53           H1  tau(  53) = (   1.2982147   3.7051261  19.9977701  )
        54           O1  tau(  54) = (   3.2987527   2.9937385  18.0942264  )
        55           H1  tau(  55) = (   3.7476408   3.7324850  18.5320624  )

     number of k points=    10  Fermi-Dirac smearing, width (Ry)=  0.0073
                       cart. coord. in units 2pi/alat
        k(    1) = (   0.0000000   0.0000000   0.0000000), wk =   0.1250000
        k(    2) = (   0.0000000   0.0419351   0.0000000), wk =   0.2500000
        k(    3) = (   0.0000000  -0.0838702   0.0000000), wk =   0.1250000
        k(    4) = (   0.0379955   0.0000049   0.0000000), wk =   0.2500000
        k(    5) = (   0.0379955   0.0419400   0.0000000), wk =   0.2500000
        k(    6) = (   0.0379955  -0.0838652   0.0000000), wk =   0.2500000
        k(    7) = (   0.0379955  -0.0419301   0.0000000), wk =   0.2500000
        k(    8) = (  -0.0759910  -0.0000099   0.0000000), wk =   0.1250000
        k(    9) = (  -0.0759910   0.0419252   0.0000000), wk =   0.2500000
        k(   10) = (  -0.0759910  -0.0838800   0.0000000), wk =   0.1250000

     Initial potential from superposition of free atoms

     starting charge  385.99915, renormalised to  402.00000

     negative rho (up, down):  1.468E-02 0.000E+00

     %%%%%%%%%%%%%%%%%%%%%%%%%%%%%%%%%%%%%%%%%%%%%%%%%%%%%%%%%%%%%%%%%%%%%%%%
     %                                                                      %
     % You are using vdW-DF, which was implemented by the Thonhauser group. %
     % Please cite the following two papers that made this development      %
     % possible and the two reviews that describe the various versions:     %
     %                                                                      %
     %   T. Thonhauser et al., PRL 115, 136402 (2015).                      %
     %   T. Thonhauser et al., PRB 76, 125112 (2007).                       %
     %   K. Berland et al., Rep. Prog. Phys. 78, 066501 (2015).             %
     %   D.C. Langreth et al., J. Phys.: Condens. Matter 21, 084203 (2009). %
     %                                                                      %
     %                                                                      %
     % If you are calculating the stress with vdW-DF, please also cite:     %
     %                                                                      %
     %   R. Sabatini et al., J. Phys.: Condens. Matter 24, 424209 (2012).   %
     %                                                                      %
     %%%%%%%%%%%%%%%%%%%%%%%%%%%%%%%%%%%%%%%%%%%%%%%%%%%%%%%%%%%%%%%%%%%%%%%%

     Adding external electric field

     Computed dipole along edir(3) :
        Dipole              -11.9790 Ry au,        -30.4477 Debye
        Dipole field         -0.0226 Ry au,

        Potential amp.        2.0956 Ry
        Total length         46.3494 bohr

     Starting wfcs are  304 atomic wfcs
  @ DRIVER MODE: Message from server: STATUS
  @ DRIVER MODE: Message from server: POSDATA
  @ DRIVER MODE: Reading and sharing cell
  @ DRIVER MODE: Reading and sharing positions
  @ DRIVER MODE: Received positions

     Self-consistent Calculation

     iteration #  1     ecut=    29.40 Ry     beta= 0.05
     Davidson diagonalization with overlap
     c_bands:  4 eigenvalues not converged
     c_bands:  3 eigenvalues not converged
     c_bands:  5 eigenvalues not converged
     c_bands:  5 eigenvalues not converged
     c_bands:  3 eigenvalues not converged
     c_bands:  4 eigenvalues not converged
     c_bands:  2 eigenvalues not converged
     c_bands:  1 eigenvalues not converged
     ethr =  1.00E-05,  avg # of iterations = 25.4

[...]

     total energy              =   -2400.95419089 Ry
     estimated scf accuracy    <    6441.50981838 Ry

     iteration #  2     ecut=    29.40 Ry     beta= 0.05
     Davidson diagonalization with overlap
     ethr =  1.00E-02,  avg # of iterations = 23.3

[...]

     iteration # 67     ecut=    29.40 Ry     beta= 0.05
     Davidson diagonalization with overlap
     c_bands:  1 eigenvalues not converged
     ethr =  2.28E-07,  avg # of iterations =  7.5

[...]

     total energy              =   -2972.74455120 Ry
     estimated scf accuracy    <       0.00000016 Ry

     iteration # 93     ecut=    29.40 Ry     beta= 0.05
     Davidson diagonalization with overlap
     ethr =  2.96E-11,  avg # of iterations =  5.2

     negative rho (up, down):  1.550E-02 0.000E+00

     Adding external electric field

     Computed dipole along edir(3) :
        Dipole                0.6087 Ry au,          1.5471 Debye
        Dipole field          0.0011 Ry au,

        Potential amp.       -0.1065 Ry
        Total length         46.3494 bohr

     End of self-consistent calculation

          k = 0.0000 0.0000 0.0000 ( 18029 PWs)   bands (ev):

   -56.2387 -56.2049 -55.8238 -55.7902 -55.5914 -55.5319 -55.4812 -55.4056
   -55.3813 -55.3263 -55.2362 -55.1640 -55.0839 -55.0115 -54.9902 -54.9776
   -32.6891 -32.5313 -32.5043 -32.3972 -32.3133 -32.3046 -32.3030 -32.0715
   -32.0428 -32.0237 -31.9715 -31.9650 -31.9311 -31.8981 -31.8692 -31.8176
   -31.8082 -31.7928 -31.7548 -31.7351 -31.7283 -31.7072 -31.6943 -31.6927
   -31.6912 -31.6507 -31.6037 -31.5742 -31.5552 -31.5364 -31.5353 -31.4978
   -31.4880 -31.4278 -31.4181 -31.4083 -31.3681 -31.3446 -31.3396 -31.3210
   -31.3153 -31.2919 -31.2392 -31.2270 -31.2269 -31.2121 -31.1423 -31.0305
   -18.8589 -16.5330 -16.3542 -16.1979 -15.9869 -15.8187 -15.7268 -15.7186
   -15.6705 -15.5495 -15.5223 -15.4276 -15.3363 -15.2626 -15.2623 -15.2375
   -15.1410 -15.0846 -15.0587 -15.0182 -14.9982 -14.9915 -14.9783 -14.8799
   -14.8631 -14.8580 -14.7153 -14.6939 -14.6081 -14.3599 -14.2631 -13.5091
   -13.3968 -11.5387  -6.9403  -4.4145  -4.1742  -4.0422  -4.0227  -3.8371
    -3.7487  -3.5310  -3.4320  -3.3557  -3.2330  -3.1475  -2.9576  -2.9463
    -2.8924  -2.8229  -2.7482  -2.6891  -2.6371  -2.6265  -2.5532  -2.5155
    -2.4737  -2.4662  -2.4040  -2.3882  -2.3030  -2.2908  -2.2172  -2.1824
    -2.1516  -2.1219  -2.1023  -2.0418  -2.0341  -2.0070  -1.9735  -1.9203
    -1.8566  -1.8143  -1.7247  -1.6729  -1.6563  -1.5641  -1.5442  -1.5336
    -1.5184  -1.3216  -1.2478  -1.2264  -1.2151  -1.0674  -1.0247  -0.9999
    -0.9199  -0.8960  -0.8490  -0.8093  -0.7614  -0.7044  -0.6733  -0.6675
    -0.6428  -0.5914  -0.4040  -0.3709  -0.3221  -0.2923  -0.2547  -0.1983
    -0.1679  -0.1369  -0.0543  -0.0490  -0.0400  -0.0025   0.0473   0.1283
     0.1880   0.2085   0.3012   0.3072   0.3492   0.3838   0.4401   0.4673
     0.5514   0.5951   0.6106   0.6654   0.6855   0.8739   0.9110   0.9476
     0.9849   1.0131   1.0587   1.1731   1.2420   1.5433   1.5612   1.6006
     2.7528   2.9877   3.1165   3.2725   3.4199   3.5145   3.8247   3.8534
     3.8886   3.9470   4.0106

[...]

          k = 0.0380-0.0419 0.0000 ( 17876 PWs)   bands (ev):

[...]

          k =-0.0760-0.0000 0.0000 ( 17886 PWs)   bands (ev):

[...]

          k =-0.0760-0.0839 0.0000 ( 17948 PWs)   bands (ev):

   -56.2223 -56.2213 -55.8081 -55.8057 -55.5861 -55.5371 -55.4784 -55.4083
   -55.3753 -55.3321 -55.2343 -55.1623 -55.0856 -54.9949 -54.9941 -54.9917
   -32.5174 -32.5161 -32.5055 -32.5047 -32.3497 -32.3486 -32.1276 -32.1238
   -32.0025 -32.0004 -31.9970 -31.9953 -31.8916 -31.8530 -31.8167 -31.8096
   -31.8043 -31.7647 -31.7530 -31.7480 -31.7217 -31.7065 -31.6996 -31.6676
   -31.6624 -31.6262 -31.6213 -31.6022 -31.5948 -31.5649 -31.5586 -31.5450
   -31.4886 -31.4341 -31.4318 -31.4217 -31.3659 -31.3443 -31.3342 -31.3337
   -31.2963 -31.2959 -31.2457 -31.2288 -31.2235 -31.2225 -31.1851 -31.1844
   -18.8551 -16.3416 -15.9428 -15.9305 -15.8072 -15.8006 -15.6283 -15.6118
   -15.5910 -15.5339 -15.5126 -15.4650 -15.3249 -15.3154 -15.2555 -15.2227
   -15.1977 -15.1811 -15.1522 -15.1518 -15.1326 -15.0590 -15.0315 -15.0042
   -14.9552 -14.9511 -14.7855 -14.7196 -14.7056 -14.4919 -14.4599 -13.4999
   -13.4997 -11.5367  -6.9541  -4.3621  -4.0495  -4.0029  -3.9375  -3.1112
    -3.0565  -2.9463  -2.9195  -2.8455  -2.8232  -2.7155  -2.6919  -2.6508
    -2.6373  -2.6337  -2.5785  -2.5562  -2.5339  -2.4898  -2.4778  -2.4649
    -2.4403  -2.3930  -2.3829  -2.3638  -2.3478  -2.3317  -2.2382  -2.2348
    -2.2149  -2.1698  -2.1663  -2.1539  -2.0763  -2.0068  -1.9639  -1.9573
    -1.9253  -1.8692  -1.7954  -1.6808  -1.6593  -1.6073  -1.5787  -1.5029
    -1.4736  -1.4285  -1.3345  -1.3269  -1.2993  -1.2816  -1.2209  -1.2065
    -1.0636  -1.0305  -1.0249  -1.0179  -1.0153  -0.9181  -0.8571  -0.7975
    -0.7456  -0.6627  -0.6488  -0.6279  -0.6091  -0.5997  -0.5805  -0.5566
    -0.4948  -0.4535  -0.4030  -0.3858  -0.2819  -0.2029  -0.1684  -0.1021
    -0.0244   0.0646   0.1432   0.1567   0.1943   0.2486   0.3374   0.3789
     0.4214   0.4900   0.5322   0.6051   0.6667   0.7518   0.7757   0.8642
     0.9759   0.9925   1.0426   1.1303   1.4035   1.4102   1.4168   1.4176
     2.7584   3.5355   3.5393   3.5691   3.5774   3.7773   3.7892   3.9148
     3.9691   3.9943   4.0312

     the Fermi energy is     2.9244 ev

!    total energy              =   -2972.74455467 Ry
     estimated scf accuracy    <       0.00000006 Ry
     smearing contrib. (-TS)   =      -0.01283943 Ry
     internal energy E=F+TS    =   -2972.73171524 Ry

     The total energy is F=E-TS. E is the sum of the following terms:
     one-electron contribution =  -23701.09324052 Ry
     hartree contribution      =   11943.84157075 Ry
     xc contribution           =    -493.13017653 Ry
     ewald contribution        =    9277.64943193 Ry
     electric field correction =       0.00069913 Ry

     convergence has been achieved in  93 iterations

     Forces acting on atoms (cartesian axes, Ry/au):

     atom    1 type  1   force =     0.00008862   -0.00038525    0.10701893
     atom    2 type  1   force =    -0.00004247   -0.00169235   -0.16540118
     atom    3 type  2   force =     0.00003604   -0.00025762   -0.03868152
     atom    4 type  2   force =     0.00004575    0.00076252    0.03119103
     atom    5 type  2   force =    -0.00355763    0.00294771   -0.00840040
     atom    6 type  2   force =     0.00469421    0.00361567   -0.01017037
     atom    7 type  1   force =    -0.00073171    0.00048026    0.02122803
     atom    8 type  1   force =     0.00100605    0.01539533    0.06094897
     atom    9 type  2   force =     0.00011384   -0.00014199    0.00010466
     atom   10 type  2   force =    -0.00289294    0.00226614   -0.04713212
     atom   11 type  2   force =    -0.00004227   -0.00020178   -0.00002485
     atom   12 type  2   force =     0.00000721   -0.00002623    0.00019917
     atom   13 type  1   force =     0.00028439   -0.00013360    0.00010033
     atom   14 type  1   force =     0.00040355   -0.00014583    0.00024991
     atom   15 type  2   force =     0.00015956    0.00012204   -0.00031794
     atom   16 type  2   force =     0.00014428   -0.00015358    0.00004223
     atom   17 type  2   force =     0.00013339    0.00017203    0.00025643
     atom   18 type  2   force =     0.00014315    0.00028511    0.00008918
     atom   19 type  1   force =     0.00004540   -0.00014390   -0.00020341
     atom   20 type  1   force =    -0.00034730    0.00020028    0.00004730
     atom   21 type  2   force =     0.00010307    0.00000162    0.10030415
     atom   22 type  2   force =     0.00003151    0.00004932   -0.00017140
     atom   23 type  2   force =    -0.07670198   -0.00004679   -0.03007136
     atom   24 type  2   force =     0.07668871    0.00038651   -0.03009467
     atom   25 type  1   force =     0.00006184   -0.00042950    0.10696891
     atom   26 type  1   force =    -0.00010901    0.00062406   -0.16570369
     atom   27 type  2   force =     0.00012222   -0.00027247   -0.03749355
     atom   28 type  2   force =     0.00004420   -0.00043718    0.03536807
     atom   29 type  2   force =    -0.00569491   -0.00043553   -0.00598427
     atom   30 type  2   force =     0.00686033    0.00006203   -0.00767263
     atom   31 type  1   force =    -0.00056516   -0.00239925    0.03461270
     atom   32 type  1   force =     0.00111276   -0.01877622    0.06147056
     atom   33 type  2   force =     0.00022428   -0.00012095    0.00006257
     atom   34 type  2   force =    -0.00253673    0.00012823   -0.05384273
     atom   35 type  2   force =     0.00022292   -0.00024786   -0.00011668
     atom   36 type  2   force =     0.00017645   -0.00002239    0.00027873
     atom   37 type  1   force =     0.00035344   -0.00019613   -0.00013443
     atom   38 type  1   force =     0.00047177   -0.00022960    0.00028002
     atom   39 type  2   force =     0.00016035   -0.00044520    0.00024188
     atom   40 type  2   force =    -0.00019151   -0.00004617   -0.00012037
     atom   41 type  2   force =     0.00009457   -0.00039919    0.00012087
     atom   42 type  2   force =     0.00024457   -0.00043093    0.00012736
     atom   43 type  1   force =    -0.00025118    0.00005421   -0.00028263
     atom   44 type  1   force =    -0.00004867   -0.00028681    0.00026437
     atom   45 type  2   force =     0.00009717    0.00011037    0.10050824
     atom   46 type  2   force =    -0.07668100   -0.00005923   -0.03008413
     atom   47 type  2   force =     0.07667364    0.00036201   -0.03011217
     atom   48 type  3   force =     0.00060312   -0.00027435   -0.00044959
     atom   49 type  3   force =     0.00016670   -0.00005221   -0.00108838
     atom   50 type  4   force =     0.00414314    0.00311820   -0.00748028
     atom   51 type  5   force =     0.00059603   -0.00096831    0.00046254
     atom   52 type  5   force =    -0.00508177   -0.00140926    0.00744833
     atom   53 type  5   force =    -0.00064963   -0.00015129    0.00099145
     atom   54 type  2   force =     0.00042254    0.00121035    0.00076784
     atom   55 type  5   force =    -0.00085491   -0.00093505   -0.00051999

     Total force =     0.381593     Total SCF correction =     0.000667
  @ DRIVER MODE: Message from server: STATUS
  @ DRIVER MODE: Message from server: GETFORCE
  @ DRIVER MODE: Returning v,forces,stress,ensemble

     Writing output data file ./calc.save/
  @ DRIVER MODE: Message from server: EXIT
  @ DRIVE MODE: Exiting

     General routines

     Parallel routines

   This run was terminated on:   6:51:55  10Sep2021

   JOB DONE.