     Program PWSCF v.6.7GPU starts on 23Sep2021 at  3:40: 8

     R & G space division:  proc/nbgrp/npool/nimage =       8
     Reading input from /storage/home/hcoda1/3/ntian30/research/carbon/CxH_vib/H2O_calc/ads_slab/CH2NHHO_a/out_0014/pw.inp
Warning: card &CELL ignored
Warning: card   CELL_DYNAMICS='IPI', ignored
Warning: card / ignored

     Current dimensions of program PWSCF are:
     Max number of different atomic species (ntypx) = 10
     Max number of k-points (npk) =  40000
     Max angular momentum in pseudopotentials (lmaxx) =  3
     Presently no symmetry can be used with electric field

     Message from routine cell_base_init:
     DEPRECATED: use true lattice parameter, not A to a.u. conversion factor

     IMPORTANT: XC functional enforced from input :
     Exchange-correlation= BEEF-VDW
                           (   1   4  43  14   2   0   0)
     Any further DFT definition will be discarded
     Please, verify this is what you really want

  @ DRIVER MODE: Connecting to
 qe_1139763_2941012.sched-torque.pace.gatech.edu82hfty51_scratch
  using UNIX socket
  @ DRIVER MODE: Message from server: STATUS
  @ DRIVER MODE: Message from server: INIT
  @ DRIVER MODE: Receiving replica           0          -1
  @ DRIVER MODE: Receiving encoded integer          25
  @ DRIVER MODE:  SCF:  T  FORCE:  T  STRESS:  F  VC:  F  ENSEMBLE:  F
  @ DRIVER MODE:  SCF:  T  FORCE:  T  STRESS:  F  VC:  F  ENSEMBLE:  F

     Using Slab Decomposition

     bravais-lattice index     =            0
     lattice parameter (alat)  =       1.8897  a.u.
     unit-cell volume          =    6658.9804 (a.u.)^3
     number of atoms/cell      =           54
     number of atomic types    =            5
     number of electrons       =       397.00
     number of Kohn-Sham states=          208
     kinetic-energy cutoff     =      29.3995  Ry
     charge density cutoff     =     293.9946  Ry
     scf convergence threshold =      7.3E-08
     mixing beta               =       0.0500
     number of iterations used =            8  plain     mixing
     Exchange-correlation= BEEF-VDW
                           (   1   4  43  14   2   0   0)

     celldm(1)=   1.889726  celldm(2)=   0.000000  celldm(3)=   0.000000
     celldm(4)=   0.000000  celldm(5)=   0.000000  celldm(6)=   0.000000

     crystal axes: (cart. coord. in units of alat)
               a(1) = (   6.579727   0.000000   0.000000 )
               a(2) = (  -0.000775   5.961596   0.000000 )
               a(3) = (   0.000000   0.000000  25.155947 )

     reciprocal axes: (cart. coord. in units 2 pi/alat)
               b(1) = (  0.151982  0.000020  0.000000 )
               b(2) = (  0.000000  0.167740  0.000000 )
               b(3) = (  0.000000  0.000000  0.039752 )

     PseudoPot. # 1 for Ti read from file:
     /storage/coda1/p-amedford6/0/shared/rich_project_chbe-medford/medford-share/data/pseudos_module/espresso/nninc/pbe/van/Ti.UPF
     MD5 check sum: 8e4df49b7f0d34bbd5052bf3f5ea0213
     Pseudo is Ultrasoft, Zval = 12.0
     Generated by new atomic code, or converted to UPF format
     Using radial grid of  851 points,  6 beta functions with:
                l(1) =   0
                l(2) =   0
                l(3) =   1
                l(4) =   1
                l(5) =   2
                l(6) =   2
     Q(r) pseudized with  8 coefficients,  rinner =    1.000   1.000   1.000
                                                       1.000   1.000

     PseudoPot. # 2 for O  read from file:
     /storage/coda1/p-amedford6/0/shared/rich_project_chbe-medford/medford-share/data/pseudos_module/espresso/nninc/pbe/van/O.UPF
     MD5 check sum: 78c19812648e8988a0fe644b0f25305e
     Pseudo is Ultrasoft, Zval =  6.0
     Generated by new atomic code, or converted to UPF format
     Using radial grid of  737 points,  4 beta functions with:
                l(1) =   0
                l(2) =   0
                l(3) =   1
                l(4) =   1
     Q(r) pseudized with  8 coefficients,  rinner =    0.800   0.800   0.800

     PseudoPot. # 3 for N  read from file:
     /storage/coda1/p-amedford6/0/shared/rich_project_chbe-medford/medford-share/data/pseudos_module/espresso/nninc/pbe/van/N.UPF
     MD5 check sum: 90d10febe142ad51ac9d5be1deb811c4
     Pseudo is Ultrasoft, Zval =  5.0
     Generated by new atomic code, or converted to UPF format
     Using radial grid of  729 points,  4 beta functions with:
                l(1) =   0
                l(2) =   0
                l(3) =   1
                l(4) =   1
     Q(r) pseudized with  8 coefficients,  rinner =    0.800   0.800   0.800

     PseudoPot. # 4 for C  read from file:
     /storage/coda1/p-amedford6/0/shared/rich_project_chbe-medford/medford-share/data/pseudos_module/espresso/nninc/pbe/van/C.UPF
     MD5 check sum: 1a69bf6b8db32088f5b2163dbdb77a27
     Pseudo is Ultrasoft, Zval =  4.0
     Generated by new atomic code, or converted to UPF format
     Using radial grid of  721 points,  4 beta functions with:
                l(1) =   0
                l(2) =   0
                l(3) =   1
                l(4) =   1
     Q(r) pseudized with  8 coefficients,  rinner =    0.800   0.800   0.800

     PseudoPot. # 5 for H  read from file:
     /storage/coda1/p-amedford6/0/shared/rich_project_chbe-medford/medford-share/data/pseudos_module/espresso/nninc/pbe/van/H.UPF
     MD5 check sum: b5ee9d7bfd3a09ee7748110bda690ff7
     Pseudo is Ultrasoft, Zval =  1.0
     Generated by new atomic code, or converted to UPF format
     Using radial grid of  615 points,  1 beta functions with:
                l(1) =   0
     Q(r) pseudized with  8 coefficients,  rinner =    0.800

     atomic species   valence    mass     pseudopotential
        Ti1           12.00    47.86700     Ti( 1.00)
        O1             6.00    15.99900     O ( 1.00)
        N1             5.00    14.00700     N ( 1.00)
        C1             4.00    12.01100     C ( 1.00)
        H1             1.00     1.00800     H ( 1.00)

     No symmetry found

   Cartesian axes

     site n.     atom                  positions (alat units)
         1           Ti1 tau(   1) = (   0.0004258   2.9801865   6.0000000  )
         2           Ti1 tau(   2) = (   3.2906075   1.4906267   6.0002472  )
         3           O1  tau(   3) = (   0.0006271   0.0005054   7.9858123  )
         4           O1  tau(   4) = (   3.2906025   0.0005020   7.3038282  )
         5           O1  tau(   5) = (   4.5942328   1.4918067   9.2879030  )
         6           O1  tau(   6) = (   1.9868534   1.4903216   9.2879459  )
         7           Ti1 tau(   7) = (   3.2907910   2.8959150   9.1758416  )
         8           Ti1 tau(   8) = (   0.0015273   1.4827037   9.2680791  )
         9           O1  tau(   9) = (   3.2872377   5.9372537  11.3619719  )
        10           O1  tau(  10) = (   0.0116148   5.9584955  10.6183126  )
        11           O1  tau(  11) = (   1.2678424   1.4880610  12.6451974  )
        12           O1  tau(  12) = (   5.2928823   1.5036634  12.6399001  )
        13           Ti1 tau(  13) = (   6.5521701   2.9315368  12.5404127  )
        14           Ti1 tau(  14) = (   3.2895327   1.2997526  12.7137971  )
        15           O1  tau(  15) = (   6.5477037   0.0845492  14.6505624  )
        16           O1  tau(  16) = (   3.2827468   0.0880329  14.0175491  )
        17           O1  tau(  17) = (   4.5427558   1.5765460  16.1196870  )
        18           O1  tau(  18) = (   1.9971221   1.5491956  16.2097298  )
        19           Ti1 tau(  19) = (   3.2670693   3.0250103  15.6873951  )
        20           Ti1 tau(  20) = (   6.4806419   1.4532933  16.0069425  )
        21           O1  tau(  21) = (   3.2904802   0.0005063   4.7018136  )
        22           O1  tau(  22) = (   6.5100566   5.8635464  17.1664964  )
        23           O1  tau(  23) = (   1.3043587   1.4918075   6.0039043  )
        24           O1  tau(  24) = (   5.2767064   1.4903225   6.0039473  )
        25           Ti1 tau(  25) = (   0.0000382   5.9609847   6.0000000  )
        26           Ti1 tau(  26) = (   3.2902200   4.4714249   6.0002472  )
        27           O1  tau(  27) = (   0.0002396   2.9813036   7.9858123  )
        28           O1  tau(  28) = (   3.2902150   2.9813002   7.3038282  )
        29           O1  tau(  29) = (   4.5938453   4.4726049   9.2879030  )
        30           O1  tau(  30) = (   1.9864658   4.4711199   9.2879459  )
        31           Ti1 tau(  31) = (   3.2891106   5.8743827   9.1763621  )
        32           Ti1 tau(  32) = (   0.0006254   4.4649316   9.2693709  )
        33           O1  tau(  33) = (   3.2826969   3.0075535  11.3127327  )
        34           O1  tau(  34) = (   0.0092240   2.9805883  10.6323155  )
        35           O1  tau(  35) = (   1.2713698   4.4757098  12.6731835  )
        36           O1  tau(  36) = (   5.2977781   4.4601507  12.6712348  )
        37           Ti1 tau(  37) = (   0.0330522   5.9225719  12.5042524  )
        38           Ti1 tau(  38) = (   3.2990360   4.3766664  12.4405836  )
        39           O1  tau(  39) = (   0.0150134   2.9421642  14.8567636  )
        40           O1  tau(  40) = (   3.2596324   2.9836344  13.9148061  )
        41           O1  tau(  41) = (   4.5490916   4.3969069  16.0525170  )
        42           O1  tau(  42) = (   1.9960638   4.4622821  16.0939853  )
        43           Ti1 tau(  43) = (   3.1777156   0.0378257  16.2738330  )
        44           Ti1 tau(  44) = (   6.5243348   4.6462111  15.7996153  )
        45           O1  tau(  45) = (   3.2900926   2.9813045   4.7018136  )
        46           O1  tau(  46) = (   1.3039711   4.4726057   6.0039043  )
        47           O1  tau(  47) = (   5.2763189   4.4711207   6.0039473  )
        48           N1  tau(  48) = (   6.4646383   2.7559932  17.9272311  )
        49           C1  tau(  49) = (   0.7552072   2.7164238  18.8602713  )
        50           H1  tau(  50) = (   0.6016026   3.1878006  19.8266510  )
        51           H1  tau(  51) = (   1.6887153   2.1901376  18.6919226  )
        52           H1  tau(  52) = (   5.6107037   3.2511282  18.1874541  )
        53           O1  tau(  53) = (   3.4589997   5.9358250  18.1144358  )
        54           H1  tau(  54) = (   4.3999295   5.9567086  18.3589960  )

     number of k points=    10  Fermi-Dirac smearing, width (Ry)=  0.0073
                       cart. coord. in units 2pi/alat
        k(    1) = (   0.0000000   0.0000000   0.0000000), wk =   0.1250000
        k(    2) = (   0.0000000   0.0419351   0.0000000), wk =   0.2500000
        k(    3) = (   0.0000000  -0.0838702   0.0000000), wk =   0.1250000
        k(    4) = (   0.0379955   0.0000049   0.0000000), wk =   0.2500000
        k(    5) = (   0.0379955   0.0419400   0.0000000), wk =   0.2500000
        k(    6) = (   0.0379955  -0.0838652   0.0000000), wk =   0.2500000
        k(    7) = (   0.0379955  -0.0419301   0.0000000), wk =   0.2500000
        k(    8) = (  -0.0759910  -0.0000099   0.0000000), wk =   0.1250000
        k(    9) = (  -0.0759910   0.0419252   0.0000000), wk =   0.2500000
        k(   10) = (  -0.0759910  -0.0838800   0.0000000), wk =   0.1250000

     Initial potential from superposition of free atoms

     starting charge  380.99916, renormalised to  397.00000

     negative rho (up, down):  1.654E-02 0.000E+00

     %%%%%%%%%%%%%%%%%%%%%%%%%%%%%%%%%%%%%%%%%%%%%%%%%%%%%%%%%%%%%%%%%%%%%%%%
     %                                                                      %
     % You are using vdW-DF, which was implemented by the Thonhauser group. %
     % Please cite the following two papers that made this development      %
     % possible and the two reviews that describe the various versions:     %
     %                                                                      %
     %   T. Thonhauser et al., PRL 115, 136402 (2015).                      %
     %   T. Thonhauser et al., PRB 76, 125112 (2007).                       %
     %   K. Berland et al., Rep. Prog. Phys. 78, 066501 (2015).             %
     %   D.C. Langreth et al., J. Phys.: Condens. Matter 21, 084203 (2009). %
     %                                                                      %
     %                                                                      %
     % If you are calculating the stress with vdW-DF, please also cite:     %
     %                                                                      %
     %   R. Sabatini et al., J. Phys.: Condens. Matter 24, 424209 (2012).   %
     %                                                                      %
     %%%%%%%%%%%%%%%%%%%%%%%%%%%%%%%%%%%%%%%%%%%%%%%%%%%%%%%%%%%%%%%%%%%%%%%%

     Adding external electric field

     Computed dipole along edir(3) :
        Dipole               -9.2998 Ry au,        -23.6378 Debye
        Dipole field         -0.0175 Ry au,

        Potential amp.        1.6269 Ry
        Total length         46.3494 bohr

     Starting wfcs are  300 atomic wfcs
  @ DRIVER MODE: Message from server: STATUS
  @ DRIVER MODE: Message from server: POSDATA
  @ DRIVER MODE: Reading and sharing cell
  @ DRIVER MODE: Reading and sharing positions
  @ DRIVER MODE: Received positions

     Self-consistent Calculation

     iteration #  1     ecut=    29.40 Ry     beta= 0.05
     Davidson diagonalization with overlap
     c_bands:  1 eigenvalues not converged
     c_bands:  1 eigenvalues not converged
     c_bands:  2 eigenvalues not converged
     c_bands:  1 eigenvalues not converged
     c_bands:  1 eigenvalues not converged
     c_bands:  2 eigenvalues not converged
     c_bands:  1 eigenvalues not converged
     c_bands:  1 eigenvalues not converged
     c_bands:  3 eigenvalues not converged
     ethr =  1.00E-05,  avg # of iterations = 19.6

[...]

     total energy              =   -2534.82790420 Ry
     estimated scf accuracy    <    4639.01856324 Ry

     iteration #  2     ecut=    29.40 Ry     beta= 0.05
     Davidson diagonalization with overlap
     ethr =  1.00E-02,  avg # of iterations = 24.5

[...]

     iteration # 42     ecut=    29.40 Ry     beta= 0.05
     Davidson diagonalization with overlap
     c_bands:  1 eigenvalues not converged
     ethr =  3.56E-07,  avg # of iterations = 10.2

[...]

     total energy              =   -2952.74691244 Ry
     estimated scf accuracy    <       0.00000009 Ry

     iteration # 58     ecut=    29.40 Ry     beta= 0.05
     Davidson diagonalization with overlap
     ethr =  2.37E-11,  avg # of iterations =  9.6

     negative rho (up, down):  1.672E-02 0.000E+00

     Adding external electric field

     Computed dipole along edir(3) :
        Dipole                1.0854 Ry au,          2.7587 Debye
        Dipole field          0.0020 Ry au,

        Potential amp.       -0.1899 Ry
        Total length         46.3494 bohr

     End of self-consistent calculation

          k = 0.0000 0.0000 0.0000 ( 18029 PWs)   bands (ev):

   -55.6624 -55.6406 -55.6065 -55.4695 -55.4622 -55.4352 -55.4343 -55.4287
   -55.4114 -55.4002 -55.3509 -55.2431 -55.2263 -55.1751 -54.6061 -54.5720
   -32.1242 -31.9908 -31.9653 -31.9580 -31.9534 -31.9318 -31.9316 -31.8858
   -31.8839 -31.8679 -31.8353 -31.7930 -31.7552 -31.7462 -31.7368 -31.7344
   -31.7161 -31.6981 -31.6784 -31.6673 -31.6643 -31.6575 -31.6366 -31.6254
   -31.6178 -31.6107 -31.6011 -31.5917 -31.5909 -31.5788 -31.5767 -31.5714
   -31.5669 -31.5471 -31.5220 -31.5066 -31.4394 -31.4311 -31.4177 -31.3879
   -31.3807 -31.3806 -31.0116 -30.9264 -30.9039 -30.8293 -30.7429 -30.6311
   -16.7157 -16.4369 -16.2567 -16.0829 -15.8692 -15.7949 -15.7577 -15.5608
   -15.4746 -15.4102 -15.1779 -15.1729 -15.1614 -15.1394 -15.1126 -15.1026
   -15.0925 -15.0575 -15.0557 -15.0335 -15.0074 -14.9742 -14.9657 -14.9180
   -14.8687 -14.8517 -14.7713 -14.6981 -14.6514 -14.4496 -14.3242 -13.1046
   -12.9884  -9.3362  -6.3513  -4.7271  -3.9548  -3.6256  -3.5399  -3.5054
    -3.4297  -3.3800  -3.1441  -3.0081  -2.9604  -2.8758  -2.7630  -2.7379
    -2.6761  -2.6208  -2.5530  -2.5301  -2.4874  -2.4316  -2.4089  -2.3785
    -2.3695  -2.3368  -2.2863  -2.2231  -2.1625  -2.1370  -2.0785  -2.0021
    -1.9540  -1.9495  -1.9428  -1.9218  -1.8978  -1.8755  -1.8524  -1.8413
    -1.7380  -1.6847  -1.6658  -1.6126  -1.5669  -1.3106  -1.2346  -1.2225
    -1.1537  -1.1035  -1.0714  -1.0533  -1.0246  -0.9794  -0.9268  -0.8936
    -0.8129  -0.7584  -0.6993  -0.6867  -0.6405  -0.5640  -0.4811  -0.4235
    -0.4067  -0.3489  -0.3405  -0.3148  -0.1926  -0.1545  -0.1447  -0.0898
    -0.0631   0.0398   0.0838   0.1229   0.1541   0.2428   0.2646   0.3059
     0.3115   0.3415   0.3482   0.4382   0.4476   0.4736   0.5359   0.5624
     0.6401   0.7114   0.7189   0.8746   0.9221   1.0125   1.0449   1.1345
     1.3712   1.4204   1.4784   1.6142   1.9866   2.0316   3.4527   3.5980
     3.6153   3.7072   3.7124   3.8182   3.9273   3.9823   4.0192   4.1313

[...]

          k = 0.0380-0.0419 0.0000 ( 17876 PWs)   bands (ev):

[...]

          k =-0.0760-0.0000 0.0000 ( 17886 PWs)   bands (ev):

[...]

          k =-0.0760-0.0839 0.0000 ( 17948 PWs)   bands (ev):

   -55.6616 -55.6238 -55.6231 -55.4533 -55.4504 -55.4456 -55.4449 -55.4335
   -55.4122 -55.3935 -55.3576 -55.2390 -55.2277 -55.1792 -54.5894 -54.5885
   -31.9397 -31.9393 -31.9263 -31.9178 -31.9175 -31.9169 -31.8764 -31.8686
   -31.8056 -31.7773 -31.7764 -31.7673 -31.7619 -31.7437 -31.7429 -31.7367
   -31.7188 -31.7158 -31.7026 -31.6823 -31.6698 -31.6580 -31.6549 -31.6474
   -31.6444 -31.6407 -31.6369 -31.6210 -31.6169 -31.6135 -31.6110 -31.6107
   -31.5980 -31.5804 -31.5778 -31.5220 -31.5061 -31.4610 -31.4428 -31.4347
   -31.4263 -31.3849 -30.9169 -30.9163 -30.8251 -30.8239 -30.7865 -30.7858
   -16.6950 -16.4178 -15.8233 -15.7146 -15.5939 -15.5853 -15.4724 -15.3999
   -15.3652 -15.3360 -15.3183 -15.3079 -15.2845 -15.2448 -15.1973 -15.1767
   -15.1445 -15.1264 -15.1141 -15.0730 -15.0578 -15.0482 -15.0292 -14.9849
   -14.9710 -14.9415 -14.9286 -14.7971 -14.7435 -14.6366 -14.5658 -13.0906
   -13.0900  -9.3412  -6.3474  -4.7120  -3.9366  -3.0274  -2.9315  -2.8014
    -2.7069  -2.6706  -2.6321  -2.6062  -2.5827  -2.5421  -2.5248  -2.4759
    -2.4317  -2.4144  -2.4031  -2.3733  -2.3691  -2.3602  -2.3285  -2.3077
    -2.3008  -2.2880  -2.2643  -2.2535  -2.2363  -2.2119  -2.1991  -2.1730
    -2.1522  -2.1054  -1.9957  -1.9415  -1.9144  -1.7854  -1.7720  -1.7509
    -1.7359  -1.7211  -1.7008  -1.6825  -1.6154  -1.5969  -1.5695  -1.3932
    -1.3741  -1.2850  -1.2525  -1.2071  -1.1423  -1.1289  -1.0790  -1.0513
    -0.9969  -0.9713  -0.8797  -0.8252  -0.7954  -0.7588  -0.6347  -0.5832
    -0.5774  -0.5673  -0.5379  -0.5174  -0.4732  -0.4524  -0.4225  -0.3568
    -0.3275  -0.3104  -0.2647  -0.2527  -0.1285  -0.0108   0.0735   0.1170
     0.1783   0.1992   0.2383   0.3431   0.4185   0.4994   0.5416   0.5598
     0.5911   0.6821   0.6977   0.8408   0.8702   0.8754   0.9115   0.9431
     0.9721   1.0169   1.7836   1.7917   1.8517   1.8521   3.6997   3.8303
     3.9602   3.9802   3.9924   4.0249   4.0288   4.0527   4.1032   4.1392

     the Fermi energy is     3.4842 ev

!    total energy              =   -2952.74697537 Ry
     estimated scf accuracy    <       0.00000005 Ry
     smearing contrib. (-TS)   =      -0.02003484 Ry
     internal energy E=F+TS    =   -2952.72694053 Ry

     The total energy is F=E-TS. E is the sum of the following terms:
     one-electron contribution =  -23991.53459361 Ry
     hartree contribution      =   12087.25694614 Ry
     xc contribution           =    -488.03054595 Ry
     ewald contribution        =    9439.57902985 Ry
     electric field correction =       0.00222305 Ry

     convergence has been achieved in  58 iterations

     Forces acting on atoms (cartesian axes, Ry/au):

     atom    1 type  1   force =     0.00016144   -0.00027787    0.09477436
     atom    2 type  1   force =    -0.00000659    0.00040705   -0.17487277
     atom    3 type  2   force =    -0.00001401   -0.00013050   -0.02196528
     atom    4 type  2   force =     0.00006359   -0.00191788    0.05340625
     atom    5 type  2   force =    -0.00734453   -0.00239790    0.00311134
     atom    6 type  2   force =     0.00860869   -0.00197375    0.00182535
     atom    7 type  1   force =    -0.00059097   -0.00347206    0.00958892
     atom    8 type  1   force =     0.00060700    0.00467944    0.00862012
     atom    9 type  2   force =     0.00009231    0.00016557   -0.00016365
     atom   10 type  2   force =    -0.00268980   -0.00030576   -0.01304332
     atom   11 type  2   force =    -0.00040140   -0.00035936   -0.00012711
     atom   12 type  2   force =     0.00017961   -0.00017570    0.00028855
     atom   13 type  1   force =     0.00040699    0.00020037   -0.00068375
     atom   14 type  1   force =    -0.00014507    0.00009759   -0.00003612
     atom   15 type  2   force =     0.00025192   -0.00025401   -0.00042009
     atom   16 type  2   force =     0.00039957    0.00011573   -0.00006788
     atom   17 type  2   force =    -0.00018032   -0.00000838    0.00030178
     atom   18 type  2   force =     0.00010136   -0.00093807   -0.00029942
     atom   19 type  1   force =     0.00028564    0.00043768    0.00023240
     atom   20 type  1   force =     0.00002313   -0.00011004    0.00011055
     atom   21 type  2   force =     0.00009668    0.00007504    0.10310337
     atom   22 type  2   force =     0.00007822   -0.00046969    0.00000821
     atom   23 type  2   force =    -0.07214572   -0.00013415   -0.02737566
     atom   24 type  2   force =     0.07209742    0.00027459   -0.02740088
     atom   25 type  1   force =     0.00003067   -0.00008513    0.09453523
     atom   26 type  1   force =    -0.00007474   -0.00132683   -0.17505810
     atom   27 type  2   force =     0.00014979   -0.00020556   -0.02073625
     atom   28 type  2   force =     0.00002358   -0.00018888    0.04899394
     atom   29 type  2   force =    -0.00616923    0.00259493    0.00154977
     atom   30 type  2   force =     0.00739058    0.00321701    0.00011076
     atom   31 type  1   force =    -0.00054857    0.00716444   -0.00089251
     atom   32 type  1   force =     0.00055874   -0.00651065    0.00785922
     atom   33 type  2   force =     0.00025476   -0.00024698   -0.00033994
     atom   34 type  2   force =    -0.00212861    0.00146513   -0.01185495
     atom   35 type  2   force =    -0.00009995    0.00000421    0.00016559
     atom   36 type  2   force =    -0.00021932    0.00011075    0.00028853
     atom   37 type  1   force =     0.00053887   -0.00011194   -0.00025370
     atom   38 type  1   force =    -0.00019403   -0.00015562    0.00030191
     atom   39 type  2   force =     0.00012304    0.00038173   -0.00038012
     atom   40 type  2   force =    -0.00014899    0.00027691   -0.00048658
     atom   41 type  2   force =     0.00015997    0.00037512   -0.00023085
     atom   42 type  2   force =    -0.00012304    0.00039549    0.00024652
     atom   43 type  1   force =    -0.00008631   -0.00090097   -0.00027648
     atom   44 type  1   force =     0.00015352    0.00076737    0.00028957
     atom   45 type  2   force =     0.00009937   -0.00009256    0.10291551
     atom   46 type  2   force =    -0.07216422   -0.00006288   -0.02740520
     atom   47 type  2   force =     0.07216464    0.00038728   -0.02744179
     atom   48 type  3   force =    -0.00012056   -0.00018095    0.00092396
     atom   49 type  4   force =     0.00312943   -0.00144927   -0.00213290
     atom   50 type  5   force =    -0.00246661    0.00113854    0.00128848
     atom   51 type  5   force =     0.00022842   -0.00033130   -0.00105343
     atom   52 type  5   force =    -0.00003427    0.00003269   -0.00012270
     atom   53 type  2   force =    -0.00001621    0.00006355    0.00155733
     atom   54 type  5   force =    -0.00034592   -0.00005357   -0.00127609

     Total force =     0.362416     Total SCF correction =     0.000722
  @ DRIVER MODE: Message from server: STATUS
  @ DRIVER MODE: Message from server: GETFORCE
  @ DRIVER MODE: Returning v,forces,stress,ensemble

     Writing output data file ./calc.save/
  @ DRIVER MODE: Message from server: EXIT
  @ DRIVE MODE: Exiting

     General routines

     Parallel routines

   This run was terminated on:   4: 1:34  23Sep2021

   JOB DONE.