     Program PWSCF v.6.7GPU starts on 16Sep2021 at  0: 2:26

     R & G space division:  proc/nbgrp/npool/nimage =      10
     Reading input from /storage/home/hcoda1/3/ntian30/research/carbon/CxH_vib/H2O_calc/ads_slab/CH2NHHH2O_a/out_0025/pw.inp
Warning: card &CELL ignored
Warning: card   CELL_DYNAMICS='IPI', ignored
Warning: card / ignored

     Current dimensions of program PWSCF are:
     Max number of different atomic species (ntypx) = 10
     Max number of k-points (npk) =  40000
     Max angular momentum in pseudopotentials (lmaxx) =  3
     Presently no symmetry can be used with electric field

     Message from routine cell_base_init:
     DEPRECATED: use true lattice parameter, not A to a.u. conversion factor

     IMPORTANT: XC functional enforced from input :
     Exchange-correlation= BEEF-VDW
                           (   1   4  43  14   2   0   0)
     Any further DFT definition will be discarded
     Please, verify this is what you really want

  @ DRIVER MODE: Connecting to
 qe_1139763_2852609.sched-torque.pace.gatech.edu9_1hlugu_scratch
  using UNIX socket
  @ DRIVER MODE: Message from server: STATUS
  @ DRIVER MODE: Message from server: INIT
  @ DRIVER MODE: Receiving replica           0          -1
  @ DRIVER MODE: Receiving encoded integer          25
  @ DRIVER MODE:  SCF:  T  FORCE:  T  STRESS:  F  VC:  F  ENSEMBLE:  F
  @ DRIVER MODE:  SCF:  T  FORCE:  T  STRESS:  F  VC:  F  ENSEMBLE:  F

     Using Slab Decomposition

     bravais-lattice index     =            0
     lattice parameter (alat)  =       1.8897  a.u.
     unit-cell volume          =    6658.9804 (a.u.)^3
     number of atoms/cell      =           56
     number of atomic types    =            5
     number of electrons       =       399.00
     number of Kohn-Sham states=          209
     kinetic-energy cutoff     =      29.3995  Ry
     charge density cutoff     =     293.9946  Ry
     scf convergence threshold =      7.3E-08
     mixing beta               =       0.0500
     number of iterations used =            8  plain     mixing
     Exchange-correlation= BEEF-VDW
                           (   1   4  43  14   2   0   0)

     celldm(1)=   1.889726  celldm(2)=   0.000000  celldm(3)=   0.000000
     celldm(4)=   0.000000  celldm(5)=   0.000000  celldm(6)=   0.000000

     crystal axes: (cart. coord. in units of alat)
               a(1) = (   6.579727   0.000000   0.000000 )
               a(2) = (  -0.000775   5.961596   0.000000 )
               a(3) = (   0.000000   0.000000  25.155947 )

     reciprocal axes: (cart. coord. in units 2 pi/alat)
               b(1) = (  0.151982  0.000020  0.000000 )
               b(2) = (  0.000000  0.167740  0.000000 )
               b(3) = (  0.000000  0.000000  0.039752 )

     PseudoPot. # 1 for Ti read from file:
     /storage/coda1/p-amedford6/0/shared/rich_project_chbe-medford/medford-share/data/pseudos_module/espresso/nninc/pbe/van/Ti.UPF
     MD5 check sum: 8e4df49b7f0d34bbd5052bf3f5ea0213
     Pseudo is Ultrasoft, Zval = 12.0
     Generated by new atomic code, or converted to UPF format
     Using radial grid of  851 points,  6 beta functions with:
                l(1) =   0
                l(2) =   0
                l(3) =   1
                l(4) =   1
                l(5) =   2
                l(6) =   2
     Q(r) pseudized with  8 coefficients,  rinner =    1.000   1.000   1.000
                                                       1.000   1.000

     PseudoPot. # 2 for O  read from file:
     /storage/coda1/p-amedford6/0/shared/rich_project_chbe-medford/medford-share/data/pseudos_module/espresso/nninc/pbe/van/O.UPF
     MD5 check sum: 78c19812648e8988a0fe644b0f25305e
     Pseudo is Ultrasoft, Zval =  6.0
     Generated by new atomic code, or converted to UPF format
     Using radial grid of  737 points,  4 beta functions with:
                l(1) =   0
                l(2) =   0
                l(3) =   1
                l(4) =   1
     Q(r) pseudized with  8 coefficients,  rinner =    0.800   0.800   0.800

     PseudoPot. # 3 for N  read from file:
     /storage/coda1/p-amedford6/0/shared/rich_project_chbe-medford/medford-share/data/pseudos_module/espresso/nninc/pbe/van/N.UPF
     MD5 check sum: 90d10febe142ad51ac9d5be1deb811c4
     Pseudo is Ultrasoft, Zval =  5.0
     Generated by new atomic code, or converted to UPF format
     Using radial grid of  729 points,  4 beta functions with:
                l(1) =   0
                l(2) =   0
                l(3) =   1
                l(4) =   1
     Q(r) pseudized with  8 coefficients,  rinner =    0.800   0.800   0.800

     PseudoPot. # 4 for C  read from file:
     /storage/coda1/p-amedford6/0/shared/rich_project_chbe-medford/medford-share/data/pseudos_module/espresso/nninc/pbe/van/C.UPF
     MD5 check sum: 1a69bf6b8db32088f5b2163dbdb77a27
     Pseudo is Ultrasoft, Zval =  4.0
     Generated by new atomic code, or converted to UPF format
     Using radial grid of  721 points,  4 beta functions with:
                l(1) =   0
                l(2) =   0
                l(3) =   1
                l(4) =   1
     Q(r) pseudized with  8 coefficients,  rinner =    0.800   0.800   0.800

     PseudoPot. # 5 for H  read from file:
     /storage/coda1/p-amedford6/0/shared/rich_project_chbe-medford/medford-share/data/pseudos_module/espresso/nninc/pbe/van/H.UPF
     MD5 check sum: b5ee9d7bfd3a09ee7748110bda690ff7
     Pseudo is Ultrasoft, Zval =  1.0
     Generated by new atomic code, or converted to UPF format
     Using radial grid of  615 points,  1 beta functions with:
                l(1) =   0
     Q(r) pseudized with  8 coefficients,  rinner =    0.800

     atomic species   valence    mass     pseudopotential
        Ti1           12.00    47.86700     Ti( 1.00)
        O1             6.00    15.99900     O ( 1.00)
        N1             5.00    14.00700     N ( 1.00)
        C1             4.00    12.01100     C ( 1.00)
        H1             1.00     1.00800     H ( 1.00)

     No symmetry found

   Cartesian axes

     site n.     atom                  positions (alat units)
         1           Ti1 tau(   1) = (   0.0004258   2.9801865   6.0000000  )
         2           Ti1 tau(   2) = (   3.2906075   1.4906267   6.0002472  )
         3           O1  tau(   3) = (   0.0006271   0.0005054   7.9858123  )
         4           O1  tau(   4) = (   3.2906025   0.0005020   7.3038282  )
         5           O1  tau(   5) = (   4.5942328   1.4918067   9.2879030  )
         6           O1  tau(   6) = (   1.9868534   1.4903216   9.2879459  )
         7           Ti1 tau(   7) = (   3.2907910   2.8959150   9.1758416  )
         8           Ti1 tau(   8) = (   0.0015273   1.4827037   9.2680791  )
         9           O1  tau(   9) = (   3.2861202   0.0128588  11.3777969  )
        10           O1  tau(  10) = (   0.0116148   5.9584955  10.6183126  )
        11           O1  tau(  11) = (   1.2831632   1.4993340  12.6921085  )
        12           O1  tau(  12) = (   5.2921761   1.5015178  12.6679780  )
        13           Ti1 tau(  13) = (   0.0111066   2.9912061  12.5123142  )
        14           Ti1 tau(  14) = (   3.3187119   1.4875497  12.5412637  )
        15           O1  tau(  15) = (   6.5416963   5.9006142  14.6662030  )
        16           O1  tau(  16) = (   3.3066524   0.0016155  14.0179881  )
        17           O1  tau(  17) = (   4.5377470   1.5714702  16.1207712  )
        18           O1  tau(  18) = (   1.9925948   1.5577299  16.0387284  )
        19           Ti1 tau(  19) = (   3.2598466   3.0207798  15.7337896  )
        20           Ti1 tau(  20) = (   0.0086319   1.3133152  15.8444473  )
        21           O1  tau(  21) = (   3.2904802   0.0005063   4.7018136  )
        22           O1  tau(  22) = (   6.5660721   0.1678205  17.2271563  )
        23           O1  tau(  23) = (   1.3043587   1.4918075   6.0039043  )
        24           O1  tau(  24) = (   5.2767064   1.4903225   6.0039473  )
        25           Ti1 tau(  25) = (   0.0000382   5.9609847   6.0000000  )
        26           Ti1 tau(  26) = (   3.2902200   4.4714249   6.0002472  )
        27           O1  tau(  27) = (   0.0002396   2.9813036   7.9858123  )
        28           O1  tau(  28) = (   3.2902150   2.9813002   7.3038282  )
        29           O1  tau(  29) = (   4.5938453   4.4726049   9.2879030  )
        30           O1  tau(  30) = (   1.9864658   4.4711199   9.2879459  )
        31           Ti1 tau(  31) = (   3.2891106   5.8743827   9.1763621  )
        32           Ti1 tau(  32) = (   0.0006254   4.4649316   9.2693709  )
        33           O1  tau(  33) = (   3.2870289   2.9785969  11.3746142  )
        34           O1  tau(  34) = (   0.0092240   2.9805883  10.6323155  )
        35           O1  tau(  35) = (   1.2865429   4.4729593  12.6568099  )
        36           O1  tau(  36) = (   5.2907978   4.4713399  12.6331247  )
        37           Ti1 tau(  37) = (   0.0245089   0.0029545  12.5000319  )
        38           Ti1 tau(  38) = (   3.3192338   4.4773935  12.5310228  )
        39           O1  tau(  39) = (   6.5398775   3.0461246  14.9162120  )
        40           O1  tau(  40) = (   3.2968145   3.0151409  13.9465962  )
        41           O1  tau(  41) = (   4.5189833   4.4812017  16.2068643  )
        42           O1  tau(  42) = (   1.9905864   4.4756957  16.1679402  )
        43           Ti1 tau(  43) = (   3.3140030   0.0507474  15.8534526  )
        44           Ti1 tau(  44) = (   0.0184218   4.5194176  15.9927436  )
        45           O1  tau(  45) = (   3.2900926   2.9813045   4.7018136  )
        46           O1  tau(  46) = (   1.3039711   4.4726057   6.0039043  )
        47           O1  tau(  47) = (   5.2763189   4.4711207   6.0039473  )
        48           N1  tau(  48) = (   6.2908993   3.4294391  18.1752670  )
        49           C1  tau(  49) = (   0.7550536   3.1452864  19.0745941  )
        50           H1  tau(  50) = (   1.1396299   3.9643166  19.6610198  )
        51           H1  tau(  51) = (   1.3301158   2.2513941  18.9084762  )
        52           H1  tau(  52) = (   5.7450451   4.2450011  18.4501662  )
        53           H1  tau(  53) = (   5.6463078   2.6497838  18.0429669  )
        54           O1  tau(  54) = (   3.1180431   0.1968263  18.2683150  )
        55           H1  tau(  55) = (   3.8687171   5.7182160  18.6922429  )
        56           H1  tau(  56) = (   2.3371514   5.6040609  18.4451484  )

     number of k points=    10  Fermi-Dirac smearing, width (Ry)=  0.0073
                       cart. coord. in units 2pi/alat
        k(    1) = (   0.0000000   0.0000000   0.0000000), wk =   0.1250000
        k(    2) = (   0.0000000   0.0419351   0.0000000), wk =   0.2500000
        k(    3) = (   0.0000000  -0.0838702   0.0000000), wk =   0.1250000
        k(    4) = (   0.0379955   0.0000049   0.0000000), wk =   0.2500000
        k(    5) = (   0.0379955   0.0419400   0.0000000), wk =   0.2500000
        k(    6) = (   0.0379955  -0.0838652   0.0000000), wk =   0.2500000
        k(    7) = (   0.0379955  -0.0419301   0.0000000), wk =   0.2500000
        k(    8) = (  -0.0759910  -0.0000099   0.0000000), wk =   0.1250000
        k(    9) = (  -0.0759910   0.0419252   0.0000000), wk =   0.2500000
        k(   10) = (  -0.0759910  -0.0838800   0.0000000), wk =   0.1250000

     Initial potential from superposition of free atoms

     starting charge  382.99914, renormalised to  399.00000

     negative rho (up, down):  1.613E-02 0.000E+00

     %%%%%%%%%%%%%%%%%%%%%%%%%%%%%%%%%%%%%%%%%%%%%%%%%%%%%%%%%%%%%%%%%%%%%%%%
     %                                                                      %
     % You are using vdW-DF, which was implemented by the Thonhauser group. %
     % Please cite the following two papers that made this development      %
     % possible and the two reviews that describe the various versions:     %
     %                                                                      %
     %   T. Thonhauser et al., PRL 115, 136402 (2015).                      %
     %   T. Thonhauser et al., PRB 76, 125112 (2007).                       %
     %   K. Berland et al., Rep. Prog. Phys. 78, 066501 (2015).             %
     %   D.C. Langreth et al., J. Phys.: Condens. Matter 21, 084203 (2009). %
     %                                                                      %
     %                                                                      %
     % If you are calculating the stress with vdW-DF, please also cite:     %
     %                                                                      %
     %   R. Sabatini et al., J. Phys.: Condens. Matter 24, 424209 (2012).   %
     %                                                                      %
     %%%%%%%%%%%%%%%%%%%%%%%%%%%%%%%%%%%%%%%%%%%%%%%%%%%%%%%%%%%%%%%%%%%%%%%%

     Adding external electric field

     Computed dipole along edir(3) :
        Dipole              -11.3169 Ry au,        -28.7647 Debye
        Dipole field         -0.0214 Ry au,

        Potential amp.        1.9797 Ry
        Total length         46.3494 bohr

     Starting wfcs are  302 atomic wfcs
  @ DRIVER MODE: Message from server: STATUS
  @ DRIVER MODE: Message from server: POSDATA
  @ DRIVER MODE: Reading and sharing cell
  @ DRIVER MODE: Reading and sharing positions
  @ DRIVER MODE: Received positions

     Self-consistent Calculation

     iteration #  1     ecut=    29.40 Ry     beta= 0.05
     Davidson diagonalization with overlap
     c_bands:  3 eigenvalues not converged
     c_bands:  3 eigenvalues not converged
     c_bands:  1 eigenvalues not converged
     c_bands:  4 eigenvalues not converged
     c_bands:  1 eigenvalues not converged
     c_bands:  1 eigenvalues not converged
     c_bands:  1 eigenvalues not converged
     c_bands:  2 eigenvalues not converged
     c_bands:  3 eigenvalues not converged
     ethr =  1.00E-05,  avg # of iterations = 24.0

[...]

     total energy              =   -2437.57395892 Ry
     estimated scf accuracy    <    5825.86791950 Ry

     iteration #  2     ecut=    29.40 Ry     beta= 0.05
     Davidson diagonalization with overlap
     ethr =  1.00E-02,  avg # of iterations = 27.9

[...]

     iteration # 73     ecut=    29.40 Ry     beta= 0.05
     Davidson diagonalization with overlap
     c_bands:  1 eigenvalues not converged
     ethr =  6.85E-11,  avg # of iterations = 12.9

[...]

     total energy              =   -2955.08678493 Ry
     estimated scf accuracy    <       0.00000013 Ry

     iteration # 75     ecut=    29.40 Ry     beta= 0.05
     Davidson diagonalization with overlap
     ethr =  3.17E-11,  avg # of iterations =  3.0

     negative rho (up, down):  1.530E-02 0.000E+00

     Adding external electric field

     Computed dipole along edir(3) :
        Dipole                0.9593 Ry au,          2.4384 Debye
        Dipole field          0.0018 Ry au,

        Potential amp.       -0.1678 Ry
        Total length         46.3494 bohr

     End of self-consistent calculation

          k = 0.0000 0.0000 0.0000 ( 18029 PWs)   bands (ev):

   -55.5436 -55.5102 -55.5070 -55.4894 -55.4761 -55.4274 -55.3911 -55.3717
   -55.3549 -55.3422 -55.3368 -55.3086 -55.2965 -55.1134 -54.5361 -54.5020
   -32.0994 -32.0024 -31.9157 -31.9007 -31.8752 -31.8605 -31.8469 -31.8419
   -31.7992 -31.7639 -31.7582 -31.7550 -31.7451 -31.7208 -31.7153 -31.6944
   -31.6850 -31.6823 -31.6708 -31.6624 -31.6411 -31.6238 -31.6065 -31.6005
   -31.5713 -31.5673 -31.5625 -31.5601 -31.5579 -31.5452 -31.5360 -31.5291
   -31.5250 -31.5198 -31.5092 -31.4967 -31.4854 -31.4702 -31.4675 -31.4531
   -31.3390 -31.2945 -30.9453 -30.8515 -30.8294 -30.7617 -30.6749 -30.5640
   -19.2389 -16.3929 -16.3024 -16.0870 -15.9219 -15.8436 -15.7471 -15.6063
   -15.5351 -15.4244 -15.3883 -15.2293 -15.2045 -15.1980 -15.1633 -15.1461
   -15.1070 -15.0888 -15.0597 -15.0481 -15.0467 -15.0249 -14.9883 -14.9844
   -14.9419 -14.9290 -14.8697 -14.7734 -14.7056 -14.6417 -14.3274 -13.0386
   -12.9212  -9.2148  -7.0115  -6.5184  -4.6111  -3.7168  -3.5851  -3.5619
    -3.5028  -3.4485  -3.4068  -3.2999  -3.0697  -3.0201  -2.9783  -2.9290
    -2.8114  -2.7402  -2.7359  -2.6567  -2.5811  -2.5391  -2.4845  -2.4758
    -2.3979  -2.3641  -2.3463  -2.3230  -2.2795  -2.2514  -2.2103  -2.1188
    -2.0974  -2.0188  -1.9905  -1.9459  -1.9421  -1.8947  -1.8768  -1.8380
    -1.8370  -1.8270  -1.8061  -1.7688  -1.7262  -1.6707  -1.5796  -1.5526
    -1.3862  -1.2739  -1.2099  -1.1826  -1.1301  -1.0984  -1.0330  -0.9844
    -0.9701  -0.9346  -0.8676  -0.7649  -0.6986  -0.6864  -0.6265  -0.5354
    -0.4773  -0.4388  -0.3570  -0.3314  -0.3128  -0.3075  -0.2422  -0.1754
    -0.1292  -0.0548  -0.0388   0.0168   0.0393   0.0899   0.1204   0.1871
     0.2428   0.2836   0.3348   0.3893   0.3907   0.4058   0.4408   0.4424
     0.5427   0.5544   0.5768   0.6774   0.7765   0.9648   1.0623   1.0977
     1.3949   1.4104   1.4868   1.6712   2.0624   2.1104   3.5171   3.5476
     3.6315   3.6868   3.6957   3.7256   3.7822   4.0355   4.0470   4.0690
     4.0821

[...]

          k = 0.0380-0.0419 0.0000 ( 17876 PWs)   bands (ev):

[...]

          k =-0.0760-0.0000 0.0000 ( 17886 PWs)   bands (ev):

[...]

          k =-0.0760-0.0839 0.0000 ( 17948 PWs)   bands (ev):

   -55.5291 -55.5212 -55.4932 -55.4930 -55.4871 -55.4151 -55.4035 -55.3570
   -55.3569 -55.3510 -55.3257 -55.3253 -55.2947 -55.1152 -54.5191 -54.5189
   -31.9112 -31.8989 -31.8175 -31.8174 -31.8006 -31.7996 -31.7879 -31.7845
   -31.7844 -31.7681 -31.7568 -31.7496 -31.7323 -31.7146 -31.6955 -31.6895
   -31.6863 -31.6842 -31.6797 -31.6729 -31.6702 -31.6605 -31.6328 -31.6317
   -31.6128 -31.6126 -31.6097 -31.6002 -31.5891 -31.5808 -31.5704 -31.5646
   -31.5554 -31.5547 -31.5526 -31.5430 -31.5132 -31.5053 -31.5048 -31.4818
   -31.3780 -31.3419 -30.8422 -30.8420 -30.7579 -30.7577 -30.7184 -30.7182
   -19.2381 -16.3118 -15.8842 -15.7853 -15.6554 -15.5725 -15.5498 -15.4765
   -15.4182 -15.3844 -15.3281 -15.3054 -15.2914 -15.2760 -15.2414 -15.2155
   -15.1959 -15.1524 -15.1351 -15.1170 -15.0856 -15.0605 -15.0496 -15.0444
   -15.0387 -15.0042 -14.9998 -14.9139 -14.9050 -14.9016 -14.5691 -13.0228
   -13.0226  -9.2139  -7.0417  -6.4595  -4.5938  -3.5495  -3.0904  -3.0487
    -2.9928  -2.8547  -2.7951  -2.7291  -2.6931  -2.6506  -2.6000  -2.5665
    -2.5485  -2.4973  -2.4896  -2.4245  -2.4090  -2.3937  -2.3753  -2.3713
    -2.3634  -2.3261  -2.2910  -2.2775  -2.2703  -2.2613  -2.2475  -2.2008
    -2.1854  -2.1540  -2.1443  -2.1110  -2.0815  -2.0511  -1.9387  -1.9061
    -1.8815  -1.8177  -1.7534  -1.7476  -1.6662  -1.6445  -1.5884  -1.5845
    -1.5648  -1.5263  -1.3984  -1.2928  -1.2814  -1.2301  -1.1973  -1.1736
    -1.1110  -1.0600  -1.0055  -1.0028  -0.9101  -0.8654  -0.8386  -0.7373
    -0.7071  -0.6992  -0.5824  -0.5570  -0.5189  -0.5079  -0.5016  -0.4422
    -0.4347  -0.4103  -0.3283  -0.3095  -0.2825  -0.2709  -0.2084  -0.0476
    -0.0172   0.0274   0.1549   0.1952   0.3577   0.3890   0.4211   0.5271
     0.5719   0.6196   0.6239   0.7467   0.7566   0.8439   0.8563   0.8734
     0.9090   0.9207   1.8436   1.8450   1.9304   1.9305   3.5335   3.7770
     3.8423   3.8496   3.8867   4.0230   4.0667   4.1255   4.1287   4.1385
     4.1572

     the Fermi energy is     3.6038 ev

!    total energy              =   -2955.08679604 Ry
     estimated scf accuracy    <       0.00000007 Ry
     smearing contrib. (-TS)   =      -0.04070857 Ry
     internal energy E=F+TS    =   -2955.04608747 Ry

     The total energy is F=E-TS. E is the sum of the following terms:
     one-electron contribution =  -23873.25145330 Ry
     hartree contribution      =   12028.80194946 Ry
     xc contribution           =    -489.72852581 Ry
     ewald contribution        =    9379.13020537 Ry
     electric field correction =       0.00173680 Ry

     convergence has been achieved in  75 iterations

     Forces acting on atoms (cartesian axes, Ry/au):

     atom    1 type  1   force =    -0.00000918   -0.00025413    0.09338303
     atom    2 type  1   force =    -0.00015674   -0.00039837   -0.17806870
     atom    3 type  2   force =     0.00001225   -0.00034476   -0.02034637
     atom    4 type  2   force =    -0.00003476   -0.00190114    0.05856517
     atom    5 type  2   force =    -0.01017988   -0.00085331    0.00745605
     atom    6 type  2   force =     0.01152156   -0.00017976    0.00625621
     atom    7 type  1   force =    -0.00076514    0.00203067   -0.01055851
     atom    8 type  1   force =     0.00031939    0.00074418   -0.00334849
     atom    9 type  2   force =     0.00024396    0.00042708    0.00015151
     atom   10 type  2   force =    -0.00108431    0.00267939   -0.00405897
     atom   11 type  2   force =    -0.00027796    0.00005283    0.00002698
     atom   12 type  2   force =    -0.00003730   -0.00002823    0.00012835
     atom   13 type  1   force =     0.00075123    0.00071873    0.00042149
     atom   14 type  1   force =    -0.00093012   -0.00011197   -0.00007670
     atom   15 type  2   force =    -0.00013275   -0.00029086    0.00057346
     atom   16 type  2   force =     0.00032153    0.00055468    0.00003722
     atom   17 type  2   force =     0.00008861   -0.00028586    0.00026936
     atom   18 type  2   force =     0.00064890    0.00021741    0.00006265
     atom   19 type  1   force =    -0.00082035   -0.00065187    0.00006651
     atom   20 type  1   force =     0.00019979   -0.00058043   -0.00028660
     atom   21 type  2   force =     0.00002238   -0.00011491    0.10386611
     atom   22 type  2   force =    -0.00000695   -0.00121699    0.00035834
     atom   23 type  2   force =    -0.07053769   -0.00021323   -0.02693265
     atom   24 type  2   force =     0.07035824    0.00022278   -0.02697638
     atom   25 type  1   force =     0.00003819   -0.00022040    0.09299030
     atom   26 type  1   force =    -0.00023771   -0.00043836   -0.17803606
     atom   27 type  2   force =     0.00006971   -0.00024862   -0.01932847
     atom   28 type  2   force =     0.00002408   -0.00162452    0.05765923
     atom   29 type  2   force =    -0.01076631   -0.00046662    0.00808679
     atom   30 type  2   force =     0.01198715   -0.00007674    0.00684662
     atom   31 type  1   force =    -0.00063501    0.00609308   -0.01379449
     atom   32 type  1   force =     0.00028569   -0.00085665   -0.00340425
     atom   33 type  2   force =     0.00014499    0.00006638    0.00001124
     atom   34 type  2   force =    -0.00051207   -0.00107582   -0.00265813
     atom   35 type  2   force =    -0.00041739    0.00006357    0.00004986
     atom   36 type  2   force =     0.00005062    0.00001450    0.00027098
     atom   37 type  1   force =     0.00082819   -0.00082198    0.00025888
     atom   38 type  1   force =    -0.00088654    0.00033987   -0.00052496
     atom   39 type  2   force =    -0.00023128   -0.00013070   -0.00014181
     atom   40 type  2   force =     0.00033387    0.00014345    0.00043798
     atom   41 type  2   force =     0.00001622   -0.00027990   -0.00004030
     atom   42 type  2   force =     0.00057274   -0.00013669   -0.00047794
     atom   43 type  1   force =    -0.00107626    0.00007192    0.00037946
     atom   44 type  1   force =     0.00127765   -0.00044633   -0.00004259
     atom   45 type  2   force =     0.00000991   -0.00012107    0.10386345
     atom   46 type  2   force =    -0.07053038   -0.00016628   -0.02690942
     atom   47 type  2   force =     0.07036032    0.00027000   -0.02697906
     atom   48 type  3   force =    -0.00501362    0.00576133    0.00177804
     atom   49 type  4   force =     0.00026322    0.00223854    0.00026433
     atom   50 type  5   force =    -0.00046470   -0.00094183   -0.00058998
     atom   51 type  5   force =     0.00008352    0.00003825    0.00015076
     atom   52 type  5   force =     0.00617655   -0.00631206   -0.00181124
     atom   53 type  5   force =     0.00012274   -0.00104651    0.00039791
     atom   54 type  2   force =    -0.00000102    0.00014273    0.00028149
     atom   55 type  5   force =    -0.00069370   -0.00014709   -0.00009497
     atom   56 type  5   force =    -0.00069411    0.00009260    0.00013725

     Total force =     0.365958     Total SCF correction =     0.000751
  @ DRIVER MODE: Message from server: STATUS
  @ DRIVER MODE: Message from server: GETFORCE
  @ DRIVER MODE: Returning v,forces,stress,ensemble

     Writing output data file ./calc.save/
  @ DRIVER MODE: Message from server: EXIT
  @ DRIVE MODE: Exiting

     General routines

     Parallel routines

   This run was terminated on:   0:21:49  16Sep2021

   JOB DONE.