     Program PWSCF v.6.7GPU starts on  9Sep2021 at 14:10:19

     R & G space division:  proc/nbgrp/npool/nimage =      10
     Reading input from /storage/home/hcoda1/3/ntian30/research/carbon/CxH_vib/CH3_calc/ads_slab/CH3NH2NH_c/out_0048/pw.inp
Warning: card &CELL ignored
Warning: card   CELL_DYNAMICS='IPI', ignored
Warning: card / ignored

     Current dimensions of program PWSCF are:
     Max number of different atomic species (ntypx) = 10
     Max number of k-points (npk) =  40000
     Max angular momentum in pseudopotentials (lmaxx) =  3
     Presently no symmetry can be used with electric field

     Message from routine cell_base_init:
     DEPRECATED: use true lattice parameter, not A to a.u. conversion factor

     IMPORTANT: XC functional enforced from input :
     Exchange-correlation= BEEF-VDW
                           (   1   4  43  14   2   0   0)
     Any further DFT definition will be discarded
     Please, verify this is what you really want

  @ DRIVER MODE: Connecting to
 qe_1139763_2767400.sched-torque.pace.gatech.edu0mdmbxsv_scratch
  using UNIX socket
  @ DRIVER MODE: Message from server: STATUS
  @ DRIVER MODE: Message from server: INIT
  @ DRIVER MODE: Receiving replica           0          -1
  @ DRIVER MODE: Receiving encoded integer          25
  @ DRIVER MODE:  SCF:  T  FORCE:  T  STRESS:  F  VC:  F  ENSEMBLE:  F
  @ DRIVER MODE:  SCF:  T  FORCE:  T  STRESS:  F  VC:  F  ENSEMBLE:  F

     Using Slab Decomposition

     bravais-lattice index     =            0
     lattice parameter (alat)  =       1.8897  a.u.
     unit-cell volume          =    6658.9804 (a.u.)^3
     number of atoms/cell      =           56
     number of atomic types    =            5
     number of electrons       =       398.00
     number of Kohn-Sham states=          209
     kinetic-energy cutoff     =      29.3995  Ry
     charge density cutoff     =     293.9946  Ry
     scf convergence threshold =      7.3E-08
     mixing beta               =       0.0500
     number of iterations used =            8  plain     mixing
     Exchange-correlation= BEEF-VDW
                           (   1   4  43  14   2   0   0)

     celldm(1)=   1.889726  celldm(2)=   0.000000  celldm(3)=   0.000000
     celldm(4)=   0.000000  celldm(5)=   0.000000  celldm(6)=   0.000000

     crystal axes: (cart. coord. in units of alat)
               a(1) = (   6.579727   0.000000   0.000000 )
               a(2) = (  -0.000775   5.961596   0.000000 )
               a(3) = (   0.000000   0.000000  25.155947 )

     reciprocal axes: (cart. coord. in units 2 pi/alat)
               b(1) = (  0.151982  0.000020  0.000000 )
               b(2) = (  0.000000  0.167740  0.000000 )
               b(3) = (  0.000000  0.000000  0.039752 )

     PseudoPot. # 1 for Ti read from file:
     /storage/coda1/p-amedford6/0/shared/rich_project_chbe-medford/medford-share/data/pseudos_module/espresso/nninc/pbe/van/Ti.UPF
     MD5 check sum: 8e4df49b7f0d34bbd5052bf3f5ea0213
     Pseudo is Ultrasoft, Zval = 12.0
     Generated by new atomic code, or converted to UPF format
     Using radial grid of  851 points,  6 beta functions with:
                l(1) =   0
                l(2) =   0
                l(3) =   1
                l(4) =   1
                l(5) =   2
                l(6) =   2
     Q(r) pseudized with  8 coefficients,  rinner =    1.000   1.000   1.000
                                                       1.000   1.000

     PseudoPot. # 2 for O  read from file:
     /storage/coda1/p-amedford6/0/shared/rich_project_chbe-medford/medford-share/data/pseudos_module/espresso/nninc/pbe/van/O.UPF
     MD5 check sum: 78c19812648e8988a0fe644b0f25305e
     Pseudo is Ultrasoft, Zval =  6.0
     Generated by new atomic code, or converted to UPF format
     Using radial grid of  737 points,  4 beta functions with:
                l(1) =   0
                l(2) =   0
                l(3) =   1
                l(4) =   1
     Q(r) pseudized with  8 coefficients,  rinner =    0.800   0.800   0.800

     PseudoPot. # 3 for N  read from file:
     /storage/coda1/p-amedford6/0/shared/rich_project_chbe-medford/medford-share/data/pseudos_module/espresso/nninc/pbe/van/N.UPF
     MD5 check sum: 90d10febe142ad51ac9d5be1deb811c4
     Pseudo is Ultrasoft, Zval =  5.0
     Generated by new atomic code, or converted to UPF format
     Using radial grid of  729 points,  4 beta functions with:
                l(1) =   0
                l(2) =   0
                l(3) =   1
                l(4) =   1
     Q(r) pseudized with  8 coefficients,  rinner =    0.800   0.800   0.800

     PseudoPot. # 4 for C  read from file:
     /storage/coda1/p-amedford6/0/shared/rich_project_chbe-medford/medford-share/data/pseudos_module/espresso/nninc/pbe/van/C.UPF
     MD5 check sum: 1a69bf6b8db32088f5b2163dbdb77a27
     Pseudo is Ultrasoft, Zval =  4.0
     Generated by new atomic code, or converted to UPF format
     Using radial grid of  721 points,  4 beta functions with:
                l(1) =   0
                l(2) =   0
                l(3) =   1
                l(4) =   1
     Q(r) pseudized with  8 coefficients,  rinner =    0.800   0.800   0.800

     PseudoPot. # 5 for H  read from file:
     /storage/coda1/p-amedford6/0/shared/rich_project_chbe-medford/medford-share/data/pseudos_module/espresso/nninc/pbe/van/H.UPF
     MD5 check sum: b5ee9d7bfd3a09ee7748110bda690ff7
     Pseudo is Ultrasoft, Zval =  1.0
     Generated by new atomic code, or converted to UPF format
     Using radial grid of  615 points,  1 beta functions with:
                l(1) =   0
     Q(r) pseudized with  8 coefficients,  rinner =    0.800

     atomic species   valence    mass     pseudopotential
        Ti1           12.00    47.86700     Ti( 1.00)
        O1             6.00    15.99900     O ( 1.00)
        N1             5.00    14.00700     N ( 1.00)
        C1             4.00    12.01100     C ( 1.00)
        H1             1.00     1.00800     H ( 1.00)

     No symmetry found

   Cartesian axes

     site n.     atom                  positions (alat units)
         1           Ti1 tau(   1) = (   0.0004258   2.9801865   6.0000000  )
         2           Ti1 tau(   2) = (   3.2906075   1.4906267   6.0002472  )
         3           O1  tau(   3) = (   0.0006271   0.0005054   7.9858123  )
         4           O1  tau(   4) = (   3.2906025   0.0005020   7.3038282  )
         5           O1  tau(   5) = (   4.5942328   1.4918067   9.2879030  )
         6           O1  tau(   6) = (   1.9868534   1.4903216   9.2879459  )
         7           Ti1 tau(   7) = (   3.2907910   2.8959150   9.1758416  )
         8           Ti1 tau(   8) = (   0.0015273   1.4827037   9.2680791  )
         9           O1  tau(   9) = (   3.3032705   0.0110091  11.3485381  )
        10           O1  tau(  10) = (   0.0116148   5.9584955  10.6183126  )
        11           O1  tau(  11) = (   1.3020657   1.4959176  12.6398190  )
        12           O1  tau(  12) = (   5.2896457   1.4919019  12.6612249  )
        13           Ti1 tau(  13) = (   0.0353884   3.0012823  12.5523301  )
        14           Ti1 tau(  14) = (   3.3275346   1.5008247  12.4978572  )
        15           O1  tau(  15) = (   0.0424128   0.0047235  14.7277795  )
        16           O1  tau(  16) = (   3.2762846   0.0047332  13.9819514  )
        17           O1  tau(  17) = (   4.5591522   1.5298593  16.0930730  )
        18           O1  tau(  18) = (   2.0612242   1.5646392  16.2256692  )
        19           Ti1 tau(  19) = (   3.3170857   3.0293758  15.7013767  )
        20           Ti1 tau(  20) = (   6.5267591   1.5471840  15.7818195  )
        21           O1  tau(  21) = (   3.2904802   0.0005063   4.7018136  )
        22           O1  tau(  22) = (   0.0258072   0.0396315  17.3287798  )
        23           O1  tau(  23) = (   1.3043587   1.4918075   6.0039043  )
        24           O1  tau(  24) = (   5.2767064   1.4903225   6.0039473  )
        25           Ti1 tau(  25) = (   0.0000382   5.9609847   6.0000000  )
        26           Ti1 tau(  26) = (   3.2902200   4.4714249   6.0002472  )
        27           O1  tau(  27) = (   0.0002396   2.9813036   7.9858123  )
        28           O1  tau(  28) = (   3.2902150   2.9813002   7.3038282  )
        29           O1  tau(  29) = (   4.5938453   4.4726049   9.2879030  )
        30           O1  tau(  30) = (   1.9864658   4.4711199   9.2879459  )
        31           Ti1 tau(  31) = (   3.2891106   5.8743827   9.1763621  )
        32           Ti1 tau(  32) = (   0.0006254   4.4649316   9.2693709  )
        33           O1  tau(  33) = (   3.3047253   2.9863606  11.3412877  )
        34           O1  tau(  34) = (   0.0092240   2.9805883  10.6323155  )
        35           O1  tau(  35) = (   1.3023160   4.4818153  12.6295520  )
        36           O1  tau(  36) = (   5.2910779   4.4839738  12.6480862  )
        37           Ti1 tau(  37) = (   0.0306270   0.0097343  12.5156175  )
        38           Ti1 tau(  38) = (   3.3295341   4.4791655  12.4867326  )
        39           O1  tau(  39) = (   0.0319336   2.9935560  14.7343221  )
        40           O1  tau(  40) = (   3.2835893   3.0037955  13.9224844  )
        41           O1  tau(  41) = (   4.5669158   4.4809188  16.1713821  )
        42           O1  tau(  42) = (   2.0542530   4.4668402  16.2247519  )
        43           Ti1 tau(  43) = (   3.3000170   0.0150779  15.7669526  )
        44           Ti1 tau(  44) = (   0.0416703   4.6955124  16.1636639  )
        45           O1  tau(  45) = (   3.2900926   2.9813045   4.7018136  )
        46           O1  tau(  46) = (   1.3039711   4.4726057   6.0039043  )
        47           O1  tau(  47) = (   5.2763189   4.4711207   6.0039473  )
        48           N1  tau(  48) = (   0.9019483   2.4226080  18.4567899  )
        49           N1  tau(  49) = (   6.4923839   2.9153054  17.5348467  )
        50           C1  tau(  50) = (   1.2734633   3.3482217  19.5544901  )
        51           H1  tau(  51) = (   0.3921683   3.5464126  20.1615046  )
        52           H1  tau(  52) = (   2.0553077   2.8833093  20.1573268  )
        53           H1  tau(  53) = (   1.6239766   4.2728770  19.1044814  )
        54           H1  tau(  54) = (   0.5870980   1.4942747  18.7832689  )
        55           H1  tau(  55) = (   5.5983569   2.8486818  18.0259164  )
        56           H1  tau(  56) = (   1.7025450   2.1792920  17.8234971  )

     number of k points=    10  Fermi-Dirac smearing, width (Ry)=  0.0073
                       cart. coord. in units 2pi/alat
        k(    1) = (   0.0000000   0.0000000   0.0000000), wk =   0.1250000
        k(    2) = (   0.0000000   0.0419351   0.0000000), wk =   0.2500000
        k(    3) = (   0.0000000  -0.0838702   0.0000000), wk =   0.1250000
        k(    4) = (   0.0379955   0.0000049   0.0000000), wk =   0.2500000
        k(    5) = (   0.0379955   0.0419400   0.0000000), wk =   0.2500000
        k(    6) = (   0.0379955  -0.0838652   0.0000000), wk =   0.2500000
        k(    7) = (   0.0379955  -0.0419301   0.0000000), wk =   0.2500000
        k(    8) = (  -0.0759910  -0.0000099   0.0000000), wk =   0.1250000
        k(    9) = (  -0.0759910   0.0419252   0.0000000), wk =   0.2500000
        k(   10) = (  -0.0759910  -0.0838800   0.0000000), wk =   0.1250000

     Initial potential from superposition of free atoms

     starting charge  381.99914, renormalised to  398.00000

     negative rho (up, down):  1.484E-02 0.000E+00

     %%%%%%%%%%%%%%%%%%%%%%%%%%%%%%%%%%%%%%%%%%%%%%%%%%%%%%%%%%%%%%%%%%%%%%%%
     %                                                                      %
     % You are using vdW-DF, which was implemented by the Thonhauser group. %
     % Please cite the following two papers that made this development      %
     % possible and the two reviews that describe the various versions:     %
     %                                                                      %
     %   T. Thonhauser et al., PRL 115, 136402 (2015).                      %
     %   T. Thonhauser et al., PRB 76, 125112 (2007).                       %
     %   K. Berland et al., Rep. Prog. Phys. 78, 066501 (2015).             %
     %   D.C. Langreth et al., J. Phys.: Condens. Matter 21, 084203 (2009). %
     %                                                                      %
     %                                                                      %
     % If you are calculating the stress with vdW-DF, please also cite:     %
     %                                                                      %
     %   R. Sabatini et al., J. Phys.: Condens. Matter 24, 424209 (2012).   %
     %                                                                      %
     %%%%%%%%%%%%%%%%%%%%%%%%%%%%%%%%%%%%%%%%%%%%%%%%%%%%%%%%%%%%%%%%%%%%%%%%

     Adding external electric field

     Computed dipole along edir(3) :
        Dipole              -10.9114 Ry au,        -27.7340 Debye
        Dipole field         -0.0206 Ry au,

        Potential amp.        1.9088 Ry
        Total length         46.3494 bohr

     Starting wfcs are  302 atomic wfcs
  @ DRIVER MODE: Message from server: STATUS
  @ DRIVER MODE: Message from server: POSDATA
  @ DRIVER MODE: Reading and sharing cell
  @ DRIVER MODE: Reading and sharing positions
  @ DRIVER MODE: Received positions

     Self-consistent Calculation

     iteration #  1     ecut=    29.40 Ry     beta= 0.05
     Davidson diagonalization with overlap
     c_bands:  4 eigenvalues not converged
     c_bands:  4 eigenvalues not converged
     c_bands:  1 eigenvalues not converged
     c_bands:  2 eigenvalues not converged
     c_bands:  3 eigenvalues not converged
     c_bands:  4 eigenvalues not converged
     c_bands:  4 eigenvalues not converged
     ethr =  1.00E-05,  avg # of iterations = 24.3

[...]

     total energy              =   -2445.37325946 Ry
     estimated scf accuracy    <    5568.59360803 Ry

     iteration #  2     ecut=    29.40 Ry     beta= 0.05
     Davidson diagonalization with overlap
     ethr =  1.00E-02,  avg # of iterations = 22.5

[...]

     iteration # 81     ecut=    29.40 Ry     beta= 0.05
     Davidson diagonalization with overlap
     c_bands:  3 eigenvalues not converged
     ethr =  2.48E-11,  avg # of iterations = 13.6

[...]

     total energy              =   -2942.84150551 Ry
     estimated scf accuracy    <       0.00000008 Ry

     iteration # 82     ecut=    29.40 Ry     beta= 0.05
     Davidson diagonalization with overlap
     ethr =  2.04E-11,  avg # of iterations = 11.3

     negative rho (up, down):  1.047E-02 0.000E+00

     Adding external electric field

     Computed dipole along edir(3) :
        Dipole                1.5774 Ry au,          4.0094 Debye
        Dipole field          0.0030 Ry au,

        Potential amp.       -0.2759 Ry
        Total length         46.3494 bohr

     End of self-consistent calculation

          k = 0.0000 0.0000 0.0000 ( 18029 PWs)   bands (ev):

   -55.0922 -55.0566 -55.0531 -55.0225 -54.9693 -54.9667 -54.9292 -54.8925
   -54.8841 -54.8698 -54.8567 -54.8518 -54.8046 -54.7599 -54.0667 -54.0326
   -31.6661 -31.5461 -31.4561 -31.4264 -31.3873 -31.3827 -31.3811 -31.3514
   -31.3482 -31.3468 -31.3037 -31.3017 -31.3011 -31.2667 -31.2485 -31.2290
   -31.2091 -31.2053 -31.1960 -31.1941 -31.1676 -31.1503 -31.1488 -31.1228
   -31.1134 -31.0993 -31.0964 -31.0945 -31.0908 -31.0777 -31.0728 -31.0655
   -31.0531 -31.0424 -31.0234 -31.0158 -31.0082 -31.0020 -30.9978 -30.9921
   -30.9872 -30.9527 -30.4751 -30.3834 -30.3612 -30.2917 -30.2050 -30.0940
   -19.1616 -15.9346 -15.6598 -15.5372 -15.3269 -15.2775 -15.2044 -15.0092
   -14.9441 -14.8878 -14.8775 -14.8660 -14.8498 -14.7786 -14.6995 -14.6191
   -14.6165 -14.6095 -14.5974 -14.5809 -14.5738 -14.5113 -14.5039 -14.4721
   -14.4601 -14.4199 -14.3128 -14.2311 -14.1742 -14.0226 -13.3157 -12.5693
   -12.4522 -11.1024  -7.8783  -6.5418  -5.8489  -4.1094  -3.9412  -3.2799
    -3.0947  -3.0707  -3.0101  -2.9851  -2.8106  -2.7605  -2.5600  -2.4491
    -2.3616  -2.3226  -2.3103  -2.2937  -2.1433  -2.0756  -2.0411  -1.9942
    -1.9700  -1.9477  -1.9065  -1.8988  -1.8682  -1.8501  -1.8413  -1.6643
    -1.5889  -1.5421  -1.5109  -1.4718  -1.4222  -1.3943  -1.3757  -1.3710
    -1.3658  -1.3467  -1.3145  -1.2541  -1.2252  -1.1692  -1.1014  -1.0744
    -0.9847  -0.9022  -0.7154  -0.6690  -0.6520  -0.6158  -0.5559  -0.5067
    -0.4730  -0.4380  -0.4238  -0.3568  -0.2881  -0.2553  -0.1929  -0.1286
    -0.1178  -0.0551  -0.0478   0.1135   0.1251   0.1463   0.2382   0.3243
     0.3720   0.3802   0.4386   0.5123   0.5344   0.5444   0.5809   0.6014
     0.6776   0.7868   0.8115   0.8533   0.8647   0.8983   0.9213   0.9763
     1.0001   1.0627   1.0688   1.1736   1.2239   1.2555   1.5052   1.5380
     1.8684   1.9019   1.9558   2.1425   2.5297   2.5768   4.0162   4.0790
     4.0924   4.1419   4.1652   4.1842   4.2563   4.4770   4.5022   4.5085
     4.5159

[...]

          k = 0.0380-0.0419 0.0000 ( 17876 PWs)   bands (ev):

[...]

          k =-0.0760-0.0000 0.0000 ( 17886 PWs)   bands (ev):

[...]

          k =-0.0760-0.0839 0.0000 ( 17948 PWs)   bands (ev):

   -55.0801 -55.0649 -55.0396 -55.0394 -54.9663 -54.9556 -54.9402 -54.8754
   -54.8726 -54.8719 -54.8699 -54.8677 -54.7986 -54.7658 -54.0497 -54.0495
   -31.4738 -31.4641 -31.4013 -31.3613 -31.3611 -31.3597 -31.3324 -31.3321
   -31.3011 -31.2971 -31.2922 -31.2861 -31.2604 -31.2263 -31.2192 -31.2131
   -31.2111 -31.2072 -31.2064 -31.1976 -31.1654 -31.1644 -31.1608 -31.1588
   -31.1585 -31.1557 -31.1512 -31.1348 -31.1095 -31.1057 -31.0993 -31.0905
   -31.0885 -31.0865 -31.0855 -31.0692 -31.0510 -31.0497 -31.0384 -31.0328
   -31.0080 -30.9916 -30.3739 -30.3738 -30.2878 -30.2876 -30.2484 -30.2484
   -19.1577 -15.4177 -15.3275 -15.1787 -15.1593 -15.1105 -15.0625 -15.0460
   -15.0282 -14.9721 -14.9325 -14.8865 -14.8382 -14.7955 -14.7933 -14.7544
   -14.6826 -14.6611 -14.6591 -14.6445 -14.5937 -14.5830 -14.5554 -14.5366
   -14.5316 -14.4884 -14.4289 -14.4253 -14.3858 -14.2061 -13.3259 -12.5539
   -12.5537 -11.1049  -7.8884  -6.5257  -5.8379  -4.0804  -3.9349  -2.6868
    -2.5877  -2.5344  -2.4210  -2.3343  -2.2940  -2.2598  -2.1245  -2.1045
    -2.0866  -2.0606  -2.0477  -2.0131  -2.0053  -1.9572  -1.9285  -1.9182
    -1.9118  -1.8989  -1.8767  -1.8283  -1.8062  -1.7968  -1.7874  -1.7487
    -1.7347  -1.7028  -1.6968  -1.6580  -1.6364  -1.5512  -1.4621  -1.4223
    -1.3721  -1.3067  -1.2728  -1.2661  -1.1726  -1.1642  -1.1415  -1.1081
    -1.0626  -0.9418  -0.8844  -0.8219  -0.8181  -0.8051  -0.6979  -0.6606
    -0.6295  -0.5945  -0.5576  -0.5270  -0.4888  -0.4420  -0.3652  -0.3346
    -0.2953  -0.2583  -0.1861  -0.0984  -0.0790  -0.0481  -0.0439   0.0432
     0.0673   0.1056   0.1148   0.1339   0.1906   0.2036   0.2910   0.3809
     0.4456   0.5336   0.6473   0.6519   0.7296   0.8213   0.9096   0.9467
     0.9990   1.0639   1.0669   1.0999   1.2208   1.2280   1.3496   1.3884
     1.3971   1.4196   2.3148   2.3158   2.3970   2.3970   4.1454   4.2431
     4.2820   4.3232   4.3746   4.5205   4.5436   4.5893   4.5898   4.6604
     4.6733

     the Fermi energy is     4.0627 ev

!    total energy              =   -2942.84151075 Ry
     estimated scf accuracy    <       0.00000003 Ry
     smearing contrib. (-TS)   =      -0.03725370 Ry
     internal energy E=F+TS    =   -2942.80425704 Ry

     The total energy is F=E-TS. E is the sum of the following terms:
     one-electron contribution =  -23855.95796023 Ry
     hartree contribution      =   12023.30368451 Ry
     xc contribution           =    -487.75183329 Ry
     ewald contribution        =    9377.59715637 Ry
     electric field correction =       0.00469561 Ry

     convergence has been achieved in  82 iterations

     Forces acting on atoms (cartesian axes, Ry/au):

     atom    1 type  1   force =     0.00001831   -0.00023514    0.09432774
     atom    2 type  1   force =    -0.00015774   -0.00054714   -0.17709484
     atom    3 type  2   force =     0.00001711   -0.00024492   -0.02146182
     atom    4 type  2   force =    -0.00001579   -0.00167679    0.05642138
     atom    5 type  2   force =    -0.01049175   -0.00075361    0.00562203
     atom    6 type  2   force =     0.01225588   -0.00009763    0.00551471
     atom    7 type  1   force =    -0.00024197    0.00106924   -0.01570644
     atom    8 type  1   force =    -0.00006775    0.00525236    0.00656407
     atom    9 type  2   force =    -0.00030547    0.00055608    0.00020750
     atom   10 type  2   force =    -0.00199836    0.00266041   -0.00435496
     atom   11 type  2   force =     0.00039391   -0.00022342    0.00027298
     atom   12 type  2   force =    -0.00007502   -0.00029102   -0.00020203
     atom   13 type  1   force =    -0.00072718    0.00044565   -0.00004577
     atom   14 type  1   force =     0.00037672   -0.00016717    0.00004292
     atom   15 type  2   force =    -0.00018047   -0.00058100   -0.00039525
     atom   16 type  2   force =     0.00004534    0.00037521   -0.00032541
     atom   17 type  2   force =     0.00071044    0.00009380    0.00028666
     atom   18 type  2   force =    -0.00017240    0.00010882   -0.00017738
     atom   19 type  1   force =     0.00044923    0.00073374    0.00046437
     atom   20 type  1   force =    -0.00069837    0.00009729    0.00073310
     atom   21 type  2   force =    -0.00001988   -0.00011408    0.10366408
     atom   22 type  2   force =     0.00019452    0.00027312    0.00035310
     atom   23 type  2   force =    -0.07089843   -0.00021066   -0.02718496
     atom   24 type  2   force =     0.07069796    0.00024139   -0.02723461
     atom   25 type  1   force =     0.00001970   -0.00027113    0.09399721
     atom   26 type  1   force =    -0.00025186   -0.00055320   -0.17736441
     atom   27 type  2   force =     0.00005886   -0.00008000   -0.02059887
     atom   28 type  2   force =     0.00002420   -0.00136476    0.05571420
     atom   29 type  2   force =    -0.01079636   -0.00000334    0.00591850
     atom   30 type  2   force =     0.01248391    0.00028367    0.00576944
     atom   31 type  1   force =    -0.00016973    0.00516855   -0.01628406
     atom   32 type  1   force =    -0.00009054   -0.00625539    0.00669724
     atom   33 type  2   force =    -0.00009662   -0.00047583    0.00023502
     atom   34 type  2   force =    -0.00163483    0.00066802   -0.00775091
     atom   35 type  2   force =    -0.00033584    0.00005861    0.00041668
     atom   36 type  2   force =     0.00058251    0.00005774   -0.00007546
     atom   37 type  1   force =    -0.00082298   -0.00077876   -0.00009029
     atom   38 type  1   force =     0.00048428    0.00001036    0.00044709
     atom   39 type  2   force =    -0.00026188   -0.00016192    0.00062264
     atom   40 type  2   force =    -0.00005895   -0.00018969   -0.00025029
     atom   41 type  2   force =     0.00005223   -0.00040894    0.00021449
     atom   42 type  2   force =    -0.00021176   -0.00031865    0.00050788
     atom   43 type  1   force =     0.00010538   -0.00065506   -0.00014396
     atom   44 type  1   force =     0.00011366    0.00054879    0.00038671
     atom   45 type  2   force =    -0.00002252   -0.00011741    0.10366096
     atom   46 type  2   force =    -0.07090633   -0.00014344   -0.02715615
     atom   47 type  2   force =     0.07070922    0.00027681   -0.02722635
     atom   48 type  3   force =     0.00135801    0.00091010    0.00028728
     atom   49 type  3   force =    -0.00644911   -0.00177718    0.00591459
     atom   50 type  4   force =     0.00077055   -0.00010600   -0.00022787
     atom   51 type  5   force =     0.00018364   -0.00054262    0.00067285
     atom   52 type  5   force =    -0.00043398    0.00040350    0.00009150
     atom   53 type  5   force =     0.00042738   -0.00044287    0.00025538
     atom   54 type  5   force =     0.00018850   -0.00022341   -0.00005532
     atom   55 type  5   force =     0.00529371    0.00049649   -0.00497107
     atom   56 type  5   force =     0.00057870   -0.00077756    0.00009418

     Total force =     0.365836     Total SCF correction =     0.000535
  @ DRIVER MODE: Message from server: STATUS
  @ DRIVER MODE: Message from server: GETFORCE
  @ DRIVER MODE: Returning v,forces,stress,ensemble

     Writing output data file ./calc.save/
  @ DRIVER MODE: Message from server: EXIT
  @ DRIVE MODE: Exiting

     General routines

     Parallel routines

   This run was terminated on:  14:32:23   9Sep2021

   JOB DONE.