     Program PWSCF v.6.7GPU starts on 23Sep2021 at 11:25:25

     R & G space division:  proc/nbgrp/npool/nimage =      10
     Reading input from /storage/home/hcoda1/3/ntian30/research/carbon/CxH_vib/H2O_calc/ads_slab/CH3NHHH2O_a/out_0060/pw.inp
Warning: card &CELL ignored
Warning: card   CELL_DYNAMICS='IPI', ignored
Warning: card / ignored

     Current dimensions of program PWSCF are:
     Max number of different atomic species (ntypx) = 10
     Max number of k-points (npk) =  40000
     Max angular momentum in pseudopotentials (lmaxx) =  3
     Presently no symmetry can be used with electric field

     Message from routine cell_base_init:
     DEPRECATED: use true lattice parameter, not A to a.u. conversion factor

     IMPORTANT: XC functional enforced from input :
     Exchange-correlation= BEEF-VDW
                           (   1   4  43  14   2   0   0)
     Any further DFT definition will be discarded
     Please, verify this is what you really want

  @ DRIVER MODE: Connecting to
 qe_1139763_2937309.sched-torque.pace.gatech.edu33jljm0g_scratch
  using UNIX socket
  @ DRIVER MODE: Message from server: STATUS
  @ DRIVER MODE: Message from server: INIT
  @ DRIVER MODE: Receiving replica           0          -1
  @ DRIVER MODE: Receiving encoded integer          25
  @ DRIVER MODE:  SCF:  T  FORCE:  T  STRESS:  F  VC:  F  ENSEMBLE:  F
  @ DRIVER MODE:  SCF:  T  FORCE:  T  STRESS:  F  VC:  F  ENSEMBLE:  F

     Using Slab Decomposition

     bravais-lattice index     =            0
     lattice parameter (alat)  =       1.8897  a.u.
     unit-cell volume          =    6658.9804 (a.u.)^3
     number of atoms/cell      =           57
     number of atomic types    =            5
     number of electrons       =       400.00
     number of Kohn-Sham states=          210
     kinetic-energy cutoff     =      29.3995  Ry
     charge density cutoff     =     293.9946  Ry
     scf convergence threshold =      7.3E-08
     mixing beta               =       0.0500
     number of iterations used =            8  plain     mixing
     Exchange-correlation= BEEF-VDW
                           (   1   4  43  14   2   0   0)

     celldm(1)=   1.889726  celldm(2)=   0.000000  celldm(3)=   0.000000
     celldm(4)=   0.000000  celldm(5)=   0.000000  celldm(6)=   0.000000

     crystal axes: (cart. coord. in units of alat)
               a(1) = (   6.579727   0.000000   0.000000 )
               a(2) = (  -0.000775   5.961596   0.000000 )
               a(3) = (   0.000000   0.000000  25.155947 )

     reciprocal axes: (cart. coord. in units 2 pi/alat)
               b(1) = (  0.151982  0.000020  0.000000 )
               b(2) = (  0.000000  0.167740  0.000000 )
               b(3) = (  0.000000  0.000000  0.039752 )

     PseudoPot. # 1 for Ti read from file:
     /storage/coda1/p-amedford6/0/shared/rich_project_chbe-medford/medford-share/data/pseudos_module/espresso/nninc/pbe/van/Ti.UPF
     MD5 check sum: 8e4df49b7f0d34bbd5052bf3f5ea0213
     Pseudo is Ultrasoft, Zval = 12.0
     Generated by new atomic code, or converted to UPF format
     Using radial grid of  851 points,  6 beta functions with:
                l(1) =   0
                l(2) =   0
                l(3) =   1
                l(4) =   1
                l(5) =   2
                l(6) =   2
     Q(r) pseudized with  8 coefficients,  rinner =    1.000   1.000   1.000
                                                       1.000   1.000

     PseudoPot. # 2 for O  read from file:
     /storage/coda1/p-amedford6/0/shared/rich_project_chbe-medford/medford-share/data/pseudos_module/espresso/nninc/pbe/van/O.UPF
     MD5 check sum: 78c19812648e8988a0fe644b0f25305e
     Pseudo is Ultrasoft, Zval =  6.0
     Generated by new atomic code, or converted to UPF format
     Using radial grid of  737 points,  4 beta functions with:
                l(1) =   0
                l(2) =   0
                l(3) =   1
                l(4) =   1
     Q(r) pseudized with  8 coefficients,  rinner =    0.800   0.800   0.800

     PseudoPot. # 3 for N  read from file:
     /storage/coda1/p-amedford6/0/shared/rich_project_chbe-medford/medford-share/data/pseudos_module/espresso/nninc/pbe/van/N.UPF
     MD5 check sum: 90d10febe142ad51ac9d5be1deb811c4
     Pseudo is Ultrasoft, Zval =  5.0
     Generated by new atomic code, or converted to UPF format
     Using radial grid of  729 points,  4 beta functions with:
                l(1) =   0
                l(2) =   0
                l(3) =   1
                l(4) =   1
     Q(r) pseudized with  8 coefficients,  rinner =    0.800   0.800   0.800

     PseudoPot. # 4 for C  read from file:
     /storage/coda1/p-amedford6/0/shared/rich_project_chbe-medford/medford-share/data/pseudos_module/espresso/nninc/pbe/van/C.UPF
     MD5 check sum: 1a69bf6b8db32088f5b2163dbdb77a27
     Pseudo is Ultrasoft, Zval =  4.0
     Generated by new atomic code, or converted to UPF format
     Using radial grid of  721 points,  4 beta functions with:
                l(1) =   0
                l(2) =   0
                l(3) =   1
                l(4) =   1
     Q(r) pseudized with  8 coefficients,  rinner =    0.800   0.800   0.800

     PseudoPot. # 5 for H  read from file:
     /storage/coda1/p-amedford6/0/shared/rich_project_chbe-medford/medford-share/data/pseudos_module/espresso/nninc/pbe/van/H.UPF
     MD5 check sum: b5ee9d7bfd3a09ee7748110bda690ff7
     Pseudo is Ultrasoft, Zval =  1.0
     Generated by new atomic code, or converted to UPF format
     Using radial grid of  615 points,  1 beta functions with:
                l(1) =   0
     Q(r) pseudized with  8 coefficients,  rinner =    0.800

     atomic species   valence    mass     pseudopotential
        Ti1           12.00    47.86700     Ti( 1.00)
        O1             6.00    15.99900     O ( 1.00)
        N1             5.00    14.00700     N ( 1.00)
        C1             4.00    12.01100     C ( 1.00)
        H1             1.00     1.00800     H ( 1.00)

     No symmetry found

   Cartesian axes

     site n.     atom                  positions (alat units)
         1           Ti1 tau(   1) = (   0.0004258   2.9801865   6.0000000  )
         2           Ti1 tau(   2) = (   3.2906075   1.4906267   6.0002472  )
         3           O1  tau(   3) = (   0.0006271   0.0005054   7.9858123  )
         4           O1  tau(   4) = (   3.2906025   0.0005020   7.3038282  )
         5           O1  tau(   5) = (   4.5942328   1.4918067   9.2879030  )
         6           O1  tau(   6) = (   1.9868534   1.4903216   9.2879459  )
         7           Ti1 tau(   7) = (   3.2907910   2.8959150   9.1758416  )
         8           Ti1 tau(   8) = (   0.0015273   1.4827037   9.2680791  )
         9           O1  tau(   9) = (   3.2912042   0.0294118  11.3810798  )
        10           O1  tau(  10) = (   0.0116148   5.9584955  10.6183126  )
        11           O1  tau(  11) = (   1.2906363   1.5151137  12.6946382  )
        12           O1  tau(  12) = (   5.2977377   1.5118052  12.6897239  )
        13           Ti1 tau(  13) = (   0.0154927   3.0055723  12.5114375  )
        14           Ti1 tau(  14) = (   3.3120461   1.5076926  12.5412499  )
        15           O1  tau(  15) = (   0.0087391   5.9056098  14.6936070  )
        16           O1  tau(  16) = (   3.3000944   0.0090435  14.0218108  )
        17           O1  tau(  17) = (   4.5606481   1.5918460  16.0876707  )
        18           O1  tau(  18) = (   2.0070218   1.5857768  16.0794533  )
        19           Ti1 tau(  19) = (   3.2835068   3.0412122  15.7371975  )
        20           Ti1 tau(  20) = (   0.0166266   1.3536260  15.8406240  )
        21           O1  tau(  21) = (   3.2904802   0.0005063   4.7018136  )
        22           O1  tau(  22) = (   6.5628702   0.1917167  17.2472498  )
        23           O1  tau(  23) = (   1.3043587   1.4918075   6.0039043  )
        24           O1  tau(  24) = (   5.2767064   1.4903225   6.0039473  )
        25           Ti1 tau(  25) = (   0.0000382   5.9609847   6.0000000  )
        26           Ti1 tau(  26) = (   3.2902200   4.4714249   6.0002472  )
        27           O1  tau(  27) = (   0.0002396   2.9813036   7.9858123  )
        28           O1  tau(  28) = (   3.2902150   2.9813002   7.3038282  )
        29           O1  tau(  29) = (   4.5938453   4.4726049   9.2879030  )
        30           O1  tau(  30) = (   1.9864658   4.4711199   9.2879459  )
        31           Ti1 tau(  31) = (   3.2891106   5.8743827   9.1763621  )
        32           Ti1 tau(  32) = (   0.0006254   4.4649316   9.2693709  )
        33           O1  tau(  33) = (   3.2975917   2.9887808  11.3748511  )
        34           O1  tau(  34) = (   0.0092240   2.9805883  10.6323155  )
        35           O1  tau(  35) = (   1.2927870   4.4849180  12.6503915  )
        36           O1  tau(  36) = (   5.2959677   4.4879952  12.6460094  )
        37           Ti1 tau(  37) = (   0.0189062   0.0134437  12.4995343  )
        38           Ti1 tau(  38) = (   3.3131396   4.4925875  12.5257625  )
        39           O1  tau(  39) = (   6.5658147   3.0796170  14.9398047  )
        40           O1  tau(  40) = (   3.2912769   3.0351834  13.9531456  )
        41           O1  tau(  41) = (   4.5372935   4.5058929  16.2491503  )
        42           O1  tau(  42) = (   2.0060561   4.4992570  16.2466123  )
        43           Ti1 tau(  43) = (   3.3106529   0.0781036  15.8389635  )
        44           Ti1 tau(  44) = (   0.0259428   4.5566345  16.0434284  )
        45           O1  tau(  45) = (   3.2900926   2.9813045   4.7018136  )
        46           O1  tau(  46) = (   1.3039711   4.4726057   6.0039043  )
        47           O1  tau(  47) = (   5.2763189   4.4711207   6.0039473  )
        48           N1  tau(  48) = (   6.3514164   3.3085518  18.1544664  )
        49           C1  tau(  49) = (   0.8695967   3.1501053  19.1301808  )
        50           H1  tau(  50) = (   1.3785670   4.1052268  19.2416751  )
        51           H1  tau(  51) = (   0.5086663   2.8389580  20.1145987  )
        52           H1  tau(  52) = (   1.5779067   2.4119510  18.7640910  )
        53           H1  tau(  53) = (   5.7211048   4.0382881  18.4729098  )
        54           H1  tau(  54) = (   5.7931489   2.4557210  18.1309407  )
        55           O1  tau(  55) = (   3.2817172   0.3149129  18.3340421  )
        56           H1  tau(  56) = (   4.0380937   5.6864266  18.4726034  )
        57           H1  tau(  57) = (   2.4816286   5.7371253  18.4534621  )

     number of k points=    10  Fermi-Dirac smearing, width (Ry)=  0.0073
                       cart. coord. in units 2pi/alat
        k(    1) = (   0.0000000   0.0000000   0.0000000), wk =   0.1250000
        k(    2) = (   0.0000000   0.0419351   0.0000000), wk =   0.2500000
        k(    3) = (   0.0000000  -0.0838702   0.0000000), wk =   0.1250000
        k(    4) = (   0.0379955   0.0000049   0.0000000), wk =   0.2500000
        k(    5) = (   0.0379955   0.0419400   0.0000000), wk =   0.2500000
        k(    6) = (   0.0379955  -0.0838652   0.0000000), wk =   0.2500000
        k(    7) = (   0.0379955  -0.0419301   0.0000000), wk =   0.2500000
        k(    8) = (  -0.0759910  -0.0000099   0.0000000), wk =   0.1250000
        k(    9) = (  -0.0759910   0.0419252   0.0000000), wk =   0.2500000
        k(   10) = (  -0.0759910  -0.0838800   0.0000000), wk =   0.1250000

     Initial potential from superposition of free atoms

     starting charge  383.99913, renormalised to  400.00000

     negative rho (up, down):  1.554E-02 0.000E+00

     %%%%%%%%%%%%%%%%%%%%%%%%%%%%%%%%%%%%%%%%%%%%%%%%%%%%%%%%%%%%%%%%%%%%%%%%
     %                                                                      %
     % You are using vdW-DF, which was implemented by the Thonhauser group. %
     % Please cite the following two papers that made this development      %
     % possible and the two reviews that describe the various versions:     %
     %                                                                      %
     %   T. Thonhauser et al., PRL 115, 136402 (2015).                      %
     %   T. Thonhauser et al., PRB 76, 125112 (2007).                       %
     %   K. Berland et al., Rep. Prog. Phys. 78, 066501 (2015).             %
     %   D.C. Langreth et al., J. Phys.: Condens. Matter 21, 084203 (2009). %
     %                                                                      %
     %                                                                      %
     % If you are calculating the stress with vdW-DF, please also cite:     %
     %                                                                      %
     %   R. Sabatini et al., J. Phys.: Condens. Matter 24, 424209 (2012).   %
     %                                                                      %
     %%%%%%%%%%%%%%%%%%%%%%%%%%%%%%%%%%%%%%%%%%%%%%%%%%%%%%%%%%%%%%%%%%%%%%%%

     Adding external electric field

     Computed dipole along edir(3) :
        Dipole              -12.0865 Ry au,        -30.7209 Debye
        Dipole field         -0.0228 Ry au,

        Potential amp.        2.1144 Ry
        Total length         46.3494 bohr

     Starting wfcs are  303 atomic wfcs
  @ DRIVER MODE: Message from server: STATUS
  @ DRIVER MODE: Message from server: POSDATA
  @ DRIVER MODE: Reading and sharing cell
  @ DRIVER MODE: Reading and sharing positions
  @ DRIVER MODE: Received positions

     Self-consistent Calculation

     iteration #  1     ecut=    29.40 Ry     beta= 0.05
     Davidson diagonalization with overlap
     c_bands:  2 eigenvalues not converged
     c_bands:  1 eigenvalues not converged
     c_bands:  3 eigenvalues not converged
     c_bands:  4 eigenvalues not converged
     c_bands:  2 eigenvalues not converged
     c_bands:  1 eigenvalues not converged
     c_bands:  4 eigenvalues not converged
     c_bands:  4 eigenvalues not converged
     c_bands:  5 eigenvalues not converged
     ethr =  1.00E-05,  avg # of iterations = 22.0

[...]

     total energy              =   -2384.81561849 Ry
     estimated scf accuracy    <    6450.64995763 Ry

     iteration #  2     ecut=    29.40 Ry     beta= 0.05
     Davidson diagonalization with overlap
     ethr =  1.00E-02,  avg # of iterations = 24.7

[...]

     iteration # 73     ecut=    29.40 Ry     beta= 0.05
     Davidson diagonalization with overlap
     c_bands:  2 eigenvalues not converged
     c_bands:  1 eigenvalues not converged
     ethr =  2.81E-11,  avg # of iterations = 12.5

[...]

     total energy              =   -2956.45487547 Ry
     estimated scf accuracy    <       0.00000011 Ry

     iteration # 74     ecut=    29.40 Ry     beta= 0.05
     Davidson diagonalization with overlap
     ethr =  2.68E-11,  avg # of iterations = 11.6

     negative rho (up, down):  1.589E-02 0.000E+00

     Adding external electric field

     Computed dipole along edir(3) :
        Dipole                1.4080 Ry au,          3.5789 Debye
        Dipole field          0.0027 Ry au,

        Potential amp.       -0.2463 Ry
        Total length         46.3494 bohr

     End of self-consistent calculation

          k = 0.0000 0.0000 0.0000 ( 18029 PWs)   bands (ev):

   -55.2133 -55.1760 -55.1706 -55.1447 -55.1364 -55.1162 -55.0944 -55.0595
   -55.0393 -55.0045 -55.0012 -54.9922 -54.9676 -54.9324 -54.2005 -54.1664
   -31.7767 -31.6871 -31.6630 -31.5832 -31.5281 -31.5230 -31.5144 -31.5068
   -31.4595 -31.4359 -31.4243 -31.4153 -31.4110 -31.4091 -31.3852 -31.3820
   -31.3597 -31.3585 -31.3512 -31.3358 -31.3231 -31.3152 -31.2999 -31.2909
   -31.2844 -31.2718 -31.2695 -31.2406 -31.2278 -31.2253 -31.2200 -31.2000
   -31.1971 -31.1895 -31.1854 -31.1685 -31.1525 -31.1382 -31.1307 -31.1293
   -31.1124 -31.1103 -30.6099 -30.5156 -30.4936 -30.4263 -30.3395 -30.2286
   -19.2318 -16.1567 -16.0228 -15.7736 -15.6320 -15.5373 -15.4170 -15.3018
   -15.2372 -15.1232 -15.0650 -14.9299 -14.9145 -14.9025 -14.8777 -14.8445
   -14.8059 -14.7580 -14.7567 -14.7331 -14.7125 -14.7040 -14.6622 -14.6547
   -14.6150 -14.5937 -14.5925 -14.4575 -14.3761 -14.3058 -14.1209 -12.7029
   -12.5854 -10.2780  -7.0203  -6.2739  -4.8317  -3.9443  -3.4042  -3.3455
    -3.2351  -3.1464  -3.1235  -3.1108  -2.9739  -2.8861  -2.7461  -2.6647
    -2.6321  -2.4956  -2.4222  -2.4113  -2.3782  -2.2634  -2.2110  -2.1843
    -2.1521  -2.0800  -2.0315  -2.0209  -2.0030  -1.9723  -1.9575  -1.9235
    -1.8697  -1.7845  -1.7532  -1.6505  -1.6127  -1.5834  -1.5729  -1.5484
    -1.5316  -1.5066  -1.5002  -1.4397  -1.4364  -1.4066  -1.3604  -1.2456
    -1.0831  -1.0201  -0.9486  -0.8553  -0.8076  -0.7940  -0.7255  -0.7147
    -0.7006  -0.5968  -0.5660  -0.5517  -0.4543  -0.4244  -0.3844  -0.3119
    -0.2405  -0.2126  -0.1995  -0.0845  -0.0193  -0.0010   0.0188   0.0258
     0.1154   0.1886   0.2362   0.2880   0.3288   0.3360   0.4014   0.4339
     0.5018   0.5536   0.5715   0.6588   0.7036   0.7163   0.7225   0.7558
     0.7678   0.8293   0.8658   0.8901   0.9767   1.0919   1.2441   1.3857
     1.3939   1.7269   1.7278   1.8224   2.0062   2.3987   2.4469   3.8798
     3.9525   4.0117   4.0250   4.0305   4.1157   4.3621   4.3843   4.3900
     4.4001   4.4286

[...]

          k = 0.0380-0.0419 0.0000 ( 17876 PWs)   bands (ev):

[...]

          k =-0.0760-0.0000 0.0000 ( 17886 PWs)   bands (ev):

[...]

          k =-0.0760-0.0839 0.0000 ( 17948 PWs)   bands (ev):

   -55.1997 -55.1894 -55.1536 -55.1532 -55.1430 -55.1139 -55.0802 -55.0736
   -55.0247 -55.0187 -54.9944 -54.9847 -54.9843 -54.9339 -54.1836 -54.1832
   -31.6056 -31.5855 -31.5767 -31.4783 -31.4780 -31.4742 -31.4668 -31.4449
   -31.4447 -31.4250 -31.4171 -31.4106 -31.4031 -31.3886 -31.3712 -31.3564
   -31.3535 -31.3512 -31.3492 -31.3471 -31.3397 -31.3372 -31.3203 -31.3142
   -31.2936 -31.2932 -31.2744 -31.2733 -31.2730 -31.2711 -31.2659 -31.2578
   -31.2503 -31.2376 -31.2318 -31.2172 -31.2142 -31.1967 -31.1699 -31.1653
   -31.1645 -31.1440 -30.5064 -30.5060 -30.4225 -30.4222 -30.3830 -30.3828
   -19.2310 -16.1116 -15.5961 -15.4819 -15.3560 -15.2461 -15.2253 -15.1789
   -15.1302 -15.0800 -15.0277 -14.9994 -14.9784 -14.9692 -14.9265 -14.9163
   -14.8972 -14.8316 -14.8162 -14.8051 -14.7813 -14.7338 -14.7255 -14.7179
   -14.7139 -14.6680 -14.6639 -14.6164 -14.5724 -14.5686 -14.3894 -12.6870
   -12.6868 -10.2797  -7.0473  -6.2064  -4.8323  -3.9604  -3.2496  -2.9844
    -2.7473  -2.6955  -2.6067  -2.4633  -2.4195  -2.3748  -2.3436  -2.2820
    -2.2313  -2.2164  -2.2046  -2.1283  -2.1014  -2.0940  -2.0602  -2.0486
    -2.0384  -2.0005  -1.9795  -1.9547  -1.9459  -1.9351  -1.9325  -1.9229
    -1.8653  -1.8527  -1.8417  -1.8379  -1.7791  -1.7676  -1.7538  -1.7391
    -1.5946  -1.5763  -1.4253  -1.4219  -1.4000  -1.3473  -1.3357  -1.2950
    -1.2515  -1.2424  -1.2158  -0.9714  -0.9625  -0.9592  -0.9281  -0.8942
    -0.8561  -0.7942  -0.7653  -0.6952  -0.6874  -0.5713  -0.5551  -0.4401
    -0.4314  -0.4189  -0.3369  -0.2874  -0.2387  -0.1998  -0.1826  -0.1718
    -0.1551  -0.1187  -0.1164  -0.0191   0.0171   0.0479   0.0612   0.1007
     0.2772   0.3061   0.3219   0.4658   0.4733   0.6330   0.6836   0.7121
     0.8024   0.8624   0.8974   0.9412   1.0770   1.0903   1.1077   1.1623
     1.1855   1.2348   1.2480   2.1785   2.1799   2.2669   2.2670   4.0250
     4.1341   4.1434   4.2011   4.3123   4.3209   4.3949   4.4259   4.4635
     4.4673   4.5312

     the Fermi energy is     3.9420 ev

!    total energy              =   -2956.45488763 Ry
     estimated scf accuracy    <       0.00000005 Ry
     smearing contrib. (-TS)   =      -0.03685636 Ry
     internal energy E=F+TS    =   -2956.41803127 Ry

     The total energy is F=E-TS. E is the sum of the following terms:
     one-electron contribution =  -23693.16240259 Ry
     hartree contribution      =   11942.11219486 Ry
     xc contribution           =    -490.61212928 Ry
     ewald contribution        =    9285.24056433 Ry
     electric field correction =       0.00374140 Ry

     convergence has been achieved in  74 iterations

     Forces acting on atoms (cartesian axes, Ry/au):

     atom    1 type  1   force =    -0.00000027   -0.00026567    0.09335421
     atom    2 type  1   force =    -0.00007246   -0.00035157   -0.17817375
     atom    3 type  2   force =     0.00004497   -0.00030259   -0.02034668
     atom    4 type  2   force =    -0.00003568   -0.00184881    0.05913339
     atom    5 type  2   force =    -0.01019976   -0.00060936    0.00751257
     atom    6 type  2   force =     0.01172662    0.00022045    0.00684181
     atom    7 type  1   force =    -0.00030895    0.00187591   -0.01240763
     atom    8 type  1   force =     0.00016351    0.00084807   -0.00451052
     atom    9 type  2   force =     0.00038493   -0.00015375   -0.00080292
     atom   10 type  2   force =    -0.00141680    0.00415063   -0.00107975
     atom   11 type  2   force =    -0.00087374   -0.00030648    0.00020450
     atom   12 type  2   force =     0.00088575   -0.00005905    0.00006619
     atom   13 type  1   force =    -0.00012215   -0.00022097    0.00010438
     atom   14 type  1   force =    -0.00004927   -0.00010108    0.00003721
     atom   15 type  2   force =    -0.00067436   -0.00002959   -0.00005769
     atom   16 type  2   force =    -0.00010308    0.00023205   -0.00039341
     atom   17 type  2   force =     0.00028603   -0.00075992    0.00009711
     atom   18 type  2   force =     0.00080091   -0.00059988   -0.00026870
     atom   19 type  1   force =    -0.00089736    0.00023341    0.00147501
     atom   20 type  1   force =     0.00083079   -0.00075570    0.00036156
     atom   21 type  2   force =     0.00002043   -0.00010819    0.10398741
     atom   22 type  2   force =     0.00003299   -0.00061727    0.00040273
     atom   23 type  2   force =    -0.07040880   -0.00020478   -0.02692551
     atom   24 type  2   force =     0.07024237    0.00023537   -0.02697863
     atom   25 type  1   force =    -0.00004828   -0.00021293    0.09286685
     atom   26 type  1   force =    -0.00020340   -0.00053559   -0.17843983
     atom   27 type  2   force =     0.00007090   -0.00013934   -0.01933062
     atom   28 type  2   force =     0.00005445   -0.00157477    0.05814100
     atom   29 type  2   force =    -0.01090401   -0.00007134    0.00843362
     atom   30 type  2   force =     0.01230898    0.00011711    0.00771845
     atom   31 type  1   force =    -0.00029474    0.00668584   -0.01507651
     atom   32 type  1   force =     0.00011113   -0.00074928   -0.00471448
     atom   33 type  2   force =    -0.00022109    0.00035288   -0.00052129
     atom   34 type  2   force =    -0.00111212   -0.00023360   -0.00038582
     atom   35 type  2   force =    -0.00019982   -0.00011568   -0.00014690
     atom   36 type  2   force =     0.00027848   -0.00036065   -0.00024492
     atom   37 type  1   force =     0.00023796   -0.00018131    0.00021177
     atom   38 type  1   force =    -0.00011757    0.00068253    0.00064154
     atom   39 type  2   force =     0.00011315   -0.00114396    0.00102199
     atom   40 type  2   force =     0.00026950    0.00099664   -0.00061599
     atom   41 type  2   force =    -0.00018117    0.00020901   -0.00023509
     atom   42 type  2   force =     0.00115812    0.00008845   -0.00059216
     atom   43 type  1   force =    -0.00137881   -0.00011278    0.00057967
     atom   44 type  1   force =     0.00047688   -0.00114474    0.00102104
     atom   45 type  2   force =     0.00001422   -0.00011463    0.10395230
     atom   46 type  2   force =    -0.07037717   -0.00012815   -0.02689127
     atom   47 type  2   force =     0.07023191    0.00028390   -0.02695947
     atom   48 type  3   force =     0.00077317    0.00008521   -0.00046376
     atom   49 type  4   force =    -0.00007389   -0.00016155   -0.00001367
     atom   50 type  5   force =    -0.00016926   -0.00075581    0.00012264
     atom   51 type  5   force =    -0.00003565   -0.00056505   -0.00058603
     atom   52 type  5   force =    -0.00002012    0.00008569   -0.00048790
     atom   53 type  5   force =     0.00001979    0.00015424   -0.00063959
     atom   54 type  5   force =     0.00006880   -0.00020073   -0.00067588
     atom   55 type  2   force =    -0.00151069   -0.00232892    0.00113221
     atom   56 type  5   force =    -0.00044769   -0.00005061    0.00017418
     atom   57 type  5   force =     0.00085141    0.00063866   -0.00062897

     Total force =     0.366299     Total SCF correction =     0.000638
  @ DRIVER MODE: Message from server: STATUS
  @ DRIVER MODE: Message from server: GETFORCE
  @ DRIVER MODE: Returning v,forces,stress,ensemble

     Writing output data file ./calc.save/
  @ DRIVER MODE: Message from server: EXIT
  @ DRIVE MODE: Exiting

     General routines

     Parallel routines

   This run was terminated on:  11:45:48  23Sep2021

   JOB DONE.