     Program PWSCF v.6.7GPU starts on 15Sep2021 at 12:20: 5

     R & G space division:  proc/nbgrp/npool/nimage =      10
     Reading input from /storage/home/hcoda1/3/ntian30/research/carbon/CxH_vib/CH_calc/ads_slab/CHNHNH_b/out_0009/pw.inp
Warning: card &CELL ignored
Warning: card   CELL_DYNAMICS='IPI', ignored
Warning: card / ignored

     Current dimensions of program PWSCF are:
     Max number of different atomic species (ntypx) = 10
     Max number of k-points (npk) =  40000
     Max angular momentum in pseudopotentials (lmaxx) =  3
     Presently no symmetry can be used with electric field

     Message from routine cell_base_init:
     DEPRECATED: use true lattice parameter, not A to a.u. conversion factor

     IMPORTANT: XC functional enforced from input :
     Exchange-correlation= BEEF-VDW
                           (   1   4  43  14   2   0   0)
     Any further DFT definition will be discarded
     Please, verify this is what you really want

  @ DRIVER MODE: Connecting to
 qe_1139763_2850202.sched-torque.pace.gatech.eduix0545b5_scratch
  using UNIX socket
  @ DRIVER MODE: Message from server: STATUS
  @ DRIVER MODE: Message from server: INIT
  @ DRIVER MODE: Receiving replica           0          -1
  @ DRIVER MODE: Receiving encoded integer          25
  @ DRIVER MODE:  SCF:  T  FORCE:  T  STRESS:  F  VC:  F  ENSEMBLE:  F
  @ DRIVER MODE:  SCF:  T  FORCE:  T  STRESS:  F  VC:  F  ENSEMBLE:  F

     Using Slab Decomposition

     bravais-lattice index     =            0
     lattice parameter (alat)  =       1.8897  a.u.
     unit-cell volume          =    6658.9804 (a.u.)^3
     number of atoms/cell      =           53
     number of atomic types    =            5
     number of electrons       =       395.00
     number of Kohn-Sham states=          207
     kinetic-energy cutoff     =      29.3995  Ry
     charge density cutoff     =     293.9946  Ry
     scf convergence threshold =      7.3E-08
     mixing beta               =       0.0500
     number of iterations used =            8  plain     mixing
     Exchange-correlation= BEEF-VDW
                           (   1   4  43  14   2   0   0)

     celldm(1)=   1.889726  celldm(2)=   0.000000  celldm(3)=   0.000000
     celldm(4)=   0.000000  celldm(5)=   0.000000  celldm(6)=   0.000000

     crystal axes: (cart. coord. in units of alat)
               a(1) = (   6.579727   0.000000   0.000000 )
               a(2) = (  -0.000775   5.961596   0.000000 )
               a(3) = (   0.000000   0.000000  25.155947 )

     reciprocal axes: (cart. coord. in units 2 pi/alat)
               b(1) = (  0.151982  0.000020  0.000000 )
               b(2) = (  0.000000  0.167740  0.000000 )
               b(3) = (  0.000000  0.000000  0.039752 )

     PseudoPot. # 1 for Ti read from file:
     /storage/coda1/p-amedford6/0/shared/rich_project_chbe-medford/medford-share/data/pseudos_module/espresso/nninc/pbe/van/Ti.UPF
     MD5 check sum: 8e4df49b7f0d34bbd5052bf3f5ea0213
     Pseudo is Ultrasoft, Zval = 12.0
     Generated by new atomic code, or converted to UPF format
     Using radial grid of  851 points,  6 beta functions with:
                l(1) =   0
                l(2) =   0
                l(3) =   1
                l(4) =   1
                l(5) =   2
                l(6) =   2
     Q(r) pseudized with  8 coefficients,  rinner =    1.000   1.000   1.000
                                                       1.000   1.000

     PseudoPot. # 2 for O  read from file:
     /storage/coda1/p-amedford6/0/shared/rich_project_chbe-medford/medford-share/data/pseudos_module/espresso/nninc/pbe/van/O.UPF
     MD5 check sum: 78c19812648e8988a0fe644b0f25305e
     Pseudo is Ultrasoft, Zval =  6.0
     Generated by new atomic code, or converted to UPF format
     Using radial grid of  737 points,  4 beta functions with:
                l(1) =   0
                l(2) =   0
                l(3) =   1
                l(4) =   1
     Q(r) pseudized with  8 coefficients,  rinner =    0.800   0.800   0.800

     PseudoPot. # 3 for N  read from file:
     /storage/coda1/p-amedford6/0/shared/rich_project_chbe-medford/medford-share/data/pseudos_module/espresso/nninc/pbe/van/N.UPF
     MD5 check sum: 90d10febe142ad51ac9d5be1deb811c4
     Pseudo is Ultrasoft, Zval =  5.0
     Generated by new atomic code, or converted to UPF format
     Using radial grid of  729 points,  4 beta functions with:
                l(1) =   0
                l(2) =   0
                l(3) =   1
                l(4) =   1
     Q(r) pseudized with  8 coefficients,  rinner =    0.800   0.800   0.800

     PseudoPot. # 4 for C  read from file:
     /storage/coda1/p-amedford6/0/shared/rich_project_chbe-medford/medford-share/data/pseudos_module/espresso/nninc/pbe/van/C.UPF
     MD5 check sum: 1a69bf6b8db32088f5b2163dbdb77a27
     Pseudo is Ultrasoft, Zval =  4.0
     Generated by new atomic code, or converted to UPF format
     Using radial grid of  721 points,  4 beta functions with:
                l(1) =   0
                l(2) =   0
                l(3) =   1
                l(4) =   1
     Q(r) pseudized with  8 coefficients,  rinner =    0.800   0.800   0.800

     PseudoPot. # 5 for H  read from file:
     /storage/coda1/p-amedford6/0/shared/rich_project_chbe-medford/medford-share/data/pseudos_module/espresso/nninc/pbe/van/H.UPF
     MD5 check sum: b5ee9d7bfd3a09ee7748110bda690ff7
     Pseudo is Ultrasoft, Zval =  1.0
     Generated by new atomic code, or converted to UPF format
     Using radial grid of  615 points,  1 beta functions with:
                l(1) =   0
     Q(r) pseudized with  8 coefficients,  rinner =    0.800

     atomic species   valence    mass     pseudopotential
        Ti1           12.00    47.86700     Ti( 1.00)
        O1             6.00    15.99900     O ( 1.00)
        N1             5.00    14.00700     N ( 1.00)
        C1             4.00    12.01100     C ( 1.00)
        H1             1.00     1.00800     H ( 1.00)

     No symmetry found

   Cartesian axes

     site n.     atom                  positions (alat units)
         1           Ti1 tau(   1) = (   0.0004258   2.9801865   6.0000000  )
         2           Ti1 tau(   2) = (   3.2906075   1.4906267   6.0002472  )
         3           O1  tau(   3) = (   0.0006271   0.0005054   7.9858123  )
         4           O1  tau(   4) = (   3.2906025   0.0005020   7.3038282  )
         5           O1  tau(   5) = (   4.5942328   1.4918067   9.2879030  )
         6           O1  tau(   6) = (   1.9868534   1.4903216   9.2879459  )
         7           Ti1 tau(   7) = (   3.2907910   2.8959150   9.1758416  )
         8           Ti1 tau(   8) = (   0.0015273   1.4827037   9.2680791  )
         9           O1  tau(   9) = (   3.2799393   5.9535521  11.3540639  )
        10           O1  tau(  10) = (   0.0116148   5.9584955  10.6183126  )
        11           O1  tau(  11) = (   1.2974255   1.4613897  12.6506698  )
        12           O1  tau(  12) = (   5.3017888   1.4901577  12.6050164  )
        13           Ti1 tau(  13) = (   6.5221663   3.0180504  12.5986966  )
        14           Ti1 tau(  14) = (   3.2221172   1.5532140  12.5512791  )
        15           O1  tau(  15) = (   6.4783894   5.9520290  14.6579590  )
        16           O1  tau(  16) = (   3.3696489   5.9508513  13.9183136  )
        17           O1  tau(  17) = (   4.5179258   1.5103438  16.1624884  )
        18           O1  tau(  18) = (   1.9802590   1.4047766  15.9099196  )
        19           Ti1 tau(  19) = (   3.2637731   3.0080032  15.8837983  )
        20           Ti1 tau(  20) = (   6.5766856   1.4756295  15.8014380  )
        21           O1  tau(  21) = (   3.2904802   0.0005063   4.7018136  )
        22           O1  tau(  22) = (   0.0065935   5.9492922  17.2122405  )
        23           O1  tau(  23) = (   1.3043587   1.4918075   6.0039043  )
        24           O1  tau(  24) = (   5.2767064   1.4903225   6.0039473  )
        25           Ti1 tau(  25) = (   0.0000382   5.9609847   6.0000000  )
        26           Ti1 tau(  26) = (   3.2902200   4.4714249   6.0002472  )
        27           O1  tau(  27) = (   0.0002396   2.9813036   7.9858123  )
        28           O1  tau(  28) = (   3.2902150   2.9813002   7.3038282  )
        29           O1  tau(  29) = (   4.5938453   4.4726049   9.2879030  )
        30           O1  tau(  30) = (   1.9864658   4.4711199   9.2879459  )
        31           Ti1 tau(  31) = (   3.2891106   5.8743827   9.1763621  )
        32           Ti1 tau(  32) = (   0.0006254   4.4649316   9.2693709  )
        33           O1  tau(  33) = (   3.2772596   2.9828089  11.3369495  )
        34           O1  tau(  34) = (   0.0092240   2.9805883  10.6323155  )
        35           O1  tau(  35) = (   1.2916203   4.4718874  12.6594431  )
        36           O1  tau(  36) = (   5.2999639   4.4615573  12.6129894  )
        37           Ti1 tau(  37) = (   6.5361528   0.0312684  12.5125129  )
        38           Ti1 tau(  38) = (   3.2177194   4.4831555  12.4956785  )
        39           O1  tau(  39) = (   6.5168025   2.9395006  14.7032746  )
        40           O1  tau(  40) = (   3.2870264   2.9515371  13.9313172  )
        41           O1  tau(  41) = (   4.5204763   4.4345026  16.1736457  )
        42           O1  tau(  42) = (   1.9972348   4.5331091  15.9467552  )
        43           Ti1 tau(  43) = (   3.2981618   0.0182476  15.6956140  )
        44           Ti1 tau(  44) = (   0.0010288   4.6427453  16.0560918  )
        45           O1  tau(  45) = (   3.2900926   2.9813045   4.7018136  )
        46           O1  tau(  46) = (   1.3039711   4.4726057   6.0039043  )
        47           O1  tau(  47) = (   5.2763189   4.4711207   6.0039473  )
        48           N1  tau(  48) = (   1.3052520   2.8252889  18.3786263  )
        49           N1  tau(  49) = (   0.2128110   2.9223531  17.5195281  )
        50           C1  tau(  50) = (   2.5582938   2.8657590  18.0399718  )
        51           H1  tau(  51) = (   3.1786551   2.7222395  18.9297303  )
        52           H1  tau(  52) = (   1.0317423   2.6491596  19.3433462  )
        53           H1  tau(  53) = (   5.9645394   2.8535341  18.1048464  )

     number of k points=    10  Fermi-Dirac smearing, width (Ry)=  0.0073
                       cart. coord. in units 2pi/alat
        k(    1) = (   0.0000000   0.0000000   0.0000000), wk =   0.1250000
        k(    2) = (   0.0000000   0.0419351   0.0000000), wk =   0.2500000
        k(    3) = (   0.0000000  -0.0838702   0.0000000), wk =   0.1250000
        k(    4) = (   0.0379955   0.0000049   0.0000000), wk =   0.2500000
        k(    5) = (   0.0379955   0.0419400   0.0000000), wk =   0.2500000
        k(    6) = (   0.0379955  -0.0838652   0.0000000), wk =   0.2500000
        k(    7) = (   0.0379955  -0.0419301   0.0000000), wk =   0.2500000
        k(    8) = (  -0.0759910  -0.0000099   0.0000000), wk =   0.1250000
        k(    9) = (  -0.0759910   0.0419252   0.0000000), wk =   0.2500000
        k(   10) = (  -0.0759910  -0.0838800   0.0000000), wk =   0.1250000

     Initial potential from superposition of free atoms

[...]
     MD5 check sum: 90d10febe142ad51ac9d5be1deb811c4
     Pseudo is Ultrasoft, Zval =  5.0
     Generated by new atomic code, or converted to UPF format
     Using radial grid of  729 points,  4 beta functions with:
                l(1) =   0
                l(2) =   0
                l(3) =   1
                l(4) =   1
     Q(r) pseudized with  8 coefficients,  rinner =    0.800   0.800   0.800

     PseudoPot. # 4 for C  read from file:
     /storage/coda1/p-amedford6/0/shared/rich_project_chbe-medford/medford-share/data/pseudos_module/espresso/nninc/pbe/van/C.UPF
     MD5 check sum: 1a69bf6b8db32088f5b2163dbdb77a27
     Pseudo is Ultrasoft, Zval =  4.0
     Generated by new atomic code, or converted to UPF format
     Using radial grid of  721 points,  4 beta functions with:
                l(1) =   0
                l(2) =   0
                l(3) =   1
                l(4) =   1
     Q(r) pseudized with  8 coefficients,  rinner =    0.800   0.800   0.800

     PseudoPot. # 5 for H  read from file:
     /storage/coda1/p-amedford6/0/shared/rich_project_chbe-medford/medford-share/data/pseudos_module/espresso/nninc/pbe/van/H.UPF
     MD5 check sum: b5ee9d7bfd3a09ee7748110bda690ff7
     Pseudo is Ultrasoft, Zval =  1.0
     Generated by new atomic code, or converted to UPF format
     Using radial grid of  615 points,  1 beta functions with:
                l(1) =   0
     Q(r) pseudized with  8 coefficients,  rinner =    0.800

     atomic species   valence    mass     pseudopotential
        Ti1           12.00    47.86700     Ti( 1.00)
        O1             6.00    15.99900     O ( 1.00)
        N1             5.00    14.00700     N ( 1.00)
        C1             4.00    12.01100     C ( 1.00)
        H1             1.00     1.00800     H ( 1.00)

     No symmetry found

   Cartesian axes

     site n.     atom                  positions (alat units)
         1           Ti1 tau(   1) = (   0.0004258   2.9801865   6.0000000  )
         2           Ti1 tau(   2) = (   3.2906075   1.4906267   6.0002472  )
         3           O1  tau(   3) = (   0.0006271   0.0005054   7.9858123  )
         4           O1  tau(   4) = (   3.2906025   0.0005020   7.3038282  )
         5           O1  tau(   5) = (   4.5942328   1.4918067   9.2879030  )
         6           O1  tau(   6) = (   1.9868534   1.4903216   9.2879459  )
         7           Ti1 tau(   7) = (   3.2907910   2.8959150   9.1758416  )
         8           Ti1 tau(   8) = (   0.0015273   1.4827037   9.2680791  )
         9           O1  tau(   9) = (   3.2799393   5.9535521  11.3540639  )
        10           O1  tau(  10) = (   0.0116148   5.9584955  10.6183126  )
        11           O1  tau(  11) = (   1.2974255   1.4613897  12.6506698  )
        12           O1  tau(  12) = (   5.3017888   1.4901577  12.6050164  )
        13           Ti1 tau(  13) = (   6.5221663   3.0180504  12.5986966  )
        14           Ti1 tau(  14) = (   3.2221172   1.5532140  12.5512791  )
        15           O1  tau(  15) = (   6.4783894   5.9520290  14.6579590  )
        16           O1  tau(  16) = (   3.3696489   5.9508513  13.9183136  )
        17           O1  tau(  17) = (   4.5179258   1.5103438  16.1624884  )
        18           O1  tau(  18) = (   1.9802590   1.4047766  15.9099196  )
        19           Ti1 tau(  19) = (   3.2637731   3.0080032  15.8837983  )
        20           Ti1 tau(  20) = (   6.5766856   1.4756295  15.8014380  )
        21           O1  tau(  21) = (   3.2904802   0.0005063   4.7018136  )
        22           O1  tau(  22) = (   0.0065935   5.9492922  17.2122405  )
        23           O1  tau(  23) = (   1.3043587   1.4918075   6.0039043  )
        24           O1  tau(  24) = (   5.2767064   1.4903225   6.0039473  )
        25           Ti1 tau(  25) = (   0.0000382   5.9609847   6.0000000  )
        26           Ti1 tau(  26) = (   3.2902200   4.4714249   6.0002472  )
        27           O1  tau(  27) = (   0.0002396   2.9813036   7.9858123  )
        28           O1  tau(  28) = (   3.2902150   2.9813002   7.3038282  )
        29           O1  tau(  29) = (   4.5938453   4.4726049   9.2879030  )
        30           O1  tau(  30) = (   1.9864658   4.4711199   9.2879459  )
        31           Ti1 tau(  31) = (   3.2891106   5.8743827   9.1763621  )
        32           Ti1 tau(  32) = (   0.0006254   4.4649316   9.2693709  )
        33           O1  tau(  33) = (   3.2772596   2.9828089  11.3369495  )
        34           O1  tau(  34) = (   0.0092240   2.9805883  10.6323155  )
        35           O1  tau(  35) = (   1.2916203   4.4718874  12.6594431  )
        36           O1  tau(  36) = (   5.2999639   4.4615573  12.6129894  )
        37           Ti1 tau(  37) = (   6.5361528   0.0312684  12.5125129  )
        38           Ti1 tau(  38) = (   3.2177194   4.4831555  12.4956785  )
        39           O1  tau(  39) = (   6.5168025   2.9395006  14.7032746  )
        40           O1  tau(  40) = (   3.2870264   2.9515371  13.9313172  )
        41           O1  tau(  41) = (   4.5204763   4.4345026  16.1736457  )
        42           O1  tau(  42) = (   1.9972348   4.5331091  15.9467552  )
        43           Ti1 tau(  43) = (   3.2981618   0.0182476  15.6956140  )
        44           Ti1 tau(  44) = (   0.0010288   4.6427453  16.0560918  )
        45           O1  tau(  45) = (   3.2900926   2.9813045   4.7018136  )
        46           O1  tau(  46) = (   1.3039711   4.4726057   6.0039043  )
        47           O1  tau(  47) = (   5.2763189   4.4711207   6.0039473  )
        48           N1  tau(  48) = (   1.3052520   2.8252889  18.3786263  )
        49           N1  tau(  49) = (   0.2128110   2.9323531  17.5195281  )
        50           C1  tau(  50) = (   2.5582938   2.8657590  18.0399718  )
        51           H1  tau(  51) = (   3.1786551   2.7222395  18.9297303  )
        52           H1  tau(  52) = (   1.0317423   2.6491596  19.3433462  )
        53           H1  tau(  53) = (   5.9645394   2.8535341  18.1148464  )

     number of k points=    10  Fermi-Dirac smearing, width (Ry)=  0.0073
                       cart. coord. in units 2pi/alat
        k(    1) = (   0.0000000   0.0000000   0.0000000), wk =   0.1250000
        k(    2) = (   0.0000000   0.0419351   0.0000000), wk =   0.2500000
        k(    3) = (   0.0000000  -0.0838702   0.0000000), wk =   0.1250000
        k(    4) = (   0.0379955   0.0000049   0.0000000), wk =   0.2500000
        k(    5) = (   0.0379955   0.0419400   0.0000000), wk =   0.2500000
        k(    6) = (   0.0379955  -0.0838652   0.0000000), wk =   0.2500000
        k(    7) = (   0.0379955  -0.0419301   0.0000000), wk =   0.2500000
        k(    8) = (  -0.0759910  -0.0000099   0.0000000), wk =   0.1250000
        k(    9) = (  -0.0759910   0.0419252   0.0000000), wk =   0.2500000
        k(   10) = (  -0.0759910  -0.0838800   0.0000000), wk =   0.1250000

     Initial potential from superposition of free atoms

     starting charge  378.99916, renormalised to  395.00000

[...]

     %%%%%%%%%%%%%%%%%%%%%%%%%%%%%%%%%%%%%%%%%%%%%%%%%%%%%%%%%%%%%%%%%%%%%%%%
     %                                                                      %
     % You are using vdW-DF, which was implemented by the Thonhauser group. %
     % Please cite the following two papers that made this development      %
     % possible and the two reviews that describe the various versions:     %
     %                                                                      %
     %   T. Thonhauser et al., PRL 115, 136402 (2015).                      %
     %   T. Thonhauser et al., PRB 76, 125112 (2007).                       %
     %   K. Berland et al., Rep. Prog. Phys. 78, 066501 (2015).             %
     %   D.C. Langreth et al., J. Phys.: Condens. Matter 21, 084203 (2009). %
     %                                                                      %
     %                                                                      %
     % If you are calculating the stress with vdW-DF, please also cite:     %
     %                                                                      %
     %   R. Sabatini et al., J. Phys.: Condens. Matter 24, 424209 (2012).   %
     %                                                                      %
     %%%%%%%%%%%%%%%%%%%%%%%%%%%%%%%%%%%%%%%%%%%%%%%%%%%%%%%%%%%%%%%%%%%%%%%%

[...]

     Starting wfcs are  299 atomic wfcs
  @ DRIVER MODE: Message from server: STATUS
  @ DRIVER MODE: Message from server: POSDATA
  @ DRIVER MODE: Reading and sharing cell
  @ DRIVER MODE: Reading and sharing positions
  @ DRIVER MODE: Received positions

     Self-consistent Calculation

[...]

     iteration # 59     ecut=    29.40 Ry     beta= 0.05
     Davidson diagonalization with overlap
     c_bands:  1 eigenvalues not converged
     ethr =  1.12E-09,  avg # of iterations = 11.1

[...]

     total energy              =   -2939.10942683 Ry
     estimated scf accuracy    <       0.00000010 Ry

     iteration # 68     ecut=    29.40 Ry     beta= 0.05
     Davidson diagonalization with overlap
     ethr =  2.48E-11,  avg # of iterations = 10.0

     negative rho (up, down):  1.780E-02 0.000E+00

     Adding external electric field

     Computed dipole along edir(3) :
        Dipole                1.3692 Ry au,          3.4800 Debye
        Dipole field          0.0026 Ry au,

        Potential amp.       -0.2395 Ry
        Total length         46.3494 bohr

     End of self-consistent calculation

[...]

          k = 0.0380-0.0419 0.0000 ( 17876 PWs)   bands (ev):

[...]

          k =-0.0760-0.0839 0.0000 ( 17948 PWs)   bands (ev):

   -55.4672 -55.4664 -55.3823 -55.3539 -55.3233 -55.3122 -55.3058 -55.3028
   -55.2852 -55.2841 -55.2474 -55.2383 -55.1437 -54.9920 -54.4464 -54.4463
   -31.7834 -31.7828 -31.7616 -31.7614 -31.7610 -31.7309 -31.6676 -31.6639
   -31.6492 -31.6281 -31.6210 -31.6115 -31.6008 -31.6000 -31.5904 -31.5868
   -31.5860 -31.5797 -31.5795 -31.5774 -31.5609 -31.5585 -31.5453 -31.5329
   -31.5318 -31.5132 -31.5102 -31.5083 -31.4870 -31.4853 -31.4748 -31.4627
   -31.4602 -31.4579 -31.4564 -31.4550 -31.4402 -31.3858 -31.3736 -31.2888
   -31.2456 -31.2330 -30.7726 -30.7725 -30.6832 -30.6829 -30.6440 -30.6440
   -18.7473 -15.5993 -15.5039 -15.4872 -15.4125 -15.3888 -15.2883 -15.2518
   -15.2120 -15.1878 -15.1808 -15.1484 -15.0994 -15.0855 -15.0464 -15.0352
   -15.0097 -14.9756 -14.9658 -14.9290 -14.9262 -14.9192 -14.8827 -14.8224
   -14.8055 -14.7978 -14.7957 -14.7157 -14.6095 -14.3544 -13.5054 -12.9502
   -12.9500  -8.8796  -7.2571  -4.5655  -3.6495  -2.8496  -2.7857  -2.7742
    -2.6717  -2.5930  -2.5275  -2.4855  -2.4600  -2.4034  -2.3946  -2.3401
    -2.3314  -2.3051  -2.2905  -2.2772  -2.2432  -2.2262  -2.2238  -2.1897
    -2.1829  -2.1594  -2.1328  -2.1105  -2.0993  -2.0835  -2.0682  -2.0438
    -2.0310  -1.9985  -1.9586  -1.8257  -1.7091  -1.6601  -1.6297  -1.6092
    -1.5864  -1.5554  -1.5381  -1.5266  -1.4936  -1.4515  -1.3106  -1.1725
    -1.1505  -1.0615  -1.0142  -0.9919  -0.9541  -0.8997  -0.8773  -0.8736
    -0.8158  -0.7908  -0.7057  -0.6567  -0.6163  -0.5905  -0.4585  -0.4507
    -0.4460  -0.4308  -0.3996  -0.3803  -0.3275  -0.2473  -0.2158  -0.2097
    -0.1642  -0.1617  -0.1496  -0.0081   0.0571   0.1016   0.1928   0.2404
     0.3892   0.5431   0.5675   0.6022   0.6936   0.7488   0.7904   0.8281
     0.8446   0.8965   0.9627   1.0302   1.0428   1.0964   1.1189   1.1978
     1.2364   1.9242   1.9251   1.9958   1.9961   3.9954   4.0027   4.0178
     4.0872   4.1486   4.1552   4.1883   4.1893   4.2911   4.3196

     the Fermi energy is     3.6446 ev

!    total energy              =   -2939.10944750 Ry
     estimated scf accuracy    <       0.00000005 Ry
     smearing contrib. (-TS)   =      -0.02093064 Ry
     internal energy E=F+TS    =   -2939.08851686 Ry

     The total energy is F=E-TS. E is the sum of the following terms:
     one-electron contribution =  -24577.19604355 Ry
     hartree contribution      =   12380.18154156 Ry
     xc contribution           =    -485.20340435 Ry
     ewald contribution        =    9743.12585190 Ry
     electric field correction =       0.00353759 Ry

     convergence has been achieved in  68 iterations

     Forces acting on atoms (cartesian axes, Ry/au):

     atom    1 type  1   force =     0.00005290   -0.00022179    0.09562003
     atom    2 type  1   force =    -0.00001655   -0.00052141   -0.17547814
     atom    3 type  2   force =     0.00008983   -0.00008965   -0.02324185
     atom    4 type  2   force =    -0.00003392   -0.00149290    0.05268794
     atom    5 type  2   force =    -0.01058879   -0.00050940    0.00372553
     atom    6 type  2   force =     0.01178365   -0.00007324    0.00224906
     atom    7 type  1   force =    -0.00003189   -0.00027739   -0.00807544
     atom    8 type  1   force =     0.00049334    0.01257571    0.01816415
     atom    9 type  2   force =    -0.00031480    0.00005172    0.00007053
     atom   10 type  2   force =    -0.00242765    0.00020258   -0.01643203
     atom   11 type  2   force =    -0.00030029    0.00019792    0.00001922
     atom   12 type  2   force =    -0.00045493   -0.00014149   -0.00012672
     atom   13 type  1   force =     0.00022003   -0.00008358    0.00000862
     atom   14 type  1   force =     0.00034083    0.00004614   -0.00005040
     atom   15 type  2   force =     0.00014469    0.00024151    0.00009549
     atom   16 type  2   force =    -0.00016260   -0.00020220    0.00016893
     atom   17 type  2   force =    -0.00007529   -0.00029225   -0.00035761
     atom   18 type  2   force =    -0.00005688   -0.00003004   -0.00036018
     atom   19 type  1   force =     0.00032996    0.00001993   -0.00064843
     atom   20 type  1   force =     0.00015892    0.00002175   -0.00029590
     atom   21 type  2   force =     0.00005552   -0.00006537    0.10318080
     atom   22 type  2   force =     0.00005141    0.00010719    0.00000351
     atom   23 type  2   force =    -0.07157846   -0.00015930   -0.02754351
     atom   24 type  2   force =     0.07150397    0.00028199   -0.02760105
     atom   25 type  1   force =     0.00017167   -0.00025700    0.09532326
     atom   26 type  1   force =     0.00004517   -0.00030163   -0.17587165
     atom   27 type  2   force =     0.00009042   -0.00019053   -0.02222561
     atom   28 type  2   force =    -0.00001669   -0.00114704    0.05316496
     atom   29 type  2   force =    -0.01041505   -0.00022365    0.00332569
     atom   30 type  2   force =     0.01141742    0.00019705    0.00189936
     atom   31 type  1   force =    -0.00014378    0.00482580   -0.00024124
     atom   32 type  1   force =     0.00058351   -0.01317083    0.01870443
     atom   33 type  2   force =    -0.00015132    0.00013360   -0.00009307
     atom   34 type  2   force =    -0.00059930    0.00043104   -0.01725346
     atom   35 type  2   force =    -0.00036744   -0.00014966    0.00014704
     atom   36 type  2   force =    -0.00020405   -0.00033852    0.00020762
     atom   37 type  1   force =     0.00033177   -0.00017010    0.00005130
     atom   38 type  1   force =     0.00016484    0.00021277    0.00018786
     atom   39 type  2   force =    -0.00027084   -0.00004358   -0.00018711
     atom   40 type  2   force =    -0.00013186   -0.00010594    0.00039962
     atom   41 type  2   force =    -0.00009744    0.00014395   -0.00005707
     atom   42 type  2   force =     0.00020959   -0.00008908    0.00013430
     atom   43 type  1   force =    -0.00003723    0.00014784    0.00013367
     atom   44 type  1   force =     0.00013582    0.00025730    0.00020352
     atom   45 type  2   force =     0.00006749   -0.00009500    0.10319636
     atom   46 type  2   force =    -0.07163645   -0.00012072   -0.02757928
     atom   47 type  2   force =     0.07152274    0.00027230   -0.02762207
     atom   48 type  3   force =     0.00172130   -0.00018102   -0.00050480
     atom   49 type  3   force =    -0.00744568   -0.00117408    0.00669941
     atom   50 type  4   force =    -0.00052385   -0.00021117   -0.00001200
     atom   51 type  5   force =     0.00020726   -0.00000087    0.00030999
     atom   52 type  5   force =    -0.00021709    0.00125276   -0.00060763
     atom   53 type  5   force =     0.00640607    0.00050958   -0.00761595

     Total force =     0.365822     Total SCF correction =     0.000616
  @ DRIVER MODE: Message from server: STATUS
  @ DRIVER MODE: Message from server: GETFORCE
  @ DRIVER MODE: Returning v,forces,stress,ensemble

     Writing output data file ./calc.save/
  @ DRIVER MODE: Message from server: EXIT
  @ DRIVE MODE: Exiting

     General routines

     Parallel routines

   This run was terminated on:  18:25:54  15Sep2021

   JOB DONE.