     Program PWSCF v.6.7GPU starts on 16Sep2021 at  0:34:35

     R & G space division:  proc/nbgrp/npool/nimage =      10
     Reading input from /storage/home/hcoda1/3/ntian30/research/carbon/CxH_vib/H2O_calc/ads_slab/CH3OHH2O_e/out_0028/pw.inp
Warning: card &CELL ignored
Warning: card   CELL_DYNAMICS='IPI', ignored
Warning: card / ignored

     Current dimensions of program PWSCF are:
     Max number of different atomic species (ntypx) = 10
     Max number of k-points (npk) =  40000
     Max angular momentum in pseudopotentials (lmaxx) =  3
     Presently no symmetry can be used with electric field

     Message from routine cell_base_init:
     DEPRECATED: use true lattice parameter, not A to a.u. conversion factor

     IMPORTANT: XC functional enforced from input :
     Exchange-correlation= BEEF-VDW
                           (   1   4  43  14   2   0   0)
     Any further DFT definition will be discarded
     Please, verify this is what you really want

  @ DRIVER MODE: Connecting to
 qe_1139763_2852623.sched-torque.pace.gatech.edugqbte_0d_scratch
  using UNIX socket
  @ DRIVER MODE: Message from server: STATUS
  @ DRIVER MODE: Message from server: INIT
  @ DRIVER MODE: Receiving replica           0          -1
  @ DRIVER MODE: Receiving encoded integer          25
  @ DRIVER MODE:  SCF:  T  FORCE:  T  STRESS:  F  VC:  F  ENSEMBLE:  F
  @ DRIVER MODE:  SCF:  T  FORCE:  T  STRESS:  F  VC:  F  ENSEMBLE:  F

     Using Slab Decomposition

     bravais-lattice index     =            0
     lattice parameter (alat)  =       1.8897  a.u.
     unit-cell volume          =    6658.9804 (a.u.)^3
     number of atoms/cell      =           56
     number of atomic types    =            4
     number of electrons       =       400.00
     number of Kohn-Sham states=          210
     kinetic-energy cutoff     =      29.3995  Ry
     charge density cutoff     =     293.9946  Ry
     scf convergence threshold =      7.3E-08
     mixing beta               =       0.0500
     number of iterations used =            8  plain     mixing
     Exchange-correlation= BEEF-VDW
                           (   1   4  43  14   2   0   0)

     celldm(1)=   1.889726  celldm(2)=   0.000000  celldm(3)=   0.000000
     celldm(4)=   0.000000  celldm(5)=   0.000000  celldm(6)=   0.000000

     crystal axes: (cart. coord. in units of alat)
               a(1) = (   6.579727   0.000000   0.000000 )
               a(2) = (  -0.000775   5.961596   0.000000 )
               a(3) = (   0.000000   0.000000  25.155947 )

     reciprocal axes: (cart. coord. in units 2 pi/alat)
               b(1) = (  0.151982  0.000020  0.000000 )
               b(2) = (  0.000000  0.167740  0.000000 )
               b(3) = (  0.000000  0.000000  0.039752 )

     PseudoPot. # 1 for Ti read from file:
     /storage/coda1/p-amedford6/0/shared/rich_project_chbe-medford/medford-share/data/pseudos_module/espresso/nninc/pbe/van/Ti.UPF
     MD5 check sum: 8e4df49b7f0d34bbd5052bf3f5ea0213
     Pseudo is Ultrasoft, Zval = 12.0
     Generated by new atomic code, or converted to UPF format
     Using radial grid of  851 points,  6 beta functions with:
                l(1) =   0
                l(2) =   0
                l(3) =   1
                l(4) =   1
                l(5) =   2
                l(6) =   2
     Q(r) pseudized with  8 coefficients,  rinner =    1.000   1.000   1.000
                                                       1.000   1.000

     PseudoPot. # 2 for O  read from file:
     /storage/coda1/p-amedford6/0/shared/rich_project_chbe-medford/medford-share/data/pseudos_module/espresso/nninc/pbe/van/O.UPF
     MD5 check sum: 78c19812648e8988a0fe644b0f25305e
     Pseudo is Ultrasoft, Zval =  6.0
     Generated by new atomic code, or converted to UPF format
     Using radial grid of  737 points,  4 beta functions with:
                l(1) =   0
                l(2) =   0
                l(3) =   1
                l(4) =   1
     Q(r) pseudized with  8 coefficients,  rinner =    0.800   0.800   0.800

     PseudoPot. # 3 for C  read from file:
     /storage/coda1/p-amedford6/0/shared/rich_project_chbe-medford/medford-share/data/pseudos_module/espresso/nninc/pbe/van/C.UPF
     MD5 check sum: 1a69bf6b8db32088f5b2163dbdb77a27
     Pseudo is Ultrasoft, Zval =  4.0
     Generated by new atomic code, or converted to UPF format
     Using radial grid of  721 points,  4 beta functions with:
                l(1) =   0
                l(2) =   0
                l(3) =   1
                l(4) =   1
     Q(r) pseudized with  8 coefficients,  rinner =    0.800   0.800   0.800

     PseudoPot. # 4 for H  read from file:
     /storage/coda1/p-amedford6/0/shared/rich_project_chbe-medford/medford-share/data/pseudos_module/espresso/nninc/pbe/van/H.UPF
     MD5 check sum: b5ee9d7bfd3a09ee7748110bda690ff7
     Pseudo is Ultrasoft, Zval =  1.0
     Generated by new atomic code, or converted to UPF format
     Using radial grid of  615 points,  1 beta functions with:
                l(1) =   0
     Q(r) pseudized with  8 coefficients,  rinner =    0.800

     atomic species   valence    mass     pseudopotential
        Ti1           12.00    47.86700     Ti( 1.00)
        O1             6.00    15.99900     O ( 1.00)
        C1             4.00    12.01100     C ( 1.00)
        H1             1.00     1.00800     H ( 1.00)

     No symmetry found

   Cartesian axes

     site n.     atom                  positions (alat units)
         1           Ti1 tau(   1) = (   0.0004258   2.9801865   6.0000000  )
         2           Ti1 tau(   2) = (   3.2906075   1.4906267   6.0002472  )
         3           O1  tau(   3) = (   0.0006271   0.0005054   7.9858123  )
         4           O1  tau(   4) = (   3.2906025   0.0005020   7.3038282  )
         5           O1  tau(   5) = (   4.5942328   1.4918067   9.2879030  )
         6           O1  tau(   6) = (   1.9868534   1.4903216   9.2879459  )
         7           Ti1 tau(   7) = (   3.3179988   2.9667087   9.1587561  )
         8           Ti1 tau(   8) = (   0.0368451   1.4888401   9.2646154  )
         9           O1  tau(   9) = (   3.2981896   5.9413050  11.3756853  )
        10           O1  tau(  10) = (   0.0022081   5.9550161  10.6068466  )
        11           O1  tau(  11) = (   1.2930414   1.4711740  12.6526869  )
        12           O1  tau(  12) = (   5.2963464   1.4745835  12.6500758  )
        13           Ti1 tau(  13) = (   0.0229324   2.9590759  12.5385950  )
        14           Ti1 tau(  14) = (   3.3157970   1.4644123  12.5194148  )
        15           O1  tau(  15) = (   6.5691168   5.9481840  14.6869282  )
        16           O1  tau(  16) = (   3.2964787   5.9455965  14.0277316  )
        17           O1  tau(  17) = (   4.5665908   1.5027878  16.2081754  )
        18           O1  tau(  18) = (   2.0283028   1.5092035  16.1774433  )
        19           Ti1 tau(  19) = (   3.2999954   2.9453206  15.7178785  )
        20           Ti1 tau(  20) = (   6.5724188   1.3235339  15.9896992  )
        21           O1  tau(  21) = (   3.2904802   0.0005063   4.7018136  )
        22           O1  tau(  22) = (   0.0286320   5.9425150  17.2304330  )
        23           O1  tau(  23) = (   1.3043587   1.4918075   6.0039043  )
        24           O1  tau(  24) = (   5.2767064   1.4903225   6.0039473  )
        25           Ti1 tau(  25) = (   0.0000382   5.9609847   6.0000000  )
        26           Ti1 tau(  26) = (   3.2902200   4.4714249   6.0002472  )
        27           O1  tau(  27) = (   0.0002396   2.9813036   7.9858123  )
        28           O1  tau(  28) = (   3.2902150   2.9813002   7.3038282  )
        29           O1  tau(  29) = (   4.5938453   4.4726049   9.2879030  )
        30           O1  tau(  30) = (   1.9864658   4.4711199   9.2879459  )
        31           Ti1 tau(  31) = (   3.3176359   5.9492212   9.1540102  )
        32           Ti1 tau(  32) = (   0.0367062   4.4560090   9.2708352  )
        33           O1  tau(  33) = (   3.2951800   2.9650663  11.3684769  )
        34           O1  tau(  34) = (   0.0080098   2.9764013  10.6279654  )
        35           O1  tau(  35) = (   1.2931912   4.4560454  12.6592269  )
        36           O1  tau(  36) = (   5.2946864   4.4524020  12.6579832  )
        37           Ti1 tau(  37) = (   0.0159028   5.9413441  12.4831893  )
        38           Ti1 tau(  38) = (   3.3151975   4.4500431  12.5204281  )
        39           O1  tau(  39) = (   0.0034497   2.9621527  14.8596962  )
        40           O1  tau(  40) = (   3.2989893   2.9535984  13.9376031  )
        41           O1  tau(  41) = (   4.5724332   4.4114593  16.1445292  )
        42           O1  tau(  42) = (   2.0255208   4.3883007  16.1585022  )
        43           Ti1 tau(  43) = (   3.2821299   5.9114753  15.8432964  )
        44           Ti1 tau(  44) = (   6.5414858   4.5242847  15.8739915  )
        45           O1  tau(  45) = (   3.2900926   2.9813045   4.7018136  )
        46           O1  tau(  46) = (   1.3039711   4.4726057   6.0039043  )
        47           O1  tau(  47) = (   5.2763189   4.4711207   6.0039473  )
        48           C1  tau(  48) = (   5.9754720   3.1749164  18.9278073  )
        49           O1  tau(  49) = (   0.1533887   3.0270296  17.7012840  )
        50           H1  tau(  50) = (   4.9293134   3.0706859  18.6584277  )
        51           H1  tau(  51) = (   1.0910173   3.2466920  17.8500278  )
        52           H1  tau(  52) = (   6.2690755   2.4037635  19.6305738  )
        53           H1  tau(  53) = (   6.1431946   4.1694627  19.3379575  )
        54           O1  tau(  54) = (   3.1723115   5.9428592  18.3689464  )
        55           H1  tau(  55) = (   3.8852673   0.6353712  18.4582360  )
        56           H1  tau(  56) = (   2.3406934   0.4831942  18.3201771  )

     number of k points=    10  Fermi-Dirac smearing, width (Ry)=  0.0073
                       cart. coord. in units 2pi/alat
        k(    1) = (   0.0000000   0.0000000   0.0000000), wk =   0.1250000
        k(    2) = (   0.0000000   0.0419351   0.0000000), wk =   0.2500000
        k(    3) = (   0.0000000  -0.0838702   0.0000000), wk =   0.1250000
        k(    4) = (   0.0379955   0.0000049   0.0000000), wk =   0.2500000
        k(    5) = (   0.0379955   0.0419400   0.0000000), wk =   0.2500000
        k(    6) = (   0.0379955  -0.0838652   0.0000000), wk =   0.2500000
        k(    7) = (   0.0379955  -0.0419301   0.0000000), wk =   0.2500000
        k(    8) = (  -0.0759910  -0.0000099   0.0000000), wk =   0.1250000
        k(    9) = (  -0.0759910   0.0419252   0.0000000), wk =   0.2500000
        k(   10) = (  -0.0759910  -0.0838800   0.0000000), wk =   0.1250000

     Initial potential from superposition of free atoms

     starting charge  383.99915, renormalised to  400.00000

     negative rho (up, down):  1.599E-02 0.000E+00

     %%%%%%%%%%%%%%%%%%%%%%%%%%%%%%%%%%%%%%%%%%%%%%%%%%%%%%%%%%%%%%%%%%%%%%%%
     %                                                                      %
     % You are using vdW-DF, which was implemented by the Thonhauser group. %
     % Please cite the following two papers that made this development      %
     % possible and the two reviews that describe the various versions:     %
     %                                                                      %
     %   T. Thonhauser et al., PRL 115, 136402 (2015).                      %
     %   T. Thonhauser et al., PRB 76, 125112 (2007).                       %
     %   K. Berland et al., Rep. Prog. Phys. 78, 066501 (2015).             %
     %   D.C. Langreth et al., J. Phys.: Condens. Matter 21, 084203 (2009). %
     %                                                                      %
     %                                                                      %
     % If you are calculating the stress with vdW-DF, please also cite:     %
     %                                                                      %
     %   R. Sabatini et al., J. Phys.: Condens. Matter 24, 424209 (2012).   %
     %                                                                      %
     %%%%%%%%%%%%%%%%%%%%%%%%%%%%%%%%%%%%%%%%%%%%%%%%%%%%%%%%%%%%%%%%%%%%%%%%

     Adding external electric field

     Computed dipole along edir(3) :
        Dipole              -11.7400 Ry au,        -29.8402 Debye
        Dipole field         -0.0222 Ry au,

        Potential amp.        2.0537 Ry
        Total length         46.3494 bohr

     Starting wfcs are  302 atomic wfcs
  @ DRIVER MODE: Message from server: STATUS
  @ DRIVER MODE: Message from server: POSDATA
  @ DRIVER MODE: Reading and sharing cell
  @ DRIVER MODE: Reading and sharing positions
  @ DRIVER MODE: Received positions

     Self-consistent Calculation

     iteration #  1     ecut=    29.40 Ry     beta= 0.05
     Davidson diagonalization with overlap
     c_bands:  2 eigenvalues not converged
     c_bands:  2 eigenvalues not converged
     c_bands:  4 eigenvalues not converged
     c_bands:  3 eigenvalues not converged
     c_bands:  4 eigenvalues not converged
     c_bands:  4 eigenvalues not converged
     c_bands:  3 eigenvalues not converged
     c_bands:  2 eigenvalues not converged
     ethr =  1.00E-05,  avg # of iterations = 21.3

[...]

     total energy              =   -2420.20987009 Ry
     estimated scf accuracy    <    6189.14429344 Ry

     iteration #  2     ecut=    29.40 Ry     beta= 0.05
     Davidson diagonalization with overlap
     ethr =  1.00E-02,  avg # of iterations = 29.9

[...]

     iteration # 55     ecut=    29.40 Ry     beta= 0.05
     Davidson diagonalization with overlap
     c_bands:  1 eigenvalues not converged
     ethr =  3.28E-10,  avg # of iterations = 12.8

[...]

     total energy              =   -2967.47591538 Ry
     estimated scf accuracy    <       0.00000012 Ry

     iteration # 60     ecut=    29.40 Ry     beta= 0.05
     Davidson diagonalization with overlap
     ethr =  2.91E-11,  avg # of iterations =  9.6

     negative rho (up, down):  1.588E-02 0.000E+00

     Adding external electric field

     Computed dipole along edir(3) :
        Dipole                1.3797 Ry au,          3.5069 Debye
        Dipole field          0.0026 Ry au,

        Potential amp.       -0.2414 Ry
        Total length         46.3494 bohr

     End of self-consistent calculation

          k = 0.0000 0.0000 0.0000 ( 18029 PWs)   bands (ev):

   -55.2491 -55.2218 -55.2131 -55.1874 -55.1556 -55.1476 -55.1422 -55.0953
   -55.0948 -55.0886 -55.0543 -55.0368 -55.0070 -55.0028 -54.3108 -54.2767
   -31.8158 -31.7653 -31.7170 -31.6266 -31.5640 -31.5540 -31.5494 -31.5469
   -31.5103 -31.4811 -31.4647 -31.4626 -31.4513 -31.4415 -31.4272 -31.4129
   -31.3956 -31.3894 -31.3863 -31.3818 -31.3759 -31.3668 -31.3440 -31.3394
   -31.3378 -31.3178 -31.3148 -31.3131 -31.2923 -31.2791 -31.2632 -31.2426
   -31.2412 -31.2404 -31.2290 -31.2199 -31.2015 -31.1879 -31.1762 -31.1717
   -31.1585 -31.1480 -30.7229 -30.6204 -30.5988 -30.5392 -30.4528 -30.3418
   -20.1684 -19.0852 -16.0788 -15.8317 -15.6919 -15.5934 -15.4725 -15.3390
   -15.2788 -15.1640 -15.0729 -14.9830 -14.9680 -14.9496 -14.9202 -14.8975
   -14.8727 -14.8345 -14.8084 -14.7645 -14.7557 -14.7393 -14.7324 -14.6958
   -14.6928 -14.6476 -14.6393 -14.4823 -14.4122 -14.3520 -14.1300 -12.8117
   -12.6923 -11.2007  -6.9378  -6.8526  -5.1365  -5.0203  -3.4186  -3.2618
    -3.2279  -3.2015  -3.1824  -3.1425  -3.0612  -2.9624  -2.7882  -2.6782
    -2.5415  -2.5336  -2.4875  -2.4603  -2.4032  -2.3217  -2.2330  -2.2065
    -2.1716  -2.1382  -2.1348  -2.1190  -2.1087  -2.0530  -2.0172  -1.9592
    -1.8633  -1.8130  -1.7730  -1.7548  -1.6942  -1.6504  -1.6160  -1.5881
    -1.5814  -1.5750  -1.5164  -1.5144  -1.5064  -1.4949  -1.4773  -1.2886
    -1.2489  -1.1164  -1.0254  -0.9852  -0.9710  -0.8167  -0.8100  -0.7657
    -0.7323  -0.6983  -0.6578  -0.6000  -0.5027  -0.4720  -0.4206  -0.3824
    -0.2744  -0.2422  -0.2111  -0.1566  -0.0492  -0.0409  -0.0151   0.0042
     0.0783   0.1741   0.2032   0.2245   0.3014   0.3066   0.3678   0.4085
     0.4422   0.5172   0.5624   0.5736   0.6652   0.6821   0.6958   0.7223
     0.7258   0.8244   0.8605   0.9051   0.9235   1.0750   1.1695   1.3089
     1.3376   1.6043   1.6995   1.7150   1.8753   2.3008   2.3556   3.8419
     3.9103   3.9487   3.9564   3.9697   4.0492   4.3329   4.3483   4.3602
     4.3699   4.3879

[...]

          k = 0.0380-0.0419 0.0000 ( 17876 PWs)   bands (ev):

[...]

          k =-0.0760-0.0000 0.0000 ( 17886 PWs)   bands (ev):

[...]

          k =-0.0760-0.0839 0.0000 ( 17948 PWs)   bands (ev):

   -55.2321 -55.2299 -55.2067 -55.2023 -55.1526 -55.1417 -55.1348 -55.1027
   -55.1015 -55.0727 -55.0698 -55.0216 -55.0181 -55.0088 -54.2938 -54.2936
   -31.6822 -31.6228 -31.6158 -31.5340 -31.5298 -31.5161 -31.5045 -31.4996
   -31.4917 -31.4714 -31.4531 -31.4477 -31.4435 -31.4298 -31.4042 -31.4017
   -31.3901 -31.3876 -31.3806 -31.3797 -31.3761 -31.3729 -31.3602 -31.3464
   -31.3384 -31.3332 -31.3326 -31.3264 -31.3230 -31.3228 -31.3224 -31.3041
   -31.2968 -31.2943 -31.2758 -31.2711 -31.2705 -31.2466 -31.2429 -31.2079
   -31.2036 -31.1906 -30.6114 -30.6113 -30.5357 -30.5354 -30.4961 -30.4959
   -20.1651 -19.0845 -15.6370 -15.5385 -15.3880 -15.2648 -15.2525 -15.2399
   -15.1880 -15.1236 -15.1098 -15.0595 -15.0469 -15.0160 -15.0000 -14.9940
   -14.9581 -14.8496 -14.8455 -14.8352 -14.8145 -14.7695 -14.7585 -14.7514
   -14.7392 -14.7030 -14.6946 -14.6803 -14.6700 -14.5782 -14.4392 -12.7937
   -12.7930 -11.2025  -6.9344  -6.8528  -5.1377  -4.9988  -3.1833  -2.9927
    -2.8064  -2.7276  -2.6300  -2.4827  -2.4680  -2.3869  -2.3750  -2.3245
    -2.2538  -2.2508  -2.2471  -2.1659  -2.1537  -2.1536  -2.1323  -2.1129
    -2.0726  -2.0639  -2.0403  -2.0299  -1.9885  -1.9578  -1.9448  -1.9276
    -1.9173  -1.9134  -1.8824  -1.8678  -1.8524  -1.8104  -1.7875  -1.7276
    -1.6405  -1.6023  -1.4795  -1.4770  -1.4407  -1.4123  -1.3865  -1.3461
    -1.3261  -1.2783  -1.2589  -1.2325  -1.0490  -1.0330  -0.9787  -0.9387
    -0.9188  -0.9054  -0.8434  -0.7717  -0.7448  -0.7134  -0.6475  -0.5745
    -0.4784  -0.4542  -0.4457  -0.3400  -0.2875  -0.2481  -0.2437  -0.2344
    -0.2104  -0.1618  -0.1421  -0.0802  -0.0412   0.0024   0.0279   0.0448
     0.2258   0.2643   0.3227   0.4141   0.4429   0.5879   0.6365   0.6883
     0.7489   0.8253   0.8362   0.9022   1.0165   1.0287   1.0586   1.1357
     1.1790   1.1847   1.2098   2.0662   2.0683   2.1698   2.1729   3.9718
     4.0792   4.0978   4.1767   4.2430   4.3511   4.3641   4.3933   4.4039
     4.4493   4.5091

     the Fermi energy is     3.8983 ev

!    total energy              =   -2967.47595430 Ry
     estimated scf accuracy    <       0.00000006 Ry
     smearing contrib. (-TS)   =      -0.03653604 Ry
     internal energy E=F+TS    =   -2967.43941826 Ry

     The total energy is F=E-TS. E is the sum of the following terms:
     one-electron contribution =  -23962.87543317 Ry
     hartree contribution      =   12077.04747926 Ry
     xc contribution           =    -491.86493707 Ry
     ewald contribution        =    9410.24988028 Ry
     electric field correction =       0.00359245 Ry

     convergence has been achieved in  60 iterations

     Forces acting on atoms (cartesian axes, Ry/au):

     atom    1 type  1   force =    -0.00027090    0.00019215    0.09246309
     atom    2 type  1   force =    -0.00035674    0.00104510   -0.18340949
     atom    3 type  2   force =     0.00050866   -0.00071669   -0.02348661
     atom    4 type  2   force =     0.00072279   -0.00018572    0.05068911
     atom    5 type  2   force =    -0.01405594   -0.00132245    0.00495918
     atom    6 type  2   force =     0.01522267   -0.00065239    0.00509976
     atom    7 type  1   force =    -0.00049197    0.00106508   -0.00010601
     atom    8 type  1   force =     0.00016308   -0.00054887    0.00040342
     atom    9 type  2   force =    -0.00044159    0.00017594    0.00040298
     atom   10 type  2   force =     0.00040770    0.00016738    0.00048113
     atom   11 type  2   force =     0.00036149    0.00044560    0.00033669
     atom   12 type  2   force =     0.00005511    0.00014761    0.00026506
     atom   13 type  1   force =    -0.00088974   -0.00118389   -0.00011542
     atom   14 type  1   force =     0.00059672   -0.00004624    0.00018983
     atom   15 type  2   force =     0.00051532    0.00075386    0.00006687
     atom   16 type  2   force =    -0.00061467   -0.00036708    0.00005531
     atom   17 type  2   force =     0.00004282    0.00021761   -0.00038851
     atom   18 type  2   force =    -0.00013249    0.00028985   -0.00015784
     atom   19 type  1   force =     0.00064315   -0.00005041   -0.00031581
     atom   20 type  1   force =    -0.00003939    0.00015940   -0.00014246
     atom   21 type  2   force =    -0.00004097    0.00015897    0.10497595
     atom   22 type  2   force =    -0.00033794    0.00058215   -0.00090098
     atom   23 type  2   force =    -0.06799284    0.00013605   -0.02680444
     atom   24 type  2   force =     0.06771641    0.00054472   -0.02686994
     atom   25 type  1   force =    -0.00039201   -0.00008380    0.09625100
     atom   26 type  1   force =    -0.00035905   -0.00099275   -0.18319719
     atom   27 type  2   force =     0.00042087   -0.00125901   -0.02225098
     atom   28 type  2   force =     0.00070328   -0.00033369    0.05101064
     atom   29 type  2   force =    -0.01424531   -0.00105933    0.00466702
     atom   30 type  2   force =     0.01519861    0.00021880    0.00485251
     atom   31 type  1   force =    -0.00050089   -0.00145794    0.00019297
     atom   32 type  1   force =     0.00013835    0.00072556   -0.00026728
     atom   33 type  2   force =     0.00002321   -0.00020482    0.00007399
     atom   34 type  2   force =     0.00002764   -0.00007101   -0.00008738
     atom   35 type  2   force =     0.00021828    0.00008036    0.00030506
     atom   36 type  2   force =     0.00039410    0.00044627    0.00004989
     atom   37 type  1   force =    -0.00106628    0.00125577   -0.00006429
     atom   38 type  1   force =     0.00038221    0.00010806   -0.00046225
     atom   39 type  2   force =     0.00039269    0.00022120   -0.00032714
     atom   40 type  2   force =    -0.00008103    0.00019832    0.00006583
     atom   41 type  2   force =    -0.00022068    0.00018704   -0.00051116
     atom   42 type  2   force =     0.00013008   -0.00002315    0.00019985
     atom   43 type  1   force =    -0.00059367    0.00013166    0.00021466
     atom   44 type  1   force =    -0.00005192    0.00006108   -0.00084940
     atom   45 type  2   force =    -0.00005848    0.00015133    0.10491172
     atom   46 type  2   force =    -0.06804086   -0.00040116   -0.02680832
     atom   47 type  2   force =     0.06776188    0.00004588   -0.02689247
     atom   48 type  3   force =    -0.00212350    0.00761751   -0.00469180
     atom   49 type  2   force =    -0.00100397    0.00002314    0.00110475
     atom   50 type  4   force =     0.00053670    0.00044169    0.00021131
     atom   51 type  4   force =     0.00073483    0.00086367   -0.00006370
     atom   52 type  4   force =     0.00183463   -0.00671583    0.00461821
     atom   53 type  4   force =    -0.00055554    0.00039488   -0.00056532
     atom   54 type  2   force =     0.00086175   -0.00021772    0.00106639
     atom   55 type  4   force =    -0.00083244   -0.00038264   -0.00059499
     atom   56 type  4   force =    -0.00092418   -0.00097710    0.00014703

     Total force =     0.368405     Total SCF correction =     0.000582
  @ DRIVER MODE: Message from server: STATUS
  @ DRIVER MODE: Message from server: GETFORCE
  @ DRIVER MODE: Returning v,forces,stress,ensemble

     Writing output data file ./calc.save/
  @ DRIVER MODE: Message from server: EXIT
  @ DRIVE MODE: Exiting

     General routines

     Parallel routines

   This run was terminated on:   0:50:57  16Sep2021

   JOB DONE.