     Program PWSCF v.6.7GPU starts on 14Sep2021 at 17:11: 5

     R & G space division:  proc/nbgrp/npool/nimage =      10
     Reading input from /storage/home/hcoda1/3/ntian30/research/carbon/CxH_vib/CH_calc/ads_slab/CHON2_d/out_0011/pw.inp
Warning: card &CELL ignored
Warning: card   CELL_DYNAMICS='IPI', ignored
Warning: card / ignored

     Current dimensions of program PWSCF are:
     Max number of different atomic species (ntypx) = 10
     Max number of k-points (npk) =  40000
     Max angular momentum in pseudopotentials (lmaxx) =  3
     Presently no symmetry can be used with electric field

     Message from routine cell_base_init:
     DEPRECATED: use true lattice parameter, not A to a.u. conversion factor

     IMPORTANT: XC functional enforced from input :
     Exchange-correlation= BEEF-VDW
                           (   1   4  43  14   2   0   0)
     Any further DFT definition will be discarded
     Please, verify this is what you really want

  @ DRIVER MODE: Connecting to
 qe_1139763_2840438.sched-torque.pace.gatech.edu8ge0wel7_scratch
  using UNIX socket
  @ DRIVER MODE: Message from server: STATUS
  @ DRIVER MODE: Message from server: INIT
  @ DRIVER MODE: Receiving replica           0          -1
  @ DRIVER MODE: Receiving encoded integer          25
  @ DRIVER MODE:  SCF:  T  FORCE:  T  STRESS:  F  VC:  F  ENSEMBLE:  F
  @ DRIVER MODE:  SCF:  T  FORCE:  T  STRESS:  F  VC:  F  ENSEMBLE:  F

     Using Slab Decomposition

     bravais-lattice index     =            0
     lattice parameter (alat)  =       1.8897  a.u.
     unit-cell volume          =    6658.9804 (a.u.)^3
     number of atoms/cell      =           52
     number of atomic types    =            5
     number of electrons       =       399.00
     number of Kohn-Sham states=          209
     kinetic-energy cutoff     =      29.3995  Ry
     charge density cutoff     =     293.9946  Ry
     scf convergence threshold =      7.3E-08
     mixing beta               =       0.0500
     number of iterations used =            8  plain     mixing
     Exchange-correlation= BEEF-VDW
                           (   1   4  43  14   2   0   0)

     celldm(1)=   1.889726  celldm(2)=   0.000000  celldm(3)=   0.000000
     celldm(4)=   0.000000  celldm(5)=   0.000000  celldm(6)=   0.000000

     crystal axes: (cart. coord. in units of alat)
               a(1) = (   6.579727   0.000000   0.000000 )
               a(2) = (  -0.000775   5.961596   0.000000 )
               a(3) = (   0.000000   0.000000  25.155947 )

     reciprocal axes: (cart. coord. in units 2 pi/alat)
               b(1) = (  0.151982  0.000020  0.000000 )
               b(2) = (  0.000000  0.167740  0.000000 )
               b(3) = (  0.000000  0.000000  0.039752 )

     PseudoPot. # 1 for O  read from file:
     /storage/coda1/p-amedford6/0/shared/rich_project_chbe-medford/medford-share/data/pseudos_module/espresso/nninc/pbe/van/O.UPF
     MD5 check sum: 78c19812648e8988a0fe644b0f25305e
     Pseudo is Ultrasoft, Zval =  6.0
     Generated by new atomic code, or converted to UPF format
     Using radial grid of  737 points,  4 beta functions with:
                l(1) =   0
                l(2) =   0
                l(3) =   1
                l(4) =   1
     Q(r) pseudized with  8 coefficients,  rinner =    0.800   0.800   0.800

     PseudoPot. # 2 for Ti read from file:
     /storage/coda1/p-amedford6/0/shared/rich_project_chbe-medford/medford-share/data/pseudos_module/espresso/nninc/pbe/van/Ti.UPF
     MD5 check sum: 8e4df49b7f0d34bbd5052bf3f5ea0213
     Pseudo is Ultrasoft, Zval = 12.0
     Generated by new atomic code, or converted to UPF format
     Using radial grid of  851 points,  6 beta functions with:
                l(1) =   0
                l(2) =   0
                l(3) =   1
                l(4) =   1
                l(5) =   2
                l(6) =   2
     Q(r) pseudized with  8 coefficients,  rinner =    1.000   1.000   1.000
                                                       1.000   1.000

     PseudoPot. # 3 for C  read from file:
     /storage/coda1/p-amedford6/0/shared/rich_project_chbe-medford/medford-share/data/pseudos_module/espresso/nninc/pbe/van/C.UPF
     MD5 check sum: 1a69bf6b8db32088f5b2163dbdb77a27
     Pseudo is Ultrasoft, Zval =  4.0
     Generated by new atomic code, or converted to UPF format
     Using radial grid of  721 points,  4 beta functions with:
                l(1) =   0
                l(2) =   0
                l(3) =   1
                l(4) =   1
     Q(r) pseudized with  8 coefficients,  rinner =    0.800   0.800   0.800

     PseudoPot. # 4 for H  read from file:
     /storage/coda1/p-amedford6/0/shared/rich_project_chbe-medford/medford-share/data/pseudos_module/espresso/nninc/pbe/van/H.UPF
     MD5 check sum: b5ee9d7bfd3a09ee7748110bda690ff7
     Pseudo is Ultrasoft, Zval =  1.0
     Generated by new atomic code, or converted to UPF format
     Using radial grid of  615 points,  1 beta functions with:
                l(1) =   0
     Q(r) pseudized with  8 coefficients,  rinner =    0.800

     PseudoPot. # 5 for N  read from file:
     /storage/coda1/p-amedford6/0/shared/rich_project_chbe-medford/medford-share/data/pseudos_module/espresso/nninc/pbe/van/N.UPF
     MD5 check sum: 90d10febe142ad51ac9d5be1deb811c4
     Pseudo is Ultrasoft, Zval =  5.0
     Generated by new atomic code, or converted to UPF format
     Using radial grid of  729 points,  4 beta functions with:
                l(1) =   0
                l(2) =   0
                l(3) =   1
                l(4) =   1
     Q(r) pseudized with  8 coefficients,  rinner =    0.800   0.800   0.800

     atomic species   valence    mass     pseudopotential
        O1             6.00    15.99900     O ( 1.00)
        Ti1           12.00    47.86700     Ti( 1.00)
        C1             4.00    12.01100     C ( 1.00)
        H1             1.00     1.00800     H ( 1.00)
        N1             5.00    14.00700     N ( 1.00)

     No symmetry found

   Cartesian axes

     site n.     atom                  positions (alat units)
         1           O1  tau(   1) = (   3.2904802   0.0005063   4.7018136  )
         2           O1  tau(   2) = (   3.2900926   2.9813045   4.7018136  )
         3           Ti1 tau(   3) = (   0.0004258   2.9801865   6.0000000  )
         4           Ti1 tau(   4) = (   0.0000382   5.9609847   6.0000000  )
         5           Ti1 tau(   5) = (   3.2906075   1.4906267   6.0002472  )
         6           Ti1 tau(   6) = (   3.2902200   4.4714249   6.0002472  )
         7           O1  tau(   7) = (   1.3043587   1.4918075   6.0039043  )
         8           O1  tau(   8) = (   1.3039711   4.4726057   6.0039043  )
         9           O1  tau(   9) = (   5.2767064   1.4903225   6.0039473  )
        10           O1  tau(  10) = (   5.2763189   4.4711207   6.0039473  )
        11           O1  tau(  11) = (   3.2906025   0.0005020   7.3038282  )
        12           O1  tau(  12) = (   3.2902150   2.9813002   7.3038282  )
        13           O1  tau(  13) = (   0.0006271   0.0005054   7.9858123  )
        14           O1  tau(  14) = (   0.0002396   2.9813036   7.9858123  )
        15           Ti1 tau(  15) = (   3.2818399   0.0632074   9.1536190  )
        16           Ti1 tau(  16) = (   3.2594741   3.0397892   9.1577678  )
        17           Ti1 tau(  17) = (   6.5510804   4.5344316   9.2678866  )
        18           O1  tau(  18) = (   4.5942328   1.4918067   9.2879030  )
        19           O1  tau(  19) = (   4.5938453   4.4726049   9.2879030  )
        20           O1  tau(  20) = (   1.9868534   1.4903216   9.2879459  )
        21           O1  tau(  21) = (   1.9864658   4.4711199   9.2879459  )
        22           Ti1 tau(  22) = (   6.5572888   1.6134915   9.3644180  )
        23           O1  tau(  23) = (   0.0036999   2.9964159  10.5720758  )
        24           O1  tau(  24) = (   0.0032988   0.0129995  10.6087427  )
        25           O1  tau(  25) = (   3.3025789   3.0011443  11.3496891  )
        26           O1  tau(  26) = (   3.3069272   0.0203573  11.3499924  )
        27           Ti1 tau(  27) = (   3.3485197   1.5170776  12.4945998  )
        28           Ti1 tau(  28) = (   0.0476823   0.0282983  12.5166062  )
        29           Ti1 tau(  29) = (   3.3474104   4.4962924  12.4903914  )
        30           O1  tau(  30) = (   1.2998870   1.5091839  12.6411902  )
        31           O1  tau(  31) = (   5.2998363   1.5142331  12.6477699  )
        32           O1  tau(  32) = (   1.2995728   4.4957929  12.6443136  )
        33           O1  tau(  33) = (   5.3001588   4.4888893  12.6515721  )
        34           Ti1 tau(  34) = (   0.0405098   3.0100001  12.8178096  )
        35           O1  tau(  35) = (   3.3017622   3.0020563  13.9311684  )
        36           O1  tau(  36) = (   3.3043745   0.0240830  13.9418183  )
        37           O1  tau(  37) = (   0.0425158   3.0055145  14.7122960  )
        38           O1  tau(  38) = (   0.0212564   0.0294349  14.7090242  )
        39           Ti1 tau(  39) = (   3.3143756   3.0090542  15.7253892  )
        40           Ti1 tau(  40) = (   3.3278308   0.0282705  15.7347533  )
        41           Ti1 tau(  41) = (   0.0474550   4.6028283  15.9859659  )
        42           O1  tau(  42) = (   4.5544755   4.4960427  16.0754871  )
        43           O1  tau(  43) = (   2.0560418   4.4875074  16.0954883  )
        44           O1  tau(  44) = (   4.5513302   1.5206081  16.0934294  )
        45           O1  tau(  45) = (   2.0557237   1.5274495  16.1011513  )
        46           Ti1 tau(  46) = (   0.0476892   1.4302431  16.0559646  )
        47           O1  tau(  47) = (   0.0145416   0.0172736  17.2235231  )
        48           O1  tau(  48) = (   6.5187403   2.9994048  17.3870116  )
        49           C1  tau(  49) = (   5.9068627   3.1321688  18.5744627  )
        50           H1  tau(  50) = (   5.7866629   4.0998533  19.0461414  )
        51           N1  tau(  51) = (   5.4444810   2.0886009  19.2066540  )
        52           N1  tau(  52) = (   5.0309896   1.1542324  19.7398597  )

     number of k points=    10  Fermi-Dirac smearing, width (Ry)=  0.0073
                       cart. coord. in units 2pi/alat
        k(    1) = (   0.0000000   0.0000000   0.0000000), wk =   0.1250000
        k(    2) = (   0.0000000   0.0419351   0.0000000), wk =   0.2500000
        k(    3) = (   0.0000000  -0.0838702   0.0000000), wk =   0.1250000
        k(    4) = (   0.0379955   0.0000049   0.0000000), wk =   0.2500000
        k(    5) = (   0.0379955   0.0419400   0.0000000), wk =   0.2500000
        k(    6) = (   0.0379955  -0.0838652   0.0000000), wk =   0.2500000
        k(    7) = (   0.0379955  -0.0419301   0.0000000), wk =   0.2500000
        k(    8) = (  -0.0759910  -0.0000099   0.0000000), wk =   0.1250000
        k(    9) = (  -0.0759910   0.0419252   0.0000000), wk =   0.2500000
        k(   10) = (  -0.0759910  -0.0838800   0.0000000), wk =   0.1250000

     Initial potential from superposition of free atoms

     starting charge  382.99918, renormalised to  399.00000

     negative rho (up, down):  1.730E-02 0.000E+00

     %%%%%%%%%%%%%%%%%%%%%%%%%%%%%%%%%%%%%%%%%%%%%%%%%%%%%%%%%%%%%%%%%%%%%%%%
     %                                                                      %
     % You are using vdW-DF, which was implemented by the Thonhauser group. %
     % Please cite the following two papers that made this development      %
     % possible and the two reviews that describe the various versions:     %
     %                                                                      %
     %   T. Thonhauser et al., PRL 115, 136402 (2015).                      %
     %   T. Thonhauser et al., PRB 76, 125112 (2007).                       %
     %   K. Berland et al., Rep. Prog. Phys. 78, 066501 (2015).             %
     %   D.C. Langreth et al., J. Phys.: Condens. Matter 21, 084203 (2009). %
     %                                                                      %
     %                                                                      %
     % If you are calculating the stress with vdW-DF, please also cite:     %
     %                                                                      %
     %   R. Sabatini et al., J. Phys.: Condens. Matter 24, 424209 (2012).   %
     %                                                                      %
     %%%%%%%%%%%%%%%%%%%%%%%%%%%%%%%%%%%%%%%%%%%%%%%%%%%%%%%%%%%%%%%%%%%%%%%%

     Adding external electric field

     Computed dipole along edir(3) :
        Dipole              -10.9224 Ry au,        -27.7621 Debye
        Dipole field         -0.0206 Ry au,

        Potential amp.        1.9107 Ry
        Total length         46.3494 bohr

     Starting wfcs are  301 atomic wfcs
  @ DRIVER MODE: Message from server: STATUS
  @ DRIVER MODE: Message from server: POSDATA
  @ DRIVER MODE: Reading and sharing cell
  @ DRIVER MODE: Reading and sharing positions
  @ DRIVER MODE: Received positions

     Self-consistent Calculation

     iteration #  1     ecut=    29.40 Ry     beta= 0.05
     Davidson diagonalization with overlap
     c_bands:  1 eigenvalues not converged
     c_bands:  3 eigenvalues not converged
     c_bands:  1 eigenvalues not converged
     c_bands:  2 eigenvalues not converged
     c_bands:  3 eigenvalues not converged
     c_bands:  2 eigenvalues not converged
     c_bands:  2 eigenvalues not converged
     c_bands:  4 eigenvalues not converged
     c_bands:  3 eigenvalues not converged
     ethr =  1.00E-05,  avg # of iterations = 19.6

[...]

     total energy              =   -2496.11054829 Ry
     estimated scf accuracy    <    5311.55989116 Ry

     iteration #  2     ecut=    29.40 Ry     beta= 0.05
     Davidson diagonalization with overlap
     ethr =  1.00E-02,  avg # of iterations = 22.0

[...]

     iteration # 73     ecut=    29.40 Ry     beta= 0.05
     Davidson diagonalization with overlap
     c_bands:  1 eigenvalues not converged
     c_bands:  1 eigenvalues not converged
     ethr =  2.93E-11,  avg # of iterations = 15.3

[...]

     total energy              =   -2969.03722806 Ry
     estimated scf accuracy    <       0.00000025 Ry

     iteration # 74     ecut=    29.40 Ry     beta= 0.05
     Davidson diagonalization with overlap
     ethr =  2.93E-11,  avg # of iterations =  9.6

     negative rho (up, down):  1.694E-02 0.000E+00

     Adding external electric field

     Computed dipole along edir(3) :
        Dipole                0.4444 Ry au,          1.1295 Debye
        Dipole field          0.0008 Ry au,

        Potential amp.       -0.0777 Ry
        Total length         46.3494 bohr

     End of self-consistent calculation

          k = 0.0000 0.0000 0.0000 ( 18029 PWs)   bands (ev):

   -55.9403 -55.9266 -55.9033 -55.8903 -55.8284 -55.8083 -55.7838 -55.7679
   -55.7607 -55.7171 -55.7125 -55.6964 -55.6625 -55.5934 -54.9547 -54.9207
   -32.4909 -32.4088 -32.3241 -32.2966 -32.2648 -32.2406 -32.2331 -32.2110
   -32.1769 -32.1680 -32.1505 -32.1435 -32.1388 -32.1073 -32.1002 -32.0711
   -32.0700 -32.0655 -32.0620 -32.0309 -32.0252 -32.0054 -32.0049 -31.9884
   -31.9821 -31.9652 -31.9493 -31.9440 -31.9340 -31.9304 -31.9262 -31.9202
   -31.9182 -31.9109 -31.8775 -31.8748 -31.8436 -31.8416 -31.8164 -31.8025
   -31.7838 -31.7807 -31.3645 -31.2675 -31.2451 -31.1812 -31.0952 -30.9840
   -20.4960 -18.7571 -16.6859 -16.3955 -16.2477 -16.1027 -16.0679 -15.9507
   -15.7821 -15.6619 -15.6260 -15.5606 -15.5114 -15.5082 -15.4906 -15.4790
   -15.4636 -15.4561 -15.4337 -15.3764 -15.3690 -15.3452 -15.3250 -15.2874
   -15.2246 -15.1527 -15.1015 -15.0605 -15.0146 -14.9468 -14.9285 -13.4555
   -13.4098 -13.3372  -6.9329  -5.8964  -4.5877  -4.0395  -3.8726  -3.8657
    -3.8314  -3.7518  -3.6280  -3.5086  -3.4956  -3.3172  -3.1867  -3.1207
    -3.0928  -3.0766  -3.0683  -2.8899  -2.8795  -2.8195  -2.7683  -2.7572
    -2.7536  -2.7263  -2.7122  -2.6843  -2.6629  -2.6531  -2.6022  -2.4792
    -2.3586  -2.3458  -2.3252  -2.2429  -2.2369  -2.2250  -2.2194  -2.1948
    -2.1655  -2.1536  -2.1469  -2.0654  -1.9780  -1.8983  -1.8693  -1.7646
    -1.7271  -1.6405  -1.4573  -1.4088  -1.3576  -1.3438  -1.3356  -1.2918
    -1.2578  -1.2102  -1.1619  -1.1375  -1.0615  -0.9626  -0.9445  -0.8547
    -0.7969  -0.7542  -0.6863  -0.6689  -0.6622  -0.6507  -0.5277  -0.4210
    -0.4081  -0.3843  -0.2823  -0.2335  -0.2248  -0.1704  -0.1560  -0.1205
    -0.0719  -0.0201   0.0164   0.0228   0.0559   0.0655   0.1084   0.2266
     0.2488   0.2542   0.3395   0.3681   0.5272   0.5712   0.7028   0.7900
     0.9727   1.0695   1.1347   1.2404   1.6580   1.7173   2.6226   3.2452
     3.2750   3.3070   3.3442   3.3995   3.5076   3.6539   3.6834   3.7023
     3.7265

[...]

          k = 0.0380-0.0419 0.0000 ( 17876 PWs)   bands (ev):

[...]

          k =-0.0760-0.0000 0.0000 ( 17886 PWs)   bands (ev):

[...]

          k =-0.0760-0.0839 0.0000 ( 17948 PWs)   bands (ev):

   -55.9291 -55.9143 -55.9097 -55.9070 -55.8215 -55.7984 -55.7906 -55.7774
   -55.7537 -55.7196 -55.7143 -55.6817 -55.6773 -55.5957 -54.9382 -54.9370
   -32.2942 -32.2912 -32.2329 -32.2260 -32.2216 -32.2172 -32.1984 -32.1977
   -32.1908 -32.1539 -32.1299 -32.1251 -32.1233 -32.0814 -32.0698 -32.0672
   -32.0589 -32.0550 -32.0516 -32.0453 -32.0383 -32.0221 -32.0177 -32.0091
   -32.0056 -32.0005 -31.9990 -31.9974 -31.9803 -31.9504 -31.9405 -31.9375
   -31.9337 -31.9328 -31.9319 -31.9131 -31.9016 -31.8969 -31.8880 -31.8774
   -31.8242 -31.7899 -31.2585 -31.2571 -31.1780 -31.1770 -31.1388 -31.1378
   -20.4944 -18.7440 -16.1170 -16.0986 -15.9037 -15.8590 -15.8533 -15.7993
   -15.7258 -15.7071 -15.6623 -15.6590 -15.6059 -15.5939 -15.5856 -15.5350
   -15.4924 -15.4627 -15.4536 -15.4480 -15.3922 -15.3888 -15.3877 -15.3330
   -15.3189 -15.3032 -15.2737 -15.2695 -15.2051 -15.1772 -15.1014 -13.4397
   -13.4373 -13.4177  -6.9040  -5.9056  -4.5864  -3.5988  -3.4072  -3.3848
    -3.3026  -3.1423  -3.0771  -3.0749  -2.9942  -2.9199  -2.9024  -2.8730
    -2.8367  -2.7882  -2.7810  -2.7754  -2.7601  -2.7473  -2.7252  -2.7144
    -2.6813  -2.6621  -2.6265  -2.6015  -2.5824  -2.5660  -2.5577  -2.5203
    -2.5012  -2.4885  -2.4788  -2.4735  -2.4126  -2.2447  -2.1943  -2.1150
    -2.0897  -2.0796  -2.0496  -2.0326  -2.0060  -1.9926  -1.9763  -1.8721
    -1.7866  -1.6987  -1.6780  -1.6606  -1.6402  -1.6028  -1.4880  -1.4590
    -1.3823  -1.3606  -1.3459  -1.2449  -1.2229  -1.1553  -1.1523  -1.0688
    -1.0274  -1.0147  -0.9492  -0.9084  -0.8936  -0.8372  -0.8109  -0.7442
    -0.6907  -0.6712  -0.6086  -0.5955  -0.5661  -0.5121  -0.4690  -0.4537
    -0.3862  -0.2956  -0.2536  -0.0592   0.0690   0.0845   0.1033   0.1768
     0.2565   0.2952   0.3187   0.3543   0.4412   0.5003   0.5745   0.5919
     0.6151   0.6804   1.4293   1.4309   1.5204   1.5312   2.5416   3.4534
     3.4758   3.4995   3.5510   3.7042   3.7087   3.7268   3.7364   3.8260
     3.8867

     the Fermi energy is     3.2139 ev

!    total energy              =   -2969.03724330 Ry
     estimated scf accuracy    <       0.00000007 Ry
     smearing contrib. (-TS)   =      -0.02342044 Ry
     internal energy E=F+TS    =   -2969.01382286 Ry

     The total energy is F=E-TS. E is the sum of the following terms:
     one-electron contribution =  -23806.34175950 Ry
     hartree contribution      =   11991.58796529 Ry
     xc contribution           =    -490.85182218 Ry
     ewald contribution        =    9336.59142088 Ry
     electric field correction =       0.00037264 Ry

     convergence has been achieved in  74 iterations

     Forces acting on atoms (cartesian axes, Ry/au):

     atom    1 type  1   force =     0.00008496    0.00006414    0.10420215
     atom    2 type  1   force =     0.00010573    0.00002524    0.10422515
     atom    3 type  2   force =     0.00028963   -0.00170246    0.10528494
     atom    4 type  2   force =     0.00011734    0.00145542    0.11700319
     atom    5 type  2   force =     0.00013108    0.00057655   -0.18001698
     atom    6 type  2   force =    -0.00004471   -0.00014434   -0.18013111
     atom    7 type  1   force =    -0.06882764    0.00077951   -0.02949515
     atom    8 type  1   force =    -0.06849109   -0.00143620   -0.02953316
     atom    9 type  1   force =     0.06891889    0.00107051   -0.02955069
     atom   10 type  1   force =     0.06847477   -0.00091182   -0.02960602
     atom   11 type  1   force =    -0.00025629    0.00067410    0.04562434
     atom   12 type  1   force =    -0.00062069    0.00092277    0.04728749
     atom   13 type  1   force =    -0.00012128   -0.00650280   -0.03344155
     atom   14 type  1   force =    -0.00030821    0.00406504   -0.02750030
     atom   15 type  2   force =    -0.00008176   -0.00037240   -0.00002993
     atom   16 type  2   force =    -0.00016973   -0.00039747    0.00003189
     atom   17 type  2   force =    -0.00018172   -0.00000123   -0.00008996
     atom   18 type  1   force =    -0.01864222   -0.00141677    0.00431066
     atom   19 type  1   force =    -0.01733645    0.00092794    0.00347859
     atom   20 type  1   force =     0.01933926    0.00094067    0.00436791
     atom   21 type  1   force =     0.01780520    0.00241995    0.00370562
     atom   22 type  2   force =    -0.00022649   -0.00008094   -0.00014298
     atom   23 type  1   force =    -0.00013357    0.00000916    0.00013024
     atom   24 type  1   force =     0.00016108   -0.00001476    0.00018900
     atom   25 type  1   force =     0.00000635    0.00010855   -0.00010351
     atom   26 type  1   force =    -0.00012933   -0.00015012   -0.00008745
     atom   27 type  2   force =     0.00005265    0.00001743   -0.00013547
     atom   28 type  2   force =    -0.00022819    0.00008901   -0.00013945
     atom   29 type  2   force =     0.00000138    0.00002701   -0.00013753
     atom   30 type  1   force =    -0.00026491   -0.00017072   -0.00016610
     atom   31 type  1   force =     0.00035256   -0.00023117   -0.00020381
     atom   32 type  1   force =    -0.00004569   -0.00018527    0.00015920
     atom   33 type  1   force =    -0.00005818   -0.00005461   -0.00009680
     atom   34 type  2   force =    -0.00006546    0.00018610    0.00005249
     atom   35 type  1   force =     0.00008483   -0.00022039   -0.00017907
     atom   36 type  1   force =     0.00005453    0.00002916   -0.00000083
     atom   37 type  1   force =     0.00000957    0.00009816   -0.00001619
     atom   38 type  1   force =    -0.00010452    0.00022506   -0.00007986
     atom   39 type  2   force =    -0.00002027    0.00009722    0.00018388
     atom   40 type  2   force =     0.00001682   -0.00027753   -0.00001680
     atom   41 type  2   force =    -0.00006652    0.00023216   -0.00097093
     atom   42 type  1   force =     0.00031984    0.00002518    0.00018109
     atom   43 type  1   force =    -0.00023121    0.00018634   -0.00010549
     atom   44 type  1   force =    -0.00004099    0.00013828    0.00012556
     atom   45 type  1   force =    -0.00002241    0.00018561    0.00027172
     atom   46 type  2   force =     0.00023166   -0.00099491   -0.00086797
     atom   47 type  1   force =    -0.00007373    0.00012300   -0.00012723
     atom   48 type  1   force =     0.00399745   -0.00097534   -0.00770590
     atom   49 type  3   force =    -0.00844244   -0.00013092    0.01755416
     atom   50 type  4   force =     0.00148828   -0.00384274   -0.00329956
     atom   51 type  5   force =     0.00163352    0.00346197   -0.00428546
     atom   52 type  5   force =     0.00155833    0.00105364   -0.00010602

     Total force =     0.376707     Total SCF correction =     0.000544
  @ DRIVER MODE: Message from server: STATUS
  @ DRIVER MODE: Message from server: GETFORCE
  @ DRIVER MODE: Returning v,forces,stress,ensemble

     Writing output data file ./calc.save/
  @ DRIVER MODE: Message from server: EXIT
  @ DRIVE MODE: Exiting

     General routines

     Parallel routines

   This run was terminated on:  17:31:23  14Sep2021

   JOB DONE.