     Program PWSCF v.6.7GPU starts on  2Aug2021 at 19:33: 3

     R & G space division:  proc/nbgrp/npool/nimage =      16
     Reading input from /storage/home/hcoda1/3/ntian30/research/carbon/02Aug_vib_paired/ads_slab/CH3NNHHH_a/out_0027/pw.inp
Warning: card &CELL ignored
Warning: card   CELL_DYNAMICS='IPI', ignored
Warning: card / ignored

     Current dimensions of program PWSCF are:
     Max number of different atomic species (ntypx) = 10
     Max number of k-points (npk) =  40000
     Max angular momentum in pseudopotentials (lmaxx) =  3
     Presently no symmetry can be used with electric field

     Message from routine cell_base_init:
     DEPRECATED: use true lattice parameter, not A to a.u. conversion factor

     IMPORTANT: XC functional enforced from input :
     Exchange-correlation= BEEF-VDW
                           (   1   4  43  14   2   0   0)
     Any further DFT definition will be discarded
     Please, verify this is what you really want

  @ DRIVER MODE: Connecting to
 qe_1139763_2482545.sched-torque.pace.gatech.eduktur6jfg_scratch
  using UNIX socket
  @ DRIVER MODE: Message from server: STATUS
  @ DRIVER MODE: Message from server: INIT
  @ DRIVER MODE: Receiving replica           0          -1
  @ DRIVER MODE: Receiving encoded integer          25
  @ DRIVER MODE:  SCF:  T  FORCE:  T  STRESS:  F  VC:  F  ENSEMBLE:  F
  @ DRIVER MODE:  SCF:  T  FORCE:  T  STRESS:  F  VC:  F  ENSEMBLE:  F

     Using Slab Decomposition

     bravais-lattice index     =            0
     lattice parameter (alat)  =       1.8897  a.u.
     unit-cell volume          =    6658.9804 (a.u.)^3
     number of atoms/cell      =           56
     number of atomic types    =            5
     number of electrons       =       398.00
     number of Kohn-Sham states=          209
     kinetic-energy cutoff     =      29.3995  Ry
     charge density cutoff     =     293.9946  Ry
     scf convergence threshold =      7.3E-08
     mixing beta               =       0.0500
     number of iterations used =            8  plain     mixing
     Exchange-correlation= BEEF-VDW
                           (   1   4  43  14   2   0   0)

     celldm(1)=   1.889726  celldm(2)=   0.000000  celldm(3)=   0.000000
     celldm(4)=   0.000000  celldm(5)=   0.000000  celldm(6)=   0.000000

     crystal axes: (cart. coord. in units of alat)
               a(1) = (   6.579727   0.000000   0.000000 )
               a(2) = (  -0.000775   5.961596   0.000000 )
               a(3) = (   0.000000   0.000000  25.155947 )

     reciprocal axes: (cart. coord. in units 2 pi/alat)
               b(1) = (  0.151982  0.000020  0.000000 )
               b(2) = (  0.000000  0.167740  0.000000 )
               b(3) = (  0.000000  0.000000  0.039752 )

     PseudoPot. # 1 for Ti read from file:
     /storage/coda1/p-amedford6/0/shared/rich_project_chbe-medford/medford-share/data/pseudos_module/espresso/nninc/pbe/van/Ti.UPF
     MD5 check sum: 8e4df49b7f0d34bbd5052bf3f5ea0213
     Pseudo is Ultrasoft, Zval = 12.0
     Generated by new atomic code, or converted to UPF format
     Using radial grid of  851 points,  6 beta functions with:
                l(1) =   0
                l(2) =   0
                l(3) =   1
                l(4) =   1
                l(5) =   2
                l(6) =   2
     Q(r) pseudized with  8 coefficients,  rinner =    1.000   1.000   1.000
                                                       1.000   1.000

     PseudoPot. # 2 for O  read from file:
     /storage/coda1/p-amedford6/0/shared/rich_project_chbe-medford/medford-share/data/pseudos_module/espresso/nninc/pbe/van/O.UPF
     MD5 check sum: 78c19812648e8988a0fe644b0f25305e
     Pseudo is Ultrasoft, Zval =  6.0
     Generated by new atomic code, or converted to UPF format
     Using radial grid of  737 points,  4 beta functions with:
                l(1) =   0
                l(2) =   0
                l(3) =   1
                l(4) =   1
     Q(r) pseudized with  8 coefficients,  rinner =    0.800   0.800   0.800

     PseudoPot. # 3 for N  read from file:
     /storage/coda1/p-amedford6/0/shared/rich_project_chbe-medford/medford-share/data/pseudos_module/espresso/nninc/pbe/van/N.UPF
     MD5 check sum: 90d10febe142ad51ac9d5be1deb811c4
     Pseudo is Ultrasoft, Zval =  5.0
     Generated by new atomic code, or converted to UPF format
     Using radial grid of  729 points,  4 beta functions with:
                l(1) =   0
                l(2) =   0
                l(3) =   1
                l(4) =   1
     Q(r) pseudized with  8 coefficients,  rinner =    0.800   0.800   0.800

     PseudoPot. # 4 for C  read from file:
     /storage/coda1/p-amedford6/0/shared/rich_project_chbe-medford/medford-share/data/pseudos_module/espresso/nninc/pbe/van/C.UPF
     MD5 check sum: 1a69bf6b8db32088f5b2163dbdb77a27
     Pseudo is Ultrasoft, Zval =  4.0
     Generated by new atomic code, or converted to UPF format
     Using radial grid of  721 points,  4 beta functions with:
                l(1) =   0
                l(2) =   0
                l(3) =   1
                l(4) =   1
     Q(r) pseudized with  8 coefficients,  rinner =    0.800   0.800   0.800

     PseudoPot. # 5 for H  read from file:
     /storage/coda1/p-amedford6/0/shared/rich_project_chbe-medford/medford-share/data/pseudos_module/espresso/nninc/pbe/van/H.UPF
     MD5 check sum: b5ee9d7bfd3a09ee7748110bda690ff7
     Pseudo is Ultrasoft, Zval =  1.0
     Generated by new atomic code, or converted to UPF format
     Using radial grid of  615 points,  1 beta functions with:
                l(1) =   0
     Q(r) pseudized with  8 coefficients,  rinner =    0.800

     atomic species   valence    mass     pseudopotential
        Ti1           12.00    47.86700     Ti( 1.00)
        O1             6.00    15.99900     O ( 1.00)
        N1             5.00    14.00700     N ( 1.00)
        C1             4.00    12.01100     C ( 1.00)
        H1             1.00     1.00800     H ( 1.00)

     No symmetry found

   Cartesian axes

     site n.     atom                  positions (alat units)
         1           Ti1 tau(   1) = (   0.0004258   2.9801865   6.0000000  )
         2           Ti1 tau(   2) = (   3.2906075   1.4906267   6.0002472  )
         3           O1  tau(   3) = (   0.0006271   0.0005054   7.9858123  )
         4           O1  tau(   4) = (   3.2906025   0.0005020   7.3038282  )
         5           O1  tau(   5) = (   4.5942328   1.4918067   9.2879030  )
         6           O1  tau(   6) = (   1.9868534   1.4903216   9.2879459  )
         7           Ti1 tau(   7) = (   3.2907910   2.8959150   9.1758416  )
         8           Ti1 tau(   8) = (   0.0015273   1.4827037   9.2680791  )
         9           O1  tau(   9) = (   3.2969863   5.9453513  11.3493076  )
        10           O1  tau(  10) = (   0.0116148   5.9584955  10.6183126  )
        11           O1  tau(  11) = (   1.3059050   1.4736943  12.6642453  )
        12           O1  tau(  12) = (   5.3003793   1.4775083  12.6459419  )
        13           Ti1 tau(  13) = (   0.0167275   2.9625105  12.5508078  )
        14           Ti1 tau(  14) = (   3.3131340   1.4712512  12.4909780  )
        15           O1  tau(  15) = (   6.5517612   5.9325698  14.7566896  )
        16           O1  tau(  16) = (   3.3302114   5.9429442  13.9823395  )
        17           O1  tau(  17) = (   4.5243935   1.5056208  16.2316672  )
        18           O1  tau(  18) = (   2.0170937   1.4633510  16.1378485  )
        19           Ti1 tau(  19) = (   3.2500237   2.9242626  15.6920970  )
        20           Ti1 tau(  20) = (   6.5441017   1.2779805  16.1516014  )
        21           O1  tau(  21) = (   3.2904802   0.0005063   4.7018136  )
        22           O1  tau(  22) = (   6.5540411   5.9581837  17.3465722  )
        23           O1  tau(  23) = (   1.3043587   1.4918075   6.0039043  )
        24           O1  tau(  24) = (   5.2767064   1.4903225   6.0039473  )
        25           Ti1 tau(  25) = (   0.0000382   5.9609847   6.0000000  )
        26           Ti1 tau(  26) = (   3.2902200   4.4714249   6.0002472  )
        27           O1  tau(  27) = (   0.0002396   2.9813036   7.9858123  )
        28           O1  tau(  28) = (   3.2902150   2.9813002   7.3038282  )
        29           O1  tau(  29) = (   4.5938453   4.4726049   9.2879030  )
        30           O1  tau(  30) = (   1.9864658   4.4711199   9.2879459  )
        31           Ti1 tau(  31) = (   3.2891106   5.8743827   9.1763621  )
        32           Ti1 tau(  32) = (   0.0006254   4.4649316   9.2693709  )
        33           O1  tau(  33) = (   3.2962403   2.9651072  11.3429128  )
        34           O1  tau(  34) = (   0.0092240   2.9805883  10.6323155  )
        35           O1  tau(  35) = (   1.3076126   4.4641214  12.6643835  )
        36           O1  tau(  36) = (   5.2981430   4.4591552  12.6429889  )
        37           Ti1 tau(  37) = (   0.0194730   5.9489450  12.5196332  )
        38           Ti1 tau(  38) = (   3.3150505   4.4522436  12.4946186  )
        39           O1  tau(  39) = (   6.5702761   2.9869041  14.8038460  )
        40           O1  tau(  40) = (   3.3119818   2.9576719  13.9204832  )
        41           O1  tau(  41) = (   4.5223198   4.3950437  16.2490866  )
        42           O1  tau(  42) = (   2.0356696   4.4339808  16.1311045  )
        43           Ti1 tau(  43) = (   3.3057863   5.9493229  15.7677403  )
        44           Ti1 tau(  44) = (   0.0958844   4.4293496  15.8701971  )
        45           O1  tau(  45) = (   3.2900926   2.9813045   4.7018136  )
        46           O1  tau(  46) = (   1.3039711   4.4726057   6.0039043  )
        47           O1  tau(  47) = (   5.2763189   4.4711207   6.0039473  )
        48           N1  tau(  48) = (   0.0620580   3.0375546  17.6897758  )
        49           C1  tau(  49) = (   1.1116374   2.9693208  18.6984743  )
        50           H1  tau(  50) = (   1.2951007   3.9532040  19.1583453  )
        51           H1  tau(  51) = (   0.8627774   2.2426413  19.4871689  )
        52           H1  tau(  52) = (   2.0263963   2.6128967  18.2308865  )
        53           N1  tau(  53) = (   5.4279256   3.3744730  18.4033390  )
        54           H1  tau(  54) = (   5.6103604   4.1199394  19.0852601  )
        55           H1  tau(  55) = (   4.7934260   3.8076565  17.6395878  )
        56           H1  tau(  56) = (   5.0090149   2.5598412  18.8678436  )

     number of k points=    10  Fermi-Dirac smearing, width (Ry)=  0.0073
                       cart. coord. in units 2pi/alat
        k(    1) = (   0.0000000   0.0000000   0.0000000), wk =   0.1250000
        k(    2) = (   0.0000000   0.0419351   0.0000000), wk =   0.2500000
        k(    3) = (   0.0000000  -0.0838702   0.0000000), wk =   0.1250000
        k(    4) = (   0.0379955   0.0000049   0.0000000), wk =   0.2500000
        k(    5) = (   0.0379955   0.0419400   0.0000000), wk =   0.2500000
        k(    6) = (   0.0379955  -0.0838652   0.0000000), wk =   0.2500000
        k(    7) = (   0.0379955  -0.0419301   0.0000000), wk =   0.2500000
        k(    8) = (  -0.0759910  -0.0000099   0.0000000), wk =   0.1250000
        k(    9) = (  -0.0759910   0.0419252   0.0000000), wk =   0.2500000
        k(   10) = (  -0.0759910  -0.0838800   0.0000000), wk =   0.1250000

     Initial potential from superposition of free atoms

     starting charge  381.99914, renormalised to  398.00000

     negative rho (up, down):  1.617E-02 0.000E+00

     %%%%%%%%%%%%%%%%%%%%%%%%%%%%%%%%%%%%%%%%%%%%%%%%%%%%%%%%%%%%%%%%%%%%%%%%
     %                                                                      %
     % You are using vdW-DF, which was implemented by the Thonhauser group. %
     % Please cite the following two papers that made this development      %
     % possible and the two reviews that describe the various versions:     %
     %                                                                      %
     %   T. Thonhauser et al., PRL 115, 136402 (2015).                      %
     %   T. Thonhauser et al., PRB 76, 125112 (2007).                       %
     %   K. Berland et al., Rep. Prog. Phys. 78, 066501 (2015).             %
     %   D.C. Langreth et al., J. Phys.: Condens. Matter 21, 084203 (2009). %
     %                                                                      %
     %                                                                      %
     % If you are calculating the stress with vdW-DF, please also cite:     %
     %                                                                      %
     %   R. Sabatini et al., J. Phys.: Condens. Matter 24, 424209 (2012).   %
     %                                                                      %
     %%%%%%%%%%%%%%%%%%%%%%%%%%%%%%%%%%%%%%%%%%%%%%%%%%%%%%%%%%%%%%%%%%%%%%%%

     Adding external electric field

     Computed dipole along edir(3) :
        Dipole              -10.5729 Ry au,        -26.8736 Debye
        Dipole field         -0.0200 Ry au,

        Potential amp.        1.8496 Ry
        Total length         46.3494 bohr

     Starting wfcs are  302 atomic wfcs
  @ DRIVER MODE: Message from server: STATUS
  @ DRIVER MODE: Message from server: POSDATA
  @ DRIVER MODE: Reading and sharing cell
  @ DRIVER MODE: Reading and sharing positions
  @ DRIVER MODE: Received positions

     Self-consistent Calculation

     iteration #  1     ecut=    29.40 Ry     beta= 0.05
     Davidson diagonalization with overlap
     c_bands:  3 eigenvalues not converged
     c_bands:  3 eigenvalues not converged
     c_bands:  1 eigenvalues not converged
     c_bands:  5 eigenvalues not converged
     c_bands:  5 eigenvalues not converged
     c_bands:  5 eigenvalues not converged
     c_bands:  1 eigenvalues not converged
     c_bands:  4 eigenvalues not converged
     c_bands:  3 eigenvalues not converged
     ethr =  1.00E-05,  avg # of iterations = 20.0

[...]

     total energy              =   -2442.75210797 Ry
     estimated scf accuracy    <    5591.59048275 Ry

     iteration #  2     ecut=    29.40 Ry     beta= 0.05
     Davidson diagonalization with overlap
     ethr =  1.00E-02,  avg # of iterations = 22.8

[...]

     iteration # 70     ecut=    29.40 Ry     beta= 0.05
     Davidson diagonalization with overlap
     c_bands:  1 eigenvalues not converged
     c_bands:  1 eigenvalues not converged
     ethr =  2.40E-11,  avg # of iterations = 13.6

[...]

     total energy              =   -2942.82508455 Ry
     estimated scf accuracy    <       0.00000008 Ry

     iteration # 71     ecut=    29.40 Ry     beta= 0.05
     Davidson diagonalization with overlap
     ethr =  1.92E-11,  avg # of iterations =  1.9

     negative rho (up, down):  1.412E-02 0.000E+00

     Adding external electric field

     Computed dipole along edir(3) :
        Dipole                1.6026 Ry au,          4.0734 Debye
        Dipole field          0.0030 Ry au,

        Potential amp.       -0.2804 Ry
        Total length         46.3494 bohr

     End of self-consistent calculation

          k = 0.0000 0.0000 0.0000 ( 18029 PWs)   bands (ev):

   -55.1443 -55.1077 -55.1057 -55.0716 -55.0268 -55.0116 -54.9887 -54.9458
   -54.9333 -54.9250 -54.9107 -54.9004 -54.8646 -54.7936 -54.1178 -54.0837
   -31.7242 -31.5954 -31.5131 -31.4812 -31.4366 -31.4357 -31.4334 -31.4031
   -31.3991 -31.3956 -31.3688 -31.3541 -31.3506 -31.3219 -31.3041 -31.2790
   -31.2624 -31.2585 -31.2482 -31.2431 -31.2169 -31.2109 -31.2040 -31.1773
   -31.1627 -31.1561 -31.1489 -31.1413 -31.1413 -31.1301 -31.1279 -31.1216
   -31.1048 -31.0960 -31.0900 -31.0638 -31.0611 -31.0490 -31.0421 -31.0361
   -31.0253 -30.9830 -30.5263 -30.4343 -30.4121 -30.3429 -30.2562 -30.1451
   -18.9351 -16.0080 -15.7529 -15.6180 -15.3834 -15.3315 -15.2750 -15.0675
   -15.0660 -14.9935 -14.9789 -14.9307 -14.9113 -14.8440 -14.7595 -14.7386
   -14.6708 -14.6693 -14.6393 -14.6281 -14.6273 -14.5647 -14.5547 -14.5254
   -14.5124 -14.4870 -14.3690 -14.2846 -14.2261 -13.9736 -13.5932 -12.6204
   -12.5033  -9.7395  -7.7180  -7.2096  -5.4561  -3.8167  -3.3455  -3.2664
    -3.1691  -3.1418  -3.0646  -3.0355  -2.8506  -2.8288  -2.4881  -2.4497
    -2.4017  -2.3838  -2.3616  -2.3450  -2.1763  -2.1510  -2.0783  -2.0443
    -2.0260  -1.9857  -1.9697  -1.9595  -1.9258  -1.9201  -1.9112  -1.7039
    -1.6473  -1.5522  -1.5300  -1.5035  -1.4708  -1.4345  -1.4263  -1.4233
    -1.4174  -1.4038  -1.3909  -1.3108  -1.2504  -1.1716  -1.1618  -1.1264
    -1.0229  -0.9760  -0.7747  -0.7612  -0.7158  -0.6736  -0.6108  -0.5891
    -0.5230  -0.4923  -0.4720  -0.3510  -0.3223  -0.2823  -0.2542  -0.1874
    -0.1561  -0.1118  -0.0267   0.0444   0.0791   0.0975   0.1573   0.2874
     0.2985   0.3275   0.3887   0.4520   0.4931   0.5133   0.5318   0.5687
     0.6180   0.7435   0.7885   0.8080   0.8123   0.8463   0.8696   0.9207
     0.9455   1.0050   1.0106   1.1296   1.1988   1.4292   1.4627   1.4849
     1.8171   1.8407   1.9048   2.0908   2.4789   2.5261   3.9602   4.0208
     4.0777   4.0944   4.1133   4.2020   4.2202   4.4230   4.4503   4.4542
     4.4571

[...]

          k = 0.0380-0.0419 0.0000 ( 17876 PWs)   bands (ev):

[...]

          k =-0.0760-0.0000 0.0000 ( 17886 PWs)   bands (ev):

[...]

          k =-0.0760-0.0839 0.0000 ( 17948 PWs)   bands (ev):

   -55.1288 -55.1230 -55.0886 -55.0885 -55.0162 -55.0080 -54.9993 -54.9297
   -54.9283 -54.9256 -54.9180 -54.9165 -54.8608 -54.7973 -54.1008 -54.1006
   -31.5278 -31.5250 -31.4481 -31.4262 -31.4106 -31.4105 -31.3811 -31.3809
   -31.3553 -31.3496 -31.3467 -31.3461 -31.3113 -31.2772 -31.2707 -31.2663
   -31.2650 -31.2609 -31.2589 -31.2526 -31.2215 -31.2179 -31.2154 -31.2127
   -31.2080 -31.2079 -31.1941 -31.1921 -31.1645 -31.1597 -31.1443 -31.1402
   -31.1379 -31.1372 -31.1355 -31.1275 -31.1025 -31.0991 -31.0962 -31.0732
   -31.0479 -31.0306 -30.4248 -30.4247 -30.3390 -30.3388 -30.2996 -30.2995
   -18.9303 -15.5149 -15.4051 -15.2965 -15.2310 -15.1893 -15.1375 -15.1202
   -15.1100 -15.0640 -15.0347 -14.9657 -14.9017 -14.8488 -14.8478 -14.8128
   -14.7347 -14.7209 -14.7138 -14.7032 -14.6467 -14.6400 -14.6085 -14.5876
   -14.5845 -14.5547 -14.4809 -14.4785 -14.3908 -14.1818 -13.6289 -12.6049
   -12.6048  -9.7089  -7.7146  -7.1558  -5.4592  -3.8387  -3.4186  -2.7637
    -2.6528  -2.4420  -2.4160  -2.3562  -2.3356  -2.2494  -2.1893  -2.1683
    -2.1450  -2.1110  -2.1081  -2.0835  -2.0623  -2.0084  -1.9794  -1.9687
    -1.9626  -1.9477  -1.9352  -1.9147  -1.8584  -1.8483  -1.8410  -1.7987
    -1.7875  -1.7559  -1.7496  -1.7108  -1.6939  -1.6178  -1.5253  -1.5007
    -1.4412  -1.3400  -1.3267  -1.3210  -1.2275  -1.2192  -1.1899  -1.1590
    -1.1036  -1.0039  -0.9492  -0.8739  -0.8707  -0.8402  -0.7527  -0.6894
    -0.6559  -0.6458  -0.6061  -0.5490  -0.5262  -0.4933  -0.4102  -0.3689
    -0.3415  -0.3074  -0.2121  -0.1514  -0.1279  -0.0971  -0.0936  -0.0044
     0.0288   0.0656   0.0863   0.1245   0.1511   0.2175   0.2386   0.3486
     0.4187   0.4492   0.5679   0.5917   0.6558   0.7881   0.8593   0.9004
     0.9539   1.0109   1.0378   1.1681   1.1754   1.2017   1.2939   1.3342
     1.3411   1.3542   2.2635   2.2646   2.3462   2.3463   4.0923   4.1790
     4.2222   4.2597   4.3676   4.4767   4.4953   4.5381   4.5387   4.6156
     4.6382

     the Fermi energy is     4.0125 ev

!    total energy              =   -2942.82509920 Ry
     estimated scf accuracy    <       0.00000005 Ry
     smearing contrib. (-TS)   =      -0.03686810 Ry
     internal energy E=F+TS    =   -2942.78823111 Ry

     The total energy is F=E-TS. E is the sum of the following terms:
     one-electron contribution =  -23972.04716063 Ry
     hartree contribution      =   12081.50471294 Ry
     xc contribution           =    -487.76844144 Ry
     ewald contribution        =    9435.51781127 Ry
     electric field correction =       0.00484676 Ry

     convergence has been achieved in  71 iterations

     Forces acting on atoms (cartesian axes, Ry/au):

     atom    1 type  1   force =     0.00014901   -0.00023494    0.09427454
     atom    2 type  1   force =    -0.00009527   -0.00033518   -0.17740147
     atom    3 type  2   force =     0.00005750   -0.00016442   -0.02135472
     atom    4 type  2   force =    -0.00001635   -0.00172347    0.05656809
     atom    5 type  2   force =    -0.01055118   -0.00127452    0.00624318
     atom    6 type  2   force =     0.01221671   -0.00074133    0.00571357
     atom    7 type  1   force =    -0.00034207    0.00172705   -0.01622019
     atom    8 type  1   force =    -0.00010809    0.00438811    0.00559394
     atom    9 type  2   force =     0.00000681   -0.00003788   -0.00004159
     atom   10 type  2   force =    -0.00074438   -0.00021524   -0.00045965
     atom   11 type  2   force =     0.00035706    0.00011828   -0.00020528
     atom   12 type  2   force =    -0.00053549   -0.00000219   -0.00014129
     atom   13 type  1   force =     0.00002809   -0.00033262    0.00020363
     atom   14 type  1   force =     0.00057019    0.00010699   -0.00029026
     atom   15 type  2   force =    -0.00039798    0.00025756   -0.00024782
     atom   16 type  2   force =    -0.00033614    0.00020416   -0.00007049
     atom   17 type  2   force =    -0.00028129    0.00005600    0.00031160
     atom   18 type  2   force =     0.00020224    0.00026950   -0.00020286
     atom   19 type  1   force =     0.00016178    0.00018034    0.00023576
     atom   20 type  1   force =     0.00004011    0.00045299   -0.00016378
     atom   21 type  2   force =     0.00003556    0.00004032    0.10361812
     atom   22 type  2   force =    -0.00001931   -0.00070774   -0.00057798
     atom   23 type  2   force =    -0.07081513   -0.00010208   -0.02719334
     atom   24 type  2   force =     0.07067854    0.00033274   -0.02722472
     atom   25 type  1   force =    -0.00009060   -0.00020817    0.09374061
     atom   26 type  1   force =    -0.00013581   -0.00031621   -0.17730915
     atom   27 type  2   force =     0.00008921   -0.00035600   -0.02046273
     atom   28 type  2   force =     0.00003263   -0.00144088    0.05587846
     atom   29 type  2   force =    -0.01091550   -0.00073419    0.00609208
     atom   30 type  2   force =     0.01246553   -0.00029437    0.00557092
     atom   31 type  1   force =    -0.00015889    0.00465228   -0.01719492
     atom   32 type  1   force =    -0.00003093   -0.00482674    0.00559318
     atom   33 type  2   force =     0.00005992    0.00012017    0.00027408
     atom   34 type  2   force =     0.00005821   -0.00085519   -0.00298030
     atom   35 type  2   force =     0.00024185    0.00003575    0.00006414
     atom   36 type  2   force =    -0.00043896    0.00015900   -0.00007859
     atom   37 type  1   force =    -0.00013095   -0.00011761   -0.00007746
     atom   38 type  1   force =     0.00044221   -0.00027742    0.00040815
     atom   39 type  2   force =    -0.00044674    0.00010664    0.00064368
     atom   40 type  2   force =    -0.00012224    0.00018518   -0.00022022
     atom   41 type  2   force =    -0.00001206    0.00035468   -0.00000820
     atom   42 type  2   force =    -0.00000251    0.00025652   -0.00018422
     atom   43 type  1   force =    -0.00039203    0.00047707    0.00009014
     atom   44 type  1   force =    -0.00018929    0.00027973   -0.00000782
     atom   45 type  2   force =     0.00002582    0.00000655    0.10362792
     atom   46 type  2   force =    -0.07081595   -0.00003598   -0.02718916
     atom   47 type  2   force =     0.07068158    0.00037654   -0.02719441
     atom   48 type  3   force =     0.00028493   -0.00083266    0.00002834
     atom   49 type  4   force =     0.00250847   -0.00253857   -0.00188822
     atom   50 type  5   force =     0.00090813   -0.00032138   -0.00041791
     atom   51 type  5   force =    -0.00094196   -0.00002275    0.00036895
     atom   52 type  5   force =    -0.00324657    0.00272102    0.00166846
     atom   53 type  3   force =     0.00022493    0.00090441    0.00103213
     atom   54 type  5   force =     0.00010170    0.00006410   -0.00014726
     atom   55 type  5   force =    -0.00002109    0.00006351   -0.00055462
     atom   56 type  5   force =    -0.00029397    0.00015252   -0.00013304

     Total force =     0.365607     Total SCF correction =     0.000437
  @ DRIVER MODE: Message from server: STATUS
  @ DRIVER MODE: Message from server: GETFORCE
  @ DRIVER MODE: Returning v,forces,stress,ensemble

     Writing output data file ./calc.save/
  @ DRIVER MODE: Message from server: EXIT
  @ DRIVE MODE: Exiting

     General routines

     Parallel routines

   This run was terminated on:  19:48:50   2Aug2021

   JOB DONE.