     Program PWSCF v.6.7GPU starts on 24Sep2021 at 16:18:26

     R & G space division:  proc/nbgrp/npool/nimage =       8
     Reading input from /storage/home/hcoda1/3/ntian30/research/carbon/CxH_vib/H2O_calc/ads_slab/CH3NHNH2HO_a/out_0057/pw.inp
Warning: card &CELL ignored
Warning: card   CELL_DYNAMICS='IPI', ignored
Warning: card / ignored

     Current dimensions of program PWSCF are:
     Max number of different atomic species (ntypx) = 10
     Max number of k-points (npk) =  40000
     Max angular momentum in pseudopotentials (lmaxx) =  3
     Presently no symmetry can be used with electric field

     Message from routine cell_base_init:
     DEPRECATED: use true lattice parameter, not A to a.u. conversion factor

     IMPORTANT: XC functional enforced from input :
     Exchange-correlation= BEEF-VDW
                           (   1   4  43  14   2   0   0)
     Any further DFT definition will be discarded
     Please, verify this is what you really want

  @ DRIVER MODE: Connecting to
 qe_1139763_2947307.sched-torque.pace.gatech.edu3haxxvwu_scratch
  using UNIX socket
  @ DRIVER MODE: Message from server: STATUS
  @ DRIVER MODE: Message from server: INIT
  @ DRIVER MODE: Receiving replica           0          -1
  @ DRIVER MODE: Receiving encoded integer          25
  @ DRIVER MODE:  SCF:  T  FORCE:  T  STRESS:  F  VC:  F  ENSEMBLE:  F
  @ DRIVER MODE:  SCF:  T  FORCE:  T  STRESS:  F  VC:  F  ENSEMBLE:  F

     Using Slab Decomposition

     bravais-lattice index     =            0
     lattice parameter (alat)  =       1.8897  a.u.
     unit-cell volume          =    6658.9804 (a.u.)^3
     number of atoms/cell      =           58
     number of atomic types    =            5
     number of electrons       =       405.00
     number of Kohn-Sham states=          212
     kinetic-energy cutoff     =      29.3995  Ry
     charge density cutoff     =     293.9946  Ry
     scf convergence threshold =      7.3E-08
     mixing beta               =       0.0500
     number of iterations used =            8  plain     mixing
     Exchange-correlation= BEEF-VDW
                           (   1   4  43  14   2   0   0)

     celldm(1)=   1.889726  celldm(2)=   0.000000  celldm(3)=   0.000000
     celldm(4)=   0.000000  celldm(5)=   0.000000  celldm(6)=   0.000000

     crystal axes: (cart. coord. in units of alat)
               a(1) = (   6.579727   0.000000   0.000000 )
               a(2) = (  -0.000775   5.961596   0.000000 )
               a(3) = (   0.000000   0.000000  25.155947 )

     reciprocal axes: (cart. coord. in units 2 pi/alat)
               b(1) = (  0.151982  0.000020  0.000000 )
               b(2) = (  0.000000  0.167740  0.000000 )
               b(3) = (  0.000000  0.000000  0.039752 )

     PseudoPot. # 1 for Ti read from file:
     /storage/coda1/p-amedford6/0/shared/rich_project_chbe-medford/medford-share/data/pseudos_module/espresso/nninc/pbe/van/Ti.UPF
     MD5 check sum: 8e4df49b7f0d34bbd5052bf3f5ea0213
     Pseudo is Ultrasoft, Zval = 12.0
     Generated by new atomic code, or converted to UPF format
     Using radial grid of  851 points,  6 beta functions with:
                l(1) =   0
                l(2) =   0
                l(3) =   1
                l(4) =   1
                l(5) =   2
                l(6) =   2
     Q(r) pseudized with  8 coefficients,  rinner =    1.000   1.000   1.000
                                                       1.000   1.000

     PseudoPot. # 2 for O  read from file:
     /storage/coda1/p-amedford6/0/shared/rich_project_chbe-medford/medford-share/data/pseudos_module/espresso/nninc/pbe/van/O.UPF
     MD5 check sum: 78c19812648e8988a0fe644b0f25305e
     Pseudo is Ultrasoft, Zval =  6.0
     Generated by new atomic code, or converted to UPF format
     Using radial grid of  737 points,  4 beta functions with:
                l(1) =   0
                l(2) =   0
                l(3) =   1
                l(4) =   1
     Q(r) pseudized with  8 coefficients,  rinner =    0.800   0.800   0.800

     PseudoPot. # 3 for N  read from file:
     /storage/coda1/p-amedford6/0/shared/rich_project_chbe-medford/medford-share/data/pseudos_module/espresso/nninc/pbe/van/N.UPF
     MD5 check sum: 90d10febe142ad51ac9d5be1deb811c4
     Pseudo is Ultrasoft, Zval =  5.0
     Generated by new atomic code, or converted to UPF format
     Using radial grid of  729 points,  4 beta functions with:
                l(1) =   0
                l(2) =   0
                l(3) =   1
                l(4) =   1
     Q(r) pseudized with  8 coefficients,  rinner =    0.800   0.800   0.800

     PseudoPot. # 4 for C  read from file:
     /storage/coda1/p-amedford6/0/shared/rich_project_chbe-medford/medford-share/data/pseudos_module/espresso/nninc/pbe/van/C.UPF
     MD5 check sum: 1a69bf6b8db32088f5b2163dbdb77a27
     Pseudo is Ultrasoft, Zval =  4.0
     Generated by new atomic code, or converted to UPF format
     Using radial grid of  721 points,  4 beta functions with:
                l(1) =   0
                l(2) =   0
                l(3) =   1
                l(4) =   1
     Q(r) pseudized with  8 coefficients,  rinner =    0.800   0.800   0.800

     PseudoPot. # 5 for H  read from file:
     /storage/coda1/p-amedford6/0/shared/rich_project_chbe-medford/medford-share/data/pseudos_module/espresso/nninc/pbe/van/H.UPF
     MD5 check sum: b5ee9d7bfd3a09ee7748110bda690ff7
     Pseudo is Ultrasoft, Zval =  1.0
     Generated by new atomic code, or converted to UPF format
     Using radial grid of  615 points,  1 beta functions with:
                l(1) =   0
     Q(r) pseudized with  8 coefficients,  rinner =    0.800

     atomic species   valence    mass     pseudopotential
        Ti1           12.00    47.86700     Ti( 1.00)
        O1             6.00    15.99900     O ( 1.00)
        N1             5.00    14.00700     N ( 1.00)
        C1             4.00    12.01100     C ( 1.00)
        H1             1.00     1.00800     H ( 1.00)

     No symmetry found

   Cartesian axes

     site n.     atom                  positions (alat units)
         1           Ti1 tau(   1) = (   0.0004258   2.9801865   6.0000000  )
         2           Ti1 tau(   2) = (   3.2906075   1.4906267   6.0002472  )
         3           O1  tau(   3) = (   0.0006271   0.0005054   7.9858123  )
         4           O1  tau(   4) = (   3.2906025   0.0005020   7.3038282  )
         5           O1  tau(   5) = (   4.5942328   1.4918067   9.2879030  )
         6           O1  tau(   6) = (   1.9868534   1.4903216   9.2879459  )
         7           Ti1 tau(   7) = (   3.2907910   2.8959150   9.1758416  )
         8           Ti1 tau(   8) = (   0.0015273   1.4827037   9.2680791  )
         9           O1  tau(   9) = (   3.3003128   0.0493987  11.3625472  )
        10           O1  tau(  10) = (   0.0116148   5.9584955  10.6183126  )
        11           O1  tau(  11) = (   1.2863924   1.5188706  12.6959087  )
        12           O1  tau(  12) = (   5.3173592   1.5183023  12.6957539  )
        13           Ti1 tau(  13) = (   0.0130489   2.9571150  12.5182267  )
        14           Ti1 tau(  14) = (   3.3124343   1.5987737  12.4587140  )
        15           O1  tau(  15) = (   0.0455642   5.8537743  14.6515032  )
        16           O1  tau(  16) = (   3.3135256   5.8999501  14.0036581  )
        17           O1  tau(  17) = (   4.5824137   1.5787328  16.0473457  )
        18           O1  tau(  18) = (   2.0456054   1.5356268  16.0652349  )
        19           Ti1 tau(  19) = (   3.2855744   2.9948502  15.7047272  )
        20           Ti1 tau(  20) = (   0.0729980   1.3194477  15.7501807  )
        21           O1  tau(  21) = (   3.2904802   0.0005063   4.7018136  )
        22           O1  tau(  22) = (   6.5643345   0.1786488  17.1561759  )
        23           O1  tau(  23) = (   1.3043587   1.4918075   6.0039043  )
        24           O1  tau(  24) = (   5.2767064   1.4903225   6.0039473  )
        25           Ti1 tau(  25) = (   0.0000382   5.9609847   6.0000000  )
        26           Ti1 tau(  26) = (   3.2902200   4.4714249   6.0002472  )
        27           O1  tau(  27) = (   0.0002396   2.9813036   7.9858123  )
        28           O1  tau(  28) = (   3.2902150   2.9813002   7.3038282  )
        29           O1  tau(  29) = (   4.5938453   4.4726049   9.2879030  )
        30           O1  tau(  30) = (   1.9864658   4.4711199   9.2879459  )
        31           Ti1 tau(  31) = (   3.2891106   5.8743827   9.1763621  )
        32           Ti1 tau(  32) = (   0.0006254   4.4649316   9.2693709  )
        33           O1  tau(  33) = (   3.3044115   2.9646987  11.3227374  )
        34           O1  tau(  34) = (   0.0092240   2.9805883  10.6323155  )
        35           O1  tau(  35) = (   1.2889249   4.4812606  12.6373974  )
        36           O1  tau(  36) = (   5.3198440   4.4849614  12.6453916  )
        37           Ti1 tau(  37) = (   0.0274371   5.9167426  12.5032498  )
        38           Ti1 tau(  38) = (   3.3124303   4.6827448  12.7121475  )
        39           O1  tau(  39) = (   0.0064664   3.0605765  14.9143048  )
        40           O1  tau(  40) = (   3.2921723   3.0190953  13.9337278  )
        41           O1  tau(  41) = (   4.5343043   4.4484976  16.2223827  )
        42           O1  tau(  42) = (   2.0055671   4.4324605  16.2273083  )
        43           Ti1 tau(  43) = (   3.3963104   0.0511244  16.3072024  )
        44           Ti1 tau(  44) = (   0.1011521   4.5293608  16.0606835  )
        45           O1  tau(  45) = (   3.2900926   2.9813045   4.7018136  )
        46           O1  tau(  46) = (   1.3039711   4.4726057   6.0039043  )
        47           O1  tau(  47) = (   5.2763189   4.4711207   6.0039473  )
        48           N1  tau(  48) = (   0.7799224   3.1460235  19.0808133  )
        49           N1  tau(  49) = (   6.3029119   3.3142126  18.0946246  )
        50           C1  tau(  50) = (   0.9829876   4.3811599  19.8296872  )
        51           H1  tau(  51) = (   0.0599524   4.7630682  20.2995108  )
        52           H1  tau(  52) = (   1.7087173   4.1728717  20.6153690  )
        53           H1  tau(  53) = (   1.3778604   5.1510331  19.1745456  )
        54           H1  tau(  54) = (   0.4845774   2.4057476  19.7140978  )
        55           H1  tau(  55) = (   5.5451363   3.8924421  18.4761980  )
        56           H1  tau(  56) = (   5.8791802   2.3931312  17.9634808  )
        57           O1  tau(  57) = (   3.3895457   0.1816509  18.1699706  )
        58           H1  tau(  58) = (   3.8128180   5.4341384  18.6581559  )

     number of k points=    10  Fermi-Dirac smearing, width (Ry)=  0.0073
                       cart. coord. in units 2pi/alat
        k(    1) = (   0.0000000   0.0000000   0.0000000), wk =   0.1250000
        k(    2) = (   0.0000000   0.0419351   0.0000000), wk =   0.2500000
        k(    3) = (   0.0000000  -0.0838702   0.0000000), wk =   0.1250000
        k(    4) = (   0.0379955   0.0000049   0.0000000), wk =   0.2500000
        k(    5) = (   0.0379955   0.0419400   0.0000000), wk =   0.2500000
        k(    6) = (   0.0379955  -0.0838652   0.0000000), wk =   0.2500000
        k(    7) = (   0.0379955  -0.0419301   0.0000000), wk =   0.2500000
        k(    8) = (  -0.0759910  -0.0000099   0.0000000), wk =   0.1250000
        k(    9) = (  -0.0759910   0.0419252   0.0000000), wk =   0.2500000
        k(   10) = (  -0.0759910  -0.0838800   0.0000000), wk =   0.1250000

     Initial potential from superposition of free atoms

     starting charge  388.99913, renormalised to  405.00000

     negative rho (up, down):  1.368E-02 0.000E+00

     %%%%%%%%%%%%%%%%%%%%%%%%%%%%%%%%%%%%%%%%%%%%%%%%%%%%%%%%%%%%%%%%%%%%%%%%
     %                                                                      %
     % You are using vdW-DF, which was implemented by the Thonhauser group. %
     % Please cite the following two papers that made this development      %
     % possible and the two reviews that describe the various versions:     %
     %                                                                      %
     %   T. Thonhauser et al., PRL 115, 136402 (2015).                      %
     %   T. Thonhauser et al., PRB 76, 125112 (2007).                       %
     %   K. Berland et al., Rep. Prog. Phys. 78, 066501 (2015).             %
     %   D.C. Langreth et al., J. Phys.: Condens. Matter 21, 084203 (2009). %
     %                                                                      %
     %                                                                      %
     % If you are calculating the stress with vdW-DF, please also cite:     %
     %                                                                      %
     %   R. Sabatini et al., J. Phys.: Condens. Matter 24, 424209 (2012).   %
     %                                                                      %
     %%%%%%%%%%%%%%%%%%%%%%%%%%%%%%%%%%%%%%%%%%%%%%%%%%%%%%%%%%%%%%%%%%%%%%%%

     Adding external electric field

     Computed dipole along edir(3) :
        Dipole              -14.8124 Ry au,        -37.6493 Debye
        Dipole field         -0.0280 Ry au,

        Potential amp.        2.5912 Ry
        Total length         46.3494 bohr

     Starting wfcs are  307 atomic wfcs
  @ DRIVER MODE: Message from server: STATUS
  @ DRIVER MODE: Message from server: POSDATA
  @ DRIVER MODE: Reading and sharing cell
  @ DRIVER MODE: Reading and sharing positions
  @ DRIVER MODE: Received positions

     Self-consistent Calculation

     iteration #  1     ecut=    29.40 Ry     beta= 0.05
     Davidson diagonalization with overlap
     c_bands:  4 eigenvalues not converged
     c_bands:  4 eigenvalues not converged
     c_bands:  2 eigenvalues not converged
     c_bands:  3 eigenvalues not converged
     c_bands:  4 eigenvalues not converged
     c_bands:  2 eigenvalues not converged
     ethr =  1.00E-05,  avg # of iterations = 23.8

[...]

     total energy              =   -2202.94981705 Ry
     estimated scf accuracy    <    8803.95792340 Ry

     iteration #  2     ecut=    29.40 Ry     beta= 0.05
     Davidson diagonalization with overlap
     ethr =  1.00E-02,  avg # of iterations = 30.6

[...]

     iteration # 68     ecut=    29.40 Ry     beta= 0.05
     Davidson diagonalization with overlap
     c_bands:  2 eigenvalues not converged
     ethr =  4.69E-08,  avg # of iterations = 12.6

[...]

     total energy              =   -2976.46396519 Ry
     estimated scf accuracy    <       0.00000007 Ry

     iteration # 83     ecut=    29.40 Ry     beta= 0.05
     Davidson diagonalization with overlap
     ethr =  1.83E-11,  avg # of iterations = 12.3

     negative rho (up, down):  1.441E-02 0.000E+00

     Adding external electric field

     Computed dipole along edir(3) :
        Dipole                1.2269 Ry au,          3.1185 Debye
        Dipole field          0.0023 Ry au,

        Potential amp.       -0.2146 Ry
        Total length         46.3494 bohr

     End of self-consistent calculation

          k = 0.0000 0.0000 0.0000 ( 18029 PWs)   bands (ev):

   -55.4454 -55.3561 -55.3220 -55.2178 -55.2147 -55.1868 -55.1848 -55.1773
   -55.1528 -55.1295 -55.0864 -54.9850 -54.9375 -54.8937 -54.3309 -54.2968
   -31.8413 -31.7909 -31.7218 -31.7041 -31.6896 -31.6765 -31.6555 -31.6470
   -31.6156 -31.6023 -31.5964 -31.5087 -31.4940 -31.4868 -31.4666 -31.4632
   -31.4595 -31.4504 -31.4498 -31.4201 -31.4136 -31.3921 -31.3849 -31.3751
   -31.3703 -31.3539 -31.3534 -31.3217 -31.3210 -31.3145 -31.3137 -31.3075
   -31.2994 -31.2811 -31.2577 -31.2388 -31.1741 -31.1533 -31.1410 -31.1330
   -31.1118 -31.1029 -30.7369 -30.6505 -30.6281 -30.5544 -30.4680 -30.3562
   -17.7429 -16.4136 -16.0110 -15.8473 -15.6323 -15.5393 -15.5123 -15.3133
   -15.2184 -15.1600 -14.9589 -14.9320 -14.8940 -14.8813 -14.8721 -14.8511
   -14.8478 -14.7959 -14.7805 -14.7706 -14.7671 -14.7369 -14.7098 -14.6706
   -14.6104 -14.5973 -14.4946 -14.4392 -14.3993 -14.1585 -14.1385 -13.1763
   -12.8296 -12.7133  -9.4399  -6.4460  -5.7412  -4.2709  -3.9631  -3.3685
    -3.2672  -3.2554  -3.1991  -3.1315  -2.9800  -2.8838  -2.7820  -2.7428
    -2.6102  -2.5970  -2.4918  -2.4440  -2.3700  -2.3239  -2.2826  -2.2481
    -2.2202  -2.1645  -2.1418  -2.1163  -2.1048  -2.0319  -2.0136  -1.9240
    -1.8910  -1.8778  -1.7598  -1.7253  -1.6907  -1.6773  -1.6682  -1.6621
    -1.6180  -1.6079  -1.5972  -1.5554  -1.4555  -1.4467  -1.4293  -1.3385
    -1.2416  -0.9924  -0.9597  -0.9099  -0.8987  -0.8198  -0.7810  -0.7494
    -0.7162  -0.6474  -0.6382  -0.6096  -0.5495  -0.4731  -0.4187  -0.3709
    -0.3378  -0.2250  -0.1754  -0.1312  -0.0981  -0.0618   0.0014   0.0407
     0.0651   0.1083   0.1958   0.2595   0.2860   0.3040   0.3531   0.3945
     0.4334   0.4734   0.5452   0.5684   0.5784   0.6178   0.6265   0.6471
     0.7425   0.7610   0.8210   0.8491   0.9358   0.9666   1.0105   1.1794
     1.2495   1.3085   1.3862   1.4774   1.6409   1.6953   1.7201   1.8893
     2.2626   2.3080   3.7276   3.8751   3.8914   3.9684   3.9857   4.0500
     4.2166   4.2752   4.4138   4.4238

[...]

          k = 0.0380-0.0419 0.0000 ( 17876 PWs)   bands (ev):

[...]

          k =-0.0760-0.0000 0.0000 ( 17886 PWs)   bands (ev):

[...]

          k =-0.0760-0.0839 0.0000 ( 17948 PWs)   bands (ev):

   -55.4446 -55.3391 -55.3389 -55.2165 -55.2031 -55.1889 -55.1855 -55.1711
   -55.1682 -55.1214 -55.0945 -54.9819 -54.9385 -54.8967 -54.3138 -54.3138
   -31.7297 -31.6705 -31.6566 -31.6565 -31.6564 -31.6422 -31.6326 -31.6323
   -31.5753 -31.5305 -31.5091 -31.4981 -31.4927 -31.4876 -31.4645 -31.4590
   -31.4585 -31.4558 -31.4488 -31.4367 -31.4301 -31.4271 -31.4156 -31.3897
   -31.3849 -31.3831 -31.3753 -31.3674 -31.3493 -31.3438 -31.3400 -31.3397
   -31.3377 -31.3166 -31.3151 -31.2511 -31.2342 -31.2070 -31.1783 -31.1556
   -31.1489 -31.1077 -30.6408 -30.6408 -30.5499 -30.5496 -30.5113 -30.5111
   -17.7388 -16.4050 -15.5915 -15.4463 -15.3376 -15.3273 -15.2034 -15.1368
   -15.1265 -15.0942 -15.0701 -15.0473 -15.0300 -15.0145 -14.9591 -14.9200
   -14.8887 -14.8613 -14.8567 -14.8137 -14.8041 -14.7927 -14.7746 -14.7630
   -14.7080 -14.6716 -14.6619 -14.6040 -14.4646 -14.4448 -14.2888 -13.1776
   -12.8152 -12.8150  -9.4589  -6.4305  -5.7470  -4.2571  -3.9522  -2.9657
    -2.8007  -2.6578  -2.6047  -2.5621  -2.4488  -2.4247  -2.3665  -2.3161
    -2.2920  -2.2705  -2.2188  -2.2083  -2.1624  -2.1463  -2.1222  -2.1073
    -2.0907  -2.0842  -2.0564  -2.0404  -2.0300  -2.0172  -1.9901  -1.9791
    -1.9610  -1.9322  -1.9119  -1.9029  -1.8705  -1.8273  -1.7671  -1.6552
    -1.5820  -1.5719  -1.5268  -1.5015  -1.4853  -1.4444  -1.4318  -1.3909
    -1.3735  -1.3067  -1.1508  -1.1246  -1.1108  -0.9673  -0.9601  -0.9315
    -0.8571  -0.8157  -0.7934  -0.7357  -0.7065  -0.6661  -0.5886  -0.5460
    -0.4921  -0.4249  -0.3249  -0.3170  -0.3014  -0.2809  -0.2646  -0.2575
    -0.2240  -0.1870  -0.1145  -0.0665  -0.0585  -0.0524  -0.0024   0.0782
     0.1302   0.2439   0.3892   0.3944   0.4596   0.4617   0.6604   0.6720
     0.7461   0.7807   0.8172   0.8443   0.9383   0.9562   0.9941   1.0760
     1.1399   1.1696   1.1905   1.1955   1.2485   1.4600   2.0577   2.0655
     2.1283   2.1284   3.9696   4.2014   4.2425   4.2553   4.2733   4.3000
     4.3136   4.3279   4.3945   4.4180

     the Fermi energy is     3.7649 ev

!    total energy              =   -2976.46398432 Ry
     estimated scf accuracy    <       0.00000003 Ry
     smearing contrib. (-TS)   =      -0.01955749 Ry
     internal energy E=F+TS    =   -2976.44442683 Ry

     The total energy is F=E-TS. E is the sum of the following terms:
     one-electron contribution =  -23037.40644366 Ry
     hartree contribution      =   11616.42349561 Ry
     xc contribution           =    -495.73286369 Ry
     ewald contribution        =    8940.26854414 Ry
     electric field correction =       0.00284076 Ry

     convergence has been achieved in  83 iterations

     Forces acting on atoms (cartesian axes, Ry/au):

     atom    1 type  1   force =     0.00016258   -0.00023093    0.09417007
     atom    2 type  1   force =    -0.00010103    0.00018335   -0.17537447
     atom    3 type  2   force =     0.00005533   -0.00049472   -0.02103110
     atom    4 type  2   force =    -0.00002409   -0.00093698    0.05426976
     atom    5 type  2   force =    -0.00488985   -0.00215816    0.00107721
     atom    6 type  2   force =     0.00671389   -0.00138375    0.00109306
     atom    7 type  1   force =     0.00006592    0.00330353    0.00865091
     atom    8 type  1   force =    -0.00010028    0.00120288    0.00271587
     atom    9 type  2   force =    -0.00021931   -0.00030661   -0.00058210
     atom   10 type  2   force =    -0.00111830    0.00429346   -0.01022471
     atom   11 type  2   force =    -0.00006645   -0.00055467   -0.00010849
     atom   12 type  2   force =     0.00061170   -0.00032124   -0.00026873
     atom   13 type  1   force =    -0.00143475    0.00019156   -0.00060744
     atom   14 type  1   force =     0.00070198    0.00018921   -0.00049631
     atom   15 type  2   force =     0.00013400    0.00003881    0.00004996
     atom   16 type  2   force =    -0.00008181   -0.00070562   -0.00019103
     atom   17 type  2   force =    -0.00051027    0.00052685    0.00041212
     atom   18 type  2   force =    -0.00071346    0.00021167   -0.00003498
     atom   19 type  1   force =     0.00039445   -0.00060240    0.00059726
     atom   20 type  1   force =    -0.00067073   -0.00007437    0.00047823
     atom   21 type  2   force =     0.00003891   -0.00000958    0.10319953
     atom   22 type  2   force =    -0.00011724    0.00007937    0.00047470
     atom   23 type  2   force =    -0.07198640   -0.00020279   -0.02725415
     atom   24 type  2   force =     0.07186659    0.00025389   -0.02732526
     atom   25 type  1   force =     0.00007611   -0.00016774    0.09388894
     atom   26 type  1   force =    -0.00012090   -0.00136130   -0.17551181
     atom   27 type  2   force =     0.00011198   -0.00005526   -0.01984258
     atom   28 type  2   force =     0.00006454   -0.00104976    0.04981865
     atom   29 type  2   force =    -0.00747081    0.00209981    0.00339860
     atom   30 type  2   force =     0.00907529    0.00224105    0.00331703
     atom   31 type  1   force =     0.00019481    0.00151530    0.00004538
     atom   32 type  1   force =    -0.00008378   -0.00227581    0.00302816
     atom   33 type  2   force =    -0.00017511   -0.00031454   -0.00002062
     atom   34 type  2   force =    -0.00116992   -0.00218614   -0.00961697
     atom   35 type  2   force =     0.00064855    0.00005731   -0.00023000
     atom   36 type  2   force =     0.00036732    0.00011924   -0.00036002
     atom   37 type  1   force =    -0.00096035    0.00025505    0.00031977
     atom   38 type  1   force =     0.00096984   -0.00026267    0.00014925
     atom   39 type  2   force =    -0.00017790   -0.00058431    0.00009607
     atom   40 type  2   force =    -0.00019459   -0.00020186   -0.00018271
     atom   41 type  2   force =     0.00040683   -0.00049320   -0.00043989
     atom   42 type  2   force =    -0.00085680   -0.00008456   -0.00038165
     atom   43 type  1   force =     0.00019199    0.00038854    0.00052903
     atom   44 type  1   force =    -0.00034254    0.00081729    0.00007856
     atom   45 type  2   force =     0.00002426    0.00003421    0.10301654
     atom   46 type  2   force =    -0.07193982   -0.00007740   -0.02720895
     atom   47 type  2   force =     0.07182976    0.00035344   -0.02729369
     atom   48 type  3   force =     0.00002271   -0.00098244   -0.00073454
     atom   49 type  3   force =    -0.00035492   -0.00022177   -0.00043026
     atom   50 type  4   force =     0.00002682   -0.00013138    0.00017586
     atom   51 type  5   force =    -0.00106881   -0.00020543    0.00050384
     atom   52 type  5   force =     0.00058964   -0.00007915    0.00038205
     atom   53 type  5   force =    -0.00019989    0.00060116   -0.00046667
     atom   54 type  5   force =     0.00063326   -0.00024549    0.00003316
     atom   55 type  5   force =     0.00053376   -0.00057875    0.00004545
     atom   56 type  5   force =     0.00066455   -0.00001488   -0.00007220
     atom   57 type  2   force =    -0.00576247    0.01067134   -0.00731906
     atom   58 type  5   force =     0.00573518   -0.01007266    0.00759543

     Total force =     0.362527     Total SCF correction =     0.000368
  @ DRIVER MODE: Message from server: STATUS
  @ DRIVER MODE: Message from server: GETFORCE
  @ DRIVER MODE: Returning v,forces,stress,ensemble

     Writing output data file ./calc.save/
  @ DRIVER MODE: Message from server: EXIT
  @ DRIVE MODE: Exiting

     General routines

     Parallel routines

   This run was terminated on:  16:55: 7  24Sep2021

   JOB DONE.