     Program PWSCF v.6.7GPU starts on  2Aug2021 at 17:38:37

     R & G space division:  proc/nbgrp/npool/nimage =      16
     Reading input from /storage/home/hcoda1/3/ntian30/research/carbon/02Aug_vib_paired/ads_slab/CH3NHHH_a/out_0017/pw.inp
Warning: card &CELL ignored
Warning: card   CELL_DYNAMICS='IPI', ignored
Warning: card / ignored

     Current dimensions of program PWSCF are:
     Max number of different atomic species (ntypx) = 10
     Max number of k-points (npk) =  40000
     Max angular momentum in pseudopotentials (lmaxx) =  3
     Presently no symmetry can be used with electric field

     Message from routine cell_base_init:
     DEPRECATED: use true lattice parameter, not A to a.u. conversion factor

     IMPORTANT: XC functional enforced from input :
     Exchange-correlation= BEEF-VDW
                           (   1   4  43  14   2   0   0)
     Any further DFT definition will be discarded
     Please, verify this is what you really want

  @ DRIVER MODE: Connecting to
 qe_1139763_2482537.sched-torque.pace.gatech.edursbfja1x_scratch
  using UNIX socket
  @ DRIVER MODE: Message from server: STATUS
  @ DRIVER MODE: Message from server: INIT
  @ DRIVER MODE: Receiving replica           0          -1
  @ DRIVER MODE: Receiving encoded integer          25
  @ DRIVER MODE:  SCF:  T  FORCE:  T  STRESS:  F  VC:  F  ENSEMBLE:  F
  @ DRIVER MODE:  SCF:  T  FORCE:  T  STRESS:  F  VC:  F  ENSEMBLE:  F

     Using Slab Decomposition

     bravais-lattice index     =            0
     lattice parameter (alat)  =       1.8897  a.u.
     unit-cell volume          =    6658.9804 (a.u.)^3
     number of atoms/cell      =           55
     number of atomic types    =            5
     number of electrons       =       393.00
     number of Kohn-Sham states=          206
     kinetic-energy cutoff     =      29.3995  Ry
     charge density cutoff     =     293.9946  Ry
     scf convergence threshold =      7.3E-08
     mixing beta               =       0.0500
     number of iterations used =            8  plain     mixing
     Exchange-correlation= BEEF-VDW
                           (   1   4  43  14   2   0   0)

     celldm(1)=   1.889726  celldm(2)=   0.000000  celldm(3)=   0.000000
     celldm(4)=   0.000000  celldm(5)=   0.000000  celldm(6)=   0.000000

     crystal axes: (cart. coord. in units of alat)
               a(1) = (   6.579727   0.000000   0.000000 )
               a(2) = (  -0.000775   5.961596   0.000000 )
               a(3) = (   0.000000   0.000000  25.155947 )

     reciprocal axes: (cart. coord. in units 2 pi/alat)
               b(1) = (  0.151982  0.000020  0.000000 )
               b(2) = (  0.000000  0.167740  0.000000 )
               b(3) = (  0.000000  0.000000  0.039752 )

     PseudoPot. # 1 for Ti read from file:
     /storage/coda1/p-amedford6/0/shared/rich_project_chbe-medford/medford-share/data/pseudos_module/espresso/nninc/pbe/van/Ti.UPF
     MD5 check sum: 8e4df49b7f0d34bbd5052bf3f5ea0213
     Pseudo is Ultrasoft, Zval = 12.0
     Generated by new atomic code, or converted to UPF format
     Using radial grid of  851 points,  6 beta functions with:
                l(1) =   0
                l(2) =   0
                l(3) =   1
                l(4) =   1
                l(5) =   2
                l(6) =   2
     Q(r) pseudized with  8 coefficients,  rinner =    1.000   1.000   1.000
                                                       1.000   1.000

     PseudoPot. # 2 for O  read from file:
     /storage/coda1/p-amedford6/0/shared/rich_project_chbe-medford/medford-share/data/pseudos_module/espresso/nninc/pbe/van/O.UPF
     MD5 check sum: 78c19812648e8988a0fe644b0f25305e
     Pseudo is Ultrasoft, Zval =  6.0
     Generated by new atomic code, or converted to UPF format
     Using radial grid of  737 points,  4 beta functions with:
                l(1) =   0
                l(2) =   0
                l(3) =   1
                l(4) =   1
     Q(r) pseudized with  8 coefficients,  rinner =    0.800   0.800   0.800

     PseudoPot. # 3 for N  read from file:
     /storage/coda1/p-amedford6/0/shared/rich_project_chbe-medford/medford-share/data/pseudos_module/espresso/nninc/pbe/van/N.UPF
     MD5 check sum: 90d10febe142ad51ac9d5be1deb811c4
     Pseudo is Ultrasoft, Zval =  5.0
     Generated by new atomic code, or converted to UPF format
     Using radial grid of  729 points,  4 beta functions with:
                l(1) =   0
                l(2) =   0
                l(3) =   1
                l(4) =   1
     Q(r) pseudized with  8 coefficients,  rinner =    0.800   0.800   0.800

     PseudoPot. # 4 for C  read from file:
     /storage/coda1/p-amedford6/0/shared/rich_project_chbe-medford/medford-share/data/pseudos_module/espresso/nninc/pbe/van/C.UPF
     MD5 check sum: 1a69bf6b8db32088f5b2163dbdb77a27
     Pseudo is Ultrasoft, Zval =  4.0
     Generated by new atomic code, or converted to UPF format
     Using radial grid of  721 points,  4 beta functions with:
                l(1) =   0
                l(2) =   0
                l(3) =   1
                l(4) =   1
     Q(r) pseudized with  8 coefficients,  rinner =    0.800   0.800   0.800

     PseudoPot. # 5 for H  read from file:
     /storage/coda1/p-amedford6/0/shared/rich_project_chbe-medford/medford-share/data/pseudos_module/espresso/nninc/pbe/van/H.UPF
     MD5 check sum: b5ee9d7bfd3a09ee7748110bda690ff7
     Pseudo is Ultrasoft, Zval =  1.0
     Generated by new atomic code, or converted to UPF format
     Using radial grid of  615 points,  1 beta functions with:
                l(1) =   0
     Q(r) pseudized with  8 coefficients,  rinner =    0.800

     atomic species   valence    mass     pseudopotential
        Ti1           12.00    47.86700     Ti( 1.00)
        O1             6.00    15.99900     O ( 1.00)
        N1             5.00    14.00700     N ( 1.00)
        C1             4.00    12.01100     C ( 1.00)
        H1             1.00     1.00800     H ( 1.00)

     No symmetry found

   Cartesian axes

     site n.     atom                  positions (alat units)
         1           Ti1 tau(   1) = (   0.0004258   2.9801865   6.0000000  )
         2           Ti1 tau(   2) = (   3.2906075   1.4906267   6.0002472  )
         3           O1  tau(   3) = (   0.0006271   0.0005054   7.9858123  )
         4           O1  tau(   4) = (   3.2906025   0.0005020   7.3038282  )
         5           O1  tau(   5) = (   4.5942328   1.4918067   9.2879030  )
         6           O1  tau(   6) = (   1.9868534   1.4903216   9.2879459  )
         7           Ti1 tau(   7) = (   3.2907910   2.8959150   9.1758416  )
         8           Ti1 tau(   8) = (   0.0015273   1.4827037   9.2680791  )
         9           O1  tau(   9) = (   3.2636084   5.9406443  11.4082010  )
        10           O1  tau(  10) = (   0.0116148   5.9584955  10.6183126  )
        11           O1  tau(  11) = (   1.2642105   1.4849797  12.6947803  )
        12           O1  tau(  12) = (   5.2691575   1.4821021  12.6650678  )
        13           Ti1 tau(  13) = (   6.5574234   2.9640577  12.4921542  )
        14           Ti1 tau(  14) = (   3.2619390   1.4709553  12.5527290  )
        15           O1  tau(  15) = (   6.5247406   5.9594380  14.6832748  )
        16           O1  tau(  16) = (   3.2695906   5.9428997  14.0562986  )
        17           O1  tau(  17) = (   4.5175969   1.4707097  16.2986306  )
        18           O1  tau(  18) = (   1.9406912   1.4777946  16.2473769  )
        19           Ti1 tau(  19) = (   3.2491105   2.9422209  15.8109686  )
        20           Ti1 tau(  20) = (   6.5361480   1.3378720  15.9626387  )
        21           O1  tau(  21) = (   3.2904802   0.0005063   4.7018136  )
        22           O1  tau(  22) = (   6.5280740   5.8897732  17.4332532  )
        23           O1  tau(  23) = (   1.3043587   1.4918075   6.0039043  )
        24           O1  tau(  24) = (   5.2767064   1.4903225   6.0039473  )
        25           Ti1 tau(  25) = (   0.0000382   5.9609847   6.0000000  )
        26           Ti1 tau(  26) = (   3.2902200   4.4714249   6.0002472  )
        27           O1  tau(  27) = (   0.0002396   2.9813036   7.9858123  )
        28           O1  tau(  28) = (   3.2902150   2.9813002   7.3038282  )
        29           O1  tau(  29) = (   4.5938453   4.4726049   9.2879030  )
        30           O1  tau(  30) = (   1.9864658   4.4711199   9.2879459  )
        31           Ti1 tau(  31) = (   3.2891106   5.8743827   9.1763621  )
        32           Ti1 tau(  32) = (   0.0006254   4.4649316   9.2693709  )
        33           O1  tau(  33) = (   3.2649920   2.9642658  11.3997388  )
        34           O1  tau(  34) = (   0.0092240   2.9805883  10.6323155  )
        35           O1  tau(  35) = (   1.2634527   4.4478426  12.7061968  )
        36           O1  tau(  36) = (   5.2693862   4.4495813  12.6755241  )
        37           Ti1 tau(  37) = (   6.5522441   5.9483113  12.5008436  )
        38           Ti1 tau(  38) = (   3.2626494   4.4468850  12.5575576  )
        39           O1  tau(  39) = (   6.4970557   2.9363996  15.0046851  )
        40           O1  tau(  40) = (   3.2722650   2.9529576  14.0194401  )
        41           O1  tau(  41) = (   4.5170401   4.4205294  16.2730734  )
        42           O1  tau(  42) = (   1.9466746   4.4191161  16.2235312  )
        43           Ti1 tau(  43) = (   3.2419262   5.9323414  15.8513663  )
        44           Ti1 tau(  44) = (   6.5549466   4.5556212  15.8889459  )
        45           O1  tau(  45) = (   3.2900926   2.9813045   4.7018136  )
        46           O1  tau(  46) = (   1.3039711   4.4726057   6.0039043  )
        47           O1  tau(  47) = (   5.2763189   4.4711207   6.0039473  )
        48           N1  tau(  48) = (   4.8657738   4.5798987  19.4796958  )
        49           C1  tau(  49) = (   5.7271871   3.4329544  19.8049648  )
        50           H1  tau(  50) = (   6.3241292   3.1721029  18.9198488  )
        51           H1  tau(  51) = (   6.4229137   3.7195585  20.5942015  )
        52           H1  tau(  52) = (   5.1874390   2.5328885  20.1195193  )
        53           H1  tau(  53) = (   5.9066942   5.7389963  18.1772939  )
        54           H1  tau(  54) = (   4.2103208   4.3266459  18.7469397  )
        55           H1  tau(  55) = (   4.3187305   4.8545830  20.2870342  )

     number of k points=    10  Fermi-Dirac smearing, width (Ry)=  0.0073
                       cart. coord. in units 2pi/alat
        k(    1) = (   0.0000000   0.0000000   0.0000000), wk =   0.1250000
        k(    2) = (   0.0000000   0.0419351   0.0000000), wk =   0.2500000
        k(    3) = (   0.0000000  -0.0838702   0.0000000), wk =   0.1250000
        k(    4) = (   0.0379955   0.0000049   0.0000000), wk =   0.2500000
        k(    5) = (   0.0379955   0.0419400   0.0000000), wk =   0.2500000
        k(    6) = (   0.0379955  -0.0838652   0.0000000), wk =   0.2500000
        k(    7) = (   0.0379955  -0.0419301   0.0000000), wk =   0.2500000
        k(    8) = (  -0.0759910  -0.0000099   0.0000000), wk =   0.1250000
        k(    9) = (  -0.0759910   0.0419252   0.0000000), wk =   0.2500000
        k(   10) = (  -0.0759910  -0.0838800   0.0000000), wk =   0.1250000

     Initial potential from superposition of free atoms

     starting charge  376.99914, renormalised to  393.00000

     negative rho (up, down):  1.330E-02 0.000E+00

     %%%%%%%%%%%%%%%%%%%%%%%%%%%%%%%%%%%%%%%%%%%%%%%%%%%%%%%%%%%%%%%%%%%%%%%%
     %                                                                      %
     % You are using vdW-DF, which was implemented by the Thonhauser group. %
     % Please cite the following two papers that made this development      %
     % possible and the two reviews that describe the various versions:     %
     %                                                                      %
     %   T. Thonhauser et al., PRL 115, 136402 (2015).                      %
     %   T. Thonhauser et al., PRB 76, 125112 (2007).                       %
     %   K. Berland et al., Rep. Prog. Phys. 78, 066501 (2015).             %
     %   D.C. Langreth et al., J. Phys.: Condens. Matter 21, 084203 (2009). %
     %                                                                      %
     %                                                                      %
     % If you are calculating the stress with vdW-DF, please also cite:     %
     %                                                                      %
     %   R. Sabatini et al., J. Phys.: Condens. Matter 24, 424209 (2012).   %
     %                                                                      %
     %%%%%%%%%%%%%%%%%%%%%%%%%%%%%%%%%%%%%%%%%%%%%%%%%%%%%%%%%%%%%%%%%%%%%%%%

     Adding external electric field

     Computed dipole along edir(3) :
        Dipole               -9.4910 Ry au,        -24.1236 Debye
        Dipole field         -0.0179 Ry au,

        Potential amp.        1.6603 Ry
        Total length         46.3494 bohr

     Starting wfcs are  298 atomic wfcs
  @ DRIVER MODE: Message from server: STATUS
  @ DRIVER MODE: Message from server: POSDATA
  @ DRIVER MODE: Reading and sharing cell
  @ DRIVER MODE: Reading and sharing positions
  @ DRIVER MODE: Received positions

     Self-consistent Calculation

     iteration #  1     ecut=    29.40 Ry     beta= 0.05
     Davidson diagonalization with overlap
     c_bands:  2 eigenvalues not converged
     c_bands:  1 eigenvalues not converged
     c_bands:  2 eigenvalues not converged
     c_bands:  3 eigenvalues not converged
     c_bands:  3 eigenvalues not converged
     c_bands:  1 eigenvalues not converged
     ethr =  1.00E-05,  avg # of iterations = 18.9

[...]

     total energy              =   -2620.46081298 Ry
     estimated scf accuracy    <    3390.28244104 Ry

[...]

     iteration #  3     ecut=    29.40 Ry     beta= 0.05
     Davidson diagonalization with overlap
     ethr =  1.00E-02,  avg # of iterations = 15.0

[...]

     iteration # 76     ecut=    29.40 Ry     beta= 0.05
     Davidson diagonalization with overlap
     c_bands:  1 eigenvalues not converged
     c_bands:  1 eigenvalues not converged
     ethr =  3.60E-11,  avg # of iterations = 15.6

[...]

     total energy              =   -2922.77373714 Ry
     estimated scf accuracy    <       0.00000010 Ry

     iteration # 77     ecut=    29.40 Ry     beta= 0.05
     Davidson diagonalization with overlap
     ethr =  2.65E-11,  avg # of iterations =  7.6

     negative rho (up, down):  1.445E-02 0.000E+00

     Adding external electric field

     Computed dipole along edir(3) :
        Dipole                1.4063 Ry au,          3.5745 Debye
        Dipole field          0.0027 Ry au,

        Potential amp.       -0.2460 Ry
        Total length         46.3494 bohr

     End of self-consistent calculation

          k = 0.0000 0.0000 0.0000 ( 18029 PWs)   bands (ev):

   -55.3076 -55.2718 -55.2562 -55.2220 -55.1716 -55.1476 -55.1461 -55.1372
   -55.1132 -55.0829 -55.0720 -55.0490 -55.0302 -54.9721 -54.2996 -54.2656
   -31.8746 -31.7506 -31.6878 -31.6599 -31.6355 -31.6144 -31.5900 -31.5492
   -31.5450 -31.5441 -31.5149 -31.5036 -31.5000 -31.4752 -31.4647 -31.4596
   -31.4463 -31.4363 -31.4090 -31.4004 -31.3958 -31.3800 -31.3719 -31.3542
   -31.3517 -31.3140 -31.3133 -31.3039 -31.3015 -31.2886 -31.2836 -31.2817
   -31.2750 -31.2741 -31.2593 -31.2559 -31.2238 -31.2103 -31.1993 -31.1936
   -31.1806 -31.1058 -30.7100 -30.6135 -30.5915 -30.5259 -30.4391 -30.3285
   -16.8234 -16.1464 -15.8902 -15.7693 -15.6601 -15.5909 -15.5198 -15.4405
   -15.3566 -15.2561 -15.1947 -15.0896 -15.0547 -15.0154 -15.0006 -14.9816
   -14.9547 -14.8749 -14.8639 -14.8531 -14.8275 -14.8095 -14.7807 -14.7722
   -14.7655 -14.7262 -14.6890 -14.5763 -14.4860 -14.4008 -12.8030 -12.6853
    -9.9955  -5.8558  -4.7421  -4.4259  -3.5078  -3.4716  -3.3424  -3.2371
    -3.2041  -3.1957  -3.0748  -2.8915  -2.7964  -2.7696  -2.6854  -2.6285
    -2.5327  -2.5288  -2.4886  -2.3883  -2.3505  -2.3236  -2.2405  -2.2137
    -2.1674  -2.1168  -2.1065  -2.1033  -2.0827  -2.0421  -2.0035  -1.8848
    -1.7998  -1.7780  -1.7044  -1.6881  -1.6821  -1.6539  -1.6110  -1.5919
    -1.5425  -1.5254  -1.4847  -1.4156  -1.3547  -1.2723  -1.2355  -1.1983
    -0.9923  -0.9638  -0.9130  -0.9106  -0.8821  -0.8139  -0.7841  -0.7545
    -0.6889  -0.6861  -0.6578  -0.5515  -0.5086  -0.3879  -0.3173  -0.2376
    -0.1160  -0.1028  -0.0789  -0.0292  -0.0057   0.0540   0.1141   0.1507
     0.1901   0.2027   0.2901   0.3196   0.3964   0.4109   0.4486   0.5123
     0.5288   0.5548   0.5722   0.5847   0.6187   0.6346   0.6686   0.7354
     0.7675   0.8690   0.9177   1.2015   1.2867   1.5958   1.6189   1.7223
     1.9037   2.3008   2.3499   3.7867   3.8479   3.8885   3.9309   3.9345
     4.0162   4.1472   4.2899   4.2992   4.3106   4.3174

[...]

          k = 0.0380-0.0419 0.0000 ( 17876 PWs)   bands (ev):

[...]

          k =-0.0760-0.0000 0.0000 ( 17886 PWs)   bands (ev):

[...]

          k =-0.0760-0.0839 0.0000 ( 17948 PWs)   bands (ev):

   -55.2911 -55.2881 -55.2398 -55.2383 -55.1549 -55.1539 -55.1420 -55.1325
   -55.1280 -55.0758 -55.0673 -55.0647 -55.0231 -54.9791 -54.2826 -54.2825
   -31.6823 -31.6772 -31.5867 -31.5815 -31.5663 -31.5650 -31.5558 -31.5301
   -31.5287 -31.5083 -31.5033 -31.5015 -31.4882 -31.4623 -31.4572 -31.4560
   -31.4302 -31.4296 -31.4232 -31.4018 -31.3796 -31.3775 -31.3677 -31.3634
   -31.3629 -31.3590 -31.3579 -31.3493 -31.3476 -31.3417 -31.3377 -31.3222
   -31.3193 -31.3069 -31.3037 -31.2925 -31.2639 -31.2470 -31.2449 -31.2423
   -31.2252 -31.1722 -30.6042 -30.6041 -30.5225 -30.5223 -30.4825 -30.4825
   -16.7619 -15.8192 -15.5921 -15.5390 -15.4982 -15.4036 -15.3299 -15.2988
   -15.2887 -15.2756 -15.1494 -15.1213 -15.1120 -15.0838 -15.0519 -15.0278
   -15.0239 -14.9887 -14.9316 -14.9255 -14.9176 -14.9094 -14.8459 -14.8377
   -14.8339 -14.8270 -14.7616 -14.7592 -14.6773 -14.6753 -12.7867 -12.7866
   -10.0052  -5.8562  -4.8692  -4.4079  -3.5172  -2.8227  -2.7952  -2.7430
    -2.7033  -2.6120  -2.5262  -2.4992  -2.4627  -2.4049  -2.3527  -2.3052
    -2.3031  -2.2674  -2.2479  -2.2291  -2.1854  -2.1639  -2.1415  -2.1232
    -2.1085  -2.0546  -2.0519  -2.0428  -2.0181  -1.9842  -1.9667  -1.9530
    -1.9374  -1.9190  -1.8937  -1.8744  -1.7313  -1.7103  -1.6697  -1.5524
    -1.5347  -1.5312  -1.4980  -1.4541  -1.4295  -1.4221  -1.3483  -1.3411
    -1.3078  -1.1512  -1.0791  -1.0774  -1.0539  -1.0300  -0.9349  -0.8834
    -0.8431  -0.7932  -0.7173  -0.6860  -0.6672  -0.5947  -0.5678  -0.4763
    -0.3868  -0.3601  -0.3519  -0.2747  -0.2733  -0.2396  -0.2266  -0.1575
    -0.0975  -0.0459  -0.0419  -0.0377   0.0912   0.1281   0.2082   0.3223
     0.4027   0.4111   0.4622   0.5227   0.6051   0.6514   0.6671   0.7892
     0.7911   0.9775   0.9808   1.0293   1.0444   1.1246   1.1298   2.0764
     2.0772   2.1696   2.1698   3.7621   3.9453   3.9994   4.0723   4.0978
     4.1958   4.2805   4.3143   4.3444   4.3664   4.4126

     the Fermi energy is     3.8553 ev

!    total energy              =   -2922.77375399 Ry
     estimated scf accuracy    <       0.00000007 Ry
     smearing contrib. (-TS)   =      -0.04551422 Ry
     internal energy E=F+TS    =   -2922.72823976 Ry

     The total energy is F=E-TS. E is the sum of the following terms:
     one-electron contribution =  -23202.04374873 Ry
     hartree contribution      =   11691.30891659 Ry
     xc contribution           =    -482.54263084 Ry
     ewald contribution        =    9070.54549099 Ry
     electric field correction =       0.00373223 Ry

     convergence has been achieved in  77 iterations

     Forces acting on atoms (cartesian axes, Ry/au):

     atom    1 type  1   force =     0.00016460   -0.00007853    0.09303903
     atom    2 type  1   force =    -0.00000736   -0.00014405   -0.17879997
     atom    3 type  2   force =     0.00002164   -0.00029818   -0.02022633
     atom    4 type  2   force =    -0.00000279   -0.00223849    0.06094545
     atom    5 type  2   force =    -0.01150942   -0.00128446    0.01054396
     atom    6 type  2   force =     0.01242051   -0.00058817    0.00810838
     atom    7 type  1   force =    -0.00124261    0.00345983   -0.01488015
     atom    8 type  1   force =     0.00122970   -0.00357036   -0.00844742
     atom    9 type  2   force =     0.00001600   -0.00005087   -0.00025502
     atom   10 type  2   force =    -0.00281257   -0.00047903    0.00154651
     atom   11 type  2   force =     0.00010036   -0.00023362   -0.00030336
     atom   12 type  2   force =     0.00002632    0.00008792   -0.00011044
     atom   13 type  1   force =    -0.00018932   -0.00031552   -0.00063898
     atom   14 type  1   force =    -0.00003485   -0.00004203    0.00021152
     atom   15 type  2   force =    -0.00010968   -0.00023058   -0.00011599
     atom   16 type  2   force =     0.00032473    0.00035065   -0.00012457
     atom   17 type  2   force =     0.00077576    0.00027914   -0.00026620
     atom   18 type  2   force =     0.00009672   -0.00027886   -0.00006536
     atom   19 type  1   force =     0.00026450    0.00044072   -0.00039544
     atom   20 type  1   force =     0.00011173    0.00005298    0.00050848
     atom   21 type  2   force =     0.00012788   -0.00003438    0.10428536
     atom   22 type  2   force =    -0.00054871    0.00016128    0.00015687
     atom   23 type  2   force =    -0.06991108   -0.00010259   -0.02677730
     atom   24 type  2   force =     0.06988709    0.00035410   -0.02678065
     atom   25 type  1   force =     0.00019154   -0.00020770    0.09230771
     atom   26 type  1   force =    -0.00007173   -0.00037178   -0.17899876
     atom   27 type  2   force =     0.00004137   -0.00025734   -0.01898065
     atom   28 type  2   force =     0.00006682   -0.00192568    0.06019924
     atom   29 type  2   force =    -0.01169762   -0.00162236    0.01033693
     atom   30 type  2   force =     0.01248434   -0.00120446    0.00786802
     atom   31 type  1   force =    -0.00101307    0.00608062   -0.01576727
     atom   32 type  1   force =     0.00116370    0.00332413   -0.00863387
     atom   33 type  2   force =     0.00003108    0.00020215   -0.00023966
     atom   34 type  2   force =    -0.00240422   -0.00053721    0.00060874
     atom   35 type  2   force =    -0.00001833   -0.00000611    0.00004374
     atom   36 type  2   force =     0.00005891   -0.00007912    0.00036010
     atom   37 type  1   force =     0.00035535   -0.00003192   -0.00005928
     atom   38 type  1   force =    -0.00034497   -0.00030533    0.00045694
     atom   39 type  2   force =     0.00036188   -0.00015201    0.00063161
     atom   40 type  2   force =     0.00025106   -0.00017471    0.00002529
     atom   41 type  2   force =     0.00005527    0.00036373   -0.00040854
     atom   42 type  2   force =     0.00050611    0.00022638   -0.00020515
     atom   43 type  1   force =     0.00024855   -0.00016618   -0.00032855
     atom   44 type  1   force =     0.00015572   -0.00126597    0.00061207
     atom   45 type  2   force =     0.00011876   -0.00005252    0.10423573
     atom   46 type  2   force =    -0.06992944   -0.00006175   -0.02677116
     atom   47 type  2   force =     0.06991909    0.00034378   -0.02679218
     atom   48 type  3   force =     0.00107225    0.00019843   -0.00098118
     atom   49 type  4   force =     0.00458337   -0.00043839   -0.00856040
     atom   50 type  5   force =    -0.00432430    0.00180192    0.00846955
     atom   51 type  5   force =    -0.00018780   -0.00045546   -0.00044722
     atom   52 type  5   force =    -0.00000588   -0.00040390   -0.00000027
     atom   53 type  5   force =     0.00016305    0.00075308   -0.00103989
     atom   54 type  5   force =    -0.00032043    0.00020757   -0.00046798
     atom   55 type  5   force =    -0.00070959    0.00100122    0.00136796

     Total force =     0.367845     Total SCF correction =     0.000694
  @ DRIVER MODE: Message from server: STATUS
  @ DRIVER MODE: Message from server: GETFORCE
  @ DRIVER MODE: Returning v,forces,stress,ensemble

     Writing output data file ./calc.save/
  @ DRIVER MODE: Message from server: EXIT
  @ DRIVE MODE: Exiting

     General routines

     Parallel routines

   This run was terminated on:  17:55: 0   2Aug2021

   JOB DONE.