     Program PWSCF v.6.7GPU starts on 24Aug2021 at  0:41:17

     R & G space division:  proc/nbgrp/npool/nimage =       6
     Reading input from /storage/home/hcoda1/3/ntian30/research/carbon/CH2_vib/ads_slab/CH2N2H_a/out_0023/pw.inp
Warning: card &CELL ignored
Warning: card   CELL_DYNAMICS='IPI', ignored
Warning: card / ignored

     Current dimensions of program PWSCF are:
     Max number of different atomic species (ntypx) = 10
     Max number of k-points (npk) =  40000
     Max angular momentum in pseudopotentials (lmaxx) =  3
     Presently no symmetry can be used with electric field

     Message from routine cell_base_init:
     DEPRECATED: use true lattice parameter, not A to a.u. conversion factor

     IMPORTANT: XC functional enforced from input :
     Exchange-correlation= BEEF-VDW
                           (   1   4  43  14   2   0   0)
     Any further DFT definition will be discarded
     Please, verify this is what you really want

  @ DRIVER MODE: Connecting to
 qe_1139763_2632802.sched-torque.pace.gatech.educyl3y92o_scratch
  using UNIX socket
  @ DRIVER MODE: Message from server: STATUS
  @ DRIVER MODE: Message from server: INIT
  @ DRIVER MODE: Receiving replica           0          -1
  @ DRIVER MODE: Receiving encoded integer          25
  @ DRIVER MODE:  SCF:  T  FORCE:  T  STRESS:  F  VC:  F  ENSEMBLE:  F
  @ DRIVER MODE:  SCF:  T  FORCE:  T  STRESS:  F  VC:  F  ENSEMBLE:  F

     Using Slab Decomposition

     bravais-lattice index     =            0
     lattice parameter (alat)  =       1.8897  a.u.
     unit-cell volume          =    6658.9804 (a.u.)^3
     number of atoms/cell      =           53
     number of atomic types    =            5
     number of electrons       =       395.00
     number of Kohn-Sham states=          207
     kinetic-energy cutoff     =      29.3995  Ry
     charge density cutoff     =     293.9946  Ry
     scf convergence threshold =      7.3E-08
     mixing beta               =       0.0500
     number of iterations used =            8  plain     mixing
     Exchange-correlation= BEEF-VDW
                           (   1   4  43  14   2   0   0)

     celldm(1)=   1.889726  celldm(2)=   0.000000  celldm(3)=   0.000000
     celldm(4)=   0.000000  celldm(5)=   0.000000  celldm(6)=   0.000000

     crystal axes: (cart. coord. in units of alat)
               a(1) = (   6.579727   0.000000   0.000000 )
               a(2) = (  -0.000775   5.961596   0.000000 )
               a(3) = (   0.000000   0.000000  25.155947 )

     reciprocal axes: (cart. coord. in units 2 pi/alat)
               b(1) = (  0.151982  0.000020  0.000000 )
               b(2) = (  0.000000  0.167740  0.000000 )
               b(3) = (  0.000000  0.000000  0.039752 )

     PseudoPot. # 1 for Ti read from file:
     /storage/coda1/p-amedford6/0/shared/rich_project_chbe-medford/medford-share/data/pseudos_module/espresso/nninc/pbe/van/Ti.UPF
     MD5 check sum: 8e4df49b7f0d34bbd5052bf3f5ea0213
     Pseudo is Ultrasoft, Zval = 12.0
     Generated by new atomic code, or converted to UPF format
     Using radial grid of  851 points,  6 beta functions with:
                l(1) =   0
                l(2) =   0
                l(3) =   1
                l(4) =   1
                l(5) =   2
                l(6) =   2
     Q(r) pseudized with  8 coefficients,  rinner =    1.000   1.000   1.000
                                                       1.000   1.000

     PseudoPot. # 2 for O  read from file:
     /storage/coda1/p-amedford6/0/shared/rich_project_chbe-medford/medford-share/data/pseudos_module/espresso/nninc/pbe/van/O.UPF
     MD5 check sum: 78c19812648e8988a0fe644b0f25305e
     Pseudo is Ultrasoft, Zval =  6.0
     Generated by new atomic code, or converted to UPF format
     Using radial grid of  737 points,  4 beta functions with:
                l(1) =   0
                l(2) =   0
                l(3) =   1
                l(4) =   1
     Q(r) pseudized with  8 coefficients,  rinner =    0.800   0.800   0.800

     PseudoPot. # 3 for N  read from file:
     /storage/coda1/p-amedford6/0/shared/rich_project_chbe-medford/medford-share/data/pseudos_module/espresso/nninc/pbe/van/N.UPF
     MD5 check sum: 90d10febe142ad51ac9d5be1deb811c4
     Pseudo is Ultrasoft, Zval =  5.0
     Generated by new atomic code, or converted to UPF format
     Using radial grid of  729 points,  4 beta functions with:
                l(1) =   0
                l(2) =   0
                l(3) =   1
                l(4) =   1
     Q(r) pseudized with  8 coefficients,  rinner =    0.800   0.800   0.800

     PseudoPot. # 4 for C  read from file:
     /storage/coda1/p-amedford6/0/shared/rich_project_chbe-medford/medford-share/data/pseudos_module/espresso/nninc/pbe/van/C.UPF
     MD5 check sum: 1a69bf6b8db32088f5b2163dbdb77a27
     Pseudo is Ultrasoft, Zval =  4.0
     Generated by new atomic code, or converted to UPF format
     Using radial grid of  721 points,  4 beta functions with:
                l(1) =   0
                l(2) =   0
                l(3) =   1
                l(4) =   1
     Q(r) pseudized with  8 coefficients,  rinner =    0.800   0.800   0.800

     PseudoPot. # 5 for H  read from file:
     /storage/coda1/p-amedford6/0/shared/rich_project_chbe-medford/medford-share/data/pseudos_module/espresso/nninc/pbe/van/H.UPF
     MD5 check sum: b5ee9d7bfd3a09ee7748110bda690ff7
     Pseudo is Ultrasoft, Zval =  1.0
     Generated by new atomic code, or converted to UPF format
     Using radial grid of  615 points,  1 beta functions with:
                l(1) =   0
     Q(r) pseudized with  8 coefficients,  rinner =    0.800

     atomic species   valence    mass     pseudopotential
        Ti1           12.00    47.86700     Ti( 1.00)
        O1             6.00    15.99900     O ( 1.00)
        N1             5.00    14.00700     N ( 1.00)
        C1             4.00    12.01100     C ( 1.00)
        H1             1.00     1.00800     H ( 1.00)

     No symmetry found

   Cartesian axes

     site n.     atom                  positions (alat units)
         1           Ti1 tau(   1) = (   0.0004258   2.9801865   6.0000000  )
         2           Ti1 tau(   2) = (   3.2906075   1.4906267   6.0002472  )
         3           O1  tau(   3) = (   0.0006271   0.0005054   7.9858123  )
         4           O1  tau(   4) = (   3.2906025   0.0005020   7.3038282  )
         5           O1  tau(   5) = (   4.5942328   1.4918067   9.2879030  )
         6           O1  tau(   6) = (   1.9868534   1.4903216   9.2879459  )
         7           Ti1 tau(   7) = (   3.2907910   2.8959150   9.1758416  )
         8           Ti1 tau(   8) = (   0.0015273   1.4827037   9.2680791  )
         9           O1  tau(   9) = (   3.3007851   0.0027079  11.3193151  )
        10           O1  tau(  10) = (   0.0116148   5.9584955  10.6183126  )
        11           O1  tau(  11) = (   1.3147357   1.5019762  12.6210215  )
        12           O1  tau(  12) = (   5.3120411   1.4917641  12.6342566  )
        13           Ti1 tau(  13) = (   6.5359925   2.9538565  12.6086018  )
        14           Ti1 tau(  14) = (   3.2189980   1.4905645  12.4770757  )
        15           O1  tau(  15) = (   0.0426301   5.9606301  14.6312846  )
        16           O1  tau(  16) = (   3.3149351   0.0098317  13.8848037  )
        17           O1  tau(  17) = (   4.5523768   1.5206755  16.0744300  )
        18           O1  tau(  18) = (   2.0715852   1.4807026  15.9918588  )
        19           Ti1 tau(  19) = (   3.2935730   2.9941335  15.6827836  )
        20           Ti1 tau(  20) = (   0.0200723   1.3023755  15.9747514  )
        21           O1  tau(  21) = (   3.2904802   0.0005063   4.7018136  )
        22           O1  tau(  22) = (   6.5179923   0.0002674  17.1556216  )
        23           O1  tau(  23) = (   1.3043587   1.4918075   6.0039043  )
        24           O1  tau(  24) = (   5.2767064   1.4903225   6.0039473  )
        25           Ti1 tau(  25) = (   0.0000382   5.9609847   6.0000000  )
        26           Ti1 tau(  26) = (   3.2902200   4.4714249   6.0002472  )
        27           O1  tau(  27) = (   0.0002396   2.9813036   7.9858123  )
        28           O1  tau(  28) = (   3.2902150   2.9813002   7.3038282  )
        29           O1  tau(  29) = (   4.5938453   4.4726049   9.2879030  )
        30           O1  tau(  30) = (   1.9864658   4.4711199   9.2879459  )
        31           Ti1 tau(  31) = (   3.2891106   5.8743827   9.1763621  )
        32           Ti1 tau(  32) = (   0.0006254   4.4649316   9.2693709  )
        33           O1  tau(  33) = (   3.3053585   2.9833221  11.3185053  )
        34           O1  tau(  34) = (   0.0092240   2.9805883  10.6323155  )
        35           O1  tau(  35) = (   1.3157767   4.4721532  12.6203727  )
        36           O1  tau(  36) = (   5.3104355   4.4689601  12.6331991  )
        37           Ti1 tau(  37) = (   6.5385524   5.9338372  12.5465384  )
        38           Ti1 tau(  38) = (   3.2200853   4.4710709  12.4725482  )
        39           O1  tau(  39) = (   0.0068575   2.9964749  14.7765288  )
        40           O1  tau(  40) = (   3.3021705   2.9848394  13.8818356  )
        41           O1  tau(  41) = (   4.5334443   4.4765196  15.9883447  )
        42           O1  tau(  42) = (   2.0816803   4.4801587  16.0471567  )
        43           Ti1 tau(  43) = (   3.3155128   0.0116264  15.6901768  )
        44           Ti1 tau(  44) = (   6.5575601   4.4671909  15.9479714  )
        45           O1  tau(  45) = (   3.2900926   2.9813045   4.7018136  )
        46           O1  tau(  46) = (   1.3039711   4.4726057   6.0039043  )
        47           O1  tau(  47) = (   5.2763189   4.4711207   6.0039473  )
        48           N1  tau(  48) = (   0.4270260   2.3853988  17.9668900  )
        49           C1  tau(  49) = (   0.9469377   1.9340014  19.0583692  )
        50           H1  tau(  50) = (   1.0789317   2.5769861  19.9249762  )
        51           H1  tau(  51) = (   1.2326487   0.8959138  19.0841702  )
        52           N1  tau(  52) = (   0.0025679   3.6232397  17.7996529  )
        53           H1  tau(  53) = (   0.1020252   4.2324666  18.6151602  )

     number of k points=    10  Fermi-Dirac smearing, width (Ry)=  0.0073
                       cart. coord. in units 2pi/alat
        k(    1) = (   0.0000000   0.0000000   0.0000000), wk =   0.1250000
        k(    2) = (   0.0000000   0.0419351   0.0000000), wk =   0.2500000
        k(    3) = (   0.0000000  -0.0838702   0.0000000), wk =   0.1250000
        k(    4) = (   0.0379955   0.0000049   0.0000000), wk =   0.2500000
        k(    5) = (   0.0379955   0.0419400   0.0000000), wk =   0.2500000
        k(    6) = (   0.0379955  -0.0838652   0.0000000), wk =   0.2500000
        k(    7) = (   0.0379955  -0.0419301   0.0000000), wk =   0.2500000
        k(    8) = (  -0.0759910  -0.0000099   0.0000000), wk =   0.1250000
        k(    9) = (  -0.0759910   0.0419252   0.0000000), wk =   0.2500000
        k(   10) = (  -0.0759910  -0.0838800   0.0000000), wk =   0.1250000

     Initial potential from superposition of free atoms

     starting charge  378.99916, renormalised to  395.00000

     negative rho (up, down):  1.649E-02 0.000E+00

     %%%%%%%%%%%%%%%%%%%%%%%%%%%%%%%%%%%%%%%%%%%%%%%%%%%%%%%%%%%%%%%%%%%%%%%%
     %                                                                      %
     % You are using vdW-DF, which was implemented by the Thonhauser group. %
     % Please cite the following two papers that made this development      %
     % possible and the two reviews that describe the various versions:     %
     %                                                                      %
     %   T. Thonhauser et al., PRL 115, 136402 (2015).                      %
     %   T. Thonhauser et al., PRB 76, 125112 (2007).                       %
     %   K. Berland et al., Rep. Prog. Phys. 78, 066501 (2015).             %
     %   D.C. Langreth et al., J. Phys.: Condens. Matter 21, 084203 (2009). %
     %                                                                      %
     %                                                                      %
     % If you are calculating the stress with vdW-DF, please also cite:     %
     %                                                                      %
     %   R. Sabatini et al., J. Phys.: Condens. Matter 24, 424209 (2012).   %
     %                                                                      %
     %%%%%%%%%%%%%%%%%%%%%%%%%%%%%%%%%%%%%%%%%%%%%%%%%%%%%%%%%%%%%%%%%%%%%%%%

     Adding external electric field

     Computed dipole along edir(3) :
        Dipole               -8.3962 Ry au,        -21.3410 Debye
        Dipole field         -0.0158 Ry au,

        Potential amp.        1.4688 Ry
        Total length         46.3494 bohr

     Starting wfcs are  299 atomic wfcs
  @ DRIVER MODE: Message from server: STATUS
  @ DRIVER MODE: Message from server: POSDATA
  @ DRIVER MODE: Reading and sharing cell
  @ DRIVER MODE: Reading and sharing positions
  @ DRIVER MODE: Received positions

     Self-consistent Calculation

     iteration #  1     ecut=    29.40 Ry     beta= 0.05
     Davidson diagonalization with overlap
     c_bands:  2 eigenvalues not converged
     c_bands:  1 eigenvalues not converged
     c_bands:  2 eigenvalues not converged
     c_bands:  3 eigenvalues not converged
     c_bands:  3 eigenvalues not converged
     c_bands:  2 eigenvalues not converged
     c_bands:  1 eigenvalues not converged
     ethr =  1.00E-05,  avg # of iterations = 19.3

[...]

     total energy              =   -2613.94516183 Ry
     estimated scf accuracy    <    3601.29773619 Ry

[...]

     iteration #  3     ecut=    29.40 Ry     beta= 0.05
     Davidson diagonalization with overlap
     ethr =  1.00E-02,  avg # of iterations = 14.1

[...]

     iteration # 81     ecut=    29.40 Ry     beta= 0.05
     Davidson diagonalization with overlap
     c_bands:  2 eigenvalues not converged
     ethr =  2.57E-11,  avg # of iterations = 17.5

[...]

     total energy              =   -2939.13539741 Ry
     estimated scf accuracy    <       0.00000008 Ry

     iteration # 83     ecut=    29.40 Ry     beta= 0.05
     Davidson diagonalization with overlap
     ethr =  1.90E-11,  avg # of iterations =  9.5

     negative rho (up, down):  1.682E-02 0.000E+00

     Adding external electric field

     Computed dipole along edir(3) :
        Dipole                0.7871 Ry au,          2.0006 Debye
        Dipole field          0.0015 Ry au,

        Potential amp.       -0.1377 Ry
        Total length         46.3494 bohr

     End of self-consistent calculation

          k = 0.0000 0.0000 0.0000 ( 18029 PWs)   bands (ev):

   -55.8528 -55.8517 -55.8188 -55.8156 -55.7461 -55.7030 -55.6653 -55.6635
   -55.6304 -55.6295 -55.6247 -55.5911 -55.1902 -55.1443 -54.8286 -54.7945
   -32.4057 -32.3357 -32.2418 -32.1634 -32.1495 -32.1450 -32.1313 -32.1165
   -32.0959 -32.0827 -32.0298 -32.0120 -32.0052 -32.0034 -31.9935 -31.9898
   -31.9576 -31.9458 -31.9398 -31.9372 -31.9102 -31.9079 -31.8920 -31.8899
   -31.8590 -31.8548 -31.8526 -31.8515 -31.8263 -31.8115 -31.8037 -31.7935
   -31.7815 -31.7793 -31.7717 -31.7382 -31.7318 -31.4547 -31.4173 -31.3902
   -31.3374 -31.3025 -31.2354 -31.1478 -31.1253 -31.0524 -30.9659 -30.8546
   -17.9113 -16.6119 -16.3320 -16.0766 -16.0014 -15.9973 -15.8637 -15.7010
   -15.5883 -15.5212 -15.4409 -15.4112 -15.3894 -15.3537 -15.3475 -15.3095
   -15.3007 -15.2753 -15.2720 -15.2097 -15.2063 -15.1987 -15.1889 -15.1047
   -15.0469 -14.9955 -14.9881 -14.9145 -14.8807 -14.3528 -13.3304 -13.2140
   -12.1641  -7.8704  -5.3528  -4.5481  -3.9887  -3.8294  -3.7600  -3.7253
    -3.6487  -3.4890  -3.4102  -3.1280  -3.0794  -3.0238  -3.0144  -2.9779
    -2.9327  -2.7815  -2.7039  -2.6772  -2.6615  -2.6392  -2.6241  -2.6120
    -2.5961  -2.5768  -2.4956  -2.4146  -2.3706  -2.2937  -2.2800  -2.2450
    -2.1651  -2.1648  -2.1247  -2.1043  -2.0860  -2.0699  -2.0615  -2.0462
    -1.9059  -1.8492  -1.8347  -1.6539  -1.6364  -1.5884  -1.4622  -1.4557
    -1.3388  -1.3235  -1.2833  -1.2457  -1.1730  -1.1512  -1.0396  -0.9984
    -0.9367  -0.8896  -0.8744  -0.7987  -0.7340  -0.6959  -0.6827  -0.6174
    -0.6107  -0.5977  -0.4630  -0.3864  -0.3330  -0.2770  -0.2548  -0.1988
    -0.1593  -0.1160  -0.0287  -0.0014   0.0102   0.0683   0.0900   0.1156
     0.1272   0.1470   0.1759   0.2314   0.3496   0.3812   0.4572   0.4716
     0.5319   0.6664   0.8044   0.8712   0.9241   1.0193   1.1248   1.1943
     1.2677   1.3867   1.7645   1.8099   2.1384   3.2669   3.3689   3.4017
     3.4127   3.5158   3.6646   3.7261   3.7413   3.7826   3.8165

[...]

          k = 0.0380-0.0419 0.0000 ( 17876 PWs)   bands (ev):

[...]

          k =-0.0760-0.0000 0.0000 ( 17886 PWs)   bands (ev):

[...]

          k =-0.0760-0.0839 0.0000 ( 17948 PWs)   bands (ev):

   -55.8359 -55.8355 -55.8341 -55.8329 -55.7376 -55.7115 -55.6486 -55.6470
   -55.6468 -55.6458 -55.6086 -55.6073 -55.1823 -55.1521 -54.8116 -54.8113
   -32.2079 -32.2063 -32.1512 -32.1509 -32.1306 -32.1302 -32.0965 -32.0936
   -32.0845 -32.0678 -32.0023 -31.9995 -31.9941 -31.9922 -31.9702 -31.9626
   -31.9557 -31.9552 -31.9500 -31.9489 -31.9469 -31.9354 -31.9297 -31.9227
   -31.9107 -31.9058 -31.8609 -31.8507 -31.8487 -31.8479 -31.8396 -31.8388
   -31.8256 -31.8249 -31.8243 -31.8231 -31.6842 -31.4500 -31.4162 -31.4116
   -31.3938 -31.3384 -31.1381 -31.1379 -31.0482 -31.0480 -31.0093 -31.0092
   -17.8977 -16.0271 -16.0243 -15.8167 -15.7778 -15.7585 -15.7527 -15.6629
   -15.5772 -15.5438 -15.5409 -15.4538 -15.4277 -15.4116 -15.3954 -15.3899
   -15.3811 -15.3515 -15.3163 -15.3089 -15.2948 -15.2892 -15.2773 -15.2202
   -15.1691 -15.1649 -15.1422 -15.0700 -14.8312 -14.6932 -13.3159 -13.3157
   -12.1249  -7.8110  -5.3977  -4.6083  -3.3216  -3.3121  -3.0658  -3.0229
    -3.0187  -2.9923  -2.9508  -2.7899  -2.7773  -2.7579  -2.7501  -2.7054
    -2.6819  -2.6617  -2.6420  -2.6367  -2.6078  -2.5817  -2.5666  -2.5296
    -2.5227  -2.5138  -2.4823  -2.4715  -2.4251  -2.4197  -2.3990  -2.3715
    -2.3621  -2.3279  -2.1803  -2.1074  -2.0793  -1.9945  -1.9876  -1.9480
    -1.9254  -1.9038  -1.8973  -1.8688  -1.8308  -1.6947  -1.6121  -1.5505
    -1.5418  -1.4573  -1.4297  -1.3681  -1.2783  -1.2527  -1.2319  -1.1602
    -1.0845  -1.0463  -0.9953  -0.9819  -0.9144  -0.9058  -0.8480  -0.8113
    -0.8094  -0.7322  -0.7019  -0.6547  -0.6183  -0.6015  -0.5785  -0.5518
    -0.5362  -0.5131  -0.4371  -0.3530  -0.3014  -0.2406  -0.1477  -0.0182
     0.1020   0.2147   0.2367   0.2810   0.3335   0.3677   0.4611   0.4649
     0.5283   0.5517   0.5928   0.6706   0.6819   0.7064   0.8175   0.8477
     1.5588   1.5592   1.6298   1.6300   2.0789   3.5898   3.6187   3.6378
     3.6695   3.7989   3.8050   3.8154   3.8161   3.9510   3.9581

     the Fermi energy is     3.2768 ev

!    total energy              =   -2939.13540391 Ry
     estimated scf accuracy    <       0.00000004 Ry
     smearing contrib. (-TS)   =      -0.02098936 Ry
     internal energy E=F+TS    =   -2939.11441456 Ry

     The total energy is F=E-TS. E is the sum of the following terms:
     one-electron contribution =  -24492.81551897 Ry
     hartree contribution      =   12334.35731882 Ry
     xc contribution           =    -485.37138134 Ry
     ewald contribution        =    9704.71399780 Ry
     electric field correction =       0.00116913 Ry

     convergence has been achieved in  83 iterations

     Forces acting on atoms (cartesian axes, Ry/au):

     atom    1 type  1   force =     0.00007379   -0.00024020    0.09633299
     atom    2 type  1   force =     0.00005324   -0.00057429   -0.17517964
     atom    3 type  2   force =     0.00014864   -0.00013194   -0.02408834
     atom    4 type  2   force =    -0.00000470   -0.00124856    0.05223671
     atom    5 type  2   force =    -0.01056631   -0.00047697    0.00252108
     atom    6 type  2   force =     0.01238285    0.00022300    0.00289489
     atom    7 type  1   force =     0.00098517    0.00026396   -0.01172127
     atom    8 type  1   force =    -0.00013885    0.00775043    0.02265635
     atom    9 type  2   force =    -0.00019809   -0.00015402   -0.00026084
     atom   10 type  2   force =    -0.00262376    0.00115137   -0.01266411
     atom   11 type  2   force =     0.00006764   -0.00012708    0.00005229
     atom   12 type  2   force =     0.00010096    0.00018139   -0.00038938
     atom   13 type  1   force =     0.00044058   -0.00035252    0.00022308
     atom   14 type  1   force =     0.00015492    0.00032364   -0.00014619
     atom   15 type  2   force =    -0.00023245    0.00015656    0.00004196
     atom   16 type  2   force =     0.00011092   -0.00021127    0.00033799
     atom   17 type  2   force =     0.00049747   -0.00002299    0.00034790
     atom   18 type  2   force =     0.00065704   -0.00018541    0.00026536
     atom   19 type  1   force =    -0.00116293   -0.00002030    0.00018779
     atom   20 type  1   force =     0.00030694   -0.00035575   -0.00057693
     atom   21 type  2   force =     0.00004786    0.00000609    0.10310191
     atom   22 type  2   force =     0.00015391   -0.00026044   -0.00000213
     atom   23 type  2   force =    -0.07162734   -0.00014965   -0.02764779
     atom   24 type  2   force =     0.07156539    0.00034827   -0.02771088
     atom   25 type  1   force =     0.00015336   -0.00023420    0.09585902
     atom   26 type  1   force =     0.00009638   -0.00040661   -0.17543635
     atom   27 type  2   force =     0.00017484   -0.00021339   -0.02291981
     atom   28 type  2   force =     0.00006214   -0.00101318    0.05219860
     atom   29 type  2   force =    -0.01086598    0.00048401    0.00244306
     atom   30 type  2   force =     0.01256039    0.00064392    0.00278981
     atom   31 type  1   force =     0.00087372    0.00347704   -0.01290253
     atom   32 type  1   force =     0.00003002   -0.00924998    0.02308747
     atom   33 type  2   force =    -0.00048388    0.00013575    0.00023752
     atom   34 type  2   force =    -0.00302777    0.00022891   -0.01289142
     atom   35 type  2   force =     0.00009194    0.00009493   -0.00008600
     atom   36 type  2   force =     0.00010583    0.00034069   -0.00040010
     atom   37 type  1   force =     0.00033201    0.00036073    0.00007170
     atom   38 type  1   force =     0.00002548   -0.00043196    0.00014769
     atom   39 type  2   force =     0.00015404    0.00044365    0.00054938
     atom   40 type  2   force =     0.00035443    0.00013138   -0.00039252
     atom   41 type  2   force =     0.00041228    0.00004439    0.00026486
     atom   42 type  2   force =     0.00092272    0.00004118    0.00050206
     atom   43 type  1   force =    -0.00153914   -0.00037532   -0.00037117
     atom   44 type  1   force =     0.00069404   -0.00034437   -0.00073079
     atom   45 type  2   force =     0.00006050   -0.00003944    0.10307904
     atom   46 type  2   force =    -0.07165167   -0.00007098   -0.02766053
     atom   47 type  2   force =     0.07159185    0.00032386   -0.02772929
     atom   48 type  3   force =    -0.00084238    0.00015271   -0.00048595
     atom   49 type  4   force =    -0.00113290   -0.00038563   -0.00215832
     atom   50 type  5   force =    -0.00074815   -0.00003719    0.00077359
     atom   51 type  5   force =     0.00098567   -0.00084283    0.00213604
     atom   52 type  3   force =    -0.00043367    0.00084465   -0.00154242
     atom   53 type  5   force =    -0.00014899    0.00000396    0.00075459

     Total force =     0.365765     Total SCF correction =     0.000633
  @ DRIVER MODE: Message from server: STATUS
  @ DRIVER MODE: Message from server: GETFORCE
  @ DRIVER MODE: Returning v,forces,stress,ensemble

     Writing output data file ./calc.save/
  @ DRIVER MODE: Message from server: EXIT
  @ DRIVE MODE: Exiting

     General routines

     Parallel routines

   This run was terminated on:   1:15: 1  24Aug2021

   JOB DONE.