     Program PWSCF v.6.7GPU starts on 23Aug2021 at 21: 4: 9

     R & G space division:  proc/nbgrp/npool/nimage =       6
     Reading input from /storage/home/hcoda1/3/ntian30/research/carbon/CH_vib/ads_slab/CHNH_a/out_0018/pw.inp
Warning: card &CELL ignored
Warning: card   CELL_DYNAMICS='IPI', ignored
Warning: card / ignored

     Current dimensions of program PWSCF are:
     Max number of different atomic species (ntypx) = 10
     Max number of k-points (npk) =  40000
     Max angular momentum in pseudopotentials (lmaxx) =  3
     Presently no symmetry can be used with electric field

     Message from routine cell_base_init:
     DEPRECATED: use true lattice parameter, not A to a.u. conversion factor

     IMPORTANT: XC functional enforced from input :
     Exchange-correlation= BEEF-VDW
                           (   1   4  43  14   2   0   0)
     Any further DFT definition will be discarded
     Please, verify this is what you really want

  @ DRIVER MODE: Connecting to
 qe_1139763_2632799.sched-torque.pace.gatech.eduundy67k4_scratch
  using UNIX socket
  @ DRIVER MODE: Message from server: STATUS
  @ DRIVER MODE: Message from server: INIT
  @ DRIVER MODE: Receiving replica           0          -1
  @ DRIVER MODE: Receiving encoded integer          25
  @ DRIVER MODE:  SCF:  T  FORCE:  T  STRESS:  F  VC:  F  ENSEMBLE:  F
  @ DRIVER MODE:  SCF:  T  FORCE:  T  STRESS:  F  VC:  F  ENSEMBLE:  F

     Using Slab Decomposition

     bravais-lattice index     =            0
     lattice parameter (alat)  =       1.8897  a.u.
     unit-cell volume          =    6658.9804 (a.u.)^3
     number of atoms/cell      =           51
     number of atomic types    =            5
     number of electrons       =       389.00
     number of Kohn-Sham states=          204
     kinetic-energy cutoff     =      29.3995  Ry
     charge density cutoff     =     293.9946  Ry
     scf convergence threshold =      7.3E-08
     mixing beta               =       0.0500
     number of iterations used =            8  plain     mixing
     Exchange-correlation= BEEF-VDW
                           (   1   4  43  14   2   0   0)

     celldm(1)=   1.889726  celldm(2)=   0.000000  celldm(3)=   0.000000
     celldm(4)=   0.000000  celldm(5)=   0.000000  celldm(6)=   0.000000

     crystal axes: (cart. coord. in units of alat)
               a(1) = (   6.579727   0.000000   0.000000 )
               a(2) = (  -0.000775   5.961596   0.000000 )
               a(3) = (   0.000000   0.000000  25.155947 )

     reciprocal axes: (cart. coord. in units 2 pi/alat)
               b(1) = (  0.151982  0.000020  0.000000 )
               b(2) = (  0.000000  0.167740  0.000000 )
               b(3) = (  0.000000  0.000000  0.039752 )

     PseudoPot. # 1 for Ti read from file:
     /storage/coda1/p-amedford6/0/shared/rich_project_chbe-medford/medford-share/data/pseudos_module/espresso/nninc/pbe/van/Ti.UPF
     MD5 check sum: 8e4df49b7f0d34bbd5052bf3f5ea0213
     Pseudo is Ultrasoft, Zval = 12.0
     Generated by new atomic code, or converted to UPF format
     Using radial grid of  851 points,  6 beta functions with:
                l(1) =   0
                l(2) =   0
                l(3) =   1
                l(4) =   1
                l(5) =   2
                l(6) =   2
     Q(r) pseudized with  8 coefficients,  rinner =    1.000   1.000   1.000
                                                       1.000   1.000

     PseudoPot. # 2 for O  read from file:
     /storage/coda1/p-amedford6/0/shared/rich_project_chbe-medford/medford-share/data/pseudos_module/espresso/nninc/pbe/van/O.UPF
     MD5 check sum: 78c19812648e8988a0fe644b0f25305e
     Pseudo is Ultrasoft, Zval =  6.0
     Generated by new atomic code, or converted to UPF format
     Using radial grid of  737 points,  4 beta functions with:
                l(1) =   0
                l(2) =   0
                l(3) =   1
                l(4) =   1
     Q(r) pseudized with  8 coefficients,  rinner =    0.800   0.800   0.800

     PseudoPot. # 3 for N  read from file:
     /storage/coda1/p-amedford6/0/shared/rich_project_chbe-medford/medford-share/data/pseudos_module/espresso/nninc/pbe/van/N.UPF
     MD5 check sum: 90d10febe142ad51ac9d5be1deb811c4
     Pseudo is Ultrasoft, Zval =  5.0
     Generated by new atomic code, or converted to UPF format
     Using radial grid of  729 points,  4 beta functions with:
                l(1) =   0
                l(2) =   0
                l(3) =   1
                l(4) =   1
     Q(r) pseudized with  8 coefficients,  rinner =    0.800   0.800   0.800

     PseudoPot. # 4 for C  read from file:
     /storage/coda1/p-amedford6/0/shared/rich_project_chbe-medford/medford-share/data/pseudos_module/espresso/nninc/pbe/van/C.UPF
     MD5 check sum: 1a69bf6b8db32088f5b2163dbdb77a27
     Pseudo is Ultrasoft, Zval =  4.0
     Generated by new atomic code, or converted to UPF format
     Using radial grid of  721 points,  4 beta functions with:
                l(1) =   0
                l(2) =   0
                l(3) =   1
                l(4) =   1
     Q(r) pseudized with  8 coefficients,  rinner =    0.800   0.800   0.800

     PseudoPot. # 5 for H  read from file:
     /storage/coda1/p-amedford6/0/shared/rich_project_chbe-medford/medford-share/data/pseudos_module/espresso/nninc/pbe/van/H.UPF
     MD5 check sum: b5ee9d7bfd3a09ee7748110bda690ff7
     Pseudo is Ultrasoft, Zval =  1.0
     Generated by new atomic code, or converted to UPF format
     Using radial grid of  615 points,  1 beta functions with:
                l(1) =   0
     Q(r) pseudized with  8 coefficients,  rinner =    0.800

     atomic species   valence    mass     pseudopotential
        Ti1           12.00    47.86700     Ti( 1.00)
        O1             6.00    15.99900     O ( 1.00)
        N1             5.00    14.00700     N ( 1.00)
        C1             4.00    12.01100     C ( 1.00)
        H1             1.00     1.00800     H ( 1.00)

     No symmetry found

   Cartesian axes

     site n.     atom                  positions (alat units)
         1           Ti1 tau(   1) = (   0.0004258   2.9801865   6.0000000  )
         2           Ti1 tau(   2) = (   3.2906075   1.4906267   6.0002472  )
         3           O1  tau(   3) = (   0.0006271   0.0005054   7.9858123  )
         4           O1  tau(   4) = (   3.2906025   0.0005020   7.3038282  )
         5           O1  tau(   5) = (   4.5942328   1.4918067   9.2879030  )
         6           O1  tau(   6) = (   1.9868534   1.4903216   9.2879459  )
         7           Ti1 tau(   7) = (   3.2907910   2.8959150   9.1758416  )
         8           Ti1 tau(   8) = (   0.0015273   1.4827037   9.2680791  )
         9           O1  tau(   9) = (   3.3107583   5.9394213  11.3440837  )
        10           O1  tau(  10) = (   0.0116148   5.9584955  10.6183126  )
        11           O1  tau(  11) = (   1.3209705   1.4681434  12.6387851  )
        12           O1  tau(  12) = (   5.3117763   1.4689694  12.6372993  )
        13           Ti1 tau(  13) = (   6.5586693   2.9297660  12.6634068  )
        14           Ti1 tau(  14) = (   3.2703198   1.4638114  12.4955107  )
        15           O1  tau(  15) = (   0.0083729   5.9498784  14.6531507  )
        16           O1  tau(  16) = (   3.3267446   5.9373244  13.9471573  )
        17           O1  tau(  17) = (   4.5400383   1.4607670  16.1300196  )
        18           O1  tau(  18) = (   2.0562451   1.4605895  16.0859588  )
        19           Ti1 tau(  19) = (   3.3219294   2.9366742  15.7081325  )
        20           Ti1 tau(  20) = (   0.0794022   1.3719971  16.1804440  )
        21           O1  tau(  21) = (   3.2904802   0.0005063   4.7018136  )
        22           O1  tau(  22) = (   0.0048811   5.8540159  17.1722642  )
        23           O1  tau(  23) = (   1.3043587   1.4918075   6.0039043  )
        24           O1  tau(  24) = (   5.2767064   1.4903225   6.0039473  )
        25           Ti1 tau(  25) = (   0.0000382   5.9609847   6.0000000  )
        26           Ti1 tau(  26) = (   3.2902200   4.4714249   6.0002472  )
        27           O1  tau(  27) = (   0.0002396   2.9813036   7.9858123  )
        28           O1  tau(  28) = (   3.2902150   2.9813002   7.3038282  )
        29           O1  tau(  29) = (   4.5938453   4.4726049   9.2879030  )
        30           O1  tau(  30) = (   1.9864658   4.4711199   9.2879459  )
        31           Ti1 tau(  31) = (   3.2891106   5.8743827   9.1763621  )
        32           Ti1 tau(  32) = (   0.0006254   4.4649316   9.2693709  )
        33           O1  tau(  33) = (   3.3036409   2.9595551  11.3414423  )
        34           O1  tau(  34) = (   0.0092240   2.9805883  10.6323155  )
        35           O1  tau(  35) = (   1.3251634   4.4629088  12.6456700  )
        36           O1  tau(  36) = (   5.3099897   4.4533368  12.6426351  )
        37           Ti1 tau(  37) = (   0.0071655   5.9203210  12.5194715  )
        38           Ti1 tau(  38) = (   3.2774562   4.4456010  12.4944480  )
        39           O1  tau(  39) = (   0.0172281   2.9510719  14.7337574  )
        40           O1  tau(  40) = (   3.3230371   2.9488945  13.9167408  )
        41           O1  tau(  41) = (   4.5572773   4.4147185  16.0816828  )
        42           O1  tau(  42) = (   2.0601761   4.4202290  16.0727324  )
        43           Ti1 tau(  43) = (   3.3574729   5.9210026  15.7440268  )
        44           Ti1 tau(  44) = (   0.0706454   4.5402764  15.7844247  )
        45           O1  tau(  45) = (   3.2900926   2.9813045   4.7018136  )
        46           O1  tau(  46) = (   1.3039711   4.4726057   6.0039043  )
        47           O1  tau(  47) = (   5.2763189   4.4711207   6.0039473  )
        48           N1  tau(  48) = (   6.3928749   2.8496863  17.7411295  )
        49           C1  tau(  49) = (   0.6235525   2.6789418  18.7295412  )
        50           H1  tau(  50) = (   1.5351458   2.1120716  18.4833693  )
        51           H1  tau(  51) = (   5.5197072   3.3230476  17.9821812  )

     number of k points=    10  Fermi-Dirac smearing, width (Ry)=  0.0073
                       cart. coord. in units 2pi/alat
        k(    1) = (   0.0000000   0.0000000   0.0000000), wk =   0.1250000
        k(    2) = (   0.0000000   0.0419351   0.0000000), wk =   0.2500000
        k(    3) = (   0.0000000  -0.0838702   0.0000000), wk =   0.1250000
        k(    4) = (   0.0379955   0.0000049   0.0000000), wk =   0.2500000
        k(    5) = (   0.0379955   0.0419400   0.0000000), wk =   0.2500000
        k(    6) = (   0.0379955  -0.0838652   0.0000000), wk =   0.2500000
        k(    7) = (   0.0379955  -0.0419301   0.0000000), wk =   0.2500000
        k(    8) = (  -0.0759910  -0.0000099   0.0000000), wk =   0.1250000
        k(    9) = (  -0.0759910   0.0419252   0.0000000), wk =   0.2500000
        k(   10) = (  -0.0759910  -0.0838800   0.0000000), wk =   0.1250000

     Initial potential from superposition of free atoms

     starting charge  372.99918, renormalised to  389.00000

     negative rho (up, down):  1.909E-02 0.000E+00

     %%%%%%%%%%%%%%%%%%%%%%%%%%%%%%%%%%%%%%%%%%%%%%%%%%%%%%%%%%%%%%%%%%%%%%%%
     %                                                                      %
     % You are using vdW-DF, which was implemented by the Thonhauser group. %
     % Please cite the following two papers that made this development      %
     % possible and the two reviews that describe the various versions:     %
     %                                                                      %
     %   T. Thonhauser et al., PRL 115, 136402 (2015).                      %
     %   T. Thonhauser et al., PRB 76, 125112 (2007).                       %
     %   K. Berland et al., Rep. Prog. Phys. 78, 066501 (2015).             %
     %   D.C. Langreth et al., J. Phys.: Condens. Matter 21, 084203 (2009). %
     %                                                                      %
     %                                                                      %
     % If you are calculating the stress with vdW-DF, please also cite:     %
     %                                                                      %
     %   R. Sabatini et al., J. Phys.: Condens. Matter 24, 424209 (2012).   %
     %                                                                      %
     %%%%%%%%%%%%%%%%%%%%%%%%%%%%%%%%%%%%%%%%%%%%%%%%%%%%%%%%%%%%%%%%%%%%%%%%

     Adding external electric field

     Computed dipole along edir(3) :
        Dipole               -4.7389 Ry au,        -12.0450 Debye
        Dipole field         -0.0089 Ry au,

        Potential amp.        0.8290 Ry
        Total length         46.3494 bohr

     Starting wfcs are  294 atomic wfcs
  @ DRIVER MODE: Message from server: STATUS
  @ DRIVER MODE: Message from server: POSDATA
  @ DRIVER MODE: Reading and sharing cell
  @ DRIVER MODE: Reading and sharing positions
  @ DRIVER MODE: Received positions

     Self-consistent Calculation

     iteration #  1     ecut=    29.40 Ry     beta= 0.05
     Davidson diagonalization with overlap
     c_bands:  4 eigenvalues not converged
     c_bands:  2 eigenvalues not converged
     c_bands:  3 eigenvalues not converged
     c_bands:  2 eigenvalues not converged
     c_bands:  2 eigenvalues not converged
     c_bands:  2 eigenvalues not converged
     c_bands:  2 eigenvalues not converged
     c_bands:  1 eigenvalues not converged
     c_bands:  1 eigenvalues not converged
     ethr =  1.00E-05,  avg # of iterations = 20.0

[...]

     total energy              =   -2847.46523124 Ry
     estimated scf accuracy    <     788.45103081 Ry

     iteration #  2     ecut=    29.40 Ry     beta= 0.05
     Davidson diagonalization with overlap
     ethr =  1.00E-02,  avg # of iterations = 15.5

[...]

     iteration # 54     ecut=    29.40 Ry     beta= 0.05
     Davidson diagonalization with overlap
     c_bands:  2 eigenvalues not converged
     ethr =  3.63E-11,  avg # of iterations = 14.8

[...]

     total energy              =   -2917.76275287 Ry
     estimated scf accuracy    <       0.00000011 Ry

     iteration # 56     ecut=    29.40 Ry     beta= 0.05
     Davidson diagonalization with overlap
     ethr =  2.79E-11,  avg # of iterations = 10.9

     negative rho (up, down):  1.796E-02 0.000E+00

     Adding external electric field

     Computed dipole along edir(3) :
        Dipole                0.1251 Ry au,          0.3179 Debye
        Dipole field          0.0002 Ry au,

        Potential amp.       -0.0219 Ry
        Total length         46.3494 bohr

     End of self-consistent calculation

          k = 0.0000 0.0000 0.0000 ( 18029 PWs)   bands (ev):

   -56.3208 -56.3148 -56.2844 -56.2807 -56.2159 -56.1814 -56.1560 -56.1406
   -56.1230 -56.1043 -56.0886 -56.0708 -55.9198 -55.7605 -55.3002 -55.2661
   -32.8827 -32.7982 -32.6673 -32.6638 -32.6355 -32.6233 -32.6072 -32.5945
   -32.5574 -32.5512 -32.5294 -32.5264 -32.4992 -32.4672 -32.4665 -32.4562
   -32.4524 -32.4210 -32.4200 -32.4140 -32.3881 -32.3768 -32.3721 -32.3414
   -32.3354 -32.3218 -32.3211 -32.3147 -32.3101 -32.3068 -32.2873 -32.2729
   -32.2724 -32.2595 -32.2563 -32.2257 -32.2200 -32.2129 -32.1329 -32.0448
   -31.9946 -31.8921 -31.7078 -31.6183 -31.5960 -31.5244 -31.4379 -31.3269
   -17.0809 -16.8142 -16.6488 -16.4946 -16.4599 -16.3488 -16.1831 -16.0593
   -16.0167 -15.9987 -15.9153 -15.8930 -15.8633 -15.8605 -15.8537 -15.8319
   -15.8283 -15.7725 -15.7497 -15.7328 -15.7073 -15.6879 -15.6646 -15.6304
   -15.5326 -15.4758 -15.4513 -15.3839 -15.3150 -14.9854 -13.8031 -13.6866
    -8.2915  -4.4466  -4.3659  -4.2703  -4.2252  -4.1833  -3.9675  -3.9213
    -3.8915  -3.7029  -3.5611  -3.5127  -3.4974  -3.4562  -3.4549  -3.2422
    -3.2034  -3.1399  -3.1342  -3.1174  -3.1128  -3.0854  -3.0783  -3.0557
    -3.0088  -2.9298  -2.8662  -2.7639  -2.7324  -2.6793  -2.6566  -2.6302
    -2.5944  -2.5852  -2.5758  -2.5569  -2.5420  -2.5279  -2.4402  -2.3942
    -2.2894  -2.1581  -2.1407  -2.1197  -1.9349  -1.8824  -1.8051  -1.7844
    -1.7548  -1.7423  -1.7127  -1.6281  -1.5549  -1.5179  -1.4479  -1.4440
    -1.3558  -1.3132  -1.2244  -1.1965  -1.1629  -1.0838  -1.0746  -1.0680
    -1.0180  -0.8246  -0.7982  -0.7912  -0.7700  -0.7073  -0.6503  -0.6133
    -0.5553  -0.5275  -0.4866  -0.4015  -0.3943  -0.3589  -0.3377  -0.3231
    -0.2942  -0.2891  -0.0999  -0.0954  -0.0507  -0.0381   0.0474   0.2012
     0.2942   0.3325   0.4056   0.6430   0.7214   0.7984   0.9122   1.2940
     1.3400   2.5498   2.8165   2.8886   2.9045   2.9454   3.0400   3.0514
     3.2681   3.2778   3.3041   3.3239

[...]

          k = 0.0380-0.0419 0.0000 ( 17876 PWs)   bands (ev):

[...]

          k =-0.0760-0.0000 0.0000 ( 17886 PWs)   bands (ev):

[...]

          k =-0.0760-0.0839 0.0000 ( 17948 PWs)   bands (ev):

   -56.3053 -56.2997 -56.2987 -56.2967 -56.2104 -56.1724 -56.1613 -56.1494
   -56.1071 -56.1036 -56.0893 -56.0862 -55.9183 -55.7619 -55.2832 -55.2829
   -32.6892 -32.6823 -32.6141 -32.6128 -32.5964 -32.5935 -32.5919 -32.5828
   -32.5237 -32.5191 -32.5186 -32.5067 -32.4814 -32.4523 -32.4460 -32.4361
   -32.4295 -32.4256 -32.4220 -32.4196 -32.4183 -32.4183 -32.4161 -32.3865
   -32.3826 -32.3653 -32.3524 -32.3408 -32.3298 -32.3209 -32.3193 -32.3110
   -32.3092 -32.3026 -32.3011 -32.2826 -32.2784 -32.2090 -32.1354 -32.0665
   -31.9983 -31.9434 -31.6088 -31.6085 -31.5206 -31.5204 -31.4813 -31.4811
   -16.5272 -16.4867 -16.3168 -16.2542 -16.2430 -16.2308 -16.1882 -16.0796
   -16.0450 -16.0257 -16.0045 -15.9924 -15.9705 -15.9596 -15.8663 -15.8537
   -15.8504 -15.8281 -15.7894 -15.7876 -15.7842 -15.7717 -15.7559 -15.7538
   -15.7191 -15.6447 -15.6405 -15.4211 -15.3296 -15.2634 -13.7885 -13.7881
    -8.2948  -4.0933  -3.8165  -3.7659  -3.6508  -3.5598  -3.4902  -3.4688
    -3.3936  -3.2747  -3.2152  -3.2079  -3.1983  -3.1677  -3.1610  -3.1399
    -3.1297  -3.1170  -3.0740  -3.0538  -3.0380  -3.0290  -3.0018  -2.9890
    -2.9664  -2.9561  -2.9435  -2.9193  -2.8836  -2.8818  -2.8529  -2.8451
    -2.6232  -2.6063  -2.5429  -2.4956  -2.4709  -2.4602  -2.4565  -2.3984
    -2.3774  -2.3565  -2.2595  -2.1937  -2.0401  -2.0231  -2.0151  -1.9766
    -1.9439  -1.8132  -1.7528  -1.7350  -1.7016  -1.6515  -1.6426  -1.5802
    -1.5630  -1.5260  -1.4565  -1.4193  -1.3738  -1.3546  -1.2789  -1.2724
    -1.2406  -1.1872  -1.1079  -1.0864  -1.0688  -1.0567  -1.0021  -0.9623
    -0.9179  -0.8646  -0.7934  -0.6989  -0.6184  -0.4684  -0.4078  -0.3063
    -0.2453  -0.2074  -0.1533  -0.1246  -0.0387  -0.0062  -0.0038   0.0562
     0.0930   0.1932   0.1983   0.2160   0.4441   1.0838   1.0850   1.1593
     1.1601   2.5545   3.0820   3.0959   3.1074   3.1556   3.3137   3.3197
     3.3471   3.3495   3.4392   3.5004

     the Fermi energy is     2.8176 ev

!    total energy              =   -2917.76281395 Ry
     estimated scf accuracy    <       0.00000002 Ry
     smearing contrib. (-TS)   =      -0.02766891 Ry
     internal energy E=F+TS    =   -2917.73514504 Ry

     The total energy is F=E-TS. E is the sum of the following terms:
     one-electron contribution =  -24683.51089882 Ry
     hartree contribution      =   12421.59656738 Ry
     xc contribution           =    -479.08559979 Ry
     ewald contribution        =    9823.26475667 Ry
     electric field correction =       0.00002951 Ry

     convergence has been achieved in  56 iterations

     Forces acting on atoms (cartesian axes, Ry/au):

     atom    1 type  1   force =     0.00012764   -0.00025070    0.09635601
     atom    2 type  1   force =    -0.00005918   -0.00048250   -0.17580447
     atom    3 type  2   force =     0.00009013   -0.00007781   -0.02478368
     atom    4 type  2   force =     0.00006418   -0.00165961    0.05389205
     atom    5 type  2   force =    -0.01236326   -0.00181772    0.00350622
     atom    6 type  2   force =     0.01433588   -0.00153492    0.00390998
     atom    7 type  1   force =     0.00061072    0.00062339   -0.01169683
     atom    8 type  1   force =    -0.00020313    0.02056633    0.02641266
     atom    9 type  2   force =    -0.00055018    0.00047514   -0.00021609
     atom   10 type  2   force =    -0.00145450   -0.00067143   -0.01374937
     atom   11 type  2   force =     0.00038127    0.00025927   -0.00017930
     atom   12 type  2   force =    -0.00051366    0.00053824   -0.00041215
     atom   13 type  1   force =     0.00052448   -0.00033203   -0.00088356
     atom   14 type  1   force =    -0.00116469    0.00108952   -0.00116225
     atom   15 type  2   force =    -0.00000467   -0.00016916    0.00076721
     atom   16 type  2   force =     0.00022521    0.00067817   -0.00028770
     atom   17 type  2   force =    -0.00066607    0.00046182   -0.00079148
     atom   18 type  2   force =     0.00109617    0.00079099    0.00059614
     atom   19 type  1   force =    -0.00031297    0.00066637   -0.00119383
     atom   20 type  1   force =    -0.00016893    0.00037665   -0.00054018
     atom   21 type  2   force =     0.00004954    0.00002446    0.10337516
     atom   22 type  2   force =     0.00041512   -0.00076288    0.00077588
     atom   23 type  2   force =    -0.07126296   -0.00005459   -0.02763117
     atom   24 type  2   force =     0.07122983    0.00034244   -0.02773405
     atom   25 type  1   force =     0.00019287   -0.00036244    0.09606530
     atom   26 type  1   force =     0.00000909   -0.00026101   -0.17596092
     atom   27 type  2   force =     0.00021956   -0.00037364   -0.02357423
     atom   28 type  2   force =     0.00006514   -0.00138303    0.05395472
     atom   29 type  2   force =    -0.01268563    0.00047460    0.00326721
     atom   30 type  2   force =     0.01463178    0.00112684    0.00364973
     atom   31 type  1   force =     0.00072238    0.00352212   -0.01313242
     atom   32 type  1   force =     0.00000170   -0.02242381    0.02631210
     atom   33 type  2   force =     0.00005773   -0.00002044    0.00097767
     atom   34 type  2   force =    -0.00088640   -0.00054411   -0.01872159
     atom   35 type  2   force =    -0.00027439   -0.00022655    0.00018596
     atom   36 type  2   force =     0.00013215   -0.00033276   -0.00003603
     atom   37 type  1   force =     0.00038699    0.00060642   -0.00050833
     atom   38 type  1   force =    -0.00131499   -0.00095239   -0.00052416
     atom   39 type  2   force =     0.00002329    0.00111778   -0.00044715
     atom   40 type  2   force =    -0.00013758   -0.00011834   -0.00024326
     atom   41 type  2   force =     0.00055789    0.00024462    0.00021954
     atom   42 type  2   force =    -0.00078306    0.00002529   -0.00023765
     atom   43 type  1   force =    -0.00043771   -0.00019951   -0.00077184
     atom   44 type  1   force =    -0.00017972    0.00064015   -0.00091676
     atom   45 type  2   force =     0.00006532   -0.00001197    0.10335366
     atom   46 type  2   force =    -0.07124744   -0.00006204   -0.02764055
     atom   47 type  2   force =     0.07122029    0.00043135   -0.02770793
     atom   48 type  3   force =    -0.00043372   -0.00023181   -0.00010336
     atom   49 type  4   force =    -0.00253554    0.00175790    0.00183324
     atom   50 type  5   force =     0.00093645   -0.00097234   -0.00207997
     atom   51 type  5   force =     0.00126760   -0.00055033    0.00026180

     Total force =     0.368954     Total SCF correction =     0.000372
  @ DRIVER MODE: Message from server: STATUS
  @ DRIVER MODE: Message from server: GETFORCE
  @ DRIVER MODE: Returning v,forces,stress,ensemble

     Writing output data file ./calc.save/
  @ DRIVER MODE: Message from server: EXIT
  @ DRIVE MODE: Exiting

     General routines

     Parallel routines

   This run was terminated on:  21:28:33  23Aug2021

   JOB DONE.