     Program PWSCF v.6.7GPU starts on 22Sep2021 at 16:54:19

     R & G space division:  proc/nbgrp/npool/nimage =      10
     Reading input from /storage/home/hcoda1/3/ntian30/research/carbon/CxH_vib/CH_calc/ads_slab/CHN2OH_a/out_0019/pw.inp
Warning: card &CELL ignored
Warning: card   CELL_DYNAMICS='IPI', ignored
Warning: card / ignored

     Current dimensions of program PWSCF are:
     Max number of different atomic species (ntypx) = 10
     Max number of k-points (npk) =  40000
     Max angular momentum in pseudopotentials (lmaxx) =  3
     Presently no symmetry can be used with electric field

     Message from routine cell_base_init:
     DEPRECATED: use true lattice parameter, not A to a.u. conversion factor

     IMPORTANT: XC functional enforced from input :
     Exchange-correlation= BEEF-VDW
                           (   1   4  43  14   2   0   0)
     Any further DFT definition will be discarded
     Please, verify this is what you really want

  @ DRIVER MODE: Connecting to
 qe_1139763_2934093.sched-torque.pace.gatech.eduf6v_umzu_scratch
  using UNIX socket
  @ DRIVER MODE: Message from server: STATUS
  @ DRIVER MODE: Message from server: INIT
  @ DRIVER MODE: Receiving replica           0          -1
  @ DRIVER MODE: Receiving encoded integer          25
  @ DRIVER MODE:  SCF:  T  FORCE:  T  STRESS:  F  VC:  F  ENSEMBLE:  F
  @ DRIVER MODE:  SCF:  T  FORCE:  T  STRESS:  F  VC:  F  ENSEMBLE:  F

     Using Slab Decomposition

     bravais-lattice index     =            0
     lattice parameter (alat)  =       1.8897  a.u.
     unit-cell volume          =    6658.9804 (a.u.)^3
     number of atoms/cell      =           53
     number of atomic types    =            5
     number of electrons       =       400.00
     number of Kohn-Sham states=          210
     kinetic-energy cutoff     =      29.3995  Ry
     charge density cutoff     =     293.9946  Ry
     scf convergence threshold =      7.3E-08
     mixing beta               =       0.0500
     number of iterations used =            8  plain     mixing
     Exchange-correlation= BEEF-VDW
                           (   1   4  43  14   2   0   0)

     celldm(1)=   1.889726  celldm(2)=   0.000000  celldm(3)=   0.000000
     celldm(4)=   0.000000  celldm(5)=   0.000000  celldm(6)=   0.000000

     crystal axes: (cart. coord. in units of alat)
               a(1) = (   6.579727   0.000000   0.000000 )
               a(2) = (  -0.000775   5.961596   0.000000 )
               a(3) = (   0.000000   0.000000  25.155947 )

     reciprocal axes: (cart. coord. in units 2 pi/alat)
               b(1) = (  0.151982  0.000020  0.000000 )
               b(2) = (  0.000000  0.167740  0.000000 )
               b(3) = (  0.000000  0.000000  0.039752 )

     PseudoPot. # 1 for Ti read from file:
     /storage/coda1/p-amedford6/0/shared/rich_project_chbe-medford/medford-share/data/pseudos_module/espresso/nninc/pbe/van/Ti.UPF
     MD5 check sum: 8e4df49b7f0d34bbd5052bf3f5ea0213
     Pseudo is Ultrasoft, Zval = 12.0
     Generated by new atomic code, or converted to UPF format
     Using radial grid of  851 points,  6 beta functions with:
                l(1) =   0
                l(2) =   0
                l(3) =   1
                l(4) =   1
                l(5) =   2
                l(6) =   2
     Q(r) pseudized with  8 coefficients,  rinner =    1.000   1.000   1.000
                                                       1.000   1.000

     PseudoPot. # 2 for O  read from file:
     /storage/coda1/p-amedford6/0/shared/rich_project_chbe-medford/medford-share/data/pseudos_module/espresso/nninc/pbe/van/O.UPF
     MD5 check sum: 78c19812648e8988a0fe644b0f25305e
     Pseudo is Ultrasoft, Zval =  6.0
     Generated by new atomic code, or converted to UPF format
     Using radial grid of  737 points,  4 beta functions with:
                l(1) =   0
                l(2) =   0
                l(3) =   1
                l(4) =   1
     Q(r) pseudized with  8 coefficients,  rinner =    0.800   0.800   0.800

     PseudoPot. # 3 for N  read from file:
     /storage/coda1/p-amedford6/0/shared/rich_project_chbe-medford/medford-share/data/pseudos_module/espresso/nninc/pbe/van/N.UPF
     MD5 check sum: 90d10febe142ad51ac9d5be1deb811c4
     Pseudo is Ultrasoft, Zval =  5.0
     Generated by new atomic code, or converted to UPF format
     Using radial grid of  729 points,  4 beta functions with:
                l(1) =   0
                l(2) =   0
                l(3) =   1
                l(4) =   1
     Q(r) pseudized with  8 coefficients,  rinner =    0.800   0.800   0.800

     PseudoPot. # 4 for C  read from file:
     /storage/coda1/p-amedford6/0/shared/rich_project_chbe-medford/medford-share/data/pseudos_module/espresso/nninc/pbe/van/C.UPF
     MD5 check sum: 1a69bf6b8db32088f5b2163dbdb77a27
     Pseudo is Ultrasoft, Zval =  4.0
     Generated by new atomic code, or converted to UPF format
     Using radial grid of  721 points,  4 beta functions with:
                l(1) =   0
                l(2) =   0
                l(3) =   1
                l(4) =   1
     Q(r) pseudized with  8 coefficients,  rinner =    0.800   0.800   0.800

     PseudoPot. # 5 for H  read from file:
     /storage/coda1/p-amedford6/0/shared/rich_project_chbe-medford/medford-share/data/pseudos_module/espresso/nninc/pbe/van/H.UPF
     MD5 check sum: b5ee9d7bfd3a09ee7748110bda690ff7
     Pseudo is Ultrasoft, Zval =  1.0
     Generated by new atomic code, or converted to UPF format
     Using radial grid of  615 points,  1 beta functions with:
                l(1) =   0
     Q(r) pseudized with  8 coefficients,  rinner =    0.800

     atomic species   valence    mass     pseudopotential
        Ti1           12.00    47.86700     Ti( 1.00)
        O1             6.00    15.99900     O ( 1.00)
        N1             5.00    14.00700     N ( 1.00)
        C1             4.00    12.01100     C ( 1.00)
        H1             1.00     1.00800     H ( 1.00)

     No symmetry found

   Cartesian axes

     site n.     atom                  positions (alat units)
         1           Ti1 tau(   1) = (   0.0004258   2.9801865   6.0000000  )
         2           Ti1 tau(   2) = (   3.2906075   1.4906267   6.0002472  )
         3           O1  tau(   3) = (   0.0006271   0.0005054   7.9858123  )
         4           O1  tau(   4) = (   3.2906025   0.0005020   7.3038282  )
         5           O1  tau(   5) = (   4.5942328   1.4918067   9.2879030  )
         6           O1  tau(   6) = (   1.9868534   1.4903216   9.2879459  )
         7           Ti1 tau(   7) = (   3.2907910   2.8959150   9.1758416  )
         8           Ti1 tau(   8) = (   0.0015273   1.4827037   9.2680791  )
         9           O1  tau(   9) = (   3.2947431   5.9554071  11.2675382  )
        10           O1  tau(  10) = (   0.0116148   5.9584955  10.6183126  )
        11           O1  tau(  11) = (   1.2939190   1.5012022  12.6324650  )
        12           O1  tau(  12) = (   5.3075194   1.4952059  12.6199201  )
        13           Ti1 tau(  13) = (   0.0106221   2.8553259  12.7114016  )
        14           Ti1 tau(  14) = (   3.3038960   1.3182849  12.6556579  )
        15           O1  tau(  15) = (   6.5780848   0.0092190  14.6493773  )
        16           O1  tau(  16) = (   3.3025004   0.0387551  13.8658611  )
        17           O1  tau(  17) = (   4.5583283   1.5306594  16.0644060  )
        18           O1  tau(  18) = (   2.0361898   1.5392772  16.0217891  )
        19           Ti1 tau(  19) = (   3.3091865   3.0111069  15.6373089  )
        20           Ti1 tau(  20) = (   0.0377650   1.3505479  16.0707495  )
        21           O1  tau(  21) = (   3.2904802   0.0005063   4.7018136  )
        22           O1  tau(  22) = (   0.0439016   5.9493915  17.1867805  )
        23           O1  tau(  23) = (   1.3043587   1.4918075   6.0039043  )
        24           O1  tau(  24) = (   5.2767064   1.4903225   6.0039473  )
        25           Ti1 tau(  25) = (   0.0000382   5.9609847   6.0000000  )
        26           Ti1 tau(  26) = (   3.2902200   4.4714249   6.0002472  )
        27           O1  tau(  27) = (   0.0002396   2.9813036   7.9858123  )
        28           O1  tau(  28) = (   3.2902150   2.9813002   7.3038282  )
        29           O1  tau(  29) = (   4.5938453   4.4726049   9.2879030  )
        30           O1  tau(  30) = (   1.9864658   4.4711199   9.2879459  )
        31           Ti1 tau(  31) = (   3.2891106   5.8743827   9.1763621  )
        32           Ti1 tau(  32) = (   0.0006254   4.4649316   9.2693709  )
        33           O1  tau(  33) = (   3.2958776   3.0336607  11.2353185  )
        34           O1  tau(  34) = (   0.0092240   2.9805883  10.6323155  )
        35           O1  tau(  35) = (   1.3000586   4.4853303  12.6229424  )
        36           O1  tau(  36) = (   5.2993189   4.4901910  12.6110906  )
        37           Ti1 tau(  37) = (   0.0093010   5.8444503  12.6145921  )
        38           Ti1 tau(  38) = (   3.2999333   4.4129019  12.4053696  )
        39           O1  tau(  39) = (   6.5685983   3.0141634  14.6646344  )
        40           O1  tau(  40) = (   3.3157979   2.9893391  13.8470085  )
        41           O1  tau(  41) = (   4.5469136   4.4558096  16.0384726  )
        42           O1  tau(  42) = (   2.0285042   4.4377151  15.9822253  )
        43           Ti1 tau(  43) = (   3.3362675   0.0317196  16.2890182  )
        44           Ti1 tau(  44) = (   0.0499865   4.4862307  15.8577502  )
        45           O1  tau(  45) = (   3.2900926   2.9813045   4.7018136  )
        46           O1  tau(  46) = (   1.3039711   4.4726057   6.0039043  )
        47           O1  tau(  47) = (   5.2763189   4.4711207   6.0039473  )
        48           N1  tau(  48) = (   0.0045878   3.1533891  18.5964175  )
        49           N1  tau(  49) = (   0.0147781   3.0160983  17.3860304  )
        50           C1  tau(  50) = (   0.1535999   3.3096653  19.7680592  )
        51           H1  tau(  51) = (   6.1093577   3.4501394  20.6313668  )
        52           O1  tau(  52) = (   3.1701150   5.9596689  18.1025665  )
        53           H1  tau(  53) = (   2.2867615   0.0439400  18.5018857  )

     number of k points=    10  Fermi-Dirac smearing, width (Ry)=  0.0073
                       cart. coord. in units 2pi/alat
        k(    1) = (   0.0000000   0.0000000   0.0000000), wk =   0.1250000
        k(    2) = (   0.0000000   0.0419351   0.0000000), wk =   0.2500000
        k(    3) = (   0.0000000  -0.0838702   0.0000000), wk =   0.1250000
        k(    4) = (   0.0379955   0.0000049   0.0000000), wk =   0.2500000
        k(    5) = (   0.0379955   0.0419400   0.0000000), wk =   0.2500000
        k(    6) = (   0.0379955  -0.0838652   0.0000000), wk =   0.2500000
        k(    7) = (   0.0379955  -0.0419301   0.0000000), wk =   0.2500000
        k(    8) = (  -0.0759910  -0.0000099   0.0000000), wk =   0.1250000
        k(    9) = (  -0.0759910   0.0419252   0.0000000), wk =   0.2500000
        k(   10) = (  -0.0759910  -0.0838800   0.0000000), wk =   0.1250000

     Initial potential from superposition of free atoms

     starting charge  383.99917, renormalised to  400.00000

     negative rho (up, down):  1.461E-02 0.000E+00

     %%%%%%%%%%%%%%%%%%%%%%%%%%%%%%%%%%%%%%%%%%%%%%%%%%%%%%%%%%%%%%%%%%%%%%%%
     %                                                                      %
     % You are using vdW-DF, which was implemented by the Thonhauser group. %
     % Please cite the following two papers that made this development      %
     % possible and the two reviews that describe the various versions:     %
     %                                                                      %
     %   T. Thonhauser et al., PRL 115, 136402 (2015).                      %
     %   T. Thonhauser et al., PRB 76, 125112 (2007).                       %
     %   K. Berland et al., Rep. Prog. Phys. 78, 066501 (2015).             %
     %   D.C. Langreth et al., J. Phys.: Condens. Matter 21, 084203 (2009). %
     %                                                                      %
     %                                                                      %
     % If you are calculating the stress with vdW-DF, please also cite:     %
     %                                                                      %
     %   R. Sabatini et al., J. Phys.: Condens. Matter 24, 424209 (2012).   %
     %                                                                      %
     %%%%%%%%%%%%%%%%%%%%%%%%%%%%%%%%%%%%%%%%%%%%%%%%%%%%%%%%%%%%%%%%%%%%%%%%

     Adding external electric field

     Computed dipole along edir(3) :
        Dipole              -10.4151 Ry au,        -26.4725 Debye
        Dipole field         -0.0197 Ry au,

        Potential amp.        1.8220 Ry
        Total length         46.3494 bohr

     Starting wfcs are  302 atomic wfcs
  @ DRIVER MODE: Message from server: STATUS
  @ DRIVER MODE: Message from server: POSDATA
  @ DRIVER MODE: Reading and sharing cell
  @ DRIVER MODE: Reading and sharing positions
  @ DRIVER MODE: Received positions

     Self-consistent Calculation

     iteration #  1     ecut=    29.40 Ry     beta= 0.05
     Davidson diagonalization with overlap
     c_bands:  1 eigenvalues not converged
     c_bands:  1 eigenvalues not converged
     c_bands:  1 eigenvalues not converged
     c_bands:  1 eigenvalues not converged
     c_bands:  3 eigenvalues not converged
     c_bands:  2 eigenvalues not converged
     c_bands:  3 eigenvalues not converged
     c_bands:  2 eigenvalues not converged
     c_bands:  4 eigenvalues not converged
     c_bands:  2 eigenvalues not converged
     ethr =  1.00E-05,  avg # of iterations = 20.0

[...]

     total energy              =   -2482.18108457 Ry
     estimated scf accuracy    <    5431.68976549 Ry

     iteration #  2     ecut=    29.40 Ry     beta= 0.05
     Davidson diagonalization with overlap
     ethr =  1.00E-02,  avg # of iterations = 23.0

[...]

     iteration # 50     ecut=    29.40 Ry     beta= 0.05
     Davidson diagonalization with overlap
     c_bands:  2 eigenvalues not converged
     ethr =  2.39E-06,  avg # of iterations = 10.1

[...]

     total energy              =   -2970.22402377 Ry
     estimated scf accuracy    <       0.00000008 Ry

     iteration # 78     ecut=    29.40 Ry     beta= 0.05
     Davidson diagonalization with overlap
     ethr =  1.97E-11,  avg # of iterations =  3.2

     negative rho (up, down):  1.521E-02 0.000E+00

     Adding external electric field

     Computed dipole along edir(3) :
        Dipole                0.3042 Ry au,          0.7732 Debye
        Dipole field          0.0006 Ry au,

        Potential amp.       -0.0532 Ry
        Total length         46.3494 bohr

     End of self-consistent calculation

          k = 0.0000 0.0000 0.0000 ( 18029 PWs)   bands (ev):

   -56.8454 -56.8118 -56.0047 -55.9695 -55.7452 -55.6808 -55.4145 -55.3898
   -55.3806 -55.3739 -55.3098 -55.2579 -55.2554 -55.2459 -55.0647 -55.0572
   -33.2668 -33.1208 -33.0928 -33.0210 -32.9306 -32.8936 -32.4890 -32.2253
   -32.2232 -32.1946 -32.1456 -32.1436 -32.1149 -31.9768 -31.9648 -31.9123
   -31.8858 -31.8705 -31.8451 -31.7957 -31.7606 -31.7438 -31.7385 -31.7362
   -31.7219 -31.6571 -31.6531 -31.6238 -31.6194 -31.6086 -31.6005 -31.5389
   -31.5265 -31.5085 -31.5066 -31.4816 -31.4777 -31.4602 -31.4488 -31.4273
   -31.4204 -31.4001 -31.3252 -31.3082 -31.3078 -31.2757 -31.2738 -31.2620
   -19.0036 -16.9664 -16.4424 -16.1868 -16.1730 -16.0801 -16.0506 -16.0391
   -15.9582 -15.7641 -15.7022 -15.6302 -15.6088 -15.5141 -15.3896 -15.2931
   -15.1634 -15.0884 -15.0248 -15.0156 -15.0053 -14.9853 -14.8715 -14.8675
   -14.8627 -14.8199 -14.7742 -14.6156 -14.5282 -14.3669 -14.3336 -13.9121
   -13.8046 -13.6270  -6.2435  -5.0427  -4.5359  -3.9451  -3.9149  -3.8448
    -3.7415  -3.5715  -3.5696  -3.4420  -3.3756  -3.2519  -3.2413  -3.2253
    -3.1574  -3.1396  -2.9929  -2.9442  -2.9286  -2.8239  -2.7931  -2.6397
    -2.6133  -2.5186  -2.4694  -2.4352  -2.3795  -2.3529  -2.2777  -2.2710
    -2.2519  -2.1650  -2.1643  -2.1318  -2.0529  -2.0405  -1.9715  -1.9239
    -1.8853  -1.8262  -1.8011  -1.7273  -1.7238  -1.6022  -1.5209  -1.4794
    -1.4359  -1.4269  -1.3668  -1.3111  -1.2017  -1.1754  -1.0858  -1.0404
    -1.0275  -0.9773  -0.8885  -0.8600  -0.7916  -0.7191  -0.7012  -0.6149
    -0.5860  -0.5629  -0.4567  -0.4375  -0.3830  -0.3571  -0.3262  -0.3138
    -0.2362  -0.1191  -0.1049  -0.0397   0.0091   0.0373   0.1296   0.2217
     0.2690   0.3191   0.3486   0.3669   0.4435   0.4705   0.4928   0.5449
     0.5741   0.6071   0.6126   0.7166   0.7476   0.8107   0.8695   0.8891
     0.9981   1.0363   1.0943   1.1441   1.1851   1.5279   1.6346   1.8734
     2.4423   2.6087   2.8848   3.0174   3.3421   3.4288   3.4371   3.4431
     3.6808   3.8176

[...]

          k = 0.0380-0.0419 0.0000 ( 17876 PWs)   bands (ev):

[...]

          k =-0.0760-0.0000 0.0000 ( 17886 PWs)   bands (ev):

[...]

          k =-0.0760-0.0839 0.0000 ( 17948 PWs)   bands (ev):

   -56.8292 -56.8279 -55.9923 -55.9817 -55.7404 -55.6855 -55.3981 -55.3969
   -55.3858 -55.3724 -55.3135 -55.2565 -55.2537 -55.2474 -55.0661 -55.0585
   -33.1072 -33.1059 -33.0846 -33.0832 -32.9748 -32.9740 -32.3137 -32.3052
   -32.1873 -32.1752 -32.1724 -32.1654 -32.0476 -32.0038 -31.9702 -31.9610
   -31.9133 -31.9081 -31.7496 -31.7488 -31.7173 -31.6647 -31.6618 -31.6538
   -31.6454 -31.6332 -31.6189 -31.6173 -31.6118 -31.6047 -31.5908 -31.5801
   -31.5793 -31.5781 -31.5493 -31.5239 -31.5094 -31.4979 -31.4631 -31.4562
   -31.4518 -31.4454 -31.4136 -31.3814 -31.3299 -31.2968 -31.2778 -31.2646
   -19.0010 -16.3326 -16.3299 -16.2746 -16.2730 -16.1669 -16.0333 -16.0277
   -15.7798 -15.7500 -15.5545 -15.5144 -15.4654 -15.4118 -15.3733 -15.3712
   -15.2326 -15.2212 -15.1172 -15.0383 -15.0169 -14.9842 -14.9729 -14.9515
   -14.9458 -14.8741 -14.7896 -14.7271 -14.7134 -14.5449 -14.4670 -13.9091
   -13.9084 -13.6314  -6.2420  -5.0109  -3.9473  -3.7707  -3.5926  -3.3977
    -3.3953  -3.3903  -3.3825  -3.1535  -3.1429  -2.9691  -2.9626  -2.9369
    -2.8759  -2.8641  -2.7578  -2.6894  -2.6841  -2.6749  -2.6497  -2.6238
    -2.6181  -2.5543  -2.4972  -2.3901  -2.3666  -2.3316  -2.3112  -2.2973
    -2.1780  -2.1515  -2.1403  -2.1111  -2.0960  -2.0827  -2.0463  -2.0216
    -1.8681  -1.8302  -1.7215  -1.7070  -1.6868  -1.6432  -1.6261  -1.6051
    -1.5788  -1.5445  -1.5400  -1.4536  -1.4299  -1.3728  -1.2895  -1.2122
    -1.1634  -1.1514  -1.0894  -1.0377  -0.9282  -0.9039  -0.8684  -0.8478
    -0.8199  -0.7616  -0.7312  -0.6257  -0.5406  -0.5098  -0.4885  -0.4833
    -0.4485  -0.4150  -0.3929  -0.2783  -0.2661  -0.2514  -0.1527  -0.0578
     0.0264   0.0866   0.1016   0.1803   0.2762   0.3206   0.3859   0.4496
     0.4922   0.5070   0.6795   0.7284   0.8515   0.8760   0.9075   0.9699
     0.9836   0.9880   1.0103   1.0198   1.0484   1.1276   1.5539   1.7891
     3.0295   3.0324   3.0885   3.0947   3.3984   3.4018   3.5071   3.5097
     3.7921   3.8036

     the Fermi energy is     2.2179 ev

!    total energy              =   -2970.22404002 Ry
     estimated scf accuracy    <       0.00000006 Ry
     smearing contrib. (-TS)   =      -0.00327516 Ry
     internal energy E=F+TS    =   -2970.22076486 Ry

     The total energy is F=E-TS. E is the sum of the following terms:
     one-electron contribution =  -23874.83879784 Ry
     hartree contribution      =   12028.58031650 Ry
     xc contribution           =    -491.45546026 Ry
     ewald contribution        =    9367.49300208 Ry
     electric field correction =       0.00017465 Ry

     convergence has been achieved in  78 iterations

     Forces acting on atoms (cartesian axes, Ry/au):

     atom    1 type  1   force =     0.00006164   -0.00042413    0.12341532
     atom    2 type  1   force =    -0.00004636    0.00024160   -0.15536651
     atom    3 type  2   force =     0.00000919   -0.00007152   -0.06317870
     atom    4 type  2   force =     0.00000821    0.00024095    0.01791972
     atom    5 type  2   force =    -0.00300253   -0.00167722   -0.01289419
     atom    6 type  2   force =     0.00468231   -0.00105612   -0.01336563
     atom    7 type  1   force =    -0.00007519   -0.00670538    0.05749048
     atom    8 type  1   force =     0.00032710    0.01201841    0.09292029
     atom    9 type  2   force =    -0.00005528   -0.00007604   -0.00013808
     atom   10 type  2   force =    -0.00146554    0.00206134   -0.05864298
     atom   11 type  2   force =    -0.00002330    0.00037635   -0.00010838
     atom   12 type  2   force =    -0.00007314    0.00059677   -0.00004704
     atom   13 type  1   force =    -0.00017687    0.00091978   -0.00017927
     atom   14 type  1   force =    -0.00007559    0.00065333   -0.00042602
     atom   15 type  2   force =     0.00000584   -0.00065351   -0.00059673
     atom   16 type  2   force =    -0.00013373    0.00009003   -0.00108019
     atom   17 type  2   force =    -0.00004381   -0.00048654   -0.00031616
     atom   18 type  2   force =    -0.00007250    0.00042905   -0.00043351
     atom   19 type  1   force =     0.00039826   -0.00023797    0.00116666
     atom   20 type  1   force =    -0.00039430    0.00062372    0.00028827
     atom   21 type  2   force =     0.00003466    0.00021453    0.09798901
     atom   22 type  2   force =     0.00042484   -0.00010872    0.00085150
     atom   23 type  2   force =    -0.08221012    0.00004130   -0.03275768
     atom   24 type  2   force =     0.08209184    0.00048012   -0.03283002
     atom   25 type  1   force =     0.00009463   -0.00059931    0.12342786
     atom   26 type  1   force =    -0.00015903   -0.00150563   -0.15593068
     atom   27 type  2   force =     0.00006942   -0.00069294   -0.06139840
     atom   28 type  2   force =     0.00001990    0.00205653    0.01318507
     atom   29 type  2   force =    -0.00128541    0.00546734   -0.01606879
     atom   30 type  2   force =     0.00295311    0.00579938   -0.01651604
     atom   31 type  1   force =    -0.00011284    0.00211448    0.04132660
     atom   32 type  1   force =     0.00053020   -0.01544689    0.09260246
     atom   33 type  2   force =    -0.00021114   -0.00073855   -0.00057961
     atom   34 type  2   force =    -0.00141108    0.00203122   -0.07250761
     atom   35 type  2   force =     0.00019436   -0.00081106    0.00004790
     atom   36 type  2   force =    -0.00023737   -0.00092046    0.00009719
     atom   37 type  1   force =    -0.00023468   -0.00111907   -0.00022610
     atom   38 type  1   force =    -0.00008389   -0.00150359    0.00071206
     atom   39 type  2   force =     0.00035161   -0.00049124    0.00001715
     atom   40 type  2   force =    -0.00003376   -0.00067816   -0.00129099
     atom   41 type  2   force =     0.00032741    0.00022107    0.00012606
     atom   42 type  2   force =    -0.00002391    0.00032953    0.00061966
     atom   43 type  1   force =    -0.00014164   -0.00002640    0.00089262
     atom   44 type  1   force =    -0.00025414    0.00023756   -0.00083591
     atom   45 type  2   force =     0.00002561    0.00002432    0.09776519
     atom   46 type  2   force =    -0.08227800   -0.00001235   -0.03279057
     atom   47 type  2   force =     0.08212942    0.00043801   -0.03280468
     atom   48 type  3   force =    -0.00072468   -0.00070668   -0.00103209
     atom   49 type  3   force =     0.00043154    0.00058563    0.00055939
     atom   50 type  4   force =    -0.00339029    0.00137561    0.00615260
     atom   51 type  5   force =     0.00342696   -0.00153644   -0.00513639
     atom   52 type  2   force =    -0.00035129   -0.00042341   -0.00025018
     atom   53 type  5   force =     0.00018338   -0.00095866    0.00015606

     Total force =     0.412459     Total SCF correction =     0.000449
  @ DRIVER MODE: Message from server: STATUS
  @ DRIVER MODE: Message from server: GETFORCE
  @ DRIVER MODE: Returning v,forces,stress,ensemble

     Writing output data file ./calc.save/
  @ DRIVER MODE: Message from server: EXIT
  @ DRIVE MODE: Exiting

     General routines

     Parallel routines

   This run was terminated on:  17:16:46  22Sep2021

   JOB DONE.