     Program PWSCF v.6.7GPU starts on 16Sep2021 at  5:10:57

     R & G space division:  proc/nbgrp/npool/nimage =      10
     Reading input from /storage/home/hcoda1/3/ntian30/research/carbon/CxH_vib/H2O_calc/ads_slab/CH3N2HH2O_a/out_0042/pw.inp
Warning: card &CELL ignored
Warning: card   CELL_DYNAMICS='IPI', ignored
Warning: card / ignored

     Current dimensions of program PWSCF are:
     Max number of different atomic species (ntypx) = 10
     Max number of k-points (npk) =  40000
     Max angular momentum in pseudopotentials (lmaxx) =  3
     Presently no symmetry can be used with electric field

     Message from routine cell_base_init:
     DEPRECATED: use true lattice parameter, not A to a.u. conversion factor

     IMPORTANT: XC functional enforced from input :
     Exchange-correlation= BEEF-VDW
                           (   1   4  43  14   2   0   0)
     Any further DFT definition will be discarded
     Please, verify this is what you really want

  @ DRIVER MODE: Connecting to
 qe_1139763_2852617.sched-torque.pace.gatech.eduv_nlq0h3_scratch
  using UNIX socket
  @ DRIVER MODE: Message from server: STATUS
  @ DRIVER MODE: Message from server: INIT
  @ DRIVER MODE: Receiving replica           0          -1
  @ DRIVER MODE: Receiving encoded integer          25
  @ DRIVER MODE:  SCF:  T  FORCE:  T  STRESS:  F  VC:  F  ENSEMBLE:  F
  @ DRIVER MODE:  SCF:  T  FORCE:  T  STRESS:  F  VC:  F  ENSEMBLE:  F

     Using Slab Decomposition

     bravais-lattice index     =            0
     lattice parameter (alat)  =       1.8897  a.u.
     unit-cell volume          =    6658.9804 (a.u.)^3
     number of atoms/cell      =           57
     number of atomic types    =            5
     number of electrons       =       404.00
     number of Kohn-Sham states=          212
     kinetic-energy cutoff     =      29.3995  Ry
     charge density cutoff     =     293.9946  Ry
     scf convergence threshold =      7.3E-08
     mixing beta               =       0.0500
     number of iterations used =            8  plain     mixing
     Exchange-correlation= BEEF-VDW
                           (   1   4  43  14   2   0   0)

     celldm(1)=   1.889726  celldm(2)=   0.000000  celldm(3)=   0.000000
     celldm(4)=   0.000000  celldm(5)=   0.000000  celldm(6)=   0.000000

     crystal axes: (cart. coord. in units of alat)
               a(1) = (   6.579727   0.000000   0.000000 )
               a(2) = (  -0.000775   5.961596   0.000000 )
               a(3) = (   0.000000   0.000000  25.155947 )

     reciprocal axes: (cart. coord. in units 2 pi/alat)
               b(1) = (  0.151982  0.000020  0.000000 )
               b(2) = (  0.000000  0.167740  0.000000 )
               b(3) = (  0.000000  0.000000  0.039752 )

     PseudoPot. # 1 for Ti read from file:
     /storage/coda1/p-amedford6/0/shared/rich_project_chbe-medford/medford-share/data/pseudos_module/espresso/nninc/pbe/van/Ti.UPF
     MD5 check sum: 8e4df49b7f0d34bbd5052bf3f5ea0213
     Pseudo is Ultrasoft, Zval = 12.0
     Generated by new atomic code, or converted to UPF format
     Using radial grid of  851 points,  6 beta functions with:
                l(1) =   0
                l(2) =   0
                l(3) =   1
                l(4) =   1
                l(5) =   2
                l(6) =   2
     Q(r) pseudized with  8 coefficients,  rinner =    1.000   1.000   1.000
                                                       1.000   1.000

     PseudoPot. # 2 for O  read from file:
     /storage/coda1/p-amedford6/0/shared/rich_project_chbe-medford/medford-share/data/pseudos_module/espresso/nninc/pbe/van/O.UPF
     MD5 check sum: 78c19812648e8988a0fe644b0f25305e
     Pseudo is Ultrasoft, Zval =  6.0
     Generated by new atomic code, or converted to UPF format
     Using radial grid of  737 points,  4 beta functions with:
                l(1) =   0
                l(2) =   0
                l(3) =   1
                l(4) =   1
     Q(r) pseudized with  8 coefficients,  rinner =    0.800   0.800   0.800

     PseudoPot. # 3 for N  read from file:
     /storage/coda1/p-amedford6/0/shared/rich_project_chbe-medford/medford-share/data/pseudos_module/espresso/nninc/pbe/van/N.UPF
     MD5 check sum: 90d10febe142ad51ac9d5be1deb811c4
     Pseudo is Ultrasoft, Zval =  5.0
     Generated by new atomic code, or converted to UPF format
     Using radial grid of  729 points,  4 beta functions with:
                l(1) =   0
                l(2) =   0
                l(3) =   1
                l(4) =   1
     Q(r) pseudized with  8 coefficients,  rinner =    0.800   0.800   0.800

     PseudoPot. # 4 for C  read from file:
     /storage/coda1/p-amedford6/0/shared/rich_project_chbe-medford/medford-share/data/pseudos_module/espresso/nninc/pbe/van/C.UPF
     MD5 check sum: 1a69bf6b8db32088f5b2163dbdb77a27
     Pseudo is Ultrasoft, Zval =  4.0
     Generated by new atomic code, or converted to UPF format
     Using radial grid of  721 points,  4 beta functions with:
                l(1) =   0
                l(2) =   0
                l(3) =   1
                l(4) =   1
     Q(r) pseudized with  8 coefficients,  rinner =    0.800   0.800   0.800

     PseudoPot. # 5 for H  read from file:
     /storage/coda1/p-amedford6/0/shared/rich_project_chbe-medford/medford-share/data/pseudos_module/espresso/nninc/pbe/van/H.UPF
     MD5 check sum: b5ee9d7bfd3a09ee7748110bda690ff7
     Pseudo is Ultrasoft, Zval =  1.0
     Generated by new atomic code, or converted to UPF format
     Using radial grid of  615 points,  1 beta functions with:
                l(1) =   0
     Q(r) pseudized with  8 coefficients,  rinner =    0.800

     atomic species   valence    mass     pseudopotential
        Ti1           12.00    47.86700     Ti( 1.00)
        O1             6.00    15.99900     O ( 1.00)
        N1             5.00    14.00700     N ( 1.00)
        C1             4.00    12.01100     C ( 1.00)
        H1             1.00     1.00800     H ( 1.00)

     No symmetry found

   Cartesian axes

     site n.     atom                  positions (alat units)
         1           Ti1 tau(   1) = (   0.0004258   2.9801865   6.0000000  )
         2           Ti1 tau(   2) = (   3.2906075   1.4906267   6.0002472  )
         3           O1  tau(   3) = (   0.0006271   0.0005054   7.9858123  )
         4           O1  tau(   4) = (   3.2906025   0.0005020   7.3038282  )
         5           O1  tau(   5) = (   4.5942328   1.4918067   9.2879030  )
         6           O1  tau(   6) = (   1.9868534   1.4903216   9.2879459  )
         7           Ti1 tau(   7) = (   3.2907910   2.8959150   9.1758416  )
         8           Ti1 tau(   8) = (   0.0015273   1.4827037   9.2680791  )
         9           O1  tau(   9) = (   3.2846840   0.0164488  11.3171736  )
        10           O1  tau(  10) = (   0.0116148   5.9584955  10.6183126  )
        11           O1  tau(  11) = (   1.2780696   1.4966870  12.6228330  )
        12           O1  tau(  12) = (   5.2671132   1.5021727  12.6038655  )
        13           Ti1 tau(  13) = (   0.0814623   2.9703834  12.6092300  )
        14           Ti1 tau(  14) = (   3.3984034   1.5042134  12.4754612  )
        15           O1  tau(  15) = (   6.5611900   5.9602394  14.6246442  )
        16           O1  tau(  16) = (   3.2847170   0.0117735  13.9091713  )
        17           O1  tau(  17) = (   4.5127615   1.5439160  15.9886145  )
        18           O1  tau(  18) = (   2.0245574   1.5486524  15.9865356  )
        19           Ti1 tau(  19) = (   3.2678410   3.0292036  15.6627315  )
        20           Ti1 tau(  20) = (   6.5437773   1.5790868  15.8036792  )
        21           O1  tau(  21) = (   3.2904802   0.0005063   4.7018136  )
        22           O1  tau(  22) = (   6.5616667   0.0409992  17.2467836  )
        23           O1  tau(  23) = (   1.3043587   1.4918075   6.0039043  )
        24           O1  tau(  24) = (   5.2767064   1.4903225   6.0039473  )
        25           Ti1 tau(  25) = (   0.0000382   5.9609847   6.0000000  )
        26           Ti1 tau(  26) = (   3.2902200   4.4714249   6.0002472  )
        27           O1  tau(  27) = (   0.0002396   2.9813036   7.9858123  )
        28           O1  tau(  28) = (   3.2902150   2.9813002   7.3038282  )
        29           O1  tau(  29) = (   4.5938453   4.4726049   9.2879030  )
        30           O1  tau(  30) = (   1.9864658   4.4711199   9.2879459  )
        31           Ti1 tau(  31) = (   3.2891106   5.8743827   9.1763621  )
        32           Ti1 tau(  32) = (   0.0006254   4.4649316   9.2693709  )
        33           O1  tau(  33) = (   3.2886753   2.9955121  11.3174028  )
        34           O1  tau(  34) = (   0.0092240   2.9805883  10.6323155  )
        35           O1  tau(  35) = (   1.2771457   4.4765085  12.6200386  )
        36           O1  tau(  36) = (   5.2716127   4.4859779  12.5990880  )
        37           Ti1 tau(  37) = (   0.0719143   5.9417653  12.6408960  )
        38           Ti1 tau(  38) = (   3.4009286   4.4967646  12.4819834  )
        39           O1  tau(  39) = (   6.5633752   2.9851081  14.6229342  )
        40           O1  tau(  40) = (   3.2806164   3.0132077  13.8636590  )
        41           O1  tau(  41) = (   4.5054435   4.4842064  16.0752605  )
        42           O1  tau(  42) = (   2.0287922   4.4846499  16.0567397  )
        43           Ti1 tau(  43) = (   3.2585180   0.0608266  15.7494983  )
        44           Ti1 tau(  44) = (   6.5556145   4.6328118  16.1363011  )
        45           O1  tau(  45) = (   3.2900926   2.9813045   4.7018136  )
        46           O1  tau(  46) = (   1.3039711   4.4726057   6.0039043  )
        47           O1  tau(  47) = (   5.2763189   4.4711207   6.0039473  )
        48           N1  tau(  48) = (   6.4582227   2.6263240  18.5734135  )
        49           N1  tau(  49) = (   6.5493832   2.9496485  17.3103279  )
        50           C1  tau(  50) = (   0.1600853   3.5596473  19.6455425  )
        51           H1  tau(  51) = (   6.1911903   4.4878083  19.4849519  )
        52           H1  tau(  52) = (   6.4401482   3.1080517  20.5902855  )
        53           H1  tau(  53) = (   1.2308410   3.8049764  19.6956042  )
        54           H1  tau(  54) = (   6.5044843   1.6253530  18.7806356  )
        55           O1  tau(  55) = (   3.2415852   0.0755412  18.2049893  )
        56           H1  tau(  56) = (   4.0109045   5.4607113  18.3409029  )
        57           H1  tau(  57) = (   2.4534619   5.4803556  18.3240773  )

     number of k points=    10  Fermi-Dirac smearing, width (Ry)=  0.0073
                       cart. coord. in units 2pi/alat
        k(    1) = (   0.0000000   0.0000000   0.0000000), wk =   0.1250000
        k(    2) = (   0.0000000   0.0419351   0.0000000), wk =   0.2500000
        k(    3) = (   0.0000000  -0.0838702   0.0000000), wk =   0.1250000
        k(    4) = (   0.0379955   0.0000049   0.0000000), wk =   0.2500000
        k(    5) = (   0.0379955   0.0419400   0.0000000), wk =   0.2500000
        k(    6) = (   0.0379955  -0.0838652   0.0000000), wk =   0.2500000
        k(    7) = (   0.0379955  -0.0419301   0.0000000), wk =   0.2500000
        k(    8) = (  -0.0759910  -0.0000099   0.0000000), wk =   0.1250000
        k(    9) = (  -0.0759910   0.0419252   0.0000000), wk =   0.2500000
        k(   10) = (  -0.0759910  -0.0838800   0.0000000), wk =   0.1250000

     Initial potential from superposition of free atoms

     starting charge  387.99913, renormalised to  404.00000

     negative rho (up, down):  1.445E-02 0.000E+00

     %%%%%%%%%%%%%%%%%%%%%%%%%%%%%%%%%%%%%%%%%%%%%%%%%%%%%%%%%%%%%%%%%%%%%%%%
     %                                                                      %
     % You are using vdW-DF, which was implemented by the Thonhauser group. %
     % Please cite the following two papers that made this development      %
     % possible and the two reviews that describe the various versions:     %
     %                                                                      %
     %   T. Thonhauser et al., PRL 115, 136402 (2015).                      %
     %   T. Thonhauser et al., PRB 76, 125112 (2007).                       %
     %   K. Berland et al., Rep. Prog. Phys. 78, 066501 (2015).             %
     %   D.C. Langreth et al., J. Phys.: Condens. Matter 21, 084203 (2009). %
     %                                                                      %
     %                                                                      %
     % If you are calculating the stress with vdW-DF, please also cite:     %
     %                                                                      %
     %   R. Sabatini et al., J. Phys.: Condens. Matter 24, 424209 (2012).   %
     %                                                                      %
     %%%%%%%%%%%%%%%%%%%%%%%%%%%%%%%%%%%%%%%%%%%%%%%%%%%%%%%%%%%%%%%%%%%%%%%%

     Adding external electric field

     Computed dipole along edir(3) :
        Dipole              -13.5676 Ry au,        -34.4854 Debye
        Dipole field         -0.0256 Ry au,

        Potential amp.        2.3734 Ry
        Total length         46.3494 bohr

     Starting wfcs are  306 atomic wfcs
  @ DRIVER MODE: Message from server: STATUS
  @ DRIVER MODE: Message from server: POSDATA
  @ DRIVER MODE: Reading and sharing cell
  @ DRIVER MODE: Reading and sharing positions
  @ DRIVER MODE: Received positions

     Self-consistent Calculation

     iteration #  1     ecut=    29.40 Ry     beta= 0.05
     Davidson diagonalization with overlap
     c_bands:  4 eigenvalues not converged
     c_bands:  4 eigenvalues not converged
     c_bands:  4 eigenvalues not converged
     c_bands:  4 eigenvalues not converged
     c_bands:  3 eigenvalues not converged
     c_bands:  3 eigenvalues not converged
     ethr =  1.00E-05,  avg # of iterations = 25.3

[...]

     total energy              =   -2338.67285180 Ry
     estimated scf accuracy    <    7255.61473072 Ry

     iteration #  2     ecut=    29.40 Ry     beta= 0.05
     Davidson diagonalization with overlap
     ethr =  1.00E-02,  avg # of iterations = 23.5

[...]

     iteration # 51     ecut=    29.40 Ry     beta= 0.05
     Davidson diagonalization with overlap
     c_bands:  1 eigenvalues not converged
     ethr =  1.11E-08,  avg # of iterations =  7.9

[...]

     total energy              =   -2975.23048124 Ry
     estimated scf accuracy    <       0.00000007 Ry

     iteration # 66     ecut=    29.40 Ry     beta= 0.05
     Davidson diagonalization with overlap
     ethr =  1.85E-11,  avg # of iterations =  7.4

     negative rho (up, down):  1.507E-02 0.000E+00

     Adding external electric field

     Computed dipole along edir(3) :
        Dipole                1.1601 Ry au,          2.9488 Debye
        Dipole field          0.0022 Ry au,

        Potential amp.       -0.2029 Ry
        Total length         46.3494 bohr

     End of self-consistent calculation

          k = 0.0000 0.0000 0.0000 ( 18029 PWs)   bands (ev):

   -55.5058 -55.4718 -55.3329 -55.2964 -55.2629 -55.2292 -55.2025 -55.1984
   -55.1880 -55.1649 -55.1536 -55.0143 -54.5533 -54.4360 -54.4020 -54.3887
   -31.9787 -31.8682 -31.8001 -31.7851 -31.7219 -31.7125 -31.6770 -31.6591
   -31.6218 -31.6041 -31.6011 -31.5741 -31.5647 -31.5203 -31.5121 -31.5011
   -31.4823 -31.4799 -31.4559 -31.4387 -31.4249 -31.4171 -31.4142 -31.3960
   -31.3930 -31.3851 -31.3755 -31.3684 -31.3659 -31.3637 -31.3418 -31.3303
   -31.3177 -31.3004 -31.2064 -31.1791 -31.0467 -30.8410 -30.7775 -30.7633
   -30.7579 -30.7352 -30.7236 -30.6581 -30.5990 -30.5719 -30.5688 -30.4607
   -18.7882 -17.7426 -16.0740 -15.8821 -15.6097 -15.4858 -15.4591 -15.2752
   -15.1989 -15.1477 -15.0155 -14.9681 -14.9389 -14.9087 -14.8965 -14.8391
   -14.8115 -14.7847 -14.7544 -14.7505 -14.7311 -14.7084 -14.6672 -14.6105
   -14.5850 -14.5238 -14.4735 -14.4521 -14.3581 -14.3539 -13.9263 -12.9373
   -12.8218 -11.9045  -8.8009  -6.5580  -5.5973  -4.3214  -4.0873  -3.4588
    -3.3833  -3.3243  -3.2083  -3.1278  -2.9900  -2.9503  -2.8816  -2.7764
    -2.6053  -2.5471  -2.5211  -2.4923  -2.4078  -2.2744  -2.2630  -2.2149
    -2.1871  -2.1665  -2.1518  -2.1360  -2.0398  -2.0018  -1.9648  -1.8538
    -1.8178  -1.7959  -1.7787  -1.7700  -1.7533  -1.6891  -1.6571  -1.6386
    -1.6286  -1.5916  -1.5569  -1.5454  -1.4158  -1.3975  -1.2800  -1.1511
    -1.1288  -1.0703  -1.0471  -0.8883  -0.8816  -0.8602  -0.8194  -0.8121
    -0.7401  -0.6672  -0.6241  -0.5505  -0.4319  -0.4226  -0.3876  -0.2416
    -0.2379  -0.2150  -0.1769  -0.1656  -0.1139  -0.1053  -0.0590   0.0025
     0.0963   0.1683   0.2731   0.2755   0.3286   0.3679   0.3811   0.4388
     0.4548   0.5046   0.5162   0.5238   0.5758   0.6108   0.6234   0.6816
     0.7327   0.8497   0.9192   0.9442   0.9909   1.1126   1.1877   1.2361
     1.2412   1.4092   1.5314   1.5595   1.5864   1.7866   1.8182   2.1533
     2.1971   3.6682   3.6850   3.7748   3.8338   3.9479   4.0197   4.1081
     4.1882   4.2575   4.3504   4.3772

[...]

          k = 0.0380-0.0419 0.0000 ( 17876 PWs)   bands (ev):

[...]

          k =-0.0760-0.0000 0.0000 ( 17886 PWs)   bands (ev):

[...]

          k =-0.0760-0.0839 0.0000 ( 17948 PWs)   bands (ev):

   -55.4889 -55.4885 -55.3183 -55.3107 -55.2460 -55.2458 -55.1967 -55.1910
   -55.1764 -55.1741 -55.1676 -55.0158 -54.5517 -54.4190 -54.4189 -54.3901
   -31.7943 -31.7942 -31.7854 -31.7853 -31.6812 -31.6641 -31.6100 -31.6094
   -31.5704 -31.5658 -31.5625 -31.5580 -31.5554 -31.5494 -31.5171 -31.5121
   -31.4901 -31.4804 -31.4785 -31.4707 -31.4391 -31.4370 -31.4288 -31.4262
   -31.4152 -31.4122 -31.4022 -31.3996 -31.3953 -31.3895 -31.3885 -31.3836
   -31.3561 -31.3319 -31.3162 -31.2141 -30.9564 -30.7998 -30.7664 -30.7480
   -30.7479 -30.7461 -30.6541 -30.6540 -30.6183 -30.6150 -30.6150 -30.5991
   -18.7872 -17.7367 -15.4971 -15.4312 -15.3607 -15.3568 -15.2518 -15.1989
   -15.1041 -15.0933 -15.0862 -15.0830 -14.9828 -14.9794 -14.9130 -14.9042
   -14.8648 -14.8584 -14.8545 -14.8378 -14.8227 -14.8178 -14.8027 -14.7557
   -14.7392 -14.7334 -14.5698 -14.5445 -14.4292 -14.4105 -14.0500 -12.9239
   -12.9238 -11.9058  -8.8117  -6.5418  -5.5895  -4.2709  -4.1075  -2.9294
    -2.9151  -2.7885  -2.6612  -2.5289  -2.5166  -2.4955  -2.4591  -2.2928
    -2.2802  -2.2648  -2.2552  -2.2136  -2.2023  -2.1834  -2.1691  -2.1150
    -2.0977  -2.0792  -2.0745  -2.0634  -2.0568  -2.0473  -2.0382  -2.0301
    -2.0065  -1.9589  -1.9378  -1.8555  -1.7705  -1.7607  -1.6833  -1.5546
    -1.5480  -1.5363  -1.5349  -1.5222  -1.5125  -1.4712  -1.4342  -1.3810
    -1.2691  -1.1522  -1.1019  -1.0837  -1.0286  -1.0098  -0.9213  -0.8407
    -0.8061  -0.7877  -0.7022  -0.6536  -0.5746  -0.5589  -0.5222  -0.4716
    -0.4476  -0.4334  -0.4178  -0.4096  -0.3443  -0.3019  -0.2341  -0.2201
    -0.1649  -0.1336  -0.1050  -0.0822  -0.0410   0.0518   0.0597   0.0882
     0.1148   0.1298   0.2044   0.3557   0.3958   0.6348   0.6439   0.7159
     0.8445   0.8665   0.8738   0.9501   0.9638   1.0014   1.0225   1.1425
     1.1653   1.1915   1.3181   1.3534   1.4449   1.9563   1.9571   2.0161
     2.0165   3.5310   4.1327   4.1426   4.1597   4.1731   4.1985   4.2051
     4.2477   4.2609   4.3936   4.4147

     the Fermi energy is     3.6442 ev

!    total energy              =   -2975.23050551 Ry
     estimated scf accuracy    <       0.00000005 Ry
     smearing contrib. (-TS)   =      -0.02107345 Ry
     internal energy E=F+TS    =   -2975.20943206 Ry

     The total energy is F=E-TS. E is the sum of the following terms:
     one-electron contribution =  -23878.14553971 Ry
     hartree contribution      =   12036.49166209 Ry
     xc contribution           =    -494.92514934 Ry
     ewald contribution        =    9361.36705501 Ry
     electric field correction =       0.00253988 Ry

     convergence has been achieved in  66 iterations

     Forces acting on atoms (cartesian axes, Ry/au):

     atom    1 type  1   force =     0.00016700   -0.00022831    0.09946506
     atom    2 type  1   force =    -0.00014524   -0.00038755   -0.17310534
     atom    3 type  2   force =    -0.00006840   -0.00000318   -0.02913852
     atom    4 type  2   force =     0.00003892   -0.00102594    0.04890670
     atom    5 type  2   force =    -0.01224487    0.00099592    0.00048285
     atom    6 type  2   force =     0.01355248    0.00186886   -0.00111274
     atom    7 type  1   force =    -0.00136336   -0.00052708   -0.00299797
     atom    8 type  1   force =     0.00094619   -0.00608855    0.04542241
     atom    9 type  2   force =    -0.00000184   -0.00023332   -0.00002524
     atom   10 type  2   force =    -0.00155809    0.00261543   -0.03094726
     atom   11 type  2   force =    -0.00018044   -0.00045192    0.00003514
     atom   12 type  2   force =     0.00009343   -0.00023542    0.00014056
     atom   13 type  1   force =    -0.00019889   -0.00053772   -0.00033238
     atom   14 type  1   force =     0.00032044   -0.00017074    0.00024075
     atom   15 type  2   force =     0.00000120   -0.00014313   -0.00025902
     atom   16 type  2   force =    -0.00021596    0.00004725    0.00010581
     atom   17 type  2   force =     0.00017193   -0.00027617    0.00014119
     atom   18 type  2   force =    -0.00004300   -0.00035016    0.00000540
     atom   19 type  1   force =     0.00007543   -0.00015583    0.00037602
     atom   20 type  1   force =    -0.00002483   -0.00070494    0.00041679
     atom   21 type  2   force =     0.00008693   -0.00000626    0.10260629
     atom   22 type  2   force =     0.00009674   -0.00048806   -0.00028999
     atom   23 type  2   force =    -0.07249170   -0.00008952   -0.02847508
     atom   24 type  2   force =     0.07245556    0.00034380   -0.02845509
     atom   25 type  1   force =     0.00009160   -0.00027482    0.09897030
     atom   26 type  1   force =    -0.00006276   -0.00041428   -0.17328000
     atom   27 type  2   force =    -0.00003322    0.00000446   -0.02844308
     atom   28 type  2   force =     0.00009492   -0.00075980    0.04807106
     atom   29 type  2   force =    -0.01261426    0.00063263    0.00051977
     atom   30 type  2   force =     0.01384868    0.00096105   -0.00105019
     atom   31 type  1   force =    -0.00146439    0.00226314   -0.00571293
     atom   32 type  1   force =     0.00112502    0.00383532    0.04593420
     atom   33 type  2   force =    -0.00006302   -0.00026319   -0.00010334
     atom   34 type  2   force =    -0.00096635    0.00134169   -0.03380335
     atom   35 type  2   force =    -0.00029292    0.00004631   -0.00024943
     atom   36 type  2   force =     0.00049880    0.00010059   -0.00004029
     atom   37 type  1   force =    -0.00032120    0.00007043    0.00023892
     atom   38 type  1   force =     0.00019489   -0.00029654    0.00005221
     atom   39 type  2   force =     0.00002558   -0.00053497    0.00038081
     atom   40 type  2   force =    -0.00004941    0.00017581   -0.00029539
     atom   41 type  2   force =    -0.00013967   -0.00024749    0.00004532
     atom   42 type  2   force =     0.00021346   -0.00018172   -0.00006003
     atom   43 type  1   force =     0.00009507    0.00003589   -0.00008984
     atom   44 type  1   force =    -0.00002572    0.00001633    0.00006561
     atom   45 type  2   force =     0.00009469   -0.00001212    0.10260180
     atom   46 type  2   force =    -0.07251298   -0.00000757   -0.02846507
     atom   47 type  2   force =     0.07247056    0.00037816   -0.02845775
     atom   48 type  3   force =    -0.00014718   -0.00228706    0.00208108
     atom   49 type  3   force =     0.00017365   -0.00208942    0.00089190
     atom   50 type  4   force =     0.00009518    0.00049730   -0.00015175
     atom   51 type  5   force =     0.00021454   -0.00000999    0.00032355
     atom   52 type  5   force =    -0.00012517    0.00021392    0.00020523
     atom   53 type  5   force =     0.00008371   -0.00005227    0.00015904
     atom   54 type  5   force =     0.00011202    0.00270812   -0.00314833
     atom   55 type  2   force =     0.00060348    0.00056571   -0.00026294
     atom   56 type  5   force =    -0.00017781   -0.00038487   -0.00023980
     atom   57 type  5   force =    -0.00050945    0.00020179    0.00010639

     Total force =     0.372123     Total SCF correction =     0.000566
  @ DRIVER MODE: Message from server: STATUS
  @ DRIVER MODE: Message from server: GETFORCE
  @ DRIVER MODE: Returning v,forces,stress,ensemble

     Writing output data file ./calc.save/
  @ DRIVER MODE: Message from server: EXIT
  @ DRIVE MODE: Exiting

     General routines

     Parallel routines

   This run was terminated on:   5:28:52  16Sep2021

   JOB DONE.