     Program PWSCF v.6.7GPU starts on  9Sep2021 at 21:24:16

     R & G space division:  proc/nbgrp/npool/nimage =      10
     Reading input from /storage/home/hcoda1/3/ntian30/research/carbon/CxH_vib/CH3_calc/ads_slab/CH3N2OH_j/out_0003/pw.inp
Warning: card &CELL ignored
Warning: card   CELL_DYNAMICS='IPI', ignored
Warning: card / ignored

     Current dimensions of program PWSCF are:
     Max number of different atomic species (ntypx) = 10
     Max number of k-points (npk) =  40000
     Max angular momentum in pseudopotentials (lmaxx) =  3
     Presently no symmetry can be used with electric field

     Message from routine cell_base_init:
     DEPRECATED: use true lattice parameter, not A to a.u. conversion factor

     IMPORTANT: XC functional enforced from input :
     Exchange-correlation= BEEF-VDW
                           (   1   4  43  14   2   0   0)
     Any further DFT definition will be discarded
     Please, verify this is what you really want

  @ DRIVER MODE: Connecting to
 qe_1139763_2779713.sched-torque.pace.gatech.eduxnzhbjtz_scratch
  using UNIX socket
  @ DRIVER MODE: Message from server: STATUS
  @ DRIVER MODE: Message from server: INIT
  @ DRIVER MODE: Receiving replica           0          -1
  @ DRIVER MODE: Receiving encoded integer          25
  @ DRIVER MODE:  SCF:  T  FORCE:  T  STRESS:  F  VC:  F  ENSEMBLE:  F
  @ DRIVER MODE:  SCF:  T  FORCE:  T  STRESS:  F  VC:  F  ENSEMBLE:  F

     Using Slab Decomposition

     bravais-lattice index     =            0
     lattice parameter (alat)  =       1.8897  a.u.
     unit-cell volume          =    6658.9804 (a.u.)^3
     number of atoms/cell      =           55
     number of atomic types    =            5
     number of electrons       =       402.00
     number of Kohn-Sham states=          211
     kinetic-energy cutoff     =      29.3995  Ry
     charge density cutoff     =     293.9946  Ry
     scf convergence threshold =      7.3E-08
     mixing beta               =       0.0500
     number of iterations used =            8  plain     mixing
     Exchange-correlation= BEEF-VDW
                           (   1   4  43  14   2   0   0)

     celldm(1)=   1.889726  celldm(2)=   0.000000  celldm(3)=   0.000000
     celldm(4)=   0.000000  celldm(5)=   0.000000  celldm(6)=   0.000000

     crystal axes: (cart. coord. in units of alat)
               a(1) = (   6.579727   0.000000   0.000000 )
               a(2) = (  -0.000775   5.961596   0.000000 )
               a(3) = (   0.000000   0.000000  25.155947 )

     reciprocal axes: (cart. coord. in units 2 pi/alat)
               b(1) = (  0.151982  0.000020  0.000000 )
               b(2) = (  0.000000  0.167740  0.000000 )
               b(3) = (  0.000000  0.000000  0.039752 )

     PseudoPot. # 1 for Ti read from file:
     /storage/coda1/p-amedford6/0/shared/rich_project_chbe-medford/medford-share/data/pseudos_module/espresso/nninc/pbe/van/Ti.UPF
     MD5 check sum: 8e4df49b7f0d34bbd5052bf3f5ea0213
     Pseudo is Ultrasoft, Zval = 12.0
     Generated by new atomic code, or converted to UPF format
     Using radial grid of  851 points,  6 beta functions with:
                l(1) =   0
                l(2) =   0
                l(3) =   1
                l(4) =   1
                l(5) =   2
                l(6) =   2
     Q(r) pseudized with  8 coefficients,  rinner =    1.000   1.000   1.000
                                                       1.000   1.000

     PseudoPot. # 2 for O  read from file:
     /storage/coda1/p-amedford6/0/shared/rich_project_chbe-medford/medford-share/data/pseudos_module/espresso/nninc/pbe/van/O.UPF
     MD5 check sum: 78c19812648e8988a0fe644b0f25305e
     Pseudo is Ultrasoft, Zval =  6.0
     Generated by new atomic code, or converted to UPF format
     Using radial grid of  737 points,  4 beta functions with:
                l(1) =   0
                l(2) =   0
                l(3) =   1
                l(4) =   1
     Q(r) pseudized with  8 coefficients,  rinner =    0.800   0.800   0.800

     PseudoPot. # 3 for N  read from file:
     /storage/coda1/p-amedford6/0/shared/rich_project_chbe-medford/medford-share/data/pseudos_module/espresso/nninc/pbe/van/N.UPF
     MD5 check sum: 90d10febe142ad51ac9d5be1deb811c4
     Pseudo is Ultrasoft, Zval =  5.0
     Generated by new atomic code, or converted to UPF format
     Using radial grid of  729 points,  4 beta functions with:
                l(1) =   0
                l(2) =   0
                l(3) =   1
                l(4) =   1
     Q(r) pseudized with  8 coefficients,  rinner =    0.800   0.800   0.800

     PseudoPot. # 4 for C  read from file:
     /storage/coda1/p-amedford6/0/shared/rich_project_chbe-medford/medford-share/data/pseudos_module/espresso/nninc/pbe/van/C.UPF
     MD5 check sum: 1a69bf6b8db32088f5b2163dbdb77a27
     Pseudo is Ultrasoft, Zval =  4.0
     Generated by new atomic code, or converted to UPF format
     Using radial grid of  721 points,  4 beta functions with:
                l(1) =   0
                l(2) =   0
                l(3) =   1
                l(4) =   1
     Q(r) pseudized with  8 coefficients,  rinner =    0.800   0.800   0.800

     PseudoPot. # 5 for H  read from file:
     /storage/coda1/p-amedford6/0/shared/rich_project_chbe-medford/medford-share/data/pseudos_module/espresso/nninc/pbe/van/H.UPF
     MD5 check sum: b5ee9d7bfd3a09ee7748110bda690ff7
     Pseudo is Ultrasoft, Zval =  1.0
     Generated by new atomic code, or converted to UPF format
     Using radial grid of  615 points,  1 beta functions with:
                l(1) =   0
     Q(r) pseudized with  8 coefficients,  rinner =    0.800

     atomic species   valence    mass     pseudopotential
        Ti1           12.00    47.86700     Ti( 1.00)
        O1             6.00    15.99900     O ( 1.00)
        N1             5.00    14.00700     N ( 1.00)
        C1             4.00    12.01100     C ( 1.00)
        H1             1.00     1.00800     H ( 1.00)

     No symmetry found

   Cartesian axes

     site n.     atom                  positions (alat units)
         1           Ti1 tau(   1) = (   0.0004258   2.9801865   6.0000000  )
         2           Ti1 tau(   2) = (   3.2906075   1.4906267   6.0002472  )
         3           O1  tau(   3) = (   0.0006271   0.0005054   7.9858123  )
         4           O1  tau(   4) = (   3.2906025   0.0005020   7.3038282  )
         5           O1  tau(   5) = (   4.5942328   1.4918067   9.2879030  )
         6           O1  tau(   6) = (   1.9868534   1.4903216   9.2879459  )
         7           Ti1 tau(   7) = (   3.2907910   2.8959150   9.1758416  )
         8           Ti1 tau(   8) = (   0.0015273   1.4827037   9.2680791  )
         9           O1  tau(   9) = (   3.2817971   0.0424577  11.2706337  )
        10           O1  tau(  10) = (   0.0116148   5.9584955  10.6183126  )
        11           O1  tau(  11) = (   1.2813654   1.4951502  12.6332405  )
        12           O1  tau(  12) = (   5.2815101   1.4921423  12.6269808  )
        13           Ti1 tau(  13) = (   6.5662594   2.8603684  12.6843660  )
        14           Ti1 tau(  14) = (   3.2717346   1.4252475  12.4210995  )
        15           O1  tau(  15) = (   6.5710910   0.0045200  14.6317625  )
        16           O1  tau(  16) = (   3.2759495   0.0084639  13.8932321  )
        17           O1  tau(  17) = (   4.5517014   1.4983445  16.0008815  )
        18           O1  tau(  18) = (   2.0271237   1.5070609  16.0478782  )
        19           Ti1 tau(  19) = (   3.2345769   3.0092735  16.2435900  )
        20           Ti1 tau(  20) = (   6.4941389   1.4975806  15.8145731  )
        21           O1  tau(  21) = (   3.2904802   0.0005063   4.7018136  )
        22           O1  tau(  22) = (   6.5579512   0.0396517  17.1742205  )
        23           O1  tau(  23) = (   1.3043587   1.4918075   6.0039043  )
        24           O1  tau(  24) = (   5.2767064   1.4903225   6.0039473  )
        25           Ti1 tau(  25) = (   0.0000382   5.9609847   6.0000000  )
        26           Ti1 tau(  26) = (   3.2902200   4.4714249   6.0002472  )
        27           O1  tau(  27) = (   0.0002396   2.9813036   7.9858123  )
        28           O1  tau(  28) = (   3.2902150   2.9813002   7.3038282  )
        29           O1  tau(  29) = (   4.5938453   4.4726049   9.2879030  )
        30           O1  tau(  30) = (   1.9864658   4.4711199   9.2879459  )
        31           Ti1 tau(  31) = (   3.2891106   5.8743827   9.1763621  )
        32           Ti1 tau(  32) = (   0.0006254   4.4649316   9.2693709  )
        33           O1  tau(  33) = (   3.2800217   2.9666125  11.2981572  )
        34           O1  tau(  34) = (   0.0092240   2.9805883  10.6323155  )
        35           O1  tau(  35) = (   1.2755083   4.4823741  12.6262202  )
        36           O1  tau(  36) = (   5.2848398   4.4807727  12.6177486  )
        37           Ti1 tau(  37) = (   6.5672004   5.8338186  12.5551636  )
        38           Ti1 tau(  38) = (   3.2732152   4.2974050  12.6602233  )
        39           O1  tau(  39) = (   6.5693882   2.9786051  14.6782399  )
        40           O1  tau(  40) = (   3.2805734   3.0393479  13.9038923  )
        41           O1  tau(  41) = (   4.5335661   4.5240572  16.0872286  )
        42           O1  tau(  42) = (   2.0073973   4.5295938  16.0607137  )
        43           Ti1 tau(  43) = (   3.2598295   0.0330142  15.6732764  )
        44           Ti1 tau(  44) = (   6.5464637   4.6748829  16.0422594  )
        45           O1  tau(  45) = (   3.2900926   2.9813045   4.7018136  )
        46           O1  tau(  46) = (   1.3039711   4.4726057   6.0039043  )
        47           O1  tau(  47) = (   5.2763189   4.4711207   6.0039473  )
        48           N1  tau(  48) = (   0.1126456   2.6776119  18.6539570  )
        49           N1  tau(  49) = (   0.0165868   2.9082207  17.4746156  )
        50           C1  tau(  50) = (   0.2746321   3.7930379  19.6319179  )
        51           H1  tau(  51) = (   0.1055085   4.7742840  19.1878107  )
        52           H1  tau(  52) = (   6.1760284   3.5871646  20.4591619  )
        53           H1  tau(  53) = (   1.2982147   3.7051261  19.9977701  )
        54           O1  tau(  54) = (   3.2987527   2.9937385  18.0942264  )
        55           H1  tau(  55) = (   3.7476408   3.7324850  18.5320624  )

     number of k points=    10  Fermi-Dirac smearing, width (Ry)=  0.0073
                       cart. coord. in units 2pi/alat
        k(    1) = (   0.0000000   0.0000000   0.0000000), wk =   0.1250000
        k(    2) = (   0.0000000   0.0419351   0.0000000), wk =   0.2500000
        k(    3) = (   0.0000000  -0.0838702   0.0000000), wk =   0.1250000
        k(    4) = (   0.0379955   0.0000049   0.0000000), wk =   0.2500000
        k(    5) = (   0.0379955   0.0419400   0.0000000), wk =   0.2500000
        k(    6) = (   0.0379955  -0.0838652   0.0000000), wk =   0.2500000
        k(    7) = (   0.0379955  -0.0419301   0.0000000), wk =   0.2500000
        k(    8) = (  -0.0759910  -0.0000099   0.0000000), wk =   0.1250000
        k(    9) = (  -0.0759910   0.0419252   0.0000000), wk =   0.2500000
        k(   10) = (  -0.0759910  -0.0838800   0.0000000), wk =   0.1250000

     Initial potential from superposition of free atoms

     starting charge  385.99915, renormalised to  402.00000

     negative rho (up, down):  1.467E-02 0.000E+00

     %%%%%%%%%%%%%%%%%%%%%%%%%%%%%%%%%%%%%%%%%%%%%%%%%%%%%%%%%%%%%%%%%%%%%%%%
     %                                                                      %
     % You are using vdW-DF, which was implemented by the Thonhauser group. %
     % Please cite the following two papers that made this development      %
     % possible and the two reviews that describe the various versions:     %
     %                                                                      %
     %   T. Thonhauser et al., PRL 115, 136402 (2015).                      %
     %   T. Thonhauser et al., PRB 76, 125112 (2007).                       %
     %   K. Berland et al., Rep. Prog. Phys. 78, 066501 (2015).             %
     %   D.C. Langreth et al., J. Phys.: Condens. Matter 21, 084203 (2009). %
     %                                                                      %
     %                                                                      %
     % If you are calculating the stress with vdW-DF, please also cite:     %
     %                                                                      %
     %   R. Sabatini et al., J. Phys.: Condens. Matter 24, 424209 (2012).   %
     %                                                                      %
     %%%%%%%%%%%%%%%%%%%%%%%%%%%%%%%%%%%%%%%%%%%%%%%%%%%%%%%%%%%%%%%%%%%%%%%%

     Adding external electric field

     Computed dipole along edir(3) :
        Dipole              -11.9798 Ry au,        -30.4497 Debye
        Dipole field         -0.0226 Ry au,

        Potential amp.        2.0957 Ry
        Total length         46.3494 bohr

     Starting wfcs are  304 atomic wfcs
  @ DRIVER MODE: Message from server: STATUS
  @ DRIVER MODE: Message from server: POSDATA
  @ DRIVER MODE: Reading and sharing cell
  @ DRIVER MODE: Reading and sharing positions
  @ DRIVER MODE: Received positions

     Self-consistent Calculation

     iteration #  1     ecut=    29.40 Ry     beta= 0.05
     Davidson diagonalization with overlap
     c_bands:  5 eigenvalues not converged
     c_bands:  3 eigenvalues not converged
     c_bands:  5 eigenvalues not converged
     c_bands:  5 eigenvalues not converged
     c_bands:  3 eigenvalues not converged
     c_bands:  4 eigenvalues not converged
     c_bands:  2 eigenvalues not converged
     c_bands:  1 eigenvalues not converged
     ethr =  1.00E-05,  avg # of iterations = 25.3

[...]

     total energy              =   -2401.04656006 Ry
     estimated scf accuracy    <    6440.94753646 Ry

     iteration #  2     ecut=    29.40 Ry     beta= 0.05
     Davidson diagonalization with overlap
     ethr =  1.00E-02,  avg # of iterations = 22.8

[...]

     iteration # 40     ecut=    29.40 Ry     beta= 0.05
     Davidson diagonalization with overlap
     c_bands:  1 eigenvalues not converged
     ethr =  2.92E-07,  avg # of iterations =  4.2

[...]

     total energy              =   -2972.74451631 Ry
     estimated scf accuracy    <       0.00000013 Ry

     iteration # 67     ecut=    29.40 Ry     beta= 0.05
     Davidson diagonalization with overlap
     ethr =  3.20E-11,  avg # of iterations =  4.4

     negative rho (up, down):  1.548E-02 0.000E+00

     Adding external electric field

     Computed dipole along edir(3) :
        Dipole                0.5948 Ry au,          1.5119 Debye
        Dipole field          0.0011 Ry au,

        Potential amp.       -0.1041 Ry
        Total length         46.3494 bohr

     End of self-consistent calculation

          k = 0.0000 0.0000 0.0000 ( 18029 PWs)   bands (ev):

   -56.2511 -56.2173 -55.8343 -55.8007 -55.6012 -55.5416 -55.4794 -55.4062
   -55.3875 -55.3327 -55.2422 -55.1654 -55.0891 -55.0225 -54.9937 -54.9885
   -32.7013 -32.5436 -32.5166 -32.4096 -32.3255 -32.3170 -32.3135 -32.0812
   -32.0533 -32.0339 -31.9817 -31.9755 -31.9416 -31.8973 -31.8754 -31.8266
   -31.8180 -31.7953 -31.7635 -31.7449 -31.7270 -31.7119 -31.7036 -31.6946
   -31.6906 -31.6568 -31.6038 -31.5804 -31.5549 -31.5427 -31.5415 -31.5036
   -31.4942 -31.4339 -31.4192 -31.4191 -31.3702 -31.3556 -31.3449 -31.3320
   -31.3207 -31.2972 -31.2423 -31.2378 -31.2299 -31.2148 -31.1533 -31.0414
   -18.8119 -16.5440 -16.3481 -16.2070 -15.9915 -15.8278 -15.7343 -15.7240
   -15.6822 -15.5612 -15.5270 -15.4379 -15.3463 -15.2743 -15.2656 -15.2471
   -15.1506 -15.0912 -15.0595 -15.0231 -15.0033 -14.9915 -14.9831 -14.8862
   -14.8727 -14.8638 -14.7237 -14.6938 -14.6137 -14.3645 -14.2642 -13.5201
   -13.4078 -11.4511  -6.9287  -4.3797  -4.1366  -4.0538  -3.9747  -3.8140
    -3.7576  -3.5405  -3.4378  -3.3552  -3.2435  -3.1537  -2.9668  -2.9561
    -2.9037  -2.8330  -2.7560  -2.6960  -2.6458  -2.6347  -2.5558  -2.5190
    -2.4822  -2.4780  -2.4108  -2.3935  -2.3052  -2.2935  -2.2188  -2.1879
    -2.1614  -2.1242  -2.1107  -2.0502  -2.0413  -2.0027  -1.9717  -1.9262
    -1.8585  -1.8109  -1.7285  -1.6729  -1.6558  -1.5727  -1.5558  -1.5366
    -1.5194  -1.3289  -1.2556  -1.2320  -1.2245  -1.0772  -1.0308  -1.0068
    -0.9286  -0.9013  -0.8572  -0.8093  -0.7654  -0.7111  -0.6830  -0.6724
    -0.6479  -0.5951  -0.4066  -0.3772  -0.3251  -0.3003  -0.2618  -0.2053
    -0.1756  -0.1399  -0.0611  -0.0556  -0.0468  -0.0083   0.0421   0.1222
     0.1848   0.2047   0.2943   0.3042   0.3442   0.3798   0.4352   0.4640
     0.5460   0.5905   0.6042   0.6578   0.6813   0.8682   0.9048   0.9419
     0.9820   1.0021   1.0488   1.1698   1.2312   1.5373   1.5501   1.5895
     2.7413   2.9757   3.1048   3.2618   3.4080   3.5046   3.8248   3.8436
     3.8775   3.9407   3.9633

[...]

          k = 0.0380-0.0419 0.0000 ( 17876 PWs)   bands (ev):

[...]

          k =-0.0760-0.0000 0.0000 ( 17886 PWs)   bands (ev):

[...]

          k =-0.0760-0.0839 0.0000 ( 17948 PWs)   bands (ev):

   -56.2347 -56.2336 -55.8186 -55.8162 -55.5958 -55.5468 -55.4765 -55.4089
   -55.3815 -55.3385 -55.2404 -55.1638 -55.0908 -55.0058 -55.0051 -54.9952
   -32.5297 -32.5284 -32.5176 -32.5169 -32.3621 -32.3610 -32.1381 -32.1343
   -32.0129 -32.0106 -32.0074 -32.0056 -31.9014 -31.8627 -31.8195 -31.8162
   -31.8141 -31.7744 -31.7626 -31.7474 -31.7211 -31.7126 -31.6979 -31.6739
   -31.6615 -31.6277 -31.6270 -31.6040 -31.6008 -31.5712 -31.5648 -31.5507
   -31.4945 -31.4401 -31.4371 -31.4227 -31.3679 -31.3495 -31.3452 -31.3447
   -31.3013 -31.2993 -31.2486 -31.2344 -31.2334 -31.2317 -31.1960 -31.1953
   -18.8080 -16.3351 -15.9537 -15.9415 -15.8184 -15.8119 -15.6391 -15.6231
   -15.5950 -15.5431 -15.5177 -15.4743 -15.3330 -15.3238 -15.2622 -15.2269
   -15.2013 -15.1904 -15.1583 -15.1554 -15.1370 -15.0608 -15.0343 -15.0094
   -14.9614 -14.9569 -14.7902 -14.7264 -14.7124 -14.4961 -14.4598 -13.5109
   -13.5108 -11.4491  -6.9427  -4.3257  -3.9964  -3.9567  -3.9251  -3.1211
    -3.0671  -2.9562  -2.9303  -2.8541  -2.8303  -2.7258  -2.7003  -2.6618
    -2.6476  -2.6435  -2.5868  -2.5621  -2.5429  -2.4972  -2.4866  -2.4733
    -2.4484  -2.3956  -2.3833  -2.3671  -2.3528  -2.3353  -2.2399  -2.2328
    -2.2188  -2.1811  -2.1772  -2.1590  -2.0777  -2.0120  -1.9691  -1.9660
    -1.9330  -1.8739  -1.7853  -1.6822  -1.6589  -1.6131  -1.5834  -1.5049
    -1.4790  -1.4334  -1.3386  -1.3307  -1.3062  -1.2908  -1.2279  -1.2130
    -1.0709  -1.0410  -1.0326  -1.0263  -1.0205  -0.9239  -0.8601  -0.8014
    -0.7460  -0.6667  -0.6564  -0.6342  -0.6168  -0.6044  -0.5849  -0.5592
    -0.5004  -0.4586  -0.4093  -0.3930  -0.2875  -0.2063  -0.1730  -0.1055
    -0.0305   0.0604   0.1373   0.1505   0.1878   0.2428   0.3283   0.3731
     0.4164   0.4845   0.5257   0.6022   0.6619   0.7456   0.7706   0.8607
     0.9696   0.9878   1.0402   1.1233   1.3927   1.3994   1.4056   1.4064
     2.7439   3.5237   3.5275   3.5576   3.5659   3.7663   3.7783   3.9054
     3.9636   4.0192   4.0204

     the Fermi energy is     2.9121 ev

!    total energy              =   -2972.74454071 Ry
     estimated scf accuracy    <       0.00000007 Ry
     smearing contrib. (-TS)   =      -0.01278492 Ry
     internal energy E=F+TS    =   -2972.73175579 Ry

     The total energy is F=E-TS. E is the sum of the following terms:
     one-electron contribution =  -23700.35423157 Ry
     hartree contribution      =   11943.41487564 Ry
     xc contribution           =    -493.11611486 Ry
     ewald contribution        =    9277.32304730 Ry
     electric field correction =       0.00066770 Ry

     convergence has been achieved in  67 iterations

     Forces acting on atoms (cartesian axes, Ry/au):

     atom    1 type  1   force =     0.00008974   -0.00038591    0.10711783
     atom    2 type  1   force =    -0.00004164   -0.00169664   -0.16534600
     atom    3 type  2   force =     0.00003457   -0.00025858   -0.03879514
     atom    4 type  2   force =     0.00004479    0.00076724    0.03107693
     atom    5 type  2   force =    -0.00353847    0.00294999   -0.00844292
     atom    6 type  2   force =     0.00467489    0.00361820   -0.01021237
     atom    7 type  1   force =    -0.00073634    0.00048139    0.02142732
     atom    8 type  1   force =     0.00101160    0.01537595    0.06112725
     atom    9 type  2   force =     0.00011378   -0.00016832   -0.00008448
     atom   10 type  2   force =    -0.00289449    0.00227448   -0.04737094
     atom   11 type  2   force =    -0.00005984   -0.00020882   -0.00008460
     atom   12 type  2   force =     0.00002167   -0.00003098    0.00013695
     atom   13 type  1   force =     0.00028111   -0.00012675    0.00044441
     atom   14 type  1   force =     0.00040318   -0.00017193    0.00047697
     atom   15 type  2   force =     0.00016903   -0.00007300   -0.00039120
     atom   16 type  2   force =     0.00014815   -0.00015011   -0.00025229
     atom   17 type  2   force =     0.00017230    0.00008135    0.00015505
     atom   18 type  2   force =     0.00017311    0.00015752   -0.00005026
     atom   19 type  1   force =     0.00005495   -0.00017330    0.00039678
     atom   20 type  1   force =    -0.00040031    0.00024078    0.00016216
     atom   21 type  2   force =     0.00010195    0.00000238    0.10030145
     atom   22 type  2   force =     0.00001130    0.00009139   -0.00061078
     atom   23 type  2   force =    -0.07673319   -0.00004589   -0.03009080
     atom   24 type  2   force =     0.07671743    0.00038718   -0.03011603
     atom   25 type  1   force =     0.00006280   -0.00043167    0.10706849
     atom   26 type  1   force =    -0.00010332    0.00063110   -0.16563949
     atom   27 type  2   force =     0.00012137   -0.00027189   -0.03760323
     atom   28 type  2   force =     0.00004424   -0.00043427    0.03525652
     atom   29 type  2   force =    -0.00567671   -0.00043833   -0.00602740
     atom   30 type  2   force =     0.00683903    0.00005984   -0.00771519
     atom   31 type  1   force =    -0.00057252   -0.00240076    0.03482473
     atom   32 type  1   force =     0.00111182   -0.01878112    0.06165624
     atom   33 type  2   force =     0.00022516   -0.00014414   -0.00010741
     atom   34 type  2   force =    -0.00253687    0.00013565   -0.05406325
     atom   35 type  2   force =     0.00017764   -0.00023818   -0.00018610
     atom   36 type  2   force =     0.00022035   -0.00001017    0.00021246
     atom   37 type  1   force =     0.00034087   -0.00023513    0.00020071
     atom   38 type  1   force =     0.00046995   -0.00019750    0.00052884
     atom   39 type  2   force =     0.00016135   -0.00045906    0.00010935
     atom   40 type  2   force =    -0.00018937   -0.00002264   -0.00032362
     atom   41 type  2   force =     0.00013909   -0.00032225    0.00000842
     atom   42 type  2   force =     0.00018491   -0.00034684    0.00001893
     atom   43 type  1   force =    -0.00027561    0.00008674    0.00005728
     atom   44 type  1   force =    -0.00002637   -0.00039240    0.00067221
     atom   45 type  2   force =     0.00009223    0.00011084    0.10050683
     atom   46 type  2   force =    -0.07671161   -0.00006184   -0.03010092
     atom   47 type  2   force =     0.07670165    0.00036016   -0.03013279
     atom   48 type  3   force =     0.00032888    0.00863286   -0.00240301
     atom   49 type  3   force =     0.00042256   -0.00305256    0.00312082
     atom   50 type  4   force =    -0.00078852   -0.00301623   -0.00057937
     atom   51 type  5   force =     0.00010364   -0.00202696   -0.00017415
     atom   52 type  5   force =     0.00012942    0.00020910   -0.00054989
     atom   53 type  5   force =    -0.00045044   -0.00014468    0.00054170
     atom   54 type  2   force =     0.00043853    0.00120263    0.00025904
     atom   55 type  5   force =    -0.00080344   -0.00093797   -0.00041203

     Total force =     0.381708     Total SCF correction =     0.000662
  @ DRIVER MODE: Message from server: STATUS
  @ DRIVER MODE: Message from server: GETFORCE
  @ DRIVER MODE: Returning v,forces,stress,ensemble

     Writing output data file ./calc.save/
  @ DRIVER MODE: Message from server: EXIT
  @ DRIVE MODE: Exiting

     General routines

     Parallel routines

   This run was terminated on:  21:41:25   9Sep2021

   JOB DONE.