     Program PWSCF v.6.7GPU starts on  9Sep2021 at  6:57: 0

     R & G space division:  proc/nbgrp/npool/nimage =      10
     Reading input from /storage/home/hcoda1/3/ntian30/research/carbon/CxH_vib/CH3_calc/ads_slab/CH3OH_e/out_0028/pw.inp
Warning: card &CELL ignored
Warning: card   CELL_DYNAMICS='IPI', ignored
Warning: card / ignored

     Current dimensions of program PWSCF are:
     Max number of different atomic species (ntypx) = 10
     Max number of k-points (npk) =  40000
     Max angular momentum in pseudopotentials (lmaxx) =  3
     Presently no symmetry can be used with electric field

     Message from routine cell_base_init:
     DEPRECATED: use true lattice parameter, not A to a.u. conversion factor

     IMPORTANT: XC functional enforced from input :
     Exchange-correlation= BEEF-VDW
                           (   1   4  43  14   2   0   0)
     Any further DFT definition will be discarded
     Please, verify this is what you really want

  @ DRIVER MODE: Connecting to
 qe_1139763_2767404.sched-torque.pace.gatech.edu16kbnoe7_scratch
  using UNIX socket
  @ DRIVER MODE: Message from server: STATUS
  @ DRIVER MODE: Message from server: INIT
  @ DRIVER MODE: Receiving replica           0          -1
  @ DRIVER MODE: Receiving encoded integer          25
  @ DRIVER MODE:  SCF:  T  FORCE:  T  STRESS:  F  VC:  F  ENSEMBLE:  F
  @ DRIVER MODE:  SCF:  T  FORCE:  T  STRESS:  F  VC:  F  ENSEMBLE:  F

     Using Slab Decomposition

     bravais-lattice index     =            0
     lattice parameter (alat)  =       1.8897  a.u.
     unit-cell volume          =    6658.9804 (a.u.)^3
     number of atoms/cell      =           53
     number of atomic types    =            4
     number of electrons       =       392.00
     number of Kohn-Sham states=          206
     kinetic-energy cutoff     =      29.3995  Ry
     charge density cutoff     =     293.9946  Ry
     scf convergence threshold =      7.3E-08
     mixing beta               =       0.0500
     number of iterations used =            8  plain     mixing
     Exchange-correlation= BEEF-VDW
                           (   1   4  43  14   2   0   0)

     celldm(1)=   1.889726  celldm(2)=   0.000000  celldm(3)=   0.000000
     celldm(4)=   0.000000  celldm(5)=   0.000000  celldm(6)=   0.000000

     crystal axes: (cart. coord. in units of alat)
               a(1) = (   6.579727   0.000000   0.000000 )
               a(2) = (  -0.000775   5.961596   0.000000 )
               a(3) = (   0.000000   0.000000  25.155947 )

     reciprocal axes: (cart. coord. in units 2 pi/alat)
               b(1) = (  0.151982  0.000020  0.000000 )
               b(2) = (  0.000000  0.167740  0.000000 )
               b(3) = (  0.000000  0.000000  0.039752 )

     PseudoPot. # 1 for Ti read from file:
     /storage/coda1/p-amedford6/0/shared/rich_project_chbe-medford/medford-share/data/pseudos_module/espresso/nninc/pbe/van/Ti.UPF
     MD5 check sum: 8e4df49b7f0d34bbd5052bf3f5ea0213
     Pseudo is Ultrasoft, Zval = 12.0
     Generated by new atomic code, or converted to UPF format
     Using radial grid of  851 points,  6 beta functions with:
                l(1) =   0
                l(2) =   0
                l(3) =   1
                l(4) =   1
                l(5) =   2
                l(6) =   2
     Q(r) pseudized with  8 coefficients,  rinner =    1.000   1.000   1.000
                                                       1.000   1.000

     PseudoPot. # 2 for O  read from file:
     /storage/coda1/p-amedford6/0/shared/rich_project_chbe-medford/medford-share/data/pseudos_module/espresso/nninc/pbe/van/O.UPF
     MD5 check sum: 78c19812648e8988a0fe644b0f25305e
     Pseudo is Ultrasoft, Zval =  6.0
     Generated by new atomic code, or converted to UPF format
     Using radial grid of  737 points,  4 beta functions with:
                l(1) =   0
                l(2) =   0
                l(3) =   1
                l(4) =   1
     Q(r) pseudized with  8 coefficients,  rinner =    0.800   0.800   0.800

     PseudoPot. # 3 for C  read from file:
     /storage/coda1/p-amedford6/0/shared/rich_project_chbe-medford/medford-share/data/pseudos_module/espresso/nninc/pbe/van/C.UPF
     MD5 check sum: 1a69bf6b8db32088f5b2163dbdb77a27
     Pseudo is Ultrasoft, Zval =  4.0
     Generated by new atomic code, or converted to UPF format
     Using radial grid of  721 points,  4 beta functions with:
                l(1) =   0
                l(2) =   0
                l(3) =   1
                l(4) =   1
     Q(r) pseudized with  8 coefficients,  rinner =    0.800   0.800   0.800

     PseudoPot. # 4 for H  read from file:
     /storage/coda1/p-amedford6/0/shared/rich_project_chbe-medford/medford-share/data/pseudos_module/espresso/nninc/pbe/van/H.UPF
     MD5 check sum: b5ee9d7bfd3a09ee7748110bda690ff7
     Pseudo is Ultrasoft, Zval =  1.0
     Generated by new atomic code, or converted to UPF format
     Using radial grid of  615 points,  1 beta functions with:
                l(1) =   0
     Q(r) pseudized with  8 coefficients,  rinner =    0.800

     atomic species   valence    mass     pseudopotential
        Ti1           12.00    47.86700     Ti( 1.00)
        O1             6.00    15.99900     O ( 1.00)
        C1             4.00    12.01100     C ( 1.00)
        H1             1.00     1.00800     H ( 1.00)

     No symmetry found

   Cartesian axes

     site n.     atom                  positions (alat units)
         1           Ti1 tau(   1) = (   0.0004258   2.9801865   6.0000000  )
         2           Ti1 tau(   2) = (   3.2906075   1.4906267   6.0002472  )
         3           O1  tau(   3) = (   0.0006271   0.0005054   7.9858123  )
         4           O1  tau(   4) = (   3.2906025   0.0005020   7.3038282  )
         5           O1  tau(   5) = (   4.5942328   1.4918067   9.2879030  )
         6           O1  tau(   6) = (   1.9868534   1.4903216   9.2879459  )
         7           Ti1 tau(   7) = (   3.3184627   3.0104606   9.1553648  )
         8           Ti1 tau(   8) = (   0.0346466   1.5145919   9.2725854  )
         9           O1  tau(   9) = (   3.3323670   0.0074739  11.3628161  )
        10           O1  tau(  10) = (   0.0072146   0.0022432  10.6032180  )
        11           O1  tau(  11) = (   1.3334854   1.5010653  12.6312402  )
        12           O1  tau(  12) = (   5.3322653   1.4967215  12.6661074  )
        13           Ti1 tau(  13) = (   0.0399007   3.0049294  12.5399032  )
        14           Ti1 tau(  14) = (   3.3257882   1.5006484  12.5017209  )
        15           O1  tau(  15) = (   0.0958175   0.0109015  14.6781201  )
        16           O1  tau(  16) = (   3.3209445   0.0065530  13.9947117  )
        17           O1  tau(  17) = (   4.6470289   1.5235192  16.1521327  )
        18           O1  tau(  18) = (   2.1274687   1.5288575  16.1863263  )
        19           Ti1 tau(  19) = (   3.3866828   2.9872137  15.7186651  )
        20           Ti1 tau(  20) = (   0.0851359   1.3433488  15.9962781  )
        21           O1  tau(  21) = (   3.2904802   0.0005063   4.7018136  )
        22           O1  tau(  22) = (   0.0861787   0.0156205  17.2101336  )
        23           O1  tau(  23) = (   1.3043587   1.4918075   6.0039043  )
        24           O1  tau(  24) = (   5.2767064   1.4903225   6.0039473  )
        25           Ti1 tau(  25) = (   0.0000382   5.9609847   6.0000000  )
        26           Ti1 tau(  26) = (   3.2902200   4.4714249   6.0002472  )
        27           O1  tau(  27) = (   0.0002396   2.9813036   7.9858123  )
        28           O1  tau(  28) = (   3.2902150   2.9813002   7.3038282  )
        29           O1  tau(  29) = (   4.5938453   4.4726049   9.2879030  )
        30           O1  tau(  30) = (   1.9864658   4.4711199   9.2879459  )
        31           Ti1 tau(  31) = (   3.3160408   0.0312979   9.1533790  )
        32           Ti1 tau(  32) = (   0.0342031   4.4824714   9.2635914  )
        33           O1  tau(  33) = (   3.3296961   2.9874083  11.3532073  )
        34           O1  tau(  34) = (   0.0071558   2.9827229  10.6249429  )
        35           O1  tau(  35) = (   1.3339759   4.4780823  12.6303471  )
        36           O1  tau(  36) = (   5.3316377   4.4803543  12.6653953  )
        37           Ti1 tau(  37) = (   0.0318003   0.0267859  12.4824326  )
        38           Ti1 tau(  38) = (   3.3243002   4.4792164  12.4996646  )
        39           O1  tau(  39) = (   0.1017966   3.0039049  14.8467192  )
        40           O1  tau(  40) = (   3.3365867   2.9884115  13.9371009  )
        41           O1  tau(  41) = (   4.6519449   4.4651455  16.1366910  )
        42           O1  tau(  42) = (   2.1329502   4.4467914  16.2189938  )
        43           Ti1 tau(  43) = (   3.3530478   0.0116223  15.7847896  )
        44           Ti1 tau(  44) = (   0.0420906   4.5503417  15.8661587  )
        45           O1  tau(  45) = (   3.2900926   2.9813045   4.7018136  )
        46           O1  tau(  46) = (   1.3039711   4.4726057   6.0039043  )
        47           O1  tau(  47) = (   5.2763189   4.4711207   6.0039473  )
        48           C1  tau(  48) = (   6.0571888   3.1179766  18.9039971  )
        49           O1  tau(  49) = (   0.2335693   3.0433622  17.6694830  )
        50           H1  tau(  50) = (   5.0284728   2.8969007  18.6408099  )
        51           H1  tau(  51) = (   1.1757692   3.2348548  17.8288520  )
        52           H1  tau(  52) = (   6.4315421   2.3764480  19.5988381  )
        53           H1  tau(  53) = (   6.1352977   4.1238860  19.3131673  )

     number of k points=    10  Fermi-Dirac smearing, width (Ry)=  0.0073
                       cart. coord. in units 2pi/alat
        k(    1) = (   0.0000000   0.0000000   0.0000000), wk =   0.1250000
        k(    2) = (   0.0000000   0.0419351   0.0000000), wk =   0.2500000
        k(    3) = (   0.0000000  -0.0838702   0.0000000), wk =   0.1250000
        k(    4) = (   0.0379955   0.0000049   0.0000000), wk =   0.2500000
        k(    5) = (   0.0379955   0.0419400   0.0000000), wk =   0.2500000
        k(    6) = (   0.0379955  -0.0838652   0.0000000), wk =   0.2500000
        k(    7) = (   0.0379955  -0.0419301   0.0000000), wk =   0.2500000
        k(    8) = (  -0.0759910  -0.0000099   0.0000000), wk =   0.1250000
        k(    9) = (  -0.0759910   0.0419252   0.0000000), wk =   0.2500000
        k(   10) = (  -0.0759910  -0.0838800   0.0000000), wk =   0.1250000

     Initial potential from superposition of free atoms

     starting charge  375.99917, renormalised to  392.00000

     negative rho (up, down):  1.694E-02 0.000E+00

     %%%%%%%%%%%%%%%%%%%%%%%%%%%%%%%%%%%%%%%%%%%%%%%%%%%%%%%%%%%%%%%%%%%%%%%%
     %                                                                      %
     % You are using vdW-DF, which was implemented by the Thonhauser group. %
     % Please cite the following two papers that made this development      %
     % possible and the two reviews that describe the various versions:     %
     %                                                                      %
     %   T. Thonhauser et al., PRL 115, 136402 (2015).                      %
     %   T. Thonhauser et al., PRB 76, 125112 (2007).                       %
     %   K. Berland et al., Rep. Prog. Phys. 78, 066501 (2015).             %
     %   D.C. Langreth et al., J. Phys.: Condens. Matter 21, 084203 (2009). %
     %                                                                      %
     %                                                                      %
     % If you are calculating the stress with vdW-DF, please also cite:     %
     %                                                                      %
     %   R. Sabatini et al., J. Phys.: Condens. Matter 24, 424209 (2012).   %
     %                                                                      %
     %%%%%%%%%%%%%%%%%%%%%%%%%%%%%%%%%%%%%%%%%%%%%%%%%%%%%%%%%%%%%%%%%%%%%%%%

     Adding external electric field

     Computed dipole along edir(3) :
        Dipole               -7.1856 Ry au,        -18.2640 Debye
        Dipole field         -0.0136 Ry au,

        Potential amp.        1.2570 Ry
        Total length         46.3494 bohr

     Starting wfcs are  296 atomic wfcs
  @ DRIVER MODE: Message from server: STATUS
  @ DRIVER MODE: Message from server: POSDATA
  @ DRIVER MODE: Reading and sharing cell
  @ DRIVER MODE: Reading and sharing positions
  @ DRIVER MODE: Received positions

     Self-consistent Calculation

     iteration #  1     ecut=    29.40 Ry     beta= 0.05
     Davidson diagonalization with overlap
     c_bands:  1 eigenvalues not converged
     c_bands:  1 eigenvalues not converged
     c_bands:  2 eigenvalues not converged
     c_bands:  2 eigenvalues not converged
     c_bands:  1 eigenvalues not converged
     c_bands:  1 eigenvalues not converged
     ethr =  1.00E-05,  avg # of iterations = 19.0

[...]

     total energy              =   -2696.72880467 Ry
     estimated scf accuracy    <    2608.95111177 Ry

[...]

     iteration #  3     ecut=    29.40 Ry     beta= 0.05
     Davidson diagonalization with overlap
     ethr =  1.00E-02,  avg # of iterations = 15.2

[...]

     iteration # 79     ecut=    29.40 Ry     beta= 0.05
     Davidson diagonalization with overlap
     c_bands:  1 eigenvalues not converged
     ethr =  8.11E-10,  avg # of iterations = 15.4

[...]

     total energy              =   -2932.64530006 Ry
     estimated scf accuracy    <       0.00000018 Ry

     iteration # 89     ecut=    29.40 Ry     beta= 0.05
     Davidson diagonalization with overlap
     ethr =  4.55E-11,  avg # of iterations = 12.2

     negative rho (up, down):  1.739E-02 0.000E+00

     Adding external electric field

     Computed dipole along edir(3) :
        Dipole                1.3751 Ry au,          3.4951 Debye
        Dipole field          0.0026 Ry au,

        Potential amp.       -0.2405 Ry
        Total length         46.3494 bohr

     End of self-consistent calculation

          k = 0.0000 0.0000 0.0000 ( 18029 PWs)   bands (ev):

   -55.3995 -55.3673 -55.3633 -55.3330 -55.2939 -55.2879 -55.2860 -55.2421
   -55.2262 -55.2253 -55.1917 -55.1838 -55.1800 -55.1497 -54.4576 -54.4235
   -31.9751 -31.9066 -31.8625 -31.7729 -31.7269 -31.7035 -31.6962 -31.6949
   -31.6563 -31.6555 -31.6110 -31.6100 -31.6066 -31.5996 -31.5775 -31.5560
   -31.5515 -31.5341 -31.5291 -31.5214 -31.5190 -31.5081 -31.4842 -31.4837
   -31.4833 -31.4637 -31.4581 -31.4551 -31.4247 -31.4182 -31.4096 -31.3898
   -31.3880 -31.3877 -31.3679 -31.3623 -31.3533 -31.3424 -31.3278 -31.3204
   -31.3098 -31.2954 -30.8696 -30.7673 -30.7457 -30.6862 -30.5999 -30.4885
   -20.2565 -16.2467 -15.9800 -15.8450 -15.7407 -15.6186 -15.4904 -15.4784
   -15.3460 -15.2189 -15.1525 -15.1310 -15.0941 -15.0781 -15.0454 -15.0403
   -15.0253 -14.9543 -14.9279 -14.9088 -14.8828 -14.8789 -14.8415 -14.8304
   -14.7896 -14.7829 -14.6369 -14.5579 -14.4967 -14.2578 -12.9581 -12.8386
   -11.2553  -7.0124  -5.2157  -5.0656  -3.5819  -3.4106  -3.3612  -3.3313
    -3.3252  -3.2006  -3.0943  -3.0342  -2.8277  -2.7004  -2.6661  -2.6604
    -2.6227  -2.5839  -2.4697  -2.3797  -2.3534  -2.3406  -2.2938  -2.2872
    -2.2705  -2.2168  -2.1953  -2.1755  -2.1695  -2.0099  -1.9451  -1.8969
    -1.8842  -1.8375  -1.7993  -1.7396  -1.7361  -1.7212  -1.6836  -1.6794
    -1.6588  -1.6262  -1.6114  -1.4390  -1.3918  -1.3628  -1.2686  -1.1754
    -1.0878  -0.9893  -0.9726  -0.9584  -0.9135  -0.8461  -0.8376  -0.8044
    -0.7660  -0.6461  -0.5788  -0.5316  -0.4784  -0.4011  -0.4006  -0.3414
    -0.2038  -0.1895  -0.1812  -0.1656  -0.0622   0.0173   0.0300   0.0894
     0.1390   0.1618   0.2344   0.2541   0.3193   0.3426   0.4077   0.4247
     0.5120   0.5331   0.5471   0.5669   0.5848   0.6765   0.7028   0.7496
     0.7569   0.9118   1.0401   1.1632   1.1773   1.4577   1.5490   1.5686
     1.7278   2.1546   2.2094   3.6984   3.7628   3.8113   3.8200   3.8311
     3.9089   4.1875   4.1942   4.1998   4.2151   4.2242

[...]

          k = 0.0380-0.0419 0.0000 ( 17876 PWs)   bands (ev):

[...]

          k =-0.0760-0.0000 0.0000 ( 17886 PWs)   bands (ev):

[...]

          k =-0.0760-0.0839 0.0000 ( 17948 PWs)   bands (ev):

   -55.3822 -55.3803 -55.3520 -55.3481 -55.2877 -55.2843 -55.2802 -55.2498
   -55.2303 -55.2109 -55.2066 -55.1826 -55.1689 -55.1646 -54.4405 -54.4405
   -31.8246 -31.7782 -31.7766 -31.7030 -31.6792 -31.6756 -31.6629 -31.6451
   -31.6379 -31.6181 -31.6048 -31.6006 -31.5955 -31.5771 -31.5494 -31.5394
   -31.5305 -31.5272 -31.5270 -31.5242 -31.5228 -31.5195 -31.5114 -31.4844
   -31.4779 -31.4748 -31.4722 -31.4716 -31.4699 -31.4685 -31.4643 -31.4498
   -31.4411 -31.4354 -31.4220 -31.4111 -31.4095 -31.3911 -31.3866 -31.3699
   -31.3567 -31.3526 -30.7583 -30.7582 -30.6824 -30.6822 -30.6431 -30.6430
   -20.2530 -15.7748 -15.6838 -15.6091 -15.4199 -15.4087 -15.3998 -15.3932
   -15.2808 -15.2518 -15.2203 -15.1794 -15.1635 -15.1596 -15.1430 -15.1351
   -14.9980 -14.9943 -14.9892 -14.9877 -14.9170 -14.9121 -14.8976 -14.8829
   -14.8446 -14.8400 -14.8244 -14.8185 -14.7175 -14.5754 -12.9400 -12.9392
   -11.2571  -7.0129  -5.2056  -5.0552  -3.1222  -2.9618  -2.8806  -2.8700
    -2.6342  -2.6274  -2.5875  -2.5270  -2.4755  -2.4238  -2.3985  -2.3954
    -2.3178  -2.3139  -2.3071  -2.3016  -2.2693  -2.2658  -2.2225  -2.1985
    -2.1751  -2.1204  -2.1031  -2.0929  -2.0696  -2.0650  -2.0561  -2.0310
    -2.0262  -2.0077  -1.9395  -1.8603  -1.7890  -1.7719  -1.7372  -1.6238
    -1.6136  -1.5774  -1.5368  -1.4938  -1.4732  -1.4483  -1.4020  -1.3494
    -1.2472  -1.1943  -1.1866  -1.1466  -1.0789  -1.0328  -0.9995  -0.9506
    -0.9015  -0.8693  -0.8281  -0.7611  -0.7109  -0.6210  -0.6151  -0.5714
    -0.4311  -0.4257  -0.4003  -0.3898  -0.3870  -0.3011  -0.2872  -0.2418
    -0.1959  -0.1418  -0.1172  -0.1089   0.0873   0.0968   0.1816   0.2741
     0.2839   0.4391   0.4547   0.5214   0.5931   0.6367   0.6769   0.7403
     0.8397   0.8717   0.8948   0.9887   1.0304   1.0360   1.0628   1.9205
     1.9217   2.0236   2.0265   3.8401   3.9125   3.9450   4.0164   4.0772
     4.2074   4.2201   4.2502   4.2561   4.3313   4.3437

     the Fermi energy is     3.7534 ev

!    total energy              =   -2932.64530266 Ry
     estimated scf accuracy    <       0.00000006 Ry
     smearing contrib. (-TS)   =      -0.03689910 Ry
     internal energy E=F+TS    =   -2932.60840357 Ry

     The total energy is F=E-TS. E is the sum of the following terms:
     one-electron contribution =  -24389.44565454 Ry
     hartree contribution      =   12284.50166279 Ry
     xc contribution           =    -483.02287614 Ry
     ewald contribution        =    9655.35489609 Ry
     electric field correction =       0.00356824 Ry

     convergence has been achieved in  89 iterations

     Forces acting on atoms (cartesian axes, Ry/au):

     atom    1 type  1   force =    -0.00034029   -0.00014653    0.09278458
     atom    2 type  1   force =    -0.00024472    0.00066014   -0.18344767
     atom    3 type  2   force =     0.00047483    0.00086185   -0.02413723
     atom    4 type  2   force =     0.00075501    0.00051682    0.04952076
     atom    5 type  2   force =    -0.01309983    0.00029351    0.00325100
     atom    6 type  2   force =     0.01563437   -0.00028530    0.00544271
     atom    7 type  1   force =     0.00018862    0.00090851   -0.00000236
     atom    8 type  1   force =    -0.00022007   -0.00026385   -0.00038794
     atom    9 type  2   force =    -0.00005697    0.00023094   -0.00024033
     atom   10 type  2   force =     0.00013992    0.00048606    0.00163122
     atom   11 type  2   force =     0.00000004   -0.00046365    0.00003681
     atom   12 type  2   force =    -0.00056202    0.00040813   -0.00026854
     atom   13 type  1   force =     0.00101679   -0.00064596    0.00009722
     atom   14 type  1   force =    -0.00081246    0.00093664    0.00067354
     atom   15 type  2   force =    -0.00064895   -0.00023519   -0.00026457
     atom   16 type  2   force =     0.00064991   -0.00024038   -0.00045169
     atom   17 type  2   force =    -0.00063257    0.00005825    0.00093691
     atom   18 type  2   force =    -0.00043268   -0.00020713    0.00015954
     atom   19 type  1   force =    -0.00011209   -0.00085899    0.00003725
     atom   20 type  1   force =    -0.00042273    0.00012790   -0.00012347
     atom   21 type  2   force =    -0.00005232    0.00001259    0.10499059
     atom   22 type  2   force =    -0.00018983   -0.00134619    0.00100318
     atom   23 type  2   force =    -0.06795345   -0.00004038   -0.02677695
     atom   24 type  2   force =     0.06773127    0.00039944   -0.02686499
     atom   25 type  1   force =    -0.00037895    0.00013577    0.09635716
     atom   26 type  1   force =    -0.00022539   -0.00047174   -0.18357323
     atom   27 type  2   force =     0.00041985    0.00058760   -0.02278129
     atom   28 type  2   force =     0.00079398    0.00033176    0.04922102
     atom   29 type  2   force =    -0.01324261    0.00068026    0.00321484
     atom   30 type  2   force =     0.01571293    0.00023769    0.00536512
     atom   31 type  1   force =     0.00030036   -0.00137153   -0.00016905
     atom   32 type  1   force =    -0.00006265   -0.00015182    0.00030996
     atom   33 type  2   force =     0.00033827   -0.00009978    0.00077304
     atom   34 type  2   force =     0.00036482    0.00036290    0.00037557
     atom   35 type  2   force =    -0.00035504    0.00005215    0.00013583
     atom   36 type  2   force =    -0.00026377    0.00028818    0.00002211
     atom   37 type  1   force =     0.00137586   -0.00001041   -0.00051624
     atom   38 type  1   force =    -0.00077398   -0.00077990    0.00093467
     atom   39 type  2   force =    -0.00064824    0.00018860   -0.00057705
     atom   40 type  2   force =    -0.00062830    0.00037022   -0.00014258
     atom   41 type  2   force =    -0.00065337   -0.00008214    0.00071512
     atom   42 type  2   force =    -0.00077891   -0.00026382    0.00022641
     atom   43 type  1   force =    -0.00039128    0.00098798    0.00033302
     atom   44 type  1   force =     0.00029952    0.00023146    0.00063755
     atom   45 type  2   force =    -0.00005209    0.00003035    0.10496732
     atom   46 type  2   force =    -0.06791332   -0.00057598   -0.02679251
     atom   47 type  2   force =     0.06768856   -0.00010410   -0.02686703
     atom   48 type  3   force =    -0.00251408    0.00580035   -0.00474656
     atom   49 type  2   force =    -0.00060827   -0.00096293   -0.00013186
     atom   50 type  4   force =     0.00007866   -0.00040338    0.00115944
     atom   51 type  4   force =    -0.00018542   -0.00028517    0.00038076
     atom   52 type  4   force =     0.00219002   -0.00660985    0.00447764
     atom   53 type  4   force =    -0.00069692    0.00072001   -0.00090876

     Total force =     0.368277     Total SCF correction =     0.000362
  @ DRIVER MODE: Message from server: STATUS
  @ DRIVER MODE: Message from server: GETFORCE
  @ DRIVER MODE: Returning v,forces,stress,ensemble

     Writing output data file ./calc.save/
  @ DRIVER MODE: Message from server: EXIT
  @ DRIVE MODE: Exiting

     General routines

     Parallel routines

   This run was terminated on:   7:21: 6   9Sep2021

   JOB DONE.