     Program PWSCF v.6.7GPU starts on 25Aug2021 at  4:54:21

     R & G space division:  proc/nbgrp/npool/nimage =       6
     Reading input from /storage/home/hcoda1/3/ntian30/research/carbon/CH3_vib_end_on/ads_slab/CH3N2H_a/out_0025/pw.inp
Warning: card &CELL ignored
Warning: card   CELL_DYNAMICS='IPI', ignored
Warning: card / ignored

     Current dimensions of program PWSCF are:
     Max number of different atomic species (ntypx) = 10
     Max number of k-points (npk) =  40000
     Max angular momentum in pseudopotentials (lmaxx) =  3
     Presently no symmetry can be used with electric field

     Message from routine cell_base_init:
     DEPRECATED: use true lattice parameter, not A to a.u. conversion factor

     IMPORTANT: XC functional enforced from input :
     Exchange-correlation= BEEF-VDW
                           (   1   4  43  14   2   0   0)
     Any further DFT definition will be discarded
     Please, verify this is what you really want

  @ DRIVER MODE: Connecting to
 qe_1139763_2643869.sched-torque.pace.gatech.eduv0hjd826_scratch
  using UNIX socket
  @ DRIVER MODE: Message from server: STATUS
  @ DRIVER MODE: Message from server: INIT
  @ DRIVER MODE: Receiving replica           0          -1
  @ DRIVER MODE: Receiving encoded integer          25
  @ DRIVER MODE:  SCF:  T  FORCE:  T  STRESS:  F  VC:  F  ENSEMBLE:  F
  @ DRIVER MODE:  SCF:  T  FORCE:  T  STRESS:  F  VC:  F  ENSEMBLE:  F

     Using Slab Decomposition

     bravais-lattice index     =            0
     lattice parameter (alat)  =       1.8897  a.u.
     unit-cell volume          =    6658.9804 (a.u.)^3
     number of atoms/cell      =           54
     number of atomic types    =            5
     number of electrons       =       396.00
     number of Kohn-Sham states=          208
     kinetic-energy cutoff     =      29.3995  Ry
     charge density cutoff     =     293.9946  Ry
     scf convergence threshold =      7.3E-08
     mixing beta               =       0.0500
     number of iterations used =            8  plain     mixing
     Exchange-correlation= BEEF-VDW
                           (   1   4  43  14   2   0   0)

     celldm(1)=   1.889726  celldm(2)=   0.000000  celldm(3)=   0.000000
     celldm(4)=   0.000000  celldm(5)=   0.000000  celldm(6)=   0.000000

     crystal axes: (cart. coord. in units of alat)
               a(1) = (   6.579727   0.000000   0.000000 )
               a(2) = (  -0.000775   5.961596   0.000000 )
               a(3) = (   0.000000   0.000000  25.155947 )

     reciprocal axes: (cart. coord. in units 2 pi/alat)
               b(1) = (  0.151982  0.000020  0.000000 )
               b(2) = (  0.000000  0.167740  0.000000 )
               b(3) = (  0.000000  0.000000  0.039752 )

     PseudoPot. # 1 for Ti read from file:
     /storage/coda1/p-amedford6/0/shared/rich_project_chbe-medford/medford-share/data/pseudos_module/espresso/nninc/pbe/van/Ti.UPF
     MD5 check sum: 8e4df49b7f0d34bbd5052bf3f5ea0213
     Pseudo is Ultrasoft, Zval = 12.0
     Generated by new atomic code, or converted to UPF format
     Using radial grid of  851 points,  6 beta functions with:
                l(1) =   0
                l(2) =   0
                l(3) =   1
                l(4) =   1
                l(5) =   2
                l(6) =   2
     Q(r) pseudized with  8 coefficients,  rinner =    1.000   1.000   1.000
                                                       1.000   1.000

     PseudoPot. # 2 for O  read from file:
     /storage/coda1/p-amedford6/0/shared/rich_project_chbe-medford/medford-share/data/pseudos_module/espresso/nninc/pbe/van/O.UPF
     MD5 check sum: 78c19812648e8988a0fe644b0f25305e
     Pseudo is Ultrasoft, Zval =  6.0
     Generated by new atomic code, or converted to UPF format
     Using radial grid of  737 points,  4 beta functions with:
                l(1) =   0
                l(2) =   0
                l(3) =   1
                l(4) =   1
     Q(r) pseudized with  8 coefficients,  rinner =    0.800   0.800   0.800

     PseudoPot. # 3 for N  read from file:
     /storage/coda1/p-amedford6/0/shared/rich_project_chbe-medford/medford-share/data/pseudos_module/espresso/nninc/pbe/van/N.UPF
     MD5 check sum: 90d10febe142ad51ac9d5be1deb811c4
     Pseudo is Ultrasoft, Zval =  5.0
     Generated by new atomic code, or converted to UPF format
     Using radial grid of  729 points,  4 beta functions with:
                l(1) =   0
                l(2) =   0
                l(3) =   1
                l(4) =   1
     Q(r) pseudized with  8 coefficients,  rinner =    0.800   0.800   0.800

     PseudoPot. # 4 for C  read from file:
     /storage/coda1/p-amedford6/0/shared/rich_project_chbe-medford/medford-share/data/pseudos_module/espresso/nninc/pbe/van/C.UPF
     MD5 check sum: 1a69bf6b8db32088f5b2163dbdb77a27
     Pseudo is Ultrasoft, Zval =  4.0
     Generated by new atomic code, or converted to UPF format
     Using radial grid of  721 points,  4 beta functions with:
                l(1) =   0
                l(2) =   0
                l(3) =   1
                l(4) =   1
     Q(r) pseudized with  8 coefficients,  rinner =    0.800   0.800   0.800

     PseudoPot. # 5 for H  read from file:
     /storage/coda1/p-amedford6/0/shared/rich_project_chbe-medford/medford-share/data/pseudos_module/espresso/nninc/pbe/van/H.UPF
     MD5 check sum: b5ee9d7bfd3a09ee7748110bda690ff7
     Pseudo is Ultrasoft, Zval =  1.0
     Generated by new atomic code, or converted to UPF format
     Using radial grid of  615 points,  1 beta functions with:
                l(1) =   0
     Q(r) pseudized with  8 coefficients,  rinner =    0.800

     atomic species   valence    mass     pseudopotential
        Ti1           12.00    47.86700     Ti( 1.00)
        O1             6.00    15.99900     O ( 1.00)
        N1             5.00    14.00700     N ( 1.00)
        C1             4.00    12.01100     C ( 1.00)
        H1             1.00     1.00800     H ( 1.00)

     No symmetry found

   Cartesian axes

     site n.     atom                  positions (alat units)
         1           Ti1 tau(   1) = (   0.0004258   2.9801865   6.0000000  )
         2           Ti1 tau(   2) = (   3.2906075   1.4906267   6.0002472  )
         3           O1  tau(   3) = (   0.0006271   0.0005054   7.9858123  )
         4           O1  tau(   4) = (   3.2906025   0.0005020   7.3038282  )
         5           O1  tau(   5) = (   4.5942328   1.4918067   9.2879030  )
         6           O1  tau(   6) = (   1.9868534   1.4903216   9.2879459  )
         7           Ti1 tau(   7) = (   3.2907910   2.8959150   9.1758416  )
         8           Ti1 tau(   8) = (   0.0015273   1.4827037   9.2680791  )
         9           O1  tau(   9) = (   3.2896288   0.0042867  11.3205077  )
        10           O1  tau(  10) = (   0.0116148   5.9584955  10.6183126  )
        11           O1  tau(  11) = (   1.2848067   1.4985890  12.6232755  )
        12           O1  tau(  12) = (   5.2688617   1.4893877  12.6055203  )
        13           Ti1 tau(  13) = (   0.0799559   3.0171279  12.6206390  )
        14           Ti1 tau(  14) = (   3.4009582   1.4891986  12.4726338  )
        15           O1  tau(  15) = (   6.5707323   0.0080309  14.6263129  )
        16           O1  tau(  16) = (   3.2902489   0.0120312  13.8979102  )
        17           O1  tau(  17) = (   4.5126121   1.5346005  16.0500440  )
        18           O1  tau(  18) = (   2.0453867   1.5362785  16.0447169  )
        19           Ti1 tau(  19) = (   3.2767562   3.0203775  15.6892921  )
        20           Ti1 tau(  20) = (   6.5596632   1.5778499  15.8310978  )
        21           O1  tau(  21) = (   3.2904802   0.0005063   4.7018136  )
        22           O1  tau(  22) = (   6.5709656   0.0671247  17.2345223  )
        23           O1  tau(  23) = (   1.3043587   1.4918075   6.0039043  )
        24           O1  tau(  24) = (   5.2767064   1.4903225   6.0039473  )
        25           Ti1 tau(  25) = (   0.0000382   5.9609847   6.0000000  )
        26           Ti1 tau(  26) = (   3.2902200   4.4714249   6.0002472  )
        27           O1  tau(  27) = (   0.0002396   2.9813036   7.9858123  )
        28           O1  tau(  28) = (   3.2902150   2.9813002   7.3038282  )
        29           O1  tau(  29) = (   4.5938453   4.4726049   9.2879030  )
        30           O1  tau(  30) = (   1.9864658   4.4711199   9.2879459  )
        31           Ti1 tau(  31) = (   3.2891106   5.8743827   9.1763621  )
        32           Ti1 tau(  32) = (   0.0006254   4.4649316   9.2693709  )
        33           O1  tau(  33) = (   3.2919429   2.9835650  11.3172650  )
        34           O1  tau(  34) = (   0.0092240   2.9805883  10.6323155  )
        35           O1  tau(  35) = (   1.2842535   4.4799506  12.6241420  )
        36           O1  tau(  36) = (   5.2755836   4.4732255  12.6042992  )
        37           Ti1 tau(  37) = (   0.0783641   0.0295629  12.6394962  )
        38           Ti1 tau(  38) = (   3.4022659   4.4693352  12.4708195  )
        39           O1  tau(  39) = (   6.5693815   2.9799975  14.6326336  )
        40           O1  tau(  40) = (   3.2899495   3.0014797  13.8849495  )
        41           O1  tau(  41) = (   4.5062741   4.5069571  16.0893315  )
        42           O1  tau(  42) = (   2.0480812   4.5060041  16.0753496  )
        43           Ti1 tau(  43) = (   3.2742444   0.0367023  15.7020416  )
        44           Ti1 tau(  44) = (   6.5658628   4.6518251  16.1481936  )
        45           O1  tau(  45) = (   3.2900926   2.9813045   4.7018136  )
        46           O1  tau(  46) = (   1.3039711   4.4726057   6.0039043  )
        47           O1  tau(  47) = (   5.2763189   4.4711207   6.0039473  )
        48           N1  tau(  48) = (   6.5201982   2.6597193  18.5868863  )
        49           N1  tau(  49) = (   6.5663212   2.9659568  17.3251533  )
        50           C1  tau(  50) = (   0.1092964   3.6297355  19.6533281  )
        51           H1  tau(  51) = (   6.1365678   4.5355971  19.4091500  )
        52           H1  tau(  52) = (   6.3042024   3.1981282  20.5813133  )
        53           H1  tau(  53) = (   1.1661384   3.8973747  19.7839464  )
        54           H1  tau(  54) = (   6.5756389   1.6632157  18.8047554  )

     number of k points=    10  Fermi-Dirac smearing, width (Ry)=  0.0073
                       cart. coord. in units 2pi/alat
        k(    1) = (   0.0000000   0.0000000   0.0000000), wk =   0.1250000
        k(    2) = (   0.0000000   0.0419351   0.0000000), wk =   0.2500000
        k(    3) = (   0.0000000  -0.0838702   0.0000000), wk =   0.1250000
        k(    4) = (   0.0379955   0.0000049   0.0000000), wk =   0.2500000
        k(    5) = (   0.0379955   0.0419400   0.0000000), wk =   0.2500000
        k(    6) = (   0.0379955  -0.0838652   0.0000000), wk =   0.2500000
        k(    7) = (   0.0379955  -0.0419301   0.0000000), wk =   0.2500000
        k(    8) = (  -0.0759910  -0.0000099   0.0000000), wk =   0.1250000
        k(    9) = (  -0.0759910   0.0419252   0.0000000), wk =   0.2500000
        k(   10) = (  -0.0759910  -0.0838800   0.0000000), wk =   0.1250000

     Initial potential from superposition of free atoms

     starting charge  379.99915, renormalised to  396.00000

     negative rho (up, down):  1.474E-02 0.000E+00

     %%%%%%%%%%%%%%%%%%%%%%%%%%%%%%%%%%%%%%%%%%%%%%%%%%%%%%%%%%%%%%%%%%%%%%%%
     %                                                                      %
     % You are using vdW-DF, which was implemented by the Thonhauser group. %
     % Please cite the following two papers that made this development      %
     % possible and the two reviews that describe the various versions:     %
     %                                                                      %
     %   T. Thonhauser et al., PRL 115, 136402 (2015).                      %
     %   T. Thonhauser et al., PRB 76, 125112 (2007).                       %
     %   K. Berland et al., Rep. Prog. Phys. 78, 066501 (2015).             %
     %   D.C. Langreth et al., J. Phys.: Condens. Matter 21, 084203 (2009). %
     %                                                                      %
     %                                                                      %
     % If you are calculating the stress with vdW-DF, please also cite:     %
     %                                                                      %
     %   R. Sabatini et al., J. Phys.: Condens. Matter 24, 424209 (2012).   %
     %                                                                      %
     %%%%%%%%%%%%%%%%%%%%%%%%%%%%%%%%%%%%%%%%%%%%%%%%%%%%%%%%%%%%%%%%%%%%%%%%

     Adding external electric field

     Computed dipole along edir(3) :
        Dipole               -9.2704 Ry au,        -23.5631 Debye
        Dipole field         -0.0175 Ry au,

        Potential amp.        1.6217 Ry
        Total length         46.3494 bohr

     Starting wfcs are  300 atomic wfcs
  @ DRIVER MODE: Message from server: STATUS
  @ DRIVER MODE: Message from server: POSDATA
  @ DRIVER MODE: Reading and sharing cell
  @ DRIVER MODE: Reading and sharing positions
  @ DRIVER MODE: Received positions

     Self-consistent Calculation

     iteration #  1     ecut=    29.40 Ry     beta= 0.05
     Davidson diagonalization with overlap
     c_bands:  1 eigenvalues not converged
     c_bands:  1 eigenvalues not converged
     c_bands:  1 eigenvalues not converged
     ethr =  1.00E-05,  avg # of iterations = 17.9

[...]

     total energy              =   -2585.16405796 Ry
     estimated scf accuracy    <    3948.43757535 Ry

     iteration #  2     ecut=    29.40 Ry     beta= 0.05
     Davidson diagonalization with overlap
     ethr =  1.00E-02,  avg # of iterations = 22.5

[...]

     iteration # 41     ecut=    29.40 Ry     beta= 0.05
     Davidson diagonalization with overlap
     c_bands:  1 eigenvalues not converged
     ethr =  1.31E-06,  avg # of iterations =  4.2

[...]

     total energy              =   -2940.39767341 Ry
     estimated scf accuracy    <       0.00000013 Ry

     iteration # 74     ecut=    29.40 Ry     beta= 0.05
     Davidson diagonalization with overlap
     ethr =  3.40E-11,  avg # of iterations =  8.0

     negative rho (up, down):  1.567E-02 0.000E+00

     Adding external electric field

     Computed dipole along edir(3) :
        Dipole                1.1302 Ry au,          2.8726 Debye
        Dipole field          0.0021 Ry au,

        Potential amp.       -0.1977 Ry
        Total length         46.3494 bohr

     End of self-consistent calculation

          k = 0.0000 0.0000 0.0000 ( 18029 PWs)   bands (ev):

   -55.6437 -55.6097 -55.5516 -55.5140 -55.4076 -55.3853 -55.3738 -55.3499
   -55.3430 -55.3357 -55.3161 -55.2660 -54.7253 -54.5857 -54.5568 -54.5517
   -32.1182 -32.0952 -31.9380 -31.9249 -31.8948 -31.8642 -31.8461 -31.8394
   -31.7970 -31.7800 -31.7793 -31.7405 -31.7314 -31.7135 -31.7025 -31.6922
   -31.6822 -31.6732 -31.6398 -31.6285 -31.6061 -31.5859 -31.5785 -31.5642
   -31.5513 -31.5451 -31.5383 -31.5366 -31.5308 -31.5138 -31.5046 -31.5029
   -31.4992 -31.4621 -31.4476 -31.3801 -31.2230 -30.9915 -30.9483 -30.9338
   -30.9068 -30.8942 -30.8841 -30.8083 -30.7651 -30.7365 -30.7220 -30.6110
   -18.0010 -16.2778 -16.0502 -15.7727 -15.6716 -15.6483 -15.5275 -15.3951
   -15.2947 -15.1996 -15.1595 -15.1051 -15.1003 -15.0711 -15.0410 -15.0048
   -14.9770 -14.9379 -14.9194 -14.9001 -14.8744 -14.8655 -14.7556 -14.7414
   -14.7172 -14.6258 -14.6155 -14.5423 -14.5165 -14.0861 -13.0881 -12.9724
   -12.0153  -8.9284  -5.7157  -4.4580  -4.1618  -3.6607  -3.5351  -3.5046
    -3.4031  -3.2249  -3.1385  -3.0784  -2.9354  -2.7649  -2.7299  -2.7201
    -2.7000  -2.6422  -2.4441  -2.4188  -2.3870  -2.3475  -2.3377  -2.3353
    -2.3210  -2.2594  -2.1926  -2.1285  -2.0299  -2.0253  -1.9688  -1.9554
    -1.9385  -1.9033  -1.8600  -1.8208  -1.7991  -1.7571  -1.7385  -1.7319
    -1.6901  -1.6085  -1.5055  -1.3486  -1.3324  -1.3010  -1.2525  -1.1978
    -1.0332  -1.0171  -0.9800  -0.9739  -0.9419  -0.8667  -0.7997  -0.7145
    -0.6782  -0.6011  -0.5856  -0.5568  -0.4825  -0.3969  -0.3741  -0.3592
    -0.3516  -0.3360  -0.2777  -0.1633  -0.0682  -0.0382   0.0830   0.0876
     0.1228   0.1670   0.1836   0.2655   0.3015   0.3154   0.3666   0.3670
     0.3788   0.4227   0.4457   0.5083   0.5642   0.6483   0.7217   0.7871
     0.8239   0.9402   1.0111   1.0762   1.1086   1.2377   1.3663   1.3743
     1.4358   1.6318   1.6339   2.0044   2.0487   3.5276   3.5488   3.6415
     3.6850   3.7829   3.8219   3.9662   4.0214   4.0587   4.1742   4.2042

[...]

          k = 0.0380-0.0419 0.0000 ( 17876 PWs)   bands (ev):

[...]

          k =-0.0760-0.0000 0.0000 ( 17886 PWs)   bands (ev):

[...]

          k =-0.0760-0.0839 0.0000 ( 17948 PWs)   bands (ev):

   -55.6268 -55.6265 -55.5386 -55.5268 -55.3907 -55.3904 -55.3763 -55.3520
   -55.3344 -55.3316 -55.3310 -55.2706 -54.7237 -54.5686 -54.5686 -54.5582
   -31.9337 -31.9337 -31.9232 -31.9232 -31.9030 -31.8936 -31.7962 -31.7864
   -31.7626 -31.7498 -31.7477 -31.7473 -31.7026 -31.6997 -31.6872 -31.6838
   -31.6751 -31.6714 -31.6709 -31.6454 -31.6014 -31.5992 -31.5864 -31.5834
   -31.5790 -31.5774 -31.5758 -31.5653 -31.5628 -31.5570 -31.5493 -31.5463
   -31.5393 -31.5292 -31.5031 -31.4683 -31.1323 -30.9685 -30.9347 -30.9218
   -30.8968 -30.8968 -30.8045 -30.8044 -30.7843 -30.7664 -30.7652 -30.7652
   -17.9952 -15.7008 -15.6894 -15.5105 -15.5053 -15.4447 -15.4385 -15.2859
   -15.2850 -15.2662 -15.2580 -15.1351 -15.1313 -15.0994 -15.0958 -15.0535
   -15.0447 -15.0269 -15.0185 -15.0169 -15.0102 -14.9833 -14.9324 -14.8989
   -14.8934 -14.7158 -14.7151 -14.5946 -14.5617 -14.2214 -13.0744 -13.0743
   -12.0162  -8.9383  -5.7073  -4.3967  -4.1644  -2.9905  -2.9785  -2.9498
    -2.7052  -2.7001  -2.6755  -2.6651  -2.4599  -2.4472  -2.4262  -2.4206
    -2.3932  -2.3874  -2.3725  -2.3653  -2.2821  -2.2717  -2.2605  -2.2366
    -2.2339  -2.2284  -2.2120  -2.2046  -2.1947  -2.1612  -2.1254  -2.0961
    -2.0617  -2.0391  -1.9196  -1.8091  -1.7317  -1.7249  -1.6944  -1.6886
    -1.6829  -1.6764  -1.6431  -1.5388  -1.4839  -1.4281  -1.2912  -1.2654
    -1.2486  -1.2020  -1.1136  -1.0331  -0.9699  -0.9524  -0.9053  -0.8621
    -0.8371  -0.7529  -0.7287  -0.7211  -0.6536  -0.6207  -0.5765  -0.5709
    -0.5557  -0.4902  -0.4419  -0.3925  -0.3693  -0.3386  -0.2932  -0.2727
    -0.2097  -0.1581  -0.1104  -0.1049  -0.0567  -0.0484   0.0170   0.1665
     0.2160   0.4693   0.4836   0.5146   0.6392   0.7102   0.7155   0.7437
     0.7756   0.8271   0.8389   0.9725   0.9842   0.9869   1.1521   1.1764
     1.2643   1.8042   1.8045   1.8678   1.8681   3.4301   3.9202   3.9375
     3.9627   3.9778   4.0490   4.0499   4.0583   4.0657   4.2459   4.2649

     the Fermi energy is     3.5048 ev

!    total energy              =   -2940.39768533 Ry
     estimated scf accuracy    <       0.00000005 Ry
     smearing contrib. (-TS)   =      -0.02302167 Ry
     internal energy E=F+TS    =   -2940.37466365 Ry

     The total energy is F=E-TS. E is the sum of the following terms:
     one-electron contribution =  -24109.28340260 Ry
     hartree contribution      =   12145.86176475 Ry
     xc contribution           =    -486.04313637 Ry
     ewald contribution        =    9509.08770018 Ry
     electric field correction =       0.00241039 Ry

     convergence has been achieved in  74 iterations

     Forces acting on atoms (cartesian axes, Ry/au):

     atom    1 type  1   force =     0.00015724   -0.00013227    0.09936364
     atom    2 type  1   force =    -0.00012495   -0.00047262   -0.17358360
     atom    3 type  2   force =    -0.00005083    0.00000165   -0.02879559
     atom    4 type  2   force =     0.00007444   -0.00124978    0.04997661
     atom    5 type  2   force =    -0.01304446    0.00057792    0.00121702
     atom    6 type  2   force =     0.01459166    0.00138515   -0.00010662
     atom    7 type  1   force =    -0.00144575   -0.00060049   -0.00833431
     atom    8 type  1   force =     0.00087948   -0.00412466    0.04513951
     atom    9 type  2   force =    -0.00003320   -0.00065994   -0.00025921
     atom   10 type  2   force =    -0.00129146    0.00227621   -0.02841712
     atom   11 type  2   force =     0.00018900    0.00061258   -0.00003588
     atom   12 type  2   force =     0.00025939    0.00040913    0.00011008
     atom   13 type  1   force =     0.00038182    0.00021212   -0.00058243
     atom   14 type  1   force =     0.00002970    0.00047648    0.00030874
     atom   15 type  2   force =     0.00034169   -0.00010888   -0.00006970
     atom   16 type  2   force =    -0.00040832   -0.00023512   -0.00017345
     atom   17 type  2   force =    -0.00101544    0.00014668   -0.00053794
     atom   18 type  2   force =     0.00089568    0.00020145    0.00022130
     atom   19 type  1   force =     0.00022440   -0.00006578    0.00001073
     atom   20 type  1   force =    -0.00048220   -0.00083387    0.00019904
     atom   21 type  2   force =     0.00009157   -0.00007169    0.10273725
     atom   22 type  2   force =     0.00011000    0.00003637    0.00004566
     atom   23 type  2   force =    -0.07215188   -0.00015566   -0.02829807
     atom   24 type  2   force =     0.07215023    0.00030287   -0.02829781
     atom   25 type  1   force =     0.00012499   -0.00019770    0.09866651
     atom   26 type  1   force =    -0.00011382   -0.00046059   -0.17380308
     atom   27 type  2   force =     0.00001158   -0.00002958   -0.02807923
     atom   28 type  2   force =     0.00011424   -0.00100051    0.04942935
     atom   29 type  2   force =    -0.01336619    0.00005252    0.00127910
     atom   30 type  2   force =     0.01482034    0.00041779   -0.00006410
     atom   31 type  1   force =    -0.00139371    0.00250888   -0.00862420
     atom   32 type  1   force =     0.00106187    0.00237427    0.04545792
     atom   33 type  2   force =    -0.00013105    0.00104555    0.00056108
     atom   34 type  2   force =    -0.00071835    0.00120189   -0.03115480
     atom   35 type  2   force =     0.00067990   -0.00051298   -0.00018092
     atom   36 type  2   force =    -0.00162704   -0.00011239    0.00006565
     atom   37 type  1   force =    -0.00017547   -0.00153409    0.00021463
     atom   38 type  1   force =     0.00078220   -0.00004692    0.00050123
     atom   39 type  2   force =     0.00032641    0.00018684   -0.00058002
     atom   40 type  2   force =    -0.00040253    0.00033275   -0.00003067
     atom   41 type  2   force =     0.00043637   -0.00059444    0.00001373
     atom   42 type  2   force =    -0.00042779   -0.00071883    0.00051858
     atom   43 type  1   force =     0.00037082   -0.00032552   -0.00058277
     atom   44 type  1   force =    -0.00036007   -0.00063666   -0.00024143
     atom   45 type  2   force =     0.00011066   -0.00007050    0.10276423
     atom   46 type  2   force =    -0.07217040   -0.00009785   -0.02829393
     atom   47 type  2   force =     0.07215524    0.00034128   -0.02827138
     atom   48 type  3   force =     0.00001743   -0.00040827   -0.00119774
     atom   49 type  3   force =    -0.00000032   -0.00047858   -0.00021661
     atom   50 type  4   force =    -0.00186580   -0.00107356    0.00377200
     atom   51 type  5   force =     0.00003740   -0.00030664   -0.00043458
     atom   52 type  5   force =     0.00334340    0.00172191   -0.00346084
     atom   53 type  5   force =    -0.00141188    0.00003407    0.00005665
     atom   54 type  5   force =    -0.00055623    0.00046000    0.00007776

     Total force =     0.372258     Total SCF correction =     0.000825
  @ DRIVER MODE: Message from server: STATUS
  @ DRIVER MODE: Message from server: GETFORCE
  @ DRIVER MODE: Returning v,forces,stress,ensemble

     Writing output data file ./calc.save/
  @ DRIVER MODE: Message from server: EXIT
  @ DRIVE MODE: Exiting

     General routines

     Parallel routines

   This run was terminated on:   5:25:44  25Aug2021

   JOB DONE.