     Program PWSCF v.6.7GPU starts on 30Sep2021 at 15:36:19

     R & G space division:  proc/nbgrp/npool/nimage =       8
     Reading input from /storage/home/hcoda1/3/ntian30/research/carbon/CxH_vib/pristine/ads_slab/CH2N2_h/out_0010/pw.inp
Warning: card &CELL ignored
Warning: card   CELL_DYNAMICS='IPI', ignored
Warning: card / ignored

     Current dimensions of program PWSCF are:
     Max number of different atomic species (ntypx) = 10
     Max number of k-points (npk) =  40000
     Max angular momentum in pseudopotentials (lmaxx) =  3
     Presently no symmetry can be used with electric field

     Message from routine cell_base_init:
     DEPRECATED: use true lattice parameter, not A to a.u. conversion factor

     IMPORTANT: XC functional enforced from input :
     Exchange-correlation= BEEF-VDW
                           (   1   4  43  14   2   0   0)
     Any further DFT definition will be discarded
     Please, verify this is what you really want

  @ DRIVER MODE: Connecting to
 qe_1139763_3035237.sched-torque.pace.gatech.eduevgdcatr_scratch
  using UNIX socket
  @ DRIVER MODE: Message from server: STATUS
  @ DRIVER MODE: Message from server: INIT
  @ DRIVER MODE: Receiving replica           0          -1
  @ DRIVER MODE: Receiving encoded integer          25
  @ DRIVER MODE:  SCF:  T  FORCE:  T  STRESS:  F  VC:  F  ENSEMBLE:  F
  @ DRIVER MODE:  SCF:  T  FORCE:  T  STRESS:  F  VC:  F  ENSEMBLE:  F

     Using Slab Decomposition

     bravais-lattice index     =            0
     lattice parameter (alat)  =       1.8897  a.u.
     unit-cell volume          =    6658.9804 (a.u.)^3
     number of atoms/cell      =           53
     number of atomic types    =            5
     number of electrons       =       400.00
     number of Kohn-Sham states=          210
     kinetic-energy cutoff     =      29.3995  Ry
     charge density cutoff     =     293.9946  Ry
     scf convergence threshold =      7.3E-08
     mixing beta               =       0.0500
     number of iterations used =            8  plain     mixing
     Exchange-correlation= BEEF-VDW
                           (   1   4  43  14   2   0   0)

     celldm(1)=   1.889726  celldm(2)=   0.000000  celldm(3)=   0.000000
     celldm(4)=   0.000000  celldm(5)=   0.000000  celldm(6)=   0.000000

     crystal axes: (cart. coord. in units of alat)
               a(1) = (   6.579727   0.000000   0.000000 )
               a(2) = (  -0.000775   5.961596   0.000000 )
               a(3) = (   0.000000   0.000000  25.155947 )

     reciprocal axes: (cart. coord. in units 2 pi/alat)
               b(1) = (  0.151982  0.000020  0.000000 )
               b(2) = (  0.000000  0.167740  0.000000 )
               b(3) = (  0.000000  0.000000  0.039752 )

     PseudoPot. # 1 for Ti read from file:
     /storage/coda1/p-amedford6/0/shared/rich_project_chbe-medford/medford-share/data/pseudos_module/espresso/nninc/pbe/van/Ti.UPF
     MD5 check sum: 8e4df49b7f0d34bbd5052bf3f5ea0213
     Pseudo is Ultrasoft, Zval = 12.0
     Generated by new atomic code, or converted to UPF format
     Using radial grid of  851 points,  6 beta functions with:
                l(1) =   0
                l(2) =   0
                l(3) =   1
                l(4) =   1
                l(5) =   2
                l(6) =   2
     Q(r) pseudized with  8 coefficients,  rinner =    1.000   1.000   1.000
                                                       1.000   1.000

     PseudoPot. # 2 for O  read from file:
     /storage/coda1/p-amedford6/0/shared/rich_project_chbe-medford/medford-share/data/pseudos_module/espresso/nninc/pbe/van/O.UPF
     MD5 check sum: 78c19812648e8988a0fe644b0f25305e
     Pseudo is Ultrasoft, Zval =  6.0
     Generated by new atomic code, or converted to UPF format
     Using radial grid of  737 points,  4 beta functions with:
                l(1) =   0
                l(2) =   0
                l(3) =   1
                l(4) =   1
     Q(r) pseudized with  8 coefficients,  rinner =    0.800   0.800   0.800

     PseudoPot. # 3 for N  read from file:
     /storage/coda1/p-amedford6/0/shared/rich_project_chbe-medford/medford-share/data/pseudos_module/espresso/nninc/pbe/van/N.UPF
     MD5 check sum: 90d10febe142ad51ac9d5be1deb811c4
     Pseudo is Ultrasoft, Zval =  5.0
     Generated by new atomic code, or converted to UPF format
     Using radial grid of  729 points,  4 beta functions with:
                l(1) =   0
                l(2) =   0
                l(3) =   1
                l(4) =   1
     Q(r) pseudized with  8 coefficients,  rinner =    0.800   0.800   0.800

     PseudoPot. # 4 for C  read from file:
     /storage/coda1/p-amedford6/0/shared/rich_project_chbe-medford/medford-share/data/pseudos_module/espresso/nninc/pbe/van/C.UPF
     MD5 check sum: 1a69bf6b8db32088f5b2163dbdb77a27
     Pseudo is Ultrasoft, Zval =  4.0
     Generated by new atomic code, or converted to UPF format
     Using radial grid of  721 points,  4 beta functions with:
                l(1) =   0
                l(2) =   0
                l(3) =   1
                l(4) =   1
     Q(r) pseudized with  8 coefficients,  rinner =    0.800   0.800   0.800

     PseudoPot. # 5 for H  read from file:
     /storage/coda1/p-amedford6/0/shared/rich_project_chbe-medford/medford-share/data/pseudos_module/espresso/nninc/pbe/van/H.UPF
     MD5 check sum: b5ee9d7bfd3a09ee7748110bda690ff7
     Pseudo is Ultrasoft, Zval =  1.0
     Generated by new atomic code, or converted to UPF format
     Using radial grid of  615 points,  1 beta functions with:
                l(1) =   0
     Q(r) pseudized with  8 coefficients,  rinner =    0.800

     atomic species   valence    mass     pseudopotential
        Ti1           12.00    47.86700     Ti( 1.00)
        O1             6.00    15.99900     O ( 1.00)
        N1             5.00    14.00700     N ( 1.00)
        C1             4.00    12.01100     C ( 1.00)
        H1             1.00     1.00800     H ( 1.00)

     No symmetry found

   Cartesian axes

     site n.     atom                  positions (alat units)
         1           Ti1 tau(   1) = (   0.0004258   2.9801865   6.0000000  )
         2           Ti1 tau(   2) = (   3.2906075   1.4906267   6.0002472  )
         3           O1  tau(   3) = (   0.0006271   0.0005054   7.9858123  )
         4           O1  tau(   4) = (   3.2906025   0.0005020   7.3038282  )
         5           O1  tau(   5) = (   4.5942328   1.4918067   9.2879030  )
         6           O1  tau(   6) = (   1.9868534   1.4903216   9.2879459  )
         7           Ti1 tau(   7) = (   3.2940346   2.8698074   9.1684565  )
         8           Ti1 tau(   8) = (   0.0030225   1.4329613   9.3767462  )
         9           O1  tau(   9) = (   3.2994152   5.9581457  11.3549906  )
        10           O1  tau(  10) = (   6.5730281   5.9481945  10.5612412  )
        11           O1  tau(  11) = (   1.2782729   1.4799297  12.6138410  )
        12           O1  tau(  12) = (   5.2754995   1.4800591  12.6632238  )
        13           Ti1 tau(  13) = (   0.0766946   2.9556037  12.8068061  )
        14           Ti1 tau(  14) = (   3.3903493   1.4788161  12.4952579  )
        15           O1  tau(  15) = (   0.0876507   5.9454885  14.6519752  )
        16           O1  tau(  16) = (   3.2436869   5.9606251  13.9358461  )
        17           O1  tau(  17) = (   4.5879952   1.4894255  15.9985222  )
        18           O1  tau(  18) = (   2.0927145   1.4923104  16.0778241  )
        19           Ti1 tau(  19) = (   3.3818532   2.9747944  15.7863222  )
        20           Ti1 tau(  20) = (   0.1331232   1.5076923  16.1442520  )
        21           O1  tau(  21) = (   3.2904802   0.0005063   4.7018136  )
        22           O1  tau(  22) = (   6.5571263   5.9613239  17.2084283  )
        23           O1  tau(  23) = (   1.3043587   1.4918075   6.0039043  )
        24           O1  tau(  24) = (   5.2767064   1.4903225   6.0039473  )
        25           Ti1 tau(  25) = (   0.0000382   5.9609847   6.0000000  )
        26           Ti1 tau(  26) = (   3.2902200   4.4714249   6.0002472  )
        27           O1  tau(  27) = (   0.0002396   2.9813036   7.9858123  )
        28           O1  tau(  28) = (   3.2902150   2.9813002   7.3038282  )
        29           O1  tau(  29) = (   4.5938453   4.4726049   9.2879030  )
        30           O1  tau(  30) = (   1.9864658   4.4711199   9.2879459  )
        31           Ti1 tau(  31) = (   3.2881238   5.8488574   9.1742270  )
        32           Ti1 tau(  32) = (   0.0015652   4.4122313   9.3797820  )
        33           O1  tau(  33) = (   3.3067820   2.9727102  11.3461643  )
        34           O1  tau(  34) = (   6.5709248   2.9657579  10.5611975  )
        35           O1  tau(  35) = (   1.2701395   4.4574477  12.6080355  )
        36           O1  tau(  36) = (   5.2774107   4.4662555  12.6593532  )
        37           Ti1 tau(  37) = (   0.0866433   5.9395267  12.8007823  )
        38           Ti1 tau(  38) = (   3.3983582   4.4424157  12.5219168  )
        39           O1  tau(  39) = (   0.0671811   2.9517497  14.6463865  )
        40           O1  tau(  40) = (   3.2450650   3.0047677  13.9292835  )
        41           O1  tau(  41) = (   4.5850435   4.4841338  15.8299482  )
        42           O1  tau(  42) = (   2.0023688   4.4342503  16.0865826  )
        43           Ti1 tau(  43) = (   3.3875004   0.1080243  15.7411054  )
        44           Ti1 tau(  44) = (   6.4704293   4.4893485  16.1236300  )
        45           O1  tau(  45) = (   3.2900926   2.9813045   4.7018136  )
        46           O1  tau(  46) = (   6.5000697   2.9773305  17.2009514  )
        47           O1  tau(  47) = (   1.3039711   4.4726057   6.0039043  )
        48           O1  tau(  48) = (   5.2763189   4.4711207   6.0039473  )
        49           N1  tau(  49) = (   3.1734193   5.1894584  17.8228359  )
        50           N1  tau(  50) = (   2.5368264   4.0534087  17.4457212  )
        51           C1  tau(  51) = (   3.6285828   5.3156434  19.0144592  )
        52           H1  tau(  52) = (   3.4938138   4.5389551  19.7603617  )
        53           H1  tau(  53) = (   4.1761532   0.2557294  19.2464809  )

     number of k points=    10  Fermi-Dirac smearing, width (Ry)=  0.0073
                       cart. coord. in units 2pi/alat
        k(    1) = (   0.0000000   0.0000000   0.0000000), wk =   0.1250000
        k(    2) = (   0.0000000   0.0419351   0.0000000), wk =   0.2500000
        k(    3) = (   0.0000000  -0.0838702   0.0000000), wk =   0.1250000
        k(    4) = (   0.0379955   0.0000049   0.0000000), wk =   0.2500000
        k(    5) = (   0.0379955   0.0419400   0.0000000), wk =   0.2500000
        k(    6) = (   0.0379955  -0.0838652   0.0000000), wk =   0.2500000
        k(    7) = (   0.0379955  -0.0419301   0.0000000), wk =   0.2500000
        k(    8) = (  -0.0759910  -0.0000099   0.0000000), wk =   0.1250000
        k(    9) = (  -0.0759910   0.0419252   0.0000000), wk =   0.2500000
        k(   10) = (  -0.0759910  -0.0838800   0.0000000), wk =   0.1250000

     Initial potential from superposition of free atoms

     starting charge  383.99917, renormalised to  400.00000

     negative rho (up, down):  1.731E-02 0.000E+00

     %%%%%%%%%%%%%%%%%%%%%%%%%%%%%%%%%%%%%%%%%%%%%%%%%%%%%%%%%%%%%%%%%%%%%%%%
     %                                                                      %
     % You are using vdW-DF, which was implemented by the Thonhauser group. %
     % Please cite the following two papers that made this development      %
     % possible and the two reviews that describe the various versions:     %
     %                                                                      %
     %   T. Thonhauser et al., PRL 115, 136402 (2015).                      %
     %   T. Thonhauser et al., PRB 76, 125112 (2007).                       %
     %   K. Berland et al., Rep. Prog. Phys. 78, 066501 (2015).             %
     %   D.C. Langreth et al., J. Phys.: Condens. Matter 21, 084203 (2009). %
     %                                                                      %
     %                                                                      %
     % If you are calculating the stress with vdW-DF, please also cite:     %
     %                                                                      %
     %   R. Sabatini et al., J. Phys.: Condens. Matter 24, 424209 (2012).   %
     %                                                                      %
     %%%%%%%%%%%%%%%%%%%%%%%%%%%%%%%%%%%%%%%%%%%%%%%%%%%%%%%%%%%%%%%%%%%%%%%%

     Adding external electric field

     Computed dipole along edir(3) :
        Dipole               -9.1452 Ry au,        -23.2449 Debye
        Dipole field         -0.0173 Ry au,

        Potential amp.        1.5998 Ry
        Total length         46.3494 bohr

     Starting wfcs are  302 atomic wfcs
  @ DRIVER MODE: Message from server: STATUS
  @ DRIVER MODE: Message from server: POSDATA
  @ DRIVER MODE: Reading and sharing cell
  @ DRIVER MODE: Reading and sharing positions
  @ DRIVER MODE: Received positions

     Self-consistent Calculation

     iteration #  1     ecut=    29.40 Ry     beta= 0.05
     Davidson diagonalization with overlap
     c_bands:  1 eigenvalues not converged
     c_bands:  1 eigenvalues not converged
     c_bands:  2 eigenvalues not converged
     c_bands:  2 eigenvalues not converged
     c_bands:  1 eigenvalues not converged
     c_bands:  2 eigenvalues not converged
     c_bands:  1 eigenvalues not converged
     c_bands:  2 eigenvalues not converged
     ethr =  1.00E-05,  avg # of iterations = 20.0

[...]

     total energy              =   -2546.88325564 Ry
     estimated scf accuracy    <    4698.32881470 Ry

     iteration #  2     ecut=    29.40 Ry     beta= 0.05
     Davidson diagonalization with overlap
     ethr =  1.00E-02,  avg # of iterations = 22.1

[...]

     iteration # 44     ecut=    29.40 Ry     beta= 0.05
     Davidson diagonalization with overlap
     c_bands:  1 eigenvalues not converged
     ethr =  7.73E-07,  avg # of iterations =  6.6

[...]

     total energy              =   -2970.21529868 Ry
     estimated scf accuracy    <       0.00000029 Ry

     iteration # 66     ecut=    29.40 Ry     beta= 0.05
     Davidson diagonalization with overlap
     ethr =  4.65E-11,  avg # of iterations =  5.0

     negative rho (up, down):  1.738E-02 0.000E+00

     Adding external electric field

     Computed dipole along edir(3) :
        Dipole                0.6162 Ry au,          1.5663 Debye
        Dipole field          0.0012 Ry au,

        Potential amp.       -0.1078 Ry
        Total length         46.3494 bohr

     End of self-consistent calculation

          k = 0.0000 0.0000 0.0000 ( 18029 PWs)   bands (ev):

   -56.1867 -56.1532 -55.8603 -55.8007 -55.7622 -55.7393 -55.5892 -55.5620
   -55.5538 -55.5279 -55.4906 -55.4728 -55.4553 -55.4144 -54.9521 -54.9182
   -32.6134 -32.4353 -32.4092 -32.4073 -32.3775 -32.3256 -32.2865 -32.2403
   -32.1612 -32.1290 -32.0910 -32.0581 -32.0507 -32.0252 -32.0200 -31.9953
   -31.9792 -31.9641 -31.9612 -31.9605 -31.9266 -31.9141 -31.8375 -31.8264
   -31.8169 -31.8004 -31.7717 -31.7700 -31.7574 -31.7549 -31.7401 -31.7340
   -31.7193 -31.7106 -31.6990 -31.6765 -31.6680 -31.6628 -31.6477 -31.6257
   -31.5944 -31.5276 -31.3515 -31.2800 -31.2561 -31.1696 -31.0845 -30.9729
   -19.6193 -16.7701 -16.4779 -16.3514 -16.2404 -15.9769 -15.8590 -15.8302
   -15.6616 -15.5488 -15.5272 -15.5131 -15.4766 -15.4280 -15.3856 -15.3285
   -15.3113 -15.2710 -15.2386 -15.2097 -15.1890 -15.1674 -15.1433 -15.0862
   -15.0821 -14.9456 -14.8265 -14.8125 -14.7957 -14.7171 -14.7092 -13.4467
   -13.3335 -11.7924  -7.2869  -5.5504  -5.0169  -4.5137  -3.9268  -3.8364
    -3.7394  -3.6717  -3.5531  -3.3178  -3.2691  -3.1788  -3.0128  -2.9863
    -2.9077  -2.8748  -2.8436  -2.8206  -2.7637  -2.7180  -2.6864  -2.6566
    -2.6206  -2.5945  -2.5803  -2.5468  -2.5020  -2.4371  -2.4088  -2.3673
    -2.3293  -2.2649  -2.1824  -2.1411  -2.1287  -2.0962  -2.0567  -2.0033
    -1.9778  -1.9692  -1.8899  -1.8693  -1.7503  -1.7225  -1.6232  -1.6170
    -1.5209  -1.4657  -1.4397  -1.3925  -1.2355  -1.1901  -1.1463  -1.1165
    -1.1000  -1.0179  -0.9943  -0.9631  -0.7980  -0.7797  -0.7454  -0.7220
    -0.6775  -0.6378  -0.5968  -0.5674  -0.5154  -0.4581  -0.3857  -0.3381
    -0.2260  -0.1747  -0.1040  -0.0793  -0.0624  -0.0196   0.0345   0.0418
     0.0730   0.0735   0.1079   0.1540   0.1676   0.2366   0.2527   0.3226
     0.3484   0.3786   0.4626   0.5883   0.6367   0.6770   0.7754   0.7882
     0.9335   1.0331   1.0746   1.2912   1.2958   1.6585   1.7304   1.8738
     3.0863   3.2672   3.3241   3.5702   3.5928   3.6687   3.7038   3.8341
     3.8995   3.9550

[...]

          k = 0.0380-0.0419 0.0000 ( 17876 PWs)   bands (ev):

[...]

          k =-0.0760-0.0000 0.0000 ( 17886 PWs)   bands (ev):

[...]

          k =-0.0760-0.0839 0.0000 ( 17948 PWs)   bands (ev):

   -56.1704 -56.1693 -55.8575 -55.7890 -55.7737 -55.7420 -55.5752 -55.5677
   -55.5460 -55.5436 -55.4750 -55.4709 -55.4666 -55.4205 -54.9352 -54.9350
   -32.4313 -32.4305 -32.4216 -32.4201 -32.3309 -32.3298 -32.2869 -32.1454
   -32.1436 -32.1161 -32.1041 -32.0907 -32.0498 -32.0297 -32.0087 -32.0006
   -31.9841 -31.9282 -31.8907 -31.8837 -31.8752 -31.8713 -31.8161 -31.8145
   -31.8035 -31.7949 -31.7929 -31.7887 -31.7871 -31.7824 -31.7786 -31.7728
   -31.7567 -31.7539 -31.7333 -31.7292 -31.6902 -31.6870 -31.6794 -31.6746
   -31.6695 -31.6380 -31.2690 -31.2689 -31.1658 -31.1655 -31.1272 -31.1270
   -19.5918 -16.7407 -16.0279 -15.9484 -15.8937 -15.8198 -15.7989 -15.6903
   -15.6783 -15.6517 -15.6504 -15.5442 -15.5338 -15.5224 -15.4912 -15.3556
   -15.3478 -15.3136 -15.3048 -15.2504 -15.2391 -15.1313 -15.1279 -15.1199
   -15.1197 -15.0283 -15.0239 -14.9649 -14.9602 -14.8739 -14.8726 -13.4363
   -13.4357 -11.7917  -7.2803  -5.5429  -4.9295  -4.1665  -3.2469  -3.1604
    -3.0894  -3.0443  -2.9955  -2.9223  -2.8933  -2.8634  -2.7970  -2.7841
    -2.7664  -2.7584  -2.6774  -2.6711  -2.6432  -2.6318  -2.6008  -2.5888
    -2.5580  -2.5518  -2.5488  -2.5134  -2.5002  -2.4998  -2.4864  -2.4763
    -2.4060  -2.4028  -2.3731  -2.3594  -2.3345  -2.0986  -2.0675  -2.0652
    -1.9887  -1.9399  -1.8823  -1.8802  -1.8687  -1.8512  -1.6700  -1.6017
    -1.5688  -1.5453  -1.5142  -1.4856  -1.4552  -1.3401  -1.3033  -1.2308
    -1.2269  -1.1585  -1.0928  -1.0446  -1.0275  -0.9679  -0.9635  -0.9456
    -0.9254  -0.8978  -0.8749  -0.8049  -0.7784  -0.7164  -0.6526  -0.6378
    -0.5342  -0.4857  -0.4730  -0.4595  -0.4415  -0.4127  -0.3009  -0.2947
    -0.0713  -0.0170   0.0541   0.1132   0.1216   0.1913   0.2000   0.2973
     0.3421   0.5010   0.5089   0.5449   0.5824   0.7045   0.7067   0.7384
     0.7515   0.8240   0.8306   1.4613   1.4633   1.5123   1.5129   1.7918
     3.5950   3.6294   3.6333   3.6467   3.6830   3.6872   3.7283   3.7533
     3.9662   4.0085

     the Fermi energy is     2.5510 ev

!    total energy              =   -2970.21532448 Ry
     estimated scf accuracy    <       0.00000006 Ry
     smearing contrib. (-TS)   =      -0.00023774 Ry
     internal energy E=F+TS    =   -2970.21508674 Ry

     The total energy is F=E-TS. E is the sum of the following terms:
     one-electron contribution =  -24504.68455360 Ry
     hartree contribution      =   12342.82841843 Ry
     xc contribution           =    -491.70861086 Ry
     ewald contribution        =    9683.34894268 Ry
     electric field correction =       0.00071662 Ry

     convergence has been achieved in  66 iterations

     Forces acting on atoms (cartesian axes, Ry/au):

     atom    1 type  1   force =     0.00007111   -0.00004917    0.14749046
     atom    2 type  1   force =    -0.00007533   -0.00169623   -0.16798322
     atom    3 type  2   force =    -0.00002815    0.00211833   -0.05938215
     atom    4 type  2   force =    -0.00002477   -0.00154765    0.04197531
     atom    5 type  2   force =    -0.02138254    0.00022351    0.00301982
     atom    6 type  2   force =     0.02080089    0.00096240    0.00408961
     atom    7 type  1   force =    -0.00000770   -0.00126047    0.00042109
     atom    8 type  1   force =     0.00009268   -0.00083485   -0.00051868
     atom    9 type  2   force =     0.00002016   -0.00053504   -0.00023814
     atom   10 type  2   force =     0.00011414   -0.00020494    0.00035077
     atom   11 type  2   force =    -0.00079323   -0.00062533   -0.00052734
     atom   12 type  2   force =    -0.00009073   -0.00026163   -0.00078054
     atom   13 type  1   force =     0.00030143    0.00041830   -0.00051712
     atom   14 type  1   force =    -0.00070798   -0.00056616    0.00014897
     atom   15 type  2   force =    -0.00052221    0.00035161   -0.00117008
     atom   16 type  2   force =     0.00034975    0.00047852   -0.00083826
     atom   17 type  2   force =     0.00010777    0.00024074   -0.00008474
     atom   18 type  2   force =    -0.00061018    0.00010669    0.00008882
     atom   19 type  1   force =     0.00078024    0.00021805   -0.00073772
     atom   20 type  1   force =    -0.00057663   -0.00050032    0.00024580
     atom   21 type  2   force =     0.00004740   -0.00007479    0.10184651
     atom   22 type  2   force =     0.00049614    0.00067464    0.00045720
     atom   23 type  2   force =    -0.07551846    0.00023706   -0.03472217
     atom   24 type  2   force =     0.07548317    0.00069254   -0.03478219
     atom   25 type  1   force =     0.00006959   -0.00019030    0.14778536
     atom   26 type  1   force =    -0.00002227    0.00033677   -0.16803213
     atom   27 type  2   force =     0.00003365    0.00240189   -0.05905167
     atom   28 type  2   force =     0.00011243   -0.00132825    0.04062852
     atom   29 type  2   force =    -0.02166252    0.00009035    0.00331214
     atom   30 type  2   force =     0.02040725    0.00022213    0.00436706
     atom   31 type  1   force =     0.00002933    0.00074487    0.00045807
     atom   32 type  1   force =    -0.00016066    0.00038640   -0.00040273
     atom   33 type  2   force =    -0.00005150    0.00040724   -0.00031488
     atom   34 type  2   force =     0.00021167    0.00004971   -0.00002911
     atom   35 type  2   force =     0.00012993    0.00077384    0.00034405
     atom   36 type  2   force =    -0.00061541   -0.00006899   -0.00047295
     atom   37 type  1   force =     0.00027496   -0.00056115    0.00058885
     atom   38 type  1   force =    -0.00054988   -0.00037059    0.00000865
     atom   39 type  2   force =     0.00028167   -0.00034438    0.00089953
     atom   40 type  2   force =     0.00026856   -0.00004909    0.00056151
     atom   41 type  2   force =     0.00032644   -0.00068712   -0.00015129
     atom   42 type  2   force =     0.00104773    0.00230477    0.00013349
     atom   43 type  1   force =     0.00189697    0.00003312   -0.00095291
     atom   44 type  1   force =     0.00023297    0.00059647   -0.00007347
     atom   45 type  2   force =     0.00004248   -0.00008287    0.10191215
     atom   46 type  2   force =     0.00019777   -0.00054202   -0.00007765
     atom   47 type  2   force =    -0.07554063    0.00003484   -0.03470626
     atom   48 type  2   force =     0.07548969    0.00045540   -0.03481227
     atom   49 type  3   force =    -0.00001020    0.00654194   -0.00088510
     atom   50 type  3   force =    -0.00238036   -0.00966914   -0.00002941
     atom   51 type  4   force =     0.00122544    0.00055556    0.00027897
     atom   52 type  5   force =     0.00031403   -0.00044212   -0.00001583
     atom   53 type  5   force =     0.00007394   -0.00016508    0.00087730

     Total force =     0.401119     Total SCF correction =     0.000784
  @ DRIVER MODE: Message from server: STATUS
  @ DRIVER MODE: Message from server: GETFORCE
  @ DRIVER MODE: Returning v,forces,stress,ensemble

     Writing output data file ./calc.save/
  @ DRIVER MODE: Message from server: EXIT
  @ DRIVE MODE: Exiting

     General routines

     Parallel routines

   This run was terminated on:  15:58: 1  30Sep2021

   JOB DONE.