     Program PWSCF v.6.7GPU starts on 23Aug2021 at 19: 5:24

     R & G space division:  proc/nbgrp/npool/nimage =       6
     Reading input from /storage/home/hcoda1/3/ntian30/research/carbon/CH_vib/ads_slab/CHNNHH_a/out_0012/pw.inp
Warning: card &CELL ignored
Warning: card   CELL_DYNAMICS='IPI', ignored
Warning: card / ignored

     Current dimensions of program PWSCF are:
     Max number of different atomic species (ntypx) = 10
     Max number of k-points (npk) =  40000
     Max angular momentum in pseudopotentials (lmaxx) =  3
     Presently no symmetry can be used with electric field

     Message from routine cell_base_init:
     DEPRECATED: use true lattice parameter, not A to a.u. conversion factor

     IMPORTANT: XC functional enforced from input :
     Exchange-correlation= BEEF-VDW
                           (   1   4  43  14   2   0   0)
     Any further DFT definition will be discarded
     Please, verify this is what you really want

  @ DRIVER MODE: Connecting to
 qe_1139763_2632796.sched-torque.pace.gatech.educep79o3n_scratch
  using UNIX socket
  @ DRIVER MODE: Message from server: STATUS
  @ DRIVER MODE: Message from server: INIT
  @ DRIVER MODE: Receiving replica           0          -1
  @ DRIVER MODE: Receiving encoded integer          25
  @ DRIVER MODE:  SCF:  T  FORCE:  T  STRESS:  F  VC:  F  ENSEMBLE:  F
  @ DRIVER MODE:  SCF:  T  FORCE:  T  STRESS:  F  VC:  F  ENSEMBLE:  F

     Using Slab Decomposition

     bravais-lattice index     =            0
     lattice parameter (alat)  =       1.8897  a.u.
     unit-cell volume          =    6658.9804 (a.u.)^3
     number of atoms/cell      =           53
     number of atomic types    =            5
     number of electrons       =       395.00
     number of Kohn-Sham states=          207
     kinetic-energy cutoff     =      29.3995  Ry
     charge density cutoff     =     293.9946  Ry
     scf convergence threshold =      7.3E-08
     mixing beta               =       0.0500
     number of iterations used =            8  plain     mixing
     Exchange-correlation= BEEF-VDW
                           (   1   4  43  14   2   0   0)

     celldm(1)=   1.889726  celldm(2)=   0.000000  celldm(3)=   0.000000
     celldm(4)=   0.000000  celldm(5)=   0.000000  celldm(6)=   0.000000

     crystal axes: (cart. coord. in units of alat)
               a(1) = (   6.579727   0.000000   0.000000 )
               a(2) = (  -0.000775   5.961596   0.000000 )
               a(3) = (   0.000000   0.000000  25.155947 )

     reciprocal axes: (cart. coord. in units 2 pi/alat)
               b(1) = (  0.151982  0.000020  0.000000 )
               b(2) = (  0.000000  0.167740  0.000000 )
               b(3) = (  0.000000  0.000000  0.039752 )

     PseudoPot. # 1 for Ti read from file:
     /storage/coda1/p-amedford6/0/shared/rich_project_chbe-medford/medford-share/data/pseudos_module/espresso/nninc/pbe/van/Ti.UPF
     MD5 check sum: 8e4df49b7f0d34bbd5052bf3f5ea0213
     Pseudo is Ultrasoft, Zval = 12.0
     Generated by new atomic code, or converted to UPF format
     Using radial grid of  851 points,  6 beta functions with:
                l(1) =   0
                l(2) =   0
                l(3) =   1
                l(4) =   1
                l(5) =   2
                l(6) =   2
     Q(r) pseudized with  8 coefficients,  rinner =    1.000   1.000   1.000
                                                       1.000   1.000

     PseudoPot. # 2 for O  read from file:
     /storage/coda1/p-amedford6/0/shared/rich_project_chbe-medford/medford-share/data/pseudos_module/espresso/nninc/pbe/van/O.UPF
     MD5 check sum: 78c19812648e8988a0fe644b0f25305e
     Pseudo is Ultrasoft, Zval =  6.0
     Generated by new atomic code, or converted to UPF format
     Using radial grid of  737 points,  4 beta functions with:
                l(1) =   0
                l(2) =   0
                l(3) =   1
                l(4) =   1
     Q(r) pseudized with  8 coefficients,  rinner =    0.800   0.800   0.800

     PseudoPot. # 3 for N  read from file:
     /storage/coda1/p-amedford6/0/shared/rich_project_chbe-medford/medford-share/data/pseudos_module/espresso/nninc/pbe/van/N.UPF
     MD5 check sum: 90d10febe142ad51ac9d5be1deb811c4
     Pseudo is Ultrasoft, Zval =  5.0
     Generated by new atomic code, or converted to UPF format
     Using radial grid of  729 points,  4 beta functions with:
                l(1) =   0
                l(2) =   0
                l(3) =   1
                l(4) =   1
     Q(r) pseudized with  8 coefficients,  rinner =    0.800   0.800   0.800

     PseudoPot. # 4 for C  read from file:
     /storage/coda1/p-amedford6/0/shared/rich_project_chbe-medford/medford-share/data/pseudos_module/espresso/nninc/pbe/van/C.UPF
     MD5 check sum: 1a69bf6b8db32088f5b2163dbdb77a27
     Pseudo is Ultrasoft, Zval =  4.0
     Generated by new atomic code, or converted to UPF format
     Using radial grid of  721 points,  4 beta functions with:
                l(1) =   0
                l(2) =   0
                l(3) =   1
                l(4) =   1
     Q(r) pseudized with  8 coefficients,  rinner =    0.800   0.800   0.800

     PseudoPot. # 5 for H  read from file:
     /storage/coda1/p-amedford6/0/shared/rich_project_chbe-medford/medford-share/data/pseudos_module/espresso/nninc/pbe/van/H.UPF
     MD5 check sum: b5ee9d7bfd3a09ee7748110bda690ff7
     Pseudo is Ultrasoft, Zval =  1.0
     Generated by new atomic code, or converted to UPF format
     Using radial grid of  615 points,  1 beta functions with:
                l(1) =   0
     Q(r) pseudized with  8 coefficients,  rinner =    0.800

     atomic species   valence    mass     pseudopotential
        Ti1           12.00    47.86700     Ti( 1.00)
        O1             6.00    15.99900     O ( 1.00)
        N1             5.00    14.00700     N ( 1.00)
        C1             4.00    12.01100     C ( 1.00)
        H1             1.00     1.00800     H ( 1.00)

     No symmetry found

   Cartesian axes

     site n.     atom                  positions (alat units)
         1           Ti1 tau(   1) = (   0.0004258   2.9801865   6.0000000  )
         2           Ti1 tau(   2) = (   3.2906075   1.4906267   6.0002472  )
         3           O1  tau(   3) = (   0.0006271   0.0005054   7.9858123  )
         4           O1  tau(   4) = (   3.2906025   0.0005020   7.3038282  )
         5           O1  tau(   5) = (   4.5942328   1.4918067   9.2879030  )
         6           O1  tau(   6) = (   1.9868534   1.4903216   9.2879459  )
         7           Ti1 tau(   7) = (   3.2907910   2.8959150   9.1758416  )
         8           Ti1 tau(   8) = (   0.0015273   1.4827037   9.2680791  )
         9           O1  tau(   9) = (   3.2912281   5.9459940  11.3193265  )
        10           O1  tau(  10) = (   0.0116148   5.9584955  10.6183126  )
        11           O1  tau(  11) = (   1.3103257   1.4650607  12.6442557  )
        12           O1  tau(  12) = (   5.3047449   1.4806448  12.6312737  )
        13           Ti1 tau(  13) = (   6.5337005   3.0128982  12.6900614  )
        14           Ti1 tau(  14) = (   3.2207025   1.4698770  12.4715817  )
        15           O1  tau(  15) = (   6.5518216   5.9146589  14.6704082  )
        16           O1  tau(  16) = (   3.3240203   5.9583723  13.8895330  )
        17           O1  tau(  17) = (   4.5456974   1.5225049  16.1264218  )
        18           O1  tau(  18) = (   2.0489736   1.4727210  15.9535721  )
        19           Ti1 tau(  19) = (   3.2591190   2.9927146  15.6788090  )
        20           Ti1 tau(  20) = (   0.0289511   1.3544711  15.7732889  )
        21           O1  tau(  21) = (   3.2904802   0.0005063   4.7018136  )
        22           O1  tau(  22) = (   0.0559926   0.0451390  17.2112278  )
        23           O1  tau(  23) = (   1.3043587   1.4918075   6.0039043  )
        24           O1  tau(  24) = (   5.2767064   1.4903225   6.0039473  )
        25           Ti1 tau(  25) = (   0.0000382   5.9609847   6.0000000  )
        26           Ti1 tau(  26) = (   3.2902200   4.4714249   6.0002472  )
        27           O1  tau(  27) = (   0.0002396   2.9813036   7.9858123  )
        28           O1  tau(  28) = (   3.2902150   2.9813002   7.3038282  )
        29           O1  tau(  29) = (   4.5938453   4.4726049   9.2879030  )
        30           O1  tau(  30) = (   1.9864658   4.4711199   9.2879459  )
        31           Ti1 tau(  31) = (   3.2891106   5.8743827   9.1763621  )
        32           Ti1 tau(  32) = (   0.0006254   4.4649316   9.2693709  )
        33           O1  tau(  33) = (   3.2889932   2.9698301  11.3211337  )
        34           O1  tau(  34) = (   0.0092240   2.9805883  10.6323155  )
        35           O1  tau(  35) = (   1.3069247   4.4567274  12.6410950  )
        36           O1  tau(  36) = (   5.3013738   4.4587240  12.6283471  )
        37           Ti1 tau(  37) = (   6.5339814   0.0202798  12.5235249  )
        38           Ti1 tau(  38) = (   3.2191325   4.4512509  12.4750946  )
        39           O1  tau(  39) = (   6.5688456   2.9522374  14.7547250  )
        40           O1  tau(  40) = (   3.3031296   2.9710333  13.8824388  )
        41           O1  tau(  41) = (   4.5425837   4.4734130  15.9989242  )
        42           O1  tau(  42) = (   2.0771424   4.4889556  16.0364895  )
        43           Ti1 tau(  43) = (   3.3121389   0.0026565  15.6888161  )
        44           Ti1 tau(  44) = (   6.5128106   4.4989306  16.3061806  )
        45           O1  tau(  45) = (   3.2900926   2.9813045   4.7018136  )
        46           O1  tau(  46) = (   1.3039711   4.4726057   6.0039043  )
        47           O1  tau(  47) = (   5.2763189   4.4711207   6.0039473  )
        48           N1  tau(  48) = (   0.4628824   2.9849886  17.7976856  )
        49           C1  tau(  49) = (   1.4182946   2.9518240  18.6800831  )
        50           H1  tau(  50) = (   2.3503500   2.6458988  18.1556329  )
        51           N1  tau(  51) = (   5.7893717   3.5482605  18.2279111  )
        52           H1  tau(  52) = (   5.8942619   4.0012392  19.1365464  )
        53           H1  tau(  53) = (   5.0734348   2.8266848  18.2415795  )

     number of k points=    10  Fermi-Dirac smearing, width (Ry)=  0.0073
                       cart. coord. in units 2pi/alat
        k(    1) = (   0.0000000   0.0000000   0.0000000), wk =   0.1250000
        k(    2) = (   0.0000000   0.0419351   0.0000000), wk =   0.2500000
        k(    3) = (   0.0000000  -0.0838702   0.0000000), wk =   0.1250000
        k(    4) = (   0.0379955   0.0000049   0.0000000), wk =   0.2500000
        k(    5) = (   0.0379955   0.0419400   0.0000000), wk =   0.2500000
        k(    6) = (   0.0379955  -0.0838652   0.0000000), wk =   0.2500000
        k(    7) = (   0.0379955  -0.0419301   0.0000000), wk =   0.2500000
        k(    8) = (  -0.0759910  -0.0000099   0.0000000), wk =   0.1250000
        k(    9) = (  -0.0759910   0.0419252   0.0000000), wk =   0.2500000
        k(   10) = (  -0.0759910  -0.0838800   0.0000000), wk =   0.1250000

     Initial potential from superposition of free atoms

     starting charge  378.99916, renormalised to  395.00000

     negative rho (up, down):  1.774E-02 0.000E+00

     %%%%%%%%%%%%%%%%%%%%%%%%%%%%%%%%%%%%%%%%%%%%%%%%%%%%%%%%%%%%%%%%%%%%%%%%
     %                                                                      %
     % You are using vdW-DF, which was implemented by the Thonhauser group. %
     % Please cite the following two papers that made this development      %
     % possible and the two reviews that describe the various versions:     %
     %                                                                      %
     %   T. Thonhauser et al., PRL 115, 136402 (2015).                      %
     %   T. Thonhauser et al., PRB 76, 125112 (2007).                       %
     %   K. Berland et al., Rep. Prog. Phys. 78, 066501 (2015).             %
     %   D.C. Langreth et al., J. Phys.: Condens. Matter 21, 084203 (2009). %
     %                                                                      %
     %                                                                      %
     % If you are calculating the stress with vdW-DF, please also cite:     %
     %                                                                      %
     %   R. Sabatini et al., J. Phys.: Condens. Matter 24, 424209 (2012).   %
     %                                                                      %
     %%%%%%%%%%%%%%%%%%%%%%%%%%%%%%%%%%%%%%%%%%%%%%%%%%%%%%%%%%%%%%%%%%%%%%%%

     Adding external electric field

     Computed dipole along edir(3) :
        Dipole               -8.0651 Ry au,        -20.4996 Debye
        Dipole field         -0.0152 Ry au,

        Potential amp.        1.4109 Ry
        Total length         46.3494 bohr

     Starting wfcs are  299 atomic wfcs
  @ DRIVER MODE: Message from server: STATUS
  @ DRIVER MODE: Message from server: POSDATA
  @ DRIVER MODE: Reading and sharing cell
  @ DRIVER MODE: Reading and sharing positions
  @ DRIVER MODE: Received positions

     Self-consistent Calculation

     iteration #  1     ecut=    29.40 Ry     beta= 0.05
     Davidson diagonalization with overlap
     c_bands:  1 eigenvalues not converged
     c_bands:  1 eigenvalues not converged
     c_bands:  2 eigenvalues not converged
     c_bands:  3 eigenvalues not converged
     c_bands:  3 eigenvalues not converged
     c_bands:  2 eigenvalues not converged
     c_bands:  1 eigenvalues not converged
     ethr =  1.00E-05,  avg # of iterations = 19.3

[...]

     total energy              =   -2614.88569538 Ry
     estimated scf accuracy    <    3584.03989232 Ry

[...]

     iteration #  3     ecut=    29.40 Ry     beta= 0.05
     Davidson diagonalization with overlap
     ethr =  1.00E-02,  avg # of iterations = 14.0

[...]

     iteration # 74     ecut=    29.40 Ry     beta= 0.05
     Davidson diagonalization with overlap
     c_bands:  1 eigenvalues not converged
     c_bands:  1 eigenvalues not converged
     ethr =  3.79E-11,  avg # of iterations = 13.8

[...]

     total energy              =   -2939.00597302 Ry
     estimated scf accuracy    <       0.00000014 Ry

     iteration # 75     ecut=    29.40 Ry     beta= 0.05
     Davidson diagonalization with overlap
     ethr =  3.57E-11,  avg # of iterations = 10.2

     negative rho (up, down):  1.648E-02 0.000E+00

     Adding external electric field

     Computed dipole along edir(3) :
        Dipole                0.3001 Ry au,          0.7627 Debye
        Dipole field          0.0006 Ry au,

        Potential amp.       -0.0525 Ry
        Total length         46.3494 bohr

     End of self-consistent calculation

          k = 0.0000 0.0000 0.0000 ( 18029 PWs)   bands (ev):

   -56.1096 -56.1077 -56.0754 -56.0713 -55.9978 -55.9627 -55.9577 -55.9215
   -55.9073 -55.8731 -55.8721 -55.8379 -55.6494 -55.5882 -55.0795 -55.0455
   -32.6668 -32.5907 -32.4895 -32.4283 -32.4149 -32.4109 -32.4019 -32.3633
   -32.3496 -32.3353 -32.3087 -32.2880 -32.2807 -32.2619 -32.2552 -32.2485
   -32.2126 -32.1988 -32.1971 -32.1925 -32.1889 -32.1670 -32.1608 -32.1451
   -32.1197 -32.1059 -32.1046 -32.1027 -32.0988 -32.0953 -32.0742 -32.0474
   -32.0468 -32.0310 -32.0253 -32.0054 -31.9841 -31.9548 -31.8767 -31.8478
   -31.8037 -31.7401 -31.4862 -31.3990 -31.3765 -31.3031 -31.2167 -31.1055
   -17.9518 -16.8755 -16.5859 -16.3692 -16.2649 -16.2497 -16.1430 -15.9580
   -15.8247 -15.7964 -15.6897 -15.6831 -15.6420 -15.6285 -15.6009 -15.5762
   -15.5672 -15.5427 -15.5389 -15.5233 -15.4788 -15.4560 -15.4370 -15.3395
   -15.3005 -15.2400 -15.2157 -15.1572 -15.0346 -14.7985 -13.5818 -13.4656
   -13.2630  -8.0352  -6.3511  -4.3232  -4.2494  -4.0732  -4.0123  -3.9687
    -3.9563  -3.7223  -3.6890  -3.3305  -3.2981  -3.2773  -3.2675  -3.2564
    -3.1296  -3.0215  -2.9646  -2.9237  -2.9137  -2.9028  -2.8958  -2.8830
    -2.8572  -2.8351  -2.7288  -2.6837  -2.6549  -2.5445  -2.5277  -2.4276
    -2.4195  -2.4076  -2.3733  -2.3532  -2.3449  -2.3186  -2.3076  -2.2753
    -2.1946  -2.1463  -2.0319  -1.9596  -1.8854  -1.8496  -1.7065  -1.6608
    -1.5734  -1.5655  -1.5483  -1.5276  -1.4945  -1.4086  -1.3293  -1.2442
    -1.2007  -1.1641  -1.1286  -1.0853  -1.0025  -0.9848  -0.9676  -0.8712
    -0.8678  -0.8584  -0.8136  -0.6129  -0.5847  -0.5546  -0.5421  -0.4627
    -0.4069  -0.3885  -0.3688  -0.3202  -0.2609  -0.1974  -0.1513  -0.1367
    -0.1255  -0.1222  -0.0865  -0.0614   0.0813   0.0920   0.1861   0.1975
     0.2224   0.3504   0.5225   0.5594   0.5868   0.7056   0.8734   0.9427
     1.0448   1.1356   1.5131   1.5583   2.3829   3.0280   3.1143   3.1480
     3.1672   3.2726   3.3071   3.4756   3.4909   3.5262   3.5454

[...]

          k = 0.0380-0.0419 0.0000 ( 17876 PWs)   bands (ev):

[...]

          k =-0.0760-0.0000 0.0000 ( 17886 PWs)   bands (ev):

[...]

          k =-0.0760-0.0839 0.0000 ( 17948 PWs)   bands (ev):

   -56.0935 -56.0914 -56.0913 -56.0874 -55.9885 -55.9670 -55.9531 -55.9309
   -55.8921 -55.8878 -55.8584 -55.8518 -55.6461 -55.5914 -55.0625 -55.0624
   -32.4702 -32.4657 -32.4067 -32.4053 -32.3883 -32.3866 -32.3685 -32.3562
   -32.3374 -32.3182 -32.2942 -32.2774 -32.2523 -32.2427 -32.2410 -32.2234
   -32.2222 -32.2134 -32.2109 -32.2054 -32.2045 -32.1969 -32.1912 -32.1766
   -32.1718 -32.1526 -32.1364 -32.1340 -32.0918 -32.0899 -32.0881 -32.0843
   -32.0749 -32.0733 -32.0693 -32.0680 -32.0636 -31.9731 -31.8881 -31.8411
   -31.8070 -31.7962 -31.3893 -31.3891 -31.2992 -31.2989 -31.2600 -31.2599
   -17.9417 -16.3112 -16.2954 -16.0792 -16.0343 -16.0301 -16.0096 -15.9207
   -15.8301 -15.8110 -15.7976 -15.7793 -15.7641 -15.6844 -15.6593 -15.6370
   -15.6331 -15.6194 -15.5657 -15.5597 -15.5555 -15.5516 -15.5318 -15.4988
   -15.4163 -15.4114 -15.3992 -15.1612 -15.0951 -15.0243 -13.5676 -13.5672
   -13.2760  -7.9934  -6.2895  -4.3297  -3.6040  -3.5854  -3.3574  -3.3027
    -3.2850  -3.2764  -3.1620  -3.0591  -3.0298  -3.0173  -2.9785  -2.9606
    -2.9472  -2.9351  -2.9225  -2.9033  -2.8780  -2.8433  -2.8379  -2.7912
    -2.7764  -2.7555  -2.7378  -2.7159  -2.7150  -2.6742  -2.6677  -2.6297
    -2.5915  -2.5441  -2.4329  -2.3827  -2.3370  -2.2854  -2.2388  -2.2263
    -2.2166  -2.1645  -2.1592  -2.1231  -2.0391  -1.9639  -1.8287  -1.8080
    -1.7749  -1.7317  -1.7003  -1.6015  -1.5581  -1.5089  -1.4581  -1.4011
    -1.3900  -1.3467  -1.3094  -1.2442  -1.2277  -1.1875  -1.1660  -1.1039
    -1.0631  -1.0589  -0.9946  -0.9271  -0.8701  -0.8648  -0.8434  -0.8308
    -0.7730  -0.7257  -0.6590  -0.6101  -0.5685  -0.4698  -0.4141  -0.2945
    -0.1895  -0.0697   0.0001   0.0050   0.0603   0.1380   0.1840   0.2171
     0.2291   0.2493   0.3380   0.4102   0.4282   0.4432   0.5199   0.6948
     1.3074   1.3086   1.3776   1.3785   2.3792   3.3163   3.3549   3.3688
     3.4004   3.5449   3.5476   3.5598   3.5635   3.6818   3.7160

     the Fermi energy is     3.0252 ev

!    total energy              =   -2939.00599193 Ry
     estimated scf accuracy    <       0.00000006 Ry
     smearing contrib. (-TS)   =      -0.02195049 Ry
     internal energy E=F+TS    =   -2938.98404144 Ry

     The total energy is F=E-TS. E is the sum of the following terms:
     one-electron contribution =  -24450.56797203 Ry
     hartree contribution      =   12310.32141923 Ry
     xc contribution           =    -485.11811273 Ry
     ewald contribution        =    9686.38045416 Ry
     electric field correction =       0.00016994 Ry

     convergence has been achieved in  75 iterations

     Forces acting on atoms (cartesian axes, Ry/au):

     atom    1 type  1   force =     0.00018249   -0.00028858    0.09691500
     atom    2 type  1   force =     0.00006839   -0.00078725   -0.17500090
     atom    3 type  2   force =     0.00014713   -0.00008692   -0.02552178
     atom    4 type  2   force =    -0.00003228   -0.00142596    0.05156202
     atom    5 type  2   force =    -0.01206538   -0.00173522    0.00279571
     atom    6 type  2   force =     0.01348811   -0.00134126    0.00223928
     atom    7 type  1   force =     0.00040941    0.00014990   -0.01208934
     atom    8 type  1   force =     0.00018655    0.02419934    0.02897212
     atom    9 type  2   force =    -0.00004347    0.00051874   -0.00007100
     atom   10 type  2   force =    -0.00266363    0.00014318   -0.01161656
     atom   11 type  2   force =    -0.00003614    0.00027132    0.00003448
     atom   12 type  2   force =    -0.00023442   -0.00001589    0.00013102
     atom   13 type  1   force =    -0.00013218    0.00114005   -0.00010783
     atom   14 type  1   force =    -0.00000612    0.00049310    0.00008689
     atom   15 type  2   force =     0.00007911   -0.00005372   -0.00000638
     atom   16 type  2   force =    -0.00021317    0.00023241   -0.00039060
     atom   17 type  2   force =     0.00037999    0.00018148   -0.00047688
     atom   18 type  2   force =    -0.00019071    0.00012460   -0.00020849
     atom   19 type  1   force =    -0.00026173   -0.00013873   -0.00028984
     atom   20 type  1   force =     0.00030867   -0.00008770    0.00007351
     atom   21 type  2   force =     0.00006543   -0.00007294    0.10298202
     atom   22 type  2   force =    -0.00004343   -0.00029722   -0.00067891
     atom   23 type  2   force =    -0.07167490   -0.00017197   -0.02790187
     atom   24 type  2   force =     0.07158055    0.00028470   -0.02794030
     atom   25 type  1   force =     0.00003786   -0.00025480    0.09680954
     atom   26 type  1   force =    -0.00001162   -0.00018526   -0.17516202
     atom   27 type  2   force =     0.00015830   -0.00026913   -0.02417825
     atom   28 type  2   force =     0.00001483   -0.00118092    0.05211870
     atom   29 type  2   force =    -0.01222289    0.00077348    0.00247651
     atom   30 type  2   force =     0.01352920    0.00125746    0.00188807
     atom   31 type  1   force =     0.00045530    0.00286521   -0.01397324
     atom   32 type  1   force =     0.00038401   -0.02517450    0.03046128
     atom   33 type  2   force =     0.00004218   -0.00008149   -0.00016923
     atom   34 type  2   force =    -0.00184019   -0.00050326   -0.02069775
     atom   35 type  2   force =    -0.00001005    0.00021693   -0.00005995
     atom   36 type  2   force =     0.00018371    0.00032784    0.00015378
     atom   37 type  1   force =    -0.00021463   -0.00084357   -0.00003693
     atom   38 type  1   force =     0.00008427    0.00013755   -0.00017572
     atom   39 type  2   force =     0.00007275    0.00035986   -0.00023736
     atom   40 type  2   force =    -0.00005591    0.00008313    0.00037192
     atom   41 type  2   force =     0.00041730    0.00003021   -0.00023755
     atom   42 type  2   force =    -0.00017009   -0.00003308   -0.00038416
     atom   43 type  1   force =    -0.00039177    0.00027788    0.00024468
     atom   44 type  1   force =     0.00045870   -0.00001468    0.00103467
     atom   45 type  2   force =     0.00005412   -0.00006764    0.10299530
     atom   46 type  2   force =    -0.07170249   -0.00011652   -0.02790712
     atom   47 type  2   force =     0.07159082    0.00025935   -0.02792931
     atom   48 type  3   force =     0.00596047    0.00101150    0.00809829
     atom   49 type  4   force =    -0.00385648   -0.00098768   -0.01159474
     atom   50 type  5   force =    -0.00249940    0.00151346    0.00280728
     atom   51 type  3   force =     0.00051487   -0.00050058   -0.00037777
     atom   52 type  5   force =    -0.00003299   -0.00018894   -0.00016138
     atom   53 type  5   force =    -0.00024846    0.00005269    0.00033106

     Total force =     0.369355     Total SCF correction =     0.000675
  @ DRIVER MODE: Message from server: STATUS
  @ DRIVER MODE: Message from server: GETFORCE
  @ DRIVER MODE: Returning v,forces,stress,ensemble

     Writing output data file ./calc.save/
  @ DRIVER MODE: Message from server: EXIT
  @ DRIVE MODE: Exiting

     General routines

     Parallel routines

   This run was terminated on:  19:40:41  23Aug2021

   JOB DONE.