     Program PWSCF v.6.7GPU starts on 23Sep2021 at 20:54:30

     R & G space division:  proc/nbgrp/npool/nimage =       8
     Reading input from /storage/home/hcoda1/3/ntian30/research/carbon/CxH_vib/H2O_calc/ads_slab/CH3NHNH2HO_a/out_0022/pw.inp
Warning: card &CELL ignored
Warning: card   CELL_DYNAMICS='IPI', ignored
Warning: card / ignored

     Current dimensions of program PWSCF are:
     Max number of different atomic species (ntypx) = 10
     Max number of k-points (npk) =  40000
     Max angular momentum in pseudopotentials (lmaxx) =  3
     Presently no symmetry can be used with electric field

     Message from routine cell_base_init:
     DEPRECATED: use true lattice parameter, not A to a.u. conversion factor

     IMPORTANT: XC functional enforced from input :
     Exchange-correlation= BEEF-VDW
                           (   1   4  43  14   2   0   0)
     Any further DFT definition will be discarded
     Please, verify this is what you really want

  @ DRIVER MODE: Connecting to
 qe_1139763_2947307.sched-torque.pace.gatech.eduogtqhkz4_scratch
  using UNIX socket
  @ DRIVER MODE: Message from server: STATUS
  @ DRIVER MODE: Message from server: INIT
  @ DRIVER MODE: Receiving replica           0          -1
  @ DRIVER MODE: Receiving encoded integer          25
  @ DRIVER MODE:  SCF:  T  FORCE:  T  STRESS:  F  VC:  F  ENSEMBLE:  F
  @ DRIVER MODE:  SCF:  T  FORCE:  T  STRESS:  F  VC:  F  ENSEMBLE:  F

     Using Slab Decomposition

     bravais-lattice index     =            0
     lattice parameter (alat)  =       1.8897  a.u.
     unit-cell volume          =    6658.9804 (a.u.)^3
     number of atoms/cell      =           58
     number of atomic types    =            5
     number of electrons       =       405.00
     number of Kohn-Sham states=          212
     kinetic-energy cutoff     =      29.3995  Ry
     charge density cutoff     =     293.9946  Ry
     scf convergence threshold =      7.3E-08
     mixing beta               =       0.0500
     number of iterations used =            8  plain     mixing
     Exchange-correlation= BEEF-VDW
                           (   1   4  43  14   2   0   0)

     celldm(1)=   1.889726  celldm(2)=   0.000000  celldm(3)=   0.000000
     celldm(4)=   0.000000  celldm(5)=   0.000000  celldm(6)=   0.000000

     crystal axes: (cart. coord. in units of alat)
               a(1) = (   6.579727   0.000000   0.000000 )
               a(2) = (  -0.000775   5.961596   0.000000 )
               a(3) = (   0.000000   0.000000  25.155947 )

     reciprocal axes: (cart. coord. in units 2 pi/alat)
               b(1) = (  0.151982  0.000020  0.000000 )
               b(2) = (  0.000000  0.167740  0.000000 )
               b(3) = (  0.000000  0.000000  0.039752 )

     PseudoPot. # 1 for Ti read from file:
     /storage/coda1/p-amedford6/0/shared/rich_project_chbe-medford/medford-share/data/pseudos_module/espresso/nninc/pbe/van/Ti.UPF
     MD5 check sum: 8e4df49b7f0d34bbd5052bf3f5ea0213
     Pseudo is Ultrasoft, Zval = 12.0
     Generated by new atomic code, or converted to UPF format
     Using radial grid of  851 points,  6 beta functions with:
                l(1) =   0
                l(2) =   0
                l(3) =   1
                l(4) =   1
                l(5) =   2
                l(6) =   2
     Q(r) pseudized with  8 coefficients,  rinner =    1.000   1.000   1.000
                                                       1.000   1.000

     PseudoPot. # 2 for O  read from file:
     /storage/coda1/p-amedford6/0/shared/rich_project_chbe-medford/medford-share/data/pseudos_module/espresso/nninc/pbe/van/O.UPF
     MD5 check sum: 78c19812648e8988a0fe644b0f25305e
     Pseudo is Ultrasoft, Zval =  6.0
     Generated by new atomic code, or converted to UPF format
     Using radial grid of  737 points,  4 beta functions with:
                l(1) =   0
                l(2) =   0
                l(3) =   1
                l(4) =   1
     Q(r) pseudized with  8 coefficients,  rinner =    0.800   0.800   0.800

     PseudoPot. # 3 for N  read from file:
     /storage/coda1/p-amedford6/0/shared/rich_project_chbe-medford/medford-share/data/pseudos_module/espresso/nninc/pbe/van/N.UPF
     MD5 check sum: 90d10febe142ad51ac9d5be1deb811c4
     Pseudo is Ultrasoft, Zval =  5.0
     Generated by new atomic code, or converted to UPF format
     Using radial grid of  729 points,  4 beta functions with:
                l(1) =   0
                l(2) =   0
                l(3) =   1
                l(4) =   1
     Q(r) pseudized with  8 coefficients,  rinner =    0.800   0.800   0.800

     PseudoPot. # 4 for C  read from file:
     /storage/coda1/p-amedford6/0/shared/rich_project_chbe-medford/medford-share/data/pseudos_module/espresso/nninc/pbe/van/C.UPF
     MD5 check sum: 1a69bf6b8db32088f5b2163dbdb77a27
     Pseudo is Ultrasoft, Zval =  4.0
     Generated by new atomic code, or converted to UPF format
     Using radial grid of  721 points,  4 beta functions with:
                l(1) =   0
                l(2) =   0
                l(3) =   1
                l(4) =   1
     Q(r) pseudized with  8 coefficients,  rinner =    0.800   0.800   0.800

     PseudoPot. # 5 for H  read from file:
     /storage/coda1/p-amedford6/0/shared/rich_project_chbe-medford/medford-share/data/pseudos_module/espresso/nninc/pbe/van/H.UPF
     MD5 check sum: b5ee9d7bfd3a09ee7748110bda690ff7
     Pseudo is Ultrasoft, Zval =  1.0
     Generated by new atomic code, or converted to UPF format
     Using radial grid of  615 points,  1 beta functions with:
                l(1) =   0
     Q(r) pseudized with  8 coefficients,  rinner =    0.800

     atomic species   valence    mass     pseudopotential
        Ti1           12.00    47.86700     Ti( 1.00)
        O1             6.00    15.99900     O ( 1.00)
        N1             5.00    14.00700     N ( 1.00)
        C1             4.00    12.01100     C ( 1.00)
        H1             1.00     1.00800     H ( 1.00)

     No symmetry found

   Cartesian axes

     site n.     atom                  positions (alat units)
         1           Ti1 tau(   1) = (   0.0004258   2.9801865   6.0000000  )
         2           Ti1 tau(   2) = (   3.2906075   1.4906267   6.0002472  )
         3           O1  tau(   3) = (   0.0006271   0.0005054   7.9858123  )
         4           O1  tau(   4) = (   3.2906025   0.0005020   7.3038282  )
         5           O1  tau(   5) = (   4.5942328   1.4918067   9.2879030  )
         6           O1  tau(   6) = (   1.9868534   1.4903216   9.2879459  )
         7           Ti1 tau(   7) = (   3.2907910   2.8959150   9.1758416  )
         8           Ti1 tau(   8) = (   0.0015273   1.4827037   9.2680791  )
         9           O1  tau(   9) = (   3.3003128   0.0493987  11.3625472  )
        10           O1  tau(  10) = (   0.0116148   5.9584955  10.6183126  )
        11           O1  tau(  11) = (   1.2863924   1.5188706  12.6959087  )
        12           O1  tau(  12) = (   5.3173592   1.5183023  12.6957539  )
        13           Ti1 tau(  13) = (   0.0130489   2.9571150  12.5182267  )
        14           Ti1 tau(  14) = (   3.3124343   1.5987737  12.4587140  )
        15           O1  tau(  15) = (   0.0455642   5.8537743  14.6515032  )
        16           O1  tau(  16) = (   3.3135256   5.8999501  14.0036581  )
        17           O1  tau(  17) = (   4.5824137   1.5787328  16.0473457  )
        18           O1  tau(  18) = (   2.0456054   1.5356268  16.0652349  )
        19           Ti1 tau(  19) = (   3.2855744   2.9948502  15.7047272  )
        20           Ti1 tau(  20) = (   0.0729980   1.3194477  15.7501807  )
        21           O1  tau(  21) = (   3.2904802   0.0005063   4.7018136  )
        22           O1  tau(  22) = (   6.5643345   0.1786488  17.1561759  )
        23           O1  tau(  23) = (   1.3043587   1.4918075   6.0039043  )
        24           O1  tau(  24) = (   5.2767064   1.4903225   6.0039473  )
        25           Ti1 tau(  25) = (   0.0000382   5.9609847   6.0000000  )
        26           Ti1 tau(  26) = (   3.2902200   4.4714249   6.0002472  )
        27           O1  tau(  27) = (   0.0002396   2.9813036   7.9858123  )
        28           O1  tau(  28) = (   3.2902150   2.9813002   7.3038282  )
        29           O1  tau(  29) = (   4.5938453   4.4726049   9.2879030  )
        30           O1  tau(  30) = (   1.9864658   4.4711199   9.2879459  )
        31           Ti1 tau(  31) = (   3.2891106   5.8743827   9.1763621  )
        32           Ti1 tau(  32) = (   0.0006254   4.4649316   9.2693709  )
        33           O1  tau(  33) = (   3.3044115   2.9646987  11.3227374  )
        34           O1  tau(  34) = (   0.0092240   2.9805883  10.6323155  )
        35           O1  tau(  35) = (   1.2889249   4.4812606  12.6373974  )
        36           O1  tau(  36) = (   5.3198440   4.4849614  12.6453916  )
        37           Ti1 tau(  37) = (   0.0274371   5.9167426  12.5032498  )
        38           Ti1 tau(  38) = (   3.3124303   4.6827448  12.7121475  )
        39           O1  tau(  39) = (   0.0064664   3.0605765  14.9143048  )
        40           O1  tau(  40) = (   3.2921723   3.0190953  13.9337278  )
        41           O1  tau(  41) = (   4.5343043   4.4484976  16.2223827  )
        42           O1  tau(  42) = (   2.0055671   4.4324605  16.2273083  )
        43           Ti1 tau(  43) = (   3.3963104   0.0511244  16.3072024  )
        44           Ti1 tau(  44) = (   0.1011521   4.5293608  16.0606835  )
        45           O1  tau(  45) = (   3.2900926   2.9813045   4.7018136  )
        46           O1  tau(  46) = (   1.3039711   4.4726057   6.0039043  )
        47           O1  tau(  47) = (   5.2763189   4.4711207   6.0039473  )
        48           N1  tau(  48) = (   0.7799224   3.1460235  19.0808133  )
        49           N1  tau(  49) = (   6.3029119   3.3142126  18.0946246  )
        50           C1  tau(  50) = (   0.9829876   4.3811599  19.8296872  )
        51           H1  tau(  51) = (   0.0599524   4.7730682  20.2995108  )
        52           H1  tau(  52) = (   1.7087173   4.1728717  20.6153690  )
        53           H1  tau(  53) = (   1.3778604   5.1510331  19.1745456  )
        54           H1  tau(  54) = (   0.4845774   2.4057476  19.7140978  )
        55           H1  tau(  55) = (   5.5451363   3.8924421  18.4761980  )
        56           H1  tau(  56) = (   5.8791802   2.3931312  17.9634808  )
        57           O1  tau(  57) = (   3.3895457   0.1916509  18.1699706  )
        58           H1  tau(  58) = (   3.8128180   5.4341384  18.6581559  )

     number of k points=    10  Fermi-Dirac smearing, width (Ry)=  0.0073
                       cart. coord. in units 2pi/alat
        k(    1) = (   0.0000000   0.0000000   0.0000000), wk =   0.1250000
        k(    2) = (   0.0000000   0.0419351   0.0000000), wk =   0.2500000
        k(    3) = (   0.0000000  -0.0838702   0.0000000), wk =   0.1250000
        k(    4) = (   0.0379955   0.0000049   0.0000000), wk =   0.2500000
        k(    5) = (   0.0379955   0.0419400   0.0000000), wk =   0.2500000
        k(    6) = (   0.0379955  -0.0838652   0.0000000), wk =   0.2500000
        k(    7) = (   0.0379955  -0.0419301   0.0000000), wk =   0.2500000
        k(    8) = (  -0.0759910  -0.0000099   0.0000000), wk =   0.1250000
        k(    9) = (  -0.0759910   0.0419252   0.0000000), wk =   0.2500000
        k(   10) = (  -0.0759910  -0.0838800   0.0000000), wk =   0.1250000

     Initial potential from superposition of free atoms

     starting charge  388.99913, renormalised to  405.00000

     negative rho (up, down):  1.368E-02 0.000E+00

     %%%%%%%%%%%%%%%%%%%%%%%%%%%%%%%%%%%%%%%%%%%%%%%%%%%%%%%%%%%%%%%%%%%%%%%%
     %                                                                      %
     % You are using vdW-DF, which was implemented by the Thonhauser group. %
     % Please cite the following two papers that made this development      %
     % possible and the two reviews that describe the various versions:     %
     %                                                                      %
     %   T. Thonhauser et al., PRL 115, 136402 (2015).                      %
     %   T. Thonhauser et al., PRB 76, 125112 (2007).                       %
     %   K. Berland et al., Rep. Prog. Phys. 78, 066501 (2015).             %
     %   D.C. Langreth et al., J. Phys.: Condens. Matter 21, 084203 (2009). %
     %                                                                      %
     %                                                                      %
     % If you are calculating the stress with vdW-DF, please also cite:     %
     %                                                                      %
     %   R. Sabatini et al., J. Phys.: Condens. Matter 24, 424209 (2012).   %
     %                                                                      %
     %%%%%%%%%%%%%%%%%%%%%%%%%%%%%%%%%%%%%%%%%%%%%%%%%%%%%%%%%%%%%%%%%%%%%%%%

     Adding external electric field

     Computed dipole along edir(3) :
        Dipole              -14.8124 Ry au,        -37.6493 Debye
        Dipole field         -0.0280 Ry au,

        Potential amp.        2.5912 Ry
        Total length         46.3494 bohr

     Starting wfcs are  307 atomic wfcs
  @ DRIVER MODE: Message from server: STATUS
  @ DRIVER MODE: Message from server: POSDATA
  @ DRIVER MODE: Reading and sharing cell
  @ DRIVER MODE: Reading and sharing positions
  @ DRIVER MODE: Received positions

     Self-consistent Calculation

     iteration #  1     ecut=    29.40 Ry     beta= 0.05
     Davidson diagonalization with overlap
     c_bands:  4 eigenvalues not converged
     c_bands:  4 eigenvalues not converged
     c_bands:  5 eigenvalues not converged
     c_bands:  2 eigenvalues not converged
     c_bands:  3 eigenvalues not converged
     c_bands:  4 eigenvalues not converged
     c_bands:  2 eigenvalues not converged
     ethr =  1.00E-05,  avg # of iterations = 22.9

[...]

     total energy              =   -2202.99157991 Ry
     estimated scf accuracy    <    8803.87545436 Ry

     iteration #  2     ecut=    29.40 Ry     beta= 0.05
     Davidson diagonalization with overlap
     ethr =  1.00E-02,  avg # of iterations = 33.5

[...]

     iteration # 38     ecut=    29.40 Ry     beta= 0.05
     Davidson diagonalization with overlap
     c_bands:  1 eigenvalues not converged
     c_bands:  1 eigenvalues not converged
     c_bands:  1 eigenvalues not converged
     c_bands:  1 eigenvalues not converged
     c_bands:  1 eigenvalues not converged
     ethr =  8.78E-07,  avg # of iterations = 17.0

[...]

     total energy              =   -2976.46394558 Ry
     estimated scf accuracy    <       0.00000010 Ry

     iteration # 57     ecut=    29.40 Ry     beta= 0.05
     Davidson diagonalization with overlap
     ethr =  2.59E-11,  avg # of iterations = 10.9

     negative rho (up, down):  1.441E-02 0.000E+00

     Adding external electric field

     Computed dipole along edir(3) :
        Dipole                1.2245 Ry au,          3.1123 Debye
        Dipole field          0.0023 Ry au,

        Potential amp.       -0.2142 Ry
        Total length         46.3494 bohr

     End of self-consistent calculation

          k = 0.0000 0.0000 0.0000 ( 18029 PWs)   bands (ev):

   -55.4452 -55.3576 -55.3235 -55.2188 -55.2157 -55.1883 -55.1864 -55.1783
   -55.1543 -55.1312 -55.0881 -54.9858 -54.9380 -54.8943 -54.3327 -54.2986
   -31.8428 -31.7917 -31.7226 -31.7049 -31.6911 -31.6758 -31.6551 -31.6484
   -31.6173 -31.6037 -31.5978 -31.5101 -31.4948 -31.4877 -31.4681 -31.4647
   -31.4605 -31.4514 -31.4509 -31.4211 -31.4150 -31.3934 -31.3864 -31.3764
   -31.3717 -31.3555 -31.3544 -31.3227 -31.3222 -31.3157 -31.3149 -31.3092
   -31.3009 -31.2829 -31.2586 -31.2406 -31.1748 -31.1536 -31.1416 -31.1336
   -31.1125 -31.1034 -30.7387 -30.6523 -30.6298 -30.5562 -30.4698 -30.3580
   -17.7448 -16.3676 -16.0118 -15.8480 -15.6332 -15.5405 -15.5135 -15.3147
   -15.2196 -15.1615 -14.9601 -14.9329 -14.8955 -14.8825 -14.8737 -14.8526
   -14.8488 -14.7975 -14.7821 -14.7721 -14.7686 -14.7382 -14.7112 -14.6718
   -14.6122 -14.5984 -14.4962 -14.4405 -14.4006 -14.1592 -14.1393 -13.1755
   -12.8314 -12.7150  -9.4377  -6.4471  -5.7436  -4.2679  -3.9342  -3.3697
    -3.2684  -3.2568  -3.1997  -3.1328  -2.9715  -2.8849  -2.7814  -2.7421
    -2.6083  -2.5981  -2.4930  -2.4443  -2.3712  -2.3251  -2.2839  -2.2493
    -2.2211  -2.1653  -2.1433  -2.1173  -2.1059  -2.0333  -2.0148  -1.9251
    -1.8923  -1.8787  -1.7611  -1.7264  -1.6916  -1.6786  -1.6697  -1.6631
    -1.6194  -1.6093  -1.5987  -1.5565  -1.4560  -1.4480  -1.4305  -1.3400
    -1.2427  -0.9924  -0.9613  -0.9107  -0.8991  -0.8209  -0.7824  -0.7509
    -0.7179  -0.6482  -0.6369  -0.6109  -0.5497  -0.4741  -0.4201  -0.3723
    -0.3381  -0.2262  -0.1762  -0.1324  -0.0996  -0.0629   0.0002   0.0396
     0.0638   0.1069   0.1946   0.2580   0.2854   0.3023   0.3524   0.3943
     0.4321   0.4725   0.5444   0.5669   0.5770   0.6162   0.6249   0.6459
     0.7412   0.7597   0.8193   0.8465   0.9344   0.9654   1.0096   1.1789
     1.2485   1.3069   1.3847   1.4737   1.6392   1.6937   1.7188   1.8876
     2.2610   2.3064   3.7262   3.8736   3.8898   3.9676   3.9845   4.0488
     4.2151   4.2744   4.4122   4.4228

[...]

          k = 0.0380-0.0419 0.0000 ( 17876 PWs)   bands (ev):

[...]

          k =-0.0760-0.0000 0.0000 ( 17886 PWs)   bands (ev):

[...]

          k =-0.0760-0.0839 0.0000 ( 17948 PWs)   bands (ev):

   -55.4444 -55.3406 -55.3404 -55.2176 -55.2040 -55.1899 -55.1870 -55.1725
   -55.1697 -55.1231 -55.0963 -54.9827 -54.9390 -54.8973 -54.3156 -54.3156
   -31.7303 -31.6699 -31.6581 -31.6580 -31.6565 -31.6426 -31.6340 -31.6337
   -31.5767 -31.5314 -31.5102 -31.4994 -31.4941 -31.4890 -31.4662 -31.4605
   -31.4599 -31.4568 -31.4505 -31.4378 -31.4312 -31.4284 -31.4164 -31.3907
   -31.3863 -31.3839 -31.3768 -31.3690 -31.3505 -31.3452 -31.3417 -31.3413
   -31.3386 -31.3184 -31.3168 -31.2519 -31.2349 -31.2076 -31.1790 -31.1559
   -31.1495 -31.1082 -30.6426 -30.6425 -30.5517 -30.5514 -30.5131 -30.5129
   -17.7407 -16.3575 -15.5924 -15.4474 -15.3392 -15.3288 -15.2048 -15.1376
   -15.1280 -15.0942 -15.0715 -15.0495 -15.0311 -15.0159 -14.9611 -14.9215
   -14.8900 -14.8626 -14.8581 -14.8151 -14.8053 -14.7939 -14.7762 -14.7646
   -14.7092 -14.6733 -14.6636 -14.6050 -14.4658 -14.4456 -14.2893 -13.1769
   -12.8169 -12.8167  -9.4568  -6.4315  -5.7495  -4.2531  -3.9231  -2.9573
    -2.8011  -2.6587  -2.5987  -2.5635  -2.4499  -2.4259  -2.3678  -2.3173
    -2.2932  -2.2716  -2.2198  -2.2097  -2.1636  -2.1475  -2.1235  -2.1084
    -2.0921  -2.0856  -2.0577  -2.0420  -2.0316  -2.0189  -1.9916  -1.9804
    -1.9621  -1.9335  -1.9133  -1.9043  -1.8707  -1.8282  -1.7669  -1.6568
    -1.5822  -1.5716  -1.5279  -1.5031  -1.4869  -1.4458  -1.4333  -1.3922
    -1.3748  -1.3085  -1.1505  -1.1255  -1.1109  -0.9686  -0.9613  -0.9325
    -0.8583  -0.8166  -0.7948  -0.7367  -0.7070  -0.6673  -0.5899  -0.5465
    -0.4920  -0.4260  -0.3264  -0.3187  -0.3027  -0.2827  -0.2665  -0.2586
    -0.2254  -0.1883  -0.1152  -0.0686  -0.0601  -0.0540  -0.0028   0.0770
     0.1280   0.2423   0.3885   0.3930   0.4600   0.4608   0.6606   0.6694
     0.7460   0.7815   0.8158   0.8430   0.9367   0.9546   0.9924   1.0751
     1.1388   1.1684   1.1892   1.1940   1.2471   1.4548   2.0560   2.0638
     2.1267   2.1268   3.9673   4.2003   4.2406   4.2537   4.2721   4.2985
     4.3121   4.3262   4.3931   4.4164

     the Fermi energy is     3.7635 ev

!    total energy              =   -2976.46404186 Ry
     estimated scf accuracy    <       0.00000007 Ry
     smearing contrib. (-TS)   =      -0.01955515 Ry
     internal energy E=F+TS    =   -2976.44448671 Ry

     The total energy is F=E-TS. E is the sum of the following terms:
     one-electron contribution =  -23037.20998246 Ry
     hartree contribution      =   11616.31588142 Ry
     xc contribution           =    -495.72338501 Ry
     ewald contribution        =    8940.17016996 Ry
     electric field correction =       0.00282938 Ry

     convergence has been achieved in  57 iterations

     Forces acting on atoms (cartesian axes, Ry/au):

     atom    1 type  1   force =     0.00016423   -0.00022300    0.09417218
     atom    2 type  1   force =    -0.00010088    0.00018147   -0.17535110
     atom    3 type  2   force =     0.00005442   -0.00049199   -0.02102918
     atom    4 type  2   force =    -0.00002546   -0.00093582    0.05426223
     atom    5 type  2   force =    -0.00489687   -0.00215948    0.00107309
     atom    6 type  2   force =     0.00672144   -0.00138613    0.00108817
     atom    7 type  1   force =     0.00005394    0.00331749    0.00867491
     atom    8 type  1   force =    -0.00010449    0.00119791    0.00273224
     atom    9 type  2   force =    -0.00021871   -0.00029594   -0.00058241
     atom   10 type  2   force =    -0.00112081    0.00429696   -0.01025808
     atom   11 type  2   force =    -0.00007612   -0.00055586   -0.00011464
     atom   12 type  2   force =     0.00061696   -0.00031995   -0.00027932
     atom   13 type  1   force =    -0.00144421    0.00019946   -0.00057641
     atom   14 type  1   force =     0.00071359    0.00016484   -0.00046514
     atom   15 type  2   force =     0.00013879   -0.00001495    0.00004841
     atom   16 type  2   force =    -0.00009448   -0.00068831   -0.00031768
     atom   17 type  2   force =    -0.00042597    0.00069634    0.00007169
     atom   18 type  2   force =    -0.00076792    0.00031919   -0.00021713
     atom   19 type  1   force =     0.00042764   -0.00092783    0.00059622
     atom   20 type  1   force =    -0.00069311   -0.00010658    0.00047395
     atom   21 type  2   force =     0.00003746   -0.00000890    0.10318318
     atom   22 type  2   force =    -0.00011438    0.00003096    0.00046697
     atom   23 type  2   force =    -0.07200004   -0.00019970   -0.02726696
     atom   24 type  2   force =     0.07187779    0.00025744   -0.02734134
     atom   25 type  1   force =     0.00007185   -0.00016350    0.09389903
     atom   26 type  1   force =    -0.00012007   -0.00136733   -0.17548887
     atom   27 type  2   force =     0.00011106   -0.00005913   -0.01984422
     atom   28 type  2   force =     0.00006542   -0.00105295    0.04981221
     atom   29 type  2   force =    -0.00747914    0.00209678    0.00339516
     atom   30 type  2   force =     0.00908465    0.00223776    0.00331346
     atom   31 type  1   force =     0.00019234    0.00152756    0.00007570
     atom   32 type  1   force =    -0.00008885   -0.00227041    0.00303827
     atom   33 type  2   force =    -0.00017723   -0.00032100   -0.00002782
     atom   34 type  2   force =    -0.00117149   -0.00218815   -0.00965370
     atom   35 type  2   force =     0.00063386    0.00005757   -0.00022676
     atom   36 type  2   force =     0.00038001    0.00011842   -0.00035288
     atom   37 type  1   force =    -0.00097772    0.00026509    0.00036017
     atom   38 type  1   force =     0.00097120   -0.00024698    0.00020462
     atom   39 type  2   force =    -0.00017055   -0.00053405    0.00011083
     atom   40 type  2   force =    -0.00020220   -0.00019600   -0.00017431
     atom   41 type  2   force =     0.00026299   -0.00031865   -0.00009811
     atom   42 type  2   force =    -0.00066881    0.00005526   -0.00011679
     atom   43 type  1   force =     0.00023265    0.00093777    0.00051798
     atom   44 type  1   force =    -0.00039630    0.00083844    0.00006277
     atom   45 type  2   force =     0.00002706    0.00003382    0.10300072
     atom   46 type  2   force =    -0.07195136   -0.00008317   -0.02722449
     atom   47 type  2   force =     0.07184205    0.00035210   -0.02730562
     atom   48 type  3   force =    -0.00082880   -0.00010843    0.00007256
     atom   49 type  3   force =    -0.00042190   -0.00026749   -0.00060769
     atom   50 type  4   force =    -0.00192718    0.00234901    0.00111566
     atom   51 type  5   force =     0.00139236   -0.00317789   -0.00093152
     atom   52 type  5   force =     0.00035824   -0.00001726    0.00045299
     atom   53 type  5   force =     0.00042996    0.00029447   -0.00076261
     atom   54 type  5   force =     0.00062780   -0.00030158    0.00003119
     atom   55 type  5   force =     0.00061167   -0.00062418    0.00006658
     atom   56 type  5   force =     0.00063649   -0.00002947   -0.00007058
     atom   57 type  2   force =     0.00075670   -0.00114502    0.00007395
     atom   58 type  5   force =    -0.00082955    0.00096094    0.00023830

     Total force =     0.362007     Total SCF correction =     0.000548
  @ DRIVER MODE: Message from server: STATUS
  @ DRIVER MODE: Message from server: GETFORCE
  @ DRIVER MODE: Returning v,forces,stress,ensemble

     Writing output data file ./calc.save/
  @ DRIVER MODE: Message from server: EXIT
  @ DRIVE MODE: Exiting

     General routines

     Parallel routines

   This run was terminated on:  21:22: 7  23Sep2021

   JOB DONE.