     Program PWSCF v.6.7GPU starts on 11Oct2021 at 23:19:59

     R & G space division:  proc/nbgrp/npool/nimage =       8
     Reading input from /storage/home/hcoda1/3/ntian30/research/carbon/CxH_vib/CH2_calc/ads_slab/CH2NHH_b/out_0018/pw.inp
Warning: card &CELL ignored
Warning: card   CELL_DYNAMICS='IPI', ignored
Warning: card / ignored

     Current dimensions of program PWSCF are:
     Max number of different atomic species (ntypx) = 10
     Max number of k-points (npk) =  40000
     Max angular momentum in pseudopotentials (lmaxx) =  3
     Presently no symmetry can be used with electric field

     Message from routine cell_base_init:
     DEPRECATED: use true lattice parameter, not A to a.u. conversion factor

     IMPORTANT: XC functional enforced from input :
     Exchange-correlation= BEEF-VDW
                           (   1   4  43  14   2   0   0)
     Any further DFT definition will be discarded
     Please, verify this is what you really want

  @ DRIVER MODE: Connecting to
 qe_1139763_3171005.sched-torque.pace.gatech.eduq83s5lov_scratch
  using UNIX socket
  @ DRIVER MODE: Message from server: STATUS
  @ DRIVER MODE: Message from server: INIT
  @ DRIVER MODE: Receiving replica           0          -1
  @ DRIVER MODE: Receiving encoded integer          25
  @ DRIVER MODE:  SCF:  T  FORCE:  T  STRESS:  F  VC:  F  ENSEMBLE:  F
  @ DRIVER MODE:  SCF:  T  FORCE:  T  STRESS:  F  VC:  F  ENSEMBLE:  F

     Using Slab Decomposition

     bravais-lattice index     =            0
     lattice parameter (alat)  =       1.8897  a.u.
     unit-cell volume          =    6658.9804 (a.u.)^3
     number of atoms/cell      =           53
     number of atomic types    =            5
     number of electrons       =       391.00
     number of Kohn-Sham states=          205
     kinetic-energy cutoff     =      29.3995  Ry
     charge density cutoff     =     293.9946  Ry
     scf convergence threshold =      7.3E-08
     mixing beta               =       0.0500
     number of iterations used =            8  plain     mixing
     Exchange-correlation= BEEF-VDW
                           (   1   4  43  14   2   0   0)

     celldm(1)=   1.889726  celldm(2)=   0.000000  celldm(3)=   0.000000
     celldm(4)=   0.000000  celldm(5)=   0.000000  celldm(6)=   0.000000

     crystal axes: (cart. coord. in units of alat)
               a(1) = (   6.579727   0.000000   0.000000 )
               a(2) = (  -0.000775   5.961596   0.000000 )
               a(3) = (   0.000000   0.000000  25.155947 )

     reciprocal axes: (cart. coord. in units 2 pi/alat)
               b(1) = (  0.151982  0.000020  0.000000 )
               b(2) = (  0.000000  0.167740  0.000000 )
               b(3) = (  0.000000  0.000000  0.039752 )

     PseudoPot. # 1 for Ti read from file:
     /storage/coda1/p-amedford6/0/shared/rich_project_chbe-medford/medford-share/data/pseudos_module/espresso/nninc/pbe/van/Ti.UPF
     MD5 check sum: 8e4df49b7f0d34bbd5052bf3f5ea0213
     Pseudo is Ultrasoft, Zval = 12.0
     Generated by new atomic code, or converted to UPF format
     Using radial grid of  851 points,  6 beta functions with:
                l(1) =   0
                l(2) =   0
                l(3) =   1
                l(4) =   1
                l(5) =   2
                l(6) =   2
     Q(r) pseudized with  8 coefficients,  rinner =    1.000   1.000   1.000
                                                       1.000   1.000

     PseudoPot. # 2 for O  read from file:
     /storage/coda1/p-amedford6/0/shared/rich_project_chbe-medford/medford-share/data/pseudos_module/espresso/nninc/pbe/van/O.UPF
     MD5 check sum: 78c19812648e8988a0fe644b0f25305e
     Pseudo is Ultrasoft, Zval =  6.0
     Generated by new atomic code, or converted to UPF format
     Using radial grid of  737 points,  4 beta functions with:
                l(1) =   0
                l(2) =   0
                l(3) =   1
                l(4) =   1
     Q(r) pseudized with  8 coefficients,  rinner =    0.800   0.800   0.800

     PseudoPot. # 3 for H  read from file:
     /storage/coda1/p-amedford6/0/shared/rich_project_chbe-medford/medford-share/data/pseudos_module/espresso/nninc/pbe/van/H.UPF
     MD5 check sum: b5ee9d7bfd3a09ee7748110bda690ff7
     Pseudo is Ultrasoft, Zval =  1.0
     Generated by new atomic code, or converted to UPF format
     Using radial grid of  615 points,  1 beta functions with:
                l(1) =   0
     Q(r) pseudized with  8 coefficients,  rinner =    0.800

     PseudoPot. # 4 for N  read from file:
     /storage/coda1/p-amedford6/0/shared/rich_project_chbe-medford/medford-share/data/pseudos_module/espresso/nninc/pbe/van/N.UPF
     MD5 check sum: 90d10febe142ad51ac9d5be1deb811c4
     Pseudo is Ultrasoft, Zval =  5.0
     Generated by new atomic code, or converted to UPF format
     Using radial grid of  729 points,  4 beta functions with:
                l(1) =   0
                l(2) =   0
                l(3) =   1
                l(4) =   1
     Q(r) pseudized with  8 coefficients,  rinner =    0.800   0.800   0.800

     PseudoPot. # 5 for C  read from file:
     /storage/coda1/p-amedford6/0/shared/rich_project_chbe-medford/medford-share/data/pseudos_module/espresso/nninc/pbe/van/C.UPF
     MD5 check sum: 1a69bf6b8db32088f5b2163dbdb77a27
     Pseudo is Ultrasoft, Zval =  4.0
     Generated by new atomic code, or converted to UPF format
     Using radial grid of  721 points,  4 beta functions with:
                l(1) =   0
                l(2) =   0
                l(3) =   1
                l(4) =   1
     Q(r) pseudized with  8 coefficients,  rinner =    0.800   0.800   0.800

     atomic species   valence    mass     pseudopotential
        Ti1           12.00    47.86700     Ti( 1.00)
        O1             6.00    15.99900     O ( 1.00)
        H1             1.00     1.00800     H ( 1.00)
        N1             5.00    14.00700     N ( 1.00)
        C1             4.00    12.01100     C ( 1.00)

     No symmetry found

   Cartesian axes

     site n.     atom                  positions (alat units)
         1           Ti1 tau(   1) = (   0.0004258   2.9801865   6.0000000  )
         2           Ti1 tau(   2) = (   3.2906075   1.4906267   6.0002472  )
         3           O1  tau(   3) = (   0.0006271   0.0005054   7.9858123  )
         4           O1  tau(   4) = (   3.2906025   0.0005020   7.3038282  )
         5           O1  tau(   5) = (   4.5942328   1.4918067   9.2879030  )
         6           O1  tau(   6) = (   1.9868534   1.4903216   9.2879459  )
         7           Ti1 tau(   7) = (   3.2907910   2.8959150   9.1758416  )
         8           Ti1 tau(   8) = (   0.0015273   1.4827037   9.2680791  )
         9           O1  tau(   9) = (   3.3750462   0.0034689  11.3324641  )
        10           O1  tau(  10) = (   0.0116148   5.9584955  10.6183126  )
        11           O1  tau(  11) = (   1.3977860   1.4758343  12.6375763  )
        12           O1  tau(  12) = (   5.4232152   1.4913549  12.6657899  )
        13           Ti1 tau(  13) = (   0.0691229   2.9530050  12.5389017  )
        14           Ti1 tau(  14) = (   3.3643908   1.4039863  12.4577757  )
        15           O1  tau(  15) = (   0.1477665   0.0132832  14.6652528  )
        16           O1  tau(  16) = (   3.5189244   0.0045933  13.9158019  )
        17           O1  tau(  17) = (   4.7861523   1.5333885  16.1913275  )
        18           O1  tau(  18) = (   2.2541876   1.4026900  15.9427082  )
        19           Ti1 tau(  19) = (   3.5811307   2.9972434  16.0687679  )
        20           Ti1 tau(  20) = (   0.2998503   1.4255696  15.8726171  )
        21           O1  tau(  21) = (   3.2904802   0.0005063   4.7018136  )
        22           O1  tau(  22) = (   0.2643450   0.0038197  17.1846268  )
        23           O1  tau(  23) = (   1.3043587   1.4918075   6.0039043  )
        24           O1  tau(  24) = (   5.2767064   1.4903225   6.0039473  )
        25           Ti1 tau(  25) = (   0.0000382   5.9609847   6.0000000  )
        26           Ti1 tau(  26) = (   3.2902200   4.4714249   6.0002472  )
        27           O1  tau(  27) = (   0.0002396   2.9813036   7.9858123  )
        28           O1  tau(  28) = (   3.2902150   2.9813002   7.3038282  )
        29           O1  tau(  29) = (   4.5938453   4.4726049   9.2879030  )
        30           O1  tau(  30) = (   1.9864658   4.4711199   9.2879459  )
        31           Ti1 tau(  31) = (   3.2891106   5.8743827   9.1763621  )
        32           Ti1 tau(  32) = (   0.0006254   4.4649316   9.2693709  )
        33           O1  tau(  33) = (   3.3836021   2.9593565  11.3526375  )
        34           O1  tau(  34) = (   0.0092240   2.9805883  10.6323155  )
        35           O1  tau(  35) = (   1.3957467   4.4736095  12.6396340  )
        36           O1  tau(  36) = (   5.4261019   4.4541359  12.6685409  )
        37           Ti1 tau(  37) = (   0.0939275   5.9312067  12.4916740  )
        38           Ti1 tau(  38) = (   3.3665170   4.3046527  12.6650499  )
        39           O1  tau(  39) = (   0.1734719   2.9828917  14.8532074  )
        40           O1  tau(  40) = (   3.4150578   3.0309863  13.9715028  )
        41           O1  tau(  41) = (   4.7877001   4.4493464  16.1994792  )
        42           O1  tau(  42) = (   2.2536850   4.5881152  15.9586447  )
        43           Ti1 tau(  43) = (   3.5332629   0.0183730  15.6991940  )
        44           Ti1 tau(  44) = (   0.2986595   4.6220906  15.9451660  )
        45           O1  tau(  45) = (   3.2900926   2.9813045   4.7018136  )
        46           O1  tau(  46) = (   1.3039711   4.4726057   6.0039043  )
        47           O1  tau(  47) = (   5.2763189   4.4711207   6.0039473  )
        48           H1  tau(  48) = (   0.6716682   3.7174429  18.3617054  )
        49           H1  tau(  49) = (   0.7299512   2.1188458  18.2939656  )
        50           N1  tau(  50) = (   1.0883034   2.9530349  17.8391855  )
        51           C1  tau(  51) = (   2.6610371   2.9951180  18.0825860  )
        52           H1  tau(  52) = (   2.6895649   3.8224559  18.7561578  )
        53           H1  tau(  53) = (   2.7295784   2.2142559  18.8115579  )

     number of k points=    10  Fermi-Dirac smearing, width (Ry)=  0.0073
                       cart. coord. in units 2pi/alat
        k(    1) = (   0.0000000   0.0000000   0.0000000), wk =   0.1250000
        k(    2) = (   0.0000000   0.0419351   0.0000000), wk =   0.2500000
        k(    3) = (   0.0000000  -0.0838702   0.0000000), wk =   0.1250000
        k(    4) = (   0.0379955   0.0000049   0.0000000), wk =   0.2500000
        k(    5) = (   0.0379955   0.0419400   0.0000000), wk =   0.2500000
        k(    6) = (   0.0379955  -0.0838652   0.0000000), wk =   0.2500000
        k(    7) = (   0.0379955  -0.0419301   0.0000000), wk =   0.2500000
        k(    8) = (  -0.0759910  -0.0000099   0.0000000), wk =   0.1250000
        k(    9) = (  -0.0759910   0.0419252   0.0000000), wk =   0.2500000
        k(   10) = (  -0.0759910  -0.0838800   0.0000000), wk =   0.1250000

     Initial potential from superposition of free atoms

     starting charge  374.99916, renormalised to  391.00000

     negative rho (up, down):  1.821E-02 0.000E+00

     %%%%%%%%%%%%%%%%%%%%%%%%%%%%%%%%%%%%%%%%%%%%%%%%%%%%%%%%%%%%%%%%%%%%%%%%
     %                                                                      %
     % You are using vdW-DF, which was implemented by the Thonhauser group. %
     % Please cite the following two papers that made this development      %
     % possible and the two reviews that describe the various versions:     %
     %                                                                      %
     %   T. Thonhauser et al., PRL 115, 136402 (2015).                      %
     %   T. Thonhauser et al., PRB 76, 125112 (2007).                       %
     %   K. Berland et al., Rep. Prog. Phys. 78, 066501 (2015).             %
     %   D.C. Langreth et al., J. Phys.: Condens. Matter 21, 084203 (2009). %
     %                                                                      %
     %                                                                      %
     % If you are calculating the stress with vdW-DF, please also cite:     %
     %                                                                      %
     %   R. Sabatini et al., J. Phys.: Condens. Matter 24, 424209 (2012).   %
     %                                                                      %
     %%%%%%%%%%%%%%%%%%%%%%%%%%%%%%%%%%%%%%%%%%%%%%%%%%%%%%%%%%%%%%%%%%%%%%%%

     Adding external electric field

     Computed dipole along edir(3) :
        Dipole               -5.7462 Ry au,        -14.6054 Debye
        Dipole field         -0.0108 Ry au,

        Potential amp.        1.0052 Ry
        Total length         46.3494 bohr

     Starting wfcs are  296 atomic wfcs
  @ DRIVER MODE: Message from server: STATUS
  @ DRIVER MODE: Message from server: POSDATA
  @ DRIVER MODE: Reading and sharing cell
  @ DRIVER MODE: Reading and sharing positions
  @ DRIVER MODE: Received positions

     Self-consistent Calculation

     iteration #  1     ecut=    29.40 Ry     beta= 0.05
     Davidson diagonalization with overlap
     c_bands:  1 eigenvalues not converged
     c_bands:  5 eigenvalues not converged
     c_bands:  2 eigenvalues not converged
     c_bands:  2 eigenvalues not converged
     c_bands:  2 eigenvalues not converged
     c_bands:  2 eigenvalues not converged
     ethr =  1.00E-05,  avg # of iterations = 20.6

[...]

     total energy              =   -2767.71634634 Ry
     estimated scf accuracy    <    1675.50798277 Ry

     iteration #  2     ecut=    29.40 Ry     beta= 0.05
     Davidson diagonalization with overlap
     ethr =  1.00E-02,  avg # of iterations = 19.1

[...]

     iteration # 44     ecut=    29.40 Ry     beta= 0.05
     Davidson diagonalization with overlap
     c_bands:  1 eigenvalues not converged
     ethr =  3.03E-09,  avg # of iterations = 11.6

[...]

     total energy              =   -2920.27060676 Ry
     estimated scf accuracy    <       0.00000013 Ry

     iteration # 56     ecut=    29.40 Ry     beta= 0.05
     Davidson diagonalization with overlap
     ethr =  3.34E-11,  avg # of iterations =  9.4

     negative rho (up, down):  1.844E-02 0.000E+00

     Adding external electric field

     Computed dipole along edir(3) :
        Dipole                0.8662 Ry au,          2.2017 Debye
        Dipole field          0.0016 Ry au,

        Potential amp.       -0.1515 Ry
        Total length         46.3494 bohr

     End of self-consistent calculation

          k = 0.0000 0.0000 0.0000 ( 18029 PWs)   bands (ev):

   -55.8866 -55.8525 -55.7571 -55.7186 -55.7133 -55.7117 -55.7003 -55.6793
   -55.6724 -55.6352 -55.6337 -55.6300 -55.5966 -55.5642 -54.8672 -54.8332
   -32.3723 -32.2844 -32.2470 -32.2157 -32.1802 -32.1773 -32.1593 -32.1585
   -32.1321 -32.0807 -32.0393 -32.0216 -32.0122 -31.9987 -31.9974 -31.9942
   -31.9823 -31.9512 -31.9442 -31.9344 -31.9250 -31.9129 -31.9023 -31.8937
   -31.8824 -31.8785 -31.8570 -31.8566 -31.8499 -31.8485 -31.8414 -31.8316
   -31.8253 -31.8251 -31.8232 -31.8082 -31.7953 -31.7832 -31.7820 -31.7707
   -31.7158 -31.6274 -31.2736 -31.1864 -31.1640 -31.0911 -31.0046 -30.8929
   -16.5764 -16.4053 -16.1984 -16.0718 -16.0540 -15.8608 -15.7677 -15.6901
   -15.4956 -15.4571 -15.4279 -15.4125 -15.4014 -15.4001 -15.3824 -15.3634
   -15.3430 -15.3333 -15.3117 -15.2601 -15.2551 -15.2476 -15.2196 -15.2168
   -15.0370 -15.0281 -14.9842 -14.9473 -14.8694 -14.5699 -13.3661 -13.2496
    -8.9290  -5.6764  -3.9525  -3.8873  -3.8193  -3.7939  -3.7736  -3.6590
    -3.4868  -3.2991  -3.2107  -3.1768  -3.0608  -3.0151  -2.9192  -2.8413
    -2.8273  -2.7655  -2.7242  -2.7018  -2.6750  -2.6632  -2.6104  -2.5873
    -2.5804  -2.4462  -2.3891  -2.3699  -2.3065  -2.2815  -2.2533  -2.2099
    -2.2036  -2.1898  -2.1731  -2.1362  -2.1075  -2.0910  -2.0092  -1.9390
    -1.8987  -1.8590  -1.6341  -1.5268  -1.5029  -1.4690  -1.4146  -1.3818
    -1.3376  -1.2990  -1.2828  -1.2642  -1.1961  -1.1065  -1.0250  -1.0173
    -0.9158  -0.8907  -0.8043  -0.7294  -0.7074  -0.6473  -0.6257  -0.6208
    -0.6171  -0.5210  -0.4735  -0.3907  -0.3405  -0.3042  -0.2380  -0.1720
    -0.1146  -0.1042  -0.0651  -0.0229   0.0200   0.0303   0.0545   0.0852
     0.1234   0.1611   0.2004   0.2822   0.3243   0.3612   0.4048   0.4175
     0.5201   0.7302   0.7707   0.9093   1.0914   1.1590   1.1844   1.2150
     1.3505   1.7272   1.7729   3.1952   3.3400   3.3577   3.4292   3.4595
     3.5118   3.6831   3.7693   3.8102   3.8808

[...]

          k = 0.0380-0.0419 0.0000 ( 17876 PWs)   bands (ev):

[...]

          k =-0.0760-0.0000 0.0000 ( 17886 PWs)   bands (ev):

[...]

          k =-0.0760-0.0839 0.0000 ( 17948 PWs)   bands (ev):

   -55.8696 -55.8693 -55.7459 -55.7295 -55.7092 -55.6963 -55.6960 -55.6958
   -55.6642 -55.6387 -55.6383 -55.6255 -55.6063 -55.5658 -54.8503 -54.8499
   -32.2086 -32.1876 -32.1875 -32.1629 -32.1626 -32.1032 -32.0703 -32.0522
   -32.0369 -32.0297 -32.0271 -32.0198 -32.0042 -31.9899 -31.9892 -31.9874
   -31.9797 -31.9721 -31.9647 -31.9505 -31.9489 -31.9397 -31.9368 -31.9286
   -31.9150 -31.9060 -31.9019 -31.8974 -31.8849 -31.8808 -31.8728 -31.8719
   -31.8714 -31.8631 -31.8600 -31.8496 -31.8473 -31.8349 -31.8165 -31.8162
   -31.8009 -31.6277 -31.1769 -31.1766 -31.0868 -31.0861 -31.0481 -31.0476
   -16.1497 -15.9802 -15.8709 -15.8561 -15.7930 -15.6834 -15.6702 -15.6433
   -15.6239 -15.5872 -15.5678 -15.5548 -15.5061 -15.4669 -15.4301 -15.4058
   -15.4019 -15.3552 -15.3508 -15.3409 -15.3188 -15.2847 -15.2759 -15.2115
   -15.2028 -15.1153 -15.0939 -15.0721 -15.0234 -14.9016 -13.3516 -13.3513
    -8.9350  -5.6472  -3.7914  -3.3075  -3.2096  -3.0729  -3.0051  -2.9650
    -2.9166  -2.8836  -2.8623  -2.8436  -2.7937  -2.7797  -2.7485  -2.7050
    -2.6866  -2.6694  -2.6492  -2.6226  -2.6016  -2.5900  -2.5712  -2.5534
    -2.5208  -2.5054  -2.4790  -2.4647  -2.4540  -2.4422  -2.4339  -2.4232
    -2.2384  -2.1463  -2.0543  -2.0440  -2.0357  -2.0100  -1.9836  -1.9674
    -1.9508  -1.9274  -1.9027  -1.8745  -1.8429  -1.5919  -1.5613  -1.5265
    -1.4686  -1.4321  -1.3829  -1.3689  -1.3365  -1.3064  -1.2264  -1.1915
    -1.1634  -1.0849  -1.0157  -0.9488  -0.9028  -0.8659  -0.8352  -0.8235
    -0.7841  -0.7455  -0.7363  -0.7117  -0.6959  -0.5891  -0.5871  -0.5845
    -0.4388  -0.3982  -0.3807  -0.2897  -0.2689  -0.0909  -0.0246  -0.0024
     0.1329   0.1438   0.1812   0.2903   0.3170   0.3630   0.4195   0.4407
     0.5268   0.5791   0.6209   0.6604   0.6841   0.7008   1.1756   1.5213
     1.5271   1.5931   1.5933   3.5961   3.6365   3.7032   3.7291   3.7490
     3.7847   3.8071   3.8182   3.8637   3.8734

     the Fermi energy is     3.2339 ev

!    total energy              =   -2920.27066652 Ry
     estimated scf accuracy    <       0.00000007 Ry
     smearing contrib. (-TS)   =      -0.01953138 Ry
     internal energy E=F+TS    =   -2920.25113514 Ry

     The total energy is F=E-TS. E is the sum of the following terms:
     one-electron contribution =  -24541.08163424 Ry
     hartree contribution      =   12356.31322750 Ry
     xc contribution           =    -480.81946900 Ry
     ewald contribution        =    9745.33532459 Ry
     electric field correction =       0.00141601 Ry

     convergence has been achieved in  56 iterations

     Forces acting on atoms (cartesian axes, Ry/au):

     atom    1 type  1   force =     0.00007163   -0.00038696    0.09441836
     atom    2 type  1   force =    -0.00006902   -0.00122766   -0.17586180
     atom    3 type  2   force =     0.00046527   -0.00020655   -0.02135739
     atom    4 type  2   force =     0.00017749   -0.00093095    0.05147553
     atom    5 type  2   force =    -0.00540991    0.00100078   -0.00034027
     atom    6 type  2   force =     0.00990018    0.00143229    0.00529255
     atom    7 type  1   force =     0.00311686    0.00407610   -0.00385592
     atom    8 type  1   force =    -0.00264468    0.00536910    0.00461323
     atom    9 type  2   force =     0.00031656    0.00018624    0.00045410
     atom   10 type  2   force =     0.00290304    0.00077323   -0.01331627
     atom   11 type  2   force =     0.00009828    0.00028308   -0.00000175
     atom   12 type  2   force =    -0.00016559   -0.00004648   -0.00007157
     atom   13 type  1   force =    -0.00027129   -0.00028870    0.00129983
     atom   14 type  1   force =    -0.00061777    0.00042018   -0.00126697
     atom   15 type  2   force =     0.00027879   -0.00001469    0.00000455
     atom   16 type  2   force =     0.00004698   -0.00016108    0.00020715
     atom   17 type  2   force =     0.00034328   -0.00090913    0.00071137
     atom   18 type  2   force =    -0.00008384    0.00026293   -0.00004832
     atom   19 type  1   force =    -0.00042913    0.00030407   -0.00083496
     atom   20 type  1   force =    -0.00013135    0.00168904   -0.00033591
     atom   21 type  2   force =     0.00005046   -0.00009804    0.10311302
     atom   22 type  2   force =    -0.00059203    0.00073259    0.00084022
     atom   23 type  2   force =    -0.07169798   -0.00014612   -0.02719614
     atom   24 type  2   force =     0.07176046    0.00034393   -0.02734394
     atom   25 type  1   force =    -0.00008600   -0.00021243    0.09388476
     atom   26 type  1   force =     0.00004248    0.00040385   -0.17582851
     atom   27 type  2   force =     0.00046537   -0.00026534   -0.02044963
     atom   28 type  2   force =     0.00023896   -0.00170807    0.05410251
     atom   29 type  2   force =    -0.00646151   -0.00170172    0.00030019
     atom   30 type  2   force =     0.01069950   -0.00156245    0.00561291
     atom   31 type  1   force =     0.00345837    0.00044459    0.00536080
     atom   32 type  1   force =    -0.00266827   -0.00669042    0.00502861
     atom   33 type  2   force =     0.00025058    0.00031400    0.00058367
     atom   34 type  2   force =     0.00503996   -0.00079156   -0.00872691
     atom   35 type  2   force =     0.00011973   -0.00001316    0.00001410
     atom   36 type  2   force =    -0.00012623   -0.00003014   -0.00000818
     atom   37 type  1   force =     0.00074768   -0.00042581    0.00083125
     atom   38 type  1   force =    -0.00028447   -0.00121648    0.00000260
     atom   39 type  2   force =    -0.00066114   -0.00014464    0.00071290
     atom   40 type  2   force =     0.00035317    0.00042195   -0.00010542
     atom   41 type  2   force =     0.00026097    0.00158737    0.00073657
     atom   42 type  2   force =     0.00032595    0.00021746    0.00016641
     atom   43 type  1   force =     0.00077406    0.00007753    0.00013195
     atom   44 type  1   force =    -0.00005003   -0.00159659   -0.00070047
     atom   45 type  2   force =     0.00005455   -0.00001940    0.10328634
     atom   46 type  2   force =    -0.07168469   -0.00014946   -0.02722573
     atom   47 type  2   force =     0.07172329    0.00030511   -0.02733573
     atom   48 type  3   force =    -0.00241793    0.00469829    0.00454800
     atom   49 type  3   force =    -0.00192753   -0.00546837    0.00395218
     atom   50 type  4   force =     0.00479830    0.00058127   -0.01130713
     atom   51 type  5   force =    -0.08636633   -0.00379977    0.00126574
     atom   52 type  3   force =     0.03188059    0.05168998    0.00023665
     atom   53 type  3   force =     0.03408395   -0.04740282    0.00033085

     Total force =     0.382858     Total SCF correction =     0.000586
  @ DRIVER MODE: Message from server: STATUS
  @ DRIVER MODE: Message from server: GETFORCE
  @ DRIVER MODE: Returning v,forces,stress,ensemble

     Writing output data file ./calc.save/
  @ DRIVER MODE: Message from server: EXIT
  @ DRIVE MODE: Exiting

     General routines

     Parallel routines

   This run was terminated on:  23:39:14  11Oct2021

   JOB DONE.