     Program PWSCF v.6.7GPU starts on 26Sep2021 at  7:22:24

     R & G space division:  proc/nbgrp/npool/nimage =       8
     Reading input from /storage/home/hcoda1/3/ntian30/research/carbon/CxH_vib/H2O_calc/ads_slab/CH3N2OHHO_l/out_0034/pw.inp
Warning: card &CELL ignored
Warning: card   CELL_DYNAMICS='IPI', ignored
Warning: card / ignored

     Current dimensions of program PWSCF are:
     Max number of different atomic species (ntypx) = 10
     Max number of k-points (npk) =  40000
     Max angular momentum in pseudopotentials (lmaxx) =  3
     Presently no symmetry can be used with electric field

     Message from routine cell_base_init:
     DEPRECATED: use true lattice parameter, not A to a.u. conversion factor

     IMPORTANT: XC functional enforced from input :
     Exchange-correlation= BEEF-VDW
                           (   1   4  43  14   2   0   0)
     Any further DFT definition will be discarded
     Please, verify this is what you really want

  @ DRIVER MODE: Connecting to
 qe_1139763_2971669.sched-torque.pace.gatech.edur3xjashu_scratch
  using UNIX socket
  @ DRIVER MODE: Message from server: STATUS
  @ DRIVER MODE: Message from server: INIT
  @ DRIVER MODE: Receiving replica           0          -1
  @ DRIVER MODE: Receiving encoded integer          25
  @ DRIVER MODE:  SCF:  T  FORCE:  T  STRESS:  F  VC:  F  ENSEMBLE:  F
  @ DRIVER MODE:  SCF:  T  FORCE:  T  STRESS:  F  VC:  F  ENSEMBLE:  F

     Using Slab Decomposition

     bravais-lattice index     =            0
     lattice parameter (alat)  =       1.8897  a.u.
     unit-cell volume          =    6658.9804 (a.u.)^3
     number of atoms/cell      =           57
     number of atomic types    =            5
     number of electrons       =       409.00
     number of Kohn-Sham states=          214
     kinetic-energy cutoff     =      29.3995  Ry
     charge density cutoff     =     293.9946  Ry
     scf convergence threshold =      7.3E-08
     mixing beta               =       0.0500
     number of iterations used =            8  plain     mixing
     Exchange-correlation= BEEF-VDW
                           (   1   4  43  14   2   0   0)

     celldm(1)=   1.889726  celldm(2)=   0.000000  celldm(3)=   0.000000
     celldm(4)=   0.000000  celldm(5)=   0.000000  celldm(6)=   0.000000

     crystal axes: (cart. coord. in units of alat)
               a(1) = (   6.579727   0.000000   0.000000 )
               a(2) = (  -0.000775   5.961596   0.000000 )
               a(3) = (   0.000000   0.000000  25.155947 )

     reciprocal axes: (cart. coord. in units 2 pi/alat)
               b(1) = (  0.151982  0.000020  0.000000 )
               b(2) = (  0.000000  0.167740  0.000000 )
               b(3) = (  0.000000  0.000000  0.039752 )

     PseudoPot. # 1 for Ti read from file:
     /storage/coda1/p-amedford6/0/shared/rich_project_chbe-medford/medford-share/data/pseudos_module/espresso/nninc/pbe/van/Ti.UPF
     MD5 check sum: 8e4df49b7f0d34bbd5052bf3f5ea0213
     Pseudo is Ultrasoft, Zval = 12.0
     Generated by new atomic code, or converted to UPF format
     Using radial grid of  851 points,  6 beta functions with:
                l(1) =   0
                l(2) =   0
                l(3) =   1
                l(4) =   1
                l(5) =   2
                l(6) =   2
     Q(r) pseudized with  8 coefficients,  rinner =    1.000   1.000   1.000
                                                       1.000   1.000

     PseudoPot. # 2 for O  read from file:
     /storage/coda1/p-amedford6/0/shared/rich_project_chbe-medford/medford-share/data/pseudos_module/espresso/nninc/pbe/van/O.UPF
     MD5 check sum: 78c19812648e8988a0fe644b0f25305e
     Pseudo is Ultrasoft, Zval =  6.0
     Generated by new atomic code, or converted to UPF format
     Using radial grid of  737 points,  4 beta functions with:
                l(1) =   0
                l(2) =   0
                l(3) =   1
                l(4) =   1
     Q(r) pseudized with  8 coefficients,  rinner =    0.800   0.800   0.800

     PseudoPot. # 3 for N  read from file:
     /storage/coda1/p-amedford6/0/shared/rich_project_chbe-medford/medford-share/data/pseudos_module/espresso/nninc/pbe/van/N.UPF
     MD5 check sum: 90d10febe142ad51ac9d5be1deb811c4
     Pseudo is Ultrasoft, Zval =  5.0
     Generated by new atomic code, or converted to UPF format
     Using radial grid of  729 points,  4 beta functions with:
                l(1) =   0
                l(2) =   0
                l(3) =   1
                l(4) =   1
     Q(r) pseudized with  8 coefficients,  rinner =    0.800   0.800   0.800

     PseudoPot. # 4 for C  read from file:
     /storage/coda1/p-amedford6/0/shared/rich_project_chbe-medford/medford-share/data/pseudos_module/espresso/nninc/pbe/van/C.UPF
     MD5 check sum: 1a69bf6b8db32088f5b2163dbdb77a27
     Pseudo is Ultrasoft, Zval =  4.0
     Generated by new atomic code, or converted to UPF format
     Using radial grid of  721 points,  4 beta functions with:
                l(1) =   0
                l(2) =   0
                l(3) =   1
                l(4) =   1
     Q(r) pseudized with  8 coefficients,  rinner =    0.800   0.800   0.800

     PseudoPot. # 5 for H  read from file:
     /storage/coda1/p-amedford6/0/shared/rich_project_chbe-medford/medford-share/data/pseudos_module/espresso/nninc/pbe/van/H.UPF
     MD5 check sum: b5ee9d7bfd3a09ee7748110bda690ff7
     Pseudo is Ultrasoft, Zval =  1.0
     Generated by new atomic code, or converted to UPF format
     Using radial grid of  615 points,  1 beta functions with:
                l(1) =   0
     Q(r) pseudized with  8 coefficients,  rinner =    0.800

     atomic species   valence    mass     pseudopotential
        Ti1           12.00    47.86700     Ti( 1.00)
        O1             6.00    15.99900     O ( 1.00)
        N1             5.00    14.00700     N ( 1.00)
        C1             4.00    12.01100     C ( 1.00)
        H1             1.00     1.00800     H ( 1.00)

     No symmetry found

   Cartesian axes

     site n.     atom                  positions (alat units)
         1           Ti1 tau(   1) = (   0.0004258   2.9801865   6.0000000  )
         2           Ti1 tau(   2) = (   3.2906075   1.4906267   6.0002472  )
         3           O1  tau(   3) = (   0.0006271   0.0005054   7.9858123  )
         4           O1  tau(   4) = (   3.2906025   0.0005020   7.3038282  )
         5           O1  tau(   5) = (   4.5942328   1.4918067   9.2879030  )
         6           O1  tau(   6) = (   1.9868534   1.4903216   9.2879459  )
         7           Ti1 tau(   7) = (   3.2907910   2.8959150   9.1758416  )
         8           Ti1 tau(   8) = (   0.0015273   1.4827037   9.2680791  )
         9           O1  tau(   9) = (   3.2779673   5.9607700  11.3423085  )
        10           O1  tau(  10) = (   0.0116148   5.9584955  10.6183126  )
        11           O1  tau(  11) = (   1.2787083   1.4818767  12.6451794  )
        12           O1  tau(  12) = (   5.2707140   1.4872516  12.6060838  )
        13           Ti1 tau(  13) = (   0.0520196   2.9452147  12.6012095  )
        14           Ti1 tau(  14) = (   3.3669591   1.4706787  12.5087448  )
        15           O1  tau(  15) = (   6.5166736   5.9505275  14.6414754  )
        16           O1  tau(  16) = (   3.3002175   0.0041348  13.9548274  )
        17           O1  tau(  17) = (   4.5235890   1.5203341  16.0633414  )
        18           O1  tau(  18) = (   1.9992342   1.5602939  15.9747780  )
        19           Ti1 tau(  19) = (   3.2541499   3.0080313  15.6961896  )
        20           Ti1 tau(  20) = (   6.5591015   1.5323982  15.7823192  )
        21           O1  tau(  21) = (   3.2904802   0.0005063   4.7018136  )
        22           O1  tau(  22) = (   0.0960927   0.0099221  17.2178370  )
        23           O1  tau(  23) = (   1.3043587   1.4918075   6.0039043  )
        24           O1  tau(  24) = (   5.2767064   1.4903225   6.0039473  )
        25           Ti1 tau(  25) = (   0.0000382   5.9609847   6.0000000  )
        26           Ti1 tau(  26) = (   3.2902200   4.4714249   6.0002472  )
        27           O1  tau(  27) = (   0.0002396   2.9813036   7.9858123  )
        28           O1  tau(  28) = (   3.2902150   2.9813002   7.3038282  )
        29           O1  tau(  29) = (   4.5938453   4.4726049   9.2879030  )
        30           O1  tau(  30) = (   1.9864658   4.4711199   9.2879459  )
        31           Ti1 tau(  31) = (   3.2891106   5.8743827   9.1763621  )
        32           Ti1 tau(  32) = (   0.0006254   4.4649316   9.2693709  )
        33           O1  tau(  33) = (   3.2807211   2.9768430  11.3440791  )
        34           O1  tau(  34) = (   0.0092240   2.9805883  10.6323155  )
        35           O1  tau(  35) = (   1.2789702   4.4681595  12.6395138  )
        36           O1  tau(  36) = (   5.2737968   4.4775610  12.6008310  )
        37           Ti1 tau(  37) = (   0.0460201   5.9176504  12.5434570  )
        38           Ti1 tau(  38) = (   3.3658678   4.4646095  12.4976877  )
        39           O1  tau(  39) = (   6.5297297   2.9761478  14.6509524  )
        40           O1  tau(  40) = (   3.3085871   2.9961499  13.9017917  )
        41           O1  tau(  41) = (   4.5138497   4.4896837  16.1272785  )
        42           O1  tau(  42) = (   1.9961282   4.4344792  16.0060688  )
        43           Ti1 tau(  43) = (   3.3116018   0.0224549  15.7990204  )
        44           Ti1 tau(  44) = (   6.5775847   4.6577750  16.0638065  )
        45           O1  tau(  45) = (   3.2900926   2.9813045   4.7018136  )
        46           O1  tau(  46) = (   1.3039711   4.4726057   6.0039043  )
        47           O1  tau(  47) = (   5.2763189   4.4711207   6.0039473  )
        48           N1  tau(  48) = (   6.5065777   2.6139801  18.6303060  )
        49           N1  tau(  49) = (   6.5364102   2.8728423  17.4370429  )
        50           C1  tau(  50) = (   6.4341180   3.7235584  19.6105657  )
        51           H1  tau(  51) = (   6.3066687   4.7022679  19.1488110  )
        52           H1  tau(  52) = (   5.6164842   3.4805663  20.2913871  )
        53           H1  tau(  53) = (   0.7823074   3.7064598  20.1845303  )
        54           O1  tau(  54) = (   3.0314481   5.0835218  18.9911038  )
        55           H1  tau(  55) = (   1.7414717   0.2044793  18.0242669  )
        56           O1  tau(  56) = (   2.7372941   0.2572207  18.0778760  )
        57           H1  tau(  57) = (   3.9343361   5.3466317  19.2487757  )

     number of k points=    10  Fermi-Dirac smearing, width (Ry)=  0.0073
                       cart. coord. in units 2pi/alat
        k(    1) = (   0.0000000   0.0000000   0.0000000), wk =   0.1250000
        k(    2) = (   0.0000000   0.0419351   0.0000000), wk =   0.2500000
        k(    3) = (   0.0000000  -0.0838702   0.0000000), wk =   0.1250000
        k(    4) = (   0.0379955   0.0000049   0.0000000), wk =   0.2500000
        k(    5) = (   0.0379955   0.0419400   0.0000000), wk =   0.2500000
        k(    6) = (   0.0379955  -0.0838652   0.0000000), wk =   0.2500000
        k(    7) = (   0.0379955  -0.0419301   0.0000000), wk =   0.2500000
        k(    8) = (  -0.0759910  -0.0000099   0.0000000), wk =   0.1250000
        k(    9) = (  -0.0759910   0.0419252   0.0000000), wk =   0.2500000
        k(   10) = (  -0.0759910  -0.0838800   0.0000000), wk =   0.1250000

     Initial potential from superposition of free atoms

     starting charge  392.99914, renormalised to  409.00000

     negative rho (up, down):  1.422E-02 0.000E+00

     %%%%%%%%%%%%%%%%%%%%%%%%%%%%%%%%%%%%%%%%%%%%%%%%%%%%%%%%%%%%%%%%%%%%%%%%
     %                                                                      %
     % You are using vdW-DF, which was implemented by the Thonhauser group. %
     % Please cite the following two papers that made this development      %
     % possible and the two reviews that describe the various versions:     %
     %                                                                      %
     %   T. Thonhauser et al., PRL 115, 136402 (2015).                      %
     %   T. Thonhauser et al., PRB 76, 125112 (2007).                       %
     %   K. Berland et al., Rep. Prog. Phys. 78, 066501 (2015).             %
     %   D.C. Langreth et al., J. Phys.: Condens. Matter 21, 084203 (2009). %
     %                                                                      %
     %                                                                      %
     % If you are calculating the stress with vdW-DF, please also cite:     %
     %                                                                      %
     %   R. Sabatini et al., J. Phys.: Condens. Matter 24, 424209 (2012).   %
     %                                                                      %
     %%%%%%%%%%%%%%%%%%%%%%%%%%%%%%%%%%%%%%%%%%%%%%%%%%%%%%%%%%%%%%%%%%%%%%%%

     Adding external electric field

     Computed dipole along edir(3) :
        Dipole              -16.7505 Ry au,        -42.5754 Debye
        Dipole field         -0.0316 Ry au,

        Potential amp.        2.9302 Ry
        Total length         46.3494 bohr

     Starting wfcs are  309 atomic wfcs
  @ DRIVER MODE: Message from server: STATUS
  @ DRIVER MODE: Message from server: POSDATA
  @ DRIVER MODE: Reading and sharing cell
  @ DRIVER MODE: Reading and sharing positions
  @ DRIVER MODE: Received positions

     Self-consistent Calculation

     iteration #  1     ecut=    29.40 Ry     beta= 0.05
     Davidson diagonalization with overlap
     c_bands:  5 eigenvalues not converged
     c_bands:  5 eigenvalues not converged
     c_bands:  3 eigenvalues not converged
     c_bands:  1 eigenvalues not converged
     c_bands:  4 eigenvalues not converged
     c_bands:  2 eigenvalues not converged
     c_bands:  5 eigenvalues not converged
     ethr =  1.00E-05,  avg # of iterations = 26.6

[...]

     total energy              =   -2110.46502947 Ry
     estimated scf accuracy    <   10326.52942560 Ry

     iteration #  2     ecut=    29.40 Ry     beta= 0.05
     Davidson diagonalization with overlap
     ethr =  1.00E-02,  avg # of iterations = 32.1

[...]

     iteration # 64     ecut=    29.40 Ry     beta= 0.05
     Davidson diagonalization with overlap
     c_bands:  3 eigenvalues not converged
     c_bands:  3 eigenvalues not converged
     c_bands:  1 eigenvalues not converged
     c_bands:  1 eigenvalues not converged
     ethr =  5.38E-11,  avg # of iterations = 16.4

[...]

     total energy              =   -3006.13723104 Ry
     estimated scf accuracy    <       0.00000038 Ry

     iteration # 65     ecut=    29.40 Ry     beta= 0.05
     Davidson diagonalization with overlap
     ethr =  5.38E-11,  avg # of iterations = 13.1

     negative rho (up, down):  1.470E-02 0.000E+00

     Adding external electric field

     Computed dipole along edir(3) :
        Dipole                0.8088 Ry au,          2.0558 Debye
        Dipole field          0.0015 Ry au,

        Potential amp.       -0.1415 Ry
        Total length         46.3494 bohr

     End of self-consistent calculation

          k = 0.0000 0.0000 0.0000 ( 18029 PWs)   bands (ev):

   -55.6056 -55.5715 -55.5633 -55.5348 -55.5271 -55.4416 -55.4201 -55.4046
   -55.3862 -55.3841 -55.3667 -55.3503 -54.9888 -54.9185 -54.5863 -54.5523
   -32.1042 -32.0887 -31.9495 -31.9414 -31.9185 -31.8982 -31.8740 -31.8606
   -31.8495 -31.7950 -31.7801 -31.7646 -31.7578 -31.7410 -31.7297 -31.7195
   -31.7106 -31.7021 -31.6903 -31.6635 -31.6627 -31.6428 -31.6110 -31.6098
   -31.6003 -31.5958 -31.5934 -31.5827 -31.5647 -31.5604 -31.5547 -31.5497
   -31.5389 -31.5374 -31.5279 -31.5158 -31.4962 -31.2668 -31.2102 -31.1789
   -31.1254 -31.1030 -30.9935 -30.9049 -30.8825 -30.8102 -30.7237 -30.6127
   -20.7372 -18.2979 -16.3059 -16.0797 -15.8958 -15.7662 -15.7113 -15.5541
   -15.4962 -15.4105 -15.3399 -15.2033 -15.1509 -15.1422 -15.1362 -15.1173
   -15.1116 -15.0513 -15.0403 -15.0388 -15.0277 -15.0000 -14.9608 -14.9476
   -14.9427 -14.8599 -14.7667 -14.7438 -14.7235 -14.7202 -14.6624 -14.2763
   -13.0884 -12.9719 -11.2771  -6.8197  -5.7521  -5.3636  -4.1861  -3.8028
    -3.7636  -3.6733  -3.5507  -3.5118  -3.4323  -3.3855  -3.2313  -3.0800
    -3.0264  -2.8523  -2.7836  -2.7562  -2.7127  -2.6292  -2.5218  -2.4683
    -2.4133  -2.4093  -2.3953  -2.3790  -2.3620  -2.3453  -2.2381  -2.2194
    -2.1657  -2.1467  -2.1213  -1.9854  -1.9575  -1.9296  -1.9191  -1.8915
    -1.8788  -1.8650  -1.8381  -1.8194  -1.7805  -1.7555  -1.6232  -1.5813
    -1.5398  -1.4499  -1.3890  -1.3289  -1.2338  -1.2015  -1.1316  -1.0626
    -1.0571  -1.0370  -1.0037  -0.9956  -0.8692  -0.7648  -0.7546  -0.6812
    -0.6200  -0.5694  -0.5286  -0.4634  -0.3799  -0.3624  -0.3547  -0.3341
    -0.2825  -0.2579  -0.0986  -0.0596  -0.0116   0.0136   0.0708   0.1039
     0.1468   0.1871   0.2272   0.2768   0.3110   0.3441   0.3625   0.3768
     0.3922   0.4234   0.4442   0.6100   0.6454   0.6686   0.7297   0.7590
     0.8457   0.9025   0.9663   1.0498   1.1581   1.3633   1.4361   1.5275
     1.6281   2.0074   2.0532   2.8295   3.5236   3.6155   3.6565   3.6869
     3.7683   3.7803   3.9814   4.0033   4.0331   4.1086

[...]

          k = 0.0380-0.0419 0.0000 ( 17876 PWs)   bands (ev):

[...]

          k =-0.0760-0.0000 0.0000 ( 17886 PWs)   bands (ev):

[...]

          k =-0.0760-0.0839 0.0000 ( 17948 PWs)   bands (ev):

   -55.5889 -55.5880 -55.5481 -55.5421 -55.5330 -55.4298 -55.4165 -55.4034
   -55.4024 -55.3686 -55.3684 -55.3660 -54.9849 -54.9223 -54.5694 -54.5691
   -31.9183 -31.9042 -31.9036 -31.9010 -31.8840 -31.8832 -31.8270 -31.8183
   -31.8058 -31.7863 -31.7777 -31.7540 -31.7493 -31.7233 -31.7176 -31.7169
   -31.7085 -31.7080 -31.7078 -31.7063 -31.7040 -31.7018 -31.6752 -31.6469
   -31.6331 -31.6292 -31.6205 -31.6042 -31.6033 -31.5981 -31.5929 -31.5839
   -31.5809 -31.5734 -31.5726 -31.5708 -31.4177 -31.2685 -31.2488 -31.1870
   -31.1644 -31.1268 -30.8953 -30.8952 -30.8064 -30.8062 -30.7670 -30.7670
   -20.7366 -18.2939 -15.7433 -15.6963 -15.6315 -15.5646 -15.5295 -15.4594
   -15.4160 -15.3739 -15.3221 -15.2840 -15.2750 -15.2154 -15.1950 -15.1624
   -15.1530 -15.1236 -15.1140 -15.1119 -15.0582 -15.0523 -15.0462 -15.0392
   -15.0331 -14.9742 -14.9343 -14.9262 -14.9212 -14.8230 -14.7007 -14.4447
   -13.0738 -13.0737 -11.2754  -6.8425  -5.7494  -5.3400  -4.1144  -3.8053
    -3.7484  -3.1139  -3.0219  -2.8281  -2.7978  -2.7150  -2.7110  -2.6682
    -2.5459  -2.5130  -2.4668  -2.4489  -2.4278  -2.4192  -2.4135  -2.3934
    -2.3873  -2.3688  -2.3397  -2.3193  -2.2866  -2.2742  -2.2613  -2.2529
    -2.2389  -2.2160  -2.2137  -2.1655  -2.1451  -2.1264  -2.0632  -2.0304
    -1.8437  -1.7947  -1.7496  -1.7427  -1.7219  -1.6908  -1.6754  -1.6585
    -1.6117  -1.5911  -1.5115  -1.4655  -1.3306  -1.3094  -1.2942  -1.2737
    -1.2069  -1.1490  -1.0992  -1.0132  -1.0080  -0.9590  -0.8658  -0.8070
    -0.7989  -0.7677  -0.7121  -0.7026  -0.6618  -0.5687  -0.5630  -0.5446
    -0.5388  -0.4628  -0.4190  -0.3568  -0.3487  -0.3288  -0.2979  -0.2698
    -0.2365  -0.1980  -0.1018  -0.0685   0.0252   0.1307   0.2079   0.3429
     0.4617   0.4743   0.5590   0.5834   0.6845   0.6961   0.7083   0.7496
     0.7854   0.8102   0.9297   0.9436   0.9666   0.9945   1.0811   1.7996
     1.8005   1.8729   1.8731   2.8192   3.7648   3.8792   3.9111   3.9217
     4.0065   4.0435   4.0625   4.0645   4.1291   4.2024

     the Fermi energy is     3.5263 ev

!    total energy              =   -3006.13726524 Ry
     estimated scf accuracy    <       0.00000005 Ry
     smearing contrib. (-TS)   =      -0.02166963 Ry
     internal energy E=F+TS    =   -3006.11559560 Ry

     The total energy is F=E-TS. E is the sum of the following terms:
     one-electron contribution =  -23513.92404719 Ry
     hartree contribution      =   11854.93020212 Ry
     xc contribution           =    -501.16797349 Ry
     ewald contribution        =    9154.04498843 Ry
     electric field correction =       0.00123454 Ry

     convergence has been achieved in  65 iterations

     Forces acting on atoms (cartesian axes, Ry/au):

     atom    1 type  1   force =     0.00020881   -0.00031138    0.09620590
     atom    2 type  1   force =    -0.00012188   -0.00050784   -0.17556227
     atom    3 type  2   force =    -0.00003017   -0.00015821   -0.02419971
     atom    4 type  2   force =     0.00000635   -0.00155497    0.05345264
     atom    5 type  2   force =    -0.01166533   -0.00075779    0.00385384
     atom    6 type  2   force =     0.01285474   -0.00002194    0.00196783
     atom    7 type  1   force =    -0.00131935    0.00026232   -0.00663926
     atom    8 type  1   force =     0.00074261    0.00794152    0.02423045
     atom    9 type  2   force =     0.00001065    0.00002899    0.00004871
     atom   10 type  2   force =    -0.00082595    0.00166720   -0.01689237
     atom   11 type  2   force =    -0.00001506    0.00003750   -0.00000966
     atom   12 type  2   force =    -0.00001600    0.00001609   -0.00001199
     atom   13 type  1   force =     0.00000619   -0.00000899    0.00000381
     atom   14 type  1   force =     0.00001045    0.00003542    0.00000783
     atom   15 type  2   force =    -0.00000942    0.00002891   -0.00000885
     atom   16 type  2   force =    -0.00001028   -0.00003158   -0.00006070
     atom   17 type  2   force =    -0.00002385    0.00000140    0.00001865
     atom   18 type  2   force =    -0.00003041    0.00000696   -0.00002495
     atom   19 type  1   force =     0.00004317   -0.00006416    0.00003024
     atom   20 type  1   force =     0.00003037   -0.00003707   -0.00003925
     atom   21 type  2   force =     0.00005811   -0.00004621    0.10319933
     atom   22 type  2   force =    -0.00001084   -0.00002639   -0.00013642
     atom   23 type  2   force =    -0.07147308   -0.00012306   -0.02768866
     atom   24 type  2   force =     0.07137607    0.00028760   -0.02769662
     atom   25 type  1   force =    -0.00003088   -0.00028820    0.09581848
     atom   26 type  1   force =    -0.00022587   -0.00034782   -0.17582059
     atom   27 type  2   force =     0.00004910   -0.00017337   -0.02324453
     atom   28 type  2   force =     0.00007032   -0.00125822    0.05305626
     atom   29 type  2   force =    -0.01201214    0.00042422    0.00402898
     atom   30 type  2   force =     0.01309851    0.00076963    0.00211704
     atom   31 type  1   force =    -0.00117992    0.00400785   -0.00993015
     atom   32 type  1   force =     0.00067345   -0.01005789    0.02471186
     atom   33 type  2   force =     0.00001604   -0.00000872    0.00003357
     atom   34 type  2   force =    -0.00024984    0.00012617   -0.02259321
     atom   35 type  2   force =    -0.00000124   -0.00000613   -0.00002539
     atom   36 type  2   force =    -0.00002357    0.00001610   -0.00003188
     atom   37 type  1   force =    -0.00001176   -0.00004255    0.00001384
     atom   38 type  1   force =     0.00002729    0.00007618    0.00004123
     atom   39 type  2   force =    -0.00006111   -0.00002285   -0.00003461
     atom   40 type  2   force =    -0.00000745   -0.00004011   -0.00003082
     atom   41 type  2   force =    -0.00000684   -0.00001481   -0.00003034
     atom   42 type  2   force =     0.00000848   -0.00001954   -0.00001749
     atom   43 type  1   force =     0.00005953   -0.00002885   -0.00002525
     atom   44 type  1   force =     0.00003247    0.00003853    0.00004404
     atom   45 type  2   force =     0.00004776   -0.00008935    0.10320734
     atom   46 type  2   force =    -0.07148755   -0.00007868   -0.02770647
     atom   47 type  2   force =     0.07139832    0.00036068   -0.02769694
     atom   48 type  3   force =     0.00076199   -0.00001834    0.00067810
     atom   49 type  3   force =     0.00000176    0.00007834   -0.00008312
     atom   50 type  4   force =    -0.00032484    0.00181683   -0.00023401
     atom   51 type  5   force =    -0.00090418   -0.00012359   -0.00045747
     atom   52 type  5   force =     0.00026832    0.00000285    0.00012373
     atom   53 type  5   force =     0.00017084   -0.00176068   -0.00000946
     atom   54 type  2   force =     0.00101530   -0.00000718   -0.00131943
     atom   55 type  5   force =    -0.00010552    0.00000487   -0.00004177
     atom   56 type  2   force =    -0.00115143   -0.00005984    0.00135620
     atom   57 type  5   force =     0.00028880    0.00006014    0.00005375

     Total force =     0.367088     Total SCF correction =     0.000720
  @ DRIVER MODE: Message from server: STATUS
  @ DRIVER MODE: Message from server: GETFORCE
  @ DRIVER MODE: Returning v,forces,stress,ensemble

     Writing output data file ./calc.save/
  @ DRIVER MODE: Message from server: EXIT
  @ DRIVE MODE: Exiting

     General routines

     Parallel routines

   This run was terminated on:   7:49:32  26Sep2021

   JOB DONE.