     Program PWSCF v.6.7GPU starts on  9Sep2021 at  1:23:30

     R & G space division:  proc/nbgrp/npool/nimage =      10
     Reading input from /storage/home/hcoda1/3/ntian30/research/carbon/CxH_vib/CH3_calc/ads_slab/CH3N2_c/out_0011/pw.inp
Warning: card &CELL ignored
Warning: card   CELL_DYNAMICS='IPI', ignored
Warning: card / ignored

     Current dimensions of program PWSCF are:
     Max number of different atomic species (ntypx) = 10
     Max number of k-points (npk) =  40000
     Max angular momentum in pseudopotentials (lmaxx) =  3
     Presently no symmetry can be used with electric field

     Message from routine cell_base_init:
     DEPRECATED: use true lattice parameter, not A to a.u. conversion factor

     IMPORTANT: XC functional enforced from input :
     Exchange-correlation= BEEF-VDW
                           (   1   4  43  14   2   0   0)
     Any further DFT definition will be discarded
     Please, verify this is what you really want

  @ DRIVER MODE: Connecting to
 qe_1139763_2767397.sched-torque.pace.gatech.edu7y934rt3_scratch
  using UNIX socket
  @ DRIVER MODE: Message from server: STATUS
  @ DRIVER MODE: Message from server: INIT
  @ DRIVER MODE: Receiving replica           0          -1
  @ DRIVER MODE: Receiving encoded integer          25
  @ DRIVER MODE:  SCF:  T  FORCE:  T  STRESS:  F  VC:  F  ENSEMBLE:  F
  @ DRIVER MODE:  SCF:  T  FORCE:  T  STRESS:  F  VC:  F  ENSEMBLE:  F

     Using Slab Decomposition

     bravais-lattice index     =            0
     lattice parameter (alat)  =       1.8897  a.u.
     unit-cell volume          =    6658.9804 (a.u.)^3
     number of atoms/cell      =           53
     number of atomic types    =            5
     number of electrons       =       395.00
     number of Kohn-Sham states=          207
     kinetic-energy cutoff     =      29.3995  Ry
     charge density cutoff     =     293.9946  Ry
     scf convergence threshold =      7.3E-08
     mixing beta               =       0.0500
     number of iterations used =            8  plain     mixing
     Exchange-correlation= BEEF-VDW
                           (   1   4  43  14   2   0   0)

     celldm(1)=   1.889726  celldm(2)=   0.000000  celldm(3)=   0.000000
     celldm(4)=   0.000000  celldm(5)=   0.000000  celldm(6)=   0.000000

     crystal axes: (cart. coord. in units of alat)
               a(1) = (   6.579727   0.000000   0.000000 )
               a(2) = (  -0.000775   5.961596   0.000000 )
               a(3) = (   0.000000   0.000000  25.155947 )

     reciprocal axes: (cart. coord. in units 2 pi/alat)
               b(1) = (  0.151982  0.000020  0.000000 )
               b(2) = (  0.000000  0.167740  0.000000 )
               b(3) = (  0.000000  0.000000  0.039752 )

     PseudoPot. # 1 for Ti read from file:
     /storage/coda1/p-amedford6/0/shared/rich_project_chbe-medford/medford-share/data/pseudos_module/espresso/nninc/pbe/van/Ti.UPF
     MD5 check sum: 8e4df49b7f0d34bbd5052bf3f5ea0213
     Pseudo is Ultrasoft, Zval = 12.0
     Generated by new atomic code, or converted to UPF format
     Using radial grid of  851 points,  6 beta functions with:
                l(1) =   0
                l(2) =   0
                l(3) =   1
                l(4) =   1
                l(5) =   2
                l(6) =   2
     Q(r) pseudized with  8 coefficients,  rinner =    1.000   1.000   1.000
                                                       1.000   1.000

     PseudoPot. # 2 for O  read from file:
     /storage/coda1/p-amedford6/0/shared/rich_project_chbe-medford/medford-share/data/pseudos_module/espresso/nninc/pbe/van/O.UPF
     MD5 check sum: 78c19812648e8988a0fe644b0f25305e
     Pseudo is Ultrasoft, Zval =  6.0
     Generated by new atomic code, or converted to UPF format
     Using radial grid of  737 points,  4 beta functions with:
                l(1) =   0
                l(2) =   0
                l(3) =   1
                l(4) =   1
     Q(r) pseudized with  8 coefficients,  rinner =    0.800   0.800   0.800

     PseudoPot. # 3 for N  read from file:
     /storage/coda1/p-amedford6/0/shared/rich_project_chbe-medford/medford-share/data/pseudos_module/espresso/nninc/pbe/van/N.UPF
     MD5 check sum: 90d10febe142ad51ac9d5be1deb811c4
     Pseudo is Ultrasoft, Zval =  5.0
     Generated by new atomic code, or converted to UPF format
     Using radial grid of  729 points,  4 beta functions with:
                l(1) =   0
                l(2) =   0
                l(3) =   1
                l(4) =   1
     Q(r) pseudized with  8 coefficients,  rinner =    0.800   0.800   0.800

     PseudoPot. # 4 for C  read from file:
     /storage/coda1/p-amedford6/0/shared/rich_project_chbe-medford/medford-share/data/pseudos_module/espresso/nninc/pbe/van/C.UPF
     MD5 check sum: 1a69bf6b8db32088f5b2163dbdb77a27
     Pseudo is Ultrasoft, Zval =  4.0
     Generated by new atomic code, or converted to UPF format
     Using radial grid of  721 points,  4 beta functions with:
                l(1) =   0
                l(2) =   0
                l(3) =   1
                l(4) =   1
     Q(r) pseudized with  8 coefficients,  rinner =    0.800   0.800   0.800

     PseudoPot. # 5 for H  read from file:
     /storage/coda1/p-amedford6/0/shared/rich_project_chbe-medford/medford-share/data/pseudos_module/espresso/nninc/pbe/van/H.UPF
     MD5 check sum: b5ee9d7bfd3a09ee7748110bda690ff7
     Pseudo is Ultrasoft, Zval =  1.0
     Generated by new atomic code, or converted to UPF format
     Using radial grid of  615 points,  1 beta functions with:
                l(1) =   0
     Q(r) pseudized with  8 coefficients,  rinner =    0.800

     atomic species   valence    mass     pseudopotential
        Ti1           12.00    47.86700     Ti( 1.00)
        O1             6.00    15.99900     O ( 1.00)
        N1             5.00    14.00700     N ( 1.00)
        C1             4.00    12.01100     C ( 1.00)
        H1             1.00     1.00800     H ( 1.00)

     No symmetry found

   Cartesian axes

     site n.     atom                  positions (alat units)
         1           Ti1 tau(   1) = (   0.0004258   2.9801865   6.0000000  )
         2           Ti1 tau(   2) = (   3.2906075   1.4906267   6.0002472  )
         3           O1  tau(   3) = (   0.0006271   0.0005054   7.9858123  )
         4           O1  tau(   4) = (   3.2906025   0.0005020   7.3038282  )
         5           O1  tau(   5) = (   4.5942328   1.4918067   9.2879030  )
         6           O1  tau(   6) = (   1.9868534   1.4903216   9.2879459  )
         7           Ti1 tau(   7) = (   3.2907910   2.8959150   9.1758416  )
         8           Ti1 tau(   8) = (   0.0015273   1.4827037   9.2680791  )
         9           O1  tau(   9) = (   3.2868105   5.9447858  11.3346005  )
        10           O1  tau(  10) = (   0.0116148   5.9584955  10.6183126  )
        11           O1  tau(  11) = (   1.2897616   1.4699164  12.6258314  )
        12           O1  tau(  12) = (   5.2713851   1.4716199  12.6109895  )
        13           Ti1 tau(  13) = (   0.0629619   2.9460495  12.6207869  )
        14           Ti1 tau(  14) = (   3.3778125   1.4702366  12.4807322  )
        15           O1  tau(  15) = (   6.5741670   5.9392046  14.6271830  )
        16           O1  tau(  16) = (   3.2925211   5.9405975  13.9303826  )
        17           O1  tau(  17) = (   4.5331425   1.4971777  16.0590535  )
        18           O1  tau(  18) = (   2.0416154   1.4974824  16.0477615  )
        19           Ti1 tau(  19) = (   3.2901388   2.9722967  15.7036181  )
        20           Ti1 tau(  20) = (   6.5714728   1.5019933  15.8140906  )
        21           O1  tau(  21) = (   3.2904802   0.0005063   4.7018136  )
        22           O1  tau(  22) = (   6.5775371   0.0159386  17.1814867  )
        23           O1  tau(  23) = (   1.3043587   1.4918075   6.0039043  )
        24           O1  tau(  24) = (   5.2767064   1.4903225   6.0039473  )
        25           Ti1 tau(  25) = (   0.0000382   5.9609847   6.0000000  )
        26           Ti1 tau(  26) = (   3.2902200   4.4714249   6.0002472  )
        27           O1  tau(  27) = (   0.0002396   2.9813036   7.9858123  )
        28           O1  tau(  28) = (   3.2902150   2.9813002   7.3038282  )
        29           O1  tau(  29) = (   4.5938453   4.4726049   9.2879030  )
        30           O1  tau(  30) = (   1.9864658   4.4711199   9.2879459  )
        31           Ti1 tau(  31) = (   3.2891106   5.8743827   9.1763621  )
        32           Ti1 tau(  32) = (   0.0006254   4.4649316   9.2693709  )
        33           O1  tau(  33) = (   3.2909631   2.9655588  11.3316111  )
        34           O1  tau(  34) = (   0.0092240   2.9805883  10.6323155  )
        35           O1  tau(  35) = (   1.2884032   4.4536117  12.6269208  )
        36           O1  tau(  36) = (   5.2752684   4.4605011  12.6109535  )
        37           Ti1 tau(  37) = (   0.0626277   5.9200555  12.5524633  )
        38           Ti1 tau(  38) = (   3.3797810   4.4486816  12.4846537  )
        39           O1  tau(  39) = (   6.5720240   2.9440667  14.6479771  )
        40           O1  tau(  40) = (   3.2941106   2.9728877  13.9057494  )
        41           O1  tau(  41) = (   4.5311790   4.4530262  16.1020043  )
        42           O1  tau(  42) = (   2.0427069   4.4534008  16.0946336  )
        43           Ti1 tau(  43) = (   3.2818950   5.9508925  15.7274921  )
        44           Ti1 tau(  44) = (   6.5750914   4.6476268  16.0792144  )
        45           O1  tau(  45) = (   3.2900926   2.9813045   4.7018136  )
        46           O1  tau(  46) = (   1.3039711   4.4726057   6.0039043  )
        47           O1  tau(  47) = (   5.2763189   4.4711207   6.0039473  )
        48           N1  tau(  48) = (   0.0795740   2.6614725  18.6386781  )
        49           N1  tau(  49) = (   0.0132033   2.8794178  17.4283708  )
        50           C1  tau(  50) = (   0.1510961   3.8031638  19.5808395  )
        51           H1  tau(  51) = (   6.4701351   4.7592986  19.1328852  )
        52           H1  tau(  52) = (   6.0910372   3.5604803  20.4266230  )
        53           H1  tau(  53) = (   1.1812797   3.8285794  19.9476819  )

     number of k points=    10  Fermi-Dirac smearing, width (Ry)=  0.0073
                       cart. coord. in units 2pi/alat
        k(    1) = (   0.0000000   0.0000000   0.0000000), wk =   0.1250000
        k(    2) = (   0.0000000   0.0419351   0.0000000), wk =   0.2500000
        k(    3) = (   0.0000000  -0.0838702   0.0000000), wk =   0.1250000
        k(    4) = (   0.0379955   0.0000049   0.0000000), wk =   0.2500000
        k(    5) = (   0.0379955   0.0419400   0.0000000), wk =   0.2500000
        k(    6) = (   0.0379955  -0.0838652   0.0000000), wk =   0.2500000
        k(    7) = (   0.0379955  -0.0419301   0.0000000), wk =   0.2500000
        k(    8) = (  -0.0759910  -0.0000099   0.0000000), wk =   0.1250000
        k(    9) = (  -0.0759910   0.0419252   0.0000000), wk =   0.2500000
        k(   10) = (  -0.0759910  -0.0838800   0.0000000), wk =   0.1250000

     Initial potential from superposition of free atoms

     starting charge  378.99916, renormalised to  395.00000

     negative rho (up, down):  1.507E-02 0.000E+00

     %%%%%%%%%%%%%%%%%%%%%%%%%%%%%%%%%%%%%%%%%%%%%%%%%%%%%%%%%%%%%%%%%%%%%%%%
     %                                                                      %
     % You are using vdW-DF, which was implemented by the Thonhauser group. %
     % Please cite the following two papers that made this development      %
     % possible and the two reviews that describe the various versions:     %
     %                                                                      %
     %   T. Thonhauser et al., PRL 115, 136402 (2015).                      %
     %   T. Thonhauser et al., PRB 76, 125112 (2007).                       %
     %   K. Berland et al., Rep. Prog. Phys. 78, 066501 (2015).             %
     %   D.C. Langreth et al., J. Phys.: Condens. Matter 21, 084203 (2009). %
     %                                                                      %
     %                                                                      %
     % If you are calculating the stress with vdW-DF, please also cite:     %
     %                                                                      %
     %   R. Sabatini et al., J. Phys.: Condens. Matter 24, 424209 (2012).   %
     %                                                                      %
     %%%%%%%%%%%%%%%%%%%%%%%%%%%%%%%%%%%%%%%%%%%%%%%%%%%%%%%%%%%%%%%%%%%%%%%%

     Adding external electric field

     Computed dipole along edir(3) :
        Dipole               -8.8455 Ry au,        -22.4830 Debye
        Dipole field         -0.0167 Ry au,

        Potential amp.        1.5474 Ry
        Total length         46.3494 bohr

     Starting wfcs are  299 atomic wfcs
  @ DRIVER MODE: Message from server: STATUS
  @ DRIVER MODE: Message from server: POSDATA
  @ DRIVER MODE: Reading and sharing cell
  @ DRIVER MODE: Reading and sharing positions
  @ DRIVER MODE: Received positions

     Self-consistent Calculation

     iteration #  1     ecut=    29.40 Ry     beta= 0.05
     Davidson diagonalization with overlap
     c_bands:  1 eigenvalues not converged
     c_bands:  2 eigenvalues not converged
     c_bands:  1 eigenvalues not converged
     c_bands:  3 eigenvalues not converged
     c_bands:  3 eigenvalues not converged
     c_bands:  1 eigenvalues not converged
     ethr =  1.00E-05,  avg # of iterations = 19.1

[...]

     total energy              =   -2605.92696375 Ry
     estimated scf accuracy    <    3696.49750738 Ry

     iteration #  2     ecut=    29.40 Ry     beta= 0.05
     Davidson diagonalization with overlap
     ethr =  1.00E-02,  avg # of iterations = 22.1

[...]

     iteration # 60     ecut=    29.40 Ry     beta= 0.05
     Davidson diagonalization with overlap
     c_bands:  1 eigenvalues not converged
     ethr =  3.09E-11,  avg # of iterations =  9.8

[...]

     total energy              =   -2939.15451696 Ry
     estimated scf accuracy    <       0.00000008 Ry

     iteration # 61     ecut=    29.40 Ry     beta= 0.05
     Davidson diagonalization with overlap
     ethr =  2.01E-11,  avg # of iterations = 12.6

     negative rho (up, down):  1.565E-02 0.000E+00

     Adding external electric field

     Computed dipole along edir(3) :
        Dipole                0.7042 Ry au,          1.7898 Debye
        Dipole field          0.0013 Ry au,

        Potential amp.       -0.1232 Ry
        Total length         46.3494 bohr

     End of self-consistent calculation

          k = 0.0000 0.0000 0.0000 ( 18029 PWs)   bands (ev):

   -55.8992 -55.8839 -55.8651 -55.8480 -55.7967 -55.7330 -55.7074 -55.7051
   -55.6966 -55.6734 -55.6722 -55.6386 -55.2860 -55.0892 -54.8762 -54.8422
   -32.4379 -32.3814 -32.2331 -32.2285 -32.2061 -32.2015 -32.1922 -32.1628
   -32.1416 -32.1263 -32.1059 -32.0681 -32.0644 -32.0513 -32.0372 -32.0235
   -32.0186 -32.0033 -31.9886 -31.9562 -31.9475 -31.9428 -31.9023 -31.8951
   -31.8945 -31.8910 -31.8829 -31.8776 -31.8743 -31.8471 -31.8470 -31.8382
   -31.8340 -31.8252 -31.8138 -31.7844 -31.7758 -31.5651 -31.4597 -31.3543
   -31.3498 -31.3055 -31.2834 -31.1951 -31.1726 -31.1001 -31.0136 -30.9026
   -18.2951 -16.6352 -16.3711 -16.1388 -16.0479 -16.0156 -15.8973 -15.7359
   -15.6190 -15.5629 -15.4655 -15.4460 -15.4342 -15.4018 -15.3785 -15.3727
   -15.3418 -15.3393 -15.3211 -15.3050 -15.2585 -15.2346 -15.2095 -15.1110
   -15.0659 -15.0332 -15.0138 -14.9548 -14.9490 -14.4384 -13.3789 -13.2625
   -11.3525  -6.9486  -4.3287  -4.0053  -3.8561  -3.8490  -3.8252  -3.8044
    -3.7468  -3.6226  -3.5020  -3.4387  -3.1288  -3.0807  -3.0650  -3.0476
    -3.0094  -2.8023  -2.7496  -2.7120  -2.6862  -2.6787  -2.6680  -2.6587
    -2.6483  -2.6106  -2.5043  -2.4388  -2.4278  -2.3397  -2.2927  -2.2726
    -2.2110  -2.1885  -2.1681  -2.1453  -2.1341  -2.1085  -2.0933  -2.0817
    -1.9746  -1.8849  -1.7466  -1.6966  -1.6716  -1.6417  -1.6292  -1.5064
    -1.3667  -1.3401  -1.3258  -1.3186  -1.2902  -1.2723  -1.1951  -1.0607
    -1.0543  -1.0101  -0.9593  -0.9040  -0.8788  -0.7770  -0.7400  -0.6642
    -0.6595  -0.6420  -0.5848  -0.5209  -0.3787  -0.3325  -0.3087  -0.2873
    -0.2615  -0.1930  -0.1724  -0.0544  -0.0369  -0.0206   0.0393   0.0644
     0.0768   0.0865   0.1048   0.1223   0.1407   0.3071   0.3783   0.4347
     0.4549   0.5171   0.6375   0.7101   0.7600   0.8636   1.0715   1.1457
     1.2396   1.3376   1.7169   1.7625   2.6150   3.2404   3.3212   3.3703
     3.3858   3.4821   3.5196   3.6916   3.6926   3.7226   3.7928

[...]

          k = 0.0380-0.0419 0.0000 ( 17876 PWs)   bands (ev):

[...]

          k =-0.0760-0.0000 0.0000 ( 17886 PWs)   bands (ev):

[...]

          k =-0.0760-0.0839 0.0000 ( 17948 PWs)   bands (ev):

   -55.8826 -55.8815 -55.8661 -55.8656 -55.7933 -55.7207 -55.7089 -55.7084
   -55.6913 -55.6890 -55.6561 -55.6549 -55.2846 -55.0904 -54.8592 -54.8591
   -32.2425 -32.2406 -32.1971 -32.1963 -32.1781 -32.1771 -32.1713 -32.1370
   -32.0917 -32.0886 -32.0825 -32.0808 -32.0438 -32.0161 -32.0088 -32.0080
   -32.0020 -32.0018 -32.0009 -31.9983 -31.9949 -31.9942 -31.9925 -31.9405
   -31.9272 -31.9144 -31.9125 -31.9026 -31.8902 -31.8897 -31.8872 -31.8862
   -31.8706 -31.8699 -31.8607 -31.8578 -31.6929 -31.5668 -31.4656 -31.4131
   -31.3515 -31.3314 -31.1854 -31.1853 -31.0962 -31.0961 -31.0569 -31.0568
   -18.2904 -16.0708 -16.0449 -15.8461 -15.8133 -15.8079 -15.7933 -15.6832
   -15.5994 -15.5936 -15.5910 -15.5202 -15.4899 -15.4760 -15.4373 -15.4243
   -15.4167 -15.4056 -15.3917 -15.3592 -15.3518 -15.3348 -15.3273 -15.2402
   -15.2154 -15.2112 -15.1819 -15.0656 -14.9321 -14.6142 -13.3646 -13.3640
   -11.3503  -6.9601  -4.2352  -3.8641  -3.7981  -3.3603  -3.3315  -3.0914
    -3.0531  -3.0395  -2.9866  -2.8240  -2.7943  -2.7678  -2.7565  -2.7249
    -2.7201  -2.7069  -2.7030  -2.6832  -2.6393  -2.6179  -2.6007  -2.5824
    -2.5660  -2.5519  -2.5342  -2.5186  -2.5093  -2.4694  -2.4457  -2.4335
    -2.4147  -2.4026  -2.2436  -2.1243  -2.0902  -2.0365  -2.0264  -2.0025
    -1.9638  -1.9588  -1.9486  -1.8839  -1.8027  -1.6477  -1.6024  -1.5956
    -1.5708  -1.5456  -1.5014  -1.4598  -1.3726  -1.2992  -1.2771  -1.2715
    -1.2029  -1.1169  -1.1051  -1.0602  -1.0142  -1.0050  -0.9526  -0.8889
    -0.8611  -0.8565  -0.7994  -0.7261  -0.7139  -0.6665  -0.6592  -0.6154
    -0.5588  -0.5401  -0.5251  -0.4892  -0.4074  -0.3842  -0.2436  -0.1645
    -0.0358   0.0725   0.1665   0.1805   0.2620   0.3126   0.3982   0.4130
     0.4226   0.4353   0.4772   0.5636   0.6337   0.6486   0.6954   0.8160
     1.5093   1.5101   1.5820   1.5826   2.6710   3.4882   3.5342   3.5756
     3.6075   3.7104   3.7457   3.7689   3.7701   3.7947   3.9114

     the Fermi energy is     3.2357 ev

!    total energy              =   -2939.15455785 Ry
     estimated scf accuracy    <       0.00000007 Ry
     smearing contrib. (-TS)   =      -0.02234650 Ry
     internal energy E=F+TS    =   -2939.13221136 Ry

     The total energy is F=E-TS. E is the sum of the following terms:
     one-electron contribution =  -24178.51305235 Ry
     hartree contribution      =   12176.48574299 Ry
     xc contribution           =    -485.17189938 Ry
     ewald contribution        =    9548.06606168 Ry
     electric field correction =       0.00093570 Ry

     convergence has been achieved in  61 iterations

     Forces acting on atoms (cartesian axes, Ry/au):

     atom    1 type  1   force =     0.00011880   -0.00026114    0.09666671
     atom    2 type  1   force =    -0.00012896   -0.00047802   -0.17523770
     atom    3 type  2   force =    -0.00000135   -0.00010360   -0.02499992
     atom    4 type  2   force =     0.00005130   -0.00149778    0.05298267
     atom    5 type  2   force =    -0.01215801   -0.00108200    0.00360940
     atom    6 type  2   force =     0.01370610   -0.00027383    0.00228342
     atom    7 type  1   force =    -0.00117101    0.00037231   -0.01145412
     atom    8 type  1   force =     0.00056329    0.00940683    0.02856606
     atom    9 type  2   force =     0.00019565    0.00053400   -0.00017026
     atom   10 type  2   force =    -0.00115472    0.00028097   -0.01830460
     atom   11 type  2   force =    -0.00014005   -0.00000826   -0.00019473
     atom   12 type  2   force =     0.00009963    0.00021487    0.00011987
     atom   13 type  1   force =     0.00011157   -0.00028094    0.00049651
     atom   14 type  1   force =     0.00025533    0.00016637    0.00033130
     atom   15 type  2   force =     0.00023479   -0.00023269   -0.00079492
     atom   16 type  2   force =    -0.00032746    0.00033904    0.00020343
     atom   17 type  2   force =    -0.00046539    0.00029601   -0.00036505
     atom   18 type  2   force =     0.00047820    0.00001699   -0.00001147
     atom   19 type  1   force =    -0.00008821    0.00015132    0.00040606
     atom   20 type  1   force =    -0.00059750   -0.00047055   -0.00012551
     atom   21 type  2   force =     0.00008520    0.00001416    0.10320021
     atom   22 type  2   force =    -0.00021155    0.00023728    0.00047844
     atom   23 type  2   force =    -0.07146859   -0.00007132   -0.02772750
     atom   24 type  2   force =     0.07143490    0.00034829   -0.02773871
     atom   25 type  1   force =     0.00007398   -0.00022523    0.09640104
     atom   26 type  1   force =    -0.00022030   -0.00026392   -0.17564437
     atom   27 type  2   force =     0.00007108   -0.00024667   -0.02399803
     atom   28 type  2   force =     0.00009599   -0.00126169    0.05283964
     atom   29 type  2   force =    -0.01239951    0.00004359    0.00352106
     atom   30 type  2   force =     0.01386405    0.00033488    0.00216495
     atom   31 type  1   force =    -0.00113552    0.00333278   -0.01186344
     atom   32 type  1   force =     0.00065635   -0.01118683    0.02916562
     atom   33 type  2   force =     0.00010801   -0.00020280   -0.00042515
     atom   34 type  2   force =    -0.00090322   -0.00092910   -0.02492351
     atom   35 type  2   force =    -0.00041749    0.00028022   -0.00004374
     atom   36 type  2   force =     0.00068813    0.00029323    0.00027734
     atom   37 type  1   force =     0.00002673   -0.00022099    0.00037644
     atom   38 type  1   force =     0.00002475    0.00010521    0.00011501
     atom   39 type  2   force =     0.00032120    0.00017496   -0.00139080
     atom   40 type  2   force =    -0.00030454    0.00010820   -0.00001582
     atom   41 type  2   force =    -0.00076326    0.00064568   -0.00004783
     atom   42 type  2   force =     0.00038452    0.00059319    0.00023362
     atom   43 type  1   force =    -0.00006412    0.00036873    0.00062222
     atom   44 type  1   force =    -0.00040022   -0.00005583    0.00097009
     atom   45 type  2   force =     0.00008158   -0.00002931    0.10324311
     atom   46 type  2   force =    -0.07149707   -0.00003260   -0.02774002
     atom   47 type  2   force =     0.07146102    0.00038850   -0.02776528
     atom   48 type  3   force =    -0.00079552    0.00215022   -0.02191065
     atom   49 type  3   force =     0.00187073   -0.00150325    0.02635978
     atom   50 type  4   force =     0.00142987   -0.00003212   -0.00353408
     atom   51 type  5   force =     0.00024625    0.00094386   -0.00018077
     atom   52 type  5   force =    -0.00127595   -0.00103401    0.00096986
     atom   53 type  5   force =    -0.00064951   -0.00015719    0.00000409

     Total force =     0.369972     Total SCF correction =     0.000585
  @ DRIVER MODE: Message from server: STATUS
  @ DRIVER MODE: Message from server: GETFORCE
  @ DRIVER MODE: Returning v,forces,stress,ensemble

     Writing output data file ./calc.save/
  @ DRIVER MODE: Message from server: EXIT
  @ DRIVE MODE: Exiting

     General routines

     Parallel routines

   This run was terminated on:   1:39:20   9Sep2021

   JOB DONE.