     Program PWSCF v.6.7GPU starts on 16Sep2021 at 11:30: 4

     R & G space division:  proc/nbgrp/npool/nimage =      10
     Reading input from /storage/home/hcoda1/3/ntian30/research/carbon/CxH_vib/H2O_calc/ads_slab/CH3NHNHH2O_a/out_0058/pw.inp
Warning: card &CELL ignored
Warning: card   CELL_DYNAMICS='IPI', ignored
Warning: card / ignored

     Current dimensions of program PWSCF are:
     Max number of different atomic species (ntypx) = 10
     Max number of k-points (npk) =  40000
     Max angular momentum in pseudopotentials (lmaxx) =  3
     Presently no symmetry can be used with electric field

     Message from routine cell_base_init:
     DEPRECATED: use true lattice parameter, not A to a.u. conversion factor

     IMPORTANT: XC functional enforced from input :
     Exchange-correlation= BEEF-VDW
                           (   1   4  43  14   2   0   0)
     Any further DFT definition will be discarded
     Please, verify this is what you really want

  @ DRIVER MODE: Connecting to
 qe_1139763_2852620.sched-torque.pace.gatech.eduri2d1how_scratch
  using UNIX socket
  @ DRIVER MODE: Message from server: STATUS
  @ DRIVER MODE: Message from server: INIT
  @ DRIVER MODE: Receiving replica           0          -1
  @ DRIVER MODE: Receiving encoded integer          25
  @ DRIVER MODE:  SCF:  T  FORCE:  T  STRESS:  F  VC:  F  ENSEMBLE:  F
  @ DRIVER MODE:  SCF:  T  FORCE:  T  STRESS:  F  VC:  F  ENSEMBLE:  F

     Using Slab Decomposition

     bravais-lattice index     =            0
     lattice parameter (alat)  =       1.8897  a.u.
     unit-cell volume          =    6658.9804 (a.u.)^3
     number of atoms/cell      =           58
     number of atomic types    =            5
     number of electrons       =       405.00
     number of Kohn-Sham states=          212
     kinetic-energy cutoff     =      29.3995  Ry
     charge density cutoff     =     293.9946  Ry
     scf convergence threshold =      7.3E-08
     mixing beta               =       0.0500
     number of iterations used =            8  plain     mixing
     Exchange-correlation= BEEF-VDW
                           (   1   4  43  14   2   0   0)

     celldm(1)=   1.889726  celldm(2)=   0.000000  celldm(3)=   0.000000
     celldm(4)=   0.000000  celldm(5)=   0.000000  celldm(6)=   0.000000

     crystal axes: (cart. coord. in units of alat)
               a(1) = (   6.579727   0.000000   0.000000 )
               a(2) = (  -0.000775   5.961596   0.000000 )
               a(3) = (   0.000000   0.000000  25.155947 )

     reciprocal axes: (cart. coord. in units 2 pi/alat)
               b(1) = (  0.151982  0.000020  0.000000 )
               b(2) = (  0.000000  0.167740  0.000000 )
               b(3) = (  0.000000  0.000000  0.039752 )

     PseudoPot. # 1 for Ti read from file:
     /storage/coda1/p-amedford6/0/shared/rich_project_chbe-medford/medford-share/data/pseudos_module/espresso/nninc/pbe/van/Ti.UPF
     MD5 check sum: 8e4df49b7f0d34bbd5052bf3f5ea0213
     Pseudo is Ultrasoft, Zval = 12.0
     Generated by new atomic code, or converted to UPF format
     Using radial grid of  851 points,  6 beta functions with:
                l(1) =   0
                l(2) =   0
                l(3) =   1
                l(4) =   1
                l(5) =   2
                l(6) =   2
     Q(r) pseudized with  8 coefficients,  rinner =    1.000   1.000   1.000
                                                       1.000   1.000

     PseudoPot. # 2 for O  read from file:
     /storage/coda1/p-amedford6/0/shared/rich_project_chbe-medford/medford-share/data/pseudos_module/espresso/nninc/pbe/van/O.UPF
     MD5 check sum: 78c19812648e8988a0fe644b0f25305e
     Pseudo is Ultrasoft, Zval =  6.0
     Generated by new atomic code, or converted to UPF format
     Using radial grid of  737 points,  4 beta functions with:
                l(1) =   0
                l(2) =   0
                l(3) =   1
                l(4) =   1
     Q(r) pseudized with  8 coefficients,  rinner =    0.800   0.800   0.800

     PseudoPot. # 3 for N  read from file:
     /storage/coda1/p-amedford6/0/shared/rich_project_chbe-medford/medford-share/data/pseudos_module/espresso/nninc/pbe/van/N.UPF
     MD5 check sum: 90d10febe142ad51ac9d5be1deb811c4
     Pseudo is Ultrasoft, Zval =  5.0
     Generated by new atomic code, or converted to UPF format
     Using radial grid of  729 points,  4 beta functions with:
                l(1) =   0
                l(2) =   0
                l(3) =   1
                l(4) =   1
     Q(r) pseudized with  8 coefficients,  rinner =    0.800   0.800   0.800

     PseudoPot. # 4 for C  read from file:
     /storage/coda1/p-amedford6/0/shared/rich_project_chbe-medford/medford-share/data/pseudos_module/espresso/nninc/pbe/van/C.UPF
     MD5 check sum: 1a69bf6b8db32088f5b2163dbdb77a27
     Pseudo is Ultrasoft, Zval =  4.0
     Generated by new atomic code, or converted to UPF format
     Using radial grid of  721 points,  4 beta functions with:
                l(1) =   0
                l(2) =   0
                l(3) =   1
                l(4) =   1
     Q(r) pseudized with  8 coefficients,  rinner =    0.800   0.800   0.800

     PseudoPot. # 5 for H  read from file:
     /storage/coda1/p-amedford6/0/shared/rich_project_chbe-medford/medford-share/data/pseudos_module/espresso/nninc/pbe/van/H.UPF
     MD5 check sum: b5ee9d7bfd3a09ee7748110bda690ff7
     Pseudo is Ultrasoft, Zval =  1.0
     Generated by new atomic code, or converted to UPF format
     Using radial grid of  615 points,  1 beta functions with:
                l(1) =   0
     Q(r) pseudized with  8 coefficients,  rinner =    0.800

     atomic species   valence    mass     pseudopotential
        Ti1           12.00    47.86700     Ti( 1.00)
        O1             6.00    15.99900     O ( 1.00)
        N1             5.00    14.00700     N ( 1.00)
        C1             4.00    12.01100     C ( 1.00)
        H1             1.00     1.00800     H ( 1.00)

     No symmetry found

   Cartesian axes

     site n.     atom                  positions (alat units)
         1           Ti1 tau(   1) = (   0.0004258   2.9801865   6.0000000  )
         2           Ti1 tau(   2) = (   3.2906075   1.4906267   6.0002472  )
         3           O1  tau(   3) = (   0.0006271   0.0005054   7.9858123  )
         4           O1  tau(   4) = (   3.2906025   0.0005020   7.3038282  )
         5           O1  tau(   5) = (   4.5942328   1.4918067   9.2879030  )
         6           O1  tau(   6) = (   1.9868534   1.4903216   9.2879459  )
         7           Ti1 tau(   7) = (   3.2907910   2.8959150   9.1758416  )
         8           Ti1 tau(   8) = (   0.0015273   1.4827037   9.2680791  )
         9           O1  tau(   9) = (   3.2925356   5.9605122  11.3387169  )
        10           O1  tau(  10) = (   0.0116148   5.9584955  10.6183126  )
        11           O1  tau(  11) = (   1.2897729   1.4809555  12.6268520  )
        12           O1  tau(  12) = (   5.2791511   1.4810064  12.6173870  )
        13           Ti1 tau(  13) = (   0.0595640   3.0140846  12.5912772  )
        14           Ti1 tau(  14) = (   3.3761946   1.4800080  12.4968112  )
        15           O1  tau(  15) = (   6.5629824   0.0009262  14.6613707  )
        16           O1  tau(  16) = (   3.3123588   5.9604043  13.9421911  )
        17           O1  tau(  17) = (   4.5376415   1.5680301  16.0260299  )
        18           O1  tau(  18) = (   2.0142527   1.4857506  15.9764776  )
        19           Ti1 tau(  19) = (   3.2467940   3.0138708  15.6952036  )
        20           Ti1 tau(  20) = (   6.5376764   1.5432071  15.7832198  )
        21           O1  tau(  21) = (   3.2904802   0.0005063   4.7018136  )
        22           O1  tau(  22) = (   6.4898080   0.0110182  17.2547379  )
        23           O1  tau(  23) = (   1.3043587   1.4918075   6.0039043  )
        24           O1  tau(  24) = (   5.2767064   1.4903225   6.0039473  )
        25           Ti1 tau(  25) = (   0.0000382   5.9609847   6.0000000  )
        26           Ti1 tau(  26) = (   3.2902200   4.4714249   6.0002472  )
        27           O1  tau(  27) = (   0.0002396   2.9813036   7.9858123  )
        28           O1  tau(  28) = (   3.2902150   2.9813002   7.3038282  )
        29           O1  tau(  29) = (   4.5938453   4.4726049   9.2879030  )
        30           O1  tau(  30) = (   1.9864658   4.4711199   9.2879459  )
        31           Ti1 tau(  31) = (   3.2891106   5.8743827   9.1763621  )
        32           Ti1 tau(  32) = (   0.0006254   4.4649316   9.2693709  )
        33           O1  tau(  33) = (   3.2967638   2.9790471  11.3409087  )
        34           O1  tau(  34) = (   0.0092240   2.9805883  10.6323155  )
        35           O1  tau(  35) = (   1.2869154   4.4778632  12.6304858  )
        36           O1  tau(  36) = (   5.2845859   4.4648683  12.6187650  )
        37           Ti1 tau(  37) = (   0.0627082   0.0241251  12.5486904  )
        38           Ti1 tau(  38) = (   3.3788516   4.4738568  12.4976958  )
        39           O1  tau(  39) = (   6.5772583   2.9562949  14.6416036  )
        40           O1  tau(  40) = (   3.2725681   2.9944745  13.9013672  )
        41           O1  tau(  41) = (   4.5452577   4.4055011  16.0651929  )
        42           O1  tau(  42) = (   2.0228361   4.5129635  16.0417754  )
        43           Ti1 tau(  43) = (   3.2583029   0.0391736  15.7773877  )
        44           Ti1 tau(  44) = (   6.5476622   4.6515957  16.1089089  )
        45           O1  tau(  45) = (   3.2900926   2.9813045   4.7018136  )
        46           O1  tau(  46) = (   1.3039711   4.4726057   6.0039043  )
        47           O1  tau(  47) = (   5.2763189   4.4711207   6.0039473  )
        48           N1  tau(  48) = (   1.2275869   2.8250850  18.3327965  )
        49           N1  tau(  49) = (   0.1007212   2.9268546  17.4424539  )
        50           C1  tau(  50) = (   0.9834745   3.5098297  19.5973225  )
        51           H1  tau(  51) = (   0.0800711   3.1483545  20.1177682  )
        52           H1  tau(  52) = (   1.8428167   3.3484677  20.2521386  )
        53           H1  tau(  53) = (   0.8645268   4.5787652  19.4145101  )
        54           H1  tau(  54) = (   1.4038961   1.8348574  18.5000659  )
        55           H1  tau(  55) = (   5.8167727   2.7947134  17.9807349  )
        56           O1  tau(  56) = (   3.6251350   0.0523402  18.1652986  )
        57           H1  tau(  57) = (   4.6063402   0.0442754  18.1216558  )
        58           H1  tau(  58) = (   3.3562690   5.1322054  18.4688733  )

     number of k points=    10  Fermi-Dirac smearing, width (Ry)=  0.0073
                       cart. coord. in units 2pi/alat
        k(    1) = (   0.0000000   0.0000000   0.0000000), wk =   0.1250000
        k(    2) = (   0.0000000   0.0419351   0.0000000), wk =   0.2500000
        k(    3) = (   0.0000000  -0.0838702   0.0000000), wk =   0.1250000
        k(    4) = (   0.0379955   0.0000049   0.0000000), wk =   0.2500000
        k(    5) = (   0.0379955   0.0419400   0.0000000), wk =   0.2500000
        k(    6) = (   0.0379955  -0.0838652   0.0000000), wk =   0.2500000
        k(    7) = (   0.0379955  -0.0419301   0.0000000), wk =   0.2500000
        k(    8) = (  -0.0759910  -0.0000099   0.0000000), wk =   0.1250000
        k(    9) = (  -0.0759910   0.0419252   0.0000000), wk =   0.2500000
        k(   10) = (  -0.0759910  -0.0838800   0.0000000), wk =   0.1250000

     Initial potential from superposition of free atoms

     starting charge  388.99913, renormalised to  405.00000

     negative rho (up, down):  1.444E-02 0.000E+00

     %%%%%%%%%%%%%%%%%%%%%%%%%%%%%%%%%%%%%%%%%%%%%%%%%%%%%%%%%%%%%%%%%%%%%%%%
     %                                                                      %
     % You are using vdW-DF, which was implemented by the Thonhauser group. %
     % Please cite the following two papers that made this development      %
     % possible and the two reviews that describe the various versions:     %
     %                                                                      %
     %   T. Thonhauser et al., PRL 115, 136402 (2015).                      %
     %   T. Thonhauser et al., PRB 76, 125112 (2007).                       %
     %   K. Berland et al., Rep. Prog. Phys. 78, 066501 (2015).             %
     %   D.C. Langreth et al., J. Phys.: Condens. Matter 21, 084203 (2009). %
     %                                                                      %
     %                                                                      %
     % If you are calculating the stress with vdW-DF, please also cite:     %
     %                                                                      %
     %   R. Sabatini et al., J. Phys.: Condens. Matter 24, 424209 (2012).   %
     %                                                                      %
     %%%%%%%%%%%%%%%%%%%%%%%%%%%%%%%%%%%%%%%%%%%%%%%%%%%%%%%%%%%%%%%%%%%%%%%%

     Adding external electric field

     Computed dipole along edir(3) :
        Dipole              -14.1501 Ry au,        -35.9660 Debye
        Dipole field         -0.0267 Ry au,

        Potential amp.        2.4753 Ry
        Total length         46.3494 bohr

     Starting wfcs are  307 atomic wfcs
  @ DRIVER MODE: Message from server: STATUS
  @ DRIVER MODE: Message from server: POSDATA
  @ DRIVER MODE: Reading and sharing cell
  @ DRIVER MODE: Reading and sharing positions
  @ DRIVER MODE: Received positions

     Self-consistent Calculation

     iteration #  1     ecut=    29.40 Ry     beta= 0.05
     Davidson diagonalization with overlap
     c_bands:  5 eigenvalues not converged
     c_bands:  1 eigenvalues not converged
     c_bands:  1 eigenvalues not converged
     c_bands:  3 eigenvalues not converged
     c_bands:  2 eigenvalues not converged
     ethr =  1.00E-05,  avg # of iterations = 29.4

[...]

     total energy              =   -2232.43878836 Ry
     estimated scf accuracy    <    8444.20861115 Ry

     iteration #  2     ecut=    29.40 Ry     beta= 0.05
     Davidson diagonalization with overlap
     ethr =  1.00E-02,  avg # of iterations = 29.2

[...]

     iteration # 77     ecut=    29.40 Ry     beta= 0.05
     Davidson diagonalization with overlap
     c_bands:  1 eigenvalues not converged
     ethr =  3.10E-10,  avg # of iterations = 13.1

[...]

     total energy              =   -2976.50555158 Ry
     estimated scf accuracy    <       0.00000014 Ry

     iteration # 86     ecut=    29.40 Ry     beta= 0.05
     Davidson diagonalization with overlap
     ethr =  2.53E-11,  avg # of iterations =  7.6

     negative rho (up, down):  1.504E-02 0.000E+00

     Adding external electric field

     Computed dipole along edir(3) :
        Dipole                0.9852 Ry au,          2.5040 Debye
        Dipole field          0.0019 Ry au,

        Potential amp.       -0.1723 Ry
        Total length         46.3494 bohr

     End of self-consistent calculation

          k = 0.0000 0.0000 0.0000 ( 18029 PWs)   bands (ev):

   -55.5103 -55.4801 -55.4762 -55.4468 -55.4441 -55.3589 -55.3282 -55.3261
   -55.3238 -55.2942 -55.2935 -55.2598 -55.0508 -54.8861 -54.4932 -54.4592
   -32.0245 -31.9938 -31.8829 -31.8601 -31.8262 -31.8029 -31.7846 -31.7837
   -31.7549 -31.7117 -31.7002 -31.6805 -31.6774 -31.6625 -31.6572 -31.6354
   -31.6156 -31.6112 -31.6097 -31.5774 -31.5673 -31.5588 -31.5329 -31.5213
   -31.5184 -31.5163 -31.5134 -31.5076 -31.4928 -31.4844 -31.4812 -31.4716
   -31.4695 -31.4576 -31.4469 -31.4372 -31.4058 -31.3067 -31.2612 -31.1493
   -31.1410 -31.0768 -30.9005 -30.8117 -30.7893 -30.7172 -30.6307 -30.5196
   -18.7152 -16.5586 -16.2207 -15.9833 -15.7613 -15.6677 -15.6256 -15.4287
   -15.3343 -15.2496 -15.1294 -15.0784 -15.0523 -15.0448 -15.0313 -15.0060
   -14.9717 -14.9656 -14.9627 -14.9381 -14.9188 -14.8676 -14.8615 -14.8549
   -14.7614 -14.6973 -14.6625 -14.6492 -14.6395 -14.5742 -14.2021 -12.9951
   -12.8785 -11.6408  -8.8698  -6.4881  -5.1559  -4.2810  -3.6998  -3.5952
    -3.4672  -3.4189  -3.3701  -3.3436  -3.1509  -3.0829  -2.9358  -2.7713
    -2.6979  -2.6591  -2.6260  -2.5912  -2.5552  -2.4337  -2.4086  -2.3351
    -2.3192  -2.3081  -2.2760  -2.2663  -2.2511  -2.2319  -2.1570  -2.1482
    -2.0623  -1.9515  -1.9005  -1.8853  -1.8668  -1.8254  -1.7882  -1.7748
    -1.7620  -1.7433  -1.7301  -1.6922  -1.5768  -1.5264  -1.4460  -1.3668
    -1.2957  -1.2083  -1.1318  -1.1038  -1.0360  -1.0109  -0.9509  -0.9263
    -0.9126  -0.9057  -0.7886  -0.6805  -0.6623  -0.5924  -0.5316  -0.4552
    -0.4109  -0.3855  -0.3163  -0.2831  -0.2722  -0.2584  -0.2327  -0.2178
    -0.1618  -0.0143   0.0628   0.0813   0.1400   0.1806   0.2321   0.2574
     0.2852   0.3333   0.3645   0.4046   0.4543   0.4581   0.4699   0.4942
     0.5083   0.6674   0.7225   0.7556   0.7814   0.8301   0.9424   0.9853
     1.1392   1.2076   1.2726   1.4555   1.5296   1.6099   1.7210   2.0660
     2.1009   2.1468   3.6152   3.7076   3.7484   3.7698   3.8568   3.8591
     4.0705   4.1150   4.1230   4.1894

[...]

          k = 0.0380-0.0419 0.0000 ( 17876 PWs)   bands (ev):

[...]

          k =-0.0760-0.0000 0.0000 ( 17886 PWs)   bands (ev):

[...]

          k =-0.0760-0.0839 0.0000 ( 17948 PWs)   bands (ev):

   -55.4936 -55.4927 -55.4642 -55.4598 -55.4442 -55.3446 -55.3381 -55.3285
   -55.3111 -55.3107 -55.2778 -55.2757 -55.0493 -54.8875 -54.4762 -54.4761
   -31.8379 -31.8212 -31.8094 -31.8087 -31.7887 -31.7878 -31.7482 -31.7407
   -31.7327 -31.7047 -31.6937 -31.6746 -31.6590 -31.6573 -31.6319 -31.6297
   -31.6274 -31.6253 -31.6173 -31.6168 -31.6142 -31.6125 -31.6119 -31.5605
   -31.5522 -31.5458 -31.5378 -31.5270 -31.5131 -31.5120 -31.5078 -31.5034
   -31.4933 -31.4908 -31.4849 -31.4829 -31.4120 -31.3095 -31.2566 -31.2110
   -31.1518 -31.1044 -30.8021 -30.8019 -30.7133 -30.7131 -30.6740 -30.6740
   -18.7138 -16.5352 -15.6576 -15.5865 -15.4706 -15.4415 -15.3819 -15.3318
   -15.3143 -15.2451 -15.2089 -15.1962 -15.1443 -15.1424 -15.0943 -15.0699
   -15.0433 -15.0396 -15.0243 -14.9819 -14.9713 -14.9559 -14.9519 -14.9483
   -14.8711 -14.8353 -14.8312 -14.8265 -14.7572 -14.6235 -14.3512 -12.9804
   -12.9803 -11.6478  -8.8787  -6.4840  -5.1595  -4.2758  -3.6426  -3.0660
    -2.9429  -2.7806  -2.7198  -2.6389  -2.6381  -2.5954  -2.4691  -2.4463
    -2.4078  -2.3806  -2.3495  -2.3391  -2.3300  -2.3264  -2.3142  -2.3002
    -2.2872  -2.2478  -2.2022  -2.1867  -2.1781  -2.1735  -2.1586  -2.1454
    -2.1297  -2.1271  -2.0911  -2.0619  -2.0348  -1.9989  -1.9450  -1.7451
    -1.7172  -1.6962  -1.6688  -1.6570  -1.6452  -1.6116  -1.5731  -1.5628
    -1.4908  -1.4028  -1.3146  -1.2364  -1.2035  -1.1908  -1.1216  -1.0360
    -0.9946  -0.9556  -0.9184  -0.8584  -0.7996  -0.7615  -0.7240  -0.6427
    -0.6246  -0.6144  -0.5529  -0.5365  -0.4761  -0.4678  -0.3900  -0.3482
    -0.3118  -0.2648  -0.2372  -0.2315  -0.2128  -0.1783  -0.1704  -0.1162
    -0.0001   0.0086   0.0283   0.1329   0.2214   0.4607   0.5176   0.5501
     0.6300   0.6929   0.7541   0.7755   0.7974   0.8011   0.8370   0.8976
     1.0115   1.0213   1.0600   1.1481   1.1747   1.8928   1.8936   1.9665
     1.9667   2.0689   3.9273   3.9535   3.9794   4.0152   4.1157   4.1330
     4.1556   4.1576   4.2710   4.2958

     the Fermi energy is     3.6204 ev

!    total energy              =   -2976.50556492 Ry
     estimated scf accuracy    <       0.00000004 Ry
     smearing contrib. (-TS)   =      -0.02132303 Ry
     internal energy E=F+TS    =   -2976.48424190 Ry

     The total energy is F=E-TS. E is the sum of the following terms:
     one-electron contribution =  -23892.26335010 Ry
     hartree contribution      =   12042.66471101 Ry
     xc contribution           =    -495.75428940 Ry
     ewald contribution        =    9368.86685509 Ry
     electric field correction =       0.00183150 Ry

     convergence has been achieved in  86 iterations

     Forces acting on atoms (cartesian axes, Ry/au):

     atom    1 type  1   force =     0.00015572   -0.00027814    0.09581163
     atom    2 type  1   force =    -0.00022806   -0.00063025   -0.17574877
     atom    3 type  2   force =     0.00006367   -0.00014490   -0.02383443
     atom    4 type  2   force =     0.00006417   -0.00154380    0.05354801
     atom    5 type  2   force =    -0.01129121   -0.00076677    0.00355694
     atom    6 type  2   force =     0.01298961    0.00005044    0.00268103
     atom    7 type  1   force =    -0.00096198    0.00065026   -0.00792886
     atom    8 type  1   force =     0.00042792    0.00626063    0.02299419
     atom    9 type  2   force =    -0.00005368   -0.00030688   -0.00096367
     atom   10 type  2   force =    -0.00136740    0.00127831   -0.01512745
     atom   11 type  2   force =    -0.00030758    0.00024551   -0.00023233
     atom   12 type  2   force =    -0.00021014    0.00022651   -0.00033105
     atom   13 type  1   force =     0.00074191   -0.00046473    0.00027671
     atom   14 type  1   force =    -0.00019788    0.00042083    0.00151936
     atom   15 type  2   force =     0.00000659   -0.00002828    0.00031518
     atom   16 type  2   force =     0.00026378    0.00006257    0.00010460
     atom   17 type  2   force =     0.00066881   -0.00025983    0.00043774
     atom   18 type  2   force =     0.00012487   -0.00042860    0.00042369
     atom   19 type  1   force =    -0.00124872    0.00030016    0.00060823
     atom   20 type  1   force =     0.00083565   -0.00004038   -0.00009953
     atom   21 type  2   force =     0.00008733   -0.00008751    0.10323903
     atom   22 type  2   force =    -0.00072815   -0.00032978   -0.00061772
     atom   23 type  2   force =    -0.07141866   -0.00018852   -0.02769289
     atom   24 type  2   force =     0.07139050    0.00026900   -0.02769478
     atom   25 type  1   force =     0.00002302   -0.00031498    0.09552801
     atom   26 type  1   force =    -0.00017392   -0.00031301   -0.17602123
     atom   27 type  2   force =     0.00009413   -0.00012034   -0.02293189
     atom   28 type  2   force =     0.00011430   -0.00127339    0.05319959
     atom   29 type  2   force =    -0.01153874    0.00014755    0.00361426
     atom   30 type  2   force =     0.01318630    0.00045661    0.00270406
     atom   31 type  1   force =    -0.00100949    0.00373767   -0.01104059
     atom   32 type  1   force =     0.00051289   -0.00740302    0.02339713
     atom   33 type  2   force =    -0.00023908    0.00031454   -0.00032719
     atom   34 type  2   force =    -0.00033442    0.00024902   -0.02185025
     atom   35 type  2   force =     0.00010936    0.00030177   -0.00036891
     atom   36 type  2   force =    -0.00036818    0.00030550   -0.00029288
     atom   37 type  1   force =     0.00040136    0.00057535   -0.00025887
     atom   38 type  1   force =    -0.00023173   -0.00042314    0.00135571
     atom   39 type  2   force =    -0.00007183   -0.00029092    0.00038691
     atom   40 type  2   force =     0.00032349    0.00008590   -0.00084770
     atom   41 type  2   force =     0.00116627    0.00047131    0.00006183
     atom   42 type  2   force =    -0.00068603    0.00030277    0.00004303
     atom   43 type  1   force =    -0.00097095   -0.00116885   -0.00003905
     atom   44 type  1   force =     0.00068675    0.00050847   -0.00011942
     atom   45 type  2   force =     0.00008700   -0.00010304    0.10323713
     atom   46 type  2   force =    -0.07142761   -0.00013518   -0.02768050
     atom   47 type  2   force =     0.07142700    0.00030452   -0.02771126
     atom   48 type  3   force =    -0.00039700   -0.00080225   -0.00033141
     atom   49 type  3   force =    -0.00063311    0.00035593   -0.00049914
     atom   50 type  4   force =    -0.00014516    0.00024330    0.00002357
     atom   51 type  5   force =     0.00010798    0.00071482    0.00009809
     atom   52 type  5   force =    -0.00047587   -0.00025235    0.00004235
     atom   53 type  5   force =     0.00035347   -0.00040625    0.00034122
     atom   54 type  5   force =     0.00013972    0.00011297    0.00003894
     atom   55 type  5   force =     0.00017448   -0.00003910    0.00051247
     atom   56 type  2   force =    -0.00218123    0.00155021   -0.00053558
     atom   57 type  5   force =     0.00054870   -0.00189048    0.00047474
     atom   58 type  5   force =     0.00162105   -0.00006774    0.00055195

     Total force =     0.366772     Total SCF correction =     0.000606
  @ DRIVER MODE: Message from server: STATUS
  @ DRIVER MODE: Message from server: GETFORCE
  @ DRIVER MODE: Returning v,forces,stress,ensemble

     Writing output data file ./calc.save/
  @ DRIVER MODE: Message from server: EXIT
  @ DRIVE MODE: Exiting

     General routines

     Parallel routines

   This run was terminated on:  11:57:23  16Sep2021

   JOB DONE.