     Program PWSCF v.6.7GPU starts on 24Aug2021 at  1:47:33

     R & G space division:  proc/nbgrp/npool/nimage =       6
     Reading input from /storage/home/hcoda1/3/ntian30/research/carbon/CH2_vib/ads_slab/CH2N2_b/out_0028/pw.inp
Warning: card &CELL ignored
Warning: card   CELL_DYNAMICS='IPI', ignored
Warning: card / ignored

     Current dimensions of program PWSCF are:
     Max number of different atomic species (ntypx) = 10
     Max number of k-points (npk) =  40000
     Max angular momentum in pseudopotentials (lmaxx) =  3
     Presently no symmetry can be used with electric field

     Message from routine cell_base_init:
     DEPRECATED: use true lattice parameter, not A to a.u. conversion factor

     IMPORTANT: XC functional enforced from input :
     Exchange-correlation= BEEF-VDW
                           (   1   4  43  14   2   0   0)
     Any further DFT definition will be discarded
     Please, verify this is what you really want

  @ DRIVER MODE: Connecting to
 qe_1139763_2632805.sched-torque.pace.gatech.edu_skbmmxm_scratch
  using UNIX socket
  @ DRIVER MODE: Message from server: STATUS
  @ DRIVER MODE: Message from server: INIT
  @ DRIVER MODE: Receiving replica           0          -1
  @ DRIVER MODE: Receiving encoded integer          25
  @ DRIVER MODE:  SCF:  T  FORCE:  T  STRESS:  F  VC:  F  ENSEMBLE:  F
  @ DRIVER MODE:  SCF:  T  FORCE:  T  STRESS:  F  VC:  F  ENSEMBLE:  F

     Using Slab Decomposition

     bravais-lattice index     =            0
     lattice parameter (alat)  =       1.8897  a.u.
     unit-cell volume          =    6658.9804 (a.u.)^3
     number of atoms/cell      =           52
     number of atomic types    =            5
     number of electrons       =       394.00
     number of Kohn-Sham states=          207
     kinetic-energy cutoff     =      29.3995  Ry
     charge density cutoff     =     293.9946  Ry
     scf convergence threshold =      7.3E-08
     mixing beta               =       0.0500
     number of iterations used =            8  plain     mixing
     Exchange-correlation= BEEF-VDW
                           (   1   4  43  14   2   0   0)

     celldm(1)=   1.889726  celldm(2)=   0.000000  celldm(3)=   0.000000
     celldm(4)=   0.000000  celldm(5)=   0.000000  celldm(6)=   0.000000

     crystal axes: (cart. coord. in units of alat)
               a(1) = (   6.579727   0.000000   0.000000 )
               a(2) = (  -0.000775   5.961596   0.000000 )
               a(3) = (   0.000000   0.000000  25.155947 )

     reciprocal axes: (cart. coord. in units 2 pi/alat)
               b(1) = (  0.151982  0.000020  0.000000 )
               b(2) = (  0.000000  0.167740  0.000000 )
               b(3) = (  0.000000  0.000000  0.039752 )

     PseudoPot. # 1 for Ti read from file:
     /storage/coda1/p-amedford6/0/shared/rich_project_chbe-medford/medford-share/data/pseudos_module/espresso/nninc/pbe/van/Ti.UPF
     MD5 check sum: 8e4df49b7f0d34bbd5052bf3f5ea0213
     Pseudo is Ultrasoft, Zval = 12.0
     Generated by new atomic code, or converted to UPF format
     Using radial grid of  851 points,  6 beta functions with:
                l(1) =   0
                l(2) =   0
                l(3) =   1
                l(4) =   1
                l(5) =   2
                l(6) =   2
     Q(r) pseudized with  8 coefficients,  rinner =    1.000   1.000   1.000
                                                       1.000   1.000

     PseudoPot. # 2 for O  read from file:
     /storage/coda1/p-amedford6/0/shared/rich_project_chbe-medford/medford-share/data/pseudos_module/espresso/nninc/pbe/van/O.UPF
     MD5 check sum: 78c19812648e8988a0fe644b0f25305e
     Pseudo is Ultrasoft, Zval =  6.0
     Generated by new atomic code, or converted to UPF format
     Using radial grid of  737 points,  4 beta functions with:
                l(1) =   0
                l(2) =   0
                l(3) =   1
                l(4) =   1
     Q(r) pseudized with  8 coefficients,  rinner =    0.800   0.800   0.800

     PseudoPot. # 3 for N  read from file:
     /storage/coda1/p-amedford6/0/shared/rich_project_chbe-medford/medford-share/data/pseudos_module/espresso/nninc/pbe/van/N.UPF
     MD5 check sum: 90d10febe142ad51ac9d5be1deb811c4
     Pseudo is Ultrasoft, Zval =  5.0
     Generated by new atomic code, or converted to UPF format
     Using radial grid of  729 points,  4 beta functions with:
                l(1) =   0
                l(2) =   0
                l(3) =   1
                l(4) =   1
     Q(r) pseudized with  8 coefficients,  rinner =    0.800   0.800   0.800

     PseudoPot. # 4 for C  read from file:
     /storage/coda1/p-amedford6/0/shared/rich_project_chbe-medford/medford-share/data/pseudos_module/espresso/nninc/pbe/van/C.UPF
     MD5 check sum: 1a69bf6b8db32088f5b2163dbdb77a27
     Pseudo is Ultrasoft, Zval =  4.0
     Generated by new atomic code, or converted to UPF format
     Using radial grid of  721 points,  4 beta functions with:
                l(1) =   0
                l(2) =   0
                l(3) =   1
                l(4) =   1
     Q(r) pseudized with  8 coefficients,  rinner =    0.800   0.800   0.800

     PseudoPot. # 5 for H  read from file:
     /storage/coda1/p-amedford6/0/shared/rich_project_chbe-medford/medford-share/data/pseudos_module/espresso/nninc/pbe/van/H.UPF
     MD5 check sum: b5ee9d7bfd3a09ee7748110bda690ff7
     Pseudo is Ultrasoft, Zval =  1.0
     Generated by new atomic code, or converted to UPF format
     Using radial grid of  615 points,  1 beta functions with:
                l(1) =   0
     Q(r) pseudized with  8 coefficients,  rinner =    0.800

     atomic species   valence    mass     pseudopotential
        Ti1           12.00    47.86700     Ti( 1.00)
        O1             6.00    15.99900     O ( 1.00)
        N1             5.00    14.00700     N ( 1.00)
        C1             4.00    12.01100     C ( 1.00)
        H1             1.00     1.00800     H ( 1.00)

     No symmetry found

   Cartesian axes

     site n.     atom                  positions (alat units)
         1           Ti1 tau(   1) = (   0.0004258   2.9801865   6.0000000  )
         2           Ti1 tau(   2) = (   3.2906075   1.4906267   6.0002472  )
         3           O1  tau(   3) = (   0.0006271   0.0005054   7.9858123  )
         4           O1  tau(   4) = (   3.2906025   0.0005020   7.3038282  )
         5           O1  tau(   5) = (   4.5942328   1.4918067   9.2879030  )
         6           O1  tau(   6) = (   1.9868534   1.4903216   9.2879459  )
         7           Ti1 tau(   7) = (   3.2907910   2.8959150   9.1758416  )
         8           Ti1 tau(   8) = (   0.0015273   1.4827037   9.2680791  )
         9           O1  tau(   9) = (   3.2944872   5.9444814  11.3088555  )
        10           O1  tau(  10) = (   0.0116148   5.9584955  10.6183126  )
        11           O1  tau(  11) = (   1.2913257   1.4757505  12.6225222  )
        12           O1  tau(  12) = (   5.2743172   1.4729811  12.6021195  )
        13           Ti1 tau(  13) = (   0.0890023   2.9564894  12.7220187  )
        14           Ti1 tau(  14) = (   3.4221593   1.4702301  12.4648352  )
        15           O1  tau(  15) = (   0.0068176   5.9411714  14.5947238  )
        16           O1  tau(  16) = (   3.2944910   5.9492763  13.8828731  )
        17           O1  tau(  17) = (   4.5250581   1.4982466  16.0456249  )
        18           O1  tau(  18) = (   2.0665045   1.4881935  16.0281199  )
        19           Ti1 tau(  19) = (   3.2778778   2.9684174  15.6871799  )
        20           Ti1 tau(  20) = (   6.5490154   1.5309925  16.0314916  )
        21           O1  tau(  21) = (   3.2904802   0.0005063   4.7018136  )
        22           O1  tau(  22) = (   0.0123181   0.0076990  17.1679072  )
        23           O1  tau(  23) = (   1.3043587   1.4918075   6.0039043  )
        24           O1  tau(  24) = (   5.2767064   1.4903225   6.0039473  )
        25           Ti1 tau(  25) = (   0.0000382   5.9609847   6.0000000  )
        26           Ti1 tau(  26) = (   3.2902200   4.4714249   6.0002472  )
        27           O1  tau(  27) = (   0.0002396   2.9813036   7.9858123  )
        28           O1  tau(  28) = (   3.2902150   2.9813002   7.3038282  )
        29           O1  tau(  29) = (   4.5938453   4.4726049   9.2879030  )
        30           O1  tau(  30) = (   1.9864658   4.4711199   9.2879459  )
        31           Ti1 tau(  31) = (   3.2891106   5.8743827   9.1763621  )
        32           Ti1 tau(  32) = (   0.0006254   4.4649316   9.2693709  )
        33           O1  tau(  33) = (   3.2980042   2.9668427  11.3079272  )
        34           O1  tau(  34) = (   0.0092240   2.9805883  10.6323155  )
        35           O1  tau(  35) = (   1.2899229   4.4488879  12.6271902  )
        36           O1  tau(  36) = (   5.2743549   4.4545148  12.6090941  )
        37           Ti1 tau(  37) = (   0.1039690   5.9375691  12.6739196  )
        38           Ti1 tau(  38) = (   3.4213609   4.4493060  12.4702176  )
        39           O1  tau(  39) = (   6.5648181   2.9459624  14.6378081  )
        40           O1  tau(  40) = (   3.2943236   2.9658899  13.8785053  )
        41           O1  tau(  41) = (   4.5287159   4.4634493  16.0515226  )
        42           O1  tau(  42) = (   2.0597896   4.4749507  16.0164256  )
        43           Ti1 tau(  43) = (   3.2714021   5.9517381  15.6902239  )
        44           Ti1 tau(  44) = (   6.5616293   4.5902425  16.0297769  )
        45           O1  tau(  45) = (   3.2900926   2.9813045   4.7018136  )
        46           O1  tau(  46) = (   1.3039711   4.4726057   6.0039043  )
        47           O1  tau(  47) = (   5.2763189   4.4711207   6.0039473  )
        48           N1  tau(  48) = (   0.6459789   3.0609845  18.5091170  )
        49           N1  tau(  49) = (   0.0956274   2.9759187  17.3381616  )
        50           C1  tau(  50) = (   0.0579326   3.2697647  19.6266723  )
        51           H1  tau(  51) = (   5.5568954   3.3836083  19.7010695  )
        52           H1  tau(  52) = (   0.6727643   3.3388843  20.5134281  )

     number of k points=    10  Fermi-Dirac smearing, width (Ry)=  0.0073
                       cart. coord. in units 2pi/alat
        k(    1) = (   0.0000000   0.0000000   0.0000000), wk =   0.1250000
        k(    2) = (   0.0000000   0.0419351   0.0000000), wk =   0.2500000
        k(    3) = (   0.0000000  -0.0838702   0.0000000), wk =   0.1250000
        k(    4) = (   0.0379955   0.0000049   0.0000000), wk =   0.2500000
        k(    5) = (   0.0379955   0.0419400   0.0000000), wk =   0.2500000
        k(    6) = (   0.0379955  -0.0838652   0.0000000), wk =   0.2500000
        k(    7) = (   0.0379955  -0.0419301   0.0000000), wk =   0.2500000
        k(    8) = (  -0.0759910  -0.0000099   0.0000000), wk =   0.1250000
        k(    9) = (  -0.0759910   0.0419252   0.0000000), wk =   0.2500000
        k(   10) = (  -0.0759910  -0.0838800   0.0000000), wk =   0.1250000

     Initial potential from superposition of free atoms

     starting charge  377.99917, renormalised to  394.00000

     negative rho (up, down):  1.508E-02 0.000E+00

     %%%%%%%%%%%%%%%%%%%%%%%%%%%%%%%%%%%%%%%%%%%%%%%%%%%%%%%%%%%%%%%%%%%%%%%%
     %                                                                      %
     % You are using vdW-DF, which was implemented by the Thonhauser group. %
     % Please cite the following two papers that made this development      %
     % possible and the two reviews that describe the various versions:     %
     %                                                                      %
     %   T. Thonhauser et al., PRL 115, 136402 (2015).                      %
     %   T. Thonhauser et al., PRB 76, 125112 (2007).                       %
     %   K. Berland et al., Rep. Prog. Phys. 78, 066501 (2015).             %
     %   D.C. Langreth et al., J. Phys.: Condens. Matter 21, 084203 (2009). %
     %                                                                      %
     %                                                                      %
     % If you are calculating the stress with vdW-DF, please also cite:     %
     %                                                                      %
     %   R. Sabatini et al., J. Phys.: Condens. Matter 24, 424209 (2012).   %
     %                                                                      %
     %%%%%%%%%%%%%%%%%%%%%%%%%%%%%%%%%%%%%%%%%%%%%%%%%%%%%%%%%%%%%%%%%%%%%%%%

     Adding external electric field

     Computed dipole along edir(3) :
        Dipole               -7.6437 Ry au,        -19.4284 Debye
        Dipole field         -0.0144 Ry au,

        Potential amp.        1.3372 Ry
        Total length         46.3494 bohr

     Starting wfcs are  298 atomic wfcs
  @ DRIVER MODE: Message from server: STATUS
  @ DRIVER MODE: Message from server: POSDATA
  @ DRIVER MODE: Reading and sharing cell
  @ DRIVER MODE: Reading and sharing positions
  @ DRIVER MODE: Received positions

     Self-consistent Calculation

     iteration #  1     ecut=    29.40 Ry     beta= 0.05
     Davidson diagonalization with overlap
     c_bands:  1 eigenvalues not converged
     c_bands:  1 eigenvalues not converged
     c_bands:  1 eigenvalues not converged
     c_bands:  1 eigenvalues not converged
     c_bands:  1 eigenvalues not converged
     c_bands:  1 eigenvalues not converged
     ethr =  1.00E-05,  avg # of iterations = 18.6

[...]

     total energy              =   -2699.58356177 Ry
     estimated scf accuracy    <    2638.56897108 Ry

[...]

     iteration #  3     ecut=    29.40 Ry     beta= 0.05
     Davidson diagonalization with overlap
     ethr =  1.00E-02,  avg # of iterations = 15.1

[...]

     iteration # 65     ecut=    29.40 Ry     beta= 0.05
     Davidson diagonalization with overlap
     c_bands:  1 eigenvalues not converged
     ethr =  2.24E-09,  avg # of iterations =  8.1

[...]

     total energy              =   -2937.89155706 Ry
     estimated scf accuracy    <       0.00000023 Ry

     iteration # 83     ecut=    29.40 Ry     beta= 0.05
     Davidson diagonalization with overlap
     ethr =  2.42E-11,  avg # of iterations =  6.1

     negative rho (up, down):  1.607E-02 0.000E+00

     Adding external electric field

     Computed dipole along edir(3) :
        Dipole                0.5202 Ry au,          1.3221 Debye
        Dipole field          0.0010 Ry au,

        Potential amp.       -0.0910 Ry
        Total length         46.3494 bohr

     End of self-consistent calculation

          k = 0.0000 0.0000 0.0000 ( 18029 PWs)   bands (ev):

   -56.3147 -56.2808 -55.8952 -55.8924 -55.8593 -55.8585 -55.8299 -55.7962
   -55.6776 -55.6689 -55.6381 -55.6323 -55.1630 -55.1367 -55.1290 -55.0594
   -32.7706 -32.6068 -32.5796 -32.4736 -32.4365 -32.3941 -32.3804 -32.3574
   -32.3163 -32.1933 -32.1801 -32.1498 -32.1409 -32.1180 -32.1076 -32.0773
   -32.0617 -32.0609 -32.0581 -32.0311 -32.0267 -32.0228 -32.0212 -32.0083
   -31.9957 -31.9924 -31.9818 -31.9401 -31.9120 -31.9078 -31.8436 -31.8297
   -31.8142 -31.8022 -31.7876 -31.7419 -31.6625 -31.5647 -31.4898 -31.4666
   -31.3897 -31.3820 -31.3473 -31.3138 -31.2963 -31.2616 -31.1865 -31.1853
   -17.7318 -16.6870 -16.5306 -16.2521 -16.0265 -15.9992 -15.8625 -15.8292
   -15.8050 -15.7771 -15.6567 -15.6166 -15.5791 -15.4623 -15.4194 -15.4071
   -15.3897 -15.3702 -15.3643 -15.2757 -15.2523 -15.2355 -15.1838 -15.0890
   -15.0578 -15.0164 -14.8748 -14.8580 -14.7614 -14.5009 -13.6638 -13.5499
   -11.9289  -6.6367  -4.6193  -4.1551  -4.0829  -4.0184  -3.8656  -3.7825
    -3.5955  -3.5615  -3.4678  -3.2401  -3.1548  -3.1458  -3.0700  -3.0455
    -3.0350  -2.9430  -2.8759  -2.8444  -2.8220  -2.8002  -2.7427  -2.6647
    -2.6188  -2.5859  -2.5668  -2.5341  -2.4281  -2.3724  -2.3568  -2.3330
    -2.2744  -2.2592  -2.2353  -2.2307  -2.1946  -2.1824  -2.1024  -2.0688
    -1.9456  -1.8721  -1.7485  -1.7412  -1.6695  -1.6505  -1.6261  -1.4272
    -1.4025  -1.3276  -1.2929  -1.2369  -1.2106  -1.1574  -1.0953  -1.0613
    -0.9641  -0.9366  -0.9063  -0.8714  -0.8492  -0.8193  -0.7997  -0.7402
    -0.6924  -0.5170  -0.4751  -0.4415  -0.3460  -0.3317  -0.3013  -0.2630
    -0.2483  -0.1964  -0.1905  -0.1768  -0.1186  -0.1045  -0.0193   0.0476
     0.0537   0.1028   0.1773   0.2397   0.2760   0.3939   0.4426   0.5099
     0.6056   0.6138   0.6746   0.8247   0.8387   0.8588   0.8628   1.0711
     1.3188   1.4208   1.4627   1.5658   2.7689   2.9059   3.0149   3.2109
     3.3273   3.3466   3.5228   3.6633   3.7005   3.7550   3.7621

[...]

          k = 0.0380-0.0419 0.0000 ( 17876 PWs)   bands (ev):

[...]

          k =-0.0760-0.0000 0.0000 ( 17886 PWs)   bands (ev):

[...]

          k =-0.0760-0.0839 0.0000 ( 17948 PWs)   bands (ev):

   -56.2979 -56.2975 -55.8795 -55.8778 -55.8748 -55.8728 -55.8140 -55.8121
   -55.6671 -55.6565 -55.6485 -55.6446 -55.1460 -55.1459 -55.1326 -55.0634
   -32.5926 -32.5921 -32.5864 -32.5862 -32.4252 -32.4248 -32.2434 -32.2395
   -32.1829 -32.1773 -32.1546 -32.1525 -32.1360 -32.1331 -32.0930 -32.0892
   -32.0674 -32.0617 -32.0552 -32.0529 -32.0420 -32.0405 -32.0270 -32.0260
   -32.0151 -32.0019 -31.9815 -31.9726 -31.9466 -31.9358 -31.8870 -31.8806
   -31.8730 -31.8477 -31.8159 -31.8122 -31.5516 -31.4794 -31.4793 -31.4063
   -31.3784 -31.3782 -31.3587 -31.3424 -31.3393 -31.3392 -31.2690 -31.2440
   -17.7259 -16.0469 -16.0447 -16.0404 -16.0340 -15.9161 -15.9140 -15.7572
   -15.7551 -15.7292 -15.7238 -15.5785 -15.5551 -15.5138 -15.5129 -15.4729
   -15.4630 -15.3942 -15.3914 -15.3825 -15.3766 -15.3617 -15.3571 -15.3125
   -15.2712 -15.0330 -14.9602 -14.9003 -14.7853 -14.6913 -13.6524 -13.6523
   -11.9332  -6.6311  -4.5588  -4.0779  -3.3372  -3.3326  -3.1691  -3.1514
    -3.0973  -3.0961  -3.0153  -2.9720  -2.9708  -2.8555  -2.8333  -2.7923
    -2.7888  -2.7747  -2.7721  -2.7384  -2.7325  -2.7107  -2.7042  -2.6485
    -2.6336  -2.6268  -2.6217  -2.5485  -2.5051  -2.4768  -2.4440  -2.4101
    -2.3812  -2.2898  -2.2862  -2.2492  -2.2277  -2.1685  -2.1648  -2.1111
    -2.0757  -2.0085  -1.9990  -1.7871  -1.7410  -1.7317  -1.6811  -1.5948
    -1.5725  -1.4274  -1.3961  -1.3343  -1.3215  -1.2718  -1.2539  -1.2449
    -1.1579  -1.1501  -1.1415  -1.0651  -1.0573  -0.9962  -0.9598  -0.9272
    -0.8428  -0.8287  -0.7896  -0.7871  -0.7771  -0.7095  -0.6628  -0.5910
    -0.5427  -0.5293  -0.4103  -0.3612  -0.2944  -0.2317  -0.1887  -0.0857
    -0.0425  -0.0329   0.1766   0.1873   0.2321   0.3228   0.4434   0.4446
     0.4830   0.5745   0.5965   0.6219   0.6387   0.8361   0.9094   1.2384
     1.2396   1.2794   1.2798   1.5295   2.7280   3.4305   3.4313   3.4564
     3.4568   3.5933   3.6171   3.6535   3.6626   3.7457   3.7495

     the Fermi energy is     2.8553 ev

!    total energy              =   -2937.89156130 Ry
     estimated scf accuracy    <       0.00000004 Ry
     smearing contrib. (-TS)   =      -0.01395746 Ry
     internal energy E=F+TS    =   -2937.87760383 Ry

     The total energy is F=E-TS. E is the sum of the following terms:
     one-electron contribution =  -24293.97597114 Ry
     hartree contribution      =   12233.33005406 Ry
     xc contribution           =    -484.31340081 Ry
     ewald contribution        =    9607.08120347 Ry
     electric field correction =       0.00051058 Ry

     convergence has been achieved in  83 iterations

     Forces acting on atoms (cartesian axes, Ry/au):

     atom    1 type  1   force =     0.00011021   -0.00021062    0.10741224
     atom    2 type  1   force =    -0.00012137   -0.00062412   -0.16930392
     atom    3 type  2   force =    -0.00016046    0.00000552   -0.04193154
     atom    4 type  2   force =     0.00005562   -0.00093427    0.04203519
     atom    5 type  2   force =    -0.01490607    0.00022137   -0.00301909
     atom    6 type  2   force =     0.01654114    0.00103699   -0.00399675
     atom    7 type  1   force =    -0.00113274   -0.00213202    0.00240615
     atom    8 type  1   force =     0.00131870    0.00452599    0.07558558
     atom    9 type  2   force =     0.00004254    0.00011043    0.00044142
     atom   10 type  2   force =    -0.00132397    0.00009843   -0.04721830
     atom   11 type  2   force =    -0.00046947    0.00032017    0.00024024
     atom   12 type  2   force =    -0.00007562    0.00050156    0.00014927
     atom   13 type  1   force =     0.00044953   -0.00041461    0.00070094
     atom   14 type  1   force =    -0.00014338   -0.00011914   -0.00006111
     atom   15 type  2   force =    -0.00022747   -0.00022452    0.00018161
     atom   16 type  2   force =     0.00019628    0.00024352   -0.00016598
     atom   17 type  2   force =     0.00011110    0.00050083    0.00031140
     atom   18 type  2   force =    -0.00039096   -0.00005523   -0.00029554
     atom   19 type  1   force =     0.00017504    0.00076168   -0.00024993
     atom   20 type  1   force =     0.00020323    0.00005822    0.00008538
     atom   21 type  2   force =     0.00007103    0.00003925    0.10166714
     atom   22 type  2   force =    -0.00042361    0.00041645    0.00010709
     atom   23 type  2   force =    -0.07421590   -0.00003424   -0.02982891
     atom   24 type  2   force =     0.07417149    0.00041813   -0.02983073
     atom   25 type  1   force =     0.00025542   -0.00034508    0.10691198
     atom   26 type  1   force =    -0.00002910   -0.00037374   -0.16938443
     atom   27 type  2   force =    -0.00004111   -0.00029211   -0.04087428
     atom   28 type  2   force =     0.00010996   -0.00073820    0.04200610
     atom   29 type  2   force =    -0.01521014    0.00063897   -0.00330775
     atom   30 type  2   force =     0.01677307    0.00101328   -0.00428152
     atom   31 type  1   force =    -0.00133267    0.00037914    0.00216207
     atom   32 type  1   force =     0.00130744   -0.00711237    0.07620959
     atom   33 type  2   force =    -0.00004893    0.00016791    0.00016750
     atom   34 type  2   force =    -0.00146309   -0.00007991   -0.05552176
     atom   35 type  2   force =     0.00000970    0.00006028    0.00012192
     atom   36 type  2   force =    -0.00003359    0.00021892   -0.00014230
     atom   37 type  1   force =     0.00021970    0.00027997    0.00040913
     atom   38 type  1   force =     0.00011588    0.00023152   -0.00030891
     atom   39 type  2   force =    -0.00022781   -0.00004057   -0.00061749
     atom   40 type  2   force =     0.00007835    0.00026531    0.00015872
     atom   41 type  2   force =    -0.00042733    0.00023720   -0.00042271
     atom   42 type  2   force =     0.00018145    0.00021377    0.00023545
     atom   43 type  1   force =    -0.00014402    0.00062067    0.00022749
     atom   44 type  1   force =    -0.00023399    0.00018591   -0.00007695
     atom   45 type  2   force =     0.00006011   -0.00000095    0.10168062
     atom   46 type  2   force =    -0.07420684    0.00001593   -0.02979969
     atom   47 type  2   force =     0.07416176    0.00044746   -0.02982012
     atom   48 type  3   force =     0.00057030    0.00134832    0.00007654
     atom   49 type  3   force =     0.00013955   -0.00071321   -0.00084294
     atom   50 type  4   force =     0.00057777   -0.00024838    0.00130465
     atom   51 type  5   force =     0.00015542    0.00012696   -0.00062989
     atom   52 type  5   force =    -0.00117212   -0.00101676   -0.00106285

     Total force =     0.389287     Total SCF correction =     0.000590
  @ DRIVER MODE: Message from server: STATUS
  @ DRIVER MODE: Message from server: GETFORCE
  @ DRIVER MODE: Returning v,forces,stress,ensemble

     Writing output data file ./calc.save/
  @ DRIVER MODE: Message from server: EXIT
  @ DRIVE MODE: Exiting

     General routines

     Parallel routines

   This run was terminated on:   2:18:56  24Aug2021

   JOB DONE.