     Program PWSCF v.6.7GPU starts on 22Sep2021 at 20:14:41

     R & G space division:  proc/nbgrp/npool/nimage =      10
     Reading input from /storage/home/hcoda1/3/ntian30/research/carbon/CxH_vib/H2O_calc/ads_slab/CHNHNHH2O_b/out_0013/pw.inp
Warning: card &CELL ignored
Warning: card   CELL_DYNAMICS='IPI', ignored
Warning: card / ignored

     Current dimensions of program PWSCF are:
     Max number of different atomic species (ntypx) = 10
     Max number of k-points (npk) =  40000
     Max angular momentum in pseudopotentials (lmaxx) =  3
     Presently no symmetry can be used with electric field

     Message from routine cell_base_init:
     DEPRECATED: use true lattice parameter, not A to a.u. conversion factor

     IMPORTANT: XC functional enforced from input :
     Exchange-correlation= BEEF-VDW
                           (   1   4  43  14   2   0   0)
     Any further DFT definition will be discarded
     Please, verify this is what you really want

  @ DRIVER MODE: Connecting to
 qe_1139763_2937311.sched-torque.pace.gatech.eduahae3581_scratch
  using UNIX socket
  @ DRIVER MODE: Message from server: STATUS
  @ DRIVER MODE: Message from server: INIT
  @ DRIVER MODE: Receiving replica           0          -1
  @ DRIVER MODE: Receiving encoded integer          25
  @ DRIVER MODE:  SCF:  T  FORCE:  T  STRESS:  F  VC:  F  ENSEMBLE:  F
  @ DRIVER MODE:  SCF:  T  FORCE:  T  STRESS:  F  VC:  F  ENSEMBLE:  F

     Using Slab Decomposition

     bravais-lattice index     =            0
     lattice parameter (alat)  =       1.8897  a.u.
     unit-cell volume          =    6658.9804 (a.u.)^3
     number of atoms/cell      =           56
     number of atomic types    =            5
     number of electrons       =       403.00
     number of Kohn-Sham states=          211
     kinetic-energy cutoff     =      29.3995  Ry
     charge density cutoff     =     293.9946  Ry
     scf convergence threshold =      7.3E-08
     mixing beta               =       0.0500
     number of iterations used =            8  plain     mixing
     Exchange-correlation= BEEF-VDW
                           (   1   4  43  14   2   0   0)

     celldm(1)=   1.889726  celldm(2)=   0.000000  celldm(3)=   0.000000
     celldm(4)=   0.000000  celldm(5)=   0.000000  celldm(6)=   0.000000

     crystal axes: (cart. coord. in units of alat)
               a(1) = (   6.579727   0.000000   0.000000 )
               a(2) = (  -0.000775   5.961596   0.000000 )
               a(3) = (   0.000000   0.000000  25.155947 )

     reciprocal axes: (cart. coord. in units 2 pi/alat)
               b(1) = (  0.151982  0.000020  0.000000 )
               b(2) = (  0.000000  0.167740  0.000000 )
               b(3) = (  0.000000  0.000000  0.039752 )

     PseudoPot. # 1 for Ti read from file:
     /storage/coda1/p-amedford6/0/shared/rich_project_chbe-medford/medford-share/data/pseudos_module/espresso/nninc/pbe/van/Ti.UPF
     MD5 check sum: 8e4df49b7f0d34bbd5052bf3f5ea0213
     Pseudo is Ultrasoft, Zval = 12.0
     Generated by new atomic code, or converted to UPF format
     Using radial grid of  851 points,  6 beta functions with:
                l(1) =   0
                l(2) =   0
                l(3) =   1
                l(4) =   1
                l(5) =   2
                l(6) =   2
     Q(r) pseudized with  8 coefficients,  rinner =    1.000   1.000   1.000
                                                       1.000   1.000

     PseudoPot. # 2 for O  read from file:
     /storage/coda1/p-amedford6/0/shared/rich_project_chbe-medford/medford-share/data/pseudos_module/espresso/nninc/pbe/van/O.UPF
     MD5 check sum: 78c19812648e8988a0fe644b0f25305e
     Pseudo is Ultrasoft, Zval =  6.0
     Generated by new atomic code, or converted to UPF format
     Using radial grid of  737 points,  4 beta functions with:
                l(1) =   0
                l(2) =   0
                l(3) =   1
                l(4) =   1
     Q(r) pseudized with  8 coefficients,  rinner =    0.800   0.800   0.800

     PseudoPot. # 3 for N  read from file:
     /storage/coda1/p-amedford6/0/shared/rich_project_chbe-medford/medford-share/data/pseudos_module/espresso/nninc/pbe/van/N.UPF
     MD5 check sum: 90d10febe142ad51ac9d5be1deb811c4
     Pseudo is Ultrasoft, Zval =  5.0
     Generated by new atomic code, or converted to UPF format
     Using radial grid of  729 points,  4 beta functions with:
                l(1) =   0
                l(2) =   0
                l(3) =   1
                l(4) =   1
     Q(r) pseudized with  8 coefficients,  rinner =    0.800   0.800   0.800

     PseudoPot. # 4 for C  read from file:
     /storage/coda1/p-amedford6/0/shared/rich_project_chbe-medford/medford-share/data/pseudos_module/espresso/nninc/pbe/van/C.UPF
     MD5 check sum: 1a69bf6b8db32088f5b2163dbdb77a27
     Pseudo is Ultrasoft, Zval =  4.0
     Generated by new atomic code, or converted to UPF format
     Using radial grid of  721 points,  4 beta functions with:
                l(1) =   0
                l(2) =   0
                l(3) =   1
                l(4) =   1
     Q(r) pseudized with  8 coefficients,  rinner =    0.800   0.800   0.800

     PseudoPot. # 5 for H  read from file:
     /storage/coda1/p-amedford6/0/shared/rich_project_chbe-medford/medford-share/data/pseudos_module/espresso/nninc/pbe/van/H.UPF
     MD5 check sum: b5ee9d7bfd3a09ee7748110bda690ff7
     Pseudo is Ultrasoft, Zval =  1.0
     Generated by new atomic code, or converted to UPF format
     Using radial grid of  615 points,  1 beta functions with:
                l(1) =   0
     Q(r) pseudized with  8 coefficients,  rinner =    0.800

     atomic species   valence    mass     pseudopotential
        Ti1           12.00    47.86700     Ti( 1.00)
        O1             6.00    15.99900     O ( 1.00)
        N1             5.00    14.00700     N ( 1.00)
        C1             4.00    12.01100     C ( 1.00)
        H1             1.00     1.00800     H ( 1.00)

     No symmetry found

   Cartesian axes

     site n.     atom                  positions (alat units)
         1           Ti1 tau(   1) = (   0.0004258   2.9801865   6.0000000  )
         2           Ti1 tau(   2) = (   3.2906075   1.4906267   6.0002472  )
         3           O1  tau(   3) = (   0.0006271   0.0005054   7.9858123  )
         4           O1  tau(   4) = (   3.2906025   0.0005020   7.3038282  )
         5           O1  tau(   5) = (   4.5942328   1.4918067   9.2879030  )
         6           O1  tau(   6) = (   1.9868534   1.4903216   9.2879459  )
         7           Ti1 tau(   7) = (   3.2907910   2.8959150   9.1758416  )
         8           Ti1 tau(   8) = (   0.0015273   1.4827037   9.2680791  )
         9           O1  tau(   9) = (   3.2780774   5.9605562  11.3537357  )
        10           O1  tau(  10) = (   0.0116148   5.9584955  10.6183126  )
        11           O1  tau(  11) = (   1.2922713   1.4781662  12.6511241  )
        12           O1  tau(  12) = (   5.2965393   1.5043564  12.6031353  )
        13           Ti1 tau(  13) = (   6.5273184   3.0207086  12.5807821  )
        14           Ti1 tau(  14) = (   3.2344070   1.4559942  12.5004267  )
        15           O1  tau(  15) = (   6.4759410   0.0295824  14.6525783  )
        16           O1  tau(  16) = (   3.3604338   0.0238249  13.9383540  )
        17           O1  tau(  17) = (   4.5324113   1.5808541  16.1066768  )
        18           O1  tau(  18) = (   1.9684897   1.4712893  15.8817925  )
        19           Ti1 tau(  19) = (   3.2566353   3.0739815  15.8599551  )
        20           Ti1 tau(  20) = (   6.5466614   1.5318677  15.7800735  )
        21           O1  tau(  21) = (   3.2904802   0.0005063   4.7018136  )
        22           O1  tau(  22) = (   6.5744325   0.0155309  17.2227980  )
        23           O1  tau(  23) = (   1.3043587   1.4918075   6.0039043  )
        24           O1  tau(  24) = (   5.2767064   1.4903225   6.0039473  )
        25           Ti1 tau(  25) = (   0.0000382   5.9609847   6.0000000  )
        26           Ti1 tau(  26) = (   3.2902200   4.4714249   6.0002472  )
        27           O1  tau(  27) = (   0.0002396   2.9813036   7.9858123  )
        28           O1  tau(  28) = (   3.2902150   2.9813002   7.3038282  )
        29           O1  tau(  29) = (   4.5938453   4.4726049   9.2879030  )
        30           O1  tau(  30) = (   1.9864658   4.4711199   9.2879459  )
        31           Ti1 tau(  31) = (   3.2891106   5.8743827   9.1763621  )
        32           Ti1 tau(  32) = (   0.0006254   4.4649316   9.2693709  )
        33           O1  tau(  33) = (   3.2727763   2.9788165  11.3438337  )
        34           O1  tau(  34) = (   0.0092240   2.9805883  10.6323155  )
        35           O1  tau(  35) = (   1.2865780   4.4896361  12.6556599  )
        36           O1  tau(  36) = (   5.2967437   4.4749066  12.6066920  )
        37           Ti1 tau(  37) = (   6.5467059   0.0356701  12.5108493  )
        38           Ti1 tau(  38) = (   3.2305653   4.4019604  12.5605372  )
        39           O1  tau(  39) = (   6.5199767   2.9846217  14.6905747  )
        40           O1  tau(  40) = (   3.2851694   3.0254550  13.9321539  )
        41           O1  tau(  41) = (   4.5310495   4.4602642  16.1636806  )
        42           O1  tau(  42) = (   1.9842988   4.5744318  15.9411167  )
        43           Ti1 tau(  43) = (   3.2691225   0.1036042  15.7405456  )
        44           Ti1 tau(  44) = (   6.5697781   4.6877429  16.0360384  )
        45           O1  tau(  45) = (   3.2900926   2.9813045   4.7018136  )
        46           O1  tau(  46) = (   1.3039711   4.4726057   6.0039043  )
        47           O1  tau(  47) = (   5.2763189   4.4711207   6.0039473  )
        48           N1  tau(  48) = (   1.2792381   2.8578196  18.3696018  )
        49           N1  tau(  49) = (   0.1888888   2.9646215  17.5057353  )
        50           C1  tau(  50) = (   2.5252320   2.9081513  18.0382144  )
        51           H1  tau(  51) = (   3.1442446   2.7411670  18.9317345  )
        52           H1  tau(  52) = (   1.0014291   2.6635404  19.3302151  )
        53           H1  tau(  53) = (   5.9397212   2.8571719  18.0851170  )
        54           O1  tau(  54) = (   3.2630597   0.0341043  18.2348460  )
        55           H1  tau(  55) = (   4.0455299   5.4198958  18.2485053  )
        56           H1  tau(  56) = (   2.4923979   5.4091459  18.3156537  )

     number of k points=    10  Fermi-Dirac smearing, width (Ry)=  0.0073
                       cart. coord. in units 2pi/alat
        k(    1) = (   0.0000000   0.0000000   0.0000000), wk =   0.1250000
        k(    2) = (   0.0000000   0.0419351   0.0000000), wk =   0.2500000
        k(    3) = (   0.0000000  -0.0838702   0.0000000), wk =   0.1250000
        k(    4) = (   0.0379955   0.0000049   0.0000000), wk =   0.2500000
        k(    5) = (   0.0379955   0.0419400   0.0000000), wk =   0.2500000
        k(    6) = (   0.0379955  -0.0838652   0.0000000), wk =   0.2500000
        k(    7) = (   0.0379955  -0.0419301   0.0000000), wk =   0.2500000
        k(    8) = (  -0.0759910  -0.0000099   0.0000000), wk =   0.1250000
        k(    9) = (  -0.0759910   0.0419252   0.0000000), wk =   0.2500000
        k(   10) = (  -0.0759910  -0.0838800   0.0000000), wk =   0.1250000

     Initial potential from superposition of free atoms

     starting charge  386.99914, renormalised to  403.00000

     negative rho (up, down):  1.739E-02 0.000E+00

     %%%%%%%%%%%%%%%%%%%%%%%%%%%%%%%%%%%%%%%%%%%%%%%%%%%%%%%%%%%%%%%%%%%%%%%%
     %                                                                      %
     % You are using vdW-DF, which was implemented by the Thonhauser group. %
     % Please cite the following two papers that made this development      %
     % possible and the two reviews that describe the various versions:     %
     %                                                                      %
     %   T. Thonhauser et al., PRL 115, 136402 (2015).                      %
     %   T. Thonhauser et al., PRB 76, 125112 (2007).                       %
     %   K. Berland et al., Rep. Prog. Phys. 78, 066501 (2015).             %
     %   D.C. Langreth et al., J. Phys.: Condens. Matter 21, 084203 (2009). %
     %                                                                      %
     %                                                                      %
     % If you are calculating the stress with vdW-DF, please also cite:     %
     %                                                                      %
     %   R. Sabatini et al., J. Phys.: Condens. Matter 24, 424209 (2012).   %
     %                                                                      %
     %%%%%%%%%%%%%%%%%%%%%%%%%%%%%%%%%%%%%%%%%%%%%%%%%%%%%%%%%%%%%%%%%%%%%%%%

     Adding external electric field

     Computed dipole along edir(3) :
        Dipole              -12.3463 Ry au,        -31.3811 Debye
        Dipole field         -0.0233 Ry au,

        Potential amp.        2.1598 Ry
        Total length         46.3494 bohr

     Starting wfcs are  305 atomic wfcs
  @ DRIVER MODE: Message from server: STATUS
  @ DRIVER MODE: Message from server: POSDATA
  @ DRIVER MODE: Reading and sharing cell
  @ DRIVER MODE: Reading and sharing positions
  @ DRIVER MODE: Received positions

     Self-consistent Calculation

     iteration #  1     ecut=    29.40 Ry     beta= 0.05
     Davidson diagonalization with overlap
     c_bands:  5 eigenvalues not converged
     c_bands:  3 eigenvalues not converged
     c_bands:  3 eigenvalues not converged
     c_bands:  1 eigenvalues not converged
     c_bands:  2 eigenvalues not converged
     c_bands:  2 eigenvalues not converged
     c_bands:  5 eigenvalues not converged
     c_bands:  2 eigenvalues not converged
     c_bands:  4 eigenvalues not converged
     ethr =  1.00E-05,  avg # of iterations = 29.3

[...]

     total energy              =   -2358.71493441 Ry
     estimated scf accuracy    <    6971.19377065 Ry

     iteration #  2     ecut=    29.40 Ry     beta= 0.05
     Davidson diagonalization with overlap
     ethr =  1.00E-02,  avg # of iterations = 27.0

[...]

     iteration # 63     ecut=    29.40 Ry     beta= 0.05
     Davidson diagonalization with overlap
     c_bands:  1 eigenvalues not converged
     c_bands:  3 eigenvalues not converged
     ethr =  5.86E-11,  avg # of iterations = 11.2

[...]

     total energy              =   -2973.93987552 Ry
     estimated scf accuracy    <       0.00000014 Ry

     iteration # 66     ecut=    29.40 Ry     beta= 0.05
     Davidson diagonalization with overlap
     ethr =  3.50E-11,  avg # of iterations =  8.9

     negative rho (up, down):  1.724E-02 0.000E+00

     Adding external electric field

     Computed dipole along edir(3) :
        Dipole                1.4021 Ry au,          3.5637 Debye
        Dipole field          0.0026 Ry au,

        Potential amp.       -0.2453 Ry
        Total length         46.3494 bohr

     End of self-consistent calculation

          k = 0.0000 0.0000 0.0000 ( 18029 PWs)   bands (ev):

   -55.3177 -55.2836 -55.2088 -55.1846 -55.1657 -55.1539 -55.1384 -55.1167
   -55.1048 -55.1046 -55.0957 -55.0611 -54.9908 -54.8327 -54.2980 -54.2640
   -31.8019 -31.7297 -31.6563 -31.6483 -31.6382 -31.6096 -31.5853 -31.5628
   -31.5186 -31.4997 -31.4701 -31.4624 -31.4542 -31.4398 -31.4238 -31.4195
   -31.3964 -31.3787 -31.3750 -31.3634 -31.3351 -31.3311 -31.3271 -31.3242
   -31.3216 -31.3174 -31.3133 -31.2953 -31.2872 -31.2772 -31.2716 -31.2704
   -31.2621 -31.2590 -31.2501 -31.2462 -31.2387 -31.2135 -31.2082 -31.0888
   -31.0740 -31.0482 -30.7049 -30.6168 -30.5944 -30.5219 -30.4354 -30.3241
   -18.8850 -18.6993 -15.9763 -15.7926 -15.6118 -15.4722 -15.3903 -15.1586
   -15.1003 -15.0619 -14.9811 -14.9586 -14.8571 -14.8391 -14.8375 -14.8187
   -14.8159 -14.7605 -14.7456 -14.7409 -14.6926 -14.6857 -14.6604 -14.6448
   -14.5933 -14.5137 -14.5060 -14.4585 -14.4134 -14.3668 -14.0220 -13.4546
   -12.7988 -12.6823  -8.8218  -7.2728  -6.6220  -4.3217  -3.8215  -3.3594
    -3.2837  -3.2475  -3.2224  -3.0873  -2.9705  -2.8722  -2.7555  -2.6705
    -2.5835  -2.4786  -2.4225  -2.3766  -2.3163  -2.2563  -2.2298  -2.1444
    -2.1246  -2.1047  -2.0835  -2.0560  -2.0270  -1.9914  -1.8675  -1.8570
    -1.7750  -1.7186  -1.6807  -1.6617  -1.6377  -1.6319  -1.5994  -1.5792
    -1.5703  -1.5592  -1.5574  -1.5226  -1.3835  -1.3584  -1.3305  -1.3090
    -1.1630  -1.0252  -0.9361  -0.9327  -0.8234  -0.7591  -0.7553  -0.7169
    -0.7014  -0.5991  -0.5137  -0.4775  -0.4526  -0.3724  -0.3154  -0.2613
    -0.2099  -0.1750  -0.1080  -0.0834  -0.0667  -0.0499   0.0170   0.0812
     0.1423   0.2274   0.2715   0.2957   0.3866   0.4009   0.4238   0.4884
     0.5193   0.5656   0.6013   0.6304   0.6542   0.6843   0.7093   0.7528
     0.7929   0.9165   0.9343   0.9633   0.9834   1.1587   1.2081   1.3189
     1.3421   1.4369   1.4869   1.6648   1.7259   1.8052   1.9178   2.2960
     2.3418   3.7915   3.9028   3.9370   3.9614   4.0007   4.0525   4.2592
     4.3320   4.3730   4.4317

[...]

          k = 0.0380-0.0419 0.0000 ( 17876 PWs)   bands (ev):

[...]

          k =-0.0760-0.0000 0.0000 ( 17886 PWs)   bands (ev):

[...]

          k =-0.0760-0.0839 0.0000 ( 17948 PWs)   bands (ev):

   -55.3008 -55.3003 -55.1994 -55.1811 -55.1744 -55.1425 -55.1285 -55.1216
   -55.1208 -55.1085 -55.0825 -55.0745 -54.9890 -54.8343 -54.2810 -54.2809
   -31.6174 -31.6170 -31.5952 -31.5949 -31.5640 -31.5321 -31.5010 -31.4885
   -31.4811 -31.4658 -31.4470 -31.4439 -31.4377 -31.4290 -31.4235 -31.4221
   -31.4203 -31.4199 -31.4149 -31.3995 -31.3886 -31.3744 -31.3647 -31.3617
   -31.3562 -31.3518 -31.3425 -31.3299 -31.3239 -31.3224 -31.3073 -31.2981
   -31.2948 -31.2941 -31.2924 -31.2896 -31.2619 -31.2321 -31.2182 -31.1450
   -31.0913 -31.0770 -30.6071 -30.6071 -30.5177 -30.5176 -30.4787 -30.4786
   -18.8719 -18.7083 -15.3535 -15.3187 -15.2807 -15.2529 -15.2370 -15.1162
   -15.1032 -15.0675 -15.0255 -15.0124 -14.9824 -14.9536 -14.9044 -14.8962
   -14.8618 -14.8420 -14.8028 -14.7765 -14.7569 -14.7526 -14.7360 -14.7142
   -14.6715 -14.6494 -14.6363 -14.6320 -14.5802 -14.4863 -14.2073 -13.4773
   -12.7841 -12.7840  -8.8182  -7.1984  -6.6231  -4.5319  -3.6113  -2.8657
    -2.6693  -2.6291  -2.5772  -2.4866  -2.4392  -2.3177  -2.3111  -2.2884
    -2.2429  -2.2300  -2.1894  -2.1490  -2.1430  -2.1149  -2.1029  -2.0580
    -2.0470  -2.0443  -2.0297  -1.9962  -1.9900  -1.9698  -1.9460  -1.9424
    -1.9324  -1.9158  -1.8828  -1.8756  -1.8488  -1.8299  -1.6790  -1.6058
    -1.5615  -1.4838  -1.4606  -1.4439  -1.4250  -1.3901  -1.3699  -1.3443
    -1.3156  -1.1709  -1.0313  -0.9948  -0.9701  -0.8724  -0.8565  -0.8372
    -0.7896  -0.7496  -0.7135  -0.6553  -0.6430  -0.6003  -0.5795  -0.4590
    -0.4218  -0.3224  -0.2863  -0.2848  -0.2667  -0.2518  -0.2354  -0.2091
    -0.1591  -0.0882  -0.0730  -0.0243  -0.0005   0.0021   0.0153   0.1600
     0.2319   0.2507   0.3527   0.3842   0.5597   0.7232   0.7358   0.8028
     0.8663   0.9205   0.9558   0.9952   1.0063   1.0709   1.0954   1.2024
     1.2113   1.2588   1.2709   1.3386   1.3562   2.0896   2.0913   2.1617
     2.1619   4.1545   4.1754   4.1990   4.2620   4.3062   4.3177   4.3549
     4.3586   4.4614   4.4773

     the Fermi energy is     3.8097 ev

!    total energy              =   -2973.93990510 Ry
     estimated scf accuracy    <       0.00000002 Ry
     smearing contrib. (-TS)   =      -0.02071773 Ry
     internal energy E=F+TS    =   -2973.91918737 Ry

     The total energy is F=E-TS. E is the sum of the following terms:
     one-electron contribution =  -24339.20377093 Ry
     hartree contribution      =   12267.32185243 Ry
     xc contribution           =    -494.12597489 Ry
     ewald contribution        =    9592.08499628 Ry
     electric field correction =       0.00370973 Ry

     convergence has been achieved in  66 iterations

     Forces acting on atoms (cartesian axes, Ry/au):

     atom    1 type  1   force =     0.00002554   -0.00009706    0.09506807
     atom    2 type  1   force =     0.00017762   -0.00069158   -0.17563688
     atom    3 type  2   force =     0.00008733   -0.00004721   -0.02293362
     atom    4 type  2   force =     0.00002070   -0.00143284    0.05289767
     atom    5 type  2   force =    -0.01000658   -0.00031291    0.00381352
     atom    6 type  2   force =     0.01112964    0.00020392    0.00206803
     atom    7 type  1   force =    -0.00021384    0.00178744   -0.00591306
     atom    8 type  1   force =     0.00081461    0.01008561    0.01603110
     atom    9 type  2   force =    -0.00016353    0.00086681    0.00036975
     atom   10 type  2   force =    -0.00227365    0.00217991   -0.01800179
     atom   11 type  2   force =     0.00024745   -0.00003224    0.00007934
     atom   12 type  2   force =    -0.00036099   -0.00017951    0.00056307
     atom   13 type  1   force =    -0.00002038    0.00124933    0.00016203
     atom   14 type  1   force =    -0.00012241    0.00002742   -0.00004680
     atom   15 type  2   force =     0.00008198    0.00020840   -0.00001564
     atom   16 type  2   force =    -0.00036074    0.00044304   -0.00023058
     atom   17 type  2   force =    -0.00030452   -0.00009823    0.00014147
     atom   18 type  2   force =    -0.00001984   -0.00020198    0.00027300
     atom   19 type  1   force =    -0.00112593    0.00021966   -0.00016316
     atom   20 type  1   force =    -0.00018004   -0.00000166    0.00023145
     atom   21 type  2   force =     0.00009095   -0.00008406    0.10318521
     atom   22 type  2   force =     0.00041454   -0.00000274    0.00061300
     atom   23 type  2   force =    -0.07160319   -0.00016669   -0.02757724
     atom   24 type  2   force =     0.07156055    0.00024735   -0.02762650
     atom   25 type  1   force =     0.00023959   -0.00039254    0.09518726
     atom   26 type  1   force =    -0.00004007   -0.00020001   -0.17580109
     atom   27 type  2   force =     0.00012079   -0.00012118   -0.02196064
     atom   28 type  2   force =     0.00001456   -0.00139732    0.05322826
     atom   29 type  2   force =    -0.01035102   -0.00022689    0.00365469
     atom   30 type  2   force =     0.01138817    0.00042455    0.00192184
     atom   31 type  1   force =    -0.00029808    0.00266560   -0.00011509
     atom   32 type  1   force =     0.00067359   -0.01114530    0.01690727
     atom   33 type  2   force =     0.00037459   -0.00026859    0.00005879
     atom   34 type  2   force =    -0.00033994    0.00144195   -0.01893036
     atom   35 type  2   force =     0.00000249   -0.00035230   -0.00016123
     atom   36 type  2   force =    -0.00001098   -0.00024860    0.00044130
     atom   37 type  1   force =    -0.00004455   -0.00122708    0.00033890
     atom   38 type  1   force =    -0.00039876    0.00098136   -0.00001739
     atom   39 type  2   force =     0.00009295    0.00008185    0.00009250
     atom   40 type  2   force =    -0.00051161   -0.00059278    0.00031285
     atom   41 type  2   force =     0.00006786   -0.00025106    0.00048470
     atom   42 type  2   force =    -0.00017470   -0.00008292   -0.00037097
     atom   43 type  1   force =    -0.00037539   -0.00019838    0.00029508
     atom   44 type  1   force =     0.00015278   -0.00044815    0.00026447
     atom   45 type  2   force =     0.00009885   -0.00010127    0.10320322
     atom   46 type  2   force =    -0.07158811   -0.00016840   -0.02757094
     atom   47 type  2   force =     0.07158832    0.00024446   -0.02758325
     atom   48 type  3   force =    -0.01621887   -0.00149276    0.00491060
     atom   49 type  3   force =    -0.00197549    0.00023088   -0.00081416
     atom   50 type  4   force =     0.02437925   -0.00038325    0.00087637
     atom   51 type  5   force =    -0.00414662    0.00051305   -0.00543540
     atom   52 type  5   force =    -0.00079182   -0.00106218   -0.00042441
     atom   53 type  5   force =     0.00012219   -0.00040502   -0.00065558
     atom   54 type  2   force =    -0.00014345    0.00096089    0.00000519
     atom   55 type  5   force =     0.00018160   -0.00022417   -0.00003142
     atom   56 type  5   force =     0.00001661   -0.00072463    0.00033719

     Total force =     0.366465     Total SCF correction =     0.000398
  @ DRIVER MODE: Message from server: STATUS
  @ DRIVER MODE: Message from server: GETFORCE
  @ DRIVER MODE: Returning v,forces,stress,ensemble

     Writing output data file ./calc.save/
  @ DRIVER MODE: Message from server: EXIT
  @ DRIVE MODE: Exiting

     General routines

     Parallel routines

   This run was terminated on:  20:34:24  22Sep2021

   JOB DONE.