     Program PWSCF v.6.7GPU starts on 17Jul2021 at  6:50:43

     R & G space division:  proc/nbgrp/npool/nimage =      16
     Reading input from /storage/home/hcoda1/3/ntian30/research/carbon/15Jul_vib/ads_slab/CH3NH2_a/out_0020/pw.inp
Warning: card &CELL ignored
Warning: card   CELL_DYNAMICS='IPI', ignored
Warning: card / ignored

     Current dimensions of program PWSCF are:
     Max number of different atomic species (ntypx) = 10
     Max number of k-points (npk) =  40000
     Max angular momentum in pseudopotentials (lmaxx) =  3
     Presently no symmetry can be used with electric field

     Message from routine cell_base_init:
     DEPRECATED: use true lattice parameter, not A to a.u. conversion factor

     IMPORTANT: XC functional enforced from input :
     Exchange-correlation= BEEF-VDW
                           (   1   4  43  14   2   0   0)
     Any further DFT definition will be discarded
     Please, verify this is what you really want

  @ DRIVER MODE: Connecting to
 qe_1139763_2351647.sched-torque.pace.gatech.edujmu2gi50_scratch
  using UNIX socket
  @ DRIVER MODE: Message from server: STATUS
  @ DRIVER MODE: Message from server: INIT
  @ DRIVER MODE: Receiving replica           0          -1
  @ DRIVER MODE: Receiving encoded integer          25
  @ DRIVER MODE:  SCF:  T  FORCE:  T  STRESS:  F  VC:  F  ENSEMBLE:  F
  @ DRIVER MODE:  SCF:  T  FORCE:  T  STRESS:  F  VC:  F  ENSEMBLE:  F

     Using Slab Decomposition

     bravais-lattice index     =            0
     lattice parameter (alat)  =       1.8897  a.u.
     unit-cell volume          =    6658.9804 (a.u.)^3
     number of atoms/cell      =           54
     number of atomic types    =            5
     number of electrons       =       392.00
     number of Kohn-Sham states=          206
     kinetic-energy cutoff     =      29.3995  Ry
     charge density cutoff     =     293.9946  Ry
     scf convergence threshold =      7.3E-08
     mixing beta               =       0.0500
     number of iterations used =            8  plain     mixing
     Exchange-correlation= BEEF-VDW
                           (   1   4  43  14   2   0   0)

     celldm(1)=   1.889726  celldm(2)=   0.000000  celldm(3)=   0.000000
     celldm(4)=   0.000000  celldm(5)=   0.000000  celldm(6)=   0.000000

     crystal axes: (cart. coord. in units of alat)
               a(1) = (   6.579727   0.000000   0.000000 )
               a(2) = (  -0.000775   5.961596   0.000000 )
               a(3) = (   0.000000   0.000000  25.155947 )

     reciprocal axes: (cart. coord. in units 2 pi/alat)
               b(1) = (  0.151982  0.000020  0.000000 )
               b(2) = (  0.000000  0.167740  0.000000 )
               b(3) = (  0.000000  0.000000  0.039752 )

     PseudoPot. # 1 for Ti read from file:
     /storage/coda1/p-amedford6/0/shared/rich_project_chbe-medford/medford-share/data/pseudos_module/espresso/nninc/pbe/van/Ti.UPF
     MD5 check sum: 8e4df49b7f0d34bbd5052bf3f5ea0213
     Pseudo is Ultrasoft, Zval = 12.0
     Generated by new atomic code, or converted to UPF format
     Using radial grid of  851 points,  6 beta functions with:
                l(1) =   0
                l(2) =   0
                l(3) =   1
                l(4) =   1
                l(5) =   2
                l(6) =   2
     Q(r) pseudized with  8 coefficients,  rinner =    1.000   1.000   1.000
                                                       1.000   1.000

     PseudoPot. # 2 for O  read from file:
     /storage/coda1/p-amedford6/0/shared/rich_project_chbe-medford/medford-share/data/pseudos_module/espresso/nninc/pbe/van/O.UPF
     MD5 check sum: 78c19812648e8988a0fe644b0f25305e
     Pseudo is Ultrasoft, Zval =  6.0
     Generated by new atomic code, or converted to UPF format
     Using radial grid of  737 points,  4 beta functions with:
                l(1) =   0
                l(2) =   0
                l(3) =   1
                l(4) =   1
     Q(r) pseudized with  8 coefficients,  rinner =    0.800   0.800   0.800

     PseudoPot. # 3 for H  read from file:
     /storage/coda1/p-amedford6/0/shared/rich_project_chbe-medford/medford-share/data/pseudos_module/espresso/nninc/pbe/van/H.UPF
     MD5 check sum: b5ee9d7bfd3a09ee7748110bda690ff7
     Pseudo is Ultrasoft, Zval =  1.0
     Generated by new atomic code, or converted to UPF format
     Using radial grid of  615 points,  1 beta functions with:
                l(1) =   0
     Q(r) pseudized with  8 coefficients,  rinner =    0.800

     PseudoPot. # 4 for N  read from file:
     /storage/coda1/p-amedford6/0/shared/rich_project_chbe-medford/medford-share/data/pseudos_module/espresso/nninc/pbe/van/N.UPF
     MD5 check sum: 90d10febe142ad51ac9d5be1deb811c4
     Pseudo is Ultrasoft, Zval =  5.0
     Generated by new atomic code, or converted to UPF format
     Using radial grid of  729 points,  4 beta functions with:
                l(1) =   0
                l(2) =   0
                l(3) =   1
                l(4) =   1
     Q(r) pseudized with  8 coefficients,  rinner =    0.800   0.800   0.800

     PseudoPot. # 5 for C  read from file:
     /storage/coda1/p-amedford6/0/shared/rich_project_chbe-medford/medford-share/data/pseudos_module/espresso/nninc/pbe/van/C.UPF
     MD5 check sum: 1a69bf6b8db32088f5b2163dbdb77a27
     Pseudo is Ultrasoft, Zval =  4.0
     Generated by new atomic code, or converted to UPF format
     Using radial grid of  721 points,  4 beta functions with:
                l(1) =   0
                l(2) =   0
                l(3) =   1
                l(4) =   1
     Q(r) pseudized with  8 coefficients,  rinner =    0.800   0.800   0.800

     atomic species   valence    mass     pseudopotential
        Ti1           12.00    47.86700     Ti( 1.00)
        O1             6.00    15.99900     O ( 1.00)
        H1             1.00     1.00800     H ( 1.00)
        N1             5.00    14.00700     N ( 1.00)
        C1             4.00    12.01100     C ( 1.00)

     Starting magnetic structure
     atomic species   magnetization
        Ti1          0.000
        O1           0.000
        H1           0.000
        N1           0.000
        C1           0.025

     No symmetry found

   Cartesian axes

     site n.     atom                  positions (alat units)
         1           Ti1 tau(   1) = (   0.0004258   2.9801865   6.0000000  )
         2           Ti1 tau(   2) = (   3.2906075   1.4906267   6.0002472  )
         3           O1  tau(   3) = (   0.0006271   0.0005054   7.9858123  )
         4           O1  tau(   4) = (   3.2906025   0.0005020   7.3038282  )
         5           O1  tau(   5) = (   4.5942328   1.4918067   9.2879030  )
         6           O1  tau(   6) = (   1.9868534   1.4903216   9.2879459  )
         7           Ti1 tau(   7) = (   3.2907910   2.8959150   9.1758416  )
         8           Ti1 tau(   8) = (   0.0015273   1.4827037   9.2680791  )
         9           O1  tau(   9) = (   3.2764298   0.0032354  11.3770789  )
        10           O1  tau(  10) = (   0.0116148   5.9584955  10.6183126  )
        11           O1  tau(  11) = (   1.2747638   1.4931710  12.6971893  )
        12           O1  tau(  12) = (   5.2817712   1.4903522  12.6806618  )
        13           Ti1 tau(  13) = (   6.5676529   2.9732189  12.5062122  )
        14           Ti1 tau(  14) = (   3.2766800   1.4809802  12.5336434  )
        15           O1  tau(  15) = (   6.5470194   5.8867849  14.7036171  )
        16           O1  tau(  16) = (   3.2776651   5.9556151  14.0032320  )
        17           O1  tau(  17) = (   4.5091997   1.5331545  16.1660716  )
        18           O1  tau(  18) = (   1.9944719   1.5276542  16.1393230  )
        19           Ti1 tau(  19) = (   3.2573122   3.0077756  15.7593658  )
        20           Ti1 tau(  20) = (   6.5589466   1.3143649  15.8680718  )
        21           O1  tau(  21) = (   3.2904802   0.0005063   4.7018136  )
        22           O1  tau(  22) = (   6.5386106   0.1512346  17.2501133  )
        23           O1  tau(  23) = (   1.3043587   1.4918075   6.0039043  )
        24           O1  tau(  24) = (   5.2767064   1.4903225   6.0039473  )
        25           Ti1 tau(  25) = (   0.0000382   5.9609847   6.0000000  )
        26           Ti1 tau(  26) = (   3.2902200   4.4714249   6.0002472  )
        27           O1  tau(  27) = (   0.0002396   2.9813036   7.9858123  )
        28           O1  tau(  28) = (   3.2902150   2.9813002   7.3038282  )
        29           O1  tau(  29) = (   4.5938453   4.4726049   9.2879030  )
        30           O1  tau(  30) = (   1.9864658   4.4711199   9.2879459  )
        31           Ti1 tau(  31) = (   3.2891106   5.8743827   9.1763621  )
        32           Ti1 tau(  32) = (   0.0006254   4.4649316   9.2693709  )
        33           O1  tau(  33) = (   3.2800745   2.9703478  11.3709363  )
        34           O1  tau(  34) = (   0.0092240   2.9805883  10.6323155  )
        35           O1  tau(  35) = (   1.2777299   4.4606407  12.6608526  )
        36           O1  tau(  36) = (   5.2778393   4.4632610  12.6460003  )
        37           Ti1 tau(  37) = (   6.5690533   5.9429793  12.5031582  )
        38           Ti1 tau(  38) = (   3.2786254   4.4589551  12.5214668  )
        39           O1  tau(  39) = (   6.5354733   3.0384833  14.9766919  )
        40           O1  tau(  40) = (   3.2791638   3.0036098  13.9700814  )
        41           O1  tau(  41) = (   4.4983502   4.4848413  16.2456934  )
        42           O1  tau(  42) = (   1.9866127   4.4820094  16.2221982  )
        43           Ti1 tau(  43) = (   3.2666378   0.0261420  15.7997788  )
        44           Ti1 tau(  44) = (   6.5668271   4.5279224  16.0664899  )
        45           O1  tau(  45) = (   3.2900926   2.9813045   4.7018136  )
        46           O1  tau(  46) = (   1.3039711   4.4726057   6.0039043  )
        47           O1  tau(  47) = (   5.2763189   4.4711207   6.0039473  )
        48           H1  tau(  48) = (   5.7254277   4.1132278  18.4743583  )
        49           H1  tau(  49) = (   5.8544422   2.5125186  18.2095680  )
        50           N1  tau(  50) = (   6.3703568   3.3906518  18.1617682  )
        51           C1  tau(  51) = (   0.9630889   3.3347298  19.0741625  )
        52           H1  tau(  52) = (   1.4659278   4.2935310  19.0402106  )
        53           H1  tau(  53) = (   0.6569204   3.1189037  20.1036144  )
        54           H1  tau(  54) = (   1.6325849   2.5561260  18.7331930  )

     number of k points=    10  Fermi-Dirac smearing, width (Ry)=  0.0073
                       cart. coord. in units 2pi/alat
        k(    1) = (   0.0000000   0.0000000   0.0000000), wk =   0.0625000
        k(    2) = (   0.0000000   0.0419351   0.0000000), wk =   0.1250000
        k(    3) = (   0.0000000  -0.0838702   0.0000000), wk =   0.0625000
        k(    4) = (   0.0379955   0.0000049   0.0000000), wk =   0.1250000
        k(    5) = (   0.0379955   0.0419400   0.0000000), wk =   0.1250000
        k(    6) = (   0.0379955  -0.0838652   0.0000000), wk =   0.1250000
        k(    7) = (   0.0379955  -0.0419301   0.0000000), wk =   0.1250000
[...]
     %   T. Thonhauser et al., PRL 115, 136402 (2015).                      %
     %   T. Thonhauser et al., PRB 76, 125112 (2007).                       %
     %   K. Berland et al., Rep. Prog. Phys. 78, 066501 (2015).             %
     %   D.C. Langreth et al., J. Phys.: Condens. Matter 21, 084203 (2009). %
     %                                                                      %
     %                                                                      %
     % If you are calculating the stress with vdW-DF, please also cite:     %
     %                                                                      %
     %   R. Sabatini et al., J. Phys.: Condens. Matter 24, 424209 (2012).   %
     %                                                                      %
     %%%%%%%%%%%%%%%%%%%%%%%%%%%%%%%%%%%%%%%%%%%%%%%%%%%%%%%%%%%%%%%%%%%%%%%%

     Adding external electric field

     Computed dipole along edir(3) :
        Dipole               -7.5680 Ry au,        -19.2360 Debye
        Dipole field         -0.0143 Ry au,

        Potential amp.        1.3239 Ry
        Total length         46.3494 bohr

[...]

     Starting wfcs are  297 atomic wfcs
  @ DRIVER MODE: Message from server: STATUS
  @ DRIVER MODE: Message from server: POSDATA
  @ DRIVER MODE: Reading and sharing cell
  @ DRIVER MODE: Reading and sharing positions
  @ DRIVER MODE: Received positions

     Self-consistent Calculation

     iteration #  1     ecut=    29.40 Ry     beta= 0.05
     Davidson diagonalization with overlap
     c_bands:  1 eigenvalues not converged
     c_bands:  2 eigenvalues not converged
     c_bands:  1 eigenvalues not converged
     c_bands:  1 eigenvalues not converged
     c_bands:  1 eigenvalues not converged
     c_bands:  1 eigenvalues not converged
     c_bands:  1 eigenvalues not converged
     c_bands:  2 eigenvalues not converged
     c_bands:  2 eigenvalues not converged
     c_bands:  1 eigenvalues not converged
     c_bands:  1 eigenvalues not converged
     c_bands:  1 eigenvalues not converged
     ethr =  1.00E-05,  avg # of iterations = 19.6

[...]

     total energy              =   -2678.29316912 Ry
     estimated scf accuracy    <    2693.19113484 Ry

     total magnetization       =     0.00 Bohr mag/cell
     absolute magnetization    =     0.01 Bohr mag/cell

[...]

     iteration #  3     ecut=    29.40 Ry     beta= 0.05
     Davidson diagonalization with overlap
     ethr =  1.00E-02,  avg # of iterations = 15.2

[...]

     iteration #409     ecut=    29.40 Ry     beta= 0.05
     Davidson diagonalization with overlap
     ethr =  5.00E-11,  avg # of iterations = 10.0

[...]

     total energy              =   -2921.63341325 Ry
     estimated scf accuracy    <       0.00000017 Ry

[...]

     iteration #424     ecut=    29.40 Ry     beta= 0.05
     Davidson diagonalization with overlap
     c_bands:  4 eigenvalues not converged
     c_bands:  3 eigenvalues not converged
     c_bands:  4 eigenvalues not converged
     c_bands:  3 eigenvalues not converged
     c_bands:  3 eigenvalues not converged
     c_bands:  2 eigenvalues not converged
     c_bands:  3 eigenvalues not converged
     c_bands:  3 eigenvalues not converged
     c_bands:  1 eigenvalues not converged
     c_bands:  3 eigenvalues not converged
     c_bands:  1 eigenvalues not converged
     c_bands:  1 eigenvalues not converged
     c_bands:  5 eigenvalues not converged
     c_bands:  5 eigenvalues not converged
     c_bands:  4 eigenvalues not converged
     c_bands:  3 eigenvalues not converged
     c_bands:  3 eigenvalues not converged
     c_bands:  2 eigenvalues not converged
     c_bands:  5 eigenvalues not converged
     ethr =  3.33E-11,  avg # of iterations = 22.4

     negative rho (up, down):  8.544E-03 8.575E-03

[...]

     Adding external electric field

     Computed dipole along edir(3) :
        Dipole                1.3109 Ry au,          3.3320 Debye
        Dipole field          0.0025 Ry au,

        Potential amp.       -0.2293 Ry
        Total length         46.3494 bohr

     Magnetic moment per site  (integrated on atomic sphere of radius R)
     atom   1 (R=0.738)  charge=  8.0468  magn=  0.0767
     atom   2 (R=0.738)  charge=  8.0283  magn=  0.0034
     atom   3 (R=0.738)  charge=  5.0153  magn= -0.0103
     atom   4 (R=0.738)  charge=  5.0522  magn= -0.0010
     atom   5 (R=0.738)  charge=  5.0214  magn= -0.0026
     atom   6 (R=0.738)  charge=  5.0219  magn= -0.0026
     atom   7 (R=0.738)  charge=  8.0283  magn=  0.0066
     atom   8 (R=0.738)  charge=  8.0299  magn=  0.0762
     atom   9 (R=0.738)  charge=  5.0287  magn= -0.0027
     atom  10 (R=0.738)  charge=  5.0293  magn= -0.0053
     atom  11 (R=0.738)  charge=  5.0169  magn= -0.0030
     atom  12 (R=0.738)  charge=  5.0160  magn= -0.0030
     atom  13 (R=0.738)  charge=  8.0364  magn=  0.0254
     atom  14 (R=0.738)  charge=  8.0337  magn=  0.0229
     atom  15 (R=0.738)  charge=  5.0279  magn= -0.0007
     atom  16 (R=0.738)  charge=  5.0250  magn= -0.0040
     atom  17 (R=0.738)  charge=  5.0031  magn= -0.0031
     atom  18 (R=0.738)  charge=  5.0057  magn= -0.0031
     atom  19 (R=0.738)  charge=  8.0666  magn=  0.0467
     atom  20 (R=0.738)  charge=  8.0803  magn=  0.0101
     atom  21 (R=0.738)  charge=  4.9002  magn= -0.0029
     atom  22 (R=0.738)  charge=  4.9790  magn= -0.0017
     atom  23 (R=0.738)  charge=  5.0126  magn= -0.0078
     atom  24 (R=0.738)  charge=  5.0127  magn= -0.0078
     atom  25 (R=0.738)  charge=  8.0469  magn=  0.0767
     atom  26 (R=0.738)  charge=  8.0283  magn=  0.0035
     atom  27 (R=0.738)  charge=  5.0152  magn= -0.0104
     atom  28 (R=0.738)  charge=  5.0525  magn= -0.0010
     atom  29 (R=0.738)  charge=  5.0223  magn= -0.0026
     atom  30 (R=0.738)  charge=  5.0227  magn= -0.0026
     atom  31 (R=0.738)  charge=  8.0284  magn=  0.0065
     atom  32 (R=0.738)  charge=  8.0301  magn=  0.0766
     atom  33 (R=0.738)  charge=  5.0280  magn= -0.0027
     atom  34 (R=0.738)  charge=  5.0268  magn= -0.0055
     atom  35 (R=0.738)  charge=  5.0201  magn= -0.0031
     atom  36 (R=0.738)  charge=  5.0197  magn= -0.0031
     atom  37 (R=0.738)  charge=  8.0321  magn=  0.0269
     atom  38 (R=0.738)  charge=  8.0344  magn=  0.0237
     atom  39 (R=0.738)  charge=  5.0089  magn= -0.0020
     atom  40 (R=0.738)  charge=  5.0372  magn= -0.0040
     atom  41 (R=0.738)  charge=  5.0005  magn= -0.0038
     atom  42 (R=0.738)  charge=  5.0042  magn= -0.0040
     atom  43 (R=0.738)  charge=  8.0650  magn=  0.0477
     atom  44 (R=0.738)  charge=  8.0442  magn=  0.0235
     atom  45 (R=0.738)  charge=  4.9002  magn= -0.0029
     atom  46 (R=0.738)  charge=  5.0126  magn= -0.0078
     atom  47 (R=0.738)  charge=  5.0128  magn= -0.0078
     atom  48 (R=0.420)  charge=  0.4509  magn=  0.0000
     atom  49 (R=0.420)  charge=  0.4507  magn=  0.0000
     atom  50 (R=0.420)  charge=  1.3387  magn= -0.0002
     atom  51 (R=0.446)  charge=  0.8335  magn=  0.0000
     atom  52 (R=0.420)  charge=  0.4471  magn= -0.0000
     atom  53 (R=0.420)  charge=  0.4449  magn= -0.0000
     atom  54 (R=0.420)  charge=  0.4479  magn= -0.0000

     End of self-consistent calculation

 ------ SPIN UP ------------

          k = 0.0000 0.0000 0.0000 ( 18029 PWs)   bands (ev):

   -55.4529 -55.4360 -55.4158 -55.4020 -55.3750 -55.3448 -55.3341 -55.2998
   -55.2706 -55.2678 -55.2554 -55.2360 -55.2219 -55.1109 -54.4092 -54.3751
   -32.0125 -31.8952 -31.8906 -31.8140 -31.7782 -31.7716 -31.7655 -31.7446
   -31.7362 -31.6917 -31.6898 -31.6629 -31.6587 -31.6346 -31.6246 -31.6207
   -31.6028 -31.6005 -31.5993 -31.5896 -31.5621 -31.5572 -31.5328 -31.5127
   -31.5110 -31.5050 -31.4893 -31.4868 -31.4724 -31.4655 -31.4587 -31.4585
   -31.4449 -31.4293 -31.4194 -31.4081 -31.4067 -31.3898 -31.3885 -31.3654
   -31.3192 -31.2973 -30.8170 -30.7249 -30.7023 -30.6349 -30.5482 -30.4357
   -16.2753 -16.1256 -15.9620 -15.8140 -15.7344 -15.6189 -15.5064 -15.4879
   -15.3530 -15.2697 -15.1523 -15.1272 -15.0964 -15.0807 -15.0702 -15.0577
   -14.9698 -14.9621 -14.9520 -14.9135 -14.9117 -14.8656 -14.8627 -14.8224
   -14.7917 -14.7887 -14.6774 -14.5838 -14.5043 -14.2718 -12.9051 -12.7875
   -10.2467  -6.2680  -4.7834  -3.9406  -3.6043  -3.4525  -3.3610  -3.3322
    -3.3179  -3.1896  -3.0375  -2.9366  -2.8564  -2.8388  -2.7152  -2.6403
    -2.6316  -2.6117  -2.4583  -2.4269  -2.3790  -2.3318  -2.2886  -2.2371
    -2.2190  -2.2110  -2.1948  -2.1723  -2.1619  -2.0535  -1.9913  -1.9124
    -1.8530  -1.8332  -1.7808  -1.7608  -1.7366  -1.7154  -1.7074  -1.6624
    -1.6360  -1.6228  -1.5682  -1.4546  -1.3523  -1.3032  -1.1832  -1.0638
    -1.0246  -1.0167  -0.9637  -0.9254  -0.9125  -0.8426  -0.8012  -0.7748
    -0.7104  -0.6584  -0.5894  -0.5415  -0.4738  -0.4589  -0.4121  -0.3536
    -0.2438  -0.2089  -0.1889  -0.1617  -0.0689  -0.0329   0.0148   0.0965
     0.1002   0.1122   0.2167   0.2322   0.3030   0.3529   0.3694   0.4577
     0.4898   0.5037   0.5105   0.5348   0.5654   0.6140   0.6469   0.6785
     0.7489   0.8758   1.0971   1.1689   1.1883   1.5151   1.5225   1.6186
     1.8017   2.1978   2.2436   3.5931   3.7057   3.7388   3.7792   3.7896
     3.8803   4.1237   4.1391   4.1421   4.1550   4.1770

[...]

          k =-0.0760-0.0000 0.0000 ( 17886 PWs)   bands (ev):

[...]

 ------ SPIN DOWN ----------

[...]

          k = 0.0380-0.0419 0.0000 ( 17876 PWs)   bands (ev):

[...]

          k =-0.0760-0.0839 0.0000 ( 17948 PWs)   bands (ev):

   -55.3983 -55.3874 -55.3319 -55.2828 -55.2824 -55.2717 -55.2692 -55.2564
   -55.2293 -55.2252 -55.1889 -55.1164 -55.1160 -55.0941 -54.3858 -54.3855
   -31.7945 -31.7868 -31.7861 -31.6830 -31.6625 -31.6492 -31.6491 -31.6227
   -31.6156 -31.6039 -31.5938 -31.5811 -31.5601 -31.5595 -31.5594 -31.5553
   -31.5500 -31.5443 -31.5383 -31.5353 -31.5297 -31.5138 -31.4881 -31.4642
   -31.4620 -31.4601 -31.4578 -31.4557 -31.4521 -31.4497 -31.4486 -31.4192
   -31.4162 -31.3919 -31.3914 -31.3837 -31.3811 -31.3764 -31.3586 -31.3011
   -31.2869 -31.2863 -30.7076 -30.7074 -30.6259 -30.6257 -30.5850 -30.5849
   -16.0845 -15.7644 -15.6791 -15.6315 -15.4650 -15.4315 -15.4136 -15.3961
   -15.2649 -15.2374 -15.2134 -15.1964 -15.1735 -15.1372 -15.1314 -15.1258
   -15.0521 -15.0375 -15.0320 -15.0147 -14.9486 -14.9392 -14.9361 -14.9288
   -14.8773 -14.8737 -14.8104 -14.7809 -14.7778 -14.5641 -12.8947 -12.8947
   -10.2504  -6.2402  -4.7794  -3.9020  -2.9891  -2.9402  -2.8828  -2.8728
    -2.6670  -2.6295  -2.5959  -2.5666  -2.4732  -2.4388  -2.4173  -2.4157
    -2.3461  -2.3243  -2.3064  -2.2670  -2.2597  -2.2473  -2.2240  -2.1895
    -2.1590  -2.1494  -2.1423  -2.1211  -2.0758  -2.0622  -2.0476  -2.0222
    -2.0174  -2.0072  -1.9784  -1.9325  -1.8092  -1.7992  -1.7237  -1.6327
    -1.6279  -1.5493  -1.5328  -1.4875  -1.4718  -1.4540  -1.4150  -1.2346
    -1.1959  -1.1729  -1.1636  -1.0981  -1.0363  -1.0197  -0.9463  -0.9298
    -0.9116  -0.8063  -0.7599  -0.7462  -0.6550  -0.6479  -0.5691  -0.5067
    -0.4541  -0.4318  -0.3904  -0.3812  -0.3781  -0.3312  -0.3237  -0.2392
    -0.1916  -0.1588  -0.1452  -0.1107   0.0874   0.0931   0.1150   0.2581
     0.2890   0.4124   0.4459   0.4975   0.5732   0.6066   0.6841   0.7191
     0.8516   0.8779   0.8788   0.9474   0.9566   1.0241   1.0337   1.9722
     1.9729   2.0619   2.0622   3.8750   3.9499   3.9596   3.9978   4.1135
     4.1803   4.2294   4.2471   4.2875   4.2913   4.3721

     the Fermi energy is     3.7284 ev

!    total energy              =   -2921.63341474 Ry
     estimated scf accuracy    <       0.00000007 Ry
     smearing contrib. (-TS)   =      -0.03569478 Ry
     internal energy E=F+TS    =   -2921.59771996 Ry

     The total energy is F=E-TS. E is the sum of the following terms:
     one-electron contribution =  -23999.81138973 Ry
     hartree contribution      =   12089.07332002 Ry
     xc contribution           =    -481.73942521 Ry
     ewald contribution        =    9470.87653193 Ry
     electric field correction =       0.00324303 Ry

     total magnetization       =     0.74 Bohr mag/cell
     absolute magnetization    =     1.02 Bohr mag/cell

     convergence has been achieved in 424 iterations

     Forces acting on atoms (cartesian axes, Ry/au):

     atom    1 type  1   force =     0.00019465   -0.00022725    0.09325346
     atom    2 type  1   force =    -0.00003683   -0.00042092   -0.17851319
     atom    3 type  2   force =     0.00008108   -0.00039203   -0.02004869
     atom    4 type  2   force =     0.00001504   -0.00195769    0.05916638
     atom    5 type  2   force =    -0.01067148   -0.00089674    0.00831388
     atom    6 type  2   force =     0.01185845   -0.00013174    0.00665198
     atom    7 type  1   force =    -0.00062728    0.00197092   -0.01481283
     atom    8 type  1   force =     0.00066776   -0.00088686   -0.00556357
     atom    9 type  2   force =     0.00014267    0.00032101    0.00018838
     atom   10 type  2   force =    -0.00249110    0.00186737    0.00168124
     atom   11 type  2   force =    -0.00016459    0.00003757    0.00034895
     atom   12 type  2   force =     0.00002547    0.00030296    0.00023784
     atom   13 type  1   force =    -0.00001838    0.00005147   -0.00042823
     atom   14 type  1   force =     0.00006419   -0.00003821    0.00020661
     atom   15 type  2   force =     0.00006716   -0.00008911   -0.00000005
     atom   16 type  2   force =     0.00034493    0.00001529   -0.00039128
     atom   17 type  2   force =     0.00029208   -0.00035724    0.00011822
     atom   18 type  2   force =    -0.00016637    0.00002859    0.00010927
     atom   19 type  1   force =     0.00050315    0.00012336    0.00053965
     atom   20 type  1   force =     0.00026174    0.00050820    0.00037447
     atom   21 type  2   force =     0.00014299   -0.00009361    0.10400236
     atom   22 type  2   force =     0.00018941    0.00064855    0.00056466
     atom   23 type  2   force =    -0.07023734   -0.00019420   -0.02696263
     atom   24 type  2   force =     0.07025109    0.00026313   -0.02699309
     atom   25 type  1   force =     0.00013714   -0.00016887    0.09286616
     atom   26 type  1   force =    -0.00004813   -0.00052872   -0.17855099
     atom   27 type  2   force =     0.00012003   -0.00026429   -0.01914790
     atom   28 type  2   force =     0.00008595   -0.00172167    0.05847971
     atom   29 type  2   force =    -0.01117019   -0.00094357    0.00888982
     atom   30 type  2   force =     0.01227754   -0.00063507    0.00720912
     atom   31 type  1   force =    -0.00065409    0.00602316   -0.01563723
     atom   32 type  1   force =     0.00081132    0.00031916   -0.00597580
     atom   33 type  2   force =    -0.00037697   -0.00032832    0.00028066
     atom   34 type  2   force =    -0.00223737   -0.00203366    0.00067135
     atom   35 type  2   force =    -0.00073993    0.00026526    0.00040810
     atom   36 type  2   force =     0.00077187   -0.00010014   -0.00011392
     atom   37 type  1   force =     0.00004346    0.00021942   -0.00047928
     atom   38 type  1   force =    -0.00029255    0.00022747    0.00059169
     atom   39 type  2   force =    -0.00036256   -0.00002296   -0.00004543
     atom   40 type  2   force =    -0.00006106   -0.00009738   -0.00001446
     atom   41 type  2   force =    -0.00006080    0.00005697   -0.00002633
     atom   42 type  2   force =     0.00020387   -0.00019056   -0.00002515
     atom   43 type  1   force =    -0.00025788   -0.00012045    0.00011354
     atom   44 type  1   force =     0.00039649   -0.00042972    0.00023901
     atom   45 type  2   force =     0.00012588   -0.00010960    0.10397215
     atom   46 type  2   force =    -0.07022404   -0.00012041   -0.02691821
     atom   47 type  2   force =     0.07021865    0.00029721   -0.02695173
     atom   48 type  3   force =     0.00086159   -0.00029547    0.00082337
     atom   49 type  3   force =     0.00120886    0.00067631   -0.00038492
     atom   50 type  4   force =     0.00472943   -0.00054791    0.00114899
     atom   51 type  5   force =    -0.01752785    0.00033290    0.00174262
     atom   52 type  3   force =     0.00372680    0.00367232   -0.00038978
     atom   53 type  3   force =     0.00271431    0.00059926   -0.00276623
     atom   54 type  3   force =     0.00489174   -0.00448347   -0.00205273

     Total force =     0.367201     Total SCF correction =     0.000335
  @ DRIVER MODE: Message from server: STATUS
  @ DRIVER MODE: Message from server: GETFORCE
  @ DRIVER MODE: Returning v,forces,stress,ensemble

     Writing output data file ./calc.save/
  @ DRIVER MODE: Message from server: EXIT
  @ DRIVE MODE: Exiting

     General routines

     Parallel routines

   This run was terminated on:  10:44:45  17Jul2021

   JOB DONE.