     Program PWSCF v.6.7GPU starts on  9Sep2021 at 13:15:11

     R & G space division:  proc/nbgrp/npool/nimage =      10
     Reading input from /storage/home/hcoda1/3/ntian30/research/carbon/CxH_vib/CH3_calc/ads_slab/CH3NNH3_a/out_0047/pw.inp
Warning: card &CELL ignored
Warning: card   CELL_DYNAMICS='IPI', ignored
Warning: card / ignored

     Current dimensions of program PWSCF are:
     Max number of different atomic species (ntypx) = 10
     Max number of k-points (npk) =  40000
     Max angular momentum in pseudopotentials (lmaxx) =  3
     Presently no symmetry can be used with electric field

     Message from routine cell_base_init:
     DEPRECATED: use true lattice parameter, not A to a.u. conversion factor

     IMPORTANT: XC functional enforced from input :
     Exchange-correlation= BEEF-VDW
                           (   1   4  43  14   2   0   0)
     Any further DFT definition will be discarded
     Please, verify this is what you really want

  @ DRIVER MODE: Connecting to
 qe_1139763_2767402.sched-torque.pace.gatech.eduyur42xzg_scratch
  using UNIX socket
  @ DRIVER MODE: Message from server: STATUS
  @ DRIVER MODE: Message from server: INIT
  @ DRIVER MODE: Receiving replica           0          -1
  @ DRIVER MODE: Receiving encoded integer          25
  @ DRIVER MODE:  SCF:  T  FORCE:  T  STRESS:  F  VC:  F  ENSEMBLE:  F
  @ DRIVER MODE:  SCF:  T  FORCE:  T  STRESS:  F  VC:  F  ENSEMBLE:  F

     Using Slab Decomposition

     bravais-lattice index     =            0
     lattice parameter (alat)  =       1.8897  a.u.
     unit-cell volume          =    6658.9804 (a.u.)^3
     number of atoms/cell      =           56
     number of atomic types    =            5
     number of electrons       =       398.00
     number of Kohn-Sham states=          209
     kinetic-energy cutoff     =      29.3995  Ry
     charge density cutoff     =     293.9946  Ry
     scf convergence threshold =      7.3E-08
     mixing beta               =       0.0500
     number of iterations used =            8  plain     mixing
     Exchange-correlation= BEEF-VDW
                           (   1   4  43  14   2   0   0)

     celldm(1)=   1.889726  celldm(2)=   0.000000  celldm(3)=   0.000000
     celldm(4)=   0.000000  celldm(5)=   0.000000  celldm(6)=   0.000000

     crystal axes: (cart. coord. in units of alat)
               a(1) = (   6.579727   0.000000   0.000000 )
               a(2) = (  -0.000775   5.961596   0.000000 )
               a(3) = (   0.000000   0.000000  25.155947 )

     reciprocal axes: (cart. coord. in units 2 pi/alat)
               b(1) = (  0.151982  0.000020  0.000000 )
               b(2) = (  0.000000  0.167740  0.000000 )
               b(3) = (  0.000000  0.000000  0.039752 )

     PseudoPot. # 1 for Ti read from file:
     /storage/coda1/p-amedford6/0/shared/rich_project_chbe-medford/medford-share/data/pseudos_module/espresso/nninc/pbe/van/Ti.UPF
     MD5 check sum: 8e4df49b7f0d34bbd5052bf3f5ea0213
     Pseudo is Ultrasoft, Zval = 12.0
     Generated by new atomic code, or converted to UPF format
     Using radial grid of  851 points,  6 beta functions with:
                l(1) =   0
                l(2) =   0
                l(3) =   1
                l(4) =   1
                l(5) =   2
                l(6) =   2
     Q(r) pseudized with  8 coefficients,  rinner =    1.000   1.000   1.000
                                                       1.000   1.000

     PseudoPot. # 2 for O  read from file:
     /storage/coda1/p-amedford6/0/shared/rich_project_chbe-medford/medford-share/data/pseudos_module/espresso/nninc/pbe/van/O.UPF
     MD5 check sum: 78c19812648e8988a0fe644b0f25305e
     Pseudo is Ultrasoft, Zval =  6.0
     Generated by new atomic code, or converted to UPF format
     Using radial grid of  737 points,  4 beta functions with:
                l(1) =   0
                l(2) =   0
                l(3) =   1
                l(4) =   1
     Q(r) pseudized with  8 coefficients,  rinner =    0.800   0.800   0.800

     PseudoPot. # 3 for N  read from file:
     /storage/coda1/p-amedford6/0/shared/rich_project_chbe-medford/medford-share/data/pseudos_module/espresso/nninc/pbe/van/N.UPF
     MD5 check sum: 90d10febe142ad51ac9d5be1deb811c4
     Pseudo is Ultrasoft, Zval =  5.0
     Generated by new atomic code, or converted to UPF format
     Using radial grid of  729 points,  4 beta functions with:
                l(1) =   0
                l(2) =   0
                l(3) =   1
                l(4) =   1
     Q(r) pseudized with  8 coefficients,  rinner =    0.800   0.800   0.800

     PseudoPot. # 4 for C  read from file:
     /storage/coda1/p-amedford6/0/shared/rich_project_chbe-medford/medford-share/data/pseudos_module/espresso/nninc/pbe/van/C.UPF
     MD5 check sum: 1a69bf6b8db32088f5b2163dbdb77a27
     Pseudo is Ultrasoft, Zval =  4.0
     Generated by new atomic code, or converted to UPF format
     Using radial grid of  721 points,  4 beta functions with:
                l(1) =   0
                l(2) =   0
                l(3) =   1
                l(4) =   1
     Q(r) pseudized with  8 coefficients,  rinner =    0.800   0.800   0.800

     PseudoPot. # 5 for H  read from file:
     /storage/coda1/p-amedford6/0/shared/rich_project_chbe-medford/medford-share/data/pseudos_module/espresso/nninc/pbe/van/H.UPF
     MD5 check sum: b5ee9d7bfd3a09ee7748110bda690ff7
     Pseudo is Ultrasoft, Zval =  1.0
     Generated by new atomic code, or converted to UPF format
     Using radial grid of  615 points,  1 beta functions with:
                l(1) =   0
     Q(r) pseudized with  8 coefficients,  rinner =    0.800

     atomic species   valence    mass     pseudopotential
        Ti1           12.00    47.86700     Ti( 1.00)
        O1             6.00    15.99900     O ( 1.00)
        N1             5.00    14.00700     N ( 1.00)
        C1             4.00    12.01100     C ( 1.00)
        H1             1.00     1.00800     H ( 1.00)

     No symmetry found

   Cartesian axes

     site n.     atom                  positions (alat units)
         1           Ti1 tau(   1) = (   0.0004258   2.9801865   6.0000000  )
         2           Ti1 tau(   2) = (   3.2906075   1.4906267   6.0002472  )
         3           O1  tau(   3) = (   0.0006271   0.0005054   7.9858123  )
         4           O1  tau(   4) = (   3.2906025   0.0005020   7.3038282  )
         5           O1  tau(   5) = (   4.5942328   1.4918067   9.2879030  )
         6           O1  tau(   6) = (   1.9868534   1.4903216   9.2879459  )
         7           Ti1 tau(   7) = (   3.2907910   2.8959150   9.1758416  )
         8           Ti1 tau(   8) = (   0.0015273   1.4827037   9.2680791  )
         9           O1  tau(   9) = (   3.2915376   0.0135470  11.3011085  )
        10           O1  tau(  10) = (   0.0116148   5.9584955  10.6183126  )
        11           O1  tau(  11) = (   1.3264285   1.5112823  12.6233503  )
        12           O1  tau(  12) = (   5.3038506   1.5117067  12.6402039  )
        13           Ti1 tau(  13) = (   6.4820107   2.9926285  12.7699842  )
        14           Ti1 tau(  14) = (   3.1705855   1.5046985  12.4703807  )
        15           O1  tau(  15) = (   0.0265921   0.0018185  14.6022993  )
        16           O1  tau(  16) = (   3.3077976   0.0231332  13.8844522  )
        17           O1  tau(  17) = (   4.5431088   1.5356983  16.0582573  )
        18           O1  tau(  18) = (   2.0919096   1.5355568  16.0602035  )
        19           Ti1 tau(  19) = (   3.3160089   3.0194793  15.6930983  )
        20           Ti1 tau(  20) = (   0.0166562   1.5958061  16.1043543  )
        21           O1  tau(  21) = (   3.2904802   0.0005063   4.7018136  )
        22           O1  tau(  22) = (   0.0292894   0.0555714  17.2141426  )
        23           O1  tau(  23) = (   1.3043587   1.4918075   6.0039043  )
        24           O1  tau(  24) = (   5.2767064   1.4903225   6.0039473  )
        25           Ti1 tau(  25) = (   0.0000382   5.9609847   6.0000000  )
        26           Ti1 tau(  26) = (   3.2902200   4.4714249   6.0002472  )
        27           O1  tau(  27) = (   0.0002396   2.9813036   7.9858123  )
        28           O1  tau(  28) = (   3.2902150   2.9813002   7.3038282  )
        29           O1  tau(  29) = (   4.5938453   4.4726049   9.2879030  )
        30           O1  tau(  30) = (   1.9864658   4.4711199   9.2879459  )
        31           Ti1 tau(  31) = (   3.2891106   5.8743827   9.1763621  )
        32           Ti1 tau(  32) = (   0.0006254   4.4649316   9.2693709  )
        33           O1  tau(  33) = (   3.2938734   2.9940915  11.3014364  )
        34           O1  tau(  34) = (   0.0092240   2.9805883  10.6323155  )
        35           O1  tau(  35) = (   1.3265148   4.4779228  12.6213786  )
        36           O1  tau(  36) = (   5.3043665   4.4729268  12.6387898  )
        37           Ti1 tau(  37) = (   6.5102921   0.0103953  12.7821347  )
        38           Ti1 tau(  38) = (   3.1702703   4.4844908  12.4724723  )
        39           O1  tau(  39) = (   0.0044238   2.9856840  14.6711682  )
        40           O1  tau(  40) = (   3.3052367   3.0047533  13.8869641  )
        41           O1  tau(  41) = (   4.5463945   4.5179403  16.0573015  )
        42           O1  tau(  42) = (   2.0913021   4.5186677  16.0620504  )
        43           Ti1 tau(  43) = (   3.3128124   0.0388915  15.6953448  )
        44           Ti1 tau(  44) = (   0.0191476   4.5695365  16.1495174  )
        45           O1  tau(  45) = (   3.2900926   2.9813045   4.7018136  )
        46           O1  tau(  46) = (   1.3039711   4.4726057   6.0039043  )
        47           O1  tau(  47) = (   5.2763189   4.4711207   6.0039473  )
        48           N1  tau(  48) = (   0.0657769   3.0188755  17.3428317  )
        49           N1  tau(  49) = (   6.3710133   2.5762042  22.6422586  )
        50           C1  tau(  50) = (   0.3130180   3.0007025  18.7658599  )
        51           H1  tau(  51) = (   0.2928038   4.0066326  19.1970245  )
        52           H1  tau(  52) = (   6.1505335   2.3845869  19.2855718  )
        53           H1  tau(  53) = (   1.2957935   2.5555442  18.9776258  )
        54           H1  tau(  54) = (   5.9555952   3.1943721  23.3306195  )
        55           H1  tau(  55) = (   0.0098814   1.7053999  23.1048127  )
        56           H1  tau(  56) = (   0.6724875   2.9916800  22.3598805  )

     number of k points=    10  Fermi-Dirac smearing, width (Ry)=  0.0073
                       cart. coord. in units 2pi/alat
        k(    1) = (   0.0000000   0.0000000   0.0000000), wk =   0.1250000
        k(    2) = (   0.0000000   0.0419351   0.0000000), wk =   0.2500000
        k(    3) = (   0.0000000  -0.0838702   0.0000000), wk =   0.1250000
        k(    4) = (   0.0379955   0.0000049   0.0000000), wk =   0.2500000
        k(    5) = (   0.0379955   0.0419400   0.0000000), wk =   0.2500000
        k(    6) = (   0.0379955  -0.0838652   0.0000000), wk =   0.2500000
        k(    7) = (   0.0379955  -0.0419301   0.0000000), wk =   0.2500000
        k(    8) = (  -0.0759910  -0.0000099   0.0000000), wk =   0.1250000
        k(    9) = (  -0.0759910   0.0419252   0.0000000), wk =   0.2500000
        k(   10) = (  -0.0759910  -0.0838800   0.0000000), wk =   0.1250000

     Initial potential from superposition of free atoms

     starting charge  381.99914, renormalised to  398.00000

     negative rho (up, down):  7.236E-03 0.000E+00

     %%%%%%%%%%%%%%%%%%%%%%%%%%%%%%%%%%%%%%%%%%%%%%%%%%%%%%%%%%%%%%%%%%%%%%%%
     %                                                                      %
     % You are using vdW-DF, which was implemented by the Thonhauser group. %
     % Please cite the following two papers that made this development      %
     % possible and the two reviews that describe the various versions:     %
     %                                                                      %
     %   T. Thonhauser et al., PRL 115, 136402 (2015).                      %
     %   T. Thonhauser et al., PRB 76, 125112 (2007).                       %
     %   K. Berland et al., Rep. Prog. Phys. 78, 066501 (2015).             %
     %   D.C. Langreth et al., J. Phys.: Condens. Matter 21, 084203 (2009). %
     %                                                                      %
     %                                                                      %
     % If you are calculating the stress with vdW-DF, please also cite:     %
     %                                                                      %
     %   R. Sabatini et al., J. Phys.: Condens. Matter 24, 424209 (2012).   %
     %                                                                      %
     %%%%%%%%%%%%%%%%%%%%%%%%%%%%%%%%%%%%%%%%%%%%%%%%%%%%%%%%%%%%%%%%%%%%%%%%

     Adding external electric field

     Computed dipole along edir(3) :
        Dipole              -12.0370 Ry au,        -30.5951 Debye
        Dipole field         -0.0227 Ry au,

        Potential amp.        2.1057 Ry
        Total length         46.3494 bohr

     Starting wfcs are  302 atomic wfcs
  @ DRIVER MODE: Message from server: STATUS
  @ DRIVER MODE: Message from server: POSDATA
  @ DRIVER MODE: Reading and sharing cell
  @ DRIVER MODE: Reading and sharing positions
  @ DRIVER MODE: Received positions

     Self-consistent Calculation

     iteration #  1     ecut=    29.40 Ry     beta= 0.05
     Davidson diagonalization with overlap
     c_bands:  1 eigenvalues not converged
     c_bands:  1 eigenvalues not converged
     c_bands:  1 eigenvalues not converged
     c_bands:  1 eigenvalues not converged
     c_bands:  1 eigenvalues not converged
     c_bands:  1 eigenvalues not converged
     c_bands:  1 eigenvalues not converged
     c_bands:  2 eigenvalues not converged
     c_bands:  1 eigenvalues not converged
     ethr =  1.00E-05,  avg # of iterations = 19.6

[...]

     total energy              =   -2520.02426371 Ry
     estimated scf accuracy    <    4725.47985476 Ry

     iteration #  2     ecut=    29.40 Ry     beta= 0.05
     Davidson diagonalization with overlap
     ethr =  1.00E-02,  avg # of iterations = 21.8

[...]

     iteration # 39     ecut=    29.40 Ry     beta= 0.05
     Davidson diagonalization with overlap
     c_bands:  1 eigenvalues not converged
     ethr =  2.73E-07,  avg # of iterations = 11.3

[...]

     total energy              =   -2942.90434864 Ry
     estimated scf accuracy    <       0.00000008 Ry

     iteration # 66     ecut=    29.40 Ry     beta= 0.05
     Davidson diagonalization with overlap
     ethr =  2.08E-11,  avg # of iterations =  6.0

     negative rho (up, down):  9.752E-03 0.000E+00

     Adding external electric field

     Computed dipole along edir(3) :
        Dipole                0.6777 Ry au,          1.7225 Debye
        Dipole field          0.0013 Ry au,

        Potential amp.       -0.1185 Ry
        Total length         46.3494 bohr

     End of self-consistent calculation

          k = 0.0000 0.0000 0.0000 ( 18029 PWs)   bands (ev):

   -56.5059 -56.4722 -55.6140 -55.6051 -55.5787 -55.5726 -55.4757 -55.4401
   -55.2611 -55.2259 -55.1694 -55.1628 -55.1355 -55.0501 -54.6103 -54.5670
   -32.9333 -32.7797 -32.7515 -32.6826 -32.5916 -32.5594 -32.0932 -32.0716
   -32.0171 -31.9018 -31.8607 -31.8213 -31.8191 -31.7856 -31.7567 -31.7556
   -31.7542 -31.7364 -31.7257 -31.7216 -31.7006 -31.6842 -31.6581 -31.6443
   -31.6313 -31.6110 -31.6046 -31.5808 -31.5617 -31.5079 -31.4926 -31.4837
   -31.4046 -31.3999 -31.3803 -31.3361 -31.3282 -31.2968 -31.2800 -31.2561
   -31.2370 -31.1861 -31.1375 -30.8547 -30.8310 -30.8138 -30.7886 -30.6686
   -16.6672 -16.2252 -15.9971 -15.8671 -15.7937 -15.7452 -15.6923 -15.5760
   -15.4986 -15.4961 -15.4590 -15.4224 -15.3531 -15.2102 -15.1124 -15.0558
   -15.0137 -14.8990 -14.8330 -14.8064 -14.7964 -14.7650 -14.7475 -14.5487
   -14.5051 -14.4148 -14.4053 -14.2686 -14.0664 -14.0053 -13.6680 -13.5580
   -12.6991  -7.4304  -4.2343  -4.1264  -4.0655  -3.7213  -3.4794  -3.3932
    -3.2901  -3.2780  -3.2045  -3.0850  -3.0318  -2.9859  -2.8712  -2.8687
    -2.7258  -2.7073  -2.6807  -2.6700  -2.6333  -2.5864  -2.5563  -2.5091
    -2.5036  -2.4946  -2.3409  -2.2436  -2.1770  -2.1487  -2.1335  -2.1043
    -2.0287  -2.0039  -1.9928  -1.9847  -1.8964  -1.7472  -1.7414  -1.7131
    -1.6683  -1.6678  -1.6243  -1.6130  -1.4716  -1.3965  -1.2865  -1.2809
    -1.2446  -1.1775  -1.1756  -1.0728  -1.0027  -0.9508  -0.9121  -0.8062
    -0.7623  -0.7359  -0.6508  -0.5799  -0.5461  -0.5301  -0.5068  -0.4095
    -0.3924  -0.3696  -0.2864  -0.2769  -0.2287  -0.1410  -0.1203  -0.1166
    -0.0286  -0.0205   0.0814   0.1181   0.1601   0.1882   0.2780   0.3069
     0.4079   0.4517   0.4674   0.5895   0.6067   0.6662   0.7415   0.8033
     0.8236   0.8520   0.8846   0.8952   0.9773   1.0969   1.1025   1.1460
     1.2048   1.2512   1.4060   1.4449   1.7296   1.7414   2.4141   2.7695
     2.9311   3.2296   3.4307   3.5374   3.7466   3.7602   3.7660   3.9422
     3.9932

[...]

          k = 0.0380-0.0419 0.0000 ( 17876 PWs)   bands (ev):

[...]

          k =-0.0760-0.0000 0.0000 ( 17886 PWs)   bands (ev):

[...]

          k =-0.0760-0.0839 0.0000 ( 17948 PWs)   bands (ev):

   -56.4891 -56.4888 -55.5959 -55.5951 -55.5923 -55.5868 -55.4599 -55.4558
   -55.2459 -55.2409 -55.1600 -55.1525 -55.1524 -55.0527 -54.6012 -54.5760
   -32.7655 -32.7652 -32.7502 -32.7500 -32.6357 -32.6354 -31.9219 -31.9196
   -31.8962 -31.8899 -31.8513 -31.8504 -31.8083 -31.8058 -31.8056 -31.8048
   -31.7826 -31.7807 -31.7792 -31.7756 -31.7111 -31.7076 -31.6623 -31.6566
   -31.5965 -31.5881 -31.5283 -31.5237 -31.4968 -31.4967 -31.4891 -31.4447
   -31.4438 -31.4122 -31.3780 -31.3779 -31.3735 -31.3388 -31.3387 -31.3316
   -31.2958 -31.2577 -30.9997 -30.9271 -30.8272 -30.7999 -30.7960 -30.7540
   -16.0141 -16.0121 -15.9823 -15.9820 -15.7077 -15.7042 -15.6566 -15.6546
   -15.4852 -15.4790 -15.2690 -15.2607 -15.2565 -15.2524 -15.1243 -15.1177
   -15.0594 -15.0419 -14.9588 -14.9546 -14.8927 -14.8824 -14.8469 -14.8285
   -14.5071 -14.4861 -14.3677 -14.3494 -14.2145 -14.0046 -13.6615 -13.6614
   -12.7155  -7.4210  -4.1390  -4.0674  -3.1143  -3.1137  -3.0428  -3.0419
    -2.9194  -2.9143  -2.8462  -2.8455  -2.7349  -2.7325  -2.6799  -2.6002
    -2.5986  -2.5962  -2.5769  -2.5571  -2.4452  -2.4376  -2.4251  -2.4066
    -2.3613  -2.3583  -2.3485  -2.2677  -2.2538  -2.2177  -2.1778  -2.0718
    -2.0596  -2.0448  -2.0151  -1.9541  -1.9438  -1.9287  -1.8794  -1.8626
    -1.7791  -1.7236  -1.6608  -1.5536  -1.5493  -1.5399  -1.5276  -1.3727
    -1.3334  -1.3052  -1.2990  -1.2902  -1.2458  -1.1473  -1.1398  -0.9975
    -0.9971  -0.9251  -0.8447  -0.8290  -0.7988  -0.6684  -0.6254  -0.5850
    -0.5784  -0.5563  -0.5322  -0.5121  -0.4795  -0.3335  -0.3213  -0.2906
    -0.2501  -0.2423  -0.1958  -0.1284  -0.0406   0.0225   0.0241   0.0882
     0.1513   0.2111   0.2916   0.3072   0.3122   0.5933   0.6764   0.7642
     0.8405   0.9081   0.9727   0.9947   1.0634   1.0956   1.1456   1.2323
     1.2363   1.2534   1.2537   1.3252   1.3271   1.7066   2.3060   3.3435
     3.3438   3.4119   3.4123   3.7362   3.7417   3.8521   3.8623   3.9727
     3.9764

     the Fermi energy is     2.6022 ev

!    total energy              =   -2942.90437127 Ry
     estimated scf accuracy    <       0.00000001 Ry
     smearing contrib. (-TS)   =      -0.00455199 Ry
     internal energy E=F+TS    =   -2942.89981928 Ry

     The total energy is F=E-TS. E is the sum of the following terms:
     one-electron contribution =  -23043.08338790 Ry
     hartree contribution      =   11612.15981651 Ry
     xc contribution           =    -487.44584363 Ry
     ewald contribution        =    8975.46872910 Ry
     electric field correction =       0.00086664 Ry

     convergence has been achieved in  66 iterations

     Forces acting on atoms (cartesian axes, Ry/au):

     atom    1 type  1   force =     0.00001189   -0.00050293    0.12498103
     atom    2 type  1   force =    -0.00013485   -0.00063303   -0.16059665
     atom    3 type  2   force =     0.00017176   -0.00022317   -0.06934761
     atom    4 type  2   force =    -0.00004258   -0.00027854    0.02763988
     atom    5 type  2   force =    -0.01719423    0.00222496   -0.00887896
     atom    6 type  2   force =     0.01887523    0.00287518   -0.00920115
     atom    7 type  1   force =     0.00088262   -0.00375514    0.02233237
     atom    8 type  1   force =    -0.00036606   -0.00328574    0.11353268
     atom    9 type  2   force =     0.00050351   -0.00039757    0.00006159
     atom   10 type  2   force =    -0.00234692    0.00260130   -0.07319622
     atom   11 type  2   force =     0.00014036   -0.00095444   -0.00010869
     atom   12 type  2   force =     0.00000614   -0.00058347   -0.00002910
     atom   13 type  1   force =     0.00020085   -0.00019152   -0.00028994
     atom   14 type  1   force =    -0.00008106   -0.00053872   -0.00004146
     atom   15 type  2   force =    -0.00035567   -0.00099499    0.00084350
     atom   16 type  2   force =    -0.00013253   -0.00017012    0.00046392
     atom   17 type  2   force =     0.00089051   -0.00042640   -0.00034506
     atom   18 type  2   force =    -0.00058459   -0.00046298   -0.00031242
     atom   19 type  1   force =    -0.00025236    0.00006893   -0.00053527
     atom   20 type  1   force =     0.00054314   -0.00088496   -0.00098452
     atom   21 type  2   force =     0.00005189   -0.00006437    0.09968099
     atom   22 type  2   force =     0.00015193   -0.00038069   -0.00093990
     atom   23 type  2   force =    -0.07922302   -0.00006131   -0.03251939
     atom   24 type  2   force =     0.07907868    0.00037047   -0.03254605
     atom   25 type  1   force =     0.00002774   -0.00049943    0.12431957
     atom   26 type  1   force =    -0.00012749   -0.00048307   -0.16060812
     atom   27 type  2   force =     0.00028176   -0.00044557   -0.06835215
     atom   28 type  2   force =     0.00000327   -0.00013715    0.02749779
     atom   29 type  2   force =    -0.01765362    0.00173602   -0.00895090
     atom   30 type  2   force =     0.01922641    0.00199904   -0.00928983
     atom   31 type  1   force =     0.00080326   -0.00116492    0.02195415
     atom   32 type  1   force =    -0.00029314    0.00070982    0.11417399
     atom   33 type  2   force =    -0.00007763    0.00003888   -0.00056046
     atom   34 type  2   force =    -0.00201782    0.00206217   -0.07185667
     atom   35 type  2   force =     0.00002815   -0.00020979    0.00012629
     atom   36 type  2   force =    -0.00051327    0.00020447    0.00021707
     atom   37 type  1   force =     0.00087016    0.00095406   -0.00021847
     atom   38 type  1   force =    -0.00021010    0.00026739   -0.00017852
     atom   39 type  2   force =    -0.00002186   -0.00029861   -0.00000707
     atom   40 type  2   force =    -0.00001210   -0.00019500   -0.00024151
     atom   41 type  2   force =     0.00023082   -0.00042764   -0.00032488
     atom   42 type  2   force =    -0.00000380   -0.00038811   -0.00037591
     atom   43 type  1   force =    -0.00036470    0.00007369   -0.00043634
     atom   44 type  1   force =     0.00006040    0.00092935    0.00030098
     atom   45 type  2   force =     0.00003885   -0.00007320    0.09969973
     atom   46 type  2   force =    -0.07922525   -0.00002796   -0.03252417
     atom   47 type  2   force =     0.07908012    0.00041632   -0.03252584
     atom   48 type  3   force =    -0.00033335    0.00102596   -0.00096592
     atom   49 type  3   force =    -0.00130891    0.00603502   -0.00420054
     atom   50 type  4   force =    -0.00009092    0.00056045    0.00143007
     atom   51 type  5   force =    -0.00051290   -0.00048591   -0.00046511
     atom   52 type  5   force =     0.00000293    0.00021604   -0.00016735
     atom   53 type  5   force =    -0.00013621    0.00043369   -0.00012849
     atom   54 type  5   force =     0.00069923   -0.00116964    0.00023065
     atom   55 type  5   force =     0.00099756   -0.00515179    0.00376604
     atom   56 type  5   force =    -0.00024225    0.00014471   -0.00100165

     Total force =     0.426748     Total SCF correction =     0.000368
  @ DRIVER MODE: Message from server: STATUS
  @ DRIVER MODE: Message from server: GETFORCE
  @ DRIVER MODE: Returning v,forces,stress,ensemble

     Writing output data file ./calc.save/
  @ DRIVER MODE: Message from server: EXIT
  @ DRIVE MODE: Exiting

     General routines

     Parallel routines

   This run was terminated on:  13:33:20   9Sep2021

   JOB DONE.