     Program PWSCF v.6.7GPU starts on 23Sep2021 at  7:44:55

     R & G space division:  proc/nbgrp/npool/nimage =      10
     Reading input from /storage/home/hcoda1/3/ntian30/research/carbon/CxH_vib/H2O_calc/ads_slab/CH2NHHHO_a/out_0045/pw.inp
Warning: card &CELL ignored
Warning: card   CELL_DYNAMICS='IPI', ignored
Warning: card / ignored

     Current dimensions of program PWSCF are:
     Max number of different atomic species (ntypx) = 10
     Max number of k-points (npk) =  40000
     Max angular momentum in pseudopotentials (lmaxx) =  3
     Presently no symmetry can be used with electric field

     Message from routine cell_base_init:
     DEPRECATED: use true lattice parameter, not A to a.u. conversion factor

     IMPORTANT: XC functional enforced from input :
     Exchange-correlation= BEEF-VDW
                           (   1   4  43  14   2   0   0)
     Any further DFT definition will be discarded
     Please, verify this is what you really want

  @ DRIVER MODE: Connecting to
 qe_1139763_2937325.sched-torque.pace.gatech.edu7w9agj0w_scratch
  using UNIX socket
  @ DRIVER MODE: Message from server: STATUS
  @ DRIVER MODE: Message from server: INIT
  @ DRIVER MODE: Receiving replica           0          -1
  @ DRIVER MODE: Receiving encoded integer          25
  @ DRIVER MODE:  SCF:  T  FORCE:  T  STRESS:  F  VC:  F  ENSEMBLE:  F
  @ DRIVER MODE:  SCF:  T  FORCE:  T  STRESS:  F  VC:  F  ENSEMBLE:  F

     Using Slab Decomposition

     bravais-lattice index     =            0
     lattice parameter (alat)  =       1.8897  a.u.
     unit-cell volume          =    6658.9804 (a.u.)^3
     number of atoms/cell      =           55
     number of atomic types    =            5
     number of electrons       =       398.00
     number of Kohn-Sham states=          209
     kinetic-energy cutoff     =      29.3995  Ry
     charge density cutoff     =     293.9946  Ry
     scf convergence threshold =      7.3E-08
     mixing beta               =       0.0500
     number of iterations used =            8  plain     mixing
     Exchange-correlation= BEEF-VDW
                           (   1   4  43  14   2   0   0)

     celldm(1)=   1.889726  celldm(2)=   0.000000  celldm(3)=   0.000000
     celldm(4)=   0.000000  celldm(5)=   0.000000  celldm(6)=   0.000000

     crystal axes: (cart. coord. in units of alat)
               a(1) = (   6.579727   0.000000   0.000000 )
               a(2) = (  -0.000775   5.961596   0.000000 )
               a(3) = (   0.000000   0.000000  25.155947 )

     reciprocal axes: (cart. coord. in units 2 pi/alat)
               b(1) = (  0.151982  0.000020  0.000000 )
               b(2) = (  0.000000  0.167740  0.000000 )
               b(3) = (  0.000000  0.000000  0.039752 )

     PseudoPot. # 1 for Ti read from file:
     /storage/coda1/p-amedford6/0/shared/rich_project_chbe-medford/medford-share/data/pseudos_module/espresso/nninc/pbe/van/Ti.UPF
     MD5 check sum: 8e4df49b7f0d34bbd5052bf3f5ea0213
     Pseudo is Ultrasoft, Zval = 12.0
     Generated by new atomic code, or converted to UPF format
     Using radial grid of  851 points,  6 beta functions with:
                l(1) =   0
                l(2) =   0
                l(3) =   1
                l(4) =   1
                l(5) =   2
                l(6) =   2
     Q(r) pseudized with  8 coefficients,  rinner =    1.000   1.000   1.000
                                                       1.000   1.000

     PseudoPot. # 2 for O  read from file:
     /storage/coda1/p-amedford6/0/shared/rich_project_chbe-medford/medford-share/data/pseudos_module/espresso/nninc/pbe/van/O.UPF
     MD5 check sum: 78c19812648e8988a0fe644b0f25305e
     Pseudo is Ultrasoft, Zval =  6.0
     Generated by new atomic code, or converted to UPF format
     Using radial grid of  737 points,  4 beta functions with:
                l(1) =   0
                l(2) =   0
                l(3) =   1
                l(4) =   1
     Q(r) pseudized with  8 coefficients,  rinner =    0.800   0.800   0.800

     PseudoPot. # 3 for N  read from file:
     /storage/coda1/p-amedford6/0/shared/rich_project_chbe-medford/medford-share/data/pseudos_module/espresso/nninc/pbe/van/N.UPF
     MD5 check sum: 90d10febe142ad51ac9d5be1deb811c4
     Pseudo is Ultrasoft, Zval =  5.0
     Generated by new atomic code, or converted to UPF format
     Using radial grid of  729 points,  4 beta functions with:
                l(1) =   0
                l(2) =   0
                l(3) =   1
                l(4) =   1
     Q(r) pseudized with  8 coefficients,  rinner =    0.800   0.800   0.800

     PseudoPot. # 4 for C  read from file:
     /storage/coda1/p-amedford6/0/shared/rich_project_chbe-medford/medford-share/data/pseudos_module/espresso/nninc/pbe/van/C.UPF
     MD5 check sum: 1a69bf6b8db32088f5b2163dbdb77a27
     Pseudo is Ultrasoft, Zval =  4.0
     Generated by new atomic code, or converted to UPF format
     Using radial grid of  721 points,  4 beta functions with:
                l(1) =   0
                l(2) =   0
                l(3) =   1
                l(4) =   1
     Q(r) pseudized with  8 coefficients,  rinner =    0.800   0.800   0.800

     PseudoPot. # 5 for H  read from file:
     /storage/coda1/p-amedford6/0/shared/rich_project_chbe-medford/medford-share/data/pseudos_module/espresso/nninc/pbe/van/H.UPF
     MD5 check sum: b5ee9d7bfd3a09ee7748110bda690ff7
     Pseudo is Ultrasoft, Zval =  1.0
     Generated by new atomic code, or converted to UPF format
     Using radial grid of  615 points,  1 beta functions with:
                l(1) =   0
     Q(r) pseudized with  8 coefficients,  rinner =    0.800

     atomic species   valence    mass     pseudopotential
        Ti1           12.00    47.86700     Ti( 1.00)
        O1             6.00    15.99900     O ( 1.00)
        N1             5.00    14.00700     N ( 1.00)
        C1             4.00    12.01100     C ( 1.00)
        H1             1.00     1.00800     H ( 1.00)

     No symmetry found

   Cartesian axes

     site n.     atom                  positions (alat units)
         1           Ti1 tau(   1) = (   0.0004258   2.9801865   6.0000000  )
         2           Ti1 tau(   2) = (   3.2906075   1.4906267   6.0002472  )
         3           O1  tau(   3) = (   0.0006271   0.0005054   7.9858123  )
         4           O1  tau(   4) = (   3.2906025   0.0005020   7.3038282  )
         5           O1  tau(   5) = (   4.5942328   1.4918067   9.2879030  )
         6           O1  tau(   6) = (   1.9868534   1.4903216   9.2879459  )
         7           Ti1 tau(   7) = (   3.2907910   2.8959150   9.1758416  )
         8           Ti1 tau(   8) = (   0.0015273   1.4827037   9.2680791  )
         9           O1  tau(   9) = (   3.3134935   5.9450930  11.3716456  )
        10           O1  tau(  10) = (   0.0116148   5.9584955  10.6183126  )
        11           O1  tau(  11) = (   1.3009377   1.4930576  12.6823270  )
        12           O1  tau(  12) = (   5.3410967   1.4903504  12.6863499  )
        13           Ti1 tau(  13) = (   0.0342001   2.9430440  12.5112676  )
        14           Ti1 tau(  14) = (   3.3297267   1.2953541  12.7310232  )
        15           O1  tau(  15) = (   0.0493764   5.9086628  14.6689690  )
        16           O1  tau(  16) = (   3.3288597   0.0714287  14.0177558  )
        17           O1  tau(  17) = (   4.6153468   1.5975901  16.1787110  )
        18           O1  tau(  18) = (   2.0592605   1.5839887  16.0909148  )
        19           Ti1 tau(  19) = (   3.3163104   3.0362344  15.7082748  )
        20           Ti1 tau(  20) = (   0.1120434   1.3330501  15.8434463  )
        21           O1  tau(  21) = (   3.2904802   0.0005063   4.7018136  )
        22           O1  tau(  22) = (   0.0690725   0.1374024  17.2087871  )
        23           O1  tau(  23) = (   1.3043587   1.4918075   6.0039043  )
        24           O1  tau(  24) = (   5.2767064   1.4903225   6.0039473  )
        25           Ti1 tau(  25) = (   0.0000382   5.9609847   6.0000000  )
        26           Ti1 tau(  26) = (   3.2902200   4.4714249   6.0002472  )
        27           O1  tau(  27) = (   0.0002396   2.9813036   7.9858123  )
        28           O1  tau(  28) = (   3.2902150   2.9813002   7.3038282  )
        29           O1  tau(  29) = (   4.5938453   4.4726049   9.2879030  )
        30           O1  tau(  30) = (   1.9864658   4.4711199   9.2879459  )
        31           Ti1 tau(  31) = (   3.2891106   5.8743827   9.1763621  )
        32           Ti1 tau(  32) = (   0.0006254   4.4649316   9.2693709  )
        33           O1  tau(  33) = (   3.3165203   3.0043058  11.3207354  )
        34           O1  tau(  34) = (   0.0092240   2.9805883  10.6323155  )
        35           O1  tau(  35) = (   1.3050136   4.4578615  12.6552238  )
        36           O1  tau(  36) = (   5.3353050   4.4620295  12.6594116  )
        37           Ti1 tau(  37) = (   0.0330755   5.9154870  12.5003292  )
        38           Ti1 tau(  38) = (   3.3291962   4.3779952  12.4454333  )
        39           O1  tau(  39) = (   0.0233967   3.0352723  14.9286183  )
        40           O1  tau(  40) = (   3.3272303   3.0068708  13.9347379  )
        41           O1  tau(  41) = (   4.5962338   4.4808180  16.1645836  )
        42           O1  tau(  42) = (   2.0526765   4.4464907  16.1857218  )
        43           Ti1 tau(  43) = (   3.4309460   0.0633718  16.3216252  )
        44           Ti1 tau(  44) = (   0.1034465   4.5521166  15.9739525  )
        45           O1  tau(  45) = (   3.2900926   2.9813045   4.7018136  )
        46           O1  tau(  46) = (   1.3039711   4.4726057   6.0039043  )
        47           O1  tau(  47) = (   5.2763189   4.4711207   6.0039473  )
        48           N1  tau(  48) = (   6.1597698   3.4535781  18.2989460  )
        49           C1  tau(  49) = (   0.6557129   3.1470513  19.0816575  )
        50           H1  tau(  50) = (   1.2037892   3.9510289  19.5415217  )
        51           H1  tau(  51) = (   1.0557295   2.1499681  19.0337936  )
        52           H1  tau(  52) = (   5.6880836   4.3337965  18.4846543  )
        53           H1  tau(  53) = (   5.5056413   2.7003945  18.1017309  )
        54           O1  tau(  54) = (   3.2744276   0.0793712  18.1757868  )
        55           H1  tau(  55) = (   2.3604784   5.9094474  18.4805682  )

     number of k points=    10  Fermi-Dirac smearing, width (Ry)=  0.0073
                       cart. coord. in units 2pi/alat
        k(    1) = (   0.0000000   0.0000000   0.0000000), wk =   0.1250000
        k(    2) = (   0.0000000   0.0419351   0.0000000), wk =   0.2500000
        k(    3) = (   0.0000000  -0.0838702   0.0000000), wk =   0.1250000
        k(    4) = (   0.0379955   0.0000049   0.0000000), wk =   0.2500000
        k(    5) = (   0.0379955   0.0419400   0.0000000), wk =   0.2500000
        k(    6) = (   0.0379955  -0.0838652   0.0000000), wk =   0.2500000
        k(    7) = (   0.0379955  -0.0419301   0.0000000), wk =   0.2500000
        k(    8) = (  -0.0759910  -0.0000099   0.0000000), wk =   0.1250000
        k(    9) = (  -0.0759910   0.0419252   0.0000000), wk =   0.2500000
        k(   10) = (  -0.0759910  -0.0838800   0.0000000), wk =   0.1250000

     Initial potential from superposition of free atoms

     starting charge  381.99915, renormalised to  398.00000

     negative rho (up, down):  1.645E-02 0.000E+00

     %%%%%%%%%%%%%%%%%%%%%%%%%%%%%%%%%%%%%%%%%%%%%%%%%%%%%%%%%%%%%%%%%%%%%%%%
     %                                                                      %
     % You are using vdW-DF, which was implemented by the Thonhauser group. %
     % Please cite the following two papers that made this development      %
     % possible and the two reviews that describe the various versions:     %
     %                                                                      %
     %   T. Thonhauser et al., PRL 115, 136402 (2015).                      %
     %   T. Thonhauser et al., PRB 76, 125112 (2007).                       %
     %   K. Berland et al., Rep. Prog. Phys. 78, 066501 (2015).             %
     %   D.C. Langreth et al., J. Phys.: Condens. Matter 21, 084203 (2009). %
     %                                                                      %
     %                                                                      %
     % If you are calculating the stress with vdW-DF, please also cite:     %
     %                                                                      %
     %   R. Sabatini et al., J. Phys.: Condens. Matter 24, 424209 (2012).   %
     %                                                                      %
     %%%%%%%%%%%%%%%%%%%%%%%%%%%%%%%%%%%%%%%%%%%%%%%%%%%%%%%%%%%%%%%%%%%%%%%%

     Adding external electric field

     Computed dipole along edir(3) :
        Dipole              -10.2322 Ry au,        -26.0075 Debye
        Dipole field         -0.0193 Ry au,

        Potential amp.        1.7900 Ry
        Total length         46.3494 bohr

     Starting wfcs are  301 atomic wfcs
  @ DRIVER MODE: Message from server: STATUS
  @ DRIVER MODE: Message from server: POSDATA
  @ DRIVER MODE: Reading and sharing cell
  @ DRIVER MODE: Reading and sharing positions
  @ DRIVER MODE: Received positions

     Self-consistent Calculation

     iteration #  1     ecut=    29.40 Ry     beta= 0.05
     Davidson diagonalization with overlap
     c_bands:  1 eigenvalues not converged
     c_bands:  3 eigenvalues not converged
     c_bands:  2 eigenvalues not converged
     c_bands:  1 eigenvalues not converged
     c_bands:  4 eigenvalues not converged
     c_bands:  4 eigenvalues not converged
     c_bands:  4 eigenvalues not converged
     c_bands:  2 eigenvalues not converged
     c_bands:  3 eigenvalues not converged
     c_bands:  4 eigenvalues not converged
     ethr =  1.00E-05,  avg # of iterations = 20.0

[...]

     total energy              =   -2477.33720075 Ry
     estimated scf accuracy    <    5313.89293685 Ry

     iteration #  2     ecut=    29.40 Ry     beta= 0.05
     Davidson diagonalization with overlap
     ethr =  1.00E-02,  avg # of iterations = 23.4

[...]

     iteration # 60     ecut=    29.40 Ry     beta= 0.05
     Davidson diagonalization with overlap
     c_bands:  1 eigenvalues not converged
     ethr =  1.06E-06,  avg # of iterations = 14.0

[...]

     total energy              =   -2953.88669224 Ry
     estimated scf accuracy    <       0.00000010 Ry

     iteration # 81     ecut=    29.40 Ry     beta= 0.05
     Davidson diagonalization with overlap
     ethr =  2.20E-11,  avg # of iterations =  2.0

     negative rho (up, down):  1.574E-02 0.000E+00

     Adding external electric field

     Computed dipole along edir(3) :
        Dipole                0.8537 Ry au,          2.1698 Debye
        Dipole field          0.0016 Ry au,

        Potential amp.       -0.1493 Ry
        Total length         46.3494 bohr

     End of self-consistent calculation

          k = 0.0000 0.0000 0.0000 ( 18029 PWs)   bands (ev):

   -55.7654 -55.7131 -55.6791 -55.5821 -55.5434 -55.5422 -55.5278 -55.5084
   -55.4997 -55.4496 -55.4487 -55.3372 -55.3077 -55.2640 -54.6915 -54.6575
   -32.1989 -32.0845 -32.0672 -32.0608 -32.0457 -32.0318 -32.0036 -31.9826
   -31.9807 -31.9589 -31.9442 -31.8659 -31.8511 -31.8505 -31.8286 -31.8219
   -31.8208 -31.7915 -31.7707 -31.7451 -31.7436 -31.7361 -31.7264 -31.7229
   -31.7214 -31.7150 -31.6863 -31.6776 -31.6693 -31.6679 -31.6607 -31.6556
   -31.6448 -31.6370 -31.6148 -31.6047 -31.5316 -31.5282 -31.5096 -31.4767
   -31.4687 -31.4605 -31.0977 -31.0109 -30.9885 -30.9152 -30.8288 -30.7170
   -16.8806 -16.6044 -16.3779 -16.2124 -15.9897 -15.9376 -15.8769 -15.7045
   -15.5895 -15.5341 -15.3497 -15.2816 -15.2530 -15.2405 -15.2361 -15.2187
   -15.2058 -15.1625 -15.1449 -15.1428 -15.1370 -15.1027 -15.0753 -15.0341
   -14.9871 -14.9514 -14.8549 -14.7999 -14.7602 -14.5159 -14.4825 -13.1897
   -13.0732  -9.7994  -7.0629  -5.3370  -4.1374  -3.7412  -3.6277  -3.6167
    -3.5562  -3.5007  -3.3354  -3.2228  -3.1414  -3.1252  -2.9731  -2.8595
    -2.8138  -2.7481  -2.7134  -2.6738  -2.6366  -2.6255  -2.5934  -2.5017
    -2.4800  -2.4655  -2.4041  -2.3788  -2.3118  -2.2887  -2.2566  -2.2437
    -2.1370  -2.0853  -2.0513  -2.0428  -2.0264  -1.9986  -1.9715  -1.9645
    -1.9371  -1.8531  -1.7995  -1.7442  -1.7174  -1.7017  -1.3985  -1.3263
    -1.2912  -1.2545  -1.1645  -1.1466  -1.1114  -1.0932  -1.0776  -1.0706
    -0.9558  -0.8869  -0.8287  -0.7987  -0.7552  -0.7234  -0.6099  -0.5569
    -0.5071  -0.4670  -0.4534  -0.4293  -0.3425  -0.3156  -0.2997  -0.1982
    -0.1554  -0.0909  -0.0208  -0.0068   0.0425   0.0722   0.1106   0.1471
     0.2052   0.2379   0.2556   0.2994   0.3384   0.3493   0.4074   0.4237
     0.5194   0.6036   0.6225   0.6922   0.7828   0.8287   0.9477   1.0104
     1.2814   1.3355   1.3483   1.5269   1.9028   1.9484   3.3642   3.4013
     3.5174   3.5306   3.6065   3.6174   3.7020   3.8576   3.9068   4.0180
     4.0536

[...]

          k = 0.0380-0.0419 0.0000 ( 17876 PWs)   bands (ev):

[...]

          k =-0.0760-0.0000 0.0000 ( 17886 PWs)   bands (ev):

[...]

          k =-0.0760-0.0839 0.0000 ( 17948 PWs)   bands (ev):

   -55.7646 -55.6963 -55.6958 -55.5713 -55.5538 -55.5284 -55.5257 -55.5246
   -55.4935 -55.4551 -55.4471 -55.3334 -55.3101 -55.2677 -54.6749 -54.6740
   -32.0299 -32.0143 -32.0140 -32.0131 -31.9893 -31.9888 -31.9848 -31.9735
   -31.9147 -31.8892 -31.8717 -31.8585 -31.8539 -31.8336 -31.8189 -31.8163
   -31.8156 -31.8128 -31.8089 -31.8041 -31.7787 -31.7527 -31.7437 -31.7368
   -31.7292 -31.7271 -31.7124 -31.7106 -31.7092 -31.7008 -31.7002 -31.6803
   -31.6781 -31.6737 -31.6437 -31.6127 -31.5941 -31.5569 -31.5355 -31.5303
   -31.5173 -31.4722 -31.0015 -31.0008 -30.9111 -30.9099 -30.8724 -30.8716
   -16.8628 -16.5929 -16.0511 -15.8016 -15.7093 -15.6990 -15.5668 -15.4998
   -15.4885 -15.4468 -15.4275 -15.4056 -15.3993 -15.3746 -15.3338 -15.2802
   -15.2507 -15.2239 -15.2177 -15.1781 -15.1708 -15.1521 -15.1497 -15.1280
   -15.0782 -15.0372 -15.0236 -15.0084 -14.8237 -14.7705 -14.6394 -13.1752
   -13.1748  -9.8000  -7.0547  -5.3215  -4.1222  -3.3626  -3.1753  -3.0120
    -2.9409  -2.8843  -2.7917  -2.7493  -2.7345  -2.6893  -2.6664  -2.6435
    -2.5635  -2.5488  -2.5198  -2.5083  -2.4789  -2.4642  -2.4577  -2.4481
    -2.4040  -2.3952  -2.3853  -2.3533  -2.3454  -2.3353  -2.2958  -2.2747
    -2.2647  -2.2540  -2.2053  -2.1818  -2.1029  -2.0639  -1.9668  -1.8837
    -1.8730  -1.8498  -1.8022  -1.7904  -1.7481  -1.7323  -1.6890  -1.6142
    -1.5299  -1.4617  -1.3509  -1.3079  -1.2966  -1.2376  -1.2198  -1.1635
    -1.1300  -1.0988  -1.0695  -0.9694  -0.9369  -0.8798  -0.7636  -0.6996
    -0.6872  -0.6642  -0.6537  -0.6180  -0.5975  -0.5825  -0.5517  -0.4693
    -0.4318  -0.4169  -0.4074  -0.3712  -0.2453  -0.1242  -0.0778  -0.0199
     0.0470   0.0624   0.1168   0.1573   0.3114   0.3455   0.4427   0.4574
     0.4783   0.5917   0.5990   0.6794   0.7216   0.7665   0.7948   0.8271
     0.8321   0.8717   1.6967   1.7052   1.7687   1.7689   3.3734   3.7452
     3.8481   3.8644   3.8819   3.9228   3.9367   3.9658   3.9715   4.0355
     4.0510

     the Fermi energy is     3.4062 ev

!    total energy              =   -2953.88670019 Ry
     estimated scf accuracy    <       0.00000007 Ry
     smearing contrib. (-TS)   =      -0.02907771 Ry
     internal energy E=F+TS    =   -2953.85762248 Ry

     The total energy is F=E-TS. E is the sum of the following terms:
     one-electron contribution =  -23669.76815978 Ry
     hartree contribution      =   11925.84181818 Ry
     xc contribution           =    -488.85111117 Ry
     ewald contribution        =    9278.91845502 Ry
     electric field correction =       0.00137526 Ry

     convergence has been achieved in  81 iterations

     Forces acting on atoms (cartesian axes, Ry/au):

     atom    1 type  1   force =    -0.00001510   -0.00029262    0.09374898
     atom    2 type  1   force =    -0.00010245    0.00049055   -0.17555236
     atom    3 type  2   force =     0.00011073   -0.00024353   -0.02088221
     atom    4 type  2   force =     0.00001343   -0.00197630    0.05497423
     atom    5 type  2   force =    -0.00645140   -0.00243962    0.00277835
     atom    6 type  2   force =     0.00860863   -0.00176970    0.00361656
     atom    7 type  1   force =     0.00058854   -0.00336580    0.00969843
     atom    8 type  1   force =    -0.00066910    0.00047657    0.00111326
     atom    9 type  2   force =    -0.00001383    0.00059790   -0.00096623
     atom   10 type  2   force =    -0.00025062    0.00115524   -0.00781322
     atom   11 type  2   force =    -0.00013054   -0.00001784    0.00016508
     atom   12 type  2   force =    -0.00041103   -0.00018174    0.00003110
     atom   13 type  1   force =    -0.00027657    0.00000360   -0.00042220
     atom   14 type  1   force =    -0.00062512    0.00041194    0.00043668
     atom   15 type  2   force =    -0.00005660    0.00105651   -0.00005332
     atom   16 type  2   force =    -0.00007489    0.00006251   -0.00023600
     atom   17 type  2   force =    -0.00048842    0.00045620   -0.00026639
     atom   18 type  2   force =     0.00012127    0.00076988   -0.00033939
     atom   19 type  1   force =     0.00003426   -0.00018502    0.00061639
     atom   20 type  1   force =    -0.00001880   -0.00048564    0.00012821
     atom   21 type  2   force =     0.00001571    0.00008658    0.10333180
     atom   22 type  2   force =    -0.00009428    0.00019724   -0.00015320
     atom   23 type  2   force =    -0.07188078   -0.00017137   -0.02715527
     atom   24 type  2   force =     0.07174384    0.00029979   -0.02723345
     atom   25 type  1   force =     0.00009228   -0.00020001    0.09355601
     atom   26 type  1   force =    -0.00025180   -0.00138031   -0.17568118
     atom   27 type  2   force =     0.00015046   -0.00016005   -0.01963652
     atom   28 type  2   force =     0.00011019   -0.00028447    0.05021461
     atom   29 type  2   force =    -0.00551393    0.00259484    0.00166975
     atom   30 type  2   force =     0.00765806    0.00268974    0.00256150
     atom   31 type  1   force =     0.00070438    0.00798314   -0.00205275
     atom   32 type  1   force =    -0.00071084   -0.00206781    0.00021465
     atom   33 type  2   force =    -0.00017014   -0.00073034   -0.00010599
     atom   34 type  2   force =     0.00011517   -0.00173370   -0.00873806
     atom   35 type  2   force =    -0.00004193   -0.00011551   -0.00058766
     atom   36 type  2   force =    -0.00019220   -0.00018976   -0.00039733
     atom   37 type  1   force =     0.00045197    0.00066946   -0.00070306
     atom   38 type  1   force =    -0.00062170   -0.00052583    0.00022186
     atom   39 type  2   force =    -0.00002332    0.00012527    0.00022163
     atom   40 type  2   force =     0.00011845    0.00001844    0.00062664
     atom   41 type  2   force =    -0.00057808   -0.00034050   -0.00002416
     atom   42 type  2   force =     0.00069240    0.00014734   -0.00063081
     atom   43 type  1   force =    -0.00027410    0.00057988   -0.00022221
     atom   44 type  1   force =    -0.00012735   -0.00117161    0.00023227
     atom   45 type  2   force =     0.00001690   -0.00005371    0.10311731
     atom   46 type  2   force =    -0.07189459   -0.00002164   -0.02716804
     atom   47 type  2   force =     0.07179823    0.00040080   -0.02725704
     atom   48 type  3   force =     0.00036319   -0.00006660   -0.00038043
     atom   49 type  4   force =     0.00096095    0.00019874    0.00071804
     atom   50 type  5   force =    -0.00045774    0.00016308    0.00020275
     atom   51 type  5   force =     0.00000893   -0.00062244    0.00066205
     atom   52 type  5   force =    -0.00003713    0.00064263   -0.00060181
     atom   53 type  5   force =    -0.00061999   -0.00114973    0.00003793
     atom   54 type  2   force =    -0.00357477   -0.00099047    0.00027116
     atom   55 type  5   force =     0.00217123    0.00065580    0.00009305

     Total force =     0.362108     Total SCF correction =     0.000928
  @ DRIVER MODE: Message from server: STATUS
  @ DRIVER MODE: Message from server: GETFORCE
  @ DRIVER MODE: Returning v,forces,stress,ensemble

     Writing output data file ./calc.save/
  @ DRIVER MODE: Message from server: EXIT
  @ DRIVE MODE: Exiting

     General routines

     Parallel routines

   This run was terminated on:   8: 5:25  23Sep2021

   JOB DONE.