     Program PWSCF v.6.7GPU starts on 15Sep2021 at 16:35:21

     R & G space division:  proc/nbgrp/npool/nimage =      10
     Reading input from /storage/home/hcoda1/3/ntian30/research/carbon/CxH_vib/H2O_calc/ads_slab/CH2NH2O_a/out_0003/pw.inp
Warning: card &CELL ignored
Warning: card   CELL_DYNAMICS='IPI', ignored
Warning: card / ignored

     Current dimensions of program PWSCF are:
     Max number of different atomic species (ntypx) = 10
     Max number of k-points (npk) =  40000
     Max angular momentum in pseudopotentials (lmaxx) =  3
     Presently no symmetry can be used with electric field

     Message from routine cell_base_init:
     DEPRECATED: use true lattice parameter, not A to a.u. conversion factor

     IMPORTANT: XC functional enforced from input :
     Exchange-correlation= BEEF-VDW
                           (   1   4  43  14   2   0   0)
     Any further DFT definition will be discarded
     Please, verify this is what you really want

  @ DRIVER MODE: Connecting to
 qe_1139763_2852607.sched-torque.pace.gatech.edun6c94qsj_scratch
  using UNIX socket
  @ DRIVER MODE: Message from server: STATUS
  @ DRIVER MODE: Message from server: INIT
  @ DRIVER MODE: Receiving replica           0          -1
  @ DRIVER MODE: Receiving encoded integer          25
  @ DRIVER MODE:  SCF:  T  FORCE:  T  STRESS:  F  VC:  F  ENSEMBLE:  F
  @ DRIVER MODE:  SCF:  T  FORCE:  T  STRESS:  F  VC:  F  ENSEMBLE:  F

     Using Slab Decomposition

     bravais-lattice index     =            0
     lattice parameter (alat)  =       1.8897  a.u.
     unit-cell volume          =    6658.9804 (a.u.)^3
     number of atoms/cell      =           54
     number of atomic types    =            5
     number of electrons       =       397.00
     number of Kohn-Sham states=          208
     kinetic-energy cutoff     =      29.3995  Ry
     charge density cutoff     =     293.9946  Ry
     scf convergence threshold =      7.3E-08
     mixing beta               =       0.0500
     number of iterations used =            8  plain     mixing
     Exchange-correlation= BEEF-VDW
                           (   1   4  43  14   2   0   0)

     celldm(1)=   1.889726  celldm(2)=   0.000000  celldm(3)=   0.000000
     celldm(4)=   0.000000  celldm(5)=   0.000000  celldm(6)=   0.000000

     crystal axes: (cart. coord. in units of alat)
               a(1) = (   6.579727   0.000000   0.000000 )
               a(2) = (  -0.000775   5.961596   0.000000 )
               a(3) = (   0.000000   0.000000  25.155947 )

     reciprocal axes: (cart. coord. in units 2 pi/alat)
               b(1) = (  0.151982  0.000020  0.000000 )
               b(2) = (  0.000000  0.167740  0.000000 )
               b(3) = (  0.000000  0.000000  0.039752 )

     PseudoPot. # 1 for Ti read from file:
     /storage/coda1/p-amedford6/0/shared/rich_project_chbe-medford/medford-share/data/pseudos_module/espresso/nninc/pbe/van/Ti.UPF
     MD5 check sum: 8e4df49b7f0d34bbd5052bf3f5ea0213
     Pseudo is Ultrasoft, Zval = 12.0
     Generated by new atomic code, or converted to UPF format
     Using radial grid of  851 points,  6 beta functions with:
                l(1) =   0
                l(2) =   0
                l(3) =   1
                l(4) =   1
                l(5) =   2
                l(6) =   2
     Q(r) pseudized with  8 coefficients,  rinner =    1.000   1.000   1.000
                                                       1.000   1.000

     PseudoPot. # 2 for O  read from file:
     /storage/coda1/p-amedford6/0/shared/rich_project_chbe-medford/medford-share/data/pseudos_module/espresso/nninc/pbe/van/O.UPF
     MD5 check sum: 78c19812648e8988a0fe644b0f25305e
     Pseudo is Ultrasoft, Zval =  6.0
     Generated by new atomic code, or converted to UPF format
     Using radial grid of  737 points,  4 beta functions with:
                l(1) =   0
                l(2) =   0
                l(3) =   1
                l(4) =   1
     Q(r) pseudized with  8 coefficients,  rinner =    0.800   0.800   0.800

     PseudoPot. # 3 for N  read from file:
     /storage/coda1/p-amedford6/0/shared/rich_project_chbe-medford/medford-share/data/pseudos_module/espresso/nninc/pbe/van/N.UPF
     MD5 check sum: 90d10febe142ad51ac9d5be1deb811c4
     Pseudo is Ultrasoft, Zval =  5.0
     Generated by new atomic code, or converted to UPF format
     Using radial grid of  729 points,  4 beta functions with:
                l(1) =   0
                l(2) =   0
                l(3) =   1
                l(4) =   1
     Q(r) pseudized with  8 coefficients,  rinner =    0.800   0.800   0.800

     PseudoPot. # 4 for C  read from file:
     /storage/coda1/p-amedford6/0/shared/rich_project_chbe-medford/medford-share/data/pseudos_module/espresso/nninc/pbe/van/C.UPF
     MD5 check sum: 1a69bf6b8db32088f5b2163dbdb77a27
     Pseudo is Ultrasoft, Zval =  4.0
     Generated by new atomic code, or converted to UPF format
     Using radial grid of  721 points,  4 beta functions with:
                l(1) =   0
                l(2) =   0
                l(3) =   1
                l(4) =   1
     Q(r) pseudized with  8 coefficients,  rinner =    0.800   0.800   0.800

     PseudoPot. # 5 for H  read from file:
     /storage/coda1/p-amedford6/0/shared/rich_project_chbe-medford/medford-share/data/pseudos_module/espresso/nninc/pbe/van/H.UPF
     MD5 check sum: b5ee9d7bfd3a09ee7748110bda690ff7
     Pseudo is Ultrasoft, Zval =  1.0
     Generated by new atomic code, or converted to UPF format
     Using radial grid of  615 points,  1 beta functions with:
                l(1) =   0
     Q(r) pseudized with  8 coefficients,  rinner =    0.800

     atomic species   valence    mass     pseudopotential
        Ti1           12.00    47.86700     Ti( 1.00)
        O1             6.00    15.99900     O ( 1.00)
        N1             5.00    14.00700     N ( 1.00)
        C1             4.00    12.01100     C ( 1.00)
        H1             1.00     1.00800     H ( 1.00)

     No symmetry found

   Cartesian axes

     site n.     atom                  positions (alat units)
         1           Ti1 tau(   1) = (   0.0004258   2.9801865   6.0000000  )
         2           Ti1 tau(   2) = (   3.2906075   1.4906267   6.0002472  )
         3           O1  tau(   3) = (   0.0006271   0.0005054   7.9858123  )
         4           O1  tau(   4) = (   3.2906025   0.0005020   7.3038282  )
         5           O1  tau(   5) = (   4.5942328   1.4918067   9.2879030  )
         6           O1  tau(   6) = (   1.9868534   1.4903216   9.2879459  )
         7           Ti1 tau(   7) = (   3.2907910   2.8959150   9.1758416  )
         8           Ti1 tau(   8) = (   0.0015273   1.4827037   9.2680791  )
         9           O1  tau(   9) = (   3.3024300   0.0156651  11.3362489  )
        10           O1  tau(  10) = (   0.0116148   5.9584955  10.6183126  )
        11           O1  tau(  11) = (   1.3202942   1.5021919  12.6211084  )
        12           O1  tau(  12) = (   5.3089492   1.4933221  12.6244093  )
        13           Ti1 tau(  13) = (   6.5318549   2.9554166  12.6004298  )
        14           Ti1 tau(  14) = (   3.2163550   1.4959796  12.4995714  )
        15           O1  tau(  15) = (   0.0198598   0.0281632  14.6562685  )
        16           O1  tau(  16) = (   3.3115091   0.0214956  13.9462002  )
        17           O1  tau(  17) = (   4.5768415   1.5604546  16.0171077  )
        18           O1  tau(  18) = (   2.0579415   1.5629007  16.0064375  )
        19           Ti1 tau(  19) = (   3.3180608   3.0267156  15.6839788  )
        20           Ti1 tau(  20) = (   0.0373526   1.5614015  15.8096867  )
        21           O1  tau(  21) = (   3.2904802   0.0005063   4.7018136  )
        22           O1  tau(  22) = (   0.0417102   0.0258274  17.2400240  )
        23           O1  tau(  23) = (   1.3043587   1.4918075   6.0039043  )
        24           O1  tau(  24) = (   5.2767064   1.4903225   6.0039473  )
        25           Ti1 tau(  25) = (   0.0000382   5.9609847   6.0000000  )
        26           Ti1 tau(  26) = (   3.2902200   4.4714249   6.0002472  )
        27           O1  tau(  27) = (   0.0002396   2.9813036   7.9858123  )
        28           O1  tau(  28) = (   3.2902150   2.9813002   7.3038282  )
        29           O1  tau(  29) = (   4.5938453   4.4726049   9.2879030  )
        30           O1  tau(  30) = (   1.9864658   4.4711199   9.2879459  )
        31           Ti1 tau(  31) = (   3.2891106   5.8743827   9.1763621  )
        32           Ti1 tau(  32) = (   0.0006254   4.4649316   9.2693709  )
        33           O1  tau(  33) = (   3.2972593   2.9937737  11.3378417  )
        34           O1  tau(  34) = (   0.0092240   2.9805883  10.6323155  )
        35           O1  tau(  35) = (   1.3143161   4.4928581  12.6237603  )
        36           O1  tau(  36) = (   5.3098643   4.4818631  12.6293382  )
        37           Ti1 tau(  37) = (   6.5333161   5.9285706  12.5502982  )
        38           Ti1 tau(  38) = (   3.2144982   4.4885123  12.4917375  )
        39           O1  tau(  39) = (   0.0198576   2.9709144  14.6477637  )
        40           O1  tau(  40) = (   3.3145585   3.0140958  13.8917140  )
        41           O1  tau(  41) = (   4.5688195   4.4932876  16.0791699  )
        42           O1  tau(  42) = (   2.0650477   4.4875755  16.0663885  )
        43           Ti1 tau(  43) = (   3.3331689   0.0560974  15.7812046  )
        44           Ti1 tau(  44) = (   0.0348837   4.6827776  16.0884590  )
        45           O1  tau(  45) = (   3.2900926   2.9813045   4.7018136  )
        46           O1  tau(  46) = (   1.3039711   4.4726057   6.0039043  )
        47           O1  tau(  47) = (   5.2763189   4.4711207   6.0039473  )
        48           N1  tau(  48) = (   0.0359943   2.9609886  17.3934402  )
        49           C1  tau(  49) = (   0.0487696   2.8543938  18.6443550  )
        50           H1  tau(  50) = (   0.0551173   3.7295775  19.3121947  )
        51           H1  tau(  51) = (   0.0550652   1.8705629  19.1311967  )
        52           O1  tau(  52) = (   3.2796845   0.1561466  18.1797653  )
        53           H1  tau(  53) = (   4.0301203   5.5808867  18.4795516  )
        54           H1  tau(  54) = (   2.4663764   5.6445902  18.4210942  )

     number of k points=    10  Fermi-Dirac smearing, width (Ry)=  0.0073
                       cart. coord. in units 2pi/alat
        k(    1) = (   0.0000000   0.0000000   0.0000000), wk =   0.1250000
        k(    2) = (   0.0000000   0.0419351   0.0000000), wk =   0.2500000
        k(    3) = (   0.0000000  -0.0838702   0.0000000), wk =   0.1250000
        k(    4) = (   0.0379955   0.0000049   0.0000000), wk =   0.2500000
        k(    5) = (   0.0379955   0.0419400   0.0000000), wk =   0.2500000
        k(    6) = (   0.0379955  -0.0838652   0.0000000), wk =   0.2500000
        k(    7) = (   0.0379955  -0.0419301   0.0000000), wk =   0.2500000
        k(    8) = (  -0.0759910  -0.0000099   0.0000000), wk =   0.1250000
        k(    9) = (  -0.0759910   0.0419252   0.0000000), wk =   0.2500000
        k(   10) = (  -0.0759910  -0.0838800   0.0000000), wk =   0.1250000

     Initial potential from superposition of free atoms

     starting charge  380.99916, renormalised to  397.00000

     negative rho (up, down):  1.695E-02 0.000E+00

     %%%%%%%%%%%%%%%%%%%%%%%%%%%%%%%%%%%%%%%%%%%%%%%%%%%%%%%%%%%%%%%%%%%%%%%%
     %                                                                      %
     % You are using vdW-DF, which was implemented by the Thonhauser group. %
     % Please cite the following two papers that made this development      %
     % possible and the two reviews that describe the various versions:     %
     %                                                                      %
     %   T. Thonhauser et al., PRL 115, 136402 (2015).                      %
     %   T. Thonhauser et al., PRB 76, 125112 (2007).                       %
     %   K. Berland et al., Rep. Prog. Phys. 78, 066501 (2015).             %
     %   D.C. Langreth et al., J. Phys.: Condens. Matter 21, 084203 (2009). %
     %                                                                      %
     %                                                                      %
     % If you are calculating the stress with vdW-DF, please also cite:     %
     %                                                                      %
     %   R. Sabatini et al., J. Phys.: Condens. Matter 24, 424209 (2012).   %
     %                                                                      %
     %%%%%%%%%%%%%%%%%%%%%%%%%%%%%%%%%%%%%%%%%%%%%%%%%%%%%%%%%%%%%%%%%%%%%%%%

     Adding external electric field

     Computed dipole along edir(3) :
        Dipole               -9.2265 Ry au,        -23.4513 Debye
        Dipole field         -0.0174 Ry au,

        Potential amp.        1.6140 Ry
        Total length         46.3494 bohr

     Starting wfcs are  300 atomic wfcs
  @ DRIVER MODE: Message from server: STATUS
  @ DRIVER MODE: Message from server: POSDATA
  @ DRIVER MODE: Reading and sharing cell
  @ DRIVER MODE: Reading and sharing positions
  @ DRIVER MODE: Received positions

     Self-consistent Calculation

     iteration #  1     ecut=    29.40 Ry     beta= 0.05
     Davidson diagonalization with overlap
     c_bands:  1 eigenvalues not converged
     c_bands:  1 eigenvalues not converged
     c_bands:  1 eigenvalues not converged
     c_bands:  1 eigenvalues not converged
     c_bands:  1 eigenvalues not converged
     c_bands:  1 eigenvalues not converged
     c_bands:  1 eigenvalues not converged
     ethr =  1.00E-05,  avg # of iterations = 19.0

[...]

     total energy              =   -2550.54560103 Ry
     estimated scf accuracy    <    4467.43916310 Ry

     iteration #  2     ecut=    29.40 Ry     beta= 0.05
     Davidson diagonalization with overlap
     ethr =  1.00E-02,  avg # of iterations = 24.4

[...]

     iteration # 53     ecut=    29.40 Ry     beta= 0.05
     Davidson diagonalization with overlap
     c_bands:  2 eigenvalues not converged
     ethr =  5.81E-08,  avg # of iterations = 14.4

[...]

     total energy              =   -2952.76140942 Ry
     estimated scf accuracy    <       0.00000018 Ry

     iteration # 70     ecut=    29.40 Ry     beta= 0.05
     Davidson diagonalization with overlap
     ethr =  3.48E-11,  avg # of iterations = 13.7

     negative rho (up, down):  1.681E-02 0.000E+00

     Adding external electric field

     Computed dipole along edir(3) :
        Dipole                1.0255 Ry au,          2.6066 Debye
        Dipole field          0.0019 Ry au,

        Potential amp.       -0.1794 Ry
        Total length         46.3494 bohr

     End of self-consistent calculation

          k = 0.0000 0.0000 0.0000 ( 18029 PWs)   bands (ev):

   -55.6863 -55.6554 -55.6523 -55.6272 -55.6195 -55.5344 -55.5004 -55.4994
   -55.4685 -55.4664 -55.4629 -55.4292 -55.2086 -55.0003 -54.6661 -54.6320
   -32.1996 -32.1694 -32.0414 -32.0376 -31.9988 -31.9791 -31.9599 -31.9531
   -31.9302 -31.8901 -31.8812 -31.8508 -31.8386 -31.8380 -31.8334 -31.8130
   -31.7913 -31.7848 -31.7816 -31.7489 -31.7435 -31.7364 -31.7018 -31.6914
   -31.6912 -31.6897 -31.6799 -31.6624 -31.6621 -31.6532 -31.6487 -31.6399
   -31.6317 -31.6303 -31.6165 -31.6086 -31.5753 -31.4581 -31.4051 -31.2708
   -31.2523 -31.2133 -31.0731 -30.9848 -30.9624 -30.8900 -30.8035 -30.6923
   -19.1488 -16.4031 -16.1604 -15.9431 -15.8433 -15.8063 -15.6084 -15.5060
   -15.4188 -15.3093 -15.2448 -15.2237 -15.2190 -15.1977 -15.1874 -15.1459
   -15.1325 -15.1286 -15.1087 -15.0917 -15.0384 -15.0284 -15.0206 -14.9317
   -14.8583 -14.8234 -14.8179 -14.8063 -14.7914 -14.7448 -14.2996 -13.1680
   -13.0515  -7.4988  -6.9590  -4.2774  -3.8232  -3.7474  -3.6423  -3.5935
    -3.5525  -3.4105  -3.3488  -3.2609  -3.1452  -2.9333  -2.8738  -2.8341
    -2.8064  -2.7456  -2.5952  -2.5508  -2.4990  -2.4895  -2.4777  -2.4651
    -2.4373  -2.4223  -2.3267  -2.2859  -2.2393  -2.2288  -2.0901  -2.0776
    -2.0499  -1.9997  -1.9666  -1.9519  -1.9471  -1.9349  -1.9206  -1.8973
    -1.8723  -1.7700  -1.6794  -1.6114  -1.4978  -1.4538  -1.4089  -1.3072
    -1.3011  -1.2316  -1.1525  -1.1405  -1.1164  -1.0866  -1.0786  -0.9639
    -0.8579  -0.8444  -0.7445  -0.6912  -0.6084  -0.5795  -0.5249  -0.4787
    -0.4497  -0.4460  -0.4300  -0.3790  -0.2374  -0.2114  -0.1721  -0.0925
    -0.0342  -0.0227   0.0224   0.0636   0.1173   0.1430   0.1974   0.2053
     0.2392   0.2830   0.2865   0.3054   0.3227   0.3484   0.5223   0.5633
     0.5749   0.6510   0.6604   0.8285   0.8403   0.9681   1.0783   1.2832
     1.3565   1.4427   1.5487   1.6451   1.9277   1.9734   3.4421   3.5336
     3.5763   3.6070   3.6863   3.6893   3.8999   3.9167   3.9380   4.0210

[...]

          k = 0.0380-0.0419 0.0000 ( 17876 PWs)   bands (ev):

[...]

          k =-0.0760-0.0000 0.0000 ( 17886 PWs)   bands (ev):

[...]

          k =-0.0760-0.0839 0.0000 ( 17948 PWs)   bands (ev):

   -55.6696 -55.6689 -55.6384 -55.6363 -55.6252 -55.5197 -55.5143 -55.4833
   -55.4829 -55.4703 -55.4474 -55.4450 -55.2073 -55.0014 -54.6491 -54.6489
   -32.0119 -31.9974 -31.9849 -31.9844 -31.9648 -31.9641 -31.9217 -31.9161
   -31.9036 -31.8810 -31.8727 -31.8511 -31.8341 -31.8196 -31.8052 -31.8019
   -31.7986 -31.7953 -31.7891 -31.7885 -31.7862 -31.7834 -31.7719 -31.7374
   -31.7304 -31.7185 -31.7076 -31.6842 -31.6829 -31.6777 -31.6729 -31.6699
   -31.6630 -31.6602 -31.6574 -31.6549 -31.5807 -31.4615 -31.4000 -31.3444
   -31.2540 -31.2360 -30.9751 -30.9750 -30.8860 -30.8858 -30.8468 -30.8467
   -19.1480 -15.8546 -15.7563 -15.6415 -15.6108 -15.5599 -15.4954 -15.4834
   -15.4162 -15.3713 -15.3683 -15.2987 -15.2918 -15.2586 -15.2486 -15.2141
   -15.2132 -15.2068 -15.1562 -15.1431 -15.1274 -15.1252 -15.1186 -15.0424
   -15.0063 -15.0014 -14.9939 -14.9097 -14.8388 -14.7679 -14.4594 -13.1534
   -13.1532  -7.4957  -6.9519  -4.2509  -3.5302  -3.4443  -3.1395  -2.9693
    -2.8833  -2.8174  -2.7918  -2.7671  -2.6164  -2.5951  -2.5420  -2.5381
    -2.5144  -2.5118  -2.5077  -2.4893  -2.4821  -2.4569  -2.4306  -2.3899
    -2.3639  -2.3573  -2.3451  -2.3325  -2.3083  -2.2955  -2.2866  -2.2388
    -2.2362  -2.2176  -2.1248  -2.0540  -1.9104  -1.8922  -1.8495  -1.8272
    -1.8145  -1.7804  -1.7542  -1.7366  -1.6843  -1.6049  -1.5130  -1.4204
    -1.3793  -1.3670  -1.3018  -1.2823  -1.1891  -1.1646  -1.0895  -1.0701
    -0.9923  -0.9736  -0.8836  -0.8405  -0.8205  -0.7853  -0.7535  -0.7416
    -0.7106  -0.6540  -0.6417  -0.5902  -0.5651  -0.5000  -0.4377  -0.4168
    -0.4051  -0.3682  -0.3486  -0.3230  -0.1837  -0.1518  -0.1377  -0.0984
     0.0386   0.0722   0.2799   0.3663   0.3879   0.4664   0.5169   0.5979
     0.6221   0.6304   0.6465   0.6831   0.7732   0.8457   0.8571   0.8895
     0.9902   1.4939   1.7201   1.7210   1.7932   1.7933   3.7315   3.7748
     3.8103   3.8324   3.9285   3.9600   3.9809   3.9830   4.0347   4.1168

     the Fermi energy is     3.4455 ev

!    total energy              =   -2952.76143321 Ry
     estimated scf accuracy    <       0.00000003 Ry
     smearing contrib. (-TS)   =      -0.02155801 Ry
     internal energy E=F+TS    =   -2952.73987520 Ry

     The total energy is F=E-TS. E is the sum of the following terms:
     one-electron contribution =  -24472.80666434 Ry
     hartree contribution      =   12327.53256970 Ry
     xc contribution           =    -488.06553212 Ry
     ewald contribution        =    9680.59776684 Ry
     electric field correction =       0.00198471 Ry

     convergence has been achieved in  70 iterations

     Forces acting on atoms (cartesian axes, Ry/au):

     atom    1 type  1   force =    -0.00000473   -0.00028451    0.09611396
     atom    2 type  1   force =     0.00008230   -0.00045117   -0.17560709
     atom    3 type  2   force =     0.00011163   -0.00004151   -0.02420359
     atom    4 type  2   force =     0.00000784   -0.00136607    0.05326706
     atom    5 type  2   force =    -0.01131641    0.00005433    0.00282931
     atom    6 type  2   force =     0.01306529    0.00039847    0.00283726
     atom    7 type  1   force =     0.00079693    0.00047450   -0.00792329
     atom    8 type  1   force =     0.00007928    0.00683527    0.02439612
     atom    9 type  2   force =    -0.00025091   -0.00079818    0.00031632
     atom   10 type  2   force =    -0.00265975    0.00236062   -0.01480588
     atom   11 type  2   force =    -0.00020406   -0.00013235   -0.00054588
     atom   12 type  2   force =     0.00053682   -0.00003813   -0.00061414
     atom   13 type  1   force =    -0.00055098   -0.00160151    0.00055739
     atom   14 type  1   force =     0.00044685   -0.00020890   -0.00032866
     atom   15 type  2   force =     0.00000577   -0.00152722   -0.00037517
     atom   16 type  2   force =    -0.00005622   -0.00044747   -0.00025973
     atom   17 type  2   force =    -0.00124891   -0.00074406   -0.00003790
     atom   18 type  2   force =     0.00168056   -0.00049337    0.00001114
     atom   19 type  1   force =    -0.00038756    0.00041241    0.00007597
     atom   20 type  1   force =     0.00040590   -0.00101224   -0.00082378
     atom   21 type  2   force =     0.00005223   -0.00001308    0.10321336
     atom   22 type  2   force =    -0.00008876   -0.00154090    0.00106297
     atom   23 type  2   force =    -0.07150236   -0.00012355   -0.02769733
     atom   24 type  2   force =     0.07142036    0.00035354   -0.02777140
     atom   25 type  1   force =     0.00017779   -0.00025889    0.09582911
     atom   26 type  1   force =     0.00006170   -0.00033626   -0.17582065
     atom   27 type  2   force =     0.00014694   -0.00004616   -0.02328560
     atom   28 type  2   force =     0.00000919   -0.00107148    0.05287767
     atom   29 type  2   force =    -0.01165842    0.00075209    0.00296918
     atom   30 type  2   force =     0.01328960    0.00126349    0.00299629
     atom   31 type  1   force =     0.00071837    0.00395587   -0.01082691
     atom   32 type  1   force =     0.00009927   -0.00903930    0.02488076
     atom   33 type  2   force =    -0.00007079    0.00060693   -0.00012690
     atom   34 type  2   force =    -0.00202581    0.00169325   -0.02189383
     atom   35 type  2   force =     0.00004607   -0.00024708   -0.00026657
     atom   36 type  2   force =    -0.00007196   -0.00005555   -0.00060171
     atom   37 type  1   force =    -0.00029551    0.00154891   -0.00003235
     atom   38 type  1   force =     0.00053329    0.00040671    0.00017933
     atom   39 type  2   force =    -0.00009547    0.00012350   -0.00142783
     atom   40 type  2   force =     0.00012848    0.00013469    0.00037521
     atom   41 type  2   force =     0.00028848   -0.00026645    0.00021060
     atom   42 type  2   force =     0.00027381   -0.00035051    0.00026986
     atom   43 type  1   force =    -0.00104617   -0.00041044    0.00043082
     atom   44 type  1   force =     0.00038055   -0.00030508    0.00003847
     atom   45 type  2   force =     0.00004340   -0.00005540    0.10319994
     atom   46 type  2   force =    -0.07152223   -0.00005760   -0.02771781
     atom   47 type  2   force =     0.07143465    0.00037513   -0.02777672
     atom   48 type  3   force =    -0.00036893    0.00505474   -0.00188990
     atom   49 type  4   force =    -0.00013935   -0.00348935    0.00246050
     atom   50 type  5   force =    -0.00015193    0.00076328   -0.00078577
     atom   51 type  5   force =    -0.00015253   -0.00006287    0.00208283
     atom   52 type  2   force =     0.00152764    0.00037679   -0.00035346
     atom   53 type  5   force =    -0.00047369   -0.00041560   -0.00004788
     atom   54 type  5   force =    -0.00150756   -0.00065229    0.00036631

     Total force =     0.367072     Total SCF correction =     0.000637
  @ DRIVER MODE: Message from server: STATUS
  @ DRIVER MODE: Message from server: GETFORCE
  @ DRIVER MODE: Returning v,forces,stress,ensemble

     Writing output data file ./calc.save/
  @ DRIVER MODE: Message from server: EXIT
  @ DRIVE MODE: Exiting

     General routines

     Parallel routines

   This run was terminated on:  16:55:24  15Sep2021

   JOB DONE.