     Program PWSCF v.6.7GPU starts on 24Sep2021 at 10:37:38

     R & G space division:  proc/nbgrp/npool/nimage =       8
     Reading input from /storage/home/hcoda1/3/ntian30/research/carbon/CxH_vib/H2O_calc/ads_slab/CH2NNHHHHO_a/out_0054/pw.inp
Warning: card &CELL ignored
Warning: card   CELL_DYNAMICS='IPI', ignored
Warning: card / ignored

     Current dimensions of program PWSCF are:
     Max number of different atomic species (ntypx) = 10
     Max number of k-points (npk) =  40000
     Max angular momentum in pseudopotentials (lmaxx) =  3
     Presently no symmetry can be used with electric field

     Message from routine cell_base_init:
     DEPRECATED: use true lattice parameter, not A to a.u. conversion factor

     IMPORTANT: XC functional enforced from input :
     Exchange-correlation= BEEF-VDW
                           (   1   4  43  14   2   0   0)
     Any further DFT definition will be discarded
     Please, verify this is what you really want

  @ DRIVER MODE: Connecting to
 qe_1139763_2947316.sched-torque.pace.gatech.edumn563ila_scratch
  using UNIX socket
  @ DRIVER MODE: Message from server: STATUS
  @ DRIVER MODE: Message from server: INIT
  @ DRIVER MODE: Receiving replica           0          -1
  @ DRIVER MODE: Receiving encoded integer          25
  @ DRIVER MODE:  SCF:  T  FORCE:  T  STRESS:  F  VC:  F  ENSEMBLE:  F
  @ DRIVER MODE:  SCF:  T  FORCE:  T  STRESS:  F  VC:  F  ENSEMBLE:  F

     Using Slab Decomposition

     bravais-lattice index     =            0
     lattice parameter (alat)  =       1.8897  a.u.
     unit-cell volume          =    6658.9804 (a.u.)^3
     number of atoms/cell      =           57
     number of atomic types    =            5
     number of electrons       =       404.00
     number of Kohn-Sham states=          212
     kinetic-energy cutoff     =      29.3995  Ry
     charge density cutoff     =     293.9946  Ry
     scf convergence threshold =      7.3E-08
     mixing beta               =       0.0500
     number of iterations used =            8  plain     mixing
     Exchange-correlation= BEEF-VDW
                           (   1   4  43  14   2   0   0)

     celldm(1)=   1.889726  celldm(2)=   0.000000  celldm(3)=   0.000000
     celldm(4)=   0.000000  celldm(5)=   0.000000  celldm(6)=   0.000000

     crystal axes: (cart. coord. in units of alat)
               a(1) = (   6.579727   0.000000   0.000000 )
               a(2) = (  -0.000775   5.961596   0.000000 )
               a(3) = (   0.000000   0.000000  25.155947 )

     reciprocal axes: (cart. coord. in units 2 pi/alat)
               b(1) = (  0.151982  0.000020  0.000000 )
               b(2) = (  0.000000  0.167740  0.000000 )
               b(3) = (  0.000000  0.000000  0.039752 )

     PseudoPot. # 1 for Ti read from file:
     /storage/coda1/p-amedford6/0/shared/rich_project_chbe-medford/medford-share/data/pseudos_module/espresso/nninc/pbe/van/Ti.UPF
     MD5 check sum: 8e4df49b7f0d34bbd5052bf3f5ea0213
     Pseudo is Ultrasoft, Zval = 12.0
     Generated by new atomic code, or converted to UPF format
     Using radial grid of  851 points,  6 beta functions with:
                l(1) =   0
                l(2) =   0
                l(3) =   1
                l(4) =   1
                l(5) =   2
                l(6) =   2
     Q(r) pseudized with  8 coefficients,  rinner =    1.000   1.000   1.000
                                                       1.000   1.000

     PseudoPot. # 2 for O  read from file:
     /storage/coda1/p-amedford6/0/shared/rich_project_chbe-medford/medford-share/data/pseudos_module/espresso/nninc/pbe/van/O.UPF
     MD5 check sum: 78c19812648e8988a0fe644b0f25305e
     Pseudo is Ultrasoft, Zval =  6.0
     Generated by new atomic code, or converted to UPF format
     Using radial grid of  737 points,  4 beta functions with:
                l(1) =   0
                l(2) =   0
                l(3) =   1
                l(4) =   1
     Q(r) pseudized with  8 coefficients,  rinner =    0.800   0.800   0.800

     PseudoPot. # 3 for N  read from file:
     /storage/coda1/p-amedford6/0/shared/rich_project_chbe-medford/medford-share/data/pseudos_module/espresso/nninc/pbe/van/N.UPF
     MD5 check sum: 90d10febe142ad51ac9d5be1deb811c4
     Pseudo is Ultrasoft, Zval =  5.0
     Generated by new atomic code, or converted to UPF format
     Using radial grid of  729 points,  4 beta functions with:
                l(1) =   0
                l(2) =   0
                l(3) =   1
                l(4) =   1
     Q(r) pseudized with  8 coefficients,  rinner =    0.800   0.800   0.800

     PseudoPot. # 4 for C  read from file:
     /storage/coda1/p-amedford6/0/shared/rich_project_chbe-medford/medford-share/data/pseudos_module/espresso/nninc/pbe/van/C.UPF
     MD5 check sum: 1a69bf6b8db32088f5b2163dbdb77a27
     Pseudo is Ultrasoft, Zval =  4.0
     Generated by new atomic code, or converted to UPF format
     Using radial grid of  721 points,  4 beta functions with:
                l(1) =   0
                l(2) =   0
                l(3) =   1
                l(4) =   1
     Q(r) pseudized with  8 coefficients,  rinner =    0.800   0.800   0.800

     PseudoPot. # 5 for H  read from file:
     /storage/coda1/p-amedford6/0/shared/rich_project_chbe-medford/medford-share/data/pseudos_module/espresso/nninc/pbe/van/H.UPF
     MD5 check sum: b5ee9d7bfd3a09ee7748110bda690ff7
     Pseudo is Ultrasoft, Zval =  1.0
     Generated by new atomic code, or converted to UPF format
     Using radial grid of  615 points,  1 beta functions with:
                l(1) =   0
     Q(r) pseudized with  8 coefficients,  rinner =    0.800

     atomic species   valence    mass     pseudopotential
        Ti1           12.00    47.86700     Ti( 1.00)
        O1             6.00    15.99900     O ( 1.00)
        N1             5.00    14.00700     N ( 1.00)
        C1             4.00    12.01100     C ( 1.00)
        H1             1.00     1.00800     H ( 1.00)

     No symmetry found

   Cartesian axes

     site n.     atom                  positions (alat units)
         1           Ti1 tau(   1) = (   0.0004258   2.9801865   6.0000000  )
         2           Ti1 tau(   2) = (   3.2906075   1.4906267   6.0002472  )
         3           O1  tau(   3) = (   0.0006271   0.0005054   7.9858123  )
         4           O1  tau(   4) = (   3.2906025   0.0005020   7.3038282  )
         5           O1  tau(   5) = (   4.5942328   1.4918067   9.2879030  )
         6           O1  tau(   6) = (   1.9868534   1.4903216   9.2879459  )
         7           Ti1 tau(   7) = (   3.2907910   2.8959150   9.1758416  )
         8           Ti1 tau(   8) = (   0.0015273   1.4827037   9.2680791  )
         9           O1  tau(   9) = (   3.3027076   5.9092304  11.3732431  )
        10           O1  tau(  10) = (   0.0116148   5.9584955  10.6183126  )
        11           O1  tau(  11) = (   1.2953868   1.4751764  12.6403503  )
        12           O1  tau(  12) = (   5.3168701   1.4807623  12.6366210  )
        13           Ti1 tau(  13) = (   0.0172323   2.9996225  12.5311828  )
        14           Ti1 tau(  14) = (   3.3257086   1.2755711  12.7138078  )
        15           O1  tau(  15) = (   6.5733368   0.1082846  14.6600873  )
        16           O1  tau(  16) = (   3.3238075   0.0838359  14.0473399  )
        17           O1  tau(  17) = (   4.5575128   1.5393005  16.2317518  )
        18           O1  tau(  18) = (   2.0302387   1.4963625  16.2670071  )
        19           Ti1 tau(  19) = (   3.2366114   2.9448900  15.6849520  )
        20           Ti1 tau(  20) = (   6.5300729   1.3987400  16.1165465  )
        21           O1  tau(  21) = (   3.2904802   0.0005063   4.7018136  )
        22           O1  tau(  22) = (   0.0022030   5.7760056  17.1861099  )
        23           O1  tau(  23) = (   1.3043587   1.4918075   6.0039043  )
        24           O1  tau(  24) = (   5.2767064   1.4903225   6.0039473  )
        25           Ti1 tau(  25) = (   0.0000382   5.9609847   6.0000000  )
        26           Ti1 tau(  26) = (   3.2902200   4.4714249   6.0002472  )
        27           O1  tau(  27) = (   0.0002396   2.9813036   7.9858123  )
        28           O1  tau(  28) = (   3.2902150   2.9813002   7.3038282  )
        29           O1  tau(  29) = (   4.5938453   4.4726049   9.2879030  )
        30           O1  tau(  30) = (   1.9864658   4.4711199   9.2879459  )
        31           Ti1 tau(  31) = (   3.2891106   5.8743827   9.1763621  )
        32           Ti1 tau(  32) = (   0.0006254   4.4649316   9.2693709  )
        33           O1  tau(  33) = (   3.3012885   2.9833904  11.3212188  )
        34           O1  tau(  34) = (   0.0092240   2.9805883  10.6323155  )
        35           O1  tau(  35) = (   1.2895456   4.4501540  12.7025460  )
        36           O1  tau(  36) = (   5.3143371   4.4382646  12.6927937  )
        37           Ti1 tau(  37) = (   0.0343555   0.0433052  12.5107970  )
        38           Ti1 tau(  38) = (   3.3217552   4.3482123  12.4486840  )
        39           O1  tau(  39) = (   0.0141661   2.9064423  14.8877341  )
        40           O1  tau(  40) = (   3.2920978   2.9424077  13.9176102  )
        41           O1  tau(  41) = (   4.5506947   4.3398720  16.1100615  )
        42           O1  tau(  42) = (   2.0210198   4.4131678  16.0160425  )
        43           Ti1 tau(  43) = (   3.3132698   5.9358869  16.2610495  )
        44           Ti1 tau(  44) = (   0.0826266   4.5979890  15.7080129  )
        45           O1  tau(  45) = (   3.2900926   2.9813045   4.7018136  )
        46           O1  tau(  46) = (   1.3039711   4.4726057   6.0039043  )
        47           O1  tau(  47) = (   5.2763189   4.4711207   6.0039473  )
        48           N1  tau(  48) = (   6.5643472   2.7424576  18.0625816  )
        49           C1  tau(  49) = (   0.8744728   2.5686873  19.0232366  )
        50           H1  tau(  50) = (   0.8543601   3.1364980  19.9465443  )
        51           H1  tau(  51) = (   1.6733950   1.8773151  18.8242213  )
        52           N1  tau(  52) = (   5.5366205   3.6779994  18.4753393  )
        53           H1  tau(  53) = (   5.9486539   4.6347284  18.5635686  )
        54           H1  tau(  54) = (   4.8775701   3.8234783  17.6645784  )
        55           H1  tau(  55) = (   5.0440791   3.3775604  19.3232938  )
        56           O1  tau(  56) = (   3.4091604   5.6710612  18.1644331  )
        57           H1  tau(  57) = (   3.1368125   0.4262250  18.7404830  )

     number of k points=    10  Fermi-Dirac smearing, width (Ry)=  0.0073
                       cart. coord. in units 2pi/alat
        k(    1) = (   0.0000000   0.0000000   0.0000000), wk =   0.1250000
        k(    2) = (   0.0000000   0.0419351   0.0000000), wk =   0.2500000
        k(    3) = (   0.0000000  -0.0838702   0.0000000), wk =   0.1250000
        k(    4) = (   0.0379955   0.0000049   0.0000000), wk =   0.2500000
        k(    5) = (   0.0379955   0.0419400   0.0000000), wk =   0.2500000
        k(    6) = (   0.0379955  -0.0838652   0.0000000), wk =   0.2500000
        k(    7) = (   0.0379955  -0.0419301   0.0000000), wk =   0.2500000
        k(    8) = (  -0.0759910  -0.0000099   0.0000000), wk =   0.1250000
        k(    9) = (  -0.0759910   0.0419252   0.0000000), wk =   0.2500000
        k(   10) = (  -0.0759910  -0.0838800   0.0000000), wk =   0.1250000

     Initial potential from superposition of free atoms

     starting charge  387.99913, renormalised to  404.00000

     negative rho (up, down):  1.545E-02 0.000E+00

     %%%%%%%%%%%%%%%%%%%%%%%%%%%%%%%%%%%%%%%%%%%%%%%%%%%%%%%%%%%%%%%%%%%%%%%%
     %                                                                      %
     % You are using vdW-DF, which was implemented by the Thonhauser group. %
     % Please cite the following two papers that made this development      %
     % possible and the two reviews that describe the various versions:     %
     %                                                                      %
     %   T. Thonhauser et al., PRL 115, 136402 (2015).                      %
     %   T. Thonhauser et al., PRB 76, 125112 (2007).                       %
     %   K. Berland et al., Rep. Prog. Phys. 78, 066501 (2015).             %
     %   D.C. Langreth et al., J. Phys.: Condens. Matter 21, 084203 (2009). %
     %                                                                      %
     %                                                                      %
     % If you are calculating the stress with vdW-DF, please also cite:     %
     %                                                                      %
     %   R. Sabatini et al., J. Phys.: Condens. Matter 24, 424209 (2012).   %
     %                                                                      %
     %%%%%%%%%%%%%%%%%%%%%%%%%%%%%%%%%%%%%%%%%%%%%%%%%%%%%%%%%%%%%%%%%%%%%%%%

     Adding external electric field

     Computed dipole along edir(3) :
        Dipole              -13.5908 Ry au,        -34.5445 Debye
        Dipole field         -0.0256 Ry au,

        Potential amp.        2.3775 Ry
        Total length         46.3494 bohr

     Starting wfcs are  306 atomic wfcs
  @ DRIVER MODE: Message from server: STATUS
  @ DRIVER MODE: Message from server: POSDATA
  @ DRIVER MODE: Reading and sharing cell
  @ DRIVER MODE: Reading and sharing positions
  @ DRIVER MODE: Received positions

     Self-consistent Calculation

     iteration #  1     ecut=    29.40 Ry     beta= 0.05
     Davidson diagonalization with overlap
     c_bands:  4 eigenvalues not converged
     c_bands:  1 eigenvalues not converged
     c_bands:  1 eigenvalues not converged
     c_bands:  1 eigenvalues not converged
     c_bands:  2 eigenvalues not converged
     c_bands:  4 eigenvalues not converged
     c_bands:  5 eigenvalues not converged
     c_bands:  2 eigenvalues not converged
     ethr =  1.00E-05,  avg # of iterations = 29.7

[...]

     total energy              =   -2247.83037693 Ry
     estimated scf accuracy    <    8243.03095810 Ry

     iteration #  2     ecut=    29.40 Ry     beta= 0.05
     Davidson diagonalization with overlap
     ethr =  1.00E-02,  avg # of iterations = 27.7

[...]

     iteration # 48     ecut=    29.40 Ry     beta= 0.05
     Davidson diagonalization with overlap
     c_bands:  1 eigenvalues not converged
     ethr =  4.45E-09,  avg # of iterations = 13.4

[...]

     total energy              =   -2975.12429079 Ry
     estimated scf accuracy    <       0.00000013 Ry

     iteration # 60     ecut=    29.40 Ry     beta= 0.05
     Davidson diagonalization with overlap
     ethr =  3.33E-11,  avg # of iterations =  8.7

     negative rho (up, down):  1.385E-02 0.000E+00

     Adding external electric field

     Computed dipole along edir(3) :
        Dipole                1.3711 Ry au,          3.4849 Debye
        Dipole field          0.0026 Ry au,

        Potential amp.       -0.2398 Ry
        Total length         46.3494 bohr

     End of self-consistent calculation

          k = 0.0000 0.0000 0.0000 ( 18029 PWs)   bands (ev):

   -55.3907 -55.2489 -55.2148 -55.1238 -55.0886 -55.0824 -55.0783 -55.0443
   -55.0381 -54.9900 -54.9616 -54.9264 -54.8744 -54.7443 -54.2295 -54.1955
   -31.7344 -31.7190 -31.6160 -31.6109 -31.5832 -31.5801 -31.5398 -31.5317
   -31.5218 -31.4948 -31.4517 -31.4480 -31.4014 -31.3740 -31.3724 -31.3622
   -31.3563 -31.3154 -31.3063 -31.3048 -31.2873 -31.2768 -31.2725 -31.2673
   -31.2655 -31.2265 -31.2227 -31.2220 -31.2175 -31.2056 -31.1967 -31.1910
   -31.1840 -31.1506 -31.1442 -31.1141 -31.1057 -31.0894 -31.0842 -31.0802
   -31.0055 -30.9119 -30.6359 -30.5486 -30.5262 -30.4533 -30.3669 -30.2552
   -19.1890 -16.3136 -15.9285 -15.7725 -15.5916 -15.4523 -15.4118 -15.1883
   -15.1327 -15.0458 -15.0262 -14.9088 -14.7912 -14.7903 -14.7698 -14.7629
   -14.7474 -14.7022 -14.6972 -14.6944 -14.6751 -14.6536 -14.6328 -14.6231
   -14.5856 -14.5446 -14.3931 -14.3712 -14.3533 -14.3102 -14.1750 -14.0051
   -12.7284 -12.6119  -9.1914  -7.6877  -6.8954  -6.1372  -4.2946  -3.5889
    -3.2764  -3.1789  -3.1560  -3.1460  -3.0127  -2.8426  -2.6472  -2.5853
    -2.5229  -2.4080  -2.3794  -2.2838  -2.2615  -2.2210  -2.1651  -2.1419
    -2.1142  -2.0596  -2.0465  -2.0385  -1.9484  -1.9287  -1.8255  -1.8051
    -1.7720  -1.7141  -1.6863  -1.6200  -1.5884  -1.5658  -1.5635  -1.5558
    -1.5328  -1.5192  -1.4968  -1.4446  -1.4129  -1.3508  -1.2853  -1.2097
    -1.1362  -0.9112  -0.8663  -0.8476  -0.7929  -0.7538  -0.6911  -0.6589
    -0.6471  -0.6319  -0.5618  -0.4540  -0.4051  -0.3667  -0.3117  -0.2873
    -0.2553  -0.1489  -0.0716  -0.0542  -0.0088   0.0307   0.0565   0.1224
     0.1593   0.1987   0.2709   0.2824   0.3572   0.4100   0.4208   0.4734
     0.5067   0.5708   0.6169   0.6650   0.6721   0.7014   0.7196   0.7508
     0.8365   0.8535   0.8965   0.9289   0.9898   1.0443   1.0694   1.2434
     1.3685   1.4028   1.4722   1.7389   1.7967   1.8124   1.9874   2.3650
     2.4106   3.8373   3.9773   3.9870   3.9961   4.0649   4.1186   4.1413
     4.3234   4.3588   4.4781   4.5205

[...]

          k = 0.0380-0.0419 0.0000 ( 17876 PWs)   bands (ev):

[...]

          k =-0.0760-0.0000 0.0000 ( 17886 PWs)   bands (ev):

[...]

          k =-0.0760-0.0839 0.0000 ( 17948 PWs)   bands (ev):

   -55.3900 -55.2319 -55.2317 -55.1092 -55.1031 -55.0829 -55.0615 -55.0607
   -55.0313 -54.9969 -54.9604 -54.9205 -54.8801 -54.7455 -54.2128 -54.2121
   -31.6585 -31.6015 -31.5863 -31.5498 -31.5496 -31.5254 -31.5250 -31.5049
   -31.4434 -31.4181 -31.3967 -31.3846 -31.3813 -31.3775 -31.3702 -31.3519
   -31.3512 -31.3474 -31.3451 -31.3339 -31.3306 -31.3121 -31.3048 -31.2834
   -31.2707 -31.2633 -31.2571 -31.2475 -31.2384 -31.2365 -31.2338 -31.2253
   -31.2182 -31.2133 -31.1865 -31.1489 -31.1239 -31.1100 -31.0966 -31.0867
   -31.0073 -30.9841 -30.5392 -30.5387 -30.4493 -30.4481 -30.4104 -30.4098
   -19.1851 -16.3007 -15.4602 -15.4122 -15.2256 -15.2222 -15.1973 -15.1341
   -15.0962 -15.0443 -15.0274 -14.9915 -14.9533 -14.9365 -14.9118 -14.8401
   -14.7965 -14.7703 -14.7588 -14.7227 -14.7065 -14.7059 -14.6743 -14.6519
   -14.6419 -14.5756 -14.5632 -14.4955 -14.4402 -14.4154 -14.2883 -14.2420
   -12.7139 -12.7134  -9.1792  -7.6990  -6.8808  -6.1461  -4.3252  -3.5760
    -2.6498  -2.6452  -2.4469  -2.4145  -2.3483  -2.2784  -2.2441  -2.2244
    -2.1769  -2.1701  -2.1305  -2.1081  -2.0717  -2.0429  -2.0360  -2.0183
    -2.0018  -1.9791  -1.9571  -1.9400  -1.9341  -1.9048  -1.8836  -1.8732
    -1.8304  -1.8235  -1.7984  -1.7802  -1.7457  -1.6810  -1.6212  -1.5025
    -1.4633  -1.4353  -1.4145  -1.3999  -1.3718  -1.3358  -1.3200  -1.3055
    -1.2767  -1.2636  -1.1534  -1.0074  -0.9950  -0.9010  -0.8663  -0.8599
    -0.7557  -0.7229  -0.6902  -0.6627  -0.6071  -0.5683  -0.4704  -0.4590
    -0.4085  -0.3431  -0.2502  -0.2423  -0.2265  -0.1977  -0.1746  -0.1677
    -0.1087  -0.0715  -0.0358   0.0186   0.0365   0.0587   0.0922   0.1884
     0.2146   0.3281   0.4526   0.4904   0.5175   0.5453   0.6788   0.7426
     0.7783   0.8553   0.9147   0.9347   1.0383   1.0565   1.0880   1.1430
     1.2134   1.2633   1.2793   1.3074   1.3203   2.1577   2.1658   2.2308
     2.2312   3.7959   3.9981   4.2505   4.3246   4.3461   4.3755   4.3980
     4.4302   4.4558   4.4993   4.5143

     the Fermi energy is     3.8731 ev

!    total energy              =   -2975.12434516 Ry
     estimated scf accuracy    <       0.00000006 Ry
     smearing contrib. (-TS)   =      -0.03111482 Ry
     internal energy E=F+TS    =   -2975.09323035 Ry

     The total energy is F=E-TS. E is the sum of the following terms:
     one-electron contribution =  -23507.03194744 Ry
     hartree contribution      =   11851.79193866 Ry
     xc contribution           =    -494.85979701 Ry
     ewald contribution        =    9175.00302794 Ry
     electric field correction =       0.00354750 Ry

     convergence has been achieved in  60 iterations

     Forces acting on atoms (cartesian axes, Ry/au):

     atom    1 type  1   force =     0.00014208   -0.00021104    0.09452145
     atom    2 type  1   force =    -0.00007443    0.00040217   -0.17565263
     atom    3 type  2   force =     0.00003594   -0.00002803   -0.02143369
     atom    4 type  2   force =     0.00000374   -0.00223485    0.05509345
     atom    5 type  2   force =    -0.00785005   -0.00313731    0.00369933
     atom    6 type  2   force =     0.00957325   -0.00256454    0.00358994
     atom    7 type  1   force =     0.00003018   -0.00297512    0.00575344
     atom    8 type  1   force =    -0.00022601    0.00256025    0.00563239
     atom    9 type  2   force =    -0.00035137   -0.00025001    0.00006853
     atom   10 type  2   force =    -0.00116130   -0.00256902   -0.00855792
     atom   11 type  2   force =    -0.00068303   -0.00069399   -0.00014973
     atom   12 type  2   force =     0.00027842   -0.00070261   -0.00006285
     atom   13 type  1   force =     0.00008212    0.00005101    0.00040089
     atom   14 type  1   force =    -0.00014311   -0.00021694    0.00000906
     atom   15 type  2   force =     0.00012636   -0.00047076    0.00007267
     atom   16 type  2   force =     0.00005493   -0.00080499    0.00016640
     atom   17 type  2   force =    -0.00002778    0.00006131   -0.00017703
     atom   18 type  2   force =    -0.00037530    0.00015221   -0.00033153
     atom   19 type  1   force =     0.00033071    0.00025393   -0.00003151
     atom   20 type  1   force =     0.00023364   -0.00060181   -0.00004607
     atom   21 type  2   force =     0.00005671    0.00002453    0.10331456
     atom   22 type  2   force =    -0.00000699    0.00083306   -0.00094474
     atom   23 type  2   force =    -0.07178155   -0.00020149   -0.02726254
     atom   24 type  2   force =     0.07161803    0.00024029   -0.02732630
     atom   25 type  1   force =     0.00006609   -0.00034019    0.09391233
     atom   26 type  1   force =    -0.00016241   -0.00123461   -0.17593247
     atom   27 type  2   force =     0.00013842   -0.00024426   -0.02015867
     atom   28 type  2   force =     0.00003511   -0.00056250    0.05062075
     atom   29 type  2   force =    -0.00680451    0.00147689    0.00205771
     atom   30 type  2   force =     0.00850255    0.00183366    0.00197270
     atom   31 type  1   force =     0.00015034    0.00701599   -0.00371079
     atom   32 type  1   force =    -0.00028515   -0.00257396    0.00509477
     atom   33 type  2   force =    -0.00000363    0.00030637   -0.00008982
     atom   34 type  2   force =    -0.00012079    0.00278915   -0.00827708
     atom   35 type  2   force =     0.00026853    0.00066609   -0.00029945
     atom   36 type  2   force =    -0.00102697    0.00054305   -0.00044709
     atom   37 type  1   force =     0.00013373   -0.00046112    0.00011032
     atom   38 type  1   force =    -0.00015568   -0.00014810   -0.00013652
     atom   39 type  2   force =    -0.00009341   -0.00002789    0.00018604
     atom   40 type  2   force =    -0.00046724    0.00013197   -0.00003313
     atom   41 type  2   force =    -0.00019944    0.00062069    0.00001073
     atom   42 type  2   force =     0.00058791    0.00051372    0.00047468
     atom   43 type  1   force =     0.00051010    0.00013137    0.00374416
     atom   44 type  1   force =    -0.00010936   -0.00017078    0.00001416
     atom   45 type  2   force =     0.00001588   -0.00011146    0.10307095
     atom   46 type  2   force =    -0.07184579   -0.00004494   -0.02732038
     atom   47 type  2   force =     0.07168675    0.00035190   -0.02735849
     atom   48 type  3   force =     0.00073996    0.00004320   -0.00037505
     atom   49 type  4   force =     0.00002121    0.00015282   -0.00066052
     atom   50 type  5   force =     0.00022523   -0.00039955   -0.00071667
     atom   51 type  5   force =    -0.00122431    0.00025569   -0.00034273
     atom   52 type  3   force =     0.00001045    0.00005641   -0.00068219
     atom   53 type  5   force =    -0.00079156    0.00046275   -0.00047642
     atom   54 type  5   force =     0.00033829    0.00024009    0.00102192
     atom   55 type  5   force =     0.00031765    0.00031778   -0.00005475
     atom   56 type  2   force =     0.00380344   -0.00741614   -0.01215837
     atom   57 type  5   force =    -0.00414654    0.00890967    0.00659381

     Total force =     0.363243     Total SCF correction =     0.000658
  @ DRIVER MODE: Message from server: STATUS
  @ DRIVER MODE: Message from server: GETFORCE
  @ DRIVER MODE: Returning v,forces,stress,ensemble

     Writing output data file ./calc.save/
  @ DRIVER MODE: Message from server: EXIT
  @ DRIVE MODE: Exiting

     General routines

     Parallel routines

   This run was terminated on:  11: 1:52  24Sep2021

   JOB DONE.