     Program PWSCF v.7.0 starts on 16Aug2022 at 14:42:57

     R & G space division:  proc/nbgrp/npool/nimage =       6

     Reading input from /storage/coda1/p-amedford6/0/ntian30/BEEF_carbon_assisted/ads_slab/CH2N_a/BEEF_carbon_assisted.log/pw.inp
Warning: card &CELL ignored
Warning: card   CELL_DYNAMICS='IPI', ignored
Warning: card / ignored

     Current dimensions of program PWSCF are:
     Max number of different atomic species (ntypx) = 10
     Max number of k-points (npk) =  40000
     Max angular momentum in pseudopotentials (lmaxx) =  4
     Presently no symmetry can be used with electric field

     Message from routine cell_base_init:
     DEPRECATED: use true lattice parameter, not A to a.u. conversion factor

     IMPORTANT: XC functional enforced from input :
     Exchange-correlation= BEEF-VDW
                           (   1   4  43  14   2   0   0)
     Any further DFT definition will be discarded
     Please, verify this is what you really want

  @ DRIVER MODE: Connecting to
 qe_1139763_4802518.sched-torque.pace.gatech.eduef4mh56z_scratch
  using UNIX socket
  @ DRIVER MODE: Message from server: STATUS
  @ DRIVER MODE: Message from server: INIT
  @ DRIVER MODE: Receiving replica           0          -1
  @ DRIVER MODE: Receiving parameter string
 lscf : 1, lforce : 1, lstress : 0, lmovecell : 0, lensemb : 0,

     Using Slab Decomposition

     bravais-lattice index     =            0
     lattice parameter (alat)  =       1.8897  a.u.
     unit-cell volume          =    6658.9804 (a.u.)^3
     number of atoms/cell      =           51
     number of atomic types    =            5
     number of electrons       =       389.00
     number of Kohn-Sham states=          204
     kinetic-energy cutoff     =      29.3995  Ry
     charge density cutoff     =     293.9946  Ry
     scf convergence threshold =      7.3E-08
     mixing beta               =       0.0500
     number of iterations used =            8  plain     mixing
     energy convergence thresh.=      1.0E-04
     force convergence thresh. =      1.0E-03
     Exchange-correlation= BEEF-VDW
                           (   1   4  43  14   2   0   0)
     nstep                     =           50

     celldm(1)=   1.889726  celldm(2)=   0.000000  celldm(3)=   0.000000
     celldm(4)=   0.000000  celldm(5)=   0.000000  celldm(6)=   0.000000

     crystal axes: (cart. coord. in units of alat)
               a(1) = (   6.579727   0.000000   0.000000 )
               a(2) = (  -0.000775   5.961596   0.000000 )
               a(3) = (   0.000000   0.000000  25.155947 )

     reciprocal axes: (cart. coord. in units 2 pi/alat)
               b(1) = (  0.151982  0.000020  0.000000 )
               b(2) = (  0.000000  0.167740  0.000000 )
               b(3) = (  0.000000  0.000000  0.039752 )

     PseudoPot. # 1 for Ti read from file:
     /storage/coda1/p-amedford6/0/shared/rich_project_chbe-medford/medford-share/data/pseudos_module/espresso/nninc/pbe/van/Ti.UPF
     MD5 check sum: 8e4df49b7f0d34bbd5052bf3f5ea0213
     Pseudo is Ultrasoft, Zval = 12.0
     Generated by new atomic code, or converted to UPF format
     Using radial grid of  851 points,  6 beta functions with:
                l(1) =   0
                l(2) =   0
                l(3) =   1
                l(4) =   1
                l(5) =   2
                l(6) =   2
     Q(r) pseudized with  8 coefficients,  rinner =    1.000   1.000   1.000
                                                       1.000   1.000

     PseudoPot. # 2 for O  read from file:
     /storage/coda1/p-amedford6/0/shared/rich_project_chbe-medford/medford-share/data/pseudos_module/espresso/nninc/pbe/van/O.UPF
     MD5 check sum: 78c19812648e8988a0fe644b0f25305e
     Pseudo is Ultrasoft, Zval =  6.0
     Generated by new atomic code, or converted to UPF format
     Using radial grid of  737 points,  4 beta functions with:
                l(1) =   0
                l(2) =   0
                l(3) =   1
                l(4) =   1
     Q(r) pseudized with  8 coefficients,  rinner =    0.800   0.800   0.800

     PseudoPot. # 3 for N  read from file:
     /storage/coda1/p-amedford6/0/shared/rich_project_chbe-medford/medford-share/data/pseudos_module/espresso/nninc/pbe/van/N.UPF
     MD5 check sum: 90d10febe142ad51ac9d5be1deb811c4
     Pseudo is Ultrasoft, Zval =  5.0
     Generated by new atomic code, or converted to UPF format
     Using radial grid of  729 points,  4 beta functions with:
                l(1) =   0
                l(2) =   0
                l(3) =   1
                l(4) =   1
     Q(r) pseudized with  8 coefficients,  rinner =    0.800   0.800   0.800

     PseudoPot. # 4 for C  read from file:
     /storage/coda1/p-amedford6/0/shared/rich_project_chbe-medford/medford-share/data/pseudos_module/espresso/nninc/pbe/van/C.UPF
     MD5 check sum: 1a69bf6b8db32088f5b2163dbdb77a27
     Pseudo is Ultrasoft, Zval =  4.0
     Generated by new atomic code, or converted to UPF format
     Using radial grid of  721 points,  4 beta functions with:
                l(1) =   0
                l(2) =   0
                l(3) =   1
                l(4) =   1
     Q(r) pseudized with  8 coefficients,  rinner =    0.800   0.800   0.800

     PseudoPot. # 5 for H  read from file:
     /storage/coda1/p-amedford6/0/shared/rich_project_chbe-medford/medford-share/data/pseudos_module/espresso/nninc/pbe/van/H.UPF
     MD5 check sum: b5ee9d7bfd3a09ee7748110bda690ff7
     Pseudo is Ultrasoft, Zval =  1.0
     Generated by new atomic code, or converted to UPF format
     Using radial grid of  615 points,  1 beta functions with:
                l(1) =   0
     Q(r) pseudized with  8 coefficients,  rinner =    0.800

     atomic species   valence    mass     pseudopotential
        Ti1           12.00    47.86700     Ti( 1.00)
        O1             6.00    15.99900     O ( 1.00)
        N1             5.00    14.00700     N ( 1.00)
        C1             4.00    12.01100     C ( 1.00)
        H1             1.00     1.00800     H ( 1.00)

     Starting magnetic structure
     atomic species   magnetization
        Ti1          0.083
        O1           0.167
        N1           0.200
        C1           0.250
        H1           1.000

     No symmetry found

   Cartesian axes

     site n.     atom                  positions (alat units)
         1           Ti1 tau(   1) = (   0.0004258   2.9801865   6.0000000  )
         2           Ti1 tau(   2) = (   3.2906075   1.4906267   6.0002472  )
         3           O1  tau(   3) = (   0.0006271   0.0005054   7.9858123  )
         4           O1  tau(   4) = (   3.2906025   0.0005020   7.3038282  )
         5           O1  tau(   5) = (   4.5942328   1.4918067   9.2879030  )
         6           O1  tau(   6) = (   1.9868534   1.4903216   9.2879459  )
         7           Ti1 tau(   7) = (   3.2907910   2.8959150   9.1758416  )
         8           Ti1 tau(   8) = (   0.0015273   1.4827037   9.2680791  )
         9           O1  tau(   9) = (   3.3121109   0.0111249  11.3310253  )
        10           O1  tau(  10) = (   0.0116148   5.9584955  10.6183126  )
        11           O1  tau(  11) = (   1.3329579   1.5011098  12.6063046  )
        12           O1  tau(  12) = (   5.3158149   1.4916659  12.6245769  )
        13           Ti1 tau(  13) = (   6.5431557   2.9598450  12.6156978  )
        14           Ti1 tau(  14) = (   3.2273839   1.5049138  12.4779161  )
        15           O1  tau(  15) = (   0.0471551   0.0364395  14.6528705  )
        16           O1  tau(  16) = (   3.3160098   0.0207640  13.9215624  )
        17           O1  tau(  17) = (   4.5810600   1.5471256  16.0564497  )
        18           O1  tau(  18) = (   2.0947546   1.5446786  16.0656860  )
        19           Ti1 tau(  19) = (   3.3354243   3.0239694  15.7034691  )
        20           Ti1 tau(  20) = (   0.0419518   1.5622418  15.8401859  )
        21           O1  tau(  21) = (   3.2904802   0.0005063   4.7018136  )
        22           O1  tau(  22) = (   0.0415632   0.0558952  17.2248266  )
        23           O1  tau(  23) = (   1.3043587   1.4918075   6.0039043  )
        24           O1  tau(  24) = (   5.2767064   1.4903225   6.0039473  )
        25           Ti1 tau(  25) = (   0.0000382   5.9609847   6.0000000  )
        26           Ti1 tau(  26) = (   3.2902200   4.4714249   6.0002472  )
        27           O1  tau(  27) = (   0.0002396   2.9813036   7.9858123  )
        28           O1  tau(  28) = (   3.2902150   2.9813002   7.3038282  )
        29           O1  tau(  29) = (   4.5938453   4.4726049   9.2879030  )
        30           O1  tau(  30) = (   1.9864658   4.4711199   9.2879459  )
        31           Ti1 tau(  31) = (   3.2891106   5.8743827   9.1763621  )
        32           Ti1 tau(  32) = (   0.0006254   4.4649316   9.2693709  )
        33           O1  tau(  33) = (   3.3101407   2.9955762  11.3294870  )
        34           O1  tau(  34) = (   0.0092240   2.9805883  10.6323155  )
        35           O1  tau(  35) = (   1.3272401   4.4878838  12.6173354  )
        36           O1  tau(  36) = (   5.3164082   4.4812184  12.6342743  )
        37           Ti1 tau(  37) = (   6.5430856   5.9365306  12.5602028  )
        38           Ti1 tau(  38) = (   3.2246414   4.4845729  12.4831641  )
        39           O1  tau(  39) = (   0.0420920   2.9623338  14.6463429  )
        40           O1  tau(  40) = (   3.3182946   3.0055568  13.9055467  )
        41           O1  tau(  41) = (   4.5797692   4.5125808  16.0776662  )
        42           O1  tau(  42) = (   2.0972274   4.5146901  16.0918111  )
        43           Ti1 tau(  43) = (   3.3319946   0.0399457  15.7186693  )
        44           Ti1 tau(  44) = (   0.0407629   4.6953510  16.1098173  )
        45           O1  tau(  45) = (   3.2900926   2.9813045   4.7018136  )
        46           O1  tau(  46) = (   1.3039711   4.4726057   6.0039043  )
        47           O1  tau(  47) = (   5.2763189   4.4711207   6.0039473  )
        48           N1  tau(  48) = (   0.0554023   2.9932257  17.3910969  )
        49           C1  tau(  49) = (   0.1090839   2.9222626  18.6472186  )
        50           H1  tau(  50) = (   0.1225839   3.8204711  19.2773028  )
        51           H1  tau(  51) = (   0.1417253   1.9549180  19.1625725  )

     number of k points=    10  Fermi-Dirac smearing, width (Ry)=  0.0073
                       cart. coord. in units 2pi/alat
        k(    1) = (   0.0000000   0.0000000   0.0000000), wk =   0.0625000
        k(    2) = (   0.0000000   0.0419351   0.0000000), wk =   0.1250000
        k(    3) = (   0.0000000  -0.0838702   0.0000000), wk =   0.0625000
        k(    4) = (   0.0379955   0.0000049   0.0000000), wk =   0.1250000
        k(    5) = (   0.0379955   0.0419400   0.0000000), wk =   0.1250000
        k(    6) = (   0.0379955  -0.0838652   0.0000000), wk =   0.1250000
        k(    7) = (   0.0379955  -0.0419301   0.0000000), wk =   0.1250000
        k(    8) = (  -0.0759910  -0.0000099   0.0000000), wk =   0.0625000
        k(    9) = (  -0.0759910   0.0419252   0.0000000), wk =   0.1250000
[...]
     atom   8 (R=0.713)  charge=  7.8030  magn=  0.0074
     atom   9 (R=0.713)  charge=  4.8618  magn= -0.0002
     atom  10 (R=0.713)  charge=  4.8385  magn= -0.0007
     atom  11 (R=0.713)  charge=  4.8497  magn= -0.0003
     atom  12 (R=0.713)  charge=  4.8488  magn= -0.0003
     atom  13 (R=0.713)  charge=  7.8008  magn=  0.0015
     atom  14 (R=0.713)  charge=  7.8136  magn=  0.0006
     atom  15 (R=0.713)  charge=  4.8416  magn= -0.0001
     atom  16 (R=0.713)  charge=  4.8594  magn= -0.0001
     atom  17 (R=0.713)  charge=  4.8350  magn= -0.0001
     atom  18 (R=0.713)  charge=  4.8348  magn= -0.0001
     atom  19 (R=0.713)  charge=  7.8335  magn=  0.0002
     atom  20 (R=0.713)  charge=  7.8149  magn=  0.0003
     atom  21 (R=0.713)  charge=  4.7348  magn= -0.0009
     atom  22 (R=0.713)  charge=  4.8116  magn= -0.0000
     atom  23 (R=0.713)  charge=  4.8398  magn= -0.0026
     atom  24 (R=0.713)  charge=  4.8397  magn= -0.0026
     atom  25 (R=0.713)  charge=  7.8282  magn=  0.0230
     atom  26 (R=0.713)  charge=  7.8116  magn=  0.0011
     atom  27 (R=0.713)  charge=  4.8410  magn= -0.0020
     atom  28 (R=0.713)  charge=  4.8766  magn= -0.0003
     atom  29 (R=0.713)  charge=  4.8481  magn= -0.0003
     atom  30 (R=0.713)  charge=  4.8486  magn= -0.0003
     atom  31 (R=0.713)  charge=  7.8106  magn=  0.0009
     atom  32 (R=0.713)  charge=  7.8031  magn=  0.0074
     atom  33 (R=0.713)  charge=  4.8611  magn= -0.0002
     atom  34 (R=0.713)  charge=  4.8249  magn= -0.0007
     atom  35 (R=0.713)  charge=  4.8506  magn= -0.0003
     atom  36 (R=0.713)  charge=  4.8481  magn= -0.0003
     atom  37 (R=0.713)  charge=  7.8035  magn=  0.0017
     atom  38 (R=0.713)  charge=  7.8130  magn=  0.0007
     atom  39 (R=0.713)  charge=  4.8333  magn= -0.0001
     atom  40 (R=0.713)  charge=  4.8630  magn= -0.0001
     atom  41 (R=0.713)  charge=  4.8367  magn= -0.0000
     atom  42 (R=0.713)  charge=  4.8348  magn= -0.0000
     atom  43 (R=0.713)  charge=  7.8341  magn=  0.0002
     atom  44 (R=0.713)  charge=  7.8435  magn=  0.0001
     atom  45 (R=0.713)  charge=  4.7348  magn= -0.0009
     atom  46 (R=0.713)  charge=  4.8398  magn= -0.0026
     atom  47 (R=0.713)  charge=  4.8397  magn= -0.0026
     atom  48 (R=0.519)  charge=  2.1475  magn= -0.0001
     atom  49 (R=0.452)  charge=  0.8700  magn=  0.0001
     atom  50 (R=0.452)  charge=  0.5094  magn= -0.0000
     atom  51 (R=0.452)  charge=  0.5088  magn= -0.0000

     End of self-consistent calculation

 ------ SPIN UP ------------

          k = 0.0000 0.0000 0.0000 ( 18029 PWs)   bands (ev):

   -56.0139 -55.9854 -55.9799 -55.9491 -55.8718 -55.8434 -55.8219 -55.8099
   -55.8090 -55.7759 -55.7671 -55.7334 -55.5210 -55.2472 -54.9712 -54.9372
   -32.5393 -32.4836 -32.3436 -32.3236 -32.3137 -32.3094 -32.2969 -32.2572
   -32.2547 -32.2122 -32.2051 -32.1827 -32.1699 -32.1655 -32.1386 -32.1248
   -32.1058 -32.1041 -32.0866 -32.0753 -32.0539 -32.0498 -32.0021 -32.0011
   -32.0003 -31.9977 -31.9958 -31.9871 -31.9693 -31.9575 -31.9497 -31.9447
   -31.9399 -31.9331 -31.9202 -31.9174 -31.8792 -31.7705 -31.7027 -31.5360
   -31.5016 -31.4592 -31.3777 -31.2902 -31.2676 -31.1949 -31.1084 -30.9969
   -16.7356 -16.4662 -16.2419 -16.1441 -16.1142 -15.9979 -15.8311 -15.7119
   -15.6625 -15.5644 -15.5507 -15.5263 -15.4947 -15.4651 -15.4630 -15.4362
   -15.4330 -15.4117 -15.3998 -15.3521 -15.3297 -15.2956 -15.1977 -15.1671
   -15.1251 -15.0995 -15.0579 -15.0483 -14.9239 -14.5607 -13.4715 -13.3550
    -7.5581  -4.3327  -4.1135  -4.0022  -3.9485  -3.8990  -3.8404  -3.6340
    -3.5427  -3.5194  -3.2241  -3.1776  -3.1597  -3.1476  -3.1091  -2.8935
    -2.8398  -2.8085  -2.7875  -2.7732  -2.7618  -2.7537  -2.7339  -2.7069
    -2.5936  -2.5378  -2.5339  -2.4116  -2.3840  -2.3272  -2.3062  -2.2581
    -2.2429  -2.2343  -2.2075  -2.1963  -2.1832  -2.1525  -2.0752  -1.9613
    -1.8106  -1.7915  -1.7559  -1.6299  -1.6000  -1.5395  -1.4492  -1.4331
    -1.4187  -1.3844  -1.3677  -1.2959  -1.1705  -1.1460  -1.1367  -1.0354
    -0.9888  -0.9706  -0.8739  -0.8386  -0.7677  -0.7566  -0.7444  -0.7083
    -0.5475  -0.4902  -0.4608  -0.3946  -0.3653  -0.3065  -0.2934  -0.2646
    -0.1819  -0.1294  -0.1098  -0.1031  -0.0544  -0.0166  -0.0014   0.0080
     0.0189   0.0332   0.2056   0.2788   0.2854   0.3644   0.3743   0.5357
     0.5963   0.6645   0.7723   0.9779   1.0526   1.1412   1.2449   1.4384
     1.6245   1.6691   3.1312   3.2012   3.2670   3.2828   3.3817   3.4219
     3.5836   3.5973   3.6159   3.6898

[...]

          k =-0.0760-0.0000 0.0000 ( 17886 PWs)   bands (ev):

[...]

 ------ SPIN DOWN ----------

[...]

          k = 0.0380-0.0419 0.0000 ( 17876 PWs)   bands (ev):

[...]

          k =-0.0760-0.0839 0.0000 ( 17948 PWs)   bands (ev):

   -55.9682 -55.9628 -55.9535 -55.9526 -55.8643 -55.8282 -55.8233 -55.8225
   -55.7790 -55.7775 -55.7493 -55.7477 -55.5196 -55.2480 -54.9522 -54.9521
   -32.3442 -32.3391 -32.2810 -32.2803 -32.2538 -32.2458 -32.2449 -32.2417
   -32.1934 -32.1874 -32.1813 -32.1747 -32.1381 -32.1190 -32.1147 -32.1129
   -32.0969 -32.0906 -32.0878 -32.0852 -32.0681 -32.0675 -32.0672 -32.0420
   -32.0383 -32.0293 -32.0167 -32.0031 -31.9816 -31.9808 -31.9789 -31.9784
   -31.9638 -31.9629 -31.9544 -31.9518 -31.8825 -31.7727 -31.6986 -31.6013
   -31.5032 -31.4799 -31.2780 -31.2780 -31.1894 -31.1893 -31.1496 -31.1496
   -16.1685 -16.1492 -15.9377 -15.9105 -15.9052 -15.8938 -15.7657 -15.7052
   -15.6887 -15.6868 -15.6078 -15.5860 -15.5648 -15.5373 -15.5257 -15.5134
   -15.5072 -15.4985 -15.4553 -15.4493 -15.4301 -15.4229 -15.3199 -15.3099
   -15.3059 -15.2504 -15.1768 -15.0380 -14.9413 -14.7290 -13.4589 -13.4588
    -7.5540  -4.3149  -3.6876  -3.4587  -3.4360  -3.1664  -3.1502  -3.1414
    -3.0800  -2.9081  -2.8925  -2.8696  -2.8487  -2.8198  -2.8180  -2.7961
    -2.7949  -2.7833  -2.7400  -2.7327  -2.7069  -2.6701  -2.6597  -2.6481
    -2.6398  -2.6154  -2.6050  -2.5631  -2.5337  -2.5270  -2.5121  -2.4886
    -2.3036  -2.2206  -2.1943  -2.1304  -2.1230  -2.0882  -2.0560  -2.0443
    -2.0293  -1.9783  -1.9011  -1.7263  -1.6932  -1.6752  -1.6179  -1.5890
    -1.5482  -1.4621  -1.3936  -1.3689  -1.3632  -1.3146  -1.2062  -1.1845
    -1.1706  -1.0969  -1.0616  -1.0433  -1.0021  -0.9871  -0.9535  -0.9482
    -0.8548  -0.8053  -0.7574  -0.7553  -0.7111  -0.6446  -0.6312  -0.6038
    -0.4948  -0.4760  -0.4057  -0.3770  -0.2754  -0.2073  -0.0098   0.0525
     0.0783   0.1363   0.2169   0.2975   0.3117   0.3253   0.3259   0.3731
     0.4425   0.5389   0.5483   0.6014   0.7061   1.3322   1.4152   1.4158
     1.4885   1.4885   3.4295   3.4396   3.4792   3.5011   3.6466   3.6652
     3.6850   3.6860   3.7365   3.8216

     the Fermi energy is     3.1404 ev

!    total energy              =   -2917.92355980 Ry
     estimated scf accuracy    <       0.00000007 Ry
     smearing contrib. (-TS)   =      -0.02175663 Ry
     internal energy E=F+TS    =   -2917.90180317 Ry

     total magnetization       =     0.09 Bohr mag/cell
     absolute magnetization    =     0.14 Bohr mag/cell

     convergence has been achieved in 134 iterations

     Forces acting on atoms (cartesian axes, Ry/au):

     atom    1 type  1   force =     0.00013943   -0.00024798    0.09661597
     atom    2 type  1   force =     0.00008427   -0.00055420   -0.17544218
     atom    3 type  2   force =     0.00018273    0.00000908   -0.02469358
     atom    4 type  2   force =     0.00006012   -0.00133763    0.05296618
     atom    5 type  2   force =    -0.01177697    0.00012234    0.00260378
     atom    6 type  2   force =     0.01394203    0.00051092    0.00340923
     atom    7 type  1   force =     0.00130267    0.00068187   -0.01183705
     atom    8 type  1   force =    -0.00004172    0.00763979    0.02811977
     atom    9 type  2   force =    -0.00023888   -0.00023548   -0.00010240
     atom   10 type  2   force =    -0.00220638    0.00207100   -0.01525762
     atom   11 type  2   force =     0.00001447   -0.00008831    0.00024458
     atom   12 type  2   force =    -0.00004799    0.00014620   -0.00004990
     atom   13 type  1   force =    -0.00107367   -0.00028800   -0.00001149
     atom   14 type  1   force =    -0.00019700   -0.00024306    0.00057816
     atom   15 type  2   force =    -0.00030850   -0.00003531   -0.00021776
     atom   16 type  2   force =     0.00025571    0.00008222   -0.00052323
     atom   17 type  2   force =     0.00007370    0.00007573   -0.00021735
     atom   18 type  2   force =    -0.00013301    0.00030809   -0.00051789
     atom   19 type  1   force =    -0.00063183    0.00012970   -0.00032955
     atom   20 type  1   force =     0.00013169   -0.00097919    0.00024389
     atom   21 type  2   force =     0.00007988   -0.00004608    0.10324656
     atom   22 type  2   force =     0.00044910   -0.00028468   -0.00002892
     atom   23 type  2   force =    -0.07147171   -0.00015429   -0.02767734
     atom   24 type  2   force =     0.07147409    0.00033246   -0.02776131
     atom   25 type  1   force =     0.00017794   -0.00022679    0.09615291
     atom   26 type  1   force =     0.00011221   -0.00031125   -0.17558140
     atom   27 type  2   force =     0.00022422   -0.00011600   -0.02378221
     atom   28 type  2   force =     0.00009176   -0.00110522    0.05291593
     atom   29 type  2   force =    -0.01198112    0.00068084    0.00235563
     atom   30 type  2   force =     0.01401131    0.00102969    0.00321046
     atom   31 type  1   force =     0.00116376    0.00332644   -0.01215493
     atom   32 type  1   force =    -0.00022063   -0.00973156    0.02856494
     atom   33 type  2   force =    -0.00017144    0.00031966   -0.00007820
     atom   34 type  2   force =    -0.00172848    0.00174890   -0.02354699
     atom   35 type  2   force =     0.00001099    0.00009590    0.00024386
     atom   36 type  2   force =     0.00054755    0.00012549    0.00022785
     atom   37 type  1   force =    -0.00102979   -0.00041285    0.00024213
     atom   38 type  1   force =     0.00022696   -0.00007948    0.00051624
     atom   39 type  2   force =    -0.00005961   -0.00053446   -0.00074236
     atom   40 type  2   force =    -0.00004080    0.00026573    0.00047288
     atom   41 type  2   force =    -0.00065784   -0.00046289   -0.00016172
     atom   42 type  2   force =    -0.00013142   -0.00074693   -0.00073302
     atom   43 type  1   force =    -0.00046371    0.00003571   -0.00010087
     atom   44 type  1   force =     0.00010958    0.00032436    0.00041532
     atom   45 type  2   force =     0.00006208   -0.00006538    0.10325540
     atom   46 type  2   force =    -0.07147513   -0.00008192   -0.02769422
     atom   47 type  2   force =     0.07149327    0.00033431   -0.02776603
     atom   48 type  3   force =     0.00098782   -0.00058693    0.00016177
     atom   49 type  4   force =    -0.00147501   -0.00058590   -0.00037296
     atom   50 type  5   force =     0.00033051   -0.00020321    0.00011423
     atom   51 type  5   force =    -0.00017720   -0.00065144    0.00050482

     Total force =     0.367961     Total SCF correction =     0.000389
  @ DRIVER MODE: Message from server: STATUS
  @ DRIVER MODE: Message from server: GETFORCE
  @ DRIVER MODE: Returning v,forces,stress

     Writing config to output data dir ./calc.save/
  @ DRIVER MODE: Message from server: STATUS
  @ DRIVER MODE: Message from server: INIT
  @ DRIVER MODE: Receiving replica           0           0
  @ DRIVER MODE: Receiving parameter string
 lscf : 0, lforce : 0, lstress : 0, lmovecell : 0, lensemb : 1,
  @ DRIVER MODE: Message from server: STATUS
  @ DRIVER MODE: Message from server: POSDATA
  @ DRIVER MODE: Reading and sharing cell
  @ DRIVER MODE: Reading and sharing positions
  @ DRIVER MODE: Received positions
     NEW-OLD atomic charge density approx. for the potential

[...]

     Adding external electric field

     Computed dipole along edir(3) :
        Dipole                0.7716 Ry au,          1.9612 Debye
        Dipole field          0.0015 Ry au,

        Potential amp.       -0.1350 Ry
        Total length         46.3494 bohr

     Generating pointlists ...
  @ DRIVER MODE: BEEF-vdw

[...]

     negative rho (up, down):  9.243E-03 9.243E-03

     negative rho (up, down):  9.243E-03 9.243E-03
 BEEFens 2000 ensemble energies
             -0.343967603831694E+02
             -0.201518770656172E+01
             -0.708425832637040E+01
              0.238744435325602E+02
             -0.118170708892206E+02
             -0.913804040199250E+01
             -0.238379671820460E+02
             -0.498848153550159E+02
             -0.212815853534600E+02
             -0.224318462059919E+02
             -0.208594326045178E+02
              0.422149822130784E+01
              0.198555948639408E+01
             -0.105254009504776E+01
              0.170861425334579E+01
              0.263014153047189E+02
             -0.101122015906688E+02
             -0.714916483956333E+01
              0.116834740819235E+02
             -0.614173896290736E+02
              0.308094195994674E+02
             -0.132416609442352E+02
             -0.237816341362054E+01
             -0.554589425174755E+01
             -0.981093615413897E+00
             -0.209730838591678E+01
              0.476220105988256E+02
             -0.149472944893720E+02
             -0.395859983738387E+01
             -0.301498972654290E+02
              0.389455431640038E+02
             -0.430438130448181E+01
             -0.211953131700929E+02
              0.111260637515308E+02
             -0.203889392208782E+01
              0.129360623632152E+02
             -0.540398985868933E+00
              0.269823107880183E+01
              0.188123366763852E+02
             -0.541881097355460E+02
              0.301962365873848E+02
              0.806696393830134E+01
             -0.621505486310946E+01
             -0.173295278477521E+02
              0.685152458764196E+01
             -0.108591272647923E+02
              0.247026937023307E+02
              0.197317134203051E+02
             -0.127231990313879E+02
             -0.162601607579009E+02
             -0.172031684071542E+02
             -0.206284621702244E+02
              0.104817998273573E+02
             -0.268499694768730E+02
              0.822140118949824E+01
              0.343292810055839E+02
              0.395911545702944E+02
              0.184306379091148E+02
              0.820620027009043E+01
              0.171987765811745E+02
[...]
             -0.404859697974221E+02
              0.276136354413313E+01
             -0.146516880191996E+01
             -0.563824289583721E+01
              0.507381570610619E-01
             -0.360435275531402E+02
             -0.695896423917479E+01
              0.486815320796200E+01
              0.736216939437234E+01
              0.270121921363641E+02
             -0.236247954231683E+02
              0.307810340517402E+02
             -0.220541279454383E+02
              0.141740784637907E+02
              0.223208919518199E+02

 BEEF-vdW xc energy contributions
           1 :   -406.084711435846
           2 :    353.918265219269
           3 :   -269.622244556469
           4 :    181.477622854597
           5 :   -112.162823486094
           6 :    70.7600478849124
           7 :   -53.5940147104427
           8 :    50.6198860237865
           9 :   -52.3850945674681
          10 :    53.6477187443064
          11 :   -53.2073459872739
          12 :    51.6397773516873
          13 :   -49.3901501406751
          14 :    46.2211399941482
          15 :   -41.7979003772203
          16 :    36.3377206522601
          17 :   -30.7549089826933
          18 :    26.1993598781263
          19 :   -23.4808701799910
          20 :    22.7177385124235
          21 :   -23.4331765640202
          22 :    24.8793630899664
          23 :   -26.3765807555946
          24 :    27.4331009326755
          25 :   -27.7303592756664
          26 :    27.0640492099179
          27 :   -25.3870821629358
          28 :    22.8828571246772
          29 :   -20.0076441791136
          30 :    17.3765705977775
          31 :   -47.6712096152438
          32 :   -32.3838338008999
  @ DRIVER MODE: Message from server: STATUS
  @ DRIVER MODE: Message from server: GETFORCE
  @ DRIVER MODE: Returning v,forces,stress
  @ DRIVE MODE: Returning Ensemble Energies
  @ DRIVE MODE: Returning Ensemble Energies
  @ DRIVE MODE: Returning Ensemble Energies
  @ DRIVE MODE: Returning Ensemble Energies
  @ DRIVE MODE: Returning Ensemble Energies
  @ DRIVE MODE: Returning Ensemble Energies

     Writing config to output data dir ./calc.save/
  @ DRIVER MODE: Message from server: EXIT
  @ DRIVE MODE: Exiting

     General routines

     Parallel routines

   This run was terminated on:  16:27:57  16Aug2022

   JOB DONE.