     Program PWSCF v.6.7GPU starts on 22Sep2021 at 17: 3:54

     R & G space division:  proc/nbgrp/npool/nimage =      10
     Reading input from /storage/home/hcoda1/3/ntian30/research/carbon/CxH_vib/H2O_calc/ads_slab/CH3NNH3HO_a/out_0002/pw.inp
Warning: card &CELL ignored
Warning: card   CELL_DYNAMICS='IPI', ignored
Warning: card / ignored

     Current dimensions of program PWSCF are:
     Max number of different atomic species (ntypx) = 10
     Max number of k-points (npk) =  40000
     Max angular momentum in pseudopotentials (lmaxx) =  3
     Presently no symmetry can be used with electric field

     Message from routine cell_base_init:
     DEPRECATED: use true lattice parameter, not A to a.u. conversion factor

     IMPORTANT: XC functional enforced from input :
     Exchange-correlation= BEEF-VDW
                           (   1   4  43  14   2   0   0)
     Any further DFT definition will be discarded
     Please, verify this is what you really want

  @ DRIVER MODE: Connecting to
 qe_1139763_2937318.sched-torque.pace.gatech.edugnmsr8i7_scratch
  using UNIX socket
  @ DRIVER MODE: Message from server: STATUS
  @ DRIVER MODE: Message from server: INIT
  @ DRIVER MODE: Receiving replica           0          -1
  @ DRIVER MODE: Receiving encoded integer          25
  @ DRIVER MODE:  SCF:  T  FORCE:  T  STRESS:  F  VC:  F  ENSEMBLE:  F
  @ DRIVER MODE:  SCF:  T  FORCE:  T  STRESS:  F  VC:  F  ENSEMBLE:  F

     Using Slab Decomposition

     bravais-lattice index     =            0
     lattice parameter (alat)  =       1.8897  a.u.
     unit-cell volume          =    6658.9804 (a.u.)^3
     number of atoms/cell      =           58
     number of atomic types    =            5
     number of electrons       =       405.00
     number of Kohn-Sham states=          212
     kinetic-energy cutoff     =      29.3995  Ry
     charge density cutoff     =     293.9946  Ry
     scf convergence threshold =      7.3E-08
     mixing beta               =       0.0500
     number of iterations used =            8  plain     mixing
     Exchange-correlation= BEEF-VDW
                           (   1   4  43  14   2   0   0)

     celldm(1)=   1.889726  celldm(2)=   0.000000  celldm(3)=   0.000000
     celldm(4)=   0.000000  celldm(5)=   0.000000  celldm(6)=   0.000000

     crystal axes: (cart. coord. in units of alat)
               a(1) = (   6.579727   0.000000   0.000000 )
               a(2) = (  -0.000775   5.961596   0.000000 )
               a(3) = (   0.000000   0.000000  25.155947 )

     reciprocal axes: (cart. coord. in units 2 pi/alat)
               b(1) = (  0.151982  0.000020  0.000000 )
               b(2) = (  0.000000  0.167740  0.000000 )
               b(3) = (  0.000000  0.000000  0.039752 )

     PseudoPot. # 1 for Ti read from file:
     /storage/coda1/p-amedford6/0/shared/rich_project_chbe-medford/medford-share/data/pseudos_module/espresso/nninc/pbe/van/Ti.UPF
     MD5 check sum: 8e4df49b7f0d34bbd5052bf3f5ea0213
     Pseudo is Ultrasoft, Zval = 12.0
     Generated by new atomic code, or converted to UPF format
     Using radial grid of  851 points,  6 beta functions with:
                l(1) =   0
                l(2) =   0
                l(3) =   1
                l(4) =   1
                l(5) =   2
                l(6) =   2
     Q(r) pseudized with  8 coefficients,  rinner =    1.000   1.000   1.000
                                                       1.000   1.000

     PseudoPot. # 2 for O  read from file:
     /storage/coda1/p-amedford6/0/shared/rich_project_chbe-medford/medford-share/data/pseudos_module/espresso/nninc/pbe/van/O.UPF
     MD5 check sum: 78c19812648e8988a0fe644b0f25305e
     Pseudo is Ultrasoft, Zval =  6.0
     Generated by new atomic code, or converted to UPF format
     Using radial grid of  737 points,  4 beta functions with:
                l(1) =   0
                l(2) =   0
                l(3) =   1
                l(4) =   1
     Q(r) pseudized with  8 coefficients,  rinner =    0.800   0.800   0.800

     PseudoPot. # 3 for N  read from file:
     /storage/coda1/p-amedford6/0/shared/rich_project_chbe-medford/medford-share/data/pseudos_module/espresso/nninc/pbe/van/N.UPF
     MD5 check sum: 90d10febe142ad51ac9d5be1deb811c4
     Pseudo is Ultrasoft, Zval =  5.0
     Generated by new atomic code, or converted to UPF format
     Using radial grid of  729 points,  4 beta functions with:
                l(1) =   0
                l(2) =   0
                l(3) =   1
                l(4) =   1
     Q(r) pseudized with  8 coefficients,  rinner =    0.800   0.800   0.800

     PseudoPot. # 4 for C  read from file:
     /storage/coda1/p-amedford6/0/shared/rich_project_chbe-medford/medford-share/data/pseudos_module/espresso/nninc/pbe/van/C.UPF
     MD5 check sum: 1a69bf6b8db32088f5b2163dbdb77a27
     Pseudo is Ultrasoft, Zval =  4.0
     Generated by new atomic code, or converted to UPF format
     Using radial grid of  721 points,  4 beta functions with:
                l(1) =   0
                l(2) =   0
                l(3) =   1
                l(4) =   1
     Q(r) pseudized with  8 coefficients,  rinner =    0.800   0.800   0.800

     PseudoPot. # 5 for H  read from file:
     /storage/coda1/p-amedford6/0/shared/rich_project_chbe-medford/medford-share/data/pseudos_module/espresso/nninc/pbe/van/H.UPF
     MD5 check sum: b5ee9d7bfd3a09ee7748110bda690ff7
     Pseudo is Ultrasoft, Zval =  1.0
     Generated by new atomic code, or converted to UPF format
     Using radial grid of  615 points,  1 beta functions with:
                l(1) =   0
     Q(r) pseudized with  8 coefficients,  rinner =    0.800

     atomic species   valence    mass     pseudopotential
        Ti1           12.00    47.86700     Ti( 1.00)
        O1             6.00    15.99900     O ( 1.00)
        N1             5.00    14.00700     N ( 1.00)
        C1             4.00    12.01100     C ( 1.00)
        H1             1.00     1.00800     H ( 1.00)

     No symmetry found

   Cartesian axes

     site n.     atom                  positions (alat units)
         1           Ti1 tau(   1) = (   0.0004258   2.9801865   6.0000000  )
         2           Ti1 tau(   2) = (   3.2906075   1.4906267   6.0002472  )
         3           O1  tau(   3) = (   0.0006271   0.0005054   7.9858123  )
         4           O1  tau(   4) = (   3.2906025   0.0005020   7.3038282  )
         5           O1  tau(   5) = (   4.5942328   1.4918067   9.2879030  )
         6           O1  tau(   6) = (   1.9868534   1.4903216   9.2879459  )
         7           Ti1 tau(   7) = (   3.2907910   2.8959150   9.1758416  )
         8           Ti1 tau(   8) = (   0.0015273   1.4827037   9.2680791  )
         9           O1  tau(   9) = (   3.2949357   5.9297256  11.2770696  )
        10           O1  tau(  10) = (   0.0116148   5.9584955  10.6183126  )
        11           O1  tau(  11) = (   1.2901270   1.4659759  12.6218969  )
        12           O1  tau(  12) = (   5.3029181   1.4690452  12.6271982  )
        13           Ti1 tau(  13) = (   6.5637346   3.0486055  12.7052252  )
        14           Ti1 tau(  14) = (   3.3207578   1.2909511  12.6638180  )
        15           O1  tau(  15) = (   0.0081040   5.9567798  14.6379979  )
        16           O1  tau(  16) = (   3.2944190   0.0149942  13.8863584  )
        17           O1  tau(  17) = (   4.5334936   1.5584448  16.0391558  )
        18           O1  tau(  18) = (   2.0244848   1.5379376  16.0854781  )
        19           Ti1 tau(  19) = (   3.2579824   3.0118882  15.6538344  )
        20           Ti1 tau(  20) = (   6.4918182   1.5199401  15.8876453  )
        21           O1  tau(  21) = (   3.2904802   0.0005063   4.7018136  )
        22           O1  tau(  22) = (   6.5166677   0.0216046  17.1949088  )
        23           O1  tau(  23) = (   1.3043587   1.4918075   6.0039043  )
        24           O1  tau(  24) = (   5.2767064   1.4903225   6.0039473  )
        25           Ti1 tau(  25) = (   0.0000382   5.9609847   6.0000000  )
        26           Ti1 tau(  26) = (   3.2902200   4.4714249   6.0002472  )
        27           O1  tau(  27) = (   0.0002396   2.9813036   7.9858123  )
        28           O1  tau(  28) = (   3.2902150   2.9813002   7.3038282  )
        29           O1  tau(  29) = (   4.5938453   4.4726049   9.2879030  )
        30           O1  tau(  30) = (   1.9864658   4.4711199   9.2879459  )
        31           Ti1 tau(  31) = (   3.2891106   5.8743827   9.1763621  )
        32           Ti1 tau(  32) = (   0.0006254   4.4649316   9.2693709  )
        33           O1  tau(  33) = (   3.2959121   3.0085915  11.2438341  )
        34           O1  tau(  34) = (   0.0092240   2.9805883  10.6323155  )
        35           O1  tau(  35) = (   1.2849535   4.4488585  12.6204231  )
        36           O1  tau(  36) = (   5.2878833   4.4365118  12.6243745  )
        37           Ti1 tau(  37) = (   0.0500071   0.0677371  12.6535751  )
        38           Ti1 tau(  38) = (   3.3027700   4.3871210  12.4110406  )
        39           O1  tau(  39) = (   6.5685058   2.9535060  14.6525041  )
        40           O1  tau(  40) = (   3.2696111   2.9719761  13.8704823  )
        41           O1  tau(  41) = (   4.5209813   4.4409030  16.0696701  )
        42           O1  tau(  42) = (   2.0131998   4.4599944  16.0916020  )
        43           Ti1 tau(  43) = (   3.2138439   0.0230873  16.3295100  )
        44           Ti1 tau(  44) = (   6.5234412   4.6200706  16.0754176  )
        45           O1  tau(  45) = (   3.2900926   2.9813045   4.7018136  )
        46           O1  tau(  46) = (   1.3039711   4.4726057   6.0039043  )
        47           O1  tau(  47) = (   5.2763189   4.4711207   6.0039473  )
        48           N1  tau(  48) = (   0.0351376   2.9556585  17.3246074  )
        49           N1  tau(  49) = (   6.3772498   2.5461882  22.2688425  )
        50           C1  tau(  50) = (   0.2111848   2.8484408  18.7116211  )
        51           H1  tau(  51) = (   0.3920758   3.8074029  19.2116250  )
        52           H1  tau(  52) = (   5.9044209   2.3708277  19.1722604  )
        53           H1  tau(  53) = (   1.0233575   2.1342068  18.9364007  )
        54           H1  tau(  54) = (   6.0930523   3.2289774  22.9628454  )
        55           H1  tau(  55) = (   0.2277240   1.7755739  22.7685771  )
        56           H1  tau(  56) = (   0.5282093   2.9785696  21.7129995  )
        57           O1  tau(  57) = (   3.3838229   0.0530270  18.1522483  )
        58           H1  tau(  58) = (   4.2718821   5.8932998  18.5223319  )

     number of k points=    10  Fermi-Dirac smearing, width (Ry)=  0.0073
                       cart. coord. in units 2pi/alat
        k(    1) = (   0.0000000   0.0000000   0.0000000), wk =   0.1250000
        k(    2) = (   0.0000000   0.0419351   0.0000000), wk =   0.2500000
        k(    3) = (   0.0000000  -0.0838702   0.0000000), wk =   0.1250000
        k(    4) = (   0.0379955   0.0000049   0.0000000), wk =   0.2500000
        k(    5) = (   0.0379955   0.0419400   0.0000000), wk =   0.2500000
        k(    6) = (   0.0379955  -0.0838652   0.0000000), wk =   0.2500000
        k(    7) = (   0.0379955  -0.0419301   0.0000000), wk =   0.2500000
        k(    8) = (  -0.0759910  -0.0000099   0.0000000), wk =   0.1250000
        k(    9) = (  -0.0759910   0.0419252   0.0000000), wk =   0.2500000
        k(   10) = (  -0.0759910  -0.0838800   0.0000000), wk =   0.1250000

     Initial potential from superposition of free atoms

     starting charge  388.99913, renormalised to  405.00000

     negative rho (up, down):  7.828E-03 0.000E+00

     %%%%%%%%%%%%%%%%%%%%%%%%%%%%%%%%%%%%%%%%%%%%%%%%%%%%%%%%%%%%%%%%%%%%%%%%
     %                                                                      %
     % You are using vdW-DF, which was implemented by the Thonhauser group. %
     % Please cite the following two papers that made this development      %
     % possible and the two reviews that describe the various versions:     %
     %                                                                      %
     %   T. Thonhauser et al., PRL 115, 136402 (2015).                      %
     %   T. Thonhauser et al., PRB 76, 125112 (2007).                       %
     %   K. Berland et al., Rep. Prog. Phys. 78, 066501 (2015).             %
     %   D.C. Langreth et al., J. Phys.: Condens. Matter 21, 084203 (2009). %
     %                                                                      %
     %                                                                      %
     % If you are calculating the stress with vdW-DF, please also cite:     %
     %                                                                      %
     %   R. Sabatini et al., J. Phys.: Condens. Matter 24, 424209 (2012).   %
     %                                                                      %
     %%%%%%%%%%%%%%%%%%%%%%%%%%%%%%%%%%%%%%%%%%%%%%%%%%%%%%%%%%%%%%%%%%%%%%%%

     Adding external electric field

     Computed dipole along edir(3) :
        Dipole              -15.1933 Ry au,        -38.6176 Debye
        Dipole field         -0.0287 Ry au,

        Potential amp.        2.6578 Ry
        Total length         46.3494 bohr

     Starting wfcs are  307 atomic wfcs
  @ DRIVER MODE: Message from server: STATUS
  @ DRIVER MODE: Message from server: POSDATA
  @ DRIVER MODE: Reading and sharing cell
  @ DRIVER MODE: Reading and sharing positions
  @ DRIVER MODE: Received positions

     Self-consistent Calculation

     iteration #  1     ecut=    29.40 Ry     beta= 0.05
     Davidson diagonalization with overlap
     c_bands:  4 eigenvalues not converged
     c_bands:  1 eigenvalues not converged
     c_bands:  1 eigenvalues not converged
     c_bands:  2 eigenvalues not converged
     c_bands:  1 eigenvalues not converged
     c_bands:  2 eigenvalues not converged
     ethr =  1.00E-05,  avg # of iterations = 31.5

[...]

     total energy              =   -2295.08140969 Ry
     estimated scf accuracy    <    7743.59984221 Ry

     iteration #  2     ecut=    29.40 Ry     beta= 0.05
     Davidson diagonalization with overlap
     ethr =  1.00E-02,  avg # of iterations = 23.5

[...]

     iteration # 40     ecut=    29.40 Ry     beta= 0.05
     Davidson diagonalization with overlap
     c_bands:  1 eigenvalues not converged
     ethr =  2.07E-06,  avg # of iterations =  7.6

[...]

     total energy              =   -2976.42348913 Ry
     estimated scf accuracy    <       0.00000079 Ry

     iteration # 66     ecut=    29.40 Ry     beta= 0.05
     Davidson diagonalization with overlap
     ethr =  6.62E-11,  avg # of iterations =  5.0

     negative rho (up, down):  9.589E-03 0.000E+00

     Adding external electric field

     Computed dipole along edir(3) :
        Dipole                0.6353 Ry au,          1.6149 Debye
        Dipole field          0.0012 Ry au,

        Potential amp.       -0.1111 Ry
        Total length         46.3494 bohr

     End of self-consistent calculation

          k = 0.0000 0.0000 0.0000 ( 18029 PWs)   bands (ev):

   -56.5648 -56.5313 -55.6409 -55.6057 -55.4252 -55.3587 -55.2306 -55.1163
   -55.0824 -55.0357 -55.0037 -54.9693 -54.9110 -54.8182 -54.7461 -54.6144
   -32.9836 -32.8353 -32.8072 -32.7442 -32.6540 -32.6106 -32.1226 -31.9001
   -31.8611 -31.8396 -31.7851 -31.7772 -31.7520 -31.6585 -31.6382 -31.5936
   -31.5618 -31.5463 -31.5220 -31.5105 -31.5047 -31.4940 -31.4633 -31.4625
   -31.4388 -31.4209 -31.3557 -31.3203 -31.2990 -31.2936 -31.2400 -31.2333
   -31.2163 -31.1945 -31.1820 -31.1666 -31.1596 -31.1286 -31.1239 -31.0920
   -31.0484 -31.0034 -31.0027 -30.9810 -30.9481 -30.8887 -30.8518 -30.8014
   -16.6682 -16.1104 -16.0875 -15.8814 -15.7589 -15.7540 -15.7104 -15.6426
   -15.4725 -15.4046 -15.3758 -15.3145 -15.1710 -15.0546 -14.9574 -14.7785
   -14.7045 -14.6994 -14.6798 -14.6728 -14.6559 -14.6352 -14.5763 -14.5174
   -14.4753 -14.4102 -14.3671 -14.2208 -14.0208 -13.9949 -13.9522 -13.6137
   -13.5135 -13.5067  -7.7355  -4.2436  -4.0321  -4.0129  -3.6982  -3.5772
    -3.4045  -3.2517  -3.2063  -3.1441  -3.0837  -3.0752  -2.9291  -2.9255
    -2.9152  -2.9100  -2.8283  -2.7699  -2.7046  -2.6179  -2.6024  -2.5081
    -2.4615  -2.3019  -2.2764  -2.1753  -2.1032  -2.0978  -2.0310  -2.0086
    -1.9615  -1.9171  -1.9077  -1.8725  -1.8284  -1.7819  -1.7626  -1.6528
    -1.6449  -1.5792  -1.5740  -1.5503  -1.4362  -1.4174  -1.3472  -1.2021
    -1.1804  -1.1769  -1.1294  -1.1127  -1.0307  -0.9353  -0.8678  -0.8409
    -0.7844  -0.6963  -0.6498  -0.6285  -0.5560  -0.5364  -0.4626  -0.4192
    -0.4048  -0.3849  -0.3426  -0.2283  -0.1413  -0.1089  -0.0547  -0.0294
     0.0035   0.0306   0.0490   0.0977   0.1674   0.2532   0.2743   0.4122
     0.4655   0.5026   0.5776   0.6122   0.6180   0.7072   0.7393   0.7686
     0.8151   0.8898   0.9047   0.9055   0.9644   1.0485   1.1030   1.1559
     1.1673   1.2036   1.2112   1.2621   1.3508   1.3716   1.4414   1.4963
     1.8217   1.8820   2.4862   2.7295   2.9010   3.1778   3.3695   3.6729
     3.7155   3.7333   3.7334   4.0388

[...]

          k = 0.0380-0.0419 0.0000 ( 17876 PWs)   bands (ev):

[...]

          k =-0.0760-0.0000 0.0000 ( 17886 PWs)   bands (ev):

[...]

          k =-0.0760-0.0839 0.0000 ( 17948 PWs)   bands (ev):

   -56.5487 -56.5473 -55.6284 -55.6180 -55.4205 -55.3632 -55.2297 -55.0999
   -55.0987 -55.0308 -55.0044 -54.9739 -54.9094 -54.8168 -54.7476 -54.6157
   -32.8218 -32.8202 -32.8015 -32.8001 -32.6983 -32.6972 -31.9472 -31.9380
   -31.8229 -31.8177 -31.8117 -31.8101 -31.7199 -31.6771 -31.6518 -31.6387
   -31.5891 -31.5874 -31.5016 -31.4743 -31.4645 -31.4523 -31.4514 -31.3698
   -31.3505 -31.3200 -31.3186 -31.3019 -31.2947 -31.2847 -31.2803 -31.2797
   -31.2523 -31.2334 -31.2154 -31.2005 -31.1970 -31.1588 -31.1585 -31.1024
   -31.0911 -31.0514 -31.0070 -30.9962 -30.9601 -30.9528 -30.8539 -30.8367
   -16.0754 -16.0266 -16.0247 -15.9813 -15.9797 -15.7179 -15.7135 -15.4634
   -15.4341 -15.2554 -15.1509 -15.1268 -15.0834 -15.0417 -14.9714 -14.9168
   -14.8873 -14.8552 -14.8291 -14.7675 -14.7377 -14.6329 -14.6000 -14.5527
   -14.5168 -14.4545 -14.4133 -14.3641 -14.1777 -14.1329 -13.9515 -13.6112
   -13.6107 -13.5385  -7.7346  -4.0428  -4.0130  -3.6894  -3.1630  -3.1026
    -3.0982  -3.0659  -3.0586  -2.9768  -2.8520  -2.8491  -2.7591  -2.6473
    -2.6207  -2.5977  -2.5372  -2.5280  -2.4277  -2.3777  -2.3728  -2.3589
    -2.3226  -2.2928  -2.2864  -2.2267  -2.0888  -2.0726  -2.0234  -1.9696
    -1.8965  -1.8857  -1.8770  -1.8400  -1.7983  -1.7731  -1.7621  -1.7349
    -1.7300  -1.7260  -1.6137  -1.5112  -1.4640  -1.3701  -1.3661  -1.3571
    -1.3192  -1.2918  -1.2588  -1.2518  -1.2233  -1.1429  -1.1168  -1.0473
    -0.9351  -0.9159  -0.8740  -0.8255  -0.7225  -0.7035  -0.6140  -0.5774
    -0.5662  -0.5075  -0.4778  -0.4620  -0.4044  -0.3645  -0.2329  -0.1930
    -0.1816  -0.1646  -0.1421  -0.1061  -0.0444   0.0167   0.0488   0.0510
     0.1553   0.2552   0.3428   0.4121   0.4210   0.4444   0.5310   0.6362
     0.6775   0.7024   0.7506   0.8736   0.9915   1.0215   1.1265   1.1524
     1.1616   1.2633   1.2817   1.2867   1.3066   1.3158   1.3506   1.4168
     1.4778   1.7666   2.3194   3.3220   3.3251   3.3833   3.3889   3.6997
     3.7020   3.8131   3.8182   4.1359

     the Fermi energy is     2.3963 ev

!    total energy              =   -2976.42353237 Ry
     estimated scf accuracy    <       0.00000007 Ry
     smearing contrib. (-TS)   =      -0.01084638 Ry
     internal energy E=F+TS    =   -2976.41268598 Ry

     The total energy is F=E-TS. E is the sum of the following terms:
     one-electron contribution =  -22707.54512866 Ry
     hartree contribution      =   11450.12641000 Ry
     xc contribution           =    -495.34423520 Ry
     ewald contribution        =    8776.34950614 Ry
     electric field correction =       0.00076174 Ry

     convergence has been achieved in  66 iterations

     Forces acting on atoms (cartesian axes, Ry/au):

     atom    1 type  1   force =     0.00002032   -0.00052470    0.12633376
     atom    2 type  1   force =    -0.00009958    0.00041309   -0.15469287
     atom    3 type  2   force =     0.00002613    0.00002682   -0.06827117
     atom    4 type  2   force =     0.00005670   -0.00010921    0.01705065
     atom    5 type  2   force =    -0.00487595   -0.00242586   -0.01324541
     atom    6 type  2   force =     0.00655703   -0.00180490   -0.01376092
     atom    7 type  1   force =    -0.00029572   -0.00660950    0.05918826
     atom    8 type  1   force =     0.00038886    0.00687141    0.10023513
     atom    9 type  2   force =    -0.00002344    0.00066476    0.00131663
     atom   10 type  2   force =    -0.00261333   -0.00001364   -0.06336029
     atom   11 type  2   force =     0.00043209   -0.00068470   -0.00026675
     atom   12 type  2   force =    -0.00084560   -0.00113981   -0.00108230
     atom   13 type  1   force =    -0.00030384    0.00072831   -0.00140860
     atom   14 type  1   force =    -0.00034274   -0.00041494   -0.00025304
     atom   15 type  2   force =    -0.00052063   -0.00035694   -0.00044046
     atom   16 type  2   force =     0.00020461    0.00093398   -0.00030150
     atom   17 type  2   force =     0.00109764    0.00026052   -0.00033686
     atom   18 type  2   force =     0.00008230   -0.00033513   -0.00020655
     atom   19 type  1   force =    -0.00029081   -0.00010425   -0.00097754
     atom   20 type  1   force =     0.00084657    0.00092940   -0.00041781
     atom   21 type  2   force =     0.00005899    0.00015575    0.09778583
     atom   22 type  2   force =     0.00029657   -0.00033998    0.00146177
     atom   23 type  2   force =    -0.08276197    0.00005440   -0.03312917
     atom   24 type  2   force =     0.08270159    0.00050188   -0.03320659
     atom   25 type  1   force =     0.00007739   -0.00035677    0.12646875
     atom   26 type  1   force =    -0.00011290   -0.00150111   -0.15487552
     atom   27 type  2   force =     0.00011297   -0.00046746   -0.06664749
     atom   28 type  2   force =     0.00004679    0.00167274    0.01198834
     atom   29 type  2   force =    -0.00342798    0.00422221   -0.01621736
     atom   30 type  2   force =     0.00505475    0.00456644   -0.01661952
     atom   31 type  1   force =    -0.00015234    0.00218269    0.04252331
     atom   32 type  1   force =     0.00044233   -0.00894075    0.10081411
     atom   33 type  2   force =    -0.00048385   -0.00012754   -0.00038044
     atom   34 type  2   force =    -0.00212798   -0.00026103   -0.07623551
     atom   35 type  2   force =    -0.00011129    0.00070126    0.00087539
     atom   36 type  2   force =    -0.00048487    0.00052963    0.00040837
     atom   37 type  1   force =     0.00044286    0.00060860   -0.00027600
     atom   38 type  1   force =    -0.00043336   -0.00066286   -0.00069154
     atom   39 type  2   force =     0.00037716   -0.00032332   -0.00035091
     atom   40 type  2   force =     0.00037169   -0.00062438    0.00001801
     atom   41 type  2   force =     0.00061548    0.00029238    0.00019454
     atom   42 type  2   force =     0.00017974    0.00004018   -0.00010611
     atom   43 type  1   force =     0.00044327    0.00133862   -0.00099263
     atom   44 type  1   force =     0.00009573   -0.00116932    0.00084319
     atom   45 type  2   force =     0.00009131   -0.00001459    0.09762720
     atom   46 type  2   force =    -0.08280770    0.00003849   -0.03317990
     atom   47 type  2   force =     0.08271305    0.00045785   -0.03318742
     atom   48 type  3   force =    -0.00334569    0.00043467   -0.00121035
     atom   49 type  3   force =     0.00013906   -0.00002317   -0.00098731
     atom   50 type  4   force =     0.00250497    0.00046529    0.00160621
     atom   51 type  5   force =    -0.00002168   -0.00031008   -0.00028227
     atom   52 type  5   force =    -0.00004255    0.00083827   -0.00129841
     atom   53 type  5   force =    -0.00007879    0.00022738    0.00128288
     atom   54 type  5   force =    -0.00008548   -0.00005274    0.00004369
     atom   55 type  5   force =     0.00034214    0.00015028    0.00012133
     atom   56 type  5   force =     0.00012687   -0.00004713    0.00019530
     atom   57 type  2   force =    -0.00179998   -0.00057247    0.00038048
     atom   58 type  5   force =     0.00154311    0.00001098    0.00013338

     Total force =     0.420656     Total SCF correction =     0.000712
  @ DRIVER MODE: Message from server: STATUS
  @ DRIVER MODE: Message from server: GETFORCE
  @ DRIVER MODE: Returning v,forces,stress,ensemble

     Writing output data file ./calc.save/
  @ DRIVER MODE: Message from server: EXIT
  @ DRIVE MODE: Exiting

     General routines

     Parallel routines

   This run was terminated on:  17:22:47  22Sep2021

   JOB DONE.