     Program PWSCF v.6.7GPU starts on 16Sep2021 at  0:12:54

     R & G space division:  proc/nbgrp/npool/nimage =      10
     Reading input from /storage/home/hcoda1/3/ntian30/research/carbon/CxH_vib/H2O_calc/ads_slab/CH2OH2O_a/out_0026/pw.inp
Warning: card &CELL ignored
Warning: card   CELL_DYNAMICS='IPI', ignored
Warning: card / ignored

     Current dimensions of program PWSCF are:
     Max number of different atomic species (ntypx) = 10
     Max number of k-points (npk) =  40000
     Max angular momentum in pseudopotentials (lmaxx) =  3
     Presently no symmetry can be used with electric field

     Message from routine cell_base_init:
     DEPRECATED: use true lattice parameter, not A to a.u. conversion factor

     IMPORTANT: XC functional enforced from input :
     Exchange-correlation= BEEF-VDW
                           (   1   4  43  14   2   0   0)
     Any further DFT definition will be discarded
     Please, verify this is what you really want

  @ DRIVER MODE: Connecting to
 qe_1139763_2852613.sched-torque.pace.gatech.eduoqe65ks2_scratch
  using UNIX socket
  @ DRIVER MODE: Message from server: STATUS
  @ DRIVER MODE: Message from server: INIT
  @ DRIVER MODE: Receiving replica           0          -1
  @ DRIVER MODE: Receiving encoded integer          25
  @ DRIVER MODE:  SCF:  T  FORCE:  T  STRESS:  F  VC:  F  ENSEMBLE:  F
  @ DRIVER MODE:  SCF:  T  FORCE:  T  STRESS:  F  VC:  F  ENSEMBLE:  F

     Using Slab Decomposition

     bravais-lattice index     =            0
     lattice parameter (alat)  =       1.8897  a.u.
     unit-cell volume          =    6658.9804 (a.u.)^3
     number of atoms/cell      =           54
     number of atomic types    =            4
     number of electrons       =       398.00
     number of Kohn-Sham states=          209
     kinetic-energy cutoff     =      29.3995  Ry
     charge density cutoff     =     293.9946  Ry
     scf convergence threshold =      7.3E-08
     mixing beta               =       0.0500
     number of iterations used =            8  plain     mixing
     Exchange-correlation= BEEF-VDW
                           (   1   4  43  14   2   0   0)

     celldm(1)=   1.889726  celldm(2)=   0.000000  celldm(3)=   0.000000
     celldm(4)=   0.000000  celldm(5)=   0.000000  celldm(6)=   0.000000

     crystal axes: (cart. coord. in units of alat)
               a(1) = (   6.579727   0.000000   0.000000 )
               a(2) = (  -0.000775   5.961596   0.000000 )
               a(3) = (   0.000000   0.000000  25.155947 )

     reciprocal axes: (cart. coord. in units 2 pi/alat)
               b(1) = (  0.151982  0.000020  0.000000 )
               b(2) = (  0.000000  0.167740  0.000000 )
               b(3) = (  0.000000  0.000000  0.039752 )

     PseudoPot. # 1 for O  read from file:
     /storage/coda1/p-amedford6/0/shared/rich_project_chbe-medford/medford-share/data/pseudos_module/espresso/nninc/pbe/van/O.UPF
     MD5 check sum: 78c19812648e8988a0fe644b0f25305e
     Pseudo is Ultrasoft, Zval =  6.0
     Generated by new atomic code, or converted to UPF format
     Using radial grid of  737 points,  4 beta functions with:
                l(1) =   0
                l(2) =   0
                l(3) =   1
                l(4) =   1
     Q(r) pseudized with  8 coefficients,  rinner =    0.800   0.800   0.800

     PseudoPot. # 2 for Ti read from file:
     /storage/coda1/p-amedford6/0/shared/rich_project_chbe-medford/medford-share/data/pseudos_module/espresso/nninc/pbe/van/Ti.UPF
     MD5 check sum: 8e4df49b7f0d34bbd5052bf3f5ea0213
     Pseudo is Ultrasoft, Zval = 12.0
     Generated by new atomic code, or converted to UPF format
     Using radial grid of  851 points,  6 beta functions with:
                l(1) =   0
                l(2) =   0
                l(3) =   1
                l(4) =   1
                l(5) =   2
                l(6) =   2
     Q(r) pseudized with  8 coefficients,  rinner =    1.000   1.000   1.000
                                                       1.000   1.000

     PseudoPot. # 3 for C  read from file:
     /storage/coda1/p-amedford6/0/shared/rich_project_chbe-medford/medford-share/data/pseudos_module/espresso/nninc/pbe/van/C.UPF
     MD5 check sum: 1a69bf6b8db32088f5b2163dbdb77a27
     Pseudo is Ultrasoft, Zval =  4.0
     Generated by new atomic code, or converted to UPF format
     Using radial grid of  721 points,  4 beta functions with:
                l(1) =   0
                l(2) =   0
                l(3) =   1
                l(4) =   1
     Q(r) pseudized with  8 coefficients,  rinner =    0.800   0.800   0.800

     PseudoPot. # 4 for H  read from file:
     /storage/coda1/p-amedford6/0/shared/rich_project_chbe-medford/medford-share/data/pseudos_module/espresso/nninc/pbe/van/H.UPF
     MD5 check sum: b5ee9d7bfd3a09ee7748110bda690ff7
     Pseudo is Ultrasoft, Zval =  1.0
     Generated by new atomic code, or converted to UPF format
     Using radial grid of  615 points,  1 beta functions with:
                l(1) =   0
     Q(r) pseudized with  8 coefficients,  rinner =    0.800

     atomic species   valence    mass     pseudopotential
        O1             6.00    15.99900     O ( 1.00)
        Ti1           12.00    47.86700     Ti( 1.00)
        C1             4.00    12.01100     C ( 1.00)
        H1             1.00     1.00800     H ( 1.00)

     No symmetry found

   Cartesian axes

     site n.     atom                  positions (alat units)
         1           O1  tau(   1) = (   3.2904802   0.0005063   4.7018136  )
         2           O1  tau(   2) = (   3.2900926   2.9813045   4.7018136  )
         3           Ti1 tau(   3) = (   0.0004258   2.9801865   6.0000000  )
         4           Ti1 tau(   4) = (   0.0000382   5.9609847   6.0000000  )
         5           Ti1 tau(   5) = (   3.2906075   1.4906267   6.0002472  )
         6           Ti1 tau(   6) = (   3.2902200   4.4714249   6.0002472  )
         7           O1  tau(   7) = (   1.3043587   1.4918075   6.0039043  )
         8           O1  tau(   8) = (   1.3039711   4.4726057   6.0039043  )
         9           O1  tau(   9) = (   5.2767064   1.4903225   6.0039473  )
        10           O1  tau(  10) = (   5.2763189   4.4711207   6.0039473  )
        11           O1  tau(  11) = (   3.2906025   0.0005020   7.3038282  )
        12           O1  tau(  12) = (   3.2902150   2.9813002   7.3038282  )
        13           O1  tau(  13) = (   0.0006271   0.0005054   7.9858123  )
        14           O1  tau(  14) = (   0.0002396   2.9813036   7.9858123  )
        15           Ti1 tau(  15) = (   3.3036605   0.0548493   9.1550340  )
        16           Ti1 tau(  16) = (   3.3179312   3.0323762   9.1622521  )
        17           Ti1 tau(  17) = (   0.0293130   4.5303424   9.2586280  )
        18           Ti1 tau(  18) = (   0.0255512   1.6071936   9.3606264  )
        19           O1  tau(  19) = (   4.5942328   1.4918067   9.2879030  )
        20           O1  tau(  20) = (   4.5938453   4.4726049   9.2879030  )
        21           O1  tau(  21) = (   1.9868534   1.4903216   9.2879459  )
        22           O1  tau(  22) = (   1.9864658   4.4711199   9.2879459  )
        23           O1  tau(  23) = (   0.0067149   0.0090568  10.6008527  )
        24           O1  tau(  24) = (   0.0066098   2.9904127  10.5810825  )
        25           O1  tau(  25) = (   3.3023248   2.9935247  11.3558429  )
        26           O1  tau(  26) = (   3.3019398   0.0103095  11.3581380  )
        27           Ti1 tau(  27) = (   0.0322082   0.0188897  12.5014682  )
        28           Ti1 tau(  28) = (   3.3323403   4.4947089  12.5096490  )
        29           Ti1 tau(  29) = (   3.3327227   1.5059056  12.5040540  )
        30           Ti1 tau(  30) = (   0.0321551   3.0004163  12.7750784  )
        31           O1  tau(  31) = (   1.2963378   4.4834263  12.6382484  )
        32           O1  tau(  32) = (   1.2968596   1.4996660  12.6342602  )
        33           O1  tau(  33) = (   5.3004736   4.4821179  12.6410582  )
        34           O1  tau(  34) = (   5.3007909   1.4998706  12.6367838  )
        35           O1  tau(  35) = (   3.3017874   2.9879694  13.9086975  )
        36           O1  tau(  36) = (   3.3040514   0.0100701  13.9766235  )
        37           O1  tau(  37) = (   0.0177811   0.0165449  14.6846256  )
        38           O1  tau(  38) = (   0.0218693   2.9952767  14.7100221  )
        39           Ti1 tau(  39) = (   3.3083447   2.9915206  15.7010863  )
        40           Ti1 tau(  40) = (   3.3165693   0.0114089  15.8055842  )
        41           Ti1 tau(  41) = (   0.0300915   4.5703342  15.9344200  )
        42           Ti1 tau(  42) = (   0.0294271   1.3911826  15.9958598  )
        43           O1  tau(  43) = (   4.5666857   4.4545776  16.0545193  )
        44           O1  tau(  44) = (   4.5654216   1.5273373  16.0688375  )
        45           O1  tau(  45) = (   2.0398213   1.5345912  16.0698912  )
        46           O1  tau(  46) = (   2.0372649   4.4468515  16.0554978  )
        47           O1  tau(  47) = (   0.0160947   0.0056016  17.2166677  )
        48           O1  tau(  48) = (   6.5639191   3.0028441  17.4181802  )
        49           C1  tau(  49) = (   6.3909186   3.0704891  18.6902598  )
        50           H1  tau(  50) = (   6.3116585   4.0479728  19.1570877  )
        51           H1  tau(  51) = (   6.3127454   2.1532251  19.2664540  )
        52           O1  tau(  52) = (   3.2759488   5.9319982  18.2141537  )
        53           H1  tau(  53) = (   4.0486762   5.9278262  18.7801078  )
        54           H1  tau(  54) = (   2.4667005   5.9275743  18.7583984  )

     number of k points=    10  Fermi-Dirac smearing, width (Ry)=  0.0073
                       cart. coord. in units 2pi/alat
        k(    1) = (   0.0000000   0.0000000   0.0000000), wk =   0.1250000
        k(    2) = (   0.0000000   0.0419351   0.0000000), wk =   0.2500000
        k(    3) = (   0.0000000  -0.0838702   0.0000000), wk =   0.1250000
        k(    4) = (   0.0379955   0.0000049   0.0000000), wk =   0.2500000
        k(    5) = (   0.0379955   0.0419400   0.0000000), wk =   0.2500000
        k(    6) = (   0.0379955  -0.0838652   0.0000000), wk =   0.2500000
        k(    7) = (   0.0379955  -0.0419301   0.0000000), wk =   0.2500000
        k(    8) = (  -0.0759910  -0.0000099   0.0000000), wk =   0.1250000
        k(    9) = (  -0.0759910   0.0419252   0.0000000), wk =   0.2500000
        k(   10) = (  -0.0759910  -0.0838800   0.0000000), wk =   0.1250000

     Initial potential from superposition of free atoms

     starting charge  381.99917, renormalised to  398.00000

     negative rho (up, down):  1.686E-02 0.000E+00

     %%%%%%%%%%%%%%%%%%%%%%%%%%%%%%%%%%%%%%%%%%%%%%%%%%%%%%%%%%%%%%%%%%%%%%%%
     %                                                                      %
     % You are using vdW-DF, which was implemented by the Thonhauser group. %
     % Please cite the following two papers that made this development      %
     % possible and the two reviews that describe the various versions:     %
     %                                                                      %
     %   T. Thonhauser et al., PRL 115, 136402 (2015).                      %
     %   T. Thonhauser et al., PRB 76, 125112 (2007).                       %
     %   K. Berland et al., Rep. Prog. Phys. 78, 066501 (2015).             %
     %   D.C. Langreth et al., J. Phys.: Condens. Matter 21, 084203 (2009). %
     %                                                                      %
     %                                                                      %
     % If you are calculating the stress with vdW-DF, please also cite:     %
     %                                                                      %
     %   R. Sabatini et al., J. Phys.: Condens. Matter 24, 424209 (2012).   %
     %                                                                      %
     %%%%%%%%%%%%%%%%%%%%%%%%%%%%%%%%%%%%%%%%%%%%%%%%%%%%%%%%%%%%%%%%%%%%%%%%

     Adding external electric field

     Computed dipole along edir(3) :
        Dipole               -9.6373 Ry au,        -24.4955 Debye
        Dipole field         -0.0182 Ry au,

        Potential amp.        1.6859 Ry
        Total length         46.3494 bohr

     Starting wfcs are  300 atomic wfcs
  @ DRIVER MODE: Message from server: STATUS
  @ DRIVER MODE: Message from server: POSDATA
  @ DRIVER MODE: Reading and sharing cell
  @ DRIVER MODE: Reading and sharing positions
  @ DRIVER MODE: Received positions

     Self-consistent Calculation

     iteration #  1     ecut=    29.40 Ry     beta= 0.05
     Davidson diagonalization with overlap
     c_bands:  1 eigenvalues not converged
     c_bands:  3 eigenvalues not converged
     c_bands:  2 eigenvalues not converged
     c_bands:  2 eigenvalues not converged
     c_bands:  2 eigenvalues not converged
     c_bands:  1 eigenvalues not converged
     c_bands:  2 eigenvalues not converged
     c_bands:  1 eigenvalues not converged
     c_bands:  2 eigenvalues not converged
     ethr =  1.00E-05,  avg # of iterations = 19.6

[...]

     total energy              =   -2526.83797884 Ry
     estimated scf accuracy    <    4873.64516367 Ry

     iteration #  2     ecut=    29.40 Ry     beta= 0.05
     Davidson diagonalization with overlap
     ethr =  1.00E-02,  avg # of iterations = 27.1

[...]

     iteration # 75     ecut=    29.40 Ry     beta= 0.05
     Davidson diagonalization with overlap
     c_bands:  1 eigenvalues not converged
     ethr =  1.92E-10,  avg # of iterations = 13.9

[...]

     total energy              =   -2964.99512470 Ry
     estimated scf accuracy    <       0.00000010 Ry

     iteration # 83     ecut=    29.40 Ry     beta= 0.05
     Davidson diagonalization with overlap
     ethr =  2.60E-11,  avg # of iterations =  9.7

     negative rho (up, down):  1.527E-02 0.000E+00

     Adding external electric field

     Computed dipole along edir(3) :
        Dipole                1.2235 Ry au,          3.1099 Debye
        Dipole field          0.0023 Ry au,

        Potential amp.       -0.2140 Ry
        Total length         46.3494 bohr

     End of self-consistent calculation

          k = 0.0000 0.0000 0.0000 ( 18029 PWs)   bands (ev):

   -55.5392 -55.5024 -55.5018 -55.4656 -55.4624 -55.4179 -55.3817 -55.3148
   -55.3021 -55.2790 -55.2687 -55.2591 -55.2178 -55.2096 -54.5505 -54.5165
   -32.0574 -32.0095 -31.8957 -31.8529 -31.8511 -31.8335 -31.8131 -31.8044
   -31.7811 -31.7692 -31.7355 -31.7255 -31.6981 -31.6855 -31.6831 -31.6491
   -31.6458 -31.6395 -31.6346 -31.6315 -31.6027 -31.5973 -31.5897 -31.5858
   -31.5582 -31.5541 -31.5507 -31.5301 -31.5229 -31.5214 -31.4759 -31.4745
   -31.4484 -31.4468 -31.4332 -31.4280 -31.4219 -31.4080 -31.3964 -31.3948
   -31.3918 -31.3753 -30.9601 -30.8638 -30.8415 -30.7766 -30.6905 -30.5794
   -19.3636 -19.1370 -16.2545 -15.9919 -15.8201 -15.7090 -15.6621 -15.4599
   -15.3670 -15.2863 -15.2225 -15.1451 -15.1284 -15.0907 -15.0648 -15.0591
   -15.0539 -15.0051 -14.9961 -14.9567 -14.9449 -14.9435 -14.9250 -14.9061
   -14.8243 -14.7217 -14.6784 -14.6602 -14.6013 -14.5451 -14.5313 -13.0513
   -12.9333  -9.0160  -7.1478  -5.2203  -5.1813  -3.7757  -3.5757  -3.4582
    -3.4237  -3.3879  -3.3192  -3.1380  -3.1294  -3.0366  -2.7994  -2.7090
    -2.6758  -2.6179  -2.6078  -2.5082  -2.4673  -2.3609  -2.3521  -2.3480
    -2.3317  -2.3058  -2.2728  -2.2307  -2.2065  -2.1943  -2.0666  -2.0554
    -1.9272  -1.9213  -1.8979  -1.8432  -1.8382  -1.7963  -1.7831  -1.7795
    -1.7669  -1.7185  -1.7070  -1.5938  -1.5199  -1.4568  -1.3699  -1.2316
    -1.1698  -1.0975  -1.0437  -1.0091  -0.9464  -0.9434  -0.8892  -0.8485
    -0.7902  -0.7784  -0.7713  -0.6749  -0.5755  -0.5543  -0.5240  -0.4456
    -0.3671  -0.2808  -0.2616  -0.2594  -0.2581  -0.2370  -0.0995  -0.0160
     0.0413   0.0463   0.1424   0.1756   0.2108   0.2249   0.2572   0.2779
     0.3339   0.4087   0.4203   0.4336   0.4592   0.5049   0.5108   0.6232
     0.6995   0.7011   0.7371   0.7699   0.9454   0.9803   1.1072   1.2144
     1.3807   1.4737   1.5456   1.6468   2.0598   2.1174   3.6340   3.6758
     3.6908   3.7332   3.7826   3.8093   3.8770   4.0762   4.0925   4.1023
     4.1417

[...]

          k = 0.0380-0.0419 0.0000 ( 17876 PWs)   bands (ev):

[...]

          k =-0.0760-0.0000 0.0000 ( 17886 PWs)   bands (ev):

[...]

          k =-0.0760-0.0839 0.0000 ( 17948 PWs)   bands (ev):

   -55.5278 -55.5137 -55.4850 -55.4821 -55.4609 -55.4077 -55.3920 -55.3113
   -55.2868 -55.2844 -55.2735 -55.2606 -55.2231 -55.2124 -54.5340 -54.5329
   -31.8681 -31.8533 -31.8337 -31.8209 -31.8181 -31.7987 -31.7737 -31.7560
   -31.7430 -31.7381 -31.7377 -31.7300 -31.6965 -31.6625 -31.6565 -31.6526
   -31.6434 -31.6406 -31.6374 -31.6349 -31.6290 -31.6101 -31.6094 -31.6081
   -31.6036 -31.5889 -31.5678 -31.5527 -31.5397 -31.5382 -31.5313 -31.5141
   -31.4966 -31.4922 -31.4851 -31.4838 -31.4654 -31.4472 -31.4421 -31.4367
   -31.4063 -31.3997 -30.8548 -30.8534 -30.7735 -30.7725 -30.7341 -30.7331
   -19.3548 -19.1367 -15.7058 -15.5967 -15.5625 -15.4156 -15.4113 -15.3603
   -15.3520 -15.3162 -15.2362 -15.2328 -15.1829 -15.1638 -15.1290 -15.1055
   -15.0937 -15.0483 -15.0459 -15.0271 -15.0032 -14.9848 -14.9683 -14.9409
   -14.9168 -14.9094 -14.8717 -14.8634 -14.7988 -14.7441 -14.7231 -13.0357
   -13.0335  -9.0168  -7.1453  -5.1972  -5.1582  -3.7322  -3.1564  -2.9898
    -2.8026  -2.7870  -2.6547  -2.6199  -2.6018  -2.5114  -2.4781  -2.4444
    -2.3814  -2.3706  -2.3641  -2.3424  -2.3374  -2.3237  -2.3026  -2.2654
    -2.2556  -2.2239  -2.1941  -2.1804  -2.1597  -2.1498  -2.1214  -2.1020
    -2.0893  -2.0857  -2.0236  -1.9958  -1.9103  -1.8444  -1.7632  -1.7107
    -1.6797  -1.6773  -1.6412  -1.6026  -1.5948  -1.5796  -1.4336  -1.3843
    -1.2616  -1.2482  -1.2291  -1.1527  -1.1368  -1.1032  -1.0976  -1.0311
    -0.9444  -0.9401  -0.9174  -0.8890  -0.8017  -0.7334  -0.6925  -0.6564
    -0.6126  -0.5829  -0.5087  -0.4953  -0.4844  -0.4221  -0.3816  -0.2965
    -0.2830  -0.2637  -0.2127  -0.1837  -0.1487  -0.0798  -0.0620  -0.0392
     0.0419   0.1081   0.1143   0.3240   0.4865   0.5156   0.5321   0.6168
     0.6636   0.7724   0.7959   0.8045   0.8471   0.8925   0.9800   1.0060
     1.0078   1.0853   1.8341   1.8348   1.9222   1.9327   3.5658   3.8796
     3.9440   3.9673   3.9923   4.1075   4.1100   4.1293   4.1379   4.2909
     4.2936

     the Fermi energy is     3.6122 ev

!    total energy              =   -2964.99512959 Ry
     estimated scf accuracy    <       0.00000006 Ry
     smearing contrib. (-TS)   =      -0.03110906 Ry
     internal energy E=F+TS    =   -2964.96402052 Ry

     The total energy is F=E-TS. E is the sum of the following terms:
     one-electron contribution =  -24342.46628709 Ry
     hartree contribution      =   12264.28998347 Ry
     xc contribution           =    -490.10222943 Ry
     ewald contribution        =    9603.31168737 Ry
     electric field correction =       0.00282515 Ry

     convergence has been achieved in  83 iterations

     Forces acting on atoms (cartesian axes, Ry/au):

     atom    1 type  1   force =    -0.00009766    0.00006635    0.10406230
     atom    2 type  1   force =    -0.00008995    0.00006139    0.10406083
     atom    3 type  2   force =    -0.00029733   -0.00188680    0.10330171
     atom    4 type  2   force =    -0.00014956    0.00151603    0.11461578
     atom    5 type  2   force =    -0.00037783    0.00124486   -0.17935808
     atom    6 type  2   force =    -0.00016711   -0.00076439   -0.17974675
     atom    7 type  1   force =    -0.06939625    0.00065352   -0.02929585
     atom    8 type  1   force =    -0.06894236   -0.00122700   -0.02933696
     atom    9 type  1   force =     0.06904007    0.00114824   -0.02935812
     atom   10 type  1   force =     0.06867021   -0.00080718   -0.02940946
     atom   11 type  1   force =     0.00041907    0.00056867    0.04682297
     atom   12 type  1   force =     0.00063083    0.00080654    0.04852859
     atom   13 type  1   force =     0.00026668   -0.00568336   -0.03324463
     atom   14 type  1   force =     0.00033346    0.00339420   -0.02637968
     atom   15 type  2   force =    -0.00010116   -0.00002850    0.00040358
     atom   16 type  2   force =     0.00001538    0.00002678    0.00051335
     atom   17 type  2   force =    -0.00002366    0.00011554    0.00042186
     atom   18 type  2   force =    -0.00006510   -0.00033507    0.00008675
     atom   19 type  1   force =    -0.01806740   -0.00015391    0.00403471
     atom   20 type  1   force =    -0.01684209    0.00148252    0.00328622
     atom   21 type  1   force =     0.01933784   -0.00136316    0.00448147
     atom   22 type  1   force =     0.01790517    0.00116739    0.00355869
     atom   23 type  1   force =     0.00001818    0.00003320   -0.00013867
     atom   24 type  1   force =    -0.00005368   -0.00000825   -0.00006927
     atom   25 type  1   force =    -0.00005078    0.00000790   -0.00059737
     atom   26 type  1   force =    -0.00023048    0.00014377   -0.00067451
     atom   27 type  2   force =     0.00004255    0.00014494   -0.00042557
     atom   28 type  2   force =     0.00023416    0.00001877   -0.00009354
     atom   29 type  2   force =     0.00022139    0.00000811   -0.00021685
     atom   30 type  2   force =    -0.00008840    0.00020256    0.00018578
     atom   31 type  1   force =    -0.00064383   -0.00024498    0.00053779
     atom   32 type  1   force =    -0.00055476    0.00032470    0.00056720
     atom   33 type  1   force =     0.00040414   -0.00014448    0.00035352
     atom   34 type  1   force =     0.00032734    0.00019281    0.00038168
     atom   35 type  1   force =    -0.00016454    0.00000911    0.00023112
     atom   36 type  1   force =    -0.00009293    0.00000886   -0.00018402
     atom   37 type  1   force =    -0.00035735    0.00001127   -0.00019897
     atom   38 type  1   force =    -0.00048556    0.00026744   -0.00004186
     atom   39 type  2   force =     0.00002671   -0.00007838    0.00129071
     atom   40 type  2   force =     0.00045492    0.00021449   -0.00133441
     atom   41 type  2   force =    -0.00044853   -0.00093048   -0.00061407
     atom   42 type  2   force =    -0.00042172    0.00093302   -0.00047876
     atom   43 type  1   force =     0.00001597    0.00009160    0.00009145
     atom   44 type  1   force =    -0.00004728    0.00003107   -0.00009962
     atom   45 type  1   force =    -0.00035451   -0.00039490    0.00016840
     atom   46 type  1   force =    -0.00039739    0.00056660    0.00033827
     atom   47 type  1   force =     0.00006638   -0.00019092    0.00019454
     atom   48 type  1   force =    -0.00022797    0.00012371    0.00072792
     atom   49 type  3   force =     0.00023374   -0.00054942    0.00017638
     atom   50 type  4   force =     0.00046253   -0.00115388    0.00043470
     atom   51 type  4   force =     0.00035867   -0.00027963   -0.00063289
     atom   52 type  1   force =    -0.02729555    0.00066016   -0.00144291
     atom   53 type  4   force =     0.01410212   -0.00007578    0.01008967
     atom   54 type  4   force =     0.01294520    0.00005438   -0.01057512

     Total force =     0.376245     Total SCF correction =     0.000572
  @ DRIVER MODE: Message from server: STATUS
  @ DRIVER MODE: Message from server: GETFORCE
  @ DRIVER MODE: Returning v,forces,stress,ensemble

     Writing output data file ./calc.save/
  @ DRIVER MODE: Message from server: EXIT
  @ DRIVE MODE: Exiting

     General routines

     Parallel routines

   This run was terminated on:   0:34:32  16Sep2021

   JOB DONE.