     Program PWSCF v.6.7GPU starts on 15Sep2021 at 18:47:24

     R & G space division:  proc/nbgrp/npool/nimage =      10
     Reading input from /storage/home/hcoda1/3/ntian30/research/carbon/CxH_vib/H2O_calc/ads_slab/CH2NNHHH2O_a/out_0009/pw.inp
Warning: card &CELL ignored
Warning: card   CELL_DYNAMICS='IPI', ignored
Warning: card / ignored

     Current dimensions of program PWSCF are:
     Max number of different atomic species (ntypx) = 10
     Max number of k-points (npk) =  40000
     Max angular momentum in pseudopotentials (lmaxx) =  3
     Presently no symmetry can be used with electric field

     Message from routine cell_base_init:
     DEPRECATED: use true lattice parameter, not A to a.u. conversion factor

     IMPORTANT: XC functional enforced from input :
     Exchange-correlation= BEEF-VDW
                           (   1   4  43  14   2   0   0)
     Any further DFT definition will be discarded
     Please, verify this is what you really want

  @ DRIVER MODE: Connecting to
 qe_1139763_2852611.sched-torque.pace.gatech.edukol16fik_scratch
  using UNIX socket
  @ DRIVER MODE: Message from server: STATUS
  @ DRIVER MODE: Message from server: INIT
  @ DRIVER MODE: Receiving replica           0          -1
  @ DRIVER MODE: Receiving encoded integer          25
  @ DRIVER MODE:  SCF:  T  FORCE:  T  STRESS:  F  VC:  F  ENSEMBLE:  F
  @ DRIVER MODE:  SCF:  T  FORCE:  T  STRESS:  F  VC:  F  ENSEMBLE:  F

     Using Slab Decomposition

     bravais-lattice index     =            0
     lattice parameter (alat)  =       1.8897  a.u.
     unit-cell volume          =    6658.9804 (a.u.)^3
     number of atoms/cell      =           57
     number of atomic types    =            5
     number of electrons       =       404.00
     number of Kohn-Sham states=          212
     kinetic-energy cutoff     =      29.3995  Ry
     charge density cutoff     =     293.9946  Ry
     scf convergence threshold =      7.3E-08
     mixing beta               =       0.0500
     number of iterations used =            8  plain     mixing
     Exchange-correlation= BEEF-VDW
                           (   1   4  43  14   2   0   0)

     celldm(1)=   1.889726  celldm(2)=   0.000000  celldm(3)=   0.000000
     celldm(4)=   0.000000  celldm(5)=   0.000000  celldm(6)=   0.000000

     crystal axes: (cart. coord. in units of alat)
               a(1) = (   6.579727   0.000000   0.000000 )
               a(2) = (  -0.000775   5.961596   0.000000 )
               a(3) = (   0.000000   0.000000  25.155947 )

     reciprocal axes: (cart. coord. in units 2 pi/alat)
               b(1) = (  0.151982  0.000020  0.000000 )
               b(2) = (  0.000000  0.167740  0.000000 )
               b(3) = (  0.000000  0.000000  0.039752 )

     PseudoPot. # 1 for Ti read from file:
     /storage/coda1/p-amedford6/0/shared/rich_project_chbe-medford/medford-share/data/pseudos_module/espresso/nninc/pbe/van/Ti.UPF
     MD5 check sum: 8e4df49b7f0d34bbd5052bf3f5ea0213
     Pseudo is Ultrasoft, Zval = 12.0
     Generated by new atomic code, or converted to UPF format
     Using radial grid of  851 points,  6 beta functions with:
                l(1) =   0
                l(2) =   0
                l(3) =   1
                l(4) =   1
                l(5) =   2
                l(6) =   2
     Q(r) pseudized with  8 coefficients,  rinner =    1.000   1.000   1.000
                                                       1.000   1.000

     PseudoPot. # 2 for O  read from file:
     /storage/coda1/p-amedford6/0/shared/rich_project_chbe-medford/medford-share/data/pseudos_module/espresso/nninc/pbe/van/O.UPF
     MD5 check sum: 78c19812648e8988a0fe644b0f25305e
     Pseudo is Ultrasoft, Zval =  6.0
     Generated by new atomic code, or converted to UPF format
     Using radial grid of  737 points,  4 beta functions with:
                l(1) =   0
                l(2) =   0
                l(3) =   1
                l(4) =   1
     Q(r) pseudized with  8 coefficients,  rinner =    0.800   0.800   0.800

     PseudoPot. # 3 for N  read from file:
     /storage/coda1/p-amedford6/0/shared/rich_project_chbe-medford/medford-share/data/pseudos_module/espresso/nninc/pbe/van/N.UPF
     MD5 check sum: 90d10febe142ad51ac9d5be1deb811c4
     Pseudo is Ultrasoft, Zval =  5.0
     Generated by new atomic code, or converted to UPF format
     Using radial grid of  729 points,  4 beta functions with:
                l(1) =   0
                l(2) =   0
                l(3) =   1
                l(4) =   1
     Q(r) pseudized with  8 coefficients,  rinner =    0.800   0.800   0.800

     PseudoPot. # 4 for C  read from file:
     /storage/coda1/p-amedford6/0/shared/rich_project_chbe-medford/medford-share/data/pseudos_module/espresso/nninc/pbe/van/C.UPF
     MD5 check sum: 1a69bf6b8db32088f5b2163dbdb77a27
     Pseudo is Ultrasoft, Zval =  4.0
     Generated by new atomic code, or converted to UPF format
     Using radial grid of  721 points,  4 beta functions with:
                l(1) =   0
                l(2) =   0
                l(3) =   1
                l(4) =   1
     Q(r) pseudized with  8 coefficients,  rinner =    0.800   0.800   0.800

     PseudoPot. # 5 for H  read from file:
     /storage/coda1/p-amedford6/0/shared/rich_project_chbe-medford/medford-share/data/pseudos_module/espresso/nninc/pbe/van/H.UPF
     MD5 check sum: b5ee9d7bfd3a09ee7748110bda690ff7
     Pseudo is Ultrasoft, Zval =  1.0
     Generated by new atomic code, or converted to UPF format
     Using radial grid of  615 points,  1 beta functions with:
                l(1) =   0
     Q(r) pseudized with  8 coefficients,  rinner =    0.800

     atomic species   valence    mass     pseudopotential
        Ti1           12.00    47.86700     Ti( 1.00)
        O1             6.00    15.99900     O ( 1.00)
        N1             5.00    14.00700     N ( 1.00)
        C1             4.00    12.01100     C ( 1.00)
        H1             1.00     1.00800     H ( 1.00)

     No symmetry found

   Cartesian axes

     site n.     atom                  positions (alat units)
         1           Ti1 tau(   1) = (   0.0004258   2.9801865   6.0000000  )
         2           Ti1 tau(   2) = (   3.2906075   1.4906267   6.0002472  )
         3           O1  tau(   3) = (   0.0006271   0.0005054   7.9858123  )
         4           O1  tau(   4) = (   3.2906025   0.0005020   7.3038282  )
         5           O1  tau(   5) = (   4.5942328   1.4918067   9.2879030  )
         6           O1  tau(   6) = (   1.9868534   1.4903216   9.2879459  )
         7           Ti1 tau(   7) = (   3.2907910   2.8959150   9.1758416  )
         8           Ti1 tau(   8) = (   0.0015273   1.4827037   9.2680791  )
         9           O1  tau(   9) = (   3.3121314   5.9338840  11.3691909  )
        10           O1  tau(  10) = (   0.0116148   5.9584955  10.6183126  )
        11           O1  tau(  11) = (   1.3134021   1.4784130  12.6451072  )
        12           O1  tau(  12) = (   5.3172625   1.4801399  12.6491864  )
        13           Ti1 tau(  13) = (   0.0380378   2.9573341  12.5222382  )
        14           Ti1 tau(  14) = (   3.3404755   1.4532591  12.5245293  )
        15           O1  tau(  15) = (   0.0239237   0.0366503  14.6894071  )
        16           O1  tau(  16) = (   3.3255740   5.9570089  14.0129324  )
        17           O1  tau(  17) = (   4.5846449   1.4795273  16.1858442  )
        18           O1  tau(  18) = (   2.0539891   1.4908220  16.1938258  )
        19           Ti1 tau(  19) = (   3.3028508   2.9322526  15.7076921  )
        20           Ti1 tau(  20) = (   0.0088316   1.3655950  16.0522487  )
        21           O1  tau(  21) = (   3.2904802   0.0005063   4.7018136  )
        22           O1  tau(  22) = (   0.0586005   5.8320325  17.2288864  )
        23           O1  tau(  23) = (   1.3043587   1.4918075   6.0039043  )
        24           O1  tau(  24) = (   5.2767064   1.4903225   6.0039473  )
        25           Ti1 tau(  25) = (   0.0000382   5.9609847   6.0000000  )
        26           Ti1 tau(  26) = (   3.2902200   4.4714249   6.0002472  )
        27           O1  tau(  27) = (   0.0002396   2.9813036   7.9858123  )
        28           O1  tau(  28) = (   3.2902150   2.9813002   7.3038282  )
        29           O1  tau(  29) = (   4.5938453   4.4726049   9.2879030  )
        30           O1  tau(  30) = (   1.9864658   4.4711199   9.2879459  )
        31           Ti1 tau(  31) = (   3.2891106   5.8743827   9.1763621  )
        32           Ti1 tau(  32) = (   0.0006254   4.4649316   9.2693709  )
        33           O1  tau(  33) = (   3.3142679   2.9660735  11.3641874  )
        34           O1  tau(  34) = (   0.0092240   2.9805883  10.6323155  )
        35           O1  tau(  35) = (   1.3108675   4.4558178  12.6782323  )
        36           O1  tau(  36) = (   5.3175068   4.4537340  12.6790822  )
        37           Ti1 tau(  37) = (   0.0418451   5.9490355  12.4996082  )
        38           Ti1 tau(  38) = (   3.3402151   4.4429940  12.5219265  )
        39           O1  tau(  39) = (   0.0332256   2.9148708  14.9327709  )
        40           O1  tau(  40) = (   3.3156017   2.9437717  13.9283311  )
        41           O1  tau(  41) = (   4.5915719   4.3868214  16.1197993  )
        42           O1  tau(  42) = (   2.0539401   4.4017640  16.0846163  )
        43           Ti1 tau(  43) = (   3.3369130   5.9116756  15.8392261  )
        44           Ti1 tau(  44) = (   0.0533093   4.5818758  15.8415549  )
        45           O1  tau(  45) = (   3.2900926   2.9813045   4.7018136  )
        46           O1  tau(  46) = (   1.3039711   4.4726057   6.0039043  )
        47           O1  tau(  47) = (   5.2763189   4.4711207   6.0039473  )
        48           N1  tau(  48) = (   6.5287229   2.7802708  18.1865785  )
        49           C1  tau(  49) = (   0.9724842   2.7644648  18.9576868  )
        50           H1  tau(  50) = (   0.9153086   3.0669255  20.0057840  )
        51           H1  tau(  51) = (   1.9225290   2.4867234  18.5393133  )
        52           N1  tau(  52) = (   5.2958906   3.1014149  18.7352402  )
        53           H1  tau(  53) = (   5.3913054   3.6367428  19.5974321  )
        54           H1  tau(  54) = (   4.7863746   3.6605970  18.0522289  )
        55           O1  tau(  55) = (   3.2511457   5.8152340  18.3397965  )
        56           H1  tau(  56) = (   3.7467739   0.6636339  18.5518981  )
        57           H1  tau(  57) = (   2.3053106   0.0674530  18.4201010  )

     number of k points=    10  Fermi-Dirac smearing, width (Ry)=  0.0073
                       cart. coord. in units 2pi/alat
        k(    1) = (   0.0000000   0.0000000   0.0000000), wk =   0.1250000
        k(    2) = (   0.0000000   0.0419351   0.0000000), wk =   0.2500000
        k(    3) = (   0.0000000  -0.0838702   0.0000000), wk =   0.1250000
        k(    4) = (   0.0379955   0.0000049   0.0000000), wk =   0.2500000
        k(    5) = (   0.0379955   0.0419400   0.0000000), wk =   0.2500000
        k(    6) = (   0.0379955  -0.0838652   0.0000000), wk =   0.2500000
        k(    7) = (   0.0379955  -0.0419301   0.0000000), wk =   0.2500000
        k(    8) = (  -0.0759910  -0.0000099   0.0000000), wk =   0.1250000
        k(    9) = (  -0.0759910   0.0419252   0.0000000), wk =   0.2500000
        k(   10) = (  -0.0759910  -0.0838800   0.0000000), wk =   0.1250000

     Initial potential from superposition of free atoms

     starting charge  387.99913, renormalised to  404.00000

     negative rho (up, down):  1.527E-02 0.000E+00

     %%%%%%%%%%%%%%%%%%%%%%%%%%%%%%%%%%%%%%%%%%%%%%%%%%%%%%%%%%%%%%%%%%%%%%%%
     %                                                                      %
     % You are using vdW-DF, which was implemented by the Thonhauser group. %
     % Please cite the following two papers that made this development      %
     % possible and the two reviews that describe the various versions:     %
     %                                                                      %
     %   T. Thonhauser et al., PRL 115, 136402 (2015).                      %
     %   T. Thonhauser et al., PRB 76, 125112 (2007).                       %
     %   K. Berland et al., Rep. Prog. Phys. 78, 066501 (2015).             %
     %   D.C. Langreth et al., J. Phys.: Condens. Matter 21, 084203 (2009). %
     %                                                                      %
     %                                                                      %
     % If you are calculating the stress with vdW-DF, please also cite:     %
     %                                                                      %
     %   R. Sabatini et al., J. Phys.: Condens. Matter 24, 424209 (2012).   %
     %                                                                      %
     %%%%%%%%%%%%%%%%%%%%%%%%%%%%%%%%%%%%%%%%%%%%%%%%%%%%%%%%%%%%%%%%%%%%%%%%

     Adding external electric field

     Computed dipole along edir(3) :
        Dipole              -14.3244 Ry au,        -36.4090 Debye
        Dipole field         -0.0270 Ry au,

        Potential amp.        2.5058 Ry
        Total length         46.3494 bohr

     Starting wfcs are  306 atomic wfcs
  @ DRIVER MODE: Message from server: STATUS
  @ DRIVER MODE: Message from server: POSDATA
  @ DRIVER MODE: Reading and sharing cell
  @ DRIVER MODE: Reading and sharing positions
  @ DRIVER MODE: Received positions

     Self-consistent Calculation

     iteration #  1     ecut=    29.40 Ry     beta= 0.05
     Davidson diagonalization with overlap
     c_bands:  4 eigenvalues not converged
     c_bands:  3 eigenvalues not converged
     c_bands:  5 eigenvalues not converged
     c_bands:  1 eigenvalues not converged
     c_bands:  2 eigenvalues not converged
     c_bands:  1 eigenvalues not converged
     c_bands:  2 eigenvalues not converged
     c_bands:  4 eigenvalues not converged
     c_bands:  5 eigenvalues not converged
     ethr =  1.00E-05,  avg # of iterations = 24.6

[...]

     total energy              =   -2233.94295884 Ry
     estimated scf accuracy    <    8445.26659527 Ry

     iteration #  2     ecut=    29.40 Ry     beta= 0.05
     Davidson diagonalization with overlap
     ethr =  1.00E-02,  avg # of iterations = 25.6

[...]

     iteration # 58     ecut=    29.40 Ry     beta= 0.05
     Davidson diagonalization with overlap
     c_bands:  1 eigenvalues not converged
     ethr =  7.20E-09,  avg # of iterations = 12.2

[...]

     total energy              =   -2975.20589417 Ry
     estimated scf accuracy    <       0.00000008 Ry

     iteration # 70     ecut=    29.40 Ry     beta= 0.05
     Davidson diagonalization with overlap
     ethr =  2.09E-11,  avg # of iterations =  8.5

     negative rho (up, down):  1.520E-02 0.000E+00

     Adding external electric field

     Computed dipole along edir(3) :
        Dipole                1.3989 Ry au,          3.5558 Debye
        Dipole field          0.0026 Ry au,

        Potential amp.       -0.2447 Ry
        Total length         46.3494 bohr

     End of self-consistent calculation

          k = 0.0000 0.0000 0.0000 ( 18029 PWs)   bands (ev):

   -55.1898 -55.1539 -55.1501 -55.1160 -55.1023 -55.0705 -55.0362 -55.0325
   -55.0087 -54.9793 -54.9738 -54.9704 -54.9457 -54.8751 -54.1732 -54.1392
   -31.7552 -31.6418 -31.6001 -31.5591 -31.5085 -31.4982 -31.4911 -31.4838
   -31.4391 -31.4048 -31.4013 -31.3946 -31.3927 -31.3664 -31.3436 -31.3347
   -31.3338 -31.3275 -31.3081 -31.3021 -31.2825 -31.2780 -31.2632 -31.2495
   -31.2386 -31.2360 -31.2153 -31.2092 -31.2073 -31.2007 -31.1948 -31.1769
   -31.1724 -31.1619 -31.1571 -31.1440 -31.1229 -31.1189 -31.1073 -31.0906
   -31.0896 -31.0047 -30.5822 -30.4889 -30.4668 -30.3987 -30.3120 -30.2010
   -18.9166 -18.5419 -16.0157 -15.7504 -15.6144 -15.5044 -15.3887 -15.2589
   -15.2113 -15.0801 -15.0204 -14.9072 -14.8792 -14.8371 -14.8176 -14.8127
   -14.7546 -14.7272 -14.7204 -14.6951 -14.6848 -14.6633 -14.6241 -14.6176
   -14.5819 -14.5710 -14.5670 -14.4222 -14.3445 -14.2801 -13.9684 -13.6726
   -12.6757 -12.5583  -8.7994  -6.7049  -6.4680  -6.0489  -4.1465  -3.3588
    -3.2032  -3.1913  -3.1276  -3.0869  -3.0801  -3.0089  -2.9406  -2.7373
    -2.6026  -2.5752  -2.4566  -2.3904  -2.3859  -2.3329  -2.1899  -2.1854
    -2.1300  -2.0904  -2.0404  -2.0203  -1.9970  -1.9733  -1.9394  -1.9200
    -1.8931  -1.7583  -1.7382  -1.6645  -1.6020  -1.5918  -1.5336  -1.5095
    -1.4905  -1.4853  -1.4768  -1.4644  -1.4256  -1.4119  -1.3687  -1.3104
    -1.2086  -1.1159  -1.0272  -0.9477  -0.8858  -0.8244  -0.7627  -0.7537
    -0.6766  -0.6642  -0.5731  -0.5492  -0.5194  -0.4064  -0.3441  -0.3397
    -0.2765  -0.1747  -0.1460  -0.1298  -0.0586   0.0196   0.0385   0.0465
     0.0544   0.1780   0.2312   0.2633   0.2969   0.3675   0.3892   0.4387
     0.4852   0.4927   0.5711   0.6308   0.6851   0.7343   0.7518   0.7760
     0.7945   0.8040   0.8208   0.9020   0.9247   0.9579   1.0108   1.1666
     1.3261   1.4253   1.4414   1.7593   1.7726   1.8497   2.0340   2.4249
     2.4729   3.9061   3.9830   4.0420   4.0483   4.0573   4.1433   4.3877
     4.4035   4.4161   4.4283   4.4722

[...]

          k = 0.0380-0.0419 0.0000 ( 17876 PWs)   bands (ev):

[...]

          k =-0.0760-0.0000 0.0000 ( 17886 PWs)   bands (ev):

[...]

          k =-0.0760-0.0839 0.0000 ( 17948 PWs)   bands (ev):

   -55.1727 -55.1708 -55.1331 -55.1329 -55.0999 -55.0596 -55.0434 -55.0342
   -54.9943 -54.9877 -54.9725 -54.9628 -54.9624 -54.8771 -54.1562 -54.1561
   -31.5645 -31.5543 -31.5250 -31.4569 -31.4568 -31.4505 -31.4416 -31.4245
   -31.4244 -31.4034 -31.3927 -31.3899 -31.3775 -31.3515 -31.3273 -31.3218
   -31.3217 -31.3212 -31.3189 -31.3096 -31.3039 -31.2853 -31.2720 -31.2693
   -31.2556 -31.2527 -31.2526 -31.2516 -31.2418 -31.2377 -31.2277 -31.2260
   -31.2184 -31.2074 -31.2017 -31.1915 -31.1905 -31.1537 -31.1428 -31.1425
   -31.0988 -31.0911 -30.4795 -30.4794 -30.3949 -30.3947 -30.3554 -30.3553
   -18.9142 -18.5412 -15.5324 -15.4862 -15.3308 -15.1963 -15.1930 -15.1530
   -15.0974 -15.0257 -15.0048 -14.9616 -14.9509 -14.9322 -14.8955 -14.8882
   -14.8620 -14.7912 -14.7817 -14.7733 -14.7395 -14.7004 -14.6896 -14.6883
   -14.6714 -14.6416 -14.6384 -14.5411 -14.5389 -14.4463 -14.3080 -13.6878
   -12.6599 -12.6598  -8.7632  -6.7046  -6.4181  -6.0775  -4.1908  -3.2145
    -2.9377  -2.7504  -2.6446  -2.5429  -2.4158  -2.4100  -2.3247  -2.3161
    -2.2352  -2.2011  -2.1888  -2.1731  -2.0819  -2.0686  -2.0582  -2.0365
    -2.0200  -2.0021  -1.9702  -1.9640  -1.9405  -1.9138  -1.9034  -1.9019
    -1.8820  -1.8496  -1.8185  -1.7994  -1.7788  -1.7482  -1.7367  -1.6693
    -1.6290  -1.5411  -1.5060  -1.3913  -1.3895  -1.3652  -1.3120  -1.2924
    -1.2709  -1.2223  -1.2128  -1.1673  -1.0228  -0.9383  -0.9274  -0.8892
    -0.8401  -0.7915  -0.7447  -0.7291  -0.6630  -0.6422  -0.5483  -0.5340
    -0.4304  -0.3904  -0.3786  -0.3628  -0.2796  -0.2159  -0.1693  -0.1493
    -0.1448  -0.0943  -0.0799  -0.0665   0.0051   0.0523   0.0761   0.0907
     0.1322   0.3007   0.3608   0.3744   0.4938   0.5432   0.6468   0.7072
     0.7831   0.8029   0.8390   0.9294   0.9359   1.0125   1.1073   1.1213
     1.1578   1.2019   1.2507   1.2736   1.2785   2.2070   2.2083   2.2928
     2.2930   4.0499   4.1261   4.1842   4.2321   4.2403   4.3616   4.4234
     4.4659   4.4882   4.4905   4.5690

     the Fermi energy is     3.9642 ev

!    total energy              =   -2975.20592763 Ry
     estimated scf accuracy    <       0.00000006 Ry
     smearing contrib. (-TS)   =      -0.03732536 Ry
     internal energy E=F+TS    =   -2975.16860227 Ry

     The total energy is F=E-TS. E is the sum of the following terms:
     one-electron contribution =  -23538.15653733 Ry
     hartree contribution      =   11867.08280478 Ry
     xc contribution           =    -494.97118106 Ry
     ewald contribution        =    9190.87261813 Ry
     electric field correction =       0.00369321 Ry

     convergence has been achieved in  70 iterations

     Forces acting on atoms (cartesian axes, Ry/au):

     atom    1 type  1   force =     0.00005904   -0.00019470    0.09358729
     atom    2 type  1   force =    -0.00020890   -0.00021873   -0.17803585
     atom    3 type  2   force =     0.00011092   -0.00020693   -0.02067603
     atom    4 type  2   force =     0.00004731   -0.00197724    0.05805759
     atom    5 type  2   force =    -0.01002037   -0.00167181    0.00693000
     atom    6 type  2   force =     0.01216649   -0.00104027    0.00744481
     atom    7 type  1   force =     0.00022810    0.00248939   -0.01210258
     atom    8 type  1   force =    -0.00049520    0.00200413   -0.00194064
     atom    9 type  2   force =     0.00006794    0.00006214   -0.00006214
     atom   10 type  2   force =    -0.00044360   -0.00135467   -0.00316517
     atom   11 type  2   force =     0.00016850   -0.00007830   -0.00007530
     atom   12 type  2   force =    -0.00067165   -0.00012299    0.00008415
     atom   13 type  1   force =     0.00051230    0.00099165    0.00026456
     atom   14 type  1   force =    -0.00140471    0.00027376    0.00016700
     atom   15 type  2   force =    -0.00018238    0.00093721    0.00020546
     atom   16 type  2   force =    -0.00001298   -0.00043831    0.00013952
     atom   17 type  2   force =     0.00067015    0.00003363   -0.00025590
     atom   18 type  2   force =     0.00056890    0.00015389   -0.00039288
     atom   19 type  1   force =    -0.00117841    0.00090695    0.00047826
     atom   20 type  1   force =     0.00057605   -0.00002789   -0.00087724
     atom   21 type  2   force =     0.00001219   -0.00002284    0.10387463
     atom   22 type  2   force =     0.00007721    0.00083548   -0.00016499
     atom   23 type  2   force =    -0.07051514   -0.00011732   -0.02694932
     atom   24 type  2   force =     0.07045514    0.00031275   -0.02701106
     atom   25 type  1   force =     0.00001758   -0.00019075    0.09304807
     atom   26 type  1   force =    -0.00009233   -0.00048974   -0.17795347
     atom   27 type  2   force =     0.00017257   -0.00036758   -0.01955638
     atom   28 type  2   force =     0.00010939   -0.00160181    0.05713850
     atom   29 type  2   force =    -0.01007231   -0.00086018    0.00630614
     atom   30 type  2   force =     0.01213304   -0.00061659    0.00686458
     atom   31 type  1   force =     0.00031746    0.00503243   -0.01526641
     atom   32 type  1   force =    -0.00039211   -0.00265160   -0.00236901
     atom   33 type  2   force =    -0.00003172   -0.00026038   -0.00005485
     atom   34 type  2   force =     0.00046306    0.00031711   -0.00056691
     atom   35 type  2   force =    -0.00010732   -0.00037372   -0.00007670
     atom   36 type  2   force =    -0.00045208   -0.00036610    0.00023988
     atom   37 type  1   force =     0.00027099   -0.00104039    0.00052106
     atom   38 type  1   force =    -0.00122071    0.00025012    0.00129186
     atom   39 type  2   force =    -0.00012741   -0.00048429    0.00022944
     atom   40 type  2   force =     0.00003062   -0.00041671    0.00044229
     atom   41 type  2   force =    -0.00019052   -0.00002637    0.00009437
     atom   42 type  2   force =     0.00129474   -0.00027920    0.00008743
     atom   43 type  1   force =    -0.00121635   -0.00068073   -0.00004706
     atom   44 type  1   force =     0.00093965    0.00059106    0.00004516
     atom   45 type  2   force =     0.00004007   -0.00002122    0.10381069
     atom   46 type  2   force =    -0.07055019   -0.00008091   -0.02695593
     atom   47 type  2   force =     0.07045423    0.00038573   -0.02698680
     atom   48 type  3   force =    -0.00049019   -0.00183474    0.00014641
     atom   49 type  4   force =    -0.00349004    0.00640064    0.00456807
     atom   50 type  5   force =    -0.00000635   -0.00211276   -0.00318754
     atom   51 type  5   force =     0.00222517   -0.00193194   -0.00156050
     atom   52 type  3   force =     0.00050207    0.00081606    0.00002537
     atom   53 type  5   force =     0.00023899    0.00047826   -0.00017601
     atom   54 type  5   force =    -0.00044136    0.00078423    0.00015917
     atom   55 type  2   force =    -0.00054642    0.00073044   -0.00015016
     atom   56 type  5   force =    -0.00038342   -0.00039620    0.00083168
     atom   57 type  5   force =     0.00001429   -0.00023117   -0.00046658

     Total force =     0.365861     Total SCF correction =     0.000568
  @ DRIVER MODE: Message from server: STATUS
  @ DRIVER MODE: Message from server: GETFORCE
  @ DRIVER MODE: Returning v,forces,stress,ensemble

     Writing output data file ./calc.save/
  @ DRIVER MODE: Message from server: EXIT
  @ DRIVE MODE: Exiting

     General routines

     Parallel routines

   This run was terminated on:  19: 7:14  15Sep2021

   JOB DONE.