     Program PWSCF v.6.7GPU starts on 15Sep2021 at 19:26:16

     R & G space division:  proc/nbgrp/npool/nimage =      10
     Reading input from /storage/home/hcoda1/3/ntian30/research/carbon/CxH_vib/H2O_calc/ads_slab/CH2NHNH2O_a/out_0012/pw.inp
Warning: card &CELL ignored
Warning: card   CELL_DYNAMICS='IPI', ignored
Warning: card / ignored

     Current dimensions of program PWSCF are:
     Max number of different atomic species (ntypx) = 10
     Max number of k-points (npk) =  40000
     Max angular momentum in pseudopotentials (lmaxx) =  3
     Presently no symmetry can be used with electric field

     Message from routine cell_base_init:
     DEPRECATED: use true lattice parameter, not A to a.u. conversion factor

     IMPORTANT: XC functional enforced from input :
     Exchange-correlation= BEEF-VDW
                           (   1   4  43  14   2   0   0)
     Any further DFT definition will be discarded
     Please, verify this is what you really want

  @ DRIVER MODE: Connecting to
 qe_1139763_2852610.sched-torque.pace.gatech.edueyvmenki_scratch
  using UNIX socket
  @ DRIVER MODE: Message from server: STATUS
  @ DRIVER MODE: Message from server: INIT
  @ DRIVER MODE: Receiving replica           0          -1
  @ DRIVER MODE: Receiving encoded integer          25
  @ DRIVER MODE:  SCF:  T  FORCE:  T  STRESS:  F  VC:  F  ENSEMBLE:  F
  @ DRIVER MODE:  SCF:  T  FORCE:  T  STRESS:  F  VC:  F  ENSEMBLE:  F

     Using Slab Decomposition

     bravais-lattice index     =            0
     lattice parameter (alat)  =       1.8897  a.u.
     unit-cell volume          =    6658.9804 (a.u.)^3
     number of atoms/cell      =           56
     number of atomic types    =            5
     number of electrons       =       403.00
     number of Kohn-Sham states=          211
     kinetic-energy cutoff     =      29.3995  Ry
     charge density cutoff     =     293.9946  Ry
     scf convergence threshold =      7.3E-08
     mixing beta               =       0.0500
     number of iterations used =            8  plain     mixing
     Exchange-correlation= BEEF-VDW
                           (   1   4  43  14   2   0   0)

     celldm(1)=   1.889726  celldm(2)=   0.000000  celldm(3)=   0.000000
     celldm(4)=   0.000000  celldm(5)=   0.000000  celldm(6)=   0.000000

     crystal axes: (cart. coord. in units of alat)
               a(1) = (   6.579727   0.000000   0.000000 )
               a(2) = (  -0.000775   5.961596   0.000000 )
               a(3) = (   0.000000   0.000000  25.155947 )

     reciprocal axes: (cart. coord. in units 2 pi/alat)
               b(1) = (  0.151982  0.000020  0.000000 )
               b(2) = (  0.000000  0.167740  0.000000 )
               b(3) = (  0.000000  0.000000  0.039752 )

     PseudoPot. # 1 for Ti read from file:
     /storage/coda1/p-amedford6/0/shared/rich_project_chbe-medford/medford-share/data/pseudos_module/espresso/nninc/pbe/van/Ti.UPF
     MD5 check sum: 8e4df49b7f0d34bbd5052bf3f5ea0213
     Pseudo is Ultrasoft, Zval = 12.0
     Generated by new atomic code, or converted to UPF format
     Using radial grid of  851 points,  6 beta functions with:
                l(1) =   0
                l(2) =   0
                l(3) =   1
                l(4) =   1
                l(5) =   2
                l(6) =   2
     Q(r) pseudized with  8 coefficients,  rinner =    1.000   1.000   1.000
                                                       1.000   1.000

     PseudoPot. # 2 for O  read from file:
     /storage/coda1/p-amedford6/0/shared/rich_project_chbe-medford/medford-share/data/pseudos_module/espresso/nninc/pbe/van/O.UPF
     MD5 check sum: 78c19812648e8988a0fe644b0f25305e
     Pseudo is Ultrasoft, Zval =  6.0
     Generated by new atomic code, or converted to UPF format
     Using radial grid of  737 points,  4 beta functions with:
                l(1) =   0
                l(2) =   0
                l(3) =   1
                l(4) =   1
     Q(r) pseudized with  8 coefficients,  rinner =    0.800   0.800   0.800

     PseudoPot. # 3 for H  read from file:
     /storage/coda1/p-amedford6/0/shared/rich_project_chbe-medford/medford-share/data/pseudos_module/espresso/nninc/pbe/van/H.UPF
     MD5 check sum: b5ee9d7bfd3a09ee7748110bda690ff7
     Pseudo is Ultrasoft, Zval =  1.0
     Generated by new atomic code, or converted to UPF format
     Using radial grid of  615 points,  1 beta functions with:
                l(1) =   0
     Q(r) pseudized with  8 coefficients,  rinner =    0.800

     PseudoPot. # 4 for N  read from file:
     /storage/coda1/p-amedford6/0/shared/rich_project_chbe-medford/medford-share/data/pseudos_module/espresso/nninc/pbe/van/N.UPF
     MD5 check sum: 90d10febe142ad51ac9d5be1deb811c4
     Pseudo is Ultrasoft, Zval =  5.0
     Generated by new atomic code, or converted to UPF format
     Using radial grid of  729 points,  4 beta functions with:
                l(1) =   0
                l(2) =   0
                l(3) =   1
                l(4) =   1
     Q(r) pseudized with  8 coefficients,  rinner =    0.800   0.800   0.800

     PseudoPot. # 5 for C  read from file:
     /storage/coda1/p-amedford6/0/shared/rich_project_chbe-medford/medford-share/data/pseudos_module/espresso/nninc/pbe/van/C.UPF
     MD5 check sum: 1a69bf6b8db32088f5b2163dbdb77a27
     Pseudo is Ultrasoft, Zval =  4.0
     Generated by new atomic code, or converted to UPF format
     Using radial grid of  721 points,  4 beta functions with:
                l(1) =   0
                l(2) =   0
                l(3) =   1
                l(4) =   1
     Q(r) pseudized with  8 coefficients,  rinner =    0.800   0.800   0.800

     atomic species   valence    mass     pseudopotential
        Ti1           12.00    47.86700     Ti( 1.00)
        O1             6.00    15.99900     O ( 1.00)
        H1             1.00     1.00800     H ( 1.00)
        N1             5.00    14.00700     N ( 1.00)
        C1             4.00    12.01100     C ( 1.00)

     No symmetry found

   Cartesian axes

     site n.     atom                  positions (alat units)
         1           Ti1 tau(   1) = (   0.0004258   2.9801865   6.0000000  )
         2           Ti1 tau(   2) = (   3.2906075   1.4906267   6.0002472  )
         3           O1  tau(   3) = (   0.0006271   0.0005054   7.9858123  )
         4           O1  tau(   4) = (   3.2906025   0.0005020   7.3038282  )
         5           O1  tau(   5) = (   4.5942328   1.4918067   9.2879030  )
         6           O1  tau(   6) = (   1.9868534   1.4903216   9.2879459  )
         7           Ti1 tau(   7) = (   3.2907910   2.8959150   9.1758416  )
         8           Ti1 tau(   8) = (   0.0015273   1.4827037   9.2680791  )
         9           O1  tau(   9) = (   3.2960012   0.0062018  11.3595187  )
        10           O1  tau(  10) = (   0.0116148   5.9584955  10.6183126  )
        11           O1  tau(  11) = (   1.2731109   1.5057875  12.6314550  )
        12           O1  tau(  12) = (   5.2959999   1.4755877  12.6679080  )
        13           Ti1 tau(  13) = (   0.0553992   2.9538365  12.5526742  )
        14           Ti1 tau(  14) = (   3.3268292   1.5427496  12.5634199  )
        15           O1  tau(  15) = (   0.1371361   5.9015051  14.6217027  )
        16           O1  tau(  16) = (   3.1880369   0.0098958  13.9252199  )
        17           O1  tau(  17) = (   4.6462182   1.4014471  15.8552565  )
        18           O1  tau(  18) = (   2.0822703   1.5558083  16.1249119  )
        19           Ti1 tau(  19) = (   3.3548958   3.0525267  15.8597497  )
        20           Ti1 tau(  20) = (   0.0948755   1.3182250  15.7908873  )
        21           O1  tau(  21) = (   3.2904802   0.0005063   4.7018136  )
        22           O1  tau(  22) = (   0.0722171   0.0319689  17.1393915  )
        23           O1  tau(  23) = (   1.3043587   1.4918075   6.0039043  )
        24           O1  tau(  24) = (   5.2767064   1.4903225   6.0039473  )
        25           Ti1 tau(  25) = (   0.0000382   5.9609847   6.0000000  )
        26           Ti1 tau(  26) = (   3.2902200   4.4714249   6.0002472  )
        27           O1  tau(  27) = (   0.0002396   2.9813036   7.9858123  )
        28           O1  tau(  28) = (   3.2902150   2.9813002   7.3038282  )
        29           O1  tau(  29) = (   4.5938453   4.4726049   9.2879030  )
        30           O1  tau(  30) = (   1.9864658   4.4711199   9.2879459  )
        31           Ti1 tau(  31) = (   3.2891106   5.8743827   9.1763621  )
        32           Ti1 tau(  32) = (   0.0006254   4.4649316   9.2693709  )
        33           O1  tau(  33) = (   3.2982667   2.9897935  11.3544942  )
        34           O1  tau(  34) = (   0.0092240   2.9805883  10.6323155  )
        35           O1  tau(  35) = (   1.2737041   4.4504026  12.6113924  )
        36           O1  tau(  36) = (   5.2903739   4.4874249  12.6576873  )
        37           Ti1 tau(  37) = (   6.5697415   5.9260651  12.4959683  )
        38           Ti1 tau(  38) = (   3.3125242   4.5024033  12.5372123  )
        39           O1  tau(  39) = (   0.0674008   2.9793056  14.8363759  )
        40           O1  tau(  40) = (   3.2999477   2.9756493  13.9369993  )
        41           O1  tau(  41) = (   4.6108370   4.5787535  15.7719701  )
        42           O1  tau(  42) = (   2.0428421   4.3627697  16.1441833  )
        43           Ti1 tau(  43) = (   3.3552955   0.0804576  15.7648105  )
        44           Ti1 tau(  44) = (   6.5672415   4.5273692  15.9765751  )
        45           O1  tau(  45) = (   3.2900926   2.9813045   4.7018136  )
        46           O1  tau(  46) = (   1.3039711   4.4726057   6.0039043  )
        47           O1  tau(  47) = (   5.2763189   4.4711207   6.0039473  )
        48           H1  tau(  48) = (   4.1035413   2.4672077  18.5646977  )
        49           N1  tau(  49) = (   5.6961598   3.2907635  17.7956741  )
        50           C1  tau(  50) = (   6.4968133   2.7471819  18.6454045  )
        51           H1  tau(  51) = (   6.1325458   2.1374441  19.4677963  )
        52           H1  tau(  52) = (   0.9799315   2.9096255  18.5325614  )
        53           N1  tau(  53) = (   4.3409097   3.1788467  17.8642182  )
        54           O1  tau(  54) = (   3.3174094   5.8609012  18.0981057  )
        55           H1  tau(  55) = (   3.6736973   4.9388346  18.2201127  )
        56           H1  tau(  56) = (   2.3597147   5.7972335  18.2603650  )

     number of k points=    10  Fermi-Dirac smearing, width (Ry)=  0.0073
                       cart. coord. in units 2pi/alat
        k(    1) = (   0.0000000   0.0000000   0.0000000), wk =   0.1250000
        k(    2) = (   0.0000000   0.0419351   0.0000000), wk =   0.2500000
        k(    3) = (   0.0000000  -0.0838702   0.0000000), wk =   0.1250000
        k(    4) = (   0.0379955   0.0000049   0.0000000), wk =   0.2500000
        k(    5) = (   0.0379955   0.0419400   0.0000000), wk =   0.2500000
        k(    6) = (   0.0379955  -0.0838652   0.0000000), wk =   0.2500000
        k(    7) = (   0.0379955  -0.0419301   0.0000000), wk =   0.2500000
        k(    8) = (  -0.0759910  -0.0000099   0.0000000), wk =   0.1250000
        k(    9) = (  -0.0759910   0.0419252   0.0000000), wk =   0.2500000
        k(   10) = (  -0.0759910  -0.0838800   0.0000000), wk =   0.1250000

     Initial potential from superposition of free atoms

     starting charge  386.99914, renormalised to  403.00000

     negative rho (up, down):  1.703E-02 0.000E+00

     %%%%%%%%%%%%%%%%%%%%%%%%%%%%%%%%%%%%%%%%%%%%%%%%%%%%%%%%%%%%%%%%%%%%%%%%
     %                                                                      %
     % You are using vdW-DF, which was implemented by the Thonhauser group. %
     % Please cite the following two papers that made this development      %
     % possible and the two reviews that describe the various versions:     %
     %                                                                      %
     %   T. Thonhauser et al., PRL 115, 136402 (2015).                      %
     %   T. Thonhauser et al., PRB 76, 125112 (2007).                       %
     %   K. Berland et al., Rep. Prog. Phys. 78, 066501 (2015).             %
     %   D.C. Langreth et al., J. Phys.: Condens. Matter 21, 084203 (2009). %
     %                                                                      %
     %                                                                      %
     % If you are calculating the stress with vdW-DF, please also cite:     %
     %                                                                      %
     %   R. Sabatini et al., J. Phys.: Condens. Matter 24, 424209 (2012).   %
     %                                                                      %
     %%%%%%%%%%%%%%%%%%%%%%%%%%%%%%%%%%%%%%%%%%%%%%%%%%%%%%%%%%%%%%%%%%%%%%%%

     Adding external electric field

     Computed dipole along edir(3) :
        Dipole              -12.3776 Ry au,        -31.4606 Debye
        Dipole field         -0.0234 Ry au,

        Potential amp.        2.1653 Ry
        Total length         46.3494 bohr

     Starting wfcs are  305 atomic wfcs
  @ DRIVER MODE: Message from server: STATUS
  @ DRIVER MODE: Message from server: POSDATA
  @ DRIVER MODE: Reading and sharing cell
  @ DRIVER MODE: Reading and sharing positions
  @ DRIVER MODE: Received positions

     Self-consistent Calculation

     iteration #  1     ecut=    29.40 Ry     beta= 0.05
     Davidson diagonalization with overlap
     c_bands:  4 eigenvalues not converged
     c_bands:  3 eigenvalues not converged
     c_bands:  3 eigenvalues not converged
     c_bands:  1 eigenvalues not converged
     c_bands:  1 eigenvalues not converged
     c_bands:  4 eigenvalues not converged
     c_bands:  3 eigenvalues not converged
     ethr =  1.00E-05,  avg # of iterations = 27.4

[...]

     total energy              =   -2355.26665615 Ry
     estimated scf accuracy    <    7011.33906930 Ry

     iteration #  2     ecut=    29.40 Ry     beta= 0.05
     Davidson diagonalization with overlap
     ethr =  1.00E-02,  avg # of iterations = 25.8

[...]

     iteration # 50     ecut=    29.40 Ry     beta= 0.05
     Davidson diagonalization with overlap
     c_bands:  1 eigenvalues not converged
     ethr =  4.34E-08,  avg # of iterations = 13.0

[...]

     total energy              =   -2973.97635701 Ry
     estimated scf accuracy    <       0.00000013 Ry

     iteration # 65     ecut=    29.40 Ry     beta= 0.05
     Davidson diagonalization with overlap
     ethr =  3.12E-11,  avg # of iterations =  8.6

     negative rho (up, down):  1.700E-02 0.000E+00

     Adding external electric field

     Computed dipole along edir(3) :
        Dipole                0.9029 Ry au,          2.2948 Debye
        Dipole field          0.0017 Ry au,

        Potential amp.       -0.1579 Ry
        Total length         46.3494 bohr

     End of self-consistent calculation

          k = 0.0000 0.0000 0.0000 ( 18029 PWs)   bands (ev):

   -55.6403 -55.6062 -55.5219 -55.4861 -55.4800 -55.4668 -55.4452 -55.4330
   -55.4278 -55.4113 -55.3937 -55.3929 -55.3592 -55.2427 -54.6263 -54.5922
   -32.1261 -32.0278 -31.9746 -31.9689 -31.9616 -31.9314 -31.9176 -31.8992
   -31.8859 -31.7930 -31.7868 -31.7809 -31.7532 -31.7479 -31.7428 -31.7082
   -31.6978 -31.6845 -31.6795 -31.6718 -31.6650 -31.6635 -31.6476 -31.6447
   -31.6385 -31.6283 -31.6265 -31.6222 -31.6165 -31.6107 -31.6063 -31.5965
   -31.5870 -31.5844 -31.5837 -31.5816 -31.5760 -31.5406 -31.5324 -31.5169
   -31.4433 -31.3712 -31.0333 -30.9448 -30.9224 -30.8503 -30.7638 -30.6525
   -18.4369 -17.7584 -16.3038 -16.1133 -15.8880 -15.7860 -15.7463 -15.5731
   -15.4421 -15.3994 -15.2728 -15.2070 -15.1837 -15.1648 -15.1510 -15.1181
   -15.0950 -15.0713 -15.0695 -15.0501 -15.0254 -15.0027 -14.9749 -14.9571
   -14.9145 -14.7891 -14.7809 -14.7696 -14.7318 -14.6944 -14.2953 -13.1269
   -13.0103 -12.4135  -7.8996  -6.2066  -5.4287  -4.8524  -3.6750  -3.5831
    -3.5506  -3.5267  -3.4489  -3.3303  -3.2334  -3.0390  -2.9296  -2.8997
    -2.8790  -2.7923  -2.7099  -2.6691  -2.5667  -2.5341  -2.5237  -2.4797
    -2.4246  -2.4105  -2.3798  -2.3666  -2.3305  -2.1974  -2.1782  -2.1408
    -2.0286  -2.0123  -2.0043  -1.9628  -1.9583  -1.9280  -1.9168  -1.8997
    -1.8829  -1.8706  -1.8040  -1.7213  -1.6892  -1.6402  -1.5865  -1.5777
    -1.2785  -1.2611  -1.1927  -1.1621  -1.0916  -1.0529  -1.0438  -1.0291
    -0.9934  -0.8956  -0.8078  -0.7889  -0.7249  -0.6622  -0.5647  -0.5508
    -0.4505  -0.4009  -0.3954  -0.3826  -0.3451  -0.2913  -0.2344  -0.1760
    -0.1258  -0.0434   0.0087   0.0176   0.0594   0.1037   0.1328   0.1917
     0.2543   0.2810   0.3142   0.3291   0.3709   0.4305   0.4521   0.4668
     0.5464   0.5876   0.6088   0.7067   0.7156   0.7565   0.8268   1.0111
     1.0570   1.1963   1.3347   1.3980   1.4638   1.5901   1.8662   1.9681
     2.0143   3.4497   3.5837   3.6046   3.6401   3.7120   3.7584   3.9314
     4.0273   4.0490   4.1099

[...]

          k = 0.0380-0.0419 0.0000 ( 17876 PWs)   bands (ev):

[...]

          k =-0.0760-0.0000 0.0000 ( 17886 PWs)   bands (ev):

[...]

          k =-0.0760-0.0839 0.0000 ( 17948 PWs)   bands (ev):

   -55.6233 -55.6231 -55.5071 -55.5005 -55.4647 -55.4607 -55.4498 -55.4495
   -55.4137 -55.4090 -55.4079 -55.3773 -55.3751 -55.2445 -54.6093 -54.6091
   -31.9414 -31.9413 -31.9169 -31.9169 -31.8876 -31.8510 -31.8222 -31.8038
   -31.7932 -31.7780 -31.7688 -31.7562 -31.7519 -31.7431 -31.7428 -31.7354
   -31.7349 -31.7230 -31.7197 -31.7135 -31.6873 -31.6849 -31.6797 -31.6739
   -31.6591 -31.6568 -31.6558 -31.6426 -31.6368 -31.6343 -31.6305 -31.6304
   -31.6265 -31.6238 -31.6234 -31.6189 -31.6175 -31.6055 -31.5908 -31.5400
   -31.4534 -31.4503 -30.9352 -30.9350 -30.8462 -30.8460 -30.8071 -30.8070
   -18.4294 -17.7592 -15.8553 -15.6108 -15.5970 -15.5602 -15.5415 -15.4223
   -15.3774 -15.3733 -15.3524 -15.2972 -15.2615 -15.2246 -15.1931 -15.1756
   -15.1522 -15.1409 -15.0990 -15.0961 -15.0891 -15.0671 -15.0253 -15.0151
   -14.9908 -14.9703 -14.9658 -14.9534 -14.9208 -14.7534 -14.6428 -13.1122
   -13.1120 -12.4291  -7.8592  -6.1916  -5.4886  -4.7747  -3.1516  -3.0691
    -3.0189  -2.8037  -2.7593  -2.7401  -2.7051  -2.6453  -2.5918  -2.5747
    -2.5561  -2.5279  -2.5184  -2.4654  -2.4399  -2.4140  -2.3895  -2.3731
    -2.3644  -2.3508  -2.3247  -2.3055  -2.2829  -2.2734  -2.2496  -2.2390
    -2.2172  -2.2096  -2.1947  -2.1724  -2.0838  -2.0018  -1.9013  -1.8408
    -1.7972  -1.7971  -1.7668  -1.7374  -1.7095  -1.7053  -1.6658  -1.6364
    -1.5657  -1.4997  -1.3230  -1.3088  -1.2642  -1.1799  -1.1781  -1.1309
    -1.1219  -1.0706  -1.0429  -0.9968  -0.9481  -0.9139  -0.8268  -0.6732
    -0.6229  -0.6048  -0.5989  -0.5828  -0.5427  -0.5270  -0.4760  -0.4588
    -0.4423  -0.3732  -0.3455  -0.3410  -0.2887  -0.2706  -0.1592  -0.0513
    -0.0351   0.0187   0.0622   0.1781   0.2904   0.3655   0.4605   0.4751
     0.4937   0.5471   0.6554   0.6650   0.7110   0.7726   0.8380   0.8436
     0.8740   0.9384   0.9499   0.9868   1.7609   1.7626   1.8151   1.8343
     1.8345   3.8586   3.8992   3.9494   3.9558   3.9796   4.0298   4.0371
     4.0682   4.1183   4.1344

     the Fermi energy is     3.4821 ev

!    total energy              =   -2973.97638862 Ry
     estimated scf accuracy    <       0.00000006 Ry
     smearing contrib. (-TS)   =      -0.01977889 Ry
     internal energy E=F+TS    =   -2973.95660972 Ry

     The total energy is F=E-TS. E is the sum of the following terms:
     one-electron contribution =  -24365.10493070 Ry
     hartree contribution      =   12277.07302446 Ry
     xc contribution           =    -494.13872646 Ry
     ewald contribution        =    9608.21248470 Ry
     electric field correction =       0.00153827 Ry

     convergence has been achieved in  65 iterations

     Forces acting on atoms (cartesian axes, Ry/au):

     atom    1 type  1   force =     0.00016063   -0.00031324    0.09441124
     atom    2 type  1   force =    -0.00007918   -0.00076523   -0.17588252
     atom    3 type  2   force =     0.00005829   -0.00019315   -0.02182557
     atom    4 type  2   force =     0.00003702   -0.00134207    0.05333684
     atom    5 type  2   force =    -0.00870951   -0.00018385    0.00367369
     atom    6 type  2   force =     0.01037702    0.00046873    0.00302593
     atom    7 type  1   force =    -0.00045368    0.00081469   -0.00105705
     atom    8 type  1   force =     0.00045616    0.00750831    0.00862178
     atom    9 type  2   force =     0.00046871    0.00015488    0.00006718
     atom   10 type  2   force =    -0.00262826    0.00131754   -0.01721078
     atom   11 type  2   force =    -0.00008486    0.00009026   -0.00037474
     atom   12 type  2   force =     0.00030956    0.00007821   -0.00005361
     atom   13 type  1   force =    -0.00041917   -0.00038361   -0.00024629
     atom   14 type  1   force =     0.00035450    0.00006969    0.00023387
     atom   15 type  2   force =     0.00015704   -0.00012241   -0.00016223
     atom   16 type  2   force =     0.00020519    0.00018054    0.00002861
     atom   17 type  2   force =     0.00008094   -0.00001862    0.00008838
     atom   18 type  2   force =    -0.00001774   -0.00004074   -0.00011869
     atom   19 type  1   force =    -0.00009013    0.00027136   -0.00051909
     atom   20 type  1   force =     0.00016154   -0.00043051   -0.00001045
     atom   21 type  2   force =     0.00006658   -0.00000262    0.10326129
     atom   22 type  2   force =    -0.00024999   -0.00025717   -0.00022251
     atom   23 type  2   force =    -0.07153439   -0.00011019   -0.02734207
     atom   24 type  2   force =     0.07147177    0.00037659   -0.02735550
     atom   25 type  1   force =     0.00004499   -0.00021107    0.09437935
     atom   26 type  1   force =    -0.00013389   -0.00029896   -0.17599868
     atom   27 type  2   force =     0.00003657   -0.00018918   -0.02073113
     atom   28 type  2   force =     0.00009503   -0.00112639    0.05372512
     atom   29 type  2   force =    -0.00879168   -0.00002338    0.00343713
     atom   30 type  2   force =     0.01030534    0.00036440    0.00287104
     atom   31 type  1   force =    -0.00032735    0.00466267    0.00189353
     atom   32 type  1   force =     0.00043014   -0.00851781    0.00858443
     atom   33 type  2   force =    -0.00003634    0.00002907    0.00000139
     atom   34 type  2   force =    -0.00403151   -0.00112227   -0.01180277
     atom   35 type  2   force =     0.00014107    0.00007533    0.00035945
     atom   36 type  2   force =     0.00053367    0.00005493   -0.00019862
     atom   37 type  1   force =     0.00061179   -0.00019441   -0.00004728
     atom   38 type  1   force =     0.00022751   -0.00013082   -0.00010197
     atom   39 type  2   force =    -0.00019799    0.00000284    0.00002801
     atom   40 type  2   force =     0.00044746    0.00001261    0.00047860
     atom   41 type  2   force =     0.00020009    0.00026423    0.00027601
     atom   42 type  2   force =     0.00012358    0.00017396   -0.00018558
     atom   43 type  1   force =    -0.00028341   -0.00012473    0.00007088
     atom   44 type  1   force =     0.00012768    0.00054863    0.00145324
     atom   45 type  2   force =     0.00005165   -0.00000067    0.10333161
     atom   46 type  2   force =    -0.07153072   -0.00004176   -0.02733424
     atom   47 type  2   force =     0.07146865    0.00035198   -0.02735669
     atom   48 type  3   force =    -0.00081336   -0.00081276   -0.00067825
     atom   49 type  4   force =    -0.00552413    0.00764203   -0.01613643
     atom   50 type  5   force =     0.00524377   -0.00711381    0.00922059
     atom   51 type  3   force =     0.00031453   -0.00041999    0.00166976
     atom   52 type  3   force =     0.00001859   -0.00005120    0.00011224
     atom   53 type  4   force =     0.00032359   -0.00066777    0.00445773
     atom   54 type  2   force =     0.00035792   -0.00055546    0.00061513
     atom   55 type  3   force =    -0.00039290    0.00024401   -0.00046591
     atom   56 type  3   force =     0.00086165    0.00000837   -0.00029540

     Total force =     0.364523     Total SCF correction =     0.000561
  @ DRIVER MODE: Message from server: STATUS
  @ DRIVER MODE: Message from server: GETFORCE
  @ DRIVER MODE: Returning v,forces,stress,ensemble

     Writing output data file ./calc.save/
  @ DRIVER MODE: Message from server: EXIT
  @ DRIVE MODE: Exiting

     General routines

     Parallel routines

   This run was terminated on:  19:44:22  15Sep2021

   JOB DONE.