     Program PWSCF v.6.7GPU starts on 28Sep2021 at 11:13: 6

     R & G space division:  proc/nbgrp/npool/nimage =       8
     Reading input from /storage/home/hcoda1/3/ntian30/research/carbon/CxH_vib/H2O_calc/ads_slab/CHNHNH2HO_b/out_0002/pw.inp
Warning: card &CELL ignored
Warning: card   CELL_DYNAMICS='IPI', ignored
Warning: card / ignored

     Current dimensions of program PWSCF are:
     Max number of different atomic species (ntypx) = 10
     Max number of k-points (npk) =  40000
     Max angular momentum in pseudopotentials (lmaxx) =  3
     Presently no symmetry can be used with electric field

     Message from routine cell_base_init:
     DEPRECATED: use true lattice parameter, not A to a.u. conversion factor

     IMPORTANT: XC functional enforced from input :
     Exchange-correlation= BEEF-VDW
                           (   1   4  43  14   2   0   0)
     Any further DFT definition will be discarded
     Please, verify this is what you really want

  @ DRIVER MODE: Connecting to
 qe_1139763_3009830.sched-torque.pace.gatech.eduuv10nf3a_scratch
  using UNIX socket
  @ DRIVER MODE: Message from server: STATUS
  @ DRIVER MODE: Message from server: INIT
  @ DRIVER MODE: Receiving replica           0          -1
  @ DRIVER MODE: Receiving encoded integer          25
  @ DRIVER MODE:  SCF:  T  FORCE:  T  STRESS:  F  VC:  F  ENSEMBLE:  F
  @ DRIVER MODE:  SCF:  T  FORCE:  T  STRESS:  F  VC:  F  ENSEMBLE:  F

     Using Slab Decomposition

     bravais-lattice index     =            0
     lattice parameter (alat)  =       1.8897  a.u.
     unit-cell volume          =    6658.9804 (a.u.)^3
     number of atoms/cell      =           56
     number of atomic types    =            5
     number of electrons       =       403.00
     number of Kohn-Sham states=          211
     kinetic-energy cutoff     =      29.3995  Ry
     charge density cutoff     =     293.9946  Ry
     scf convergence threshold =      7.3E-08
     mixing beta               =       0.0500
     number of iterations used =            8  plain     mixing
     Exchange-correlation= BEEF-VDW
                           (   1   4  43  14   2   0   0)

     celldm(1)=   1.889726  celldm(2)=   0.000000  celldm(3)=   0.000000
     celldm(4)=   0.000000  celldm(5)=   0.000000  celldm(6)=   0.000000

     crystal axes: (cart. coord. in units of alat)
               a(1) = (   6.579727   0.000000   0.000000 )
               a(2) = (  -0.000775   5.961596   0.000000 )
               a(3) = (   0.000000   0.000000  25.155947 )

     reciprocal axes: (cart. coord. in units 2 pi/alat)
               b(1) = (  0.151982  0.000020  0.000000 )
               b(2) = (  0.000000  0.167740  0.000000 )
               b(3) = (  0.000000  0.000000  0.039752 )

     PseudoPot. # 1 for Ti read from file:
     /storage/coda1/p-amedford6/0/shared/rich_project_chbe-medford/medford-share/data/pseudos_module/espresso/nninc/pbe/van/Ti.UPF
     MD5 check sum: 8e4df49b7f0d34bbd5052bf3f5ea0213
     Pseudo is Ultrasoft, Zval = 12.0
     Generated by new atomic code, or converted to UPF format
     Using radial grid of  851 points,  6 beta functions with:
                l(1) =   0
                l(2) =   0
                l(3) =   1
                l(4) =   1
                l(5) =   2
                l(6) =   2
     Q(r) pseudized with  8 coefficients,  rinner =    1.000   1.000   1.000
                                                       1.000   1.000

     PseudoPot. # 2 for O  read from file:
     /storage/coda1/p-amedford6/0/shared/rich_project_chbe-medford/medford-share/data/pseudos_module/espresso/nninc/pbe/van/O.UPF
     MD5 check sum: 78c19812648e8988a0fe644b0f25305e
     Pseudo is Ultrasoft, Zval =  6.0
     Generated by new atomic code, or converted to UPF format
     Using radial grid of  737 points,  4 beta functions with:
                l(1) =   0
                l(2) =   0
                l(3) =   1
                l(4) =   1
     Q(r) pseudized with  8 coefficients,  rinner =    0.800   0.800   0.800

     PseudoPot. # 3 for N  read from file:
     /storage/coda1/p-amedford6/0/shared/rich_project_chbe-medford/medford-share/data/pseudos_module/espresso/nninc/pbe/van/N.UPF
     MD5 check sum: 90d10febe142ad51ac9d5be1deb811c4
     Pseudo is Ultrasoft, Zval =  5.0
     Generated by new atomic code, or converted to UPF format
     Using radial grid of  729 points,  4 beta functions with:
                l(1) =   0
                l(2) =   0
                l(3) =   1
                l(4) =   1
     Q(r) pseudized with  8 coefficients,  rinner =    0.800   0.800   0.800

     PseudoPot. # 4 for C  read from file:
     /storage/coda1/p-amedford6/0/shared/rich_project_chbe-medford/medford-share/data/pseudos_module/espresso/nninc/pbe/van/C.UPF
     MD5 check sum: 1a69bf6b8db32088f5b2163dbdb77a27
     Pseudo is Ultrasoft, Zval =  4.0
     Generated by new atomic code, or converted to UPF format
     Using radial grid of  721 points,  4 beta functions with:
                l(1) =   0
                l(2) =   0
                l(3) =   1
                l(4) =   1
     Q(r) pseudized with  8 coefficients,  rinner =    0.800   0.800   0.800

     PseudoPot. # 5 for H  read from file:
     /storage/coda1/p-amedford6/0/shared/rich_project_chbe-medford/medford-share/data/pseudos_module/espresso/nninc/pbe/van/H.UPF
     MD5 check sum: b5ee9d7bfd3a09ee7748110bda690ff7
     Pseudo is Ultrasoft, Zval =  1.0
     Generated by new atomic code, or converted to UPF format
     Using radial grid of  615 points,  1 beta functions with:
                l(1) =   0
     Q(r) pseudized with  8 coefficients,  rinner =    0.800

     atomic species   valence    mass     pseudopotential
        Ti1           12.00    47.86700     Ti( 1.00)
        O1             6.00    15.99900     O ( 1.00)
        N1             5.00    14.00700     N ( 1.00)
        C1             4.00    12.01100     C ( 1.00)
        H1             1.00     1.00800     H ( 1.00)

     No symmetry found

   Cartesian axes

     site n.     atom                  positions (alat units)
         1           Ti1 tau(   1) = (   0.0004258   2.9801865   6.0000000  )
         2           Ti1 tau(   2) = (   3.2906075   1.4906267   6.0002472  )
         3           O1  tau(   3) = (   0.0006271   0.0005054   7.9858123  )
         4           O1  tau(   4) = (   3.2906025   0.0005020   7.3038282  )
         5           O1  tau(   5) = (   4.5942328   1.4918067   9.2879030  )
         6           O1  tau(   6) = (   1.9868534   1.4903216   9.2879459  )
         7           Ti1 tau(   7) = (   3.2907910   2.8959150   9.1758416  )
         8           Ti1 tau(   8) = (   0.0015273   1.4827037   9.2680791  )
         9           O1  tau(   9) = (   3.2982983   0.0405180  11.3424948  )
        10           O1  tau(  10) = (   0.0116148   5.9584955  10.6183126  )
        11           O1  tau(  11) = (   1.2753745   1.5072422  12.7016807  )
        12           O1  tau(  12) = (   5.3195175   1.5181342  12.6954276  )
        13           Ti1 tau(  13) = (   0.0019584   2.9687762  12.4995492  )
        14           Ti1 tau(  14) = (   3.3051642   1.5697923  12.4614731  )
        15           O1  tau(  15) = (   6.5474216   5.8614089  14.6874354  )
        16           O1  tau(  16) = (   3.3077571   5.9224049  13.9445013  )
        17           O1  tau(  17) = (   4.5645563   1.5748115  16.1270233  )
        18           O1  tau(  18) = (   2.0342606   1.5395256  16.0843959  )
        19           Ti1 tau(  19) = (   3.2752269   2.9899004  15.7194909  )
        20           Ti1 tau(  20) = (   6.5310352   1.3332667  15.7916221  )
        21           O1  tau(  21) = (   3.2904802   0.0005063   4.7018136  )
        22           O1  tau(  22) = (   0.0193913   0.2006272  17.2172921  )
        23           O1  tau(  23) = (   1.3043587   1.4918075   6.0039043  )
        24           O1  tau(  24) = (   5.2767064   1.4903225   6.0039473  )
        25           Ti1 tau(  25) = (   0.0000382   5.9609847   6.0000000  )
        26           Ti1 tau(  26) = (   3.2902200   4.4714249   6.0002472  )
        27           O1  tau(  27) = (   0.0002396   2.9813036   7.9858123  )
        28           O1  tau(  28) = (   3.2902150   2.9813002   7.3038282  )
        29           O1  tau(  29) = (   4.5938453   4.4726049   9.2879030  )
        30           O1  tau(  30) = (   1.9864658   4.4711199   9.2879459  )
        31           Ti1 tau(  31) = (   3.2891106   5.8743827   9.1763621  )
        32           Ti1 tau(  32) = (   0.0006254   4.4649316   9.2693709  )
        33           O1  tau(  33) = (   3.2939295   2.9453814  11.3217152  )
        34           O1  tau(  34) = (   0.0092240   2.9805883  10.6323155  )
        35           O1  tau(  35) = (   1.2781447   4.4822909  12.6561401  )
        36           O1  tau(  36) = (   5.3212068   4.4743896  12.6463055  )
        37           Ti1 tau(  37) = (   0.0302233   5.9315785  12.5023592  )
        38           Ti1 tau(  38) = (   3.3112215   4.6713144  12.7097751  )
        39           O1  tau(  39) = (   0.0192075   3.0624537  14.9697097  )
        40           O1  tau(  40) = (   3.2993887   3.0147307  13.9488589  )
        41           O1  tau(  41) = (   4.5718800   4.4489939  16.2708329  )
        42           O1  tau(  42) = (   2.0246426   4.4466800  16.2581844  )
        43           Ti1 tau(  43) = (   3.2612680   0.0306108  16.4716933  )
        44           Ti1 tau(  44) = (   6.5506247   4.5497786  16.0606151  )
        45           O1  tau(  45) = (   3.2900926   2.9813045   4.7018136  )
        46           O1  tau(  46) = (   1.3039711   4.4726057   6.0039043  )
        47           O1  tau(  47) = (   5.2763189   4.4711207   6.0039473  )
        48           N1  tau(  48) = (   1.0081237   2.4704741  18.7333368  )
        49           N1  tau(  49) = (   6.5532285   3.4232418  18.2716252  )
        50           C1  tau(  50) = (   2.1690532   2.7243113  19.1879583  )
        51           H1  tau(  51) = (   2.3212509   3.8010200  19.3435938  )
        52           H1  tau(  52) = (   0.7222050   1.5235952  18.4365492  )
        53           H1  tau(  53) = (   0.1086806   4.2950834  18.7847415  )
        54           H1  tau(  54) = (   5.6367167   3.0457734  18.5222562  )
        55           O1  tau(  55) = (   3.2473456   0.1866190  18.2687603  )
        56           H1  tau(  56) = (   3.0571027   1.0491837  18.7494863  )

     number of k points=    10  Fermi-Dirac smearing, width (Ry)=  0.0073
                       cart. coord. in units 2pi/alat
        k(    1) = (   0.0000000   0.0000000   0.0000000), wk =   0.1250000
        k(    2) = (   0.0000000   0.0419351   0.0000000), wk =   0.2500000
        k(    3) = (   0.0000000  -0.0838702   0.0000000), wk =   0.1250000
        k(    4) = (   0.0379955   0.0000049   0.0000000), wk =   0.2500000
        k(    5) = (   0.0379955   0.0419400   0.0000000), wk =   0.2500000
        k(    6) = (   0.0379955  -0.0838652   0.0000000), wk =   0.2500000
        k(    7) = (   0.0379955  -0.0419301   0.0000000), wk =   0.2500000
        k(    8) = (  -0.0759910  -0.0000099   0.0000000), wk =   0.1250000
        k(    9) = (  -0.0759910   0.0419252   0.0000000), wk =   0.2500000
        k(   10) = (  -0.0759910  -0.0838800   0.0000000), wk =   0.1250000

     Initial potential from superposition of free atoms

     starting charge  386.99914, renormalised to  403.00000

     negative rho (up, down):  1.628E-02 0.000E+00

     %%%%%%%%%%%%%%%%%%%%%%%%%%%%%%%%%%%%%%%%%%%%%%%%%%%%%%%%%%%%%%%%%%%%%%%%
     %                                                                      %
     % You are using vdW-DF, which was implemented by the Thonhauser group. %
     % Please cite the following two papers that made this development      %
     % possible and the two reviews that describe the various versions:     %
     %                                                                      %
     %   T. Thonhauser et al., PRL 115, 136402 (2015).                      %
     %   T. Thonhauser et al., PRB 76, 125112 (2007).                       %
     %   K. Berland et al., Rep. Prog. Phys. 78, 066501 (2015).             %
     %   D.C. Langreth et al., J. Phys.: Condens. Matter 21, 084203 (2009). %
     %                                                                      %
     %                                                                      %
     % If you are calculating the stress with vdW-DF, please also cite:     %
     %                                                                      %
     %   R. Sabatini et al., J. Phys.: Condens. Matter 24, 424209 (2012).   %
     %                                                                      %
     %%%%%%%%%%%%%%%%%%%%%%%%%%%%%%%%%%%%%%%%%%%%%%%%%%%%%%%%%%%%%%%%%%%%%%%%

     Adding external electric field

     Computed dipole along edir(3) :
        Dipole              -13.0968 Ry au,        -33.2887 Debye
        Dipole field         -0.0247 Ry au,

        Potential amp.        2.2911 Ry
        Total length         46.3494 bohr

     Starting wfcs are  305 atomic wfcs
  @ DRIVER MODE: Message from server: STATUS
  @ DRIVER MODE: Message from server: POSDATA
  @ DRIVER MODE: Reading and sharing cell
  @ DRIVER MODE: Reading and sharing positions
  @ DRIVER MODE: Received positions

     Self-consistent Calculation

     iteration #  1     ecut=    29.40 Ry     beta= 0.05
     Davidson diagonalization with overlap
     c_bands:  5 eigenvalues not converged
     c_bands:  2 eigenvalues not converged
     c_bands:  1 eigenvalues not converged
     c_bands:  1 eigenvalues not converged
     c_bands:  4 eigenvalues not converged
     c_bands:  1 eigenvalues not converged
     ethr =  1.00E-05,  avg # of iterations = 28.5

[...]

     total energy              =   -2288.68040516 Ry
     estimated scf accuracy    <    7755.61317283 Ry

     iteration #  2     ecut=    29.40 Ry     beta= 0.05
     Davidson diagonalization with overlap
     ethr =  1.00E-02,  avg # of iterations = 25.5

[...]

     iteration # 49     ecut=    29.40 Ry     beta= 0.05
     Davidson diagonalization with overlap
     c_bands:  1 eigenvalues not converged
     ethr =  8.17E-08,  avg # of iterations = 13.4

[...]

     total energy              =   -2973.89781363 Ry
     estimated scf accuracy    <       0.00000011 Ry

     iteration # 67     ecut=    29.40 Ry     beta= 0.05
     Davidson diagonalization with overlap
     ethr =  2.71E-11,  avg # of iterations =  3.6

     negative rho (up, down):  1.612E-02 0.000E+00

     Adding external electric field

     Computed dipole along edir(3) :
        Dipole                0.8563 Ry au,          2.1765 Debye
        Dipole field          0.0016 Ry au,

        Potential amp.       -0.1498 Ry
        Total length         46.3494 bohr

     End of self-consistent calculation

          k = 0.0000 0.0000 0.0000 ( 18029 PWs)   bands (ev):

   -55.6407 -55.6366 -55.6026 -55.5667 -55.4867 -55.4645 -55.4446 -55.4408
   -55.4305 -55.3881 -55.3458 -55.2877 -55.2094 -55.0642 -54.6000 -54.5660
   -32.1210 -32.0942 -31.9753 -31.9692 -31.9678 -31.9273 -31.9038 -31.8826
   -31.8759 -31.8616 -31.8414 -31.8300 -31.7893 -31.7594 -31.7458 -31.7430
   -31.7384 -31.7246 -31.7039 -31.6998 -31.6943 -31.6680 -31.6627 -31.6497
   -31.6390 -31.6375 -31.6153 -31.6068 -31.5916 -31.5877 -31.5820 -31.5705
   -31.5596 -31.5429 -31.4996 -31.4915 -31.4884 -31.4732 -31.4094 -31.3237
   -31.2898 -31.2818 -31.0051 -30.9206 -30.8981 -30.8230 -30.7367 -30.6246
   -18.6743 -16.3058 -16.2527 -16.1097 -15.8864 -15.7992 -15.7680 -15.6070
   -15.4805 -15.4388 -15.3150 -15.1688 -15.1386 -15.1309 -15.1248 -15.1160
   -15.0984 -15.0708 -15.0575 -15.0528 -15.0393 -14.9750 -14.9563 -14.9271
   -14.8480 -14.7952 -14.7675 -14.6973 -14.6542 -14.5575 -14.5469 -14.2695
   -13.0977 -12.9815  -9.5865  -6.8865  -5.8388  -4.3124  -4.0906  -3.8356
    -3.6239  -3.5353  -3.5121  -3.4038  -3.3136  -3.0830  -3.0606  -2.9914
    -2.8391  -2.7459  -2.6610  -2.6340  -2.5928  -2.5392  -2.5252  -2.4825
    -2.4166  -2.3853  -2.3435  -2.3314  -2.2819  -2.2743  -2.2284  -2.1504
    -2.1438  -2.0381  -1.9701  -1.9656  -1.9508  -1.9423  -1.8927  -1.8773
    -1.8697  -1.7994  -1.7441  -1.7096  -1.6441  -1.6176  -1.5461  -1.3034
    -1.2232  -1.2105  -1.1487  -1.0677  -1.0378  -1.0236  -1.0120  -0.9874
    -0.9594  -0.8716  -0.8439  -0.7051  -0.6981  -0.6720  -0.6412  -0.6073
    -0.4931  -0.4293  -0.4058  -0.3609  -0.3396  -0.3041  -0.2367  -0.2178
    -0.1381  -0.0950  -0.0153  -0.0133   0.0127   0.0833   0.1428   0.1774
     0.1924   0.2937   0.3087   0.3375   0.3441   0.3667   0.3931   0.4861
     0.5041   0.5459   0.5685   0.7100   0.7207   0.7728   0.9162   0.9466
     1.0488   1.1468   1.3710   1.3875   1.4273   1.4547   1.6235   1.9923
     2.0371   3.4429   3.6022   3.6152   3.7117   3.7245   3.8018   3.9373
     4.0317   4.1036   4.1390

[...]

          k = 0.0380-0.0419 0.0000 ( 17876 PWs)   bands (ev):

[...]

          k =-0.0760-0.0000 0.0000 ( 17886 PWs)   bands (ev):

[...]

          k =-0.0760-0.0839 0.0000 ( 17948 PWs)   bands (ev):

   -55.6398 -55.6196 -55.6195 -55.5656 -55.4785 -55.4500 -55.4480 -55.4455
   -55.4452 -55.3797 -55.3542 -55.2888 -55.2075 -55.0661 -54.5830 -54.5829
   -32.0192 -31.9364 -31.9362 -31.9297 -31.9129 -31.9126 -31.9042 -31.8422
   -31.8162 -31.8076 -31.7971 -31.7815 -31.7760 -31.7601 -31.7578 -31.7396
   -31.7395 -31.7299 -31.7283 -31.7170 -31.7165 -31.7025 -31.6912 -31.6848
   -31.6489 -31.6451 -31.6441 -31.6382 -31.6232 -31.6206 -31.6131 -31.6007
   -31.5841 -31.5784 -31.5670 -31.5642 -31.4931 -31.4646 -31.4128 -31.4049
   -31.3285 -31.2852 -30.9109 -30.9108 -30.8183 -30.8179 -30.7800 -30.7797
   -18.6682 -16.2603 -15.9381 -15.6329 -15.6319 -15.6120 -15.4534 -15.4194
   -15.3876 -15.3578 -15.3078 -15.3018 -15.2766 -15.2413 -15.2282 -15.1750
   -15.1507 -15.1337 -15.1152 -15.0962 -15.0766 -15.0481 -15.0374 -15.0359
   -14.9559 -14.9473 -14.9327 -14.9250 -14.8503 -14.6355 -14.5243 -14.4274
   -13.0835 -13.0834  -9.5731  -6.8806  -5.8017  -4.4953  -3.9440  -3.7687
    -3.0655  -2.8672  -2.8375  -2.7107  -2.6774  -2.6540  -2.5894  -2.5485
    -2.5472  -2.4706  -2.4573  -2.4126  -2.4082  -2.3637  -2.3613  -2.3335
    -2.3246  -2.3111  -2.3017  -2.2947  -2.2458  -2.2201  -2.2166  -2.2042
    -2.1808  -2.1674  -2.1430  -2.1268  -2.0667  -1.9911  -1.8789  -1.8564
    -1.7969  -1.7624  -1.7480  -1.7289  -1.7068  -1.6800  -1.6610  -1.5661
    -1.4806  -1.4196  -1.3189  -1.2326  -1.2107  -1.1579  -1.1496  -1.1072
    -1.0843  -1.0640  -1.0276  -0.9596  -0.8496  -0.8382  -0.7698  -0.6837
    -0.6493  -0.5765  -0.5742  -0.5678  -0.5522  -0.5286  -0.5097  -0.4693
    -0.4548  -0.3636  -0.3397  -0.3322  -0.3137  -0.2873  -0.1494  -0.1121
    -0.0618   0.1387   0.1452   0.1735   0.2812   0.3706   0.4363   0.4470
     0.5040   0.5525   0.5867   0.6264   0.6820   0.7059   0.7717   0.8815
     0.8877   0.9067   0.9484   1.0098   1.2464   1.7925   1.7993   1.8575
     1.8577   3.6573   3.8525   3.9666   3.9722   3.9873   4.0288   4.0372
     4.0514   4.1122   4.1195

     the Fermi energy is     3.4835 ev

!    total energy              =   -2973.89784138 Ry
     estimated scf accuracy    <       0.00000004 Ry
     smearing contrib. (-TS)   =      -0.01933442 Ry
     internal energy E=F+TS    =   -2973.87850696 Ry

     The total energy is F=E-TS. E is the sum of the following terms:
     one-electron contribution =  -23221.72302202 Ry
     hartree contribution      =   11705.29901563 Ry
     xc contribution           =    -493.95990437 Ry
     ewald contribution        =    9036.50402009 Ry
     electric field correction =       0.00138372 Ry

     convergence has been achieved in  67 iterations

     Forces acting on atoms (cartesian axes, Ry/au):

     atom    1 type  1   force =     0.00006427   -0.00020576    0.09419445
     atom    2 type  1   force =    -0.00016032    0.00003200   -0.17480492
     atom    3 type  2   force =     0.00002787   -0.00050052   -0.02070391
     atom    4 type  2   force =     0.00004135   -0.00070776    0.05227574
     atom    5 type  2   force =    -0.00300638   -0.00196600    0.00012434
     atom    6 type  2   force =     0.00463677   -0.00150216   -0.00033099
     atom    7 type  1   force =    -0.00019041    0.00281639    0.01408179
     atom    8 type  1   force =    -0.00013097   -0.00121696   -0.00060379
     atom    9 type  2   force =     0.00005053   -0.00010493   -0.00010389
     atom   10 type  2   force =    -0.00140061    0.00346914   -0.00732134
     atom   11 type  2   force =    -0.00018258    0.00025262    0.00021283
     atom   12 type  2   force =     0.00036614    0.00039222    0.00061897
     atom   13 type  1   force =    -0.00043002    0.00057254   -0.00027757
     atom   14 type  1   force =     0.00000648   -0.00007914    0.00068933
     atom   15 type  2   force =     0.00037876    0.00093615    0.00063799
     atom   16 type  2   force =    -0.00009671   -0.00078559    0.00093118
     atom   17 type  2   force =     0.00050119   -0.00029154   -0.00010317
     atom   18 type  2   force =     0.00028026   -0.00011619   -0.00021014
     atom   19 type  1   force =     0.00002825    0.00009524   -0.00064264
     atom   20 type  1   force =    -0.00027946   -0.00016652   -0.00043077
     atom   21 type  2   force =     0.00006719   -0.00000263    0.10299577
     atom   22 type  2   force =     0.00042114    0.00071233    0.00009611
     atom   23 type  2   force =    -0.07235203   -0.00018293   -0.02725372
     atom   24 type  2   force =     0.07229087    0.00026139   -0.02730197
     atom   25 type  1   force =     0.00007085   -0.00030752    0.09364666
     atom   26 type  1   force =    -0.00005624   -0.00117152   -0.17491463
     atom   27 type  2   force =     0.00017093   -0.00002153   -0.01957183
     atom   28 type  2   force =     0.00003093   -0.00104241    0.04855548
     atom   29 type  2   force =    -0.00595327    0.00106130    0.00311593
     atom   30 type  2   force =     0.00743045    0.00157536    0.00261806
     atom   31 type  1   force =     0.00004533    0.00142244    0.00267792
     atom   32 type  1   force =     0.00006538    0.00068223   -0.00038248
     atom   33 type  2   force =    -0.00017054   -0.00011186   -0.00052113
     atom   34 type  2   force =    -0.00061566   -0.00196737   -0.01094375
     atom   35 type  2   force =     0.00023855   -0.00040309   -0.00013761
     atom   36 type  2   force =    -0.00004575   -0.00026003   -0.00020185
     atom   37 type  1   force =    -0.00026031   -0.00039056   -0.00051426
     atom   38 type  1   force =     0.00025220    0.00022217    0.00031816
     atom   39 type  2   force =    -0.00036705   -0.00117978   -0.00031406
     atom   40 type  2   force =    -0.00013397    0.00034791    0.00084494
     atom   41 type  2   force =    -0.00092225    0.00015857    0.00029259
     atom   42 type  2   force =     0.00043683   -0.00043699   -0.00007958
     atom   43 type  1   force =    -0.00030395    0.00053535   -0.00027627
     atom   44 type  1   force =     0.00011641   -0.00144284    0.00033512
     atom   45 type  2   force =     0.00006444    0.00005754    0.10284333
     atom   46 type  2   force =    -0.07230952   -0.00005819   -0.02720305
     atom   47 type  2   force =     0.07221455    0.00039041   -0.02723629
     atom   48 type  3   force =    -0.02319134   -0.00738234   -0.00774750
     atom   49 type  3   force =     0.00233722    0.00138490    0.00022522
     atom   50 type  4   force =     0.01563950    0.00540154    0.00612593
     atom   51 type  5   force =     0.00068785   -0.00146506    0.00066094
     atom   52 type  5   force =     0.00249328    0.00402347    0.00177397
     atom   53 type  5   force =    -0.00007832   -0.00029706   -0.00068828
     atom   54 type  5   force =     0.00112443   -0.00033603    0.00095208
     atom   55 type  2   force =     0.00022340    0.00063324    0.00003622
     atom   56 type  5   force =    -0.00016595   -0.00133368   -0.00105964

     Total force =     0.362404     Total SCF correction =     0.000581
  @ DRIVER MODE: Message from server: STATUS
  @ DRIVER MODE: Message from server: GETFORCE
  @ DRIVER MODE: Returning v,forces,stress,ensemble

     Writing output data file ./calc.save/
  @ DRIVER MODE: Message from server: EXIT
  @ DRIVE MODE: Exiting

     General routines

     Parallel routines

   This run was terminated on:  11:36:43  28Sep2021

   JOB DONE.