     Program PWSCF v.6.7GPU starts on 12Oct2021 at  3: 1:36

     R & G space division:  proc/nbgrp/npool/nimage =       8
     Reading input from /storage/home/hcoda1/3/ntian30/research/carbon/CxH_vib/CH2_calc/ads_slab/CH2NHH_b/out_0029/pw.inp
Warning: card &CELL ignored
Warning: card   CELL_DYNAMICS='IPI', ignored
Warning: card / ignored

     Current dimensions of program PWSCF are:
     Max number of different atomic species (ntypx) = 10
     Max number of k-points (npk) =  40000
     Max angular momentum in pseudopotentials (lmaxx) =  3
     Presently no symmetry can be used with electric field

     Message from routine cell_base_init:
     DEPRECATED: use true lattice parameter, not A to a.u. conversion factor

     IMPORTANT: XC functional enforced from input :
     Exchange-correlation= BEEF-VDW
                           (   1   4  43  14   2   0   0)
     Any further DFT definition will be discarded
     Please, verify this is what you really want

  @ DRIVER MODE: Connecting to
 qe_1139763_3171005.sched-torque.pace.gatech.edufvxy3_z8_scratch
  using UNIX socket
  @ DRIVER MODE: Message from server: STATUS
  @ DRIVER MODE: Message from server: INIT
  @ DRIVER MODE: Receiving replica           0          -1
  @ DRIVER MODE: Receiving encoded integer          25
  @ DRIVER MODE:  SCF:  T  FORCE:  T  STRESS:  F  VC:  F  ENSEMBLE:  F
  @ DRIVER MODE:  SCF:  T  FORCE:  T  STRESS:  F  VC:  F  ENSEMBLE:  F

     Using Slab Decomposition

     bravais-lattice index     =            0
     lattice parameter (alat)  =       1.8897  a.u.
     unit-cell volume          =    6658.9804 (a.u.)^3
     number of atoms/cell      =           53
     number of atomic types    =            5
     number of electrons       =       391.00
     number of Kohn-Sham states=          205
     kinetic-energy cutoff     =      29.3995  Ry
     charge density cutoff     =     293.9946  Ry
     scf convergence threshold =      7.3E-08
     mixing beta               =       0.0500
     number of iterations used =            8  plain     mixing
     Exchange-correlation= BEEF-VDW
                           (   1   4  43  14   2   0   0)

     celldm(1)=   1.889726  celldm(2)=   0.000000  celldm(3)=   0.000000
     celldm(4)=   0.000000  celldm(5)=   0.000000  celldm(6)=   0.000000

     crystal axes: (cart. coord. in units of alat)
               a(1) = (   6.579727   0.000000   0.000000 )
               a(2) = (  -0.000775   5.961596   0.000000 )
               a(3) = (   0.000000   0.000000  25.155947 )

     reciprocal axes: (cart. coord. in units 2 pi/alat)
               b(1) = (  0.151982  0.000020  0.000000 )
               b(2) = (  0.000000  0.167740  0.000000 )
               b(3) = (  0.000000  0.000000  0.039752 )

     PseudoPot. # 1 for Ti read from file:
     /storage/coda1/p-amedford6/0/shared/rich_project_chbe-medford/medford-share/data/pseudos_module/espresso/nninc/pbe/van/Ti.UPF
     MD5 check sum: 8e4df49b7f0d34bbd5052bf3f5ea0213
     Pseudo is Ultrasoft, Zval = 12.0
     Generated by new atomic code, or converted to UPF format
     Using radial grid of  851 points,  6 beta functions with:
                l(1) =   0
                l(2) =   0
                l(3) =   1
                l(4) =   1
                l(5) =   2
                l(6) =   2
     Q(r) pseudized with  8 coefficients,  rinner =    1.000   1.000   1.000
                                                       1.000   1.000

     PseudoPot. # 2 for O  read from file:
     /storage/coda1/p-amedford6/0/shared/rich_project_chbe-medford/medford-share/data/pseudos_module/espresso/nninc/pbe/van/O.UPF
     MD5 check sum: 78c19812648e8988a0fe644b0f25305e
     Pseudo is Ultrasoft, Zval =  6.0
     Generated by new atomic code, or converted to UPF format
     Using radial grid of  737 points,  4 beta functions with:
                l(1) =   0
                l(2) =   0
                l(3) =   1
                l(4) =   1
     Q(r) pseudized with  8 coefficients,  rinner =    0.800   0.800   0.800

     PseudoPot. # 3 for H  read from file:
     /storage/coda1/p-amedford6/0/shared/rich_project_chbe-medford/medford-share/data/pseudos_module/espresso/nninc/pbe/van/H.UPF
     MD5 check sum: b5ee9d7bfd3a09ee7748110bda690ff7
     Pseudo is Ultrasoft, Zval =  1.0
     Generated by new atomic code, or converted to UPF format
     Using radial grid of  615 points,  1 beta functions with:
                l(1) =   0
     Q(r) pseudized with  8 coefficients,  rinner =    0.800

     PseudoPot. # 4 for N  read from file:
     /storage/coda1/p-amedford6/0/shared/rich_project_chbe-medford/medford-share/data/pseudos_module/espresso/nninc/pbe/van/N.UPF
     MD5 check sum: 90d10febe142ad51ac9d5be1deb811c4
     Pseudo is Ultrasoft, Zval =  5.0
     Generated by new atomic code, or converted to UPF format
     Using radial grid of  729 points,  4 beta functions with:
                l(1) =   0
                l(2) =   0
                l(3) =   1
                l(4) =   1
     Q(r) pseudized with  8 coefficients,  rinner =    0.800   0.800   0.800

     PseudoPot. # 5 for C  read from file:
     /storage/coda1/p-amedford6/0/shared/rich_project_chbe-medford/medford-share/data/pseudos_module/espresso/nninc/pbe/van/C.UPF
     MD5 check sum: 1a69bf6b8db32088f5b2163dbdb77a27
     Pseudo is Ultrasoft, Zval =  4.0
     Generated by new atomic code, or converted to UPF format
     Using radial grid of  721 points,  4 beta functions with:
                l(1) =   0
                l(2) =   0
                l(3) =   1
                l(4) =   1
     Q(r) pseudized with  8 coefficients,  rinner =    0.800   0.800   0.800

     atomic species   valence    mass     pseudopotential
        Ti1           12.00    47.86700     Ti( 1.00)
        O1             6.00    15.99900     O ( 1.00)
        H1             1.00     1.00800     H ( 1.00)
        N1             5.00    14.00700     N ( 1.00)
        C1             4.00    12.01100     C ( 1.00)

     No symmetry found

   Cartesian axes

     site n.     atom                  positions (alat units)
         1           Ti1 tau(   1) = (   0.0004258   2.9801865   6.0000000  )
         2           Ti1 tau(   2) = (   3.2906075   1.4906267   6.0002472  )
         3           O1  tau(   3) = (   0.0006271   0.0005054   7.9858123  )
         4           O1  tau(   4) = (   3.2906025   0.0005020   7.3038282  )
         5           O1  tau(   5) = (   4.5942328   1.4918067   9.2879030  )
         6           O1  tau(   6) = (   1.9868534   1.4903216   9.2879459  )
         7           Ti1 tau(   7) = (   3.2907910   2.8959150   9.1758416  )
         8           Ti1 tau(   8) = (   0.0015273   1.4827037   9.2680791  )
         9           O1  tau(   9) = (   3.3750462   0.0034689  11.3324641  )
        10           O1  tau(  10) = (   0.0116148   5.9584955  10.6183126  )
        11           O1  tau(  11) = (   1.3977860   1.4758343  12.6375763  )
        12           O1  tau(  12) = (   5.4232152   1.4913549  12.6657899  )
        13           Ti1 tau(  13) = (   0.0691229   2.9530050  12.5389017  )
        14           Ti1 tau(  14) = (   3.3643908   1.4039863  12.4577757  )
        15           O1  tau(  15) = (   0.1477665   0.0132832  14.6652528  )
        16           O1  tau(  16) = (   3.5189244   0.0045933  13.9158019  )
        17           O1  tau(  17) = (   4.7861523   1.5333885  16.1913275  )
        18           O1  tau(  18) = (   2.2541876   1.4026900  15.9427082  )
        19           Ti1 tau(  19) = (   3.5811307   2.9972434  16.0687679  )
        20           Ti1 tau(  20) = (   0.2998503   1.4255696  15.8726171  )
        21           O1  tau(  21) = (   3.2904802   0.0005063   4.7018136  )
        22           O1  tau(  22) = (   0.2643450   0.0038197  17.1846268  )
        23           O1  tau(  23) = (   1.3043587   1.4918075   6.0039043  )
        24           O1  tau(  24) = (   5.2767064   1.4903225   6.0039473  )
        25           Ti1 tau(  25) = (   0.0000382   5.9609847   6.0000000  )
        26           Ti1 tau(  26) = (   3.2902200   4.4714249   6.0002472  )
        27           O1  tau(  27) = (   0.0002396   2.9813036   7.9858123  )
        28           O1  tau(  28) = (   3.2902150   2.9813002   7.3038282  )
        29           O1  tau(  29) = (   4.5938453   4.4726049   9.2879030  )
        30           O1  tau(  30) = (   1.9864658   4.4711199   9.2879459  )
        31           Ti1 tau(  31) = (   3.2891106   5.8743827   9.1763621  )
        32           Ti1 tau(  32) = (   0.0006254   4.4649316   9.2693709  )
        33           O1  tau(  33) = (   3.3836021   2.9593565  11.3526375  )
        34           O1  tau(  34) = (   0.0092240   2.9805883  10.6323155  )
        35           O1  tau(  35) = (   1.3957467   4.4736095  12.6396340  )
        36           O1  tau(  36) = (   5.4261019   4.4541359  12.6685409  )
        37           Ti1 tau(  37) = (   0.0939275   5.9312067  12.4916740  )
        38           Ti1 tau(  38) = (   3.3665170   4.3046527  12.6650499  )
        39           O1  tau(  39) = (   0.1734719   2.9828917  14.8532074  )
        40           O1  tau(  40) = (   3.4150578   3.0309863  13.9715028  )
        41           O1  tau(  41) = (   4.7877001   4.4493464  16.1994792  )
        42           O1  tau(  42) = (   2.2536850   4.5881152  15.9586447  )
        43           Ti1 tau(  43) = (   3.5332629   0.0183730  15.6991940  )
        44           Ti1 tau(  44) = (   0.2986595   4.6220906  15.9451660  )
        45           O1  tau(  45) = (   3.2900926   2.9813045   4.7018136  )
        46           O1  tau(  46) = (   1.3039711   4.4726057   6.0039043  )
        47           O1  tau(  47) = (   5.2763189   4.4711207   6.0039473  )
        48           H1  tau(  48) = (   0.6716682   3.7174429  18.3617054  )
        49           H1  tau(  49) = (   0.7299512   2.1188458  18.2939656  )
        50           N1  tau(  50) = (   1.0883034   2.9530349  17.8291855  )
        51           C1  tau(  51) = (   2.6610371   2.9951180  18.0825860  )
        52           H1  tau(  52) = (   2.6895649   3.8224559  18.7461578  )
        53           H1  tau(  53) = (   2.7295784   2.2142559  18.8115579  )

     number of k points=    10  Fermi-Dirac smearing, width (Ry)=  0.0073
                       cart. coord. in units 2pi/alat
        k(    1) = (   0.0000000   0.0000000   0.0000000), wk =   0.1250000
        k(    2) = (   0.0000000   0.0419351   0.0000000), wk =   0.2500000
        k(    3) = (   0.0000000  -0.0838702   0.0000000), wk =   0.1250000
        k(    4) = (   0.0379955   0.0000049   0.0000000), wk =   0.2500000
        k(    5) = (   0.0379955   0.0419400   0.0000000), wk =   0.2500000
        k(    6) = (   0.0379955  -0.0838652   0.0000000), wk =   0.2500000
        k(    7) = (   0.0379955  -0.0419301   0.0000000), wk =   0.2500000
        k(    8) = (  -0.0759910  -0.0000099   0.0000000), wk =   0.1250000
        k(    9) = (  -0.0759910   0.0419252   0.0000000), wk =   0.2500000
        k(   10) = (  -0.0759910  -0.0838800   0.0000000), wk =   0.1250000

     Initial potential from superposition of free atoms

     starting charge  374.99916, renormalised to  391.00000

     negative rho (up, down):  1.821E-02 0.000E+00

     %%%%%%%%%%%%%%%%%%%%%%%%%%%%%%%%%%%%%%%%%%%%%%%%%%%%%%%%%%%%%%%%%%%%%%%%
     %                                                                      %
     % You are using vdW-DF, which was implemented by the Thonhauser group. %
     % Please cite the following two papers that made this development      %
     % possible and the two reviews that describe the various versions:     %
     %                                                                      %
     %   T. Thonhauser et al., PRL 115, 136402 (2015).                      %
     %   T. Thonhauser et al., PRB 76, 125112 (2007).                       %
     %   K. Berland et al., Rep. Prog. Phys. 78, 066501 (2015).             %
     %   D.C. Langreth et al., J. Phys.: Condens. Matter 21, 084203 (2009). %
     %                                                                      %
     %                                                                      %
     % If you are calculating the stress with vdW-DF, please also cite:     %
     %                                                                      %
     %   R. Sabatini et al., J. Phys.: Condens. Matter 24, 424209 (2012).   %
     %                                                                      %
     %%%%%%%%%%%%%%%%%%%%%%%%%%%%%%%%%%%%%%%%%%%%%%%%%%%%%%%%%%%%%%%%%%%%%%%%

     Adding external electric field

     Computed dipole along edir(3) :
        Dipole               -5.7414 Ry au,        -14.5931 Debye
        Dipole field         -0.0108 Ry au,

        Potential amp.        1.0044 Ry
        Total length         46.3494 bohr

     Starting wfcs are  296 atomic wfcs
  @ DRIVER MODE: Message from server: STATUS
  @ DRIVER MODE: Message from server: POSDATA
  @ DRIVER MODE: Reading and sharing cell
  @ DRIVER MODE: Reading and sharing positions
  @ DRIVER MODE: Received positions

     Self-consistent Calculation

     iteration #  1     ecut=    29.40 Ry     beta= 0.05
     Davidson diagonalization with overlap
     c_bands:  2 eigenvalues not converged
     c_bands:  1 eigenvalues not converged
     c_bands:  5 eigenvalues not converged
     c_bands:  2 eigenvalues not converged
     c_bands:  2 eigenvalues not converged
     c_bands:  2 eigenvalues not converged
     c_bands:  2 eigenvalues not converged
     ethr =  1.00E-05,  avg # of iterations = 20.8

[...]

     total energy              =   -2767.26882216 Ry
     estimated scf accuracy    <    1680.04357848 Ry

     iteration #  2     ecut=    29.40 Ry     beta= 0.05
     Davidson diagonalization with overlap
     ethr =  1.00E-02,  avg # of iterations = 18.7

[...]

     iteration # 61     ecut=    29.40 Ry     beta= 0.05
     Davidson diagonalization with overlap
     c_bands:  3 eigenvalues not converged
     ethr =  8.33E-11,  avg # of iterations =  7.4

[...]

     total energy              =   -2920.27068751 Ry
     estimated scf accuracy    <       0.00000013 Ry

     iteration # 65     ecut=    29.40 Ry     beta= 0.05
     Davidson diagonalization with overlap
     ethr =  3.25E-11,  avg # of iterations =  6.7

     negative rho (up, down):  1.845E-02 0.000E+00

     Adding external electric field

     Computed dipole along edir(3) :
        Dipole                0.8713 Ry au,          2.2147 Debye
        Dipole field          0.0016 Ry au,

        Potential amp.       -0.1524 Ry
        Total length         46.3494 bohr

     End of self-consistent calculation

          k = 0.0000 0.0000 0.0000 ( 18029 PWs)   bands (ev):

   -55.8828 -55.8487 -55.7532 -55.7148 -55.7096 -55.7078 -55.6963 -55.6757
   -55.6688 -55.6312 -55.6301 -55.6263 -55.5926 -55.5600 -54.8637 -54.8296
   -32.3686 -32.2805 -32.2431 -32.2121 -32.1762 -32.1735 -32.1556 -32.1546
   -32.1284 -32.0770 -32.0356 -32.0178 -32.0083 -31.9950 -31.9936 -31.9904
   -31.9785 -31.9473 -31.9404 -31.9307 -31.9211 -31.9093 -31.8985 -31.8899
   -31.8785 -31.8747 -31.8534 -31.8527 -31.8462 -31.8448 -31.8377 -31.8277
   -31.8215 -31.8213 -31.8196 -31.8043 -31.7913 -31.7794 -31.7783 -31.7667
   -31.7119 -31.6232 -31.2701 -31.1828 -31.1604 -31.0875 -31.0011 -30.8894
   -16.5726 -16.4017 -16.1949 -16.0679 -16.0502 -15.8568 -15.7639 -15.6864
   -15.4922 -15.4529 -15.4241 -15.4088 -15.3975 -15.3960 -15.3791 -15.3595
   -15.3393 -15.3296 -15.3079 -15.2558 -15.2499 -15.2411 -15.2158 -15.2129
   -15.0296 -15.0214 -14.9801 -14.9435 -14.8652 -14.5657 -13.3626 -13.2460
    -8.9366  -5.6342  -3.9566  -3.8886  -3.8158  -3.7902  -3.7752  -3.6560
    -3.4830  -3.2955  -3.2073  -3.1729  -3.0572  -3.0118  -2.9155  -2.8376
    -2.8236  -2.7616  -2.7205  -2.6982  -2.6714  -2.6608  -2.6068  -2.5838
    -2.5767  -2.4424  -2.3851  -2.3669  -2.3027  -2.2775  -2.2494  -2.2068
    -2.1999  -2.1863  -2.1695  -2.1324  -2.1039  -2.0871  -2.0059  -1.9350
    -1.8952  -1.8586  -1.6447  -1.5298  -1.4993  -1.4684  -1.4126  -1.3791
    -1.3340  -1.2952  -1.2791  -1.2605  -1.1926  -1.1027  -1.0214  -1.0136
    -0.9120  -0.8872  -0.8005  -0.7259  -0.7083  -0.6449  -0.6220  -0.6175
    -0.6133  -0.5212  -0.4702  -0.3871  -0.3377  -0.3004  -0.2350  -0.1684
    -0.1119  -0.1014  -0.0623  -0.0192   0.0233   0.0341   0.0589   0.0890
     0.1271   0.1650   0.2043   0.2858   0.3278   0.3628   0.4087   0.4213
     0.5238   0.7339   0.7743   0.9130   1.0943   1.1625   1.1880   1.2134
     1.3540   1.7308   1.7766   3.1990   3.3437   3.3614   3.4331   3.4633
     3.5157   3.6869   3.7730   3.8137   3.8704

[...]

          k = 0.0380-0.0419 0.0000 ( 17876 PWs)   bands (ev):

[...]

          k =-0.0760-0.0000 0.0000 ( 17886 PWs)   bands (ev):

[...]

          k =-0.0760-0.0839 0.0000 ( 17948 PWs)   bands (ev):

   -55.8659 -55.8655 -55.7420 -55.7257 -55.7053 -55.6926 -55.6923 -55.6918
   -55.6606 -55.6351 -55.6347 -55.6215 -55.6022 -55.5617 -54.8468 -54.8464
   -32.2046 -32.1839 -32.1837 -32.1591 -32.1588 -32.0995 -32.0664 -32.0483
   -32.0330 -32.0260 -32.0231 -32.0161 -32.0006 -31.9862 -31.9854 -31.9838
   -31.9759 -31.9682 -31.9609 -31.9466 -31.9450 -31.9358 -31.9330 -31.9247
   -31.9111 -31.9023 -31.8982 -31.8936 -31.8809 -31.8772 -31.8690 -31.8681
   -31.8676 -31.8592 -31.8564 -31.8458 -31.8437 -31.8310 -31.8127 -31.8122
   -31.7969 -31.6236 -31.1732 -31.1730 -31.0832 -31.0826 -31.0446 -31.0441
   -16.1453 -15.9765 -15.8672 -15.8524 -15.7892 -15.6797 -15.6667 -15.6395
   -15.6202 -15.5836 -15.5642 -15.5512 -15.5027 -15.4632 -15.4263 -15.4019
   -15.3981 -15.3514 -15.3470 -15.3372 -15.3152 -15.2809 -15.2722 -15.2079
   -15.1992 -15.1035 -15.0879 -15.0673 -15.0171 -14.8979 -13.3479 -13.3477
    -8.9426  -5.6046  -3.8069  -3.3036  -3.2058  -3.0692  -3.0013  -2.9613
    -2.9129  -2.8800  -2.8588  -2.8399  -2.7898  -2.7759  -2.7448  -2.7012
    -2.6829  -2.6658  -2.6458  -2.6190  -2.5979  -2.5863  -2.5676  -2.5499
    -2.5173  -2.5022  -2.4755  -2.4612  -2.4503  -2.4385  -2.4300  -2.4204
    -2.2346  -2.1424  -2.0508  -2.0471  -2.0321  -2.0072  -1.9818  -1.9641
    -1.9472  -1.9254  -1.9000  -1.8708  -1.8400  -1.6023  -1.5576  -1.5227
    -1.4648  -1.4279  -1.3799  -1.3681  -1.3340  -1.3043  -1.2229  -1.1869
    -1.1597  -1.0824  -1.0103  -0.9470  -0.8996  -0.8623  -0.8315  -0.8197
    -0.7804  -0.7416  -0.7326  -0.7083  -0.6924  -0.5854  -0.5834  -0.5807
    -0.4360  -0.3982  -0.3785  -0.2860  -0.2660  -0.0869  -0.0261   0.0019
     0.1365   0.1475   0.1843   0.2939   0.3209   0.3667   0.4232   0.4443
     0.5302   0.5829   0.6245   0.6640   0.6878   0.7046   1.1729   1.5249
     1.5306   1.5968   1.5969   3.5996   3.6405   3.7070   3.7328   3.7528
     3.7885   3.8110   3.8222   3.8675   3.8771

     the Fermi energy is     3.2377 ev

!    total energy              =   -2920.27071262 Ry
     estimated scf accuracy    <       0.00000005 Ry
     smearing contrib. (-TS)   =      -0.01953228 Ry
     internal energy E=F+TS    =   -2920.25118034 Ry

     The total energy is F=E-TS. E is the sum of the following terms:
     one-electron contribution =  -24544.24591569 Ry
     hartree contribution      =   12357.93656655 Ry
     xc contribution           =    -480.81723684 Ry
     ewald contribution        =    9746.87397286 Ry
     electric field correction =       0.00143279 Ry

     convergence has been achieved in  65 iterations

     Forces acting on atoms (cartesian axes, Ry/au):

     atom    1 type  1   force =     0.00007031   -0.00038027    0.09440417
     atom    2 type  1   force =    -0.00007596   -0.00123095   -0.17584420
     atom    3 type  2   force =     0.00046543   -0.00020668   -0.02135489
     atom    4 type  2   force =     0.00017578   -0.00092901    0.05147559
     atom    5 type  2   force =    -0.00540199    0.00100083   -0.00035048
     atom    6 type  2   force =     0.00989179    0.00143232    0.00528104
     atom    7 type  1   force =     0.00311973    0.00406410   -0.00384161
     atom    8 type  1   force =    -0.00264153    0.00537365    0.00462042
     atom    9 type  2   force =     0.00031702    0.00017694    0.00041830
     atom   10 type  2   force =     0.00290246    0.00077319   -0.01334122
     atom   11 type  2   force =     0.00009596    0.00027795   -0.00000597
     atom   12 type  2   force =    -0.00017049   -0.00005237   -0.00007474
     atom   13 type  1   force =    -0.00028073   -0.00029902    0.00136400
     atom   14 type  1   force =    -0.00061381    0.00044386   -0.00124339
     atom   15 type  2   force =     0.00027467   -0.00005443   -0.00003076
     atom   16 type  2   force =     0.00005436   -0.00016274    0.00023959
     atom   17 type  2   force =     0.00033663   -0.00090418    0.00072196
     atom   18 type  2   force =     0.00014280    0.00000559   -0.00023373
     atom   19 type  1   force =    -0.00024911    0.00008640   -0.00102694
     atom   20 type  1   force =    -0.00005590    0.00193462   -0.00040176
     atom   21 type  2   force =     0.00005031   -0.00009532    0.10312957
     atom   22 type  2   force =    -0.00061865    0.00069400    0.00089385
     atom   23 type  2   force =    -0.07169909   -0.00014582   -0.02718900
     atom   24 type  2   force =     0.07176045    0.00034550   -0.02733402
     atom   25 type  1   force =    -0.00008866   -0.00021632    0.09388645
     atom   26 type  1   force =     0.00003863    0.00040411   -0.17580629
     atom   27 type  2   force =     0.00046551   -0.00026431   -0.02044505
     atom   28 type  2   force =     0.00023859   -0.00170673    0.05410261
     atom   29 type  2   force =    -0.00645307   -0.00170329    0.00028876
     atom   30 type  2   force =     0.01069233   -0.00156129    0.00560229
     atom   31 type  1   force =     0.00345772    0.00044063    0.00535251
     atom   32 type  1   force =    -0.00266827   -0.00668657    0.00503317
     atom   33 type  2   force =     0.00024974    0.00031025    0.00054571
     atom   34 type  2   force =     0.00503829   -0.00078995   -0.00876345
     atom   35 type  2   force =     0.00011548   -0.00000834    0.00000831
     atom   36 type  2   force =    -0.00012861   -0.00002211   -0.00001129
     atom   37 type  1   force =     0.00075534   -0.00042324    0.00087830
     atom   38 type  1   force =    -0.00027529   -0.00122709    0.00001866
     atom   39 type  2   force =    -0.00074789   -0.00015529    0.00044531
     atom   40 type  2   force =     0.00034092    0.00041447   -0.00012928
     atom   41 type  2   force =     0.00023984    0.00158788    0.00080301
     atom   42 type  2   force =     0.00056239    0.00035139    0.00014894
     atom   43 type  1   force =     0.00075395    0.00017731   -0.00001645
     atom   44 type  1   force =    -0.00005152   -0.00177749   -0.00079792
     atom   45 type  2   force =     0.00005345   -0.00002024    0.10330265
     atom   46 type  2   force =    -0.07168296   -0.00014803   -0.02721706
     atom   47 type  2   force =     0.07172272    0.00030538   -0.02732561
     atom   48 type  3   force =     0.00033495   -0.00016372   -0.00036430
     atom   49 type  3   force =     0.00019468   -0.00084619   -0.00015784
     atom   50 type  4   force =    -0.00012283    0.00066296    0.00025815
     atom   51 type  5   force =    -0.08587534   -0.01018661   -0.00632528
     atom   52 type  3   force =     0.03165439    0.05784749    0.00581267
     atom   53 type  3   force =     0.03333507   -0.04674322    0.00059655

     Total force =     0.383338     Total SCF correction =     0.000463
  @ DRIVER MODE: Message from server: STATUS
  @ DRIVER MODE: Message from server: GETFORCE
  @ DRIVER MODE: Returning v,forces,stress,ensemble

     Writing output data file ./calc.save/
  @ DRIVER MODE: Message from server: EXIT
  @ DRIVE MODE: Exiting

     General routines

     Parallel routines

   This run was terminated on:   3:23: 9  12Oct2021

   JOB DONE.