     Program PWSCF v.6.7GPU starts on 23Sep2021 at  2:11:12

     R & G space division:  proc/nbgrp/npool/nimage =      10
     Reading input from /storage/home/hcoda1/3/ntian30/research/carbon/CxH_vib/H2O_calc/ads_slab/CHNHHO_a/out_0032/pw.inp
Warning: card &CELL ignored
Warning: card   CELL_DYNAMICS='IPI', ignored
Warning: card / ignored

     Current dimensions of program PWSCF are:
     Max number of different atomic species (ntypx) = 10
     Max number of k-points (npk) =  40000
     Max angular momentum in pseudopotentials (lmaxx) =  3
     Presently no symmetry can be used with electric field

     Message from routine cell_base_init:
     DEPRECATED: use true lattice parameter, not A to a.u. conversion factor

     IMPORTANT: XC functional enforced from input :
     Exchange-correlation= BEEF-VDW
                           (   1   4  43  14   2   0   0)
     Any further DFT definition will be discarded
     Please, verify this is what you really want

  @ DRIVER MODE: Connecting to
 qe_1139763_2937314.sched-torque.pace.gatech.edubwd5gf72_scratch
  using UNIX socket
  @ DRIVER MODE: Message from server: STATUS
  @ DRIVER MODE: Message from server: INIT
  @ DRIVER MODE: Receiving replica           0          -1
  @ DRIVER MODE: Receiving encoded integer          25
  @ DRIVER MODE:  SCF:  T  FORCE:  T  STRESS:  F  VC:  F  ENSEMBLE:  F
  @ DRIVER MODE:  SCF:  T  FORCE:  T  STRESS:  F  VC:  F  ENSEMBLE:  F

     Using Slab Decomposition

     bravais-lattice index     =            0
     lattice parameter (alat)  =       1.8897  a.u.
     unit-cell volume          =    6658.9804 (a.u.)^3
     number of atoms/cell      =           53
     number of atomic types    =            5
     number of electrons       =       396.00
     number of Kohn-Sham states=          208
     kinetic-energy cutoff     =      29.3995  Ry
     charge density cutoff     =     293.9946  Ry
     scf convergence threshold =      7.3E-08
     mixing beta               =       0.0500
     number of iterations used =            8  plain     mixing
     Exchange-correlation= BEEF-VDW
                           (   1   4  43  14   2   0   0)

     celldm(1)=   1.889726  celldm(2)=   0.000000  celldm(3)=   0.000000
     celldm(4)=   0.000000  celldm(5)=   0.000000  celldm(6)=   0.000000

     crystal axes: (cart. coord. in units of alat)
               a(1) = (   6.579727   0.000000   0.000000 )
               a(2) = (  -0.000775   5.961596   0.000000 )
               a(3) = (   0.000000   0.000000  25.155947 )

     reciprocal axes: (cart. coord. in units 2 pi/alat)
               b(1) = (  0.151982  0.000020  0.000000 )
               b(2) = (  0.000000  0.167740  0.000000 )
               b(3) = (  0.000000  0.000000  0.039752 )

     PseudoPot. # 1 for Ti read from file:
     /storage/coda1/p-amedford6/0/shared/rich_project_chbe-medford/medford-share/data/pseudos_module/espresso/nninc/pbe/van/Ti.UPF
     MD5 check sum: 8e4df49b7f0d34bbd5052bf3f5ea0213
     Pseudo is Ultrasoft, Zval = 12.0
     Generated by new atomic code, or converted to UPF format
     Using radial grid of  851 points,  6 beta functions with:
                l(1) =   0
                l(2) =   0
                l(3) =   1
                l(4) =   1
                l(5) =   2
                l(6) =   2
     Q(r) pseudized with  8 coefficients,  rinner =    1.000   1.000   1.000
                                                       1.000   1.000

     PseudoPot. # 2 for O  read from file:
     /storage/coda1/p-amedford6/0/shared/rich_project_chbe-medford/medford-share/data/pseudos_module/espresso/nninc/pbe/van/O.UPF
     MD5 check sum: 78c19812648e8988a0fe644b0f25305e
     Pseudo is Ultrasoft, Zval =  6.0
     Generated by new atomic code, or converted to UPF format
     Using radial grid of  737 points,  4 beta functions with:
                l(1) =   0
                l(2) =   0
                l(3) =   1
                l(4) =   1
     Q(r) pseudized with  8 coefficients,  rinner =    0.800   0.800   0.800

     PseudoPot. # 3 for N  read from file:
     /storage/coda1/p-amedford6/0/shared/rich_project_chbe-medford/medford-share/data/pseudos_module/espresso/nninc/pbe/van/N.UPF
     MD5 check sum: 90d10febe142ad51ac9d5be1deb811c4
     Pseudo is Ultrasoft, Zval =  5.0
     Generated by new atomic code, or converted to UPF format
     Using radial grid of  729 points,  4 beta functions with:
                l(1) =   0
                l(2) =   0
                l(3) =   1
                l(4) =   1
     Q(r) pseudized with  8 coefficients,  rinner =    0.800   0.800   0.800

     PseudoPot. # 4 for C  read from file:
     /storage/coda1/p-amedford6/0/shared/rich_project_chbe-medford/medford-share/data/pseudos_module/espresso/nninc/pbe/van/C.UPF
     MD5 check sum: 1a69bf6b8db32088f5b2163dbdb77a27
     Pseudo is Ultrasoft, Zval =  4.0
     Generated by new atomic code, or converted to UPF format
     Using radial grid of  721 points,  4 beta functions with:
                l(1) =   0
                l(2) =   0
                l(3) =   1
                l(4) =   1
     Q(r) pseudized with  8 coefficients,  rinner =    0.800   0.800   0.800

     PseudoPot. # 5 for H  read from file:
     /storage/coda1/p-amedford6/0/shared/rich_project_chbe-medford/medford-share/data/pseudos_module/espresso/nninc/pbe/van/H.UPF
     MD5 check sum: b5ee9d7bfd3a09ee7748110bda690ff7
     Pseudo is Ultrasoft, Zval =  1.0
     Generated by new atomic code, or converted to UPF format
     Using radial grid of  615 points,  1 beta functions with:
                l(1) =   0
     Q(r) pseudized with  8 coefficients,  rinner =    0.800

     atomic species   valence    mass     pseudopotential
        Ti1           12.00    47.86700     Ti( 1.00)
        O1             6.00    15.99900     O ( 1.00)
        N1             5.00    14.00700     N ( 1.00)
        C1             4.00    12.01100     C ( 1.00)
        H1             1.00     1.00800     H ( 1.00)

     No symmetry found

   Cartesian axes

     site n.     atom                  positions (alat units)
         1           Ti1 tau(   1) = (   0.0004258   2.9801865   6.0000000  )
         2           Ti1 tau(   2) = (   3.2906075   1.4906267   6.0002472  )
         3           O1  tau(   3) = (   0.0006271   0.0005054   7.9858123  )
         4           O1  tau(   4) = (   3.2906025   0.0005020   7.3038282  )
         5           O1  tau(   5) = (   4.5942328   1.4918067   9.2879030  )
         6           O1  tau(   6) = (   1.9868534   1.4903216   9.2879459  )
         7           Ti1 tau(   7) = (   3.2907910   2.8959150   9.1758416  )
         8           Ti1 tau(   8) = (   0.0015273   1.4827037   9.2680791  )
         9           O1  tau(   9) = (   3.2817170   5.9459930  11.3074998  )
        10           O1  tau(  10) = (   0.0116148   5.9584955  10.6183126  )
        11           O1  tau(  11) = (   1.2737360   1.4926482  12.6406718  )
        12           O1  tau(  12) = (   5.2902952   1.4950437  12.6299455  )
        13           Ti1 tau(  13) = (   6.5743562   2.8588748  12.6391164  )
        14           Ti1 tau(  14) = (   3.2840152   1.3010445  12.6757008  )
        15           O1  tau(  15) = (   6.5722207   0.0022838  14.6395268  )
        16           O1  tau(  16) = (   3.2882888   0.0547267  13.9272720  )
        17           O1  tau(  17) = (   4.5277618   1.5549090  16.0796657  )
        18           O1  tau(  18) = (   1.9889223   1.5445724  16.0964948  )
        19           Ti1 tau(  19) = (   3.2710169   3.0098750  15.6493427  )
        20           Ti1 tau(  20) = (   0.0212523   1.3583160  16.0154628  )
        21           O1  tau(  21) = (   3.2904802   0.0005063   4.7018136  )
        22           O1  tau(  22) = (   6.5278121   5.9442159  17.1408904  )
        23           O1  tau(  23) = (   1.3043587   1.4918075   6.0039043  )
        24           O1  tau(  24) = (   5.2767064   1.4903225   6.0039473  )
        25           Ti1 tau(  25) = (   0.0000382   5.9609847   6.0000000  )
        26           Ti1 tau(  26) = (   3.2902200   4.4714249   6.0002472  )
        27           O1  tau(  27) = (   0.0002396   2.9813036   7.9858123  )
        28           O1  tau(  28) = (   3.2902150   2.9813002   7.3038282  )
        29           O1  tau(  29) = (   4.5938453   4.4726049   9.2879030  )
        30           O1  tau(  30) = (   1.9864658   4.4711199   9.2879459  )
        31           Ti1 tau(  31) = (   3.2891106   5.8743827   9.1763621  )
        32           Ti1 tau(  32) = (   0.0006254   4.4649316   9.2693709  )
        33           O1  tau(  33) = (   3.2809651   3.0158959  11.2742024  )
        34           O1  tau(  34) = (   0.0092240   2.9805883  10.6323155  )
        35           O1  tau(  35) = (   1.2801966   4.4796301  12.6363892  )
        36           O1  tau(  36) = (   5.2833020   4.4787161  12.6245292  )
        37           Ti1 tau(  37) = (   6.5725262   5.8449372  12.5269696  )
        38           Ti1 tau(  38) = (   3.2830651   4.3950422  12.4122791  )
        39           O1  tau(  39) = (   6.5612936   2.9998473  14.7091997  )
        40           O1  tau(  40) = (   3.2734765   2.9867355  13.8776313  )
        41           O1  tau(  41) = (   4.5260587   4.4294304  16.0527172  )
        42           O1  tau(  42) = (   1.9919704   4.4458081  16.0639873  )
        43           Ti1 tau(  43) = (   3.3135318   0.0270965  16.3071496  )
        44           Ti1 tau(  44) = (   0.0294795   4.5257316  15.8201724  )
        45           O1  tau(  45) = (   3.2900926   2.9813045   4.7018136  )
        46           O1  tau(  46) = (   1.3039711   4.4726057   6.0039043  )
        47           O1  tau(  47) = (   5.2763189   4.4711207   6.0039473  )
        48           N1  tau(  48) = (   6.4282372   2.9740631  17.7102171  )
        49           C1  tau(  49) = (   0.6535733   3.0176064  18.7020832  )
        50           H1  tau(  50) = (   1.7291544   2.9413089  18.4820742  )
        51           H1  tau(  51) = (   5.4410488   3.0579230  17.9716058  )
        52           O1  tau(  52) = (   3.3635319   0.0010587  18.1193045  )
        53           H1  tau(  53) = (   4.1680425   0.0400832  18.6733683  )

     number of k points=    10  Fermi-Dirac smearing, width (Ry)=  0.0073
                       cart. coord. in units 2pi/alat
        k(    1) = (   0.0000000   0.0000000   0.0000000), wk =   0.1250000
        k(    2) = (   0.0000000   0.0419351   0.0000000), wk =   0.2500000
        k(    3) = (   0.0000000  -0.0838702   0.0000000), wk =   0.1250000
        k(    4) = (   0.0379955   0.0000049   0.0000000), wk =   0.2500000
        k(    5) = (   0.0379955   0.0419400   0.0000000), wk =   0.2500000
        k(    6) = (   0.0379955  -0.0838652   0.0000000), wk =   0.2500000
        k(    7) = (   0.0379955  -0.0419301   0.0000000), wk =   0.2500000
        k(    8) = (  -0.0759910  -0.0000099   0.0000000), wk =   0.1250000
        k(    9) = (  -0.0759910   0.0419252   0.0000000), wk =   0.2500000
        k(   10) = (  -0.0759910  -0.0838800   0.0000000), wk =   0.1250000

     Initial potential from superposition of free atoms

     starting charge  379.99917, renormalised to  396.00000

     negative rho (up, down):  1.778E-02 0.000E+00

     %%%%%%%%%%%%%%%%%%%%%%%%%%%%%%%%%%%%%%%%%%%%%%%%%%%%%%%%%%%%%%%%%%%%%%%%
     %                                                                      %
     % You are using vdW-DF, which was implemented by the Thonhauser group. %
     % Please cite the following two papers that made this development      %
     % possible and the two reviews that describe the various versions:     %
     %                                                                      %
     %   T. Thonhauser et al., PRL 115, 136402 (2015).                      %
     %   T. Thonhauser et al., PRB 76, 125112 (2007).                       %
     %   K. Berland et al., Rep. Prog. Phys. 78, 066501 (2015).             %
     %   D.C. Langreth et al., J. Phys.: Condens. Matter 21, 084203 (2009). %
     %                                                                      %
     %                                                                      %
     % If you are calculating the stress with vdW-DF, please also cite:     %
     %                                                                      %
     %   R. Sabatini et al., J. Phys.: Condens. Matter 24, 424209 (2012).   %
     %                                                                      %
     %%%%%%%%%%%%%%%%%%%%%%%%%%%%%%%%%%%%%%%%%%%%%%%%%%%%%%%%%%%%%%%%%%%%%%%%

     Adding external electric field

     Computed dipole along edir(3) :
        Dipole               -8.0653 Ry au,        -20.5000 Debye
        Dipole field         -0.0152 Ry au,

        Potential amp.        1.4109 Ry
        Total length         46.3494 bohr

     Starting wfcs are  299 atomic wfcs
  @ DRIVER MODE: Message from server: STATUS
  @ DRIVER MODE: Message from server: POSDATA
  @ DRIVER MODE: Reading and sharing cell
  @ DRIVER MODE: Reading and sharing positions
  @ DRIVER MODE: Received positions

     Self-consistent Calculation

     iteration #  1     ecut=    29.40 Ry     beta= 0.05
     Davidson diagonalization with overlap
     c_bands:  1 eigenvalues not converged
     c_bands:  1 eigenvalues not converged
     c_bands:  3 eigenvalues not converged
     c_bands:  1 eigenvalues not converged
     c_bands:  1 eigenvalues not converged
     c_bands:  1 eigenvalues not converged
     ethr =  1.00E-05,  avg # of iterations = 18.6

[...]

     total energy              =   -2618.24319260 Ry
     estimated scf accuracy    <    3681.45715019 Ry

     iteration #  2     ecut=    29.40 Ry     beta= 0.05
     Davidson diagonalization with overlap
     ethr =  1.00E-02,  avg # of iterations = 21.6

[...]

     iteration # 61     ecut=    29.40 Ry     beta= 0.05
     Davidson diagonalization with overlap
     c_bands:  1 eigenvalues not converged
     c_bands:  1 eigenvalues not converged
     c_bands:  1 eigenvalues not converged
     ethr =  7.50E-07,  avg # of iterations = 15.9

[...]

     total energy              =   -2951.37636861 Ry
     estimated scf accuracy    <       0.00000009 Ry

     iteration # 85     ecut=    29.40 Ry     beta= 0.05
     Davidson diagonalization with overlap
     ethr =  2.28E-11,  avg # of iterations =  5.2

     negative rho (up, down):  1.666E-02 0.000E+00

     Adding external electric field

     Computed dipole along edir(3) :
        Dipole                0.1806 Ry au,          0.4590 Debye
        Dipole field          0.0003 Ry au,

        Potential amp.       -0.0316 Ry
        Total length         46.3494 bohr

     End of self-consistent calculation

          k = 0.0000 0.0000 0.0000 ( 18029 PWs)   bands (ev):

   -56.4280 -56.3941 -56.1501 -56.1495 -56.1162 -55.9504 -55.8972 -55.8638
   -55.8576 -55.8516 -55.8164 -55.7252 -55.6730 -55.5320 -55.2790 -55.2450
   -32.8923 -32.7221 -32.7018 -32.6230 -32.5822 -32.5156 -32.4886 -32.4438
   -32.4341 -32.4201 -32.3693 -32.3679 -32.3658 -32.3632 -32.3528 -32.3105
   -32.2888 -32.2646 -32.2552 -32.1793 -32.1668 -32.1580 -32.1457 -32.1221
   -32.1068 -32.1013 -32.0985 -32.0656 -32.0645 -32.0574 -32.0365 -32.0165
   -31.9997 -31.9781 -31.9680 -31.9584 -31.9425 -31.8708 -31.8683 -31.7914
   -31.7625 -31.7439 -31.6793 -31.6070 -31.5838 -31.4975 -31.4121 -31.3002
   -16.8714 -16.8236 -16.5917 -16.4391 -16.2727 -16.1821 -16.0532 -16.0292
   -15.9214 -15.9009 -15.8144 -15.7806 -15.7417 -15.6668 -15.6100 -15.5878
   -15.5538 -15.5244 -15.5155 -15.5111 -15.5015 -15.4937 -15.4551 -15.3375
   -15.2964 -15.2457 -15.2335 -15.2194 -15.0878 -14.8311 -14.7852 -13.7764
   -13.6625  -8.2069  -4.6538  -4.2795  -4.2185  -4.1212  -3.9441  -3.8881
    -3.8274  -3.6007  -3.5541  -3.5522  -3.3579  -3.2977  -3.2035  -3.1611
    -3.1460  -3.1010  -3.0290  -3.0179  -2.9867  -2.8985  -2.8578  -2.8503
    -2.8243  -2.7790  -2.7689  -2.6884  -2.6448  -2.6228  -2.5536  -2.5049
    -2.4731  -2.4585  -2.4342  -2.4236  -2.3824  -2.3697  -2.3482  -2.2003
    -2.1843  -2.1620  -2.0840  -2.0091  -1.8547  -1.7732  -1.7622  -1.6640
    -1.5860  -1.5727  -1.5228  -1.4734  -1.3871  -1.3733  -1.3665  -1.3275
    -1.2433  -1.2223  -1.1781  -1.1272  -1.0526  -0.9636  -0.9583  -0.9082
    -0.8745  -0.8098  -0.7218  -0.6875  -0.6281  -0.5868  -0.5555  -0.4819
    -0.4330  -0.4068  -0.3833  -0.3727  -0.3121  -0.2511  -0.2039  -0.1777
    -0.1077  -0.0960  -0.0530   0.0131   0.0345   0.0415   0.1602   0.2027
     0.2156   0.2657   0.3788   0.4350   0.5218   0.5820   0.6528   0.7469
     0.7536   0.9613   1.0694   1.3012   1.3416   2.5795   2.7611   2.8827
     2.9517   3.1530   3.1999   3.2368   3.5085   3.5257   3.5340   3.6148

[...]

          k = 0.0380-0.0419 0.0000 ( 17876 PWs)   bands (ev):

[...]

          k =-0.0760-0.0000 0.0000 ( 17886 PWs)   bands (ev):

[...]

          k =-0.0760-0.0839 0.0000 ( 17948 PWs)   bands (ev):

   -56.4114 -56.4105 -56.1488 -56.1349 -56.1312 -55.9442 -55.9032 -55.8612
   -55.8585 -55.8385 -55.8295 -55.7272 -55.6710 -55.5339 -55.2625 -55.2614
   -32.7088 -32.7087 -32.7069 -32.7065 -32.5340 -32.5328 -32.4548 -32.4501
   -32.4214 -32.3785 -32.3669 -32.3428 -32.3380 -32.3270 -32.3205 -32.2860
   -32.2469 -32.2414 -32.2173 -32.1710 -32.1692 -32.1677 -32.1649 -32.1528
   -32.1292 -32.1225 -32.1203 -32.0725 -32.0694 -32.0634 -32.0614 -32.0597
   -32.0446 -32.0101 -31.9878 -31.9626 -31.9499 -31.9345 -31.8808 -31.8739
   -31.7939 -31.7475 -31.5971 -31.5963 -31.4937 -31.4925 -31.4553 -31.4545
   -16.8527 -16.2444 -16.2194 -16.1251 -16.0956 -16.0736 -16.0517 -16.0296
   -15.8932 -15.8841 -15.8704 -15.8021 -15.7513 -15.7321 -15.6964 -15.6911
   -15.6370 -15.6228 -15.6099 -15.5575 -15.5491 -15.5294 -15.5151 -15.4797
   -15.4490 -15.4209 -15.2559 -15.2016 -15.1458 -15.1208 -14.9179 -13.7654
   -13.7647  -8.2184  -4.6452  -4.1090  -3.5220  -3.4893  -3.3693  -3.3567
    -3.2310  -3.2255  -3.1476  -3.0741  -3.0737  -2.9986  -2.9843  -2.9764
    -2.9371  -2.9198  -2.9121  -2.9114  -2.8701  -2.8608  -2.8398  -2.8226
    -2.8196  -2.8038  -2.7651  -2.7242  -2.7029  -2.6897  -2.6357  -2.6223
    -2.5000  -2.4367  -2.4109  -2.4105  -2.3868  -2.3502  -2.3201  -2.3034
    -2.2742  -2.2353  -2.1579  -2.0370  -2.0161  -1.8202  -1.8026  -1.7711
    -1.7496  -1.7055  -1.7001  -1.6343  -1.5838  -1.5692  -1.5521  -1.5272
    -1.4265  -1.3746  -1.3252  -1.3219  -1.2707  -1.2504  -1.2012  -1.1002
    -1.0513  -1.0215  -0.9954  -0.9824  -0.9445  -0.9188  -0.8658  -0.8253
    -0.8207  -0.7931  -0.7505  -0.5815  -0.4110  -0.3683  -0.3462  -0.2752
    -0.2587  -0.2100  -0.0762  -0.0313  -0.0210   0.0156   0.0554   0.0855
     0.0991   0.1615   0.3440   0.3589   0.4281   0.4749   0.4810   0.5687
     0.6646   1.1258   1.1335   1.1604   1.1612   2.6081   3.3059   3.3079
     3.3096   3.3261   3.4064   3.4670   3.4760   3.5138   3.5921   3.6323

     the Fermi energy is     2.7245 ev

!    total energy              =   -2951.37637291 Ry
     estimated scf accuracy    <       0.00000007 Ry
     smearing contrib. (-TS)   =      -0.01730895 Ry
     internal energy E=F+TS    =   -2951.35906396 Ry

     The total energy is F=E-TS. E is the sum of the following terms:
     one-electron contribution =  -24273.23055358 Ry
     hartree contribution      =   12222.65449995 Ry
     xc contribution           =    -487.03858606 Ry
     ewald contribution        =    9586.25551420 Ry
     electric field correction =       0.00006154 Ry

     convergence has been achieved in  85 iterations

     Forces acting on atoms (cartesian axes, Ry/au):

     atom    1 type  1   force =     0.00006782   -0.00028478    0.10083052
     atom    2 type  1   force =    -0.00005594    0.00024621   -0.16923403
     atom    3 type  2   force =     0.00000601   -0.00004396   -0.02994692
     atom    4 type  2   force =     0.00000233   -0.00099002    0.04188157
     atom    5 type  2   force =    -0.00519592   -0.00241864   -0.00304728
     atom    6 type  2   force =     0.00634822   -0.00183639   -0.00465674
     atom    7 type  1   force =    -0.00066001   -0.00537649    0.02534935
     atom    8 type  1   force =     0.00077978    0.01604802    0.04134611
     atom    9 type  2   force =    -0.00021499    0.00022443    0.00014336
     atom   10 type  2   force =    -0.00258016    0.00083199   -0.03439893
     atom   11 type  2   force =     0.00009474    0.00003239    0.00006992
     atom   12 type  2   force =     0.00024136   -0.00035320    0.00004812
     atom   13 type  1   force =    -0.00070677   -0.00011716   -0.00014719
     atom   14 type  1   force =     0.00018468    0.00008133    0.00029703
     atom   15 type  2   force =     0.00022729    0.00009911    0.00012844
     atom   16 type  2   force =     0.00004359   -0.00012964   -0.00023387
     atom   17 type  2   force =    -0.00001035    0.00015449    0.00013484
     atom   18 type  2   force =     0.00011393   -0.00007300    0.00010960
     atom   19 type  1   force =     0.00006394    0.00021302    0.00024007
     atom   20 type  1   force =    -0.00001909    0.00034630    0.00043646
     atom   21 type  2   force =     0.00007254    0.00015307    0.10149104
     atom   22 type  2   force =    -0.00004899    0.00018392    0.00040203
     atom   23 type  2   force =    -0.07486731   -0.00008891   -0.02882522
     atom   24 type  2   force =     0.07479983    0.00036291   -0.02885590
     atom   25 type  1   force =     0.00018830   -0.00035499    0.10069514
     atom   26 type  1   force =     0.00001268   -0.00114990   -0.16944989
     atom   27 type  2   force =     0.00004617   -0.00039992   -0.02842993
     atom   28 type  2   force =     0.00001017    0.00074583    0.03786353
     atom   29 type  2   force =    -0.00388737    0.00436500   -0.00527476
     atom   30 type  2   force =     0.00496625    0.00488847   -0.00694570
     atom   31 type  1   force =    -0.00064196    0.00466264    0.01118619
     atom   32 type  1   force =     0.00089132   -0.01905136    0.04071086
     atom   33 type  2   force =     0.00044312   -0.00001084    0.00021438
     atom   34 type  2   force =    -0.00214210    0.00071043   -0.03964334
     atom   35 type  2   force =     0.00011870   -0.00048173   -0.00014186
     atom   36 type  2   force =     0.00015563   -0.00021650    0.00010019
     atom   37 type  1   force =    -0.00004416   -0.00011142    0.00006189
     atom   38 type  1   force =     0.00001739    0.00007448    0.00015155
     atom   39 type  2   force =    -0.00003068    0.00035471   -0.00018653
     atom   40 type  2   force =     0.00032230   -0.00005417    0.00019335
     atom   41 type  2   force =     0.00010497    0.00005315    0.00027718
     atom   42 type  2   force =    -0.00014442    0.00010944    0.00028612
     atom   43 type  1   force =     0.00019828   -0.00004150    0.00052487
     atom   44 type  1   force =    -0.00020221    0.00001598   -0.00063124
     atom   45 type  2   force =     0.00006815   -0.00000221    0.10127170
     atom   46 type  2   force =    -0.07491804   -0.00001168   -0.02885618
     atom   47 type  2   force =     0.07483397    0.00041631   -0.02888212
     atom   48 type  3   force =    -0.00046380   -0.00005299    0.00122910
     atom   49 type  4   force =    -0.00016139    0.00005904   -0.00064975
     atom   50 type  5   force =    -0.00051172   -0.00047624    0.00010579
     atom   51 type  5   force =     0.00174607   -0.00073553   -0.00010505
     atom   52 type  2   force =     0.01239257    0.00042566    0.01048841
     atom   53 type  5   force =    -0.01205472   -0.00099518   -0.00972629

     Total force =     0.370422     Total SCF correction =     0.000529
  @ DRIVER MODE: Message from server: STATUS
  @ DRIVER MODE: Message from server: GETFORCE
  @ DRIVER MODE: Returning v,forces,stress,ensemble

     Writing output data file ./calc.save/
  @ DRIVER MODE: Message from server: EXIT
  @ DRIVE MODE: Exiting

     General routines

     Parallel routines

   This run was terminated on:   2:32:37  23Sep2021

   JOB DONE.