     Program PWSCF v.6.7GPU starts on 16Jul2021 at  5:58:25

     R & G space division:  proc/nbgrp/npool/nimage =      16
     Reading input from /storage/home/hcoda1/3/ntian30/research/carbon/15Jul_vib/ads_slab/CH3NH_b/out_0027/pw.inp
Warning: card &CELL ignored
Warning: card   CELL_DYNAMICS='IPI', ignored
Warning: card / ignored

     Current dimensions of program PWSCF are:
     Max number of different atomic species (ntypx) = 10
     Max number of k-points (npk) =  40000
     Max angular momentum in pseudopotentials (lmaxx) =  3
     Presently no symmetry can be used with electric field

     Message from routine cell_base_init:
     DEPRECATED: use true lattice parameter, not A to a.u. conversion factor

     IMPORTANT: XC functional enforced from input :
     Exchange-correlation= BEEF-VDW
                           (   1   4  43  14   2   0   0)
     Any further DFT definition will be discarded
     Please, verify this is what you really want

  @ DRIVER MODE: Connecting to
 qe_1139763_2351649.sched-torque.pace.gatech.eduz9tl9mu6_scratch
  using UNIX socket
  @ DRIVER MODE: Message from server: STATUS
  @ DRIVER MODE: Message from server: INIT
  @ DRIVER MODE: Receiving replica           0          -1
  @ DRIVER MODE: Receiving encoded integer          25
  @ DRIVER MODE:  SCF:  T  FORCE:  T  STRESS:  F  VC:  F  ENSEMBLE:  F
  @ DRIVER MODE:  SCF:  T  FORCE:  T  STRESS:  F  VC:  F  ENSEMBLE:  F

     Using Slab Decomposition

     bravais-lattice index     =            0
     lattice parameter (alat)  =       1.8897  a.u.
     unit-cell volume          =    6658.9804 (a.u.)^3
     number of atoms/cell      =           53
     number of atomic types    =            5
     number of electrons       =       391.00
     number of Kohn-Sham states=          205
     kinetic-energy cutoff     =      29.3995  Ry
     charge density cutoff     =     293.9946  Ry
     scf convergence threshold =      7.3E-08
     mixing beta               =       0.0500
     number of iterations used =            8  plain     mixing
     Exchange-correlation= BEEF-VDW
                           (   1   4  43  14   2   0   0)

     celldm(1)=   1.889726  celldm(2)=   0.000000  celldm(3)=   0.000000
     celldm(4)=   0.000000  celldm(5)=   0.000000  celldm(6)=   0.000000

     crystal axes: (cart. coord. in units of alat)
               a(1) = (   6.579727   0.000000   0.000000 )
               a(2) = (  -0.000775   5.961596   0.000000 )
               a(3) = (   0.000000   0.000000  25.155947 )

     reciprocal axes: (cart. coord. in units 2 pi/alat)
               b(1) = (  0.151982  0.000020  0.000000 )
               b(2) = (  0.000000  0.167740  0.000000 )
               b(3) = (  0.000000  0.000000  0.039752 )

     PseudoPot. # 1 for Ti read from file:
     /storage/coda1/p-amedford6/0/shared/rich_project_chbe-medford/medford-share/data/pseudos_module/espresso/nninc/pbe/van/Ti.UPF
     MD5 check sum: 8e4df49b7f0d34bbd5052bf3f5ea0213
     Pseudo is Ultrasoft, Zval = 12.0
     Generated by new atomic code, or converted to UPF format
     Using radial grid of  851 points,  6 beta functions with:
                l(1) =   0
                l(2) =   0
                l(3) =   1
                l(4) =   1
                l(5) =   2
                l(6) =   2
     Q(r) pseudized with  8 coefficients,  rinner =    1.000   1.000   1.000
                                                       1.000   1.000

     PseudoPot. # 2 for O  read from file:
     /storage/coda1/p-amedford6/0/shared/rich_project_chbe-medford/medford-share/data/pseudos_module/espresso/nninc/pbe/van/O.UPF
     MD5 check sum: 78c19812648e8988a0fe644b0f25305e
     Pseudo is Ultrasoft, Zval =  6.0
     Generated by new atomic code, or converted to UPF format
     Using radial grid of  737 points,  4 beta functions with:
                l(1) =   0
                l(2) =   0
                l(3) =   1
                l(4) =   1
     Q(r) pseudized with  8 coefficients,  rinner =    0.800   0.800   0.800

     PseudoPot. # 3 for H  read from file:
     /storage/coda1/p-amedford6/0/shared/rich_project_chbe-medford/medford-share/data/pseudos_module/espresso/nninc/pbe/van/H.UPF
     MD5 check sum: b5ee9d7bfd3a09ee7748110bda690ff7
     Pseudo is Ultrasoft, Zval =  1.0
     Generated by new atomic code, or converted to UPF format
     Using radial grid of  615 points,  1 beta functions with:
                l(1) =   0
     Q(r) pseudized with  8 coefficients,  rinner =    0.800

     PseudoPot. # 4 for N  read from file:
     /storage/coda1/p-amedford6/0/shared/rich_project_chbe-medford/medford-share/data/pseudos_module/espresso/nninc/pbe/van/N.UPF
     MD5 check sum: 90d10febe142ad51ac9d5be1deb811c4
     Pseudo is Ultrasoft, Zval =  5.0
     Generated by new atomic code, or converted to UPF format
     Using radial grid of  729 points,  4 beta functions with:
                l(1) =   0
                l(2) =   0
                l(3) =   1
                l(4) =   1
     Q(r) pseudized with  8 coefficients,  rinner =    0.800   0.800   0.800

     PseudoPot. # 5 for C  read from file:
     /storage/coda1/p-amedford6/0/shared/rich_project_chbe-medford/medford-share/data/pseudos_module/espresso/nninc/pbe/van/C.UPF
     MD5 check sum: 1a69bf6b8db32088f5b2163dbdb77a27
     Pseudo is Ultrasoft, Zval =  4.0
     Generated by new atomic code, or converted to UPF format
     Using radial grid of  721 points,  4 beta functions with:
                l(1) =   0
                l(2) =   0
                l(3) =   1
                l(4) =   1
     Q(r) pseudized with  8 coefficients,  rinner =    0.800   0.800   0.800

     atomic species   valence    mass     pseudopotential
        Ti1           12.00    47.86700     Ti( 1.00)
        O1             6.00    15.99900     O ( 1.00)
        H1             1.00     1.00800     H ( 1.00)
        N1             5.00    14.00700     N ( 1.00)
        C1             4.00    12.01100     C ( 1.00)

     Starting magnetic structure
     atomic species   magnetization
        Ti1          0.000
        O1           0.000
        H1           0.000
        N1           0.000
        C1           0.025

     No symmetry found

   Cartesian axes

     site n.     atom                  positions (alat units)
         1           Ti1 tau(   1) = (   0.0004258   2.9801865   6.0000000  )
         2           Ti1 tau(   2) = (   3.2906075   1.4906267   6.0002472  )
         3           O1  tau(   3) = (   0.0006271   0.0005054   7.9858123  )
         4           O1  tau(   4) = (   3.2906025   0.0005020   7.3038282  )
         5           O1  tau(   5) = (   4.5942328   1.4918067   9.2879030  )
         6           O1  tau(   6) = (   1.9868534   1.4903216   9.2879459  )
         7           Ti1 tau(   7) = (   3.2907910   2.8959150   9.1758416  )
         8           Ti1 tau(   8) = (   0.0015273   1.4827037   9.2680791  )
         9           O1  tau(   9) = (   3.2906183   5.9580730  11.3246990  )
        10           O1  tau(  10) = (   0.0116148   5.9584955  10.6183126  )
        11           O1  tau(  11) = (   1.3160896   1.4863360  12.6200149  )
        12           O1  tau(  12) = (   5.2947061   1.4800608  12.6053981  )
        13           Ti1 tau(  13) = (   6.5224157   2.9421717  12.6196007  )
        14           Ti1 tau(  14) = (   3.2076970   1.4879367  12.4696142  )
        15           O1  tau(  15) = (   6.5517659   0.0158556  14.6493665  )
        16           O1  tau(  16) = (   3.3109316   0.0069331  13.9179417  )
        17           O1  tau(  17) = (   4.5083530   1.5297238  16.0872293  )
        18           O1  tau(  18) = (   2.0274073   1.5273405  16.0409094  )
        19           Ti1 tau(  19) = (   3.2920608   3.0081397  15.6838061  )
        20           Ti1 tau(  20) = (   0.0536170   1.5416865  15.8648894  )
        21           O1  tau(  21) = (   3.2904802   0.0005063   4.7018136  )
        22           O1  tau(  22) = (   0.0122827   0.0301012  17.2134340  )
        23           O1  tau(  23) = (   1.3043587   1.4918075   6.0039043  )
        24           O1  tau(  24) = (   5.2767064   1.4903225   6.0039473  )
        25           Ti1 tau(  25) = (   0.0000382   5.9609847   6.0000000  )
        26           Ti1 tau(  26) = (   3.2902200   4.4714249   6.0002472  )
        27           O1  tau(  27) = (   0.0002396   2.9813036   7.9858123  )
        28           O1  tau(  28) = (   3.2902150   2.9813002   7.3038282  )
        29           O1  tau(  29) = (   4.5938453   4.4726049   9.2879030  )
        30           O1  tau(  30) = (   1.9864658   4.4711199   9.2879459  )
        31           Ti1 tau(  31) = (   3.2891106   5.8743827   9.1763621  )
        32           Ti1 tau(  32) = (   0.0006254   4.4649316   9.2693709  )
        33           O1  tau(  33) = (   3.2866862   2.9837957  11.3234553  )
        34           O1  tau(  34) = (   0.0092240   2.9805883  10.6323155  )
        35           O1  tau(  35) = (   1.3095649   4.4762946  12.6335636  )
        36           O1  tau(  36) = (   5.2963019   4.4650584  12.6194355  )
        37           Ti1 tau(  37) = (   6.5192018   5.9199268  12.5733442  )
        38           Ti1 tau(  38) = (   3.2055211   4.4685508  12.4747853  )
        39           O1  tau(  39) = (   6.5624772   2.9349094  14.6472044  )
        40           O1  tau(  40) = (   3.3065106   2.9879112  13.8942307  )
        41           O1  tau(  41) = (   4.5199725   4.4841037  16.0899424  )
        42           O1  tau(  42) = (   2.0389375   4.4882992  16.0664246  )
        43           Ti1 tau(  43) = (   3.3279474   0.0221627  15.7114356  )
        44           Ti1 tau(  44) = (   0.0314192   4.6578676  16.1055029  )
        45           O1  tau(  45) = (   3.2900926   2.9813045   4.7018136  )
        46           O1  tau(  46) = (   1.3039711   4.4726057   6.0039043  )
        47           O1  tau(  47) = (   5.2763189   4.4711207   6.0039473  )
        48           H1  tau(  48) = (   5.5751926   2.9245997  17.7795037  )
        49           N1  tau(  49) = (   6.5345126   2.9709300  17.4463781  )
        50           C1  tau(  50) = (   0.8205834   2.9192471  18.6315588  )
        51           H1  tau(  51) = (   0.6379014   3.7726647  19.2931901  )
        52           H1  tau(  52) = (   0.6616828   1.9803841  19.1881566  )
        53           H1  tau(  53) = (   1.8691752   2.9530840  18.3388921  )

     number of k points=    10  Fermi-Dirac smearing, width (Ry)=  0.0073
                       cart. coord. in units 2pi/alat
        k(    1) = (   0.0000000   0.0000000   0.0000000), wk =   0.0625000
        k(    2) = (   0.0000000   0.0419351   0.0000000), wk =   0.1250000
        k(    3) = (   0.0000000  -0.0838702   0.0000000), wk =   0.0625000
        k(    4) = (   0.0379955   0.0000049   0.0000000), wk =   0.1250000
        k(    5) = (   0.0379955   0.0419400   0.0000000), wk =   0.1250000
        k(    6) = (   0.0379955  -0.0838652   0.0000000), wk =   0.1250000
        k(    7) = (   0.0379955  -0.0419301   0.0000000), wk =   0.1250000
        k(    8) = (  -0.0759910  -0.0000099   0.0000000), wk =   0.0625000
[...]

     Initial potential from superposition of free atoms

     starting charge  374.99916, renormalised to  391.00000

     negative rho (up, down):  8.888E-03 8.896E-03

     %%%%%%%%%%%%%%%%%%%%%%%%%%%%%%%%%%%%%%%%%%%%%%%%%%%%%%%%%%%%%%%%%%%%%%%%
     %                                                                      %
     % You are using vdW-DF, which was implemented by the Thonhauser group. %
     % Please cite the following two papers that made this development      %
     % possible and the two reviews that describe the various versions:     %
     %                                                                      %
     %   T. Thonhauser et al., PRL 115, 136402 (2015).                      %
     %   T. Thonhauser et al., PRB 76, 125112 (2007).                       %
     %   K. Berland et al., Rep. Prog. Phys. 78, 066501 (2015).             %
     %   D.C. Langreth et al., J. Phys.: Condens. Matter 21, 084203 (2009). %
     %                                                                      %
     %                                                                      %
     % If you are calculating the stress with vdW-DF, please also cite:     %
     %                                                                      %
     %   R. Sabatini et al., J. Phys.: Condens. Matter 24, 424209 (2012).   %
     %                                                                      %
     %%%%%%%%%%%%%%%%%%%%%%%%%%%%%%%%%%%%%%%%%%%%%%%%%%%%%%%%%%%%%%%%%%%%%%%%

     Adding external electric field

     Computed dipole along edir(3) :
        Dipole               -5.8162 Ry au,        -14.7834 Debye
        Dipole field         -0.0110 Ry au,

        Potential amp.        1.0175 Ry
        Total length         46.3494 bohr

[...]

     Starting wfcs are  296 atomic wfcs
  @ DRIVER MODE: Message from server: STATUS
  @ DRIVER MODE: Message from server: POSDATA
  @ DRIVER MODE: Reading and sharing cell
  @ DRIVER MODE: Reading and sharing positions
  @ DRIVER MODE: Received positions

     Self-consistent Calculation

     iteration #  1     ecut=    29.40 Ry     beta= 0.05
     Davidson diagonalization with overlap
     c_bands:  3 eigenvalues not converged
     c_bands:  1 eigenvalues not converged
     c_bands:  1 eigenvalues not converged
     c_bands:  2 eigenvalues not converged
     c_bands:  4 eigenvalues not converged
     c_bands:  2 eigenvalues not converged
     c_bands:  1 eigenvalues not converged
     c_bands:  1 eigenvalues not converged
     c_bands:  2 eigenvalues not converged
     c_bands:  3 eigenvalues not converged
     c_bands:  1 eigenvalues not converged
     c_bands:  1 eigenvalues not converged
     c_bands:  3 eigenvalues not converged
     c_bands:  4 eigenvalues not converged
     c_bands:  3 eigenvalues not converged
     c_bands:  1 eigenvalues not converged
     c_bands:  1 eigenvalues not converged
     c_bands:  2 eigenvalues not converged
     ethr =  1.00E-05,  avg # of iterations = 19.5

[...]

     total energy              =   -2770.73931346 Ry
     estimated scf accuracy    <    1640.80573117 Ry

     total magnetization       =     0.01 Bohr mag/cell
     absolute magnetization    =     0.03 Bohr mag/cell

[...]

     iteration #  3     ecut=    29.40 Ry     beta= 0.05
     Davidson diagonalization with overlap
     ethr =  1.00E-02,  avg # of iterations = 15.1

[...]

     iteration # 66     ecut=    29.40 Ry     beta= 0.05
     Davidson diagonalization with overlap
     c_bands:  1 eigenvalues not converged
     c_bands:  1 eigenvalues not converged
     ethr =  4.49E-11,  avg # of iterations = 14.6

[...]

     total energy              =   -2920.42454337 Ry
     estimated scf accuracy    <       0.00000008 Ry

[...]

     iteration # 71     ecut=    29.40 Ry     beta= 0.05
     Davidson diagonalization with overlap
     ethr =  1.92E-11,  avg # of iterations =  4.8

     negative rho (up, down):  9.088E-03 9.087E-03

[...]

     Adding external electric field

     Computed dipole along edir(3) :
        Dipole                0.6821 Ry au,          1.7337 Debye
        Dipole field          0.0013 Ry au,

        Potential amp.       -0.1193 Ry
        Total length         46.3494 bohr

     Magnetic moment per site  (integrated on atomic sphere of radius R)
     atom   1 (R=0.715)  charge=  7.8451  magn= -0.0030
     atom   2 (R=0.715)  charge=  7.8288  magn= -0.0000
     atom   3 (R=0.715)  charge=  4.8552  magn=  0.0003
     atom   4 (R=0.715)  charge=  4.8904  magn=  0.0000
     atom   5 (R=0.715)  charge=  4.8609  magn=  0.0001
     atom   6 (R=0.715)  charge=  4.8616  magn=  0.0001
     atom   7 (R=0.715)  charge=  7.8276  magn= -0.0001
     atom   8 (R=0.715)  charge=  7.8194  magn= -0.0010
     atom   9 (R=0.715)  charge=  4.8766  magn=  0.0000
     atom  10 (R=0.715)  charge=  4.8485  magn=  0.0001
     atom  11 (R=0.715)  charge=  4.8623  magn=  0.0000
     atom  12 (R=0.715)  charge=  4.8618  magn=  0.0000
     atom  13 (R=0.715)  charge=  7.8171  magn= -0.0002
     atom  14 (R=0.715)  charge=  7.8304  magn= -0.0000
     atom  15 (R=0.715)  charge=  4.8497  magn=  0.0000
     atom  16 (R=0.715)  charge=  4.8722  magn=  0.0000
     atom  17 (R=0.715)  charge=  4.8476  magn=  0.0000
     atom  18 (R=0.715)  charge=  4.8546  magn=  0.0000
     atom  19 (R=0.715)  charge=  7.8557  magn= -0.0000
     atom  20 (R=0.715)  charge=  7.8308  magn= -0.0000
     atom  21 (R=0.715)  charge=  4.7478  magn= -0.0001
     atom  22 (R=0.715)  charge=  4.8259  magn=  0.0000
     atom  23 (R=0.715)  charge=  4.8532  magn=  0.0003
     atom  24 (R=0.715)  charge=  4.8532  magn=  0.0003
     atom  25 (R=0.715)  charge=  7.8452  magn= -0.0030
     atom  26 (R=0.715)  charge=  7.8288  magn= -0.0000
     atom  27 (R=0.715)  charge=  4.8545  magn=  0.0003
     atom  28 (R=0.715)  charge=  4.8906  magn=  0.0000
     atom  29 (R=0.715)  charge=  4.8616  magn=  0.0001
     atom  30 (R=0.715)  charge=  4.8623  magn=  0.0001
     atom  31 (R=0.715)  charge=  7.8277  magn= -0.0001
     atom  32 (R=0.715)  charge=  7.8194  magn= -0.0009
     atom  33 (R=0.715)  charge=  4.8755  magn=  0.0000
     atom  34 (R=0.715)  charge=  4.8371  magn=  0.0001
     atom  35 (R=0.715)  charge=  4.8620  magn=  0.0000
     atom  36 (R=0.715)  charge=  4.8623  magn=  0.0000
     atom  37 (R=0.715)  charge=  7.8196  magn= -0.0002
     atom  38 (R=0.715)  charge=  7.8304  magn= -0.0000
     atom  39 (R=0.715)  charge=  4.8445  magn=  0.0000
     atom  40 (R=0.715)  charge=  4.8783  magn=  0.0000
     atom  41 (R=0.715)  charge=  4.8510  magn=  0.0000
     atom  42 (R=0.715)  charge=  4.8518  magn=  0.0000
     atom  43 (R=0.715)  charge=  7.8536  magn= -0.0000
     atom  44 (R=0.715)  charge=  7.8554  magn= -0.0000
     atom  45 (R=0.715)  charge=  4.7478  magn= -0.0001
     atom  46 (R=0.715)  charge=  4.8532  magn=  0.0003
     atom  47 (R=0.715)  charge=  4.8532  magn=  0.0003
     atom  48 (R=0.419)  charge=  0.4545  magn=  0.0000
     atom  49 (R=0.419)  charge=  1.3288  magn= -0.0000
     atom  50 (R=0.449)  charge=  0.8444  magn=  0.0000
     atom  51 (R=0.419)  charge=  0.4419  magn= -0.0000
     atom  52 (R=0.419)  charge=  0.4361  magn= -0.0000
     atom  53 (R=0.419)  charge=  0.4478  magn= -0.0000

     End of self-consistent calculation

 ------ SPIN UP ------------

          k = 0.0000 0.0000 0.0000 ( 18029 PWs)   bands (ev):

   -55.9936 -55.9888 -55.9595 -55.9527 -55.9035 -55.8390 -55.8386 -55.8042
   -55.7989 -55.7650 -55.7600 -55.7263 -55.5402 -55.2728 -54.9686 -54.9345
   -32.5476 -32.4765 -32.3507 -32.3404 -32.3161 -32.2976 -32.2860 -32.2510
   -32.2365 -32.2345 -32.2125 -32.2051 -32.1713 -32.1449 -32.1407 -32.1348
   -32.1311 -32.0984 -32.0777 -32.0499 -32.0490 -32.0410 -32.0264 -31.9990
   -31.9919 -31.9913 -31.9854 -31.9777 -31.9632 -31.9582 -31.9544 -31.9443
   -31.9360 -31.9287 -31.9130 -31.9061 -31.8725 -31.8094 -31.7112 -31.5475
   -31.5426 -31.4678 -31.3753 -31.2874 -31.2650 -31.1919 -31.1054 -30.9945
   -16.7565 -16.4733 -16.2938 -16.1507 -16.1185 -16.0330 -15.8322 -15.7055
   -15.6932 -15.5895 -15.5565 -15.5304 -15.5236 -15.4972 -15.4921 -15.4312
   -15.4292 -15.4157 -15.4064 -15.3494 -15.3248 -15.2716 -15.1922 -15.1591
   -15.1537 -15.1262 -15.0441 -15.0391 -14.5857 -14.1749 -13.4705 -13.3542
    -8.9135  -4.3497  -4.1275  -3.9532  -3.9139  -3.8983  -3.8484  -3.5942
    -3.5793  -3.3252  -3.2283  -3.1924  -3.1787  -3.1695  -3.1494  -3.1386
    -2.8920  -2.8253  -2.8101  -2.7879  -2.7804  -2.7742  -2.7619  -2.7616
    -2.7221  -2.6595  -2.5335  -2.4974  -2.4204  -2.3834  -2.3526  -2.3053
    -2.2615  -2.2543  -2.2432  -2.2246  -2.2119  -2.1882  -2.1718  -2.0379
    -1.9717  -1.8362  -1.8018  -1.7818  -1.5964  -1.5380  -1.4732  -1.4342
    -1.4212  -1.4140  -1.3822  -1.3006  -1.2092  -1.1530  -1.1426  -1.0865
    -1.0091  -0.9977  -0.8897  -0.8843  -0.8561  -0.7670  -0.7567  -0.7455
    -0.7262  -0.6580  -0.5562  -0.4808  -0.4358  -0.4057  -0.3748  -0.3054
    -0.2753  -0.1731  -0.1574  -0.1083  -0.1041  -0.0626  -0.0175  -0.0080
     0.0009   0.0088   0.0340   0.1765   0.2874   0.3423   0.3830   0.3891
     0.5431   0.5704   0.6677   0.7559   0.9810   1.0539   1.1468   1.2466
     1.3223   1.6246   1.6701   3.1489   3.2293   3.2809   3.2887   3.3918
     3.3966   3.5984   3.6068   3.6199   3.6870

[...]

          k =-0.0760-0.0000 0.0000 ( 17886 PWs)   bands (ev):

[...]

 ------ SPIN DOWN ----------

[...]

          k = 0.0380-0.0419 0.0000 ( 17876 PWs)   bands (ev):

[...]

          k =-0.0760-0.0839 0.0000 ( 17948 PWs)   bands (ev):

   -55.9824 -55.9818 -55.9720 -55.9693 -55.8985 -55.8439 -55.8225 -55.8210
   -55.7846 -55.7827 -55.7441 -55.7430 -55.5393 -55.2737 -54.9514 -54.9513
   -32.3526 -32.3490 -32.2943 -32.2938 -32.2820 -32.2782 -32.2774 -32.2611
   -32.1993 -32.1982 -32.1933 -32.1889 -32.1655 -32.1344 -32.1196 -32.1154
   -32.1023 -32.1023 -32.1016 -32.1009 -32.0957 -32.0838 -32.0815 -32.0498
   -32.0421 -32.0410 -32.0116 -32.0005 -31.9811 -31.9806 -31.9767 -31.9757
   -31.9589 -31.9582 -31.9574 -31.9544 -31.8786 -31.8119 -31.7067 -31.6121
   -31.5445 -31.4924 -31.2777 -31.2776 -31.1879 -31.1877 -31.1486 -31.1486
   -16.2102 -16.1751 -15.9383 -15.9270 -15.9203 -15.9046 -15.7589 -15.7120
   -15.7004 -15.6933 -15.6705 -15.6475 -15.5899 -15.5610 -15.5320 -15.5233
   -15.5172 -15.5151 -15.4533 -15.4482 -15.4250 -15.4182 -15.3046 -15.3008
   -15.2914 -15.2154 -15.1608 -15.0211 -14.7474 -14.1983 -13.4566 -13.4566
    -8.9182  -4.3609  -3.5043  -3.4642  -3.2743  -3.2452  -3.1791  -3.1625
    -3.1382  -3.0700  -2.9059  -2.8890  -2.8776  -2.8623  -2.8203  -2.8140
    -2.8037  -2.7912  -2.7844  -2.7654  -2.7320  -2.6993  -2.6606  -2.6533
    -2.6446  -2.6198  -2.6087  -2.5870  -2.5753  -2.5444  -2.5354  -2.5178
    -2.4883  -2.2266  -2.2068  -2.1958  -2.1246  -2.1180  -2.0845  -2.0667
    -2.0569  -2.0437  -1.9865  -1.8828  -1.7259  -1.6943  -1.6828  -1.6690
    -1.5852  -1.5763  -1.4230  -1.4015  -1.3818  -1.3445  -1.2903  -1.2681
    -1.2275  -1.1683  -1.1510  -1.0876  -1.0699  -1.0116  -0.9562  -0.9545
    -0.9332  -0.8580  -0.7766  -0.7612  -0.7479  -0.7086  -0.6985  -0.6117
    -0.5879  -0.4948  -0.4805  -0.4219  -0.3974  -0.2955  -0.1346  -0.0119
     0.0418   0.0678   0.1253   0.2238   0.2685   0.2798   0.3242   0.3303
     0.3919   0.4321   0.5455   0.5514   0.6262   0.7174   1.2587   1.4178
     1.4185   1.4893   1.4893   3.4103   3.4154   3.4627   3.4920   3.6455
     3.6500   3.6726   3.6739   3.7988   3.8156

     the Fermi energy is     3.1402 ev

!    total energy              =   -2920.42455769 Ry
     estimated scf accuracy    <       0.00000005 Ry
     smearing contrib. (-TS)   =      -0.02203285 Ry
     internal energy E=F+TS    =   -2920.40252484 Ry

     The total energy is F=E-TS. E is the sum of the following terms:
     one-electron contribution =  -24701.68718937 Ry
     hartree contribution      =   12435.44436781 Ry
     xc contribution           =    -480.86600792 Ry
     ewald contribution        =    9826.70542668 Ry
     electric field correction =       0.00087795 Ry

     total magnetization       =    -0.01 Bohr mag/cell
     absolute magnetization    =     0.02 Bohr mag/cell

     convergence has been achieved in  71 iterations

     Forces acting on atoms (cartesian axes, Ry/au):

     atom    1 type  1   force =     0.00010858   -0.00026321    0.09689034
     atom    2 type  1   force =     0.00001556   -0.00055529   -0.17507557
     atom    3 type  2   force =     0.00013463   -0.00007941   -0.02545590
     atom    4 type  2   force =    -0.00000690   -0.00137110    0.05230586
     atom    5 type  2   force =    -0.01236259   -0.00013360    0.00303296
     atom    6 type  2   force =     0.01378097    0.00023311    0.00239640
     atom    7 type  1   force =     0.00059741    0.00032746   -0.01266615
     atom    8 type  1   force =     0.00047199    0.00593762    0.03105603
     atom    9 type  2   force =    -0.00033497    0.00024041    0.00041394
     atom   10 type  2   force =    -0.00269623    0.00069381   -0.01624861
     atom   11 type  2   force =    -0.00040175    0.00012564    0.00016429
     atom   12 type  2   force =     0.00013471    0.00013629    0.00019076
     atom   13 type  1   force =    -0.00013814    0.00022093    0.00023488
     atom   14 type  1   force =    -0.00002478   -0.00020856   -0.00014313
     atom   15 type  2   force =     0.00020876    0.00009727    0.00033094
     atom   16 type  2   force =    -0.00006481    0.00027403    0.00022591
     atom   17 type  2   force =    -0.00006376   -0.00021013   -0.00024527
     atom   18 type  2   force =     0.00033814   -0.00010539    0.00022684
     atom   19 type  1   force =    -0.00004360    0.00021176   -0.00001903
     atom   20 type  1   force =    -0.00004413   -0.00003928   -0.00039049
     atom   21 type  2   force =     0.00006624   -0.00005702    0.10311264
     atom   22 type  2   force =    -0.00012545    0.00002752    0.00027643
     atom   23 type  2   force =    -0.07161849   -0.00015825   -0.02783531
     atom   24 type  2   force =     0.07154292    0.00032439   -0.02789618
     atom   25 type  1   force =     0.00011397   -0.00024153    0.09667848
     atom   26 type  1   force =     0.00012084   -0.00031953   -0.17524387
     atom   27 type  2   force =     0.00013374   -0.00023317   -0.02453331
     atom   28 type  2   force =     0.00002718   -0.00112915    0.05222381
     atom   29 type  2   force =    -0.01248417    0.00014637    0.00268647
     atom   30 type  2   force =     0.01379121    0.00069232    0.00203158
     atom   31 type  1   force =     0.00050027    0.00289367   -0.01338136
     atom   32 type  1   force =     0.00030306   -0.00821514    0.03147262
     atom   33 type  2   force =    -0.00005789   -0.00006518   -0.00009768
     atom   34 type  2   force =    -0.00184018    0.00055935   -0.02457016
     atom   35 type  2   force =    -0.00013087    0.00010189    0.00004360
     atom   36 type  2   force =    -0.00024962    0.00020433    0.00011706
     atom   37 type  1   force =    -0.00007902    0.00027716    0.00022845
     atom   38 type  1   force =    -0.00023157   -0.00003601   -0.00015764
     atom   39 type  2   force =     0.00005914    0.00022300   -0.00015709
     atom   40 type  2   force =    -0.00016694    0.00027031   -0.00015383
     atom   41 type  2   force =     0.00005748    0.00006403    0.00021958
     atom   42 type  2   force =    -0.00010366   -0.00000997    0.00037325
     atom   43 type  1   force =    -0.00019256   -0.00018559    0.00050850
     atom   44 type  1   force =     0.00032094   -0.00022863    0.00011031
     atom   45 type  2   force =     0.00004893   -0.00006474    0.10312030
     atom   46 type  2   force =    -0.07162754   -0.00008765   -0.02783071
     atom   47 type  2   force =     0.07155923    0.00033561   -0.02790747
     atom   48 type  3   force =    -0.00048728    0.00021016    0.00002374
     atom   49 type  4   force =     0.00054692   -0.00035865   -0.00023675
     atom   50 type  5   force =     0.00008148   -0.00795579    0.00346886
     atom   51 type  3   force =    -0.00076743   -0.00197421    0.00005093
     atom   52 type  3   force =     0.00167863    0.00964090   -0.00420389
     atom   53 type  3   force =    -0.00039864   -0.00018312    0.00023363

     Total force =     0.368624     Total SCF correction =     0.000526
  @ DRIVER MODE: Message from server: STATUS
  @ DRIVER MODE: Message from server: GETFORCE
  @ DRIVER MODE: Returning v,forces,stress,ensemble

     Writing output data file ./calc.save/
  @ DRIVER MODE: Message from server: EXIT
  @ DRIVE MODE: Exiting

     General routines

     Parallel routines

   This run was terminated on:   6:27:51  16Jul2021

   JOB DONE.