     Program PWSCF v.6.7GPU starts on 23Sep2021 at  1:35:33

     R & G space division:  proc/nbgrp/npool/nimage =       8
     Reading input from /storage/home/hcoda1/3/ntian30/research/carbon/CxH_vib/H2O_calc/ads_slab/CH2OHO_c/out_0009/pw.inp
Warning: card &CELL ignored
Warning: card   CELL_DYNAMICS='IPI', ignored
Warning: card / ignored

     Current dimensions of program PWSCF are:
     Max number of different atomic species (ntypx) = 10
     Max number of k-points (npk) =  40000
     Max angular momentum in pseudopotentials (lmaxx) =  3
     Presently no symmetry can be used with electric field

     Message from routine cell_base_init:
     DEPRECATED: use true lattice parameter, not A to a.u. conversion factor

     IMPORTANT: XC functional enforced from input :
     Exchange-correlation= BEEF-VDW
                           (   1   4  43  14   2   0   0)
     Any further DFT definition will be discarded
     Please, verify this is what you really want

  @ DRIVER MODE: Connecting to
 qe_1139763_2941011.sched-torque.pace.gatech.eduvn9egyx1_scratch
  using UNIX socket
  @ DRIVER MODE: Message from server: STATUS
  @ DRIVER MODE: Message from server: INIT
  @ DRIVER MODE: Receiving replica           0          -1
  @ DRIVER MODE: Receiving encoded integer          25
  @ DRIVER MODE:  SCF:  T  FORCE:  T  STRESS:  F  VC:  F  ENSEMBLE:  F
  @ DRIVER MODE:  SCF:  T  FORCE:  T  STRESS:  F  VC:  F  ENSEMBLE:  F

     Using Slab Decomposition

     bravais-lattice index     =            0
     lattice parameter (alat)  =       1.8897  a.u.
     unit-cell volume          =    6658.9804 (a.u.)^3
     number of atoms/cell      =           53
     number of atomic types    =            4
     number of electrons       =       397.00
     number of Kohn-Sham states=          208
     kinetic-energy cutoff     =      29.3995  Ry
     charge density cutoff     =     293.9946  Ry
     scf convergence threshold =      7.3E-08
     mixing beta               =       0.0500
     number of iterations used =            8  plain     mixing
     Exchange-correlation= BEEF-VDW
                           (   1   4  43  14   2   0   0)

     celldm(1)=   1.889726  celldm(2)=   0.000000  celldm(3)=   0.000000
     celldm(4)=   0.000000  celldm(5)=   0.000000  celldm(6)=   0.000000

     crystal axes: (cart. coord. in units of alat)
               a(1) = (   6.579727   0.000000   0.000000 )
               a(2) = (  -0.000775   5.961596   0.000000 )
               a(3) = (   0.000000   0.000000  25.155947 )

     reciprocal axes: (cart. coord. in units 2 pi/alat)
               b(1) = (  0.151982  0.000020  0.000000 )
               b(2) = (  0.000000  0.167740  0.000000 )
               b(3) = (  0.000000  0.000000  0.039752 )

     PseudoPot. # 1 for O  read from file:
     /storage/coda1/p-amedford6/0/shared/rich_project_chbe-medford/medford-share/data/pseudos_module/espresso/nninc/pbe/van/O.UPF
     MD5 check sum: 78c19812648e8988a0fe644b0f25305e
     Pseudo is Ultrasoft, Zval =  6.0
     Generated by new atomic code, or converted to UPF format
     Using radial grid of  737 points,  4 beta functions with:
                l(1) =   0
                l(2) =   0
                l(3) =   1
                l(4) =   1
     Q(r) pseudized with  8 coefficients,  rinner =    0.800   0.800   0.800

     PseudoPot. # 2 for Ti read from file:
     /storage/coda1/p-amedford6/0/shared/rich_project_chbe-medford/medford-share/data/pseudos_module/espresso/nninc/pbe/van/Ti.UPF
     MD5 check sum: 8e4df49b7f0d34bbd5052bf3f5ea0213
     Pseudo is Ultrasoft, Zval = 12.0
     Generated by new atomic code, or converted to UPF format
     Using radial grid of  851 points,  6 beta functions with:
                l(1) =   0
                l(2) =   0
                l(3) =   1
                l(4) =   1
                l(5) =   2
                l(6) =   2
     Q(r) pseudized with  8 coefficients,  rinner =    1.000   1.000   1.000
                                                       1.000   1.000

     PseudoPot. # 3 for C  read from file:
     /storage/coda1/p-amedford6/0/shared/rich_project_chbe-medford/medford-share/data/pseudos_module/espresso/nninc/pbe/van/C.UPF
     MD5 check sum: 1a69bf6b8db32088f5b2163dbdb77a27
     Pseudo is Ultrasoft, Zval =  4.0
     Generated by new atomic code, or converted to UPF format
     Using radial grid of  721 points,  4 beta functions with:
                l(1) =   0
                l(2) =   0
                l(3) =   1
                l(4) =   1
     Q(r) pseudized with  8 coefficients,  rinner =    0.800   0.800   0.800

     PseudoPot. # 4 for H  read from file:
     /storage/coda1/p-amedford6/0/shared/rich_project_chbe-medford/medford-share/data/pseudos_module/espresso/nninc/pbe/van/H.UPF
     MD5 check sum: b5ee9d7bfd3a09ee7748110bda690ff7
     Pseudo is Ultrasoft, Zval =  1.0
     Generated by new atomic code, or converted to UPF format
     Using radial grid of  615 points,  1 beta functions with:
                l(1) =   0
     Q(r) pseudized with  8 coefficients,  rinner =    0.800

     atomic species   valence    mass     pseudopotential
        O1             6.00    15.99900     O ( 1.00)
        Ti1           12.00    47.86700     Ti( 1.00)
        C1             4.00    12.01100     C ( 1.00)
        H1             1.00     1.00800     H ( 1.00)

     No symmetry found

   Cartesian axes

     site n.     atom                  positions (alat units)
         1           O1  tau(   1) = (   3.2904802   0.0005063   4.7018136  )
         2           O1  tau(   2) = (   3.2900926   2.9813045   4.7018136  )
         3           Ti1 tau(   3) = (   0.0004258   2.9801865   6.0000000  )
         4           Ti1 tau(   4) = (   0.0000382   5.9609847   6.0000000  )
         5           Ti1 tau(   5) = (   3.2906075   1.4906267   6.0002472  )
         6           Ti1 tau(   6) = (   3.2902200   4.4714249   6.0002472  )
         7           O1  tau(   7) = (   1.3043587   1.4918075   6.0039043  )
         8           O1  tau(   8) = (   1.3039711   4.4726057   6.0039043  )
         9           O1  tau(   9) = (   5.2767064   1.4903225   6.0039473  )
        10           O1  tau(  10) = (   5.2763189   4.4711207   6.0039473  )
        11           O1  tau(  11) = (   3.2906025   0.0005020   7.3038282  )
        12           O1  tau(  12) = (   3.2902150   2.9813002   7.3038282  )
        13           O1  tau(  13) = (   0.0006271   0.0005054   7.9858123  )
        14           O1  tau(  14) = (   0.0002396   2.9813036   7.9858123  )
        15           Ti1 tau(  15) = (   3.3202697   0.0919879   9.1698383  )
        16           Ti1 tau(  16) = (   3.3215697   3.0759731   9.1987478  )
        17           Ti1 tau(  17) = (   0.0419684   4.5271873   9.2680259  )
        18           Ti1 tau(  18) = (   0.0391189   1.6041453   9.3419098  )
        19           O1  tau(  19) = (   4.5942328   1.4918067   9.2879030  )
        20           O1  tau(  20) = (   4.5938453   4.4726049   9.2879030  )
        21           O1  tau(  21) = (   1.9868534   1.4903216   9.2879459  )
        22           O1  tau(  22) = (   1.9864658   4.4711199   9.2879459  )
        23           O1  tau(  23) = (   0.0125722   0.0097687  10.5830051  )
        24           O1  tau(  24) = (   0.0081120   2.9918398  10.5664780  )
        25           O1  tau(  25) = (   3.3077729   2.9680546  11.3050536  )
        26           O1  tau(  26) = (   3.3059260   0.0232323  11.3367354  )
        27           Ti1 tau(  27) = (   0.0233359   0.0627999  12.4784840  )
        28           Ti1 tau(  28) = (   3.3058864   4.6637881  12.6801991  )
        29           Ti1 tau(  29) = (   3.3037148   1.5793570  12.4293313  )
        30           Ti1 tau(  30) = (   0.0089448   3.0481173  12.7472709  )
        31           O1  tau(  31) = (   1.2933882   4.4692258  12.6303221  )
        32           O1  tau(  32) = (   1.2985301   1.4993897  12.6236677  )
        33           O1  tau(  33) = (   5.3274268   4.4793405  12.6275207  )
        34           O1  tau(  34) = (   5.3265499   1.4915365  12.6220616  )
        35           O1  tau(  35) = (   3.3295878   2.9786622  13.8932268  )
        36           O1  tau(  36) = (   3.3104420   5.9098017  13.9586718  )
        37           O1  tau(  37) = (   0.0385923   0.0024916  14.6531765  )
        38           O1  tau(  38) = (   0.0086518   2.9873893  14.7004014  )
        39           Ti1 tau(  39) = (   3.3201234   2.9526136  15.6695435  )
        40           Ti1 tau(  40) = (   3.4185286   5.9334276  16.2343674  )
        41           Ti1 tau(  41) = (   0.1049196   4.5923083  15.9423708  )
        42           Ti1 tau(  42) = (   0.0892020   1.3980244  15.8930203  )
        43           O1  tau(  43) = (   4.5900789   4.4270775  16.0984088  )
        44           O1  tau(  44) = (   4.5919070   1.5192920  16.0669747  )
        45           O1  tau(  45) = (   2.0372030   1.5514537  16.0349210  )
        46           O1  tau(  46) = (   2.0392294   4.4021701  16.0428288  )
        47           O1  tau(  47) = (   0.0638787   0.0130652  17.1658208  )
        48           O1  tau(  48) = (   6.5756481   2.9829514  17.4361268  )
        49           C1  tau(  49) = (   6.2652767   2.9603434  18.6584371  )
        50           H1  tau(  50) = (   6.1492679   3.9148029  19.1865895  )
        51           H1  tau(  51) = (   6.0998186   2.0156765  19.1535163  )
        52           O1  tau(  52) = (   3.1909063   0.0039016  18.0657888  )
        53           H1  tau(  53) = (   2.2823347   0.1153277  18.3895531  )

     number of k points=    10  Fermi-Dirac smearing, width (Ry)=  0.0073
                       cart. coord. in units 2pi/alat
        k(    1) = (   0.0000000   0.0000000   0.0000000), wk =   0.1250000
        k(    2) = (   0.0000000   0.0419351   0.0000000), wk =   0.2500000
        k(    3) = (   0.0000000  -0.0838702   0.0000000), wk =   0.1250000
        k(    4) = (   0.0379955   0.0000049   0.0000000), wk =   0.2500000
        k(    5) = (   0.0379955   0.0419400   0.0000000), wk =   0.2500000
        k(    6) = (   0.0379955  -0.0838652   0.0000000), wk =   0.2500000
        k(    7) = (   0.0379955  -0.0419301   0.0000000), wk =   0.2500000
        k(    8) = (  -0.0759910  -0.0000099   0.0000000), wk =   0.1250000
        k(    9) = (  -0.0759910   0.0419252   0.0000000), wk =   0.2500000
        k(   10) = (  -0.0759910  -0.0838800   0.0000000), wk =   0.1250000

     Initial potential from superposition of free atoms

     starting charge  380.99918, renormalised to  397.00000

     negative rho (up, down):  1.768E-02 0.000E+00

     %%%%%%%%%%%%%%%%%%%%%%%%%%%%%%%%%%%%%%%%%%%%%%%%%%%%%%%%%%%%%%%%%%%%%%%%
     %                                                                      %
     % You are using vdW-DF, which was implemented by the Thonhauser group. %
     % Please cite the following two papers that made this development      %
     % possible and the two reviews that describe the various versions:     %
     %                                                                      %
     %   T. Thonhauser et al., PRL 115, 136402 (2015).                      %
     %   T. Thonhauser et al., PRB 76, 125112 (2007).                       %
     %   K. Berland et al., Rep. Prog. Phys. 78, 066501 (2015).             %
     %   D.C. Langreth et al., J. Phys.: Condens. Matter 21, 084203 (2009). %
     %                                                                      %
     %                                                                      %
     % If you are calculating the stress with vdW-DF, please also cite:     %
     %                                                                      %
     %   R. Sabatini et al., J. Phys.: Condens. Matter 24, 424209 (2012).   %
     %                                                                      %
     %%%%%%%%%%%%%%%%%%%%%%%%%%%%%%%%%%%%%%%%%%%%%%%%%%%%%%%%%%%%%%%%%%%%%%%%

     Adding external electric field

     Computed dipole along edir(3) :
        Dipole               -8.4002 Ry au,        -21.3511 Debye
        Dipole field         -0.0159 Ry au,

        Potential amp.        1.4695 Ry
        Total length         46.3494 bohr

     Starting wfcs are  299 atomic wfcs
  @ DRIVER MODE: Message from server: STATUS
  @ DRIVER MODE: Message from server: POSDATA
  @ DRIVER MODE: Reading and sharing cell
  @ DRIVER MODE: Reading and sharing positions
  @ DRIVER MODE: Received positions

     Self-consistent Calculation

     iteration #  1     ecut=    29.40 Ry     beta= 0.05
     Davidson diagonalization with overlap
     c_bands:  1 eigenvalues not converged
     c_bands:  1 eigenvalues not converged
     c_bands:  1 eigenvalues not converged
     c_bands:  1 eigenvalues not converged
     ethr =  1.00E-05,  avg # of iterations = 18.2

[...]

     total energy              =   -2610.75150789 Ry
     estimated scf accuracy    <    3908.87093207 Ry

     iteration #  2     ecut=    29.40 Ry     beta= 0.05
     Davidson diagonalization with overlap
     ethr =  1.00E-02,  avg # of iterations = 23.6

[...]

     iteration # 50     ecut=    29.40 Ry     beta= 0.05
     Davidson diagonalization with overlap
     c_bands:  1 eigenvalues not converged
     c_bands:  1 eigenvalues not converged
     ethr =  2.03E-06,  avg # of iterations = 13.5

[...]

     total energy              =   -2963.78458330 Ry
     estimated scf accuracy    <       0.00000012 Ry

     iteration # 78     ecut=    29.40 Ry     beta= 0.05
     Davidson diagonalization with overlap
     ethr =  3.13E-11,  avg # of iterations =  4.7

     negative rho (up, down):  1.717E-02 0.000E+00

     Adding external electric field

     Computed dipole along edir(3) :
        Dipole                0.8853 Ry au,          2.2501 Debye
        Dipole field          0.0017 Ry au,

        Potential amp.       -0.1549 Ry
        Total length         46.3494 bohr

     End of self-consistent calculation

          k = 0.0000 0.0000 0.0000 ( 18029 PWs)   bands (ev):

   -55.9291 -55.8879 -55.7864 -55.7086 -55.6747 -55.6680 -55.6567 -55.6020
   -55.5653 -55.5449 -55.5230 -55.4868 -55.4662 -55.3746 -54.7740 -54.7400
   -32.3813 -32.2486 -32.2230 -32.1870 -32.1856 -32.1363 -32.1249 -32.0876
   -32.0685 -32.0155 -32.0125 -32.0044 -32.0006 -31.9930 -31.9743 -31.9575
   -31.9410 -31.9297 -31.8878 -31.8842 -31.8707 -31.8546 -31.8502 -31.8378
   -31.8102 -31.8062 -31.7783 -31.7717 -31.7694 -31.7591 -31.7472 -31.7414
   -31.7360 -31.7249 -31.7013 -31.6886 -31.6831 -31.6583 -31.6390 -31.6215
   -31.5806 -31.5794 -31.1764 -31.1005 -31.0772 -30.9934 -30.9075 -30.7962
   -20.2045 -16.5714 -16.4248 -16.2531 -16.0627 -15.9683 -15.9066 -15.6924
   -15.6378 -15.5396 -15.4184 -15.3834 -15.3392 -15.3127 -15.2948 -15.2804
   -15.2635 -15.2448 -15.2119 -15.1906 -15.1848 -15.1410 -15.0723 -15.0262
   -15.0178 -14.9779 -14.9191 -14.8774 -14.8399 -14.8001 -14.6235 -13.2748
   -13.1610  -9.4698  -5.7974  -5.7070  -4.1623  -3.7942  -3.7668  -3.7372
    -3.6516  -3.6132  -3.5088  -3.3444  -3.1628  -3.0350  -2.9448  -2.9272
    -2.8885  -2.7756  -2.7249  -2.6925  -2.6499  -2.6204  -2.6018  -2.5599
    -2.5372  -2.4969  -2.4640  -2.4359  -2.3446  -2.3375  -2.2771  -2.2164
    -2.1836  -2.1746  -2.1693  -2.1463  -2.1109  -2.0565  -2.0211  -1.9865
    -1.9490  -1.8314  -1.8136  -1.7978  -1.7252  -1.4839  -1.3537  -1.3136
    -1.2593  -1.2172  -1.1935  -1.1690  -1.1636  -1.1446  -1.1121  -1.0627
    -0.9595  -0.9014  -0.8310  -0.8249  -0.8085  -0.7458  -0.6660  -0.5951
    -0.5568  -0.5265  -0.5026  -0.4275  -0.4269  -0.3531  -0.3225  -0.2510
    -0.1365  -0.0888  -0.0651  -0.0466  -0.0341   0.0195   0.0660   0.1338
     0.1534   0.1694   0.1979   0.2777   0.2872   0.3101   0.3283   0.4246
     0.4889   0.4972   0.5659   0.6576   0.6905   0.7734   0.9014   0.9775
     1.2235   1.2480   1.3333   1.4635   1.8096   1.8536   3.2864   3.3571
     3.3944   3.4952   3.5780   3.5975   3.6757   3.7355   3.8230   3.8668

[...]

          k = 0.0380-0.0419 0.0000 ( 17876 PWs)   bands (ev):

[...]

          k =-0.0760-0.0000 0.0000 ( 17886 PWs)   bands (ev):

[...]

          k =-0.0760-0.0839 0.0000 ( 17948 PWs)   bands (ev):

   -55.9202 -55.8967 -55.7854 -55.6953 -55.6878 -55.6655 -55.6505 -55.6081
   -55.5662 -55.5471 -55.5116 -55.4983 -55.4630 -55.3776 -54.7575 -54.7563
   -32.2171 -32.2063 -32.1866 -32.1804 -32.1586 -32.0590 -32.0468 -32.0452
   -32.0299 -32.0182 -32.0110 -32.0037 -32.0013 -31.9562 -31.9504 -31.9230
   -31.9065 -31.9042 -31.8982 -31.8848 -31.8819 -31.8764 -31.8737 -31.8672
   -31.8576 -31.8438 -31.8209 -31.8116 -31.8037 -31.8009 -31.7735 -31.7631
   -31.7515 -31.7309 -31.7273 -31.7257 -31.7219 -31.7201 -31.6817 -31.6617
   -31.6240 -31.5832 -31.0906 -31.0895 -30.9908 -30.9891 -30.9508 -30.9494
   -20.1987 -16.5377 -15.9360 -15.8815 -15.7313 -15.7048 -15.6611 -15.6065
   -15.5481 -15.5064 -15.4963 -15.4605 -15.4414 -15.4168 -15.3953 -15.3674
   -15.3417 -15.2953 -15.2877 -15.2409 -15.2316 -15.2118 -15.1858 -15.1539
   -15.1000 -15.0868 -15.0672 -15.0353 -15.0141 -14.9255 -14.7601 -13.2644
   -13.2626  -9.4717  -5.7855  -5.6913  -4.1259  -3.7871  -3.1725  -3.1004
    -2.9549  -2.8772  -2.8106  -2.7890  -2.7732  -2.7424  -2.6770  -2.6564
    -2.6018  -2.5969  -2.5885  -2.5783  -2.5643  -2.5214  -2.4924  -2.4771
    -2.4703  -2.4518  -2.4239  -2.4099  -2.3963  -2.3843  -2.3742  -2.3677
    -2.3156  -2.2525  -2.1722  -2.1242  -2.1054  -1.9815  -1.9639  -1.9038
    -1.8909  -1.8836  -1.8523  -1.8484  -1.7758  -1.7208  -1.5675  -1.5508
    -1.5110  -1.4490  -1.4168  -1.3306  -1.3144  -1.2787  -1.2324  -1.2199
    -1.1969  -1.1765  -1.0788  -0.9997  -0.9579  -0.9186  -0.8061  -0.7901
    -0.7749  -0.7111  -0.6893  -0.6798  -0.6716  -0.6070  -0.5455  -0.4973
    -0.4793  -0.4427  -0.4223  -0.3743  -0.3161  -0.2378  -0.1672  -0.0969
    -0.0666   0.0406   0.1177   0.1549   0.2691   0.3256   0.3553   0.3833
     0.4520   0.5077   0.5258   0.6098   0.6803   0.7000   0.7579   0.7909
     0.8303   0.8650   1.6197   1.6326   1.6645   1.6751   3.2495   3.7764
     3.7863   3.8000   3.8188   3.8437   3.8668   3.9530   4.0023   4.0057

     the Fermi energy is     3.2264 ev

!    total energy              =   -2963.78459150 Ry
     estimated scf accuracy    <       0.00000006 Ry
     smearing contrib. (-TS)   =      -0.01873778 Ry
     internal energy E=F+TS    =   -2963.76585372 Ry

     The total energy is F=E-TS. E is the sum of the following terms:
     one-electron contribution =  -24352.10554414 Ry
     hartree contribution      =   12266.16954908 Ry
     xc contribution           =    -489.27434980 Ry
     ewald contribution        =    9611.44301223 Ry
     electric field correction =       0.00147891 Ry

     convergence has been achieved in  78 iterations

     Forces acting on atoms (cartesian axes, Ry/au):

     atom    1 type  1   force =    -0.00006920    0.00012938    0.10167096
     atom    2 type  1   force =    -0.00006650    0.00015895    0.10132790
     atom    3 type  2   force =    -0.00029334   -0.00136475    0.10429132
     atom    4 type  2   force =    -0.00022965    0.00134139    0.11677432
     atom    5 type  2   force =    -0.00034649    0.00599064   -0.16906748
     atom    6 type  2   force =    -0.00007837   -0.00498676   -0.16913720
     atom    7 type  1   force =    -0.07472860    0.00067773   -0.03016954
     atom    8 type  1   force =    -0.07426899   -0.00132858   -0.03017211
     atom    9 type  1   force =     0.07440462    0.00121209   -0.03021870
     atom   10 type  1   force =     0.07408290   -0.00091270   -0.03023620
     atom   11 type  1   force =     0.00083420    0.00106372    0.04728824
     atom   12 type  1   force =     0.00077906    0.00082476    0.04929004
     atom   13 type  1   force =     0.00026476   -0.00562807   -0.03769279
     atom   14 type  1   force =     0.00053841    0.00416548   -0.03208415
     atom   15 type  2   force =    -0.00044245    0.00078702   -0.00016294
     atom   16 type  2   force =    -0.00039171   -0.00081679   -0.00016602
     atom   17 type  2   force =     0.00029435   -0.00004500    0.00051881
     atom   18 type  2   force =     0.00026784    0.00014010    0.00104924
     atom   19 type  1   force =    -0.00989529   -0.00202559    0.00041936
     atom   20 type  1   force =    -0.00987780    0.00493273    0.00133316
     atom   21 type  1   force =     0.01190316   -0.00463468    0.00142592
     atom   22 type  1   force =     0.01107655    0.00175146    0.00190642
     atom   23 type  1   force =    -0.00025021    0.00003224    0.00021407
     atom   24 type  1   force =    -0.00027069    0.00003622   -0.00036218
     atom   25 type  1   force =    -0.00036713   -0.00040872   -0.00039531
     atom   26 type  1   force =    -0.00021283   -0.00006537   -0.00008362
     atom   27 type  2   force =    -0.00031165   -0.00022883   -0.00003553
     atom   28 type  2   force =     0.00016249   -0.00021739    0.00054269
     atom   29 type  2   force =     0.00033462   -0.00042748   -0.00075649
     atom   30 type  2   force =    -0.00015940    0.00030172    0.00010663
     atom   31 type  1   force =     0.00002679    0.00057054    0.00026483
     atom   32 type  1   force =     0.00040211    0.00018700   -0.00003769
     atom   33 type  1   force =    -0.00032599    0.00031584    0.00062970
     atom   34 type  1   force =    -0.00089187    0.00054362    0.00015851
     atom   35 type  1   force =    -0.00046090   -0.00047062   -0.00079660
     atom   36 type  1   force =    -0.00019339   -0.00020099   -0.00001728
     atom   37 type  1   force =    -0.00013734   -0.00050788    0.00039932
     atom   38 type  1   force =     0.00039984    0.00030020    0.00012496
     atom   39 type  2   force =    -0.00000777    0.00028963    0.00064635
     atom   40 type  2   force =    -0.00005419   -0.00044496    0.00030856
     atom   41 type  2   force =    -0.00024436    0.00027539    0.00048993
     atom   42 type  2   force =    -0.00024981   -0.00014629   -0.00007294
     atom   43 type  1   force =     0.00021338   -0.00007333   -0.00023898
     atom   44 type  1   force =    -0.00044191   -0.00005285   -0.00028745
     atom   45 type  1   force =     0.00079401   -0.00003259   -0.00017593
     atom   46 type  1   force =    -0.00036522   -0.00006231   -0.00024089
     atom   47 type  1   force =     0.00027870   -0.00051962    0.00024609
     atom   48 type  1   force =    -0.00031258   -0.00340916    0.00040524
     atom   49 type  3   force =     0.00038223    0.02409092   -0.00043648
     atom   50 type  4   force =     0.00003871   -0.00975497   -0.00311200
     atom   51 type  4   force =    -0.00164928   -0.01100090    0.00392844
     atom   52 type  1   force =    -0.00075198    0.00031750    0.00121103
     atom   53 type  4   force =     0.00086815   -0.00066909   -0.00081555

     Total force =     0.369719     Total SCF correction =     0.000507
  @ DRIVER MODE: Message from server: STATUS
  @ DRIVER MODE: Message from server: GETFORCE
  @ DRIVER MODE: Returning v,forces,stress,ensemble

     Writing output data file ./calc.save/
  @ DRIVER MODE: Message from server: EXIT
  @ DRIVE MODE: Exiting

     General routines

     Parallel routines

   This run was terminated on:   2: 0:46  23Sep2021

   JOB DONE.