     Program PWSCF v.6.7GPU starts on 23Sep2021 at 18:48: 0

     R & G space division:  proc/nbgrp/npool/nimage =       8
     Reading input from /storage/home/hcoda1/3/ntian30/research/carbon/CxH_vib/H2O_calc/ads_slab/CH2ON2HO_b/out_0018/pw.inp
Warning: card &CELL ignored
Warning: card   CELL_DYNAMICS='IPI', ignored
Warning: card / ignored

     Current dimensions of program PWSCF are:
     Max number of different atomic species (ntypx) = 10
     Max number of k-points (npk) =  40000
     Max angular momentum in pseudopotentials (lmaxx) =  3
     Presently no symmetry can be used with electric field

     Message from routine cell_base_init:
     DEPRECATED: use true lattice parameter, not A to a.u. conversion factor

     IMPORTANT: XC functional enforced from input :
     Exchange-correlation= BEEF-VDW
                           (   1   4  43  14   2   0   0)
     Any further DFT definition will be discarded
     Please, verify this is what you really want

  @ DRIVER MODE: Connecting to
 qe_1139763_2947315.sched-torque.pace.gatech.edut82ymygs_scratch
  using UNIX socket
  @ DRIVER MODE: Message from server: STATUS
  @ DRIVER MODE: Message from server: INIT
  @ DRIVER MODE: Receiving replica           0          -1
  @ DRIVER MODE: Receiving encoded integer          25
  @ DRIVER MODE:  SCF:  T  FORCE:  T  STRESS:  F  VC:  F  ENSEMBLE:  F
  @ DRIVER MODE:  SCF:  T  FORCE:  T  STRESS:  F  VC:  F  ENSEMBLE:  F

     Using Slab Decomposition

     bravais-lattice index     =            0
     lattice parameter (alat)  =       1.8897  a.u.
     unit-cell volume          =    6658.9804 (a.u.)^3
     number of atoms/cell      =           55
     number of atomic types    =            5
     number of electrons       =       407.00
     number of Kohn-Sham states=          213
     kinetic-energy cutoff     =      29.3995  Ry
     charge density cutoff     =     293.9946  Ry
     scf convergence threshold =      7.3E-08
     mixing beta               =       0.0500
     number of iterations used =            8  plain     mixing
     Exchange-correlation= BEEF-VDW
                           (   1   4  43  14   2   0   0)

     celldm(1)=   1.889726  celldm(2)=   0.000000  celldm(3)=   0.000000
     celldm(4)=   0.000000  celldm(5)=   0.000000  celldm(6)=   0.000000

     crystal axes: (cart. coord. in units of alat)
               a(1) = (   6.579727   0.000000   0.000000 )
               a(2) = (  -0.000775   5.961596   0.000000 )
               a(3) = (   0.000000   0.000000  25.155947 )

     reciprocal axes: (cart. coord. in units 2 pi/alat)
               b(1) = (  0.151982  0.000020  0.000000 )
               b(2) = (  0.000000  0.167740  0.000000 )
               b(3) = (  0.000000  0.000000  0.039752 )

     PseudoPot. # 1 for C  read from file:
     /storage/coda1/p-amedford6/0/shared/rich_project_chbe-medford/medford-share/data/pseudos_module/espresso/nninc/pbe/van/C.UPF
     MD5 check sum: 1a69bf6b8db32088f5b2163dbdb77a27
     Pseudo is Ultrasoft, Zval =  4.0
     Generated by new atomic code, or converted to UPF format
     Using radial grid of  721 points,  4 beta functions with:
                l(1) =   0
                l(2) =   0
                l(3) =   1
                l(4) =   1
     Q(r) pseudized with  8 coefficients,  rinner =    0.800   0.800   0.800

     PseudoPot. # 2 for H  read from file:
     /storage/coda1/p-amedford6/0/shared/rich_project_chbe-medford/medford-share/data/pseudos_module/espresso/nninc/pbe/van/H.UPF
     MD5 check sum: b5ee9d7bfd3a09ee7748110bda690ff7
     Pseudo is Ultrasoft, Zval =  1.0
     Generated by new atomic code, or converted to UPF format
     Using radial grid of  615 points,  1 beta functions with:
                l(1) =   0
     Q(r) pseudized with  8 coefficients,  rinner =    0.800

     PseudoPot. # 3 for O  read from file:
     /storage/coda1/p-amedford6/0/shared/rich_project_chbe-medford/medford-share/data/pseudos_module/espresso/nninc/pbe/van/O.UPF
     MD5 check sum: 78c19812648e8988a0fe644b0f25305e
     Pseudo is Ultrasoft, Zval =  6.0
     Generated by new atomic code, or converted to UPF format
     Using radial grid of  737 points,  4 beta functions with:
                l(1) =   0
                l(2) =   0
                l(3) =   1
                l(4) =   1
     Q(r) pseudized with  8 coefficients,  rinner =    0.800   0.800   0.800

     PseudoPot. # 4 for Ti read from file:
     /storage/coda1/p-amedford6/0/shared/rich_project_chbe-medford/medford-share/data/pseudos_module/espresso/nninc/pbe/van/Ti.UPF
     MD5 check sum: 8e4df49b7f0d34bbd5052bf3f5ea0213
     Pseudo is Ultrasoft, Zval = 12.0
     Generated by new atomic code, or converted to UPF format
     Using radial grid of  851 points,  6 beta functions with:
                l(1) =   0
                l(2) =   0
                l(3) =   1
                l(4) =   1
                l(5) =   2
                l(6) =   2
     Q(r) pseudized with  8 coefficients,  rinner =    1.000   1.000   1.000
                                                       1.000   1.000

     PseudoPot. # 5 for N  read from file:
     /storage/coda1/p-amedford6/0/shared/rich_project_chbe-medford/medford-share/data/pseudos_module/espresso/nninc/pbe/van/N.UPF
     MD5 check sum: 90d10febe142ad51ac9d5be1deb811c4
     Pseudo is Ultrasoft, Zval =  5.0
     Generated by new atomic code, or converted to UPF format
     Using radial grid of  729 points,  4 beta functions with:
                l(1) =   0
                l(2) =   0
                l(3) =   1
                l(4) =   1
     Q(r) pseudized with  8 coefficients,  rinner =    0.800   0.800   0.800

     atomic species   valence    mass     pseudopotential
        C1             4.00    12.01100     C ( 1.00)
        H1             1.00     1.00800     H ( 1.00)
        O1             6.00    15.99900     O ( 1.00)
        Ti1           12.00    47.86700     Ti( 1.00)
        N1             5.00    14.00700     N ( 1.00)

     No symmetry found

   Cartesian axes

     site n.     atom                  positions (alat units)
         1           C1  tau(   1) = (   6.3959394   2.9948767  18.7016815  )
         2           H1  tau(   2) = (   6.3118651   3.9496324  19.2181435  )
         3           H1  tau(   3) = (   6.2946090   2.0524817  19.2375006  )
         4           O1  tau(   4) = (   3.2904802   0.0005063   4.7018136  )
         5           O1  tau(   5) = (   3.2900926   2.9813045   4.7018136  )
         6           O1  tau(   6) = (   1.3043587   1.4918075   6.0039043  )
         7           O1  tau(   7) = (   1.3039711   4.4726057   6.0039043  )
         8           O1  tau(   8) = (   5.2767064   1.4903225   6.0039473  )
         9           O1  tau(   9) = (   5.2763189   4.4711207   6.0039473  )
        10           O1  tau(  10) = (   3.2906025   0.0005020   7.3038282  )
        11           O1  tau(  11) = (   3.2902150   2.9813002   7.3038282  )
        12           O1  tau(  12) = (   0.0006271   0.0005054   7.9858123  )
        13           O1  tau(  13) = (   0.0002396   2.9813036   7.9858123  )
        14           O1  tau(  14) = (   4.5942328   1.4918067   9.2879030  )
        15           O1  tau(  15) = (   4.5938453   4.4726049   9.2879030  )
        16           O1  tau(  16) = (   1.9868534   1.4903216   9.2879459  )
        17           O1  tau(  17) = (   1.9864658   4.4711199   9.2879459  )
        18           O1  tau(  18) = (   0.0129981   2.9922367  10.5657274  )
        19           O1  tau(  19) = (   0.0144279   0.0091559  10.5889743  )
        20           O1  tau(  20) = (   3.3117767   2.9674386  11.3102582  )
        21           O1  tau(  21) = (   3.3129298   0.0243810  11.3450129  )
        22           O1  tau(  22) = (   5.3345884   1.4970258  12.6342112  )
        23           O1  tau(  23) = (   5.3394917   4.4808886  12.6396439  )
        24           O1  tau(  24) = (   1.3039726   1.5040805  12.6380785  )
        25           O1  tau(  25) = (   1.3005587   4.4728597  12.6427203  )
        26           O1  tau(  26) = (   3.3397831   2.9746101  13.9049785  )
        27           O1  tau(  27) = (   3.3223070   5.9049495  13.9699414  )
        28           O1  tau(  28) = (   0.0408547   5.9558716  14.6791314  )
        29           O1  tau(  29) = (   0.0240783   2.9814708  14.7219997  )
        30           O1  tau(  30) = (   4.6055448   4.4181431  16.1204950  )
        31           O1  tau(  31) = (   4.6084482   1.5084077  16.0967128  )
        32           O1  tau(  32) = (   2.0524258   4.3896087  16.0537013  )
        33           O1  tau(  33) = (   2.0565100   1.5382275  16.0573534  )
        34           O1  tau(  34) = (   0.0881354   5.9599038  17.1931241  )
        35           O1  tau(  35) = (   0.0264254   2.9794292  17.4619454  )
        36           Ti1 tau(  36) = (   0.0004258   2.9801865   6.0000000  )
        37           Ti1 tau(  37) = (   0.0000382   5.9609847   6.0000000  )
        38           Ti1 tau(  38) = (   3.2906075   1.4906267   6.0002472  )
        39           Ti1 tau(  39) = (   3.2902200   4.4714249   6.0002472  )
        40           Ti1 tau(  40) = (   3.3176177   0.0844252   9.1703869  )
        41           Ti1 tau(  41) = (   3.3271239   3.0668301   9.1994626  )
        42           Ti1 tau(  42) = (   0.0459265   4.5214211   9.2633915  )
        43           Ti1 tau(  43) = (   0.0410032   1.6055327   9.3499854  )
        44           Ti1 tau(  44) = (   3.3214603   4.6642404  12.6916750  )
        45           Ti1 tau(  45) = (   3.3199143   1.5801738  12.4350604  )
        46           Ti1 tau(  46) = (   0.0219714   0.0386744  12.4748393  )
        47           Ti1 tau(  47) = (   0.0368166   3.0234317  12.7766128  )
        48           Ti1 tau(  48) = (   3.3281430   2.9430002  15.6816790  )
        49           Ti1 tau(  49) = (   3.4175200   5.9218210  16.2589141  )
        50           Ti1 tau(  50) = (   0.0864224   1.3736379  15.9443534  )
        51           Ti1 tau(  51) = (   0.1056494   4.5744356  15.9464672  )
        52           N1  tau(  52) = (   3.6299987   3.2157240  20.3374172  )
        53           N1  tau(  53) = (   2.7220030   2.6454082  20.0695964  )
        54           O1  tau(  54) = (   3.1925635   5.9265077  18.0938652  )
        55           H1  tau(  55) = (   2.2801939   0.0950383  18.3989923  )

     number of k points=    10  Fermi-Dirac smearing, width (Ry)=  0.0073
                       cart. coord. in units 2pi/alat
        k(    1) = (   0.0000000   0.0000000   0.0000000), wk =   0.1250000
        k(    2) = (   0.0000000   0.0419351   0.0000000), wk =   0.2500000
        k(    3) = (   0.0000000  -0.0838702   0.0000000), wk =   0.1250000
        k(    4) = (   0.0379955   0.0000049   0.0000000), wk =   0.2500000
        k(    5) = (   0.0379955   0.0419400   0.0000000), wk =   0.2500000
        k(    6) = (   0.0379955  -0.0838652   0.0000000), wk =   0.2500000
        k(    7) = (   0.0379955  -0.0419301   0.0000000), wk =   0.2500000
        k(    8) = (  -0.0759910  -0.0000099   0.0000000), wk =   0.1250000
        k(    9) = (  -0.0759910   0.0419252   0.0000000), wk =   0.2500000
        k(   10) = (  -0.0759910  -0.0838800   0.0000000), wk =   0.1250000

     Initial potential from superposition of free atoms

     starting charge  390.99916, renormalised to  407.00000

     negative rho (up, down):  1.487E-02 0.000E+00

     %%%%%%%%%%%%%%%%%%%%%%%%%%%%%%%%%%%%%%%%%%%%%%%%%%%%%%%%%%%%%%%%%%%%%%%%
     %                                                                      %
     % You are using vdW-DF, which was implemented by the Thonhauser group. %
     % Please cite the following two papers that made this development      %
     % possible and the two reviews that describe the various versions:     %
     %                                                                      %
     %   T. Thonhauser et al., PRL 115, 136402 (2015).                      %
     %   T. Thonhauser et al., PRB 76, 125112 (2007).                       %
     %   K. Berland et al., Rep. Prog. Phys. 78, 066501 (2015).             %
     %   D.C. Langreth et al., J. Phys.: Condens. Matter 21, 084203 (2009). %
     %                                                                      %
     %                                                                      %
     % If you are calculating the stress with vdW-DF, please also cite:     %
     %                                                                      %
     %   R. Sabatini et al., J. Phys.: Condens. Matter 24, 424209 (2012).   %
     %                                                                      %
     %%%%%%%%%%%%%%%%%%%%%%%%%%%%%%%%%%%%%%%%%%%%%%%%%%%%%%%%%%%%%%%%%%%%%%%%

     Adding external electric field

     Computed dipole along edir(3) :
        Dipole              -15.3683 Ry au,        -39.0622 Debye
        Dipole field         -0.0290 Ry au,

        Potential amp.        2.6884 Ry
        Total length         46.3494 bohr

     Starting wfcs are  307 atomic wfcs
  @ DRIVER MODE: Message from server: STATUS
  @ DRIVER MODE: Message from server: POSDATA
  @ DRIVER MODE: Reading and sharing cell
  @ DRIVER MODE: Reading and sharing positions
  @ DRIVER MODE: Received positions

     Self-consistent Calculation

     iteration #  1     ecut=    29.40 Ry     beta= 0.05
     Davidson diagonalization with overlap
     c_bands:  1 eigenvalues not converged
     c_bands:  1 eigenvalues not converged
     c_bands:  1 eigenvalues not converged
     c_bands:  2 eigenvalues not converged
     c_bands:  3 eigenvalues not converged
     ethr =  1.00E-05,  avg # of iterations = 35.3

[...]

     total energy              =   -2231.76266206 Ry
     estimated scf accuracy    <    8830.56766172 Ry

     iteration #  2     ecut=    29.40 Ry     beta= 0.05
     Davidson diagonalization with overlap
     ethr =  1.00E-02,  avg # of iterations = 31.1

[...]

     iteration # 45     ecut=    29.40 Ry     beta= 0.05
     Davidson diagonalization with overlap
     c_bands:  1 eigenvalues not converged
     c_bands:  1 eigenvalues not converged
     ethr =  6.67E-07,  avg # of iterations = 13.9

[...]

     total energy              =   -3003.97504693 Ry
     estimated scf accuracy    <       0.00000007 Ry

     iteration # 72     ecut=    29.40 Ry     beta= 0.05
     Davidson diagonalization with overlap
     ethr =  1.84E-11,  avg # of iterations =  8.9

     negative rho (up, down):  1.522E-02 0.000E+00

     Adding external electric field

     Computed dipole along edir(3) :
        Dipole                0.9020 Ry au,          2.2928 Debye
        Dipole field          0.0017 Ry au,

        Potential amp.       -0.1578 Ry
        Total length         46.3494 bohr

     End of self-consistent calculation

          k = 0.0000 0.0000 0.0000 ( 18029 PWs)   bands (ev):

   -55.6629 -55.6203 -55.5447 -55.4513 -55.4176 -55.4116 -55.4012 -55.3609
   -55.3064 -55.2736 -55.2687 -55.2352 -55.1882 -55.0954 -54.5103 -54.4763
   -32.1145 -32.0094 -31.9573 -31.9210 -31.9165 -31.8734 -31.8675 -31.8237
   -31.8210 -31.7615 -31.7571 -31.7414 -31.7375 -31.7261 -31.7258 -31.6951
   -31.6774 -31.6728 -31.6277 -31.6244 -31.6103 -31.5971 -31.5938 -31.5934
   -31.5586 -31.5477 -31.5156 -31.5101 -31.5076 -31.4984 -31.4971 -31.4883
   -31.4629 -31.4620 -31.4351 -31.4311 -31.4298 -31.3848 -31.3803 -31.3427
   -31.3041 -31.3002 -30.9130 -30.8366 -30.8133 -30.7299 -30.6439 -30.5326
   -21.1348 -20.0596 -16.3352 -16.1533 -15.9877 -15.8012 -15.7000 -15.6323
   -15.4301 -15.3584 -15.2928 -15.1418 -15.1170 -15.0784 -15.0490 -15.0278
   -15.0136 -14.9972 -14.9860 -14.9429 -14.9206 -14.9155 -14.8662 -14.8077
   -14.7630 -14.7531 -14.7116 -14.6578 -14.5994 -14.5944 -14.5341 -14.3413
   -13.0114 -12.8976  -9.2757  -6.4058  -5.5932  -5.5599  -4.2959  -4.2781
    -3.9068  -3.5608  -3.5133  -3.4679  -3.3840  -3.3663  -3.2336  -3.0671
    -3.0562  -2.8841  -2.7548  -2.6717  -2.6493  -2.6144  -2.4994  -2.4505
    -2.4242  -2.3881  -2.3572  -2.3348  -2.2944  -2.2764  -2.2389  -2.1972
    -2.1686  -2.0791  -2.0753  -2.0259  -1.9452  -1.9100  -1.9071  -1.8995
    -1.8758  -1.8338  -1.7955  -1.7490  -1.7221  -1.6686  -1.5634  -1.5448
    -1.5391  -1.4702  -1.2270  -1.0924  -1.0603  -0.9930  -0.9530  -0.9338
    -0.8961  -0.8937  -0.8756  -0.8419  -0.8155  -0.6890  -0.6327  -0.5732
    -0.5672  -0.5455  -0.5099  -0.3994  -0.3439  -0.3055  -0.2613  -0.2471
    -0.1782  -0.1566  -0.0777  -0.0444   0.0220   0.1287   0.1722   0.2040
     0.2199   0.2337   0.2862   0.3406   0.3913   0.4221   0.4397   0.4640
     0.5367   0.5597   0.5744   0.5992   0.6881   0.7432   0.7698   0.8320
     0.9092   0.9393   1.0401   1.1647   1.2427   1.4858   1.5113   1.5976
     1.7258   2.0735   2.1191   3.5525   3.6299   3.6601   3.7473   3.8067
     3.8381   3.9208   4.0026   4.0934   4.1247

[...]

          k = 0.0380-0.0419 0.0000 ( 17876 PWs)   bands (ev):

[...]

          k =-0.0760-0.0000 0.0000 ( 17886 PWs)   bands (ev):

[...]

          k =-0.0760-0.0839 0.0000 ( 17948 PWs)   bands (ev):

   -55.6545 -55.6286 -55.5438 -55.4383 -55.4304 -55.4048 -55.3988 -55.3676
   -55.3071 -55.2718 -55.2619 -55.2460 -55.1851 -55.0983 -54.4939 -54.4927
   -31.9519 -31.9405 -31.9205 -31.9184 -31.9115 -31.8140 -31.7971 -31.7809
   -31.7623 -31.7602 -31.7564 -31.7458 -31.7373 -31.6969 -31.6947 -31.6741
   -31.6532 -31.6451 -31.6356 -31.6280 -31.6253 -31.6231 -31.6098 -31.5962
   -31.5886 -31.5830 -31.5724 -31.5608 -31.5527 -31.5448 -31.5042 -31.5000
   -31.4926 -31.4762 -31.4710 -31.4649 -31.4527 -31.4462 -31.4168 -31.3832
   -31.3460 -31.3036 -30.8268 -30.8255 -30.7274 -30.7255 -30.6873 -30.6858
   -21.1345 -20.0540 -16.3062 -15.6553 -15.6081 -15.4665 -15.4402 -15.3859
   -15.3458 -15.2822 -15.2376 -15.2295 -15.1993 -15.1809 -15.1544 -15.1385
   -15.0981 -15.0769 -15.0238 -15.0145 -14.9675 -14.9606 -14.9509 -14.9261
   -14.8817 -14.8528 -14.8245 -14.8222 -14.7575 -14.7509 -14.6496 -14.4751
   -13.0012 -12.9988  -9.2839  -6.4034  -5.5820  -5.5144  -4.3037  -4.2785
    -3.8648  -3.6304  -3.0486  -2.8915  -2.8242  -2.6848  -2.5962  -2.5318
    -2.5206  -2.5018  -2.4595  -2.3966  -2.3867  -2.3302  -2.3242  -2.3191
    -2.3087  -2.2898  -2.2434  -2.2233  -2.2074  -2.1988  -2.1727  -2.1505
    -2.1368  -2.1239  -2.1160  -2.1048  -2.0865  -2.0462  -1.9787  -1.9094
    -1.8777  -1.8627  -1.7239  -1.7041  -1.6409  -1.6280  -1.6183  -1.5904
    -1.5832  -1.5041  -1.4530  -1.3060  -1.2805  -1.2566  -1.1872  -1.1512
    -1.0690  -1.0622  -1.0419  -0.9720  -0.9566  -0.9265  -0.9112  -0.8153
    -0.7353  -0.6906  -0.6547  -0.5389  -0.5241  -0.5069  -0.4479  -0.4201
    -0.4142  -0.3996  -0.3567  -0.2808  -0.2371  -0.2149  -0.1774  -0.1658
    -0.1029  -0.0511   0.0111   0.0913   0.1686   0.1854   0.2953   0.3673
     0.4159   0.5290   0.5872   0.6138   0.6430   0.7216   0.7601   0.7765
     0.8804   0.9414   0.9616   1.0280   1.0552   1.0980   1.1309   1.8825
     1.8955   1.9283   1.9405   3.5029   4.0402   4.0499   4.0644   4.0862
     4.1111   4.1378   4.2107   4.2507   4.2664

     the Fermi energy is     3.4932 ev

!    total energy              =   -3003.97507215 Ry
     estimated scf accuracy    <       0.00000003 Ry
     smearing contrib. (-TS)   =      -0.01893747 Ry
     internal energy E=F+TS    =   -3003.95613468 Ry

     The total energy is F=E-TS. E is the sum of the following terms:
     one-electron contribution =  -23042.23670005 Ry
     hartree contribution      =   11618.22954720 Ry
     xc contribution           =    -499.46368786 Ry
     ewald contribution        =    8919.51317049 Ry
     electric field correction =       0.00153554 Ry

     convergence has been achieved in  72 iterations

     Forces acting on atoms (cartesian axes, Ry/au):

     atom    1 type  1   force =    -0.00064940    0.00013748    0.00226800
     atom    2 type  2   force =    -0.00046494   -0.00018141   -0.00028467
     atom    3 type  2   force =    -0.00053716    0.00018767   -0.00025321
     atom    4 type  3   force =    -0.00006510    0.00011956    0.10176858
     atom    5 type  3   force =    -0.00006275    0.00014752    0.10144011
     atom    6 type  3   force =    -0.07461365    0.00082664   -0.03021227
     atom    7 type  3   force =    -0.07408322   -0.00149253   -0.03020232
     atom    8 type  3   force =     0.07429456    0.00138804   -0.03026383
     atom    9 type  3   force =     0.07393635   -0.00109108   -0.03031043
     atom   10 type  3   force =     0.00081629    0.00106938    0.04825352
     atom   11 type  3   force =     0.00087554    0.00075332    0.05001101
     atom   12 type  3   force =     0.00040518   -0.00630248   -0.03732747
     atom   13 type  3   force =     0.00063850    0.00422879   -0.03105792
     atom   14 type  3   force =    -0.01076733   -0.00220122    0.00085168
     atom   15 type  3   force =    -0.01063537    0.00459277    0.00166217
     atom   16 type  3   force =     0.01297279   -0.00502349    0.00194991
     atom   17 type  3   force =     0.01231434    0.00210967    0.00227268
     atom   18 type  3   force =    -0.00037427    0.00003123   -0.00029479
     atom   19 type  3   force =    -0.00020958    0.00024367   -0.00043733
     atom   20 type  3   force =     0.00003339   -0.00073709   -0.00007741
     atom   21 type  3   force =    -0.00021981   -0.00038441   -0.00013382
     atom   22 type  3   force =     0.00016200   -0.00052777   -0.00025587
     atom   23 type  3   force =    -0.00005859    0.00041237    0.00042221
     atom   24 type  3   force =    -0.00039260   -0.00040708   -0.00056603
     atom   25 type  3   force =    -0.00003363    0.00049239   -0.00003444
     atom   26 type  3   force =    -0.00040821   -0.00024312   -0.00008147
     atom   27 type  3   force =    -0.00011144    0.00013715    0.00018825
     atom   28 type  3   force =     0.00055700    0.00060396    0.00292936
     atom   29 type  3   force =    -0.00006171    0.00018331    0.00065170
     atom   30 type  3   force =    -0.00053027    0.00004515   -0.00019207
     atom   31 type  3   force =    -0.00064730    0.00001883    0.00027269
     atom   32 type  3   force =    -0.00020383    0.00044228    0.00027053
     atom   33 type  3   force =    -0.00024847   -0.00015726    0.00061069
     atom   34 type  3   force =    -0.00068723   -0.00045023    0.00279149
     atom   35 type  3   force =     0.00002489   -0.00033093   -0.00054344
     atom   36 type  4   force =    -0.00032843   -0.00159434    0.10376278
     atom   37 type  4   force =    -0.00011087    0.00149877    0.11787506
     atom   38 type  4   force =    -0.00038315    0.00607125   -0.16913404
     atom   39 type  4   force =    -0.00010550   -0.00503322   -0.16939518
     atom   40 type  4   force =     0.00031071    0.00008758   -0.00033155
     atom   41 type  4   force =     0.00003096   -0.00021814    0.00001691
     atom   42 type  4   force =    -0.00016382    0.00089988    0.00022997
     atom   43 type  4   force =    -0.00018854   -0.00053449    0.00029850
     atom   44 type  4   force =    -0.00007426   -0.00024247    0.00035436
     atom   45 type  4   force =     0.00002253   -0.00025606   -0.00097409
     atom   46 type  4   force =    -0.00032504    0.00047422    0.00168969
     atom   47 type  4   force =    -0.00077063    0.00045137    0.00140835
     atom   48 type  4   force =     0.00050564   -0.00020033   -0.00029571
     atom   49 type  4   force =     0.00078263    0.00004584   -0.00084473
     atom   50 type  4   force =     0.00030463    0.00038003   -0.00565890
     atom   51 type  4   force =     0.00009184   -0.00124340   -0.00485972
     atom   52 type  5   force =    -0.00120870   -0.00089634   -0.00059249
     atom   53 type  5   force =     0.00070041    0.00083791    0.00023275
     atom   54 type  3   force =    -0.00115301    0.00089156    0.00017861
     atom   55 type  2   force =     0.00109761   -0.00006068   -0.00004638

     Total force =     0.369262     Total SCF correction =     0.000427
  @ DRIVER MODE: Message from server: STATUS
  @ DRIVER MODE: Message from server: GETFORCE
  @ DRIVER MODE: Returning v,forces,stress,ensemble

     Writing output data file ./calc.save/
  @ DRIVER MODE: Message from server: EXIT
  @ DRIVE MODE: Exiting

     General routines

     Parallel routines

   This run was terminated on:  19:20: 1  23Sep2021

   JOB DONE.