     Program PWSCF v.6.7GPU starts on 23Sep2021 at 15: 6:46

     R & G space division:  proc/nbgrp/npool/nimage =       8
     Reading input from /storage/home/hcoda1/3/ntian30/research/carbon/CxH_vib/H2O_calc/ads_slab/CH2N2HO_b/out_0011/pw.inp
Warning: card &CELL ignored
Warning: card   CELL_DYNAMICS='IPI', ignored
Warning: card / ignored

     Current dimensions of program PWSCF are:
     Max number of different atomic species (ntypx) = 10
     Max number of k-points (npk) =  40000
     Max angular momentum in pseudopotentials (lmaxx) =  3
     Presently no symmetry can be used with electric field

     Message from routine cell_base_init:
     DEPRECATED: use true lattice parameter, not A to a.u. conversion factor

     IMPORTANT: XC functional enforced from input :
     Exchange-correlation= BEEF-VDW
                           (   1   4  43  14   2   0   0)
     Any further DFT definition will be discarded
     Please, verify this is what you really want

  @ DRIVER MODE: Connecting to
 qe_1139763_2947312.sched-torque.pace.gatech.edu_qaa015d_scratch
  using UNIX socket
  @ DRIVER MODE: Message from server: STATUS
  @ DRIVER MODE: Message from server: INIT
  @ DRIVER MODE: Receiving replica           0          -1
  @ DRIVER MODE: Receiving encoded integer          25
  @ DRIVER MODE:  SCF:  T  FORCE:  T  STRESS:  F  VC:  F  ENSEMBLE:  F
  @ DRIVER MODE:  SCF:  T  FORCE:  T  STRESS:  F  VC:  F  ENSEMBLE:  F

     Using Slab Decomposition

     bravais-lattice index     =            0
     lattice parameter (alat)  =       1.8897  a.u.
     unit-cell volume          =    6658.9804 (a.u.)^3
     number of atoms/cell      =           54
     number of atomic types    =            5
     number of electrons       =       401.00
     number of Kohn-Sham states=          210
     kinetic-energy cutoff     =      29.3995  Ry
     charge density cutoff     =     293.9946  Ry
     scf convergence threshold =      7.3E-08
     mixing beta               =       0.0500
     number of iterations used =            8  plain     mixing
     Exchange-correlation= BEEF-VDW
                           (   1   4  43  14   2   0   0)

     celldm(1)=   1.889726  celldm(2)=   0.000000  celldm(3)=   0.000000
     celldm(4)=   0.000000  celldm(5)=   0.000000  celldm(6)=   0.000000

     crystal axes: (cart. coord. in units of alat)
               a(1) = (   6.579727   0.000000   0.000000 )
               a(2) = (  -0.000775   5.961596   0.000000 )
               a(3) = (   0.000000   0.000000  25.155947 )

     reciprocal axes: (cart. coord. in units 2 pi/alat)
               b(1) = (  0.151982  0.000020  0.000000 )
               b(2) = (  0.000000  0.167740  0.000000 )
               b(3) = (  0.000000  0.000000  0.039752 )

     PseudoPot. # 1 for Ti read from file:
     /storage/coda1/p-amedford6/0/shared/rich_project_chbe-medford/medford-share/data/pseudos_module/espresso/nninc/pbe/van/Ti.UPF
     MD5 check sum: 8e4df49b7f0d34bbd5052bf3f5ea0213
     Pseudo is Ultrasoft, Zval = 12.0
     Generated by new atomic code, or converted to UPF format
     Using radial grid of  851 points,  6 beta functions with:
                l(1) =   0
                l(2) =   0
                l(3) =   1
                l(4) =   1
                l(5) =   2
                l(6) =   2
     Q(r) pseudized with  8 coefficients,  rinner =    1.000   1.000   1.000
                                                       1.000   1.000

     PseudoPot. # 2 for O  read from file:
     /storage/coda1/p-amedford6/0/shared/rich_project_chbe-medford/medford-share/data/pseudos_module/espresso/nninc/pbe/van/O.UPF
     MD5 check sum: 78c19812648e8988a0fe644b0f25305e
     Pseudo is Ultrasoft, Zval =  6.0
     Generated by new atomic code, or converted to UPF format
     Using radial grid of  737 points,  4 beta functions with:
                l(1) =   0
                l(2) =   0
                l(3) =   1
                l(4) =   1
     Q(r) pseudized with  8 coefficients,  rinner =    0.800   0.800   0.800

     PseudoPot. # 3 for N  read from file:
     /storage/coda1/p-amedford6/0/shared/rich_project_chbe-medford/medford-share/data/pseudos_module/espresso/nninc/pbe/van/N.UPF
     MD5 check sum: 90d10febe142ad51ac9d5be1deb811c4
     Pseudo is Ultrasoft, Zval =  5.0
     Generated by new atomic code, or converted to UPF format
     Using radial grid of  729 points,  4 beta functions with:
                l(1) =   0
                l(2) =   0
                l(3) =   1
                l(4) =   1
     Q(r) pseudized with  8 coefficients,  rinner =    0.800   0.800   0.800

     PseudoPot. # 4 for C  read from file:
     /storage/coda1/p-amedford6/0/shared/rich_project_chbe-medford/medford-share/data/pseudos_module/espresso/nninc/pbe/van/C.UPF
     MD5 check sum: 1a69bf6b8db32088f5b2163dbdb77a27
     Pseudo is Ultrasoft, Zval =  4.0
     Generated by new atomic code, or converted to UPF format
     Using radial grid of  721 points,  4 beta functions with:
                l(1) =   0
                l(2) =   0
                l(3) =   1
                l(4) =   1
     Q(r) pseudized with  8 coefficients,  rinner =    0.800   0.800   0.800

     PseudoPot. # 5 for H  read from file:
     /storage/coda1/p-amedford6/0/shared/rich_project_chbe-medford/medford-share/data/pseudos_module/espresso/nninc/pbe/van/H.UPF
     MD5 check sum: b5ee9d7bfd3a09ee7748110bda690ff7
     Pseudo is Ultrasoft, Zval =  1.0
     Generated by new atomic code, or converted to UPF format
     Using radial grid of  615 points,  1 beta functions with:
                l(1) =   0
     Q(r) pseudized with  8 coefficients,  rinner =    0.800

     atomic species   valence    mass     pseudopotential
        Ti1           12.00    47.86700     Ti( 1.00)
        O1             6.00    15.99900     O ( 1.00)
        N1             5.00    14.00700     N ( 1.00)
        C1             4.00    12.01100     C ( 1.00)
        H1             1.00     1.00800     H ( 1.00)

     No symmetry found

   Cartesian axes

     site n.     atom                  positions (alat units)
         1           Ti1 tau(   1) = (   0.0004258   2.9801865   6.0000000  )
         2           Ti1 tau(   2) = (   3.2906075   1.4906267   6.0002472  )
         3           O1  tau(   3) = (   0.0006271   0.0005054   7.9858123  )
         4           O1  tau(   4) = (   3.2906025   0.0005020   7.3038282  )
         5           O1  tau(   5) = (   4.5942328   1.4918067   9.2879030  )
         6           O1  tau(   6) = (   1.9868534   1.4903216   9.2879459  )
         7           Ti1 tau(   7) = (   3.2907910   2.8959150   9.1758416  )
         8           Ti1 tau(   8) = (   0.0015273   1.4827037   9.2680791  )
         9           O1  tau(   9) = (   3.2935892   5.9488104  11.3374186  )
        10           O1  tau(  10) = (   0.0116148   5.9584955  10.6183126  )
        11           O1  tau(  11) = (   1.2908913   1.5070562  12.6495475  )
        12           O1  tau(  12) = (   5.3136790   1.4931969  12.6373367  )
        13           Ti1 tau(  13) = (   0.0127878   2.8868139  12.6015941  )
        14           Ti1 tau(  14) = (   3.2987545   1.3040885  12.7026746  )
        15           O1  tau(  15) = (   0.0175227   0.0240941  14.6538407  )
        16           O1  tau(  16) = (   3.3064676   0.0741613  13.9771881  )
        17           O1  tau(  17) = (   4.5827780   1.5498142  16.1449436  )
        18           O1  tau(  18) = (   2.0366442   1.5898792  16.0867183  )
        19           Ti1 tau(  19) = (   3.3102262   3.0030951  15.6784192  )
        20           Ti1 tau(  20) = (   0.0574396   1.3488835  16.0050117  )
        21           O1  tau(  21) = (   3.2904802   0.0005063   4.7018136  )
        22           O1  tau(  22) = (   0.0721820   0.0083530  17.1768217  )
        23           O1  tau(  23) = (   1.3043587   1.4918075   6.0039043  )
        24           O1  tau(  24) = (   5.2767064   1.4903225   6.0039473  )
        25           Ti1 tau(  25) = (   0.0000382   5.9609847   6.0000000  )
        26           Ti1 tau(  26) = (   3.2902200   4.4714249   6.0002472  )
        27           O1  tau(  27) = (   0.0002396   2.9813036   7.9858123  )
        28           O1  tau(  28) = (   3.2902150   2.9813002   7.3038282  )
        29           O1  tau(  29) = (   4.5938453   4.4726049   9.2879030  )
        30           O1  tau(  30) = (   1.9864658   4.4711199   9.2879459  )
        31           Ti1 tau(  31) = (   3.2891106   5.8743827   9.1763621  )
        32           Ti1 tau(  32) = (   0.0006254   4.4649316   9.2693709  )
        33           O1  tau(  33) = (   3.2934580   3.0155445  11.2926531  )
        34           O1  tau(  34) = (   0.0092240   2.9805883  10.6323155  )
        35           O1  tau(  35) = (   1.2931599   4.4792858  12.6478595  )
        36           O1  tau(  36) = (   5.3056662   4.4876152  12.6363886  )
        37           Ti1 tau(  37) = (   6.5746511   5.8741161  12.5153022  )
        38           Ti1 tau(  38) = (   3.2863760   4.3878630  12.4273393  )
        39           O1  tau(  39) = (   6.5684735   3.0099032  14.7382625  )
        40           O1  tau(  40) = (   3.3273571   2.9915841  13.8999870  )
        41           O1  tau(  41) = (   4.5754576   4.4629145  16.1269992  )
        42           O1  tau(  42) = (   2.0375947   4.4358961  16.0236521  )
        43           Ti1 tau(  43) = (   3.3857405   0.0156461  16.2930207  )
        44           Ti1 tau(  44) = (   0.0840152   4.5257857  15.8004899  )
        45           O1  tau(  45) = (   3.2900926   2.9813045   4.7018136  )
        46           O1  tau(  46) = (   1.3039711   4.4726057   6.0039043  )
        47           O1  tau(  47) = (   5.2763189   4.4711207   6.0039473  )
        48           N1  tau(  48) = (   6.4876325   3.2951735  18.6921505  )
        49           N1  tau(  49) = (   0.0139976   3.0420413  17.5469154  )
        50           C1  tau(  50) = (   6.3059459   3.6199554  19.9036174  )
        51           H1  tau(  51) = (   5.2963100   3.8231348  20.2372398  )
        52           H1  tau(  52) = (   0.5840524   3.7151184  20.5547593  )
        53           O1  tau(  53) = (   3.1058724   5.9363815  18.1230642  )
        54           H1  tau(  54) = (   2.1709728   0.0855973  18.3648350  )

     number of k points=    10  Fermi-Dirac smearing, width (Ry)=  0.0073
                       cart. coord. in units 2pi/alat
        k(    1) = (   0.0000000   0.0000000   0.0000000), wk =   0.1250000
        k(    2) = (   0.0000000   0.0419351   0.0000000), wk =   0.2500000
        k(    3) = (   0.0000000  -0.0838702   0.0000000), wk =   0.1250000
        k(    4) = (   0.0379955   0.0000049   0.0000000), wk =   0.2500000
        k(    5) = (   0.0379955   0.0419400   0.0000000), wk =   0.2500000
        k(    6) = (   0.0379955  -0.0838652   0.0000000), wk =   0.2500000
        k(    7) = (   0.0379955  -0.0419301   0.0000000), wk =   0.2500000
        k(    8) = (  -0.0759910  -0.0000099   0.0000000), wk =   0.1250000
        k(    9) = (  -0.0759910   0.0419252   0.0000000), wk =   0.2500000
        k(   10) = (  -0.0759910  -0.0838800   0.0000000), wk =   0.1250000

     Initial potential from superposition of free atoms

     starting charge  384.99916, renormalised to  401.00000

     negative rho (up, down):  1.407E-02 0.000E+00

     %%%%%%%%%%%%%%%%%%%%%%%%%%%%%%%%%%%%%%%%%%%%%%%%%%%%%%%%%%%%%%%%%%%%%%%%
     %                                                                      %
     % You are using vdW-DF, which was implemented by the Thonhauser group. %
     % Please cite the following two papers that made this development      %
     % possible and the two reviews that describe the various versions:     %
     %                                                                      %
     %   T. Thonhauser et al., PRL 115, 136402 (2015).                      %
     %   T. Thonhauser et al., PRB 76, 125112 (2007).                       %
     %   K. Berland et al., Rep. Prog. Phys. 78, 066501 (2015).             %
     %   D.C. Langreth et al., J. Phys.: Condens. Matter 21, 084203 (2009). %
     %                                                                      %
     %                                                                      %
     % If you are calculating the stress with vdW-DF, please also cite:     %
     %                                                                      %
     %   R. Sabatini et al., J. Phys.: Condens. Matter 24, 424209 (2012).   %
     %                                                                      %
     %%%%%%%%%%%%%%%%%%%%%%%%%%%%%%%%%%%%%%%%%%%%%%%%%%%%%%%%%%%%%%%%%%%%%%%%

     Adding external electric field

     Computed dipole along edir(3) :
        Dipole              -11.8166 Ry au,        -30.0349 Debye
        Dipole field         -0.0223 Ry au,

        Potential amp.        2.0671 Ry
        Total length         46.3494 bohr

     Starting wfcs are  303 atomic wfcs
  @ DRIVER MODE: Message from server: STATUS
  @ DRIVER MODE: Message from server: POSDATA
  @ DRIVER MODE: Reading and sharing cell
  @ DRIVER MODE: Reading and sharing positions
  @ DRIVER MODE: Received positions

     Self-consistent Calculation

     iteration #  1     ecut=    29.40 Ry     beta= 0.05
     Davidson diagonalization with overlap
     c_bands:  3 eigenvalues not converged
     c_bands:  4 eigenvalues not converged
     c_bands:  1 eigenvalues not converged
     c_bands:  4 eigenvalues not converged
     c_bands:  4 eigenvalues not converged
     c_bands:  1 eigenvalues not converged
     c_bands:  2 eigenvalues not converged
     ethr =  1.00E-05,  avg # of iterations = 22.3

[...]

     total energy              =   -2411.70850948 Ry
     estimated scf accuracy    <    6295.19987193 Ry

     iteration #  2     ecut=    29.40 Ry     beta= 0.05
     Davidson diagonalization with overlap
     ethr =  1.00E-02,  avg # of iterations = 23.1

[...]

     iteration # 38     ecut=    29.40 Ry     beta= 0.05
     Davidson diagonalization with overlap
     c_bands:  1 eigenvalues not converged
     ethr =  1.33E-07,  avg # of iterations = 11.4

[...]

     total energy              =   -2971.49129127 Ry
     estimated scf accuracy    <       0.00000008 Ry

     iteration # 61     ecut=    29.40 Ry     beta= 0.05
     Davidson diagonalization with overlap
     ethr =  2.05E-11,  avg # of iterations =  5.8

     negative rho (up, down):  1.461E-02 0.000E+00

     Adding external electric field

     Computed dipole along edir(3) :
        Dipole                1.0561 Ry au,          2.6844 Debye
        Dipole field          0.0020 Ry au,

        Potential amp.       -0.1848 Ry
        Total length         46.3494 bohr

     End of self-consistent calculation

          k = 0.0000 0.0000 0.0000 ( 18029 PWs)   bands (ev):

   -55.7063 -55.6723 -55.4901 -55.4663 -55.4562 -55.3449 -55.3197 -55.2929
   -55.2846 -55.2194 -55.1683 -55.0896 -55.0824 -54.9813 -54.6128 -54.5787
   -32.1799 -32.0013 -31.9994 -31.9432 -31.8590 -31.8281 -31.8147 -31.8026
   -31.7846 -31.7648 -31.7438 -31.7396 -31.7259 -31.7089 -31.6743 -31.6634
   -31.6446 -31.6248 -31.5978 -31.5793 -31.5785 -31.5614 -31.5537 -31.5413
   -31.5044 -31.4925 -31.4876 -31.4741 -31.4514 -31.4492 -31.4366 -31.4277
   -31.4178 -31.3637 -31.3551 -31.3542 -31.2850 -31.2826 -31.2458 -31.2309
   -31.2062 -31.1923 -31.0156 -30.9372 -30.9143 -30.8336 -30.7477 -30.6358
   -20.5500 -16.2426 -16.1814 -15.9687 -15.7954 -15.6347 -15.5866 -15.4483
   -15.3859 -15.2704 -15.2076 -15.1064 -15.0880 -15.0428 -15.0069 -14.9939
   -14.9614 -14.9385 -14.9348 -14.9075 -14.9005 -14.8504 -14.8015 -14.7726
   -14.7327 -14.7033 -14.6368 -14.6274 -14.5914 -14.5180 -14.2465 -14.2207
   -13.1105 -12.9954  -7.4051  -6.0302  -5.6449  -4.9357  -3.7506  -3.5929
    -3.5156  -3.3593  -3.2866  -3.1892  -3.0113  -2.9882  -2.9182  -2.7536
    -2.6704  -2.6292  -2.5842  -2.5377  -2.4721  -2.4450  -2.4017  -2.3797
    -2.2910  -2.2483  -2.2321  -2.2069  -2.1554  -2.1296  -2.0840  -2.0063
    -1.9896  -1.9456  -1.8782  -1.8620  -1.8415  -1.8179  -1.7884  -1.7674
    -1.7594  -1.7217  -1.5976  -1.5942  -1.5100  -1.4700  -1.3235  -1.2126
    -1.1391  -1.0799  -1.0599  -0.9801  -0.9351  -0.8523  -0.8245  -0.8011
    -0.7639  -0.7079  -0.6383  -0.6206  -0.5666  -0.5328  -0.4051  -0.3794
    -0.3289  -0.3155  -0.3100  -0.2292  -0.1642  -0.0912  -0.0684  -0.0069
     0.0104   0.0944   0.1770   0.1827   0.2343   0.2547   0.3078   0.3281
     0.3535   0.3855   0.4190   0.4837   0.5442   0.5959   0.6006   0.6348
     0.7018   0.7663   0.8076   0.8405   0.9980   1.0282   1.0484   1.1268
     1.1386   1.2464   1.3933   1.4137   1.6180   1.6273   1.9734   2.0158
     3.4415   3.5714   3.6057   3.6755   3.7668   3.8972   3.9169   4.0389
     4.1492   4.1609

[...]

          k = 0.0380-0.0419 0.0000 ( 17876 PWs)   bands (ev):

[...]

          k =-0.0760-0.0000 0.0000 ( 17886 PWs)   bands (ev):

[...]

          k =-0.0760-0.0839 0.0000 ( 17948 PWs)   bands (ev):

   -55.6897 -55.6887 -55.4744 -55.4717 -55.4655 -55.3386 -55.3056 -55.2991
   -55.2985 -55.2200 -55.1648 -55.0871 -55.0859 -54.9837 -54.5963 -54.5951
   -31.9958 -31.9953 -31.9858 -31.9850 -31.8104 -31.8091 -31.7957 -31.7901
   -31.7340 -31.7137 -31.7076 -31.6975 -31.6794 -31.6696 -31.6623 -31.6541
   -31.6344 -31.6285 -31.6216 -31.6054 -31.6047 -31.5622 -31.5581 -31.5281
   -31.5269 -31.5239 -31.5199 -31.5131 -31.5112 -31.4891 -31.4682 -31.4451
   -31.4223 -31.3763 -31.3644 -31.3557 -31.3280 -31.3274 -31.2890 -31.2860
   -31.2369 -31.1958 -30.9275 -30.9267 -30.8296 -30.8283 -30.7911 -30.7903
   -20.5488 -16.2157 -15.6203 -15.5624 -15.5300 -15.5177 -15.4164 -15.3849
   -15.2495 -15.2482 -15.2235 -15.1669 -15.1522 -15.1265 -15.1018 -15.0775
   -15.0509 -15.0271 -15.0050 -14.9749 -14.9609 -14.9221 -14.9018 -14.8930
   -14.8840 -14.8295 -14.7459 -14.6457 -14.5905 -14.5804 -14.4773 -14.3656
   -13.0980 -13.0974  -7.4058  -6.0338  -5.6467  -4.9130  -3.7232  -3.0471
    -2.9011  -2.7497  -2.7338  -2.6013  -2.5814  -2.4902  -2.4823  -2.4357
    -2.4190  -2.3736  -2.3557  -2.3405  -2.2994  -2.2793  -2.2667  -2.2570
    -2.2426  -2.2134  -2.2043  -2.1995  -2.1923  -2.1555  -2.1212  -2.1063
    -2.0849  -2.0496  -2.0155  -1.9067  -1.8159  -1.7876  -1.7267  -1.7260
    -1.7135  -1.7093  -1.6838  -1.6561  -1.5717  -1.4803  -1.4413  -1.3839
    -1.2080  -1.1944  -1.1710  -1.1491  -1.0997  -1.0400  -1.0215  -0.9699
    -0.9630  -0.9290  -0.8481  -0.7945  -0.7222  -0.7051  -0.6325  -0.5951
    -0.5769  -0.4803  -0.4634  -0.4317  -0.3958  -0.3803  -0.3461  -0.3010
    -0.2820  -0.2676  -0.2292  -0.1904  -0.1590   0.0101   0.1494   0.2132
     0.2296   0.2656   0.3192   0.3876   0.4107   0.5883   0.6001   0.6040
     0.6540   0.6973   0.7250   0.7474   0.8493   0.9644   0.9809   1.0225
     1.0441   1.0606   1.1497   1.2047   1.7848   1.7930   1.8354   1.8361
     3.4427   3.9787   3.9977   3.9984   3.9997   4.0982   4.1221   4.1335
     4.1951   4.2598

     the Fermi energy is     3.4348 ev

!    total energy              =   -2971.49133332 Ry
     estimated scf accuracy    <       0.00000002 Ry
     smearing contrib. (-TS)   =      -0.01883210 Ry
     internal energy E=F+TS    =   -2971.47250122 Ry

     The total energy is F=E-TS. E is the sum of the following terms:
     one-electron contribution =  -23620.50679969 Ry
     hartree contribution      =   11904.09623808 Ry
     xc contribution           =    -492.35195956 Ry
     ewald contribution        =    9237.28791499 Ry
     electric field correction =       0.00210497 Ry

     convergence has been achieved in  61 iterations

     Forces acting on atoms (cartesian axes, Ry/au):

     atom    1 type  1   force =     0.00001076   -0.00040114    0.09777129
     atom    2 type  1   force =    -0.00003734    0.00023107   -0.17201759
     atom    3 type  2   force =     0.00004960   -0.00005106   -0.02544375
     atom    4 type  2   force =     0.00001572   -0.00143845    0.04747587
     atom    5 type  2   force =    -0.00612091   -0.00239868   -0.00093997
     atom    6 type  2   force =     0.00774311   -0.00181534   -0.00160530
     atom    7 type  1   force =    -0.00008608   -0.00485567    0.01926007
     atom    8 type  1   force =     0.00022780    0.01221076    0.02734325
     atom    9 type  2   force =    -0.00010322   -0.00021289   -0.00046092
     atom   10 type  2   force =    -0.00111859    0.00133584   -0.02565063
     atom   11 type  2   force =     0.00008104   -0.00001654   -0.00011635
     atom   12 type  2   force =     0.00012222   -0.00002653   -0.00019156
     atom   13 type  1   force =     0.00034470   -0.00031332    0.00085960
     atom   14 type  1   force =     0.00005907   -0.00007945    0.00035414
     atom   15 type  2   force =    -0.00037874   -0.00002052   -0.00125410
     atom   16 type  2   force =    -0.00003809   -0.00002987   -0.00089917
     atom   17 type  2   force =    -0.00059283   -0.00025412   -0.00037177
     atom   18 type  2   force =     0.00045734   -0.00028693   -0.00038699
     atom   19 type  1   force =    -0.00017075    0.00001373    0.00033341
     atom   20 type  1   force =    -0.00019162    0.00010738    0.00132416
     atom   21 type  2   force =     0.00005754    0.00008553    0.10222098
     atom   22 type  2   force =     0.00010511    0.00029920   -0.00054342
     atom   23 type  2   force =    -0.07358080   -0.00016269   -0.02812108
     atom   24 type  2   force =     0.07350101    0.00027864   -0.02819713
     atom   25 type  1   force =     0.00014020   -0.00033476    0.09758601
     atom   26 type  1   force =    -0.00004344   -0.00130823   -0.17215275
     atom   27 type  2   force =     0.00009458   -0.00030495   -0.02407503
     atom   28 type  2   force =     0.00004234    0.00031904    0.04309574
     atom   29 type  2   force =    -0.00500898    0.00404070   -0.00287039
     atom   30 type  2   force =     0.00651842    0.00443009   -0.00342915
     atom   31 type  1   force =     0.00000864    0.00578404    0.00729235
     atom   32 type  1   force =     0.00028902   -0.01519369    0.02692155
     atom   33 type  2   force =     0.00038277   -0.00008615   -0.00026887
     atom   34 type  2   force =    -0.00138789    0.00102743   -0.02739204
     atom   35 type  2   force =     0.00036269    0.00009861   -0.00015349
     atom   36 type  2   force =    -0.00026334   -0.00000867   -0.00027141
     atom   37 type  1   force =     0.00009294   -0.00056853    0.00088610
     atom   38 type  1   force =     0.00024959    0.00007635    0.00056912
     atom   39 type  2   force =    -0.00012916   -0.00017631   -0.00126336
     atom   40 type  2   force =     0.00005484    0.00003218   -0.00072521
     atom   41 type  2   force =    -0.00065462    0.00028043   -0.00053078
     atom   42 type  2   force =     0.00014010    0.00000132   -0.00032741
     atom   43 type  1   force =    -0.00006890    0.00018234   -0.00008149
     atom   44 type  1   force =    -0.00020622   -0.00026355    0.00112890
     atom   45 type  2   force =     0.00004959   -0.00008262    0.10201607
     atom   46 type  2   force =    -0.07361884   -0.00007728   -0.02816006
     atom   47 type  2   force =     0.07352489    0.00035981   -0.02820747
     atom   48 type  3   force =     0.00242734   -0.00596210   -0.02814886
     atom   49 type  3   force =    -0.00308911    0.00637492    0.03068605
     atom   50 type  4   force =    -0.00019579   -0.00091411   -0.00316967
     atom   51 type  5   force =    -0.00036083    0.00001503    0.00057023
     atom   52 type  5   force =     0.00002704    0.00000921    0.00044451
     atom   53 type  2   force =     0.00046445    0.00070684   -0.00048868
     atom   54 type  5   force =    -0.00019836   -0.00065634   -0.00022358

     Total force =     0.367639     Total SCF correction =     0.000333
  @ DRIVER MODE: Message from server: STATUS
  @ DRIVER MODE: Message from server: GETFORCE
  @ DRIVER MODE: Returning v,forces,stress,ensemble

     Writing output data file ./calc.save/
  @ DRIVER MODE: Message from server: EXIT
  @ DRIVE MODE: Exiting

     General routines

     Parallel routines

   This run was terminated on:  15:29: 5  23Sep2021

   JOB DONE.