     Program PWSCF v.6.7GPU starts on 23Aug2021 at 21:48: 8

     R & G space division:  proc/nbgrp/npool/nimage =       6
     Reading input from /storage/home/hcoda1/3/ntian30/research/carbon/CH_vib/ads_slab/CHNNHH_a/out_0017/pw.inp
Warning: card &CELL ignored
Warning: card   CELL_DYNAMICS='IPI', ignored
Warning: card / ignored

     Current dimensions of program PWSCF are:
     Max number of different atomic species (ntypx) = 10
     Max number of k-points (npk) =  40000
     Max angular momentum in pseudopotentials (lmaxx) =  3
     Presently no symmetry can be used with electric field

     Message from routine cell_base_init:
     DEPRECATED: use true lattice parameter, not A to a.u. conversion factor

     IMPORTANT: XC functional enforced from input :
     Exchange-correlation= BEEF-VDW
                           (   1   4  43  14   2   0   0)
     Any further DFT definition will be discarded
     Please, verify this is what you really want

  @ DRIVER MODE: Connecting to
 qe_1139763_2632796.sched-torque.pace.gatech.edurbrl97t7_scratch
  using UNIX socket
  @ DRIVER MODE: Message from server: STATUS
  @ DRIVER MODE: Message from server: INIT
  @ DRIVER MODE: Receiving replica           0          -1
  @ DRIVER MODE: Receiving encoded integer          25
  @ DRIVER MODE:  SCF:  T  FORCE:  T  STRESS:  F  VC:  F  ENSEMBLE:  F
  @ DRIVER MODE:  SCF:  T  FORCE:  T  STRESS:  F  VC:  F  ENSEMBLE:  F

     Using Slab Decomposition

     bravais-lattice index     =            0
     lattice parameter (alat)  =       1.8897  a.u.
     unit-cell volume          =    6658.9804 (a.u.)^3
     number of atoms/cell      =           53
     number of atomic types    =            5
     number of electrons       =       395.00
     number of Kohn-Sham states=          207
     kinetic-energy cutoff     =      29.3995  Ry
     charge density cutoff     =     293.9946  Ry
     scf convergence threshold =      7.3E-08
     mixing beta               =       0.0500
     number of iterations used =            8  plain     mixing
     Exchange-correlation= BEEF-VDW
                           (   1   4  43  14   2   0   0)

     celldm(1)=   1.889726  celldm(2)=   0.000000  celldm(3)=   0.000000
     celldm(4)=   0.000000  celldm(5)=   0.000000  celldm(6)=   0.000000

     crystal axes: (cart. coord. in units of alat)
               a(1) = (   6.579727   0.000000   0.000000 )
               a(2) = (  -0.000775   5.961596   0.000000 )
               a(3) = (   0.000000   0.000000  25.155947 )

     reciprocal axes: (cart. coord. in units 2 pi/alat)
               b(1) = (  0.151982  0.000020  0.000000 )
               b(2) = (  0.000000  0.167740  0.000000 )
               b(3) = (  0.000000  0.000000  0.039752 )

     PseudoPot. # 1 for Ti read from file:
     /storage/coda1/p-amedford6/0/shared/rich_project_chbe-medford/medford-share/data/pseudos_module/espresso/nninc/pbe/van/Ti.UPF
     MD5 check sum: 8e4df49b7f0d34bbd5052bf3f5ea0213
     Pseudo is Ultrasoft, Zval = 12.0
     Generated by new atomic code, or converted to UPF format
     Using radial grid of  851 points,  6 beta functions with:
                l(1) =   0
                l(2) =   0
                l(3) =   1
                l(4) =   1
                l(5) =   2
                l(6) =   2
     Q(r) pseudized with  8 coefficients,  rinner =    1.000   1.000   1.000
                                                       1.000   1.000

     PseudoPot. # 2 for O  read from file:
     /storage/coda1/p-amedford6/0/shared/rich_project_chbe-medford/medford-share/data/pseudos_module/espresso/nninc/pbe/van/O.UPF
     MD5 check sum: 78c19812648e8988a0fe644b0f25305e
     Pseudo is Ultrasoft, Zval =  6.0
     Generated by new atomic code, or converted to UPF format
     Using radial grid of  737 points,  4 beta functions with:
                l(1) =   0
                l(2) =   0
                l(3) =   1
                l(4) =   1
     Q(r) pseudized with  8 coefficients,  rinner =    0.800   0.800   0.800

     PseudoPot. # 3 for N  read from file:
     /storage/coda1/p-amedford6/0/shared/rich_project_chbe-medford/medford-share/data/pseudos_module/espresso/nninc/pbe/van/N.UPF
     MD5 check sum: 90d10febe142ad51ac9d5be1deb811c4
     Pseudo is Ultrasoft, Zval =  5.0
     Generated by new atomic code, or converted to UPF format
     Using radial grid of  729 points,  4 beta functions with:
                l(1) =   0
                l(2) =   0
                l(3) =   1
                l(4) =   1
     Q(r) pseudized with  8 coefficients,  rinner =    0.800   0.800   0.800

     PseudoPot. # 4 for C  read from file:
     /storage/coda1/p-amedford6/0/shared/rich_project_chbe-medford/medford-share/data/pseudos_module/espresso/nninc/pbe/van/C.UPF
     MD5 check sum: 1a69bf6b8db32088f5b2163dbdb77a27
     Pseudo is Ultrasoft, Zval =  4.0
     Generated by new atomic code, or converted to UPF format
     Using radial grid of  721 points,  4 beta functions with:
                l(1) =   0
                l(2) =   0
                l(3) =   1
                l(4) =   1
     Q(r) pseudized with  8 coefficients,  rinner =    0.800   0.800   0.800

     PseudoPot. # 5 for H  read from file:
     /storage/coda1/p-amedford6/0/shared/rich_project_chbe-medford/medford-share/data/pseudos_module/espresso/nninc/pbe/van/H.UPF
     MD5 check sum: b5ee9d7bfd3a09ee7748110bda690ff7
     Pseudo is Ultrasoft, Zval =  1.0
     Generated by new atomic code, or converted to UPF format
     Using radial grid of  615 points,  1 beta functions with:
                l(1) =   0
     Q(r) pseudized with  8 coefficients,  rinner =    0.800

     atomic species   valence    mass     pseudopotential
        Ti1           12.00    47.86700     Ti( 1.00)
        O1             6.00    15.99900     O ( 1.00)
        N1             5.00    14.00700     N ( 1.00)
        C1             4.00    12.01100     C ( 1.00)
        H1             1.00     1.00800     H ( 1.00)

     No symmetry found

   Cartesian axes

     site n.     atom                  positions (alat units)
         1           Ti1 tau(   1) = (   0.0004258   2.9801865   6.0000000  )
         2           Ti1 tau(   2) = (   3.2906075   1.4906267   6.0002472  )
         3           O1  tau(   3) = (   0.0006271   0.0005054   7.9858123  )
         4           O1  tau(   4) = (   3.2906025   0.0005020   7.3038282  )
         5           O1  tau(   5) = (   4.5942328   1.4918067   9.2879030  )
         6           O1  tau(   6) = (   1.9868534   1.4903216   9.2879459  )
         7           Ti1 tau(   7) = (   3.2907910   2.8959150   9.1758416  )
         8           Ti1 tau(   8) = (   0.0015273   1.4827037   9.2680791  )
         9           O1  tau(   9) = (   3.2912281   5.9459940  11.3193265  )
        10           O1  tau(  10) = (   0.0116148   5.9584955  10.6183126  )
        11           O1  tau(  11) = (   1.3103257   1.4650607  12.6442557  )
        12           O1  tau(  12) = (   5.3047449   1.4806448  12.6312737  )
        13           Ti1 tau(  13) = (   6.5337005   3.0128982  12.6900614  )
        14           Ti1 tau(  14) = (   3.2207025   1.4698770  12.4715817  )
        15           O1  tau(  15) = (   6.5518216   5.9146589  14.6704082  )
        16           O1  tau(  16) = (   3.3240203   5.9583723  13.8895330  )
        17           O1  tau(  17) = (   4.5456974   1.5225049  16.1264218  )
        18           O1  tau(  18) = (   2.0489736   1.4727210  15.9535721  )
        19           Ti1 tau(  19) = (   3.2591190   2.9927146  15.6788090  )
        20           Ti1 tau(  20) = (   0.0289511   1.3544711  15.7732889  )
        21           O1  tau(  21) = (   3.2904802   0.0005063   4.7018136  )
        22           O1  tau(  22) = (   0.0559926   0.0451390  17.2112278  )
        23           O1  tau(  23) = (   1.3043587   1.4918075   6.0039043  )
        24           O1  tau(  24) = (   5.2767064   1.4903225   6.0039473  )
        25           Ti1 tau(  25) = (   0.0000382   5.9609847   6.0000000  )
        26           Ti1 tau(  26) = (   3.2902200   4.4714249   6.0002472  )
        27           O1  tau(  27) = (   0.0002396   2.9813036   7.9858123  )
        28           O1  tau(  28) = (   3.2902150   2.9813002   7.3038282  )
        29           O1  tau(  29) = (   4.5938453   4.4726049   9.2879030  )
        30           O1  tau(  30) = (   1.9864658   4.4711199   9.2879459  )
        31           Ti1 tau(  31) = (   3.2891106   5.8743827   9.1763621  )
        32           Ti1 tau(  32) = (   0.0006254   4.4649316   9.2693709  )
        33           O1  tau(  33) = (   3.2889932   2.9698301  11.3211337  )
        34           O1  tau(  34) = (   0.0092240   2.9805883  10.6323155  )
        35           O1  tau(  35) = (   1.3069247   4.4567274  12.6410950  )
        36           O1  tau(  36) = (   5.3013738   4.4587240  12.6283471  )
        37           Ti1 tau(  37) = (   6.5339814   0.0202798  12.5235249  )
        38           Ti1 tau(  38) = (   3.2191325   4.4512509  12.4750946  )
        39           O1  tau(  39) = (   6.5688456   2.9522374  14.7547250  )
        40           O1  tau(  40) = (   3.3031296   2.9710333  13.8824388  )
        41           O1  tau(  41) = (   4.5425837   4.4734130  15.9989242  )
        42           O1  tau(  42) = (   2.0771424   4.4889556  16.0364895  )
        43           Ti1 tau(  43) = (   3.3121389   0.0026565  15.6888161  )
        44           Ti1 tau(  44) = (   6.5128106   4.4989306  16.3061806  )
        45           O1  tau(  45) = (   3.2900926   2.9813045   4.7018136  )
        46           O1  tau(  46) = (   1.3039711   4.4726057   6.0039043  )
        47           O1  tau(  47) = (   5.2763189   4.4711207   6.0039473  )
        48           N1  tau(  48) = (   0.4628824   2.9849886  17.7976856  )
        49           C1  tau(  49) = (   1.4182946   2.9518240  18.6700831  )
        50           H1  tau(  50) = (   2.3503500   2.6458988  18.1456329  )
        51           N1  tau(  51) = (   5.7893717   3.5482605  18.2279111  )
        52           H1  tau(  52) = (   5.8942619   4.0012392  19.1365464  )
        53           H1  tau(  53) = (   5.0734348   2.8266848  18.2415795  )

     number of k points=    10  Fermi-Dirac smearing, width (Ry)=  0.0073
                       cart. coord. in units 2pi/alat
        k(    1) = (   0.0000000   0.0000000   0.0000000), wk =   0.1250000
        k(    2) = (   0.0000000   0.0419351   0.0000000), wk =   0.2500000
        k(    3) = (   0.0000000  -0.0838702   0.0000000), wk =   0.1250000
        k(    4) = (   0.0379955   0.0000049   0.0000000), wk =   0.2500000
        k(    5) = (   0.0379955   0.0419400   0.0000000), wk =   0.2500000
        k(    6) = (   0.0379955  -0.0838652   0.0000000), wk =   0.2500000
        k(    7) = (   0.0379955  -0.0419301   0.0000000), wk =   0.2500000
        k(    8) = (  -0.0759910  -0.0000099   0.0000000), wk =   0.1250000
        k(    9) = (  -0.0759910   0.0419252   0.0000000), wk =   0.2500000
        k(   10) = (  -0.0759910  -0.0838800   0.0000000), wk =   0.1250000

     Initial potential from superposition of free atoms

     starting charge  378.99916, renormalised to  395.00000

     negative rho (up, down):  1.775E-02 0.000E+00

     %%%%%%%%%%%%%%%%%%%%%%%%%%%%%%%%%%%%%%%%%%%%%%%%%%%%%%%%%%%%%%%%%%%%%%%%
     %                                                                      %
     % You are using vdW-DF, which was implemented by the Thonhauser group. %
     % Please cite the following two papers that made this development      %
     % possible and the two reviews that describe the various versions:     %
     %                                                                      %
     %   T. Thonhauser et al., PRL 115, 136402 (2015).                      %
     %   T. Thonhauser et al., PRB 76, 125112 (2007).                       %
     %   K. Berland et al., Rep. Prog. Phys. 78, 066501 (2015).             %
     %   D.C. Langreth et al., J. Phys.: Condens. Matter 21, 084203 (2009). %
     %                                                                      %
     %                                                                      %
     % If you are calculating the stress with vdW-DF, please also cite:     %
     %                                                                      %
     %   R. Sabatini et al., J. Phys.: Condens. Matter 24, 424209 (2012).   %
     %                                                                      %
     %%%%%%%%%%%%%%%%%%%%%%%%%%%%%%%%%%%%%%%%%%%%%%%%%%%%%%%%%%%%%%%%%%%%%%%%

     Adding external electric field

     Computed dipole along edir(3) :
        Dipole               -8.0612 Ry au,        -20.4894 Debye
        Dipole field         -0.0152 Ry au,

        Potential amp.        1.4102 Ry
        Total length         46.3494 bohr

     Starting wfcs are  299 atomic wfcs
  @ DRIVER MODE: Message from server: STATUS
  @ DRIVER MODE: Message from server: POSDATA
  @ DRIVER MODE: Reading and sharing cell
  @ DRIVER MODE: Reading and sharing positions
  @ DRIVER MODE: Received positions

     Self-consistent Calculation

     iteration #  1     ecut=    29.40 Ry     beta= 0.05
     Davidson diagonalization with overlap
     c_bands:  1 eigenvalues not converged
     c_bands:  1 eigenvalues not converged
     c_bands:  2 eigenvalues not converged
     c_bands:  3 eigenvalues not converged
     c_bands:  3 eigenvalues not converged
     c_bands:  2 eigenvalues not converged
     c_bands:  1 eigenvalues not converged
     ethr =  1.00E-05,  avg # of iterations = 19.3

[...]

     total energy              =   -2614.88040719 Ry
     estimated scf accuracy    <    3583.82510835 Ry

[...]

     iteration #  3     ecut=    29.40 Ry     beta= 0.05
     Davidson diagonalization with overlap
     ethr =  1.00E-02,  avg # of iterations = 14.6

[...]

     iteration # 66     ecut=    29.40 Ry     beta= 0.05
     Davidson diagonalization with overlap
     c_bands:  1 eigenvalues not converged
     ethr =  9.24E-11,  avg # of iterations =  9.0

[...]

     total energy              =   -2939.00604648 Ry
     estimated scf accuracy    <       0.00000020 Ry

     iteration # 68     ecut=    29.40 Ry     beta= 0.05
     Davidson diagonalization with overlap
     ethr =  4.96E-11,  avg # of iterations =  8.5

     negative rho (up, down):  1.648E-02 0.000E+00

     Adding external electric field

     Computed dipole along edir(3) :
        Dipole                0.3038 Ry au,          0.7723 Debye
        Dipole field          0.0006 Ry au,

        Potential amp.       -0.0532 Ry
        Total length         46.3494 bohr

     End of self-consistent calculation

          k = 0.0000 0.0000 0.0000 ( 18029 PWs)   bands (ev):

   -56.1079 -56.1053 -56.0737 -56.0689 -55.9956 -55.9608 -55.9553 -55.9198
   -55.9050 -55.8708 -55.8692 -55.8349 -55.6482 -55.5864 -55.0774 -55.0434
   -32.6643 -32.5891 -32.4872 -32.4265 -32.4126 -32.4088 -32.4002 -32.3603
   -32.3477 -32.3330 -32.3066 -32.2857 -32.2790 -32.2602 -32.2529 -32.2461
   -32.2110 -32.1971 -32.1948 -32.1903 -32.1862 -32.1652 -32.1590 -32.1427
   -32.1177 -32.1035 -32.1023 -32.1010 -32.0964 -32.0929 -32.0714 -32.0447
   -32.0445 -32.0293 -32.0223 -32.0031 -31.9812 -31.9535 -31.8758 -31.8469
   -31.8019 -31.7383 -31.4841 -31.3968 -31.3744 -31.3010 -31.2145 -31.1033
   -17.9775 -16.8734 -16.5838 -16.3681 -16.2628 -16.2474 -16.1408 -15.9558
   -15.8226 -15.7941 -15.6875 -15.6809 -15.6400 -15.6272 -15.5985 -15.5747
   -15.5659 -15.5401 -15.5372 -15.5213 -15.4768 -15.4536 -15.4343 -15.3380
   -15.2984 -15.2379 -15.2151 -15.1546 -15.0325 -14.7974 -13.5795 -13.4632
   -13.3128  -8.0424  -6.3600  -4.3469  -4.2474  -4.0710  -4.0103  -3.9667
    -3.9579  -3.7201  -3.6870  -3.3284  -3.2958  -3.2753  -3.2654  -3.2543
    -3.1300  -3.0193  -2.9635  -2.9214  -2.9115  -2.9008  -2.8935  -2.8809
    -2.8548  -2.8327  -2.7287  -2.6831  -2.6535  -2.5429  -2.5255  -2.4320
    -2.4176  -2.4064  -2.3716  -2.3514  -2.3427  -2.3167  -2.3055  -2.2773
    -2.1939  -2.1450  -2.0299  -1.9642  -1.8864  -1.8506  -1.7040  -1.6600
    -1.5723  -1.5659  -1.5473  -1.5253  -1.4922  -1.4061  -1.3314  -1.2424
    -1.1996  -1.1625  -1.1268  -1.0834  -1.0018  -0.9830  -0.9656  -0.8694
    -0.8656  -0.8563  -0.8129  -0.6116  -0.5864  -0.5529  -0.5403  -0.4628
    -0.4047  -0.3877  -0.3670  -0.3189  -0.2589  -0.1957  -0.1498  -0.1348
    -0.1234  -0.1202  -0.0855  -0.0596   0.0832   0.0936   0.1878   0.1997
     0.2230   0.3501   0.5239   0.5617   0.5834   0.7039   0.8758   0.9451
     1.0469   1.1380   1.5153   1.5605   2.3982   3.0301   3.1163   3.1502
     3.1696   3.2751   3.3085   3.4775   3.4931   3.5282   3.5475

[...]

          k = 0.0380-0.0419 0.0000 ( 17876 PWs)   bands (ev):

[...]

          k =-0.0760-0.0000 0.0000 ( 17886 PWs)   bands (ev):

[...]

          k =-0.0760-0.0839 0.0000 ( 17948 PWs)   bands (ev):

   -56.0919 -56.0896 -56.0890 -56.0850 -55.9865 -55.9645 -55.9511 -55.9293
   -55.8899 -55.8855 -55.8555 -55.8488 -55.6449 -55.5895 -55.0605 -55.0602
   -32.4678 -32.4633 -32.4051 -32.4036 -32.3867 -32.3849 -32.3662 -32.3540
   -32.3352 -32.3158 -32.2920 -32.2756 -32.2500 -32.2404 -32.2392 -32.2211
   -32.2206 -32.2117 -32.2091 -32.2033 -32.2022 -32.1940 -32.1883 -32.1742
   -32.1694 -32.1507 -32.1346 -32.1321 -32.0893 -32.0872 -32.0855 -32.0815
   -32.0730 -32.0704 -32.0670 -32.0652 -32.0614 -31.9717 -31.8874 -31.8402
   -31.8053 -31.7945 -31.3872 -31.3869 -31.2971 -31.2967 -31.2579 -31.2577
   -17.9676 -16.3090 -16.2933 -16.0770 -16.0321 -16.0280 -16.0074 -15.9189
   -15.8285 -15.8094 -15.7955 -15.7777 -15.7626 -15.6826 -15.6571 -15.6348
   -15.6310 -15.6179 -15.5633 -15.5575 -15.5541 -15.5495 -15.5295 -15.4963
   -15.4138 -15.4089 -15.3976 -15.1597 -15.0940 -15.0226 -13.5653 -13.5648
   -13.3256  -8.0007  -6.2984  -4.3570  -3.6019  -3.5833  -3.3555  -3.3030
    -3.2833  -3.2744  -3.1600  -3.0576  -3.0278  -3.0152  -2.9765  -2.9584
    -2.9457  -2.9334  -2.9206  -2.9014  -2.8758  -2.8419  -2.8366  -2.7899
    -2.7740  -2.7530  -2.7356  -2.7139  -2.7129  -2.6723  -2.6661  -2.6276
    -2.5895  -2.5435  -2.4335  -2.3810  -2.3407  -2.2904  -2.2364  -2.2250
    -2.2162  -2.1627  -2.1575  -2.1231  -2.0383  -1.9626  -1.8272  -1.8057
    -1.7726  -1.7314  -1.6985  -1.6018  -1.5575  -1.5079  -1.4564  -1.4001
    -1.3885  -1.3455  -1.3086  -1.2425  -1.2258  -1.1859  -1.1647  -1.1024
    -1.0610  -1.0569  -0.9930  -0.9257  -0.8681  -0.8645  -0.8436  -0.8289
    -0.7716  -0.7237  -0.6572  -0.6079  -0.5663  -0.4690  -0.4123  -0.2957
    -0.1876  -0.0685   0.0023   0.0064   0.0620   0.1395   0.1850   0.2193
     0.2301   0.2484   0.3399   0.4115   0.4305   0.4443   0.5123   0.6970
     1.3098   1.3110   1.3798   1.3807   2.3949   3.3185   3.3569   3.3710
     3.4023   3.5470   3.5497   3.5617   3.5655   3.6841   3.7297

     the Fermi energy is     3.0273 ev

!    total energy              =   -2939.00607316 Ry
     estimated scf accuracy    <       0.00000005 Ry
     smearing contrib. (-TS)   =      -0.02198368 Ry
     internal energy E=F+TS    =   -2938.98408948 Ry

     The total energy is F=E-TS. E is the sum of the following terms:
     one-electron contribution =  -24453.21692429 Ry
     hartree contribution      =   12311.67041282 Ry
     xc contribution           =    -485.12670155 Ry
     ewald contribution        =    9687.68894933 Ry
     electric field correction =       0.00017421 Ry

     convergence has been achieved in  68 iterations

     Forces acting on atoms (cartesian axes, Ry/au):

     atom    1 type  1   force =     0.00018715   -0.00028752    0.09690215
     atom    2 type  1   force =     0.00006718   -0.00078684   -0.17498456
     atom    3 type  2   force =     0.00014731   -0.00008689   -0.02554892
     atom    4 type  2   force =    -0.00003220   -0.00142847    0.05151226
     atom    5 type  2   force =    -0.01203917   -0.00173129    0.00278898
     atom    6 type  2   force =     0.01346324   -0.00133722    0.00222888
     atom    7 type  1   force =     0.00040489    0.00016275   -0.01207638
     atom    8 type  1   force =     0.00018866    0.02418524    0.02896993
     atom    9 type  2   force =    -0.00004117    0.00051586   -0.00008048
     atom   10 type  2   force =    -0.00266282    0.00014735   -0.01162863
     atom   11 type  2   force =    -0.00003643    0.00026182    0.00004064
     atom   12 type  2   force =    -0.00023592   -0.00002609    0.00013792
     atom   13 type  1   force =    -0.00012880    0.00115167   -0.00012361
     atom   14 type  1   force =    -0.00000766    0.00050887    0.00006930
     atom   15 type  2   force =     0.00009670   -0.00010651   -0.00004122
     atom   16 type  2   force =    -0.00020876    0.00022956   -0.00033032
     atom   17 type  2   force =     0.00038763    0.00016951   -0.00039084
     atom   18 type  2   force =    -0.00030911   -0.00000132   -0.00027829
     atom   19 type  1   force =    -0.00017189   -0.00017198   -0.00036216
     atom   20 type  1   force =     0.00019931   -0.00008058   -0.00016455
     atom   21 type  2   force =     0.00006825   -0.00007303    0.10297061
     atom   22 type  2   force =     0.00001737   -0.00023294   -0.00047082
     atom   23 type  2   force =    -0.07170486   -0.00016844   -0.02792123
     atom   24 type  2   force =     0.07160935    0.00028913   -0.02795992
     atom   25 type  1   force =     0.00003958   -0.00025426    0.09679208
     atom   26 type  1   force =    -0.00000651   -0.00018612   -0.17515041
     atom   27 type  2   force =     0.00015882   -0.00026969   -0.02421407
     atom   28 type  2   force =     0.00001338   -0.00117637    0.05206305
     atom   29 type  2   force =    -0.01219820    0.00078083    0.00246809
     atom   30 type  2   force =     0.01350674    0.00126616    0.00187932
     atom   31 type  1   force =     0.00044819    0.00286586   -0.01396492
     atom   32 type  1   force =     0.00038538   -0.02518609    0.03046566
     atom   33 type  2   force =     0.00004484   -0.00007941   -0.00018524
     atom   34 type  2   force =    -0.00184034   -0.00050325   -0.02071726
     atom   35 type  2   force =    -0.00000950    0.00022834   -0.00005570
     atom   36 type  2   force =     0.00017945    0.00033918    0.00016061
     atom   37 type  1   force =    -0.00021124   -0.00085680   -0.00002224
     atom   38 type  1   force =     0.00008240    0.00012402   -0.00019156
     atom   39 type  2   force =     0.00007999    0.00034756   -0.00020713
     atom   40 type  2   force =    -0.00006937    0.00008660    0.00034826
     atom   41 type  2   force =     0.00052860    0.00003170   -0.00012867
     atom   42 type  2   force =    -0.00031771   -0.00000416   -0.00030642
     atom   43 type  1   force =    -0.00038916    0.00032396    0.00019191
     atom   44 type  1   force =     0.00014600    0.00016528    0.00026722
     atom   45 type  2   force =     0.00005286   -0.00006599    0.10299555
     atom   46 type  2   force =    -0.07173306   -0.00011978   -0.02791962
     atom   47 type  2   force =     0.07161952    0.00025362   -0.02794508
     atom   48 type  3   force =    -0.00104707    0.00076010   -0.00035670
     atom   49 type  4   force =     0.00429594   -0.00128362   -0.00306334
     atom   50 type  5   force =    -0.00292752    0.00167074    0.00298814
     atom   51 type  3   force =     0.00007011   -0.00021710    0.00032793
     atom   52 type  5   force =    -0.00002764   -0.00013581   -0.00007724
     atom   53 type  5   force =    -0.00013273   -0.00000814    0.00029907

     Total force =     0.369049     Total SCF correction =     0.000576
  @ DRIVER MODE: Message from server: STATUS
  @ DRIVER MODE: Message from server: GETFORCE
  @ DRIVER MODE: Returning v,forces,stress,ensemble

     Writing output data file ./calc.save/
  @ DRIVER MODE: Message from server: EXIT
  @ DRIVE MODE: Exiting

     General routines

     Parallel routines

   This run was terminated on:  22:19:19  23Aug2021

   JOB DONE.