     Program PWSCF v.6.7GPU starts on 16Sep2021 at  1:15: 7

     R & G space division:  proc/nbgrp/npool/nimage =      10
     Reading input from /storage/home/hcoda1/3/ntian30/research/carbon/CxH_vib/H2O_calc/ads_slab/CH3NH2NHH2O_c/out_0027/pw.inp
Warning: card &CELL ignored
Warning: card   CELL_DYNAMICS='IPI', ignored
Warning: card / ignored

     Current dimensions of program PWSCF are:
     Max number of different atomic species (ntypx) = 10
     Max number of k-points (npk) =  40000
     Max angular momentum in pseudopotentials (lmaxx) =  3
     Presently no symmetry can be used with electric field

     Message from routine cell_base_init:
     DEPRECATED: use true lattice parameter, not A to a.u. conversion factor

     IMPORTANT: XC functional enforced from input :
     Exchange-correlation= BEEF-VDW
                           (   1   4  43  14   2   0   0)
     Any further DFT definition will be discarded
     Please, verify this is what you really want

  @ DRIVER MODE: Connecting to
 qe_1139763_2852614.sched-torque.pace.gatech.edu3xs699vc_scratch
  using UNIX socket
  @ DRIVER MODE: Message from server: STATUS
  @ DRIVER MODE: Message from server: INIT
  @ DRIVER MODE: Receiving replica           0          -1
  @ DRIVER MODE: Receiving encoded integer          25
  @ DRIVER MODE:  SCF:  T  FORCE:  T  STRESS:  F  VC:  F  ENSEMBLE:  F
  @ DRIVER MODE:  SCF:  T  FORCE:  T  STRESS:  F  VC:  F  ENSEMBLE:  F

     Using Slab Decomposition

     bravais-lattice index     =            0
     lattice parameter (alat)  =       1.8897  a.u.
     unit-cell volume          =    6658.9804 (a.u.)^3
     number of atoms/cell      =           59
     number of atomic types    =            5
     number of electrons       =       406.00
     number of Kohn-Sham states=          213
     kinetic-energy cutoff     =      29.3995  Ry
     charge density cutoff     =     293.9946  Ry
     scf convergence threshold =      7.3E-08
     mixing beta               =       0.0500
     number of iterations used =            8  plain     mixing
     Exchange-correlation= BEEF-VDW
                           (   1   4  43  14   2   0   0)

     celldm(1)=   1.889726  celldm(2)=   0.000000  celldm(3)=   0.000000
     celldm(4)=   0.000000  celldm(5)=   0.000000  celldm(6)=   0.000000

     crystal axes: (cart. coord. in units of alat)
               a(1) = (   6.579727   0.000000   0.000000 )
               a(2) = (  -0.000775   5.961596   0.000000 )
               a(3) = (   0.000000   0.000000  25.155947 )

     reciprocal axes: (cart. coord. in units 2 pi/alat)
               b(1) = (  0.151982  0.000020  0.000000 )
               b(2) = (  0.000000  0.167740  0.000000 )
               b(3) = (  0.000000  0.000000  0.039752 )

     PseudoPot. # 1 for Ti read from file:
     /storage/coda1/p-amedford6/0/shared/rich_project_chbe-medford/medford-share/data/pseudos_module/espresso/nninc/pbe/van/Ti.UPF
     MD5 check sum: 8e4df49b7f0d34bbd5052bf3f5ea0213
     Pseudo is Ultrasoft, Zval = 12.0
     Generated by new atomic code, or converted to UPF format
     Using radial grid of  851 points,  6 beta functions with:
                l(1) =   0
                l(2) =   0
                l(3) =   1
                l(4) =   1
                l(5) =   2
                l(6) =   2
     Q(r) pseudized with  8 coefficients,  rinner =    1.000   1.000   1.000
                                                       1.000   1.000

     PseudoPot. # 2 for O  read from file:
     /storage/coda1/p-amedford6/0/shared/rich_project_chbe-medford/medford-share/data/pseudos_module/espresso/nninc/pbe/van/O.UPF
     MD5 check sum: 78c19812648e8988a0fe644b0f25305e
     Pseudo is Ultrasoft, Zval =  6.0
     Generated by new atomic code, or converted to UPF format
     Using radial grid of  737 points,  4 beta functions with:
                l(1) =   0
                l(2) =   0
                l(3) =   1
                l(4) =   1
     Q(r) pseudized with  8 coefficients,  rinner =    0.800   0.800   0.800

     PseudoPot. # 3 for N  read from file:
     /storage/coda1/p-amedford6/0/shared/rich_project_chbe-medford/medford-share/data/pseudos_module/espresso/nninc/pbe/van/N.UPF
     MD5 check sum: 90d10febe142ad51ac9d5be1deb811c4
     Pseudo is Ultrasoft, Zval =  5.0
     Generated by new atomic code, or converted to UPF format
     Using radial grid of  729 points,  4 beta functions with:
                l(1) =   0
                l(2) =   0
                l(3) =   1
                l(4) =   1
     Q(r) pseudized with  8 coefficients,  rinner =    0.800   0.800   0.800

     PseudoPot. # 4 for C  read from file:
     /storage/coda1/p-amedford6/0/shared/rich_project_chbe-medford/medford-share/data/pseudos_module/espresso/nninc/pbe/van/C.UPF
     MD5 check sum: 1a69bf6b8db32088f5b2163dbdb77a27
     Pseudo is Ultrasoft, Zval =  4.0
     Generated by new atomic code, or converted to UPF format
     Using radial grid of  721 points,  4 beta functions with:
                l(1) =   0
                l(2) =   0
                l(3) =   1
                l(4) =   1
     Q(r) pseudized with  8 coefficients,  rinner =    0.800   0.800   0.800

     PseudoPot. # 5 for H  read from file:
     /storage/coda1/p-amedford6/0/shared/rich_project_chbe-medford/medford-share/data/pseudos_module/espresso/nninc/pbe/van/H.UPF
     MD5 check sum: b5ee9d7bfd3a09ee7748110bda690ff7
     Pseudo is Ultrasoft, Zval =  1.0
     Generated by new atomic code, or converted to UPF format
     Using radial grid of  615 points,  1 beta functions with:
                l(1) =   0
     Q(r) pseudized with  8 coefficients,  rinner =    0.800

     atomic species   valence    mass     pseudopotential
        Ti1           12.00    47.86700     Ti( 1.00)
        O1             6.00    15.99900     O ( 1.00)
        N1             5.00    14.00700     N ( 1.00)
        C1             4.00    12.01100     C ( 1.00)
        H1             1.00     1.00800     H ( 1.00)

     No symmetry found

   Cartesian axes

     site n.     atom                  positions (alat units)
         1           Ti1 tau(   1) = (   0.0004258   2.9801865   6.0000000  )
         2           Ti1 tau(   2) = (   3.2906075   1.4906267   6.0002472  )
         3           O1  tau(   3) = (   0.0006271   0.0005054   7.9858123  )
         4           O1  tau(   4) = (   3.2906025   0.0005020   7.3038282  )
         5           O1  tau(   5) = (   4.5942328   1.4918067   9.2879030  )
         6           O1  tau(   6) = (   1.9868534   1.4903216   9.2879459  )
         7           Ti1 tau(   7) = (   3.2907910   2.8959150   9.1758416  )
         8           Ti1 tau(   8) = (   0.0015273   1.4827037   9.2680791  )
         9           O1  tau(   9) = (   3.2795193   0.0050042  11.3600746  )
        10           O1  tau(  10) = (   0.0116148   5.9584955  10.6183126  )
        11           O1  tau(  11) = (   1.2764768   1.4833402  12.6625751  )
        12           O1  tau(  12) = (   5.2691860   1.4824858  12.6730715  )
        13           Ti1 tau(  13) = (   6.5785005   2.9712200  12.5432933  )
        14           Ti1 tau(  14) = (   3.2815129   1.4861921  12.5133659  )
        15           O1  tau(  15) = (   0.0084525   5.9333602  14.7514412  )
        16           O1  tau(  16) = (   3.2474592   5.9449689  14.0025778  )
        17           O1  tau(  17) = (   4.5272503   1.5270814  16.0535473  )
        18           O1  tau(  18) = (   2.0088677   1.5398698  16.1918835  )
        19           Ti1 tau(  19) = (   3.2695027   3.0127370  15.7044713  )
        20           Ti1 tau(  20) = (   6.4897317   1.5391078  15.7731133  )
        21           O1  tau(  21) = (   3.2904802   0.0005063   4.7018136  )
        22           O1  tau(  22) = (   6.4943121   0.0104379  17.3746616  )
        23           O1  tau(  23) = (   1.3043587   1.4918075   6.0039043  )
        24           O1  tau(  24) = (   5.2767064   1.4903225   6.0039473  )
        25           Ti1 tau(  25) = (   0.0000382   5.9609847   6.0000000  )
        26           Ti1 tau(  26) = (   3.2902200   4.4714249   6.0002472  )
        27           O1  tau(  27) = (   0.0002396   2.9813036   7.9858123  )
        28           O1  tau(  28) = (   3.2902150   2.9813002   7.3038282  )
        29           O1  tau(  29) = (   4.5938453   4.4726049   9.2879030  )
        30           O1  tau(  30) = (   1.9864658   4.4711199   9.2879459  )
        31           Ti1 tau(  31) = (   3.2891106   5.8743827   9.1763621  )
        32           Ti1 tau(  32) = (   0.0006254   4.4649316   9.2693709  )
        33           O1  tau(  33) = (   3.2806081   2.9711243  11.3509633  )
        34           O1  tau(  34) = (   0.0092240   2.9805883  10.6323155  )
        35           O1  tau(  35) = (   1.2760424   4.4718827  12.6381679  )
        36           O1  tau(  36) = (   5.2690016   4.4731519  12.6446470  )
        37           Ti1 tau(  37) = (   6.5708669   5.9382087  12.5160675  )
        38           Ti1 tau(  38) = (   3.2845625   4.4656782  12.4980923  )
        39           O1  tau(  39) = (   6.5779858   3.0049062  14.7590937  )
        40           O1  tau(  40) = (   3.2501146   3.0001303  13.9242794  )
        41           O1  tau(  41) = (   4.5300198   4.4412671  16.1793791  )
        42           O1  tau(  42) = (   2.0030354   4.4482434  16.2507355  )
        43           Ti1 tau(  43) = (   3.2558399   0.0045369  15.7947069  )
        44           Ti1 tau(  44) = (   0.0024851   4.6597080  16.1671864  )
        45           O1  tau(  45) = (   3.2900926   2.9813045   4.7018136  )
        46           O1  tau(  46) = (   1.3039711   4.4726057   6.0039043  )
        47           O1  tau(  47) = (   5.2763189   4.4711207   6.0039473  )
        48           N1  tau(  48) = (   0.8610865   2.3037131  18.4629187  )
        49           N1  tau(  49) = (   6.4642385   2.8627238  17.5618644  )
        50           C1  tau(  50) = (   1.1134797   3.0572184  19.7121060  )
        51           H1  tau(  51) = (   0.2160447   3.0254214  20.3281890  )
        52           H1  tau(  52) = (   1.9467850   2.5764873  20.2353232  )
        53           H1  tau(  53) = (   1.3463996   4.0866186  19.4485780  )
        54           H1  tau(  54) = (   0.5832711   1.3114681  18.6183785  )
        55           H1  tau(  55) = (   5.5643591   2.7461405  18.0238738  )
        56           H1  tau(  56) = (   1.7079168   2.1891883  17.8702682  )
        57           O1  tau(  57) = (   4.0734316   0.3075885  18.7765601  )
        58           H1  tau(  58) = (   4.9241673   0.1787741  18.2816895  )
        59           H1  tau(  59) = (   3.8734322   5.3936830  19.1372508  )

     number of k points=    10  Fermi-Dirac smearing, width (Ry)=  0.0073
                       cart. coord. in units 2pi/alat
        k(    1) = (   0.0000000   0.0000000   0.0000000), wk =   0.1250000
        k(    2) = (   0.0000000   0.0419351   0.0000000), wk =   0.2500000
        k(    3) = (   0.0000000  -0.0838702   0.0000000), wk =   0.1250000
        k(    4) = (   0.0379955   0.0000049   0.0000000), wk =   0.2500000
        k(    5) = (   0.0379955   0.0419400   0.0000000), wk =   0.2500000
        k(    6) = (   0.0379955  -0.0838652   0.0000000), wk =   0.2500000
        k(    7) = (   0.0379955  -0.0419301   0.0000000), wk =   0.2500000
        k(    8) = (  -0.0759910  -0.0000099   0.0000000), wk =   0.1250000
        k(    9) = (  -0.0759910   0.0419252   0.0000000), wk =   0.2500000
        k(   10) = (  -0.0759910  -0.0838800   0.0000000), wk =   0.1250000

     Initial potential from superposition of free atoms

     starting charge  389.99912, renormalised to  406.00000

     negative rho (up, down):  1.392E-02 0.000E+00

     %%%%%%%%%%%%%%%%%%%%%%%%%%%%%%%%%%%%%%%%%%%%%%%%%%%%%%%%%%%%%%%%%%%%%%%%
     %                                                                      %
     % You are using vdW-DF, which was implemented by the Thonhauser group. %
     % Please cite the following two papers that made this development      %
     % possible and the two reviews that describe the various versions:     %
     %                                                                      %
     %   T. Thonhauser et al., PRL 115, 136402 (2015).                      %
     %   T. Thonhauser et al., PRB 76, 125112 (2007).                       %
     %   K. Berland et al., Rep. Prog. Phys. 78, 066501 (2015).             %
     %   D.C. Langreth et al., J. Phys.: Condens. Matter 21, 084203 (2009). %
     %                                                                      %
     %                                                                      %
     % If you are calculating the stress with vdW-DF, please also cite:     %
     %                                                                      %
     %   R. Sabatini et al., J. Phys.: Condens. Matter 24, 424209 (2012).   %
     %                                                                      %
     %%%%%%%%%%%%%%%%%%%%%%%%%%%%%%%%%%%%%%%%%%%%%%%%%%%%%%%%%%%%%%%%%%%%%%%%

     Adding external electric field

     Computed dipole along edir(3) :
        Dipole              -15.6809 Ry au,        -39.8568 Debye
        Dipole field         -0.0296 Ry au,

        Potential amp.        2.7431 Ry
        Total length         46.3494 bohr

     Starting wfcs are  308 atomic wfcs
  @ DRIVER MODE: Message from server: STATUS
  @ DRIVER MODE: Message from server: POSDATA
  @ DRIVER MODE: Reading and sharing cell
  @ DRIVER MODE: Reading and sharing positions
  @ DRIVER MODE: Received positions

     Self-consistent Calculation

     iteration #  1     ecut=    29.40 Ry     beta= 0.05
     Davidson diagonalization with overlap
     c_bands:  2 eigenvalues not converged
     c_bands:  5 eigenvalues not converged
     c_bands:  2 eigenvalues not converged
     c_bands:  4 eigenvalues not converged
     c_bands:  4 eigenvalues not converged
     c_bands:  5 eigenvalues not converged
     c_bands:  5 eigenvalues not converged
     c_bands:  1 eigenvalues not converged
     ethr =  1.00E-05,  avg # of iterations = 22.5

[...]

     total energy              =   -2140.14219336 Ry
     estimated scf accuracy    <    9575.48812961 Ry

     iteration #  2     ecut=    29.40 Ry     beta= 0.05
     Davidson diagonalization with overlap
     ethr =  1.00E-02,  avg # of iterations = 31.7

[...]

     iteration # 84     ecut=    29.40 Ry     beta= 0.05
     Davidson diagonalization with overlap
     c_bands:  1 eigenvalues not converged
     ethr =  5.38E-11,  avg # of iterations = 11.4

[...]

     total energy              =   -2977.68490491 Ry
     estimated scf accuracy    <       0.00000017 Ry

     iteration # 85     ecut=    29.40 Ry     beta= 0.05
     Davidson diagonalization with overlap
     ethr =  4.30E-11,  avg # of iterations =  6.8

     negative rho (up, down):  1.243E-02 0.000E+00

     Adding external electric field

     Computed dipole along edir(3) :
        Dipole                1.6077 Ry au,          4.0863 Debye
        Dipole field          0.0030 Ry au,

        Potential amp.       -0.2812 Ry
        Total length         46.3494 bohr

     End of self-consistent calculation

          k = 0.0000 0.0000 0.0000 ( 18029 PWs)   bands (ev):

   -54.9545 -54.9179 -54.9151 -54.8838 -54.8443 -54.8342 -54.7941 -54.7623
   -54.7581 -54.7472 -54.7271 -54.7222 -54.7139 -54.6601 -53.9331 -53.8991
   -31.5265 -31.4080 -31.3208 -31.2822 -31.2654 -31.2518 -31.2494 -31.2443
   -31.2098 -31.2078 -31.1633 -31.1629 -31.1574 -31.1272 -31.1086 -31.0887
   -31.0782 -31.0724 -31.0710 -31.0636 -31.0295 -31.0251 -31.0187 -31.0128
   -30.9927 -30.9749 -30.9641 -30.9634 -30.9560 -30.9559 -30.9454 -30.9369
   -30.9209 -30.9204 -30.9117 -30.9103 -30.8847 -30.8779 -30.8760 -30.8754
   -30.8566 -30.8561 -30.3419 -30.2494 -30.2272 -30.1583 -30.0716 -29.9607
   -18.9623 -18.2095 -15.7897 -15.5219 -15.3966 -15.1965 -15.1432 -15.0385
   -14.8785 -14.8178 -14.7529 -14.7280 -14.7223 -14.6953 -14.6228 -14.5673
   -14.5383 -14.4857 -14.4851 -14.4491 -14.4419 -14.4371 -14.3825 -14.3786
   -14.3420 -14.3283 -14.3207 -14.1777 -14.0990 -14.0516 -14.0402 -13.1966
   -12.4358 -12.3186 -10.9786  -7.5871  -6.3844  -5.9739  -5.7615  -4.0205
    -3.8327  -3.1336  -2.9630  -2.9510  -2.8731  -2.8493  -2.6787  -2.6188
    -2.5105  -2.3942  -2.3185  -2.2210  -2.1770  -2.1590  -2.1452  -2.0317
    -1.9461  -1.9087  -1.8694  -1.8309  -1.8138  -1.7683  -1.7472  -1.7371
    -1.7045  -1.6793  -1.5259  -1.4515  -1.4150  -1.3806  -1.3408  -1.2835
    -1.2619  -1.2456  -1.2400  -1.2321  -1.2159  -1.1915  -1.1557  -1.1238
    -1.0558  -0.9718  -0.9623  -0.8509  -0.7669  -0.6344  -0.5809  -0.5232
    -0.4928  -0.4263  -0.3848  -0.3367  -0.3010  -0.2945  -0.2481  -0.1607
    -0.1479  -0.0902  -0.0718   0.0131   0.0590   0.0648   0.0760   0.2525
     0.2628   0.2807   0.3835   0.4644   0.5032   0.5199   0.5773   0.6398
     0.6422   0.6805   0.7025   0.7331   0.8160   0.9197   0.9447   0.9830
     0.9974   1.0228   1.0399   1.0668   1.1061   1.1873   1.1934   1.2706
     1.3630   1.3741   1.6370   1.6692   2.0000   2.0268   2.0893   2.2751
     2.6640   2.7114   4.1475   4.2095   4.2548   4.2804   4.2986   4.3800
     4.3996   4.6155   4.6418   4.6428   4.6520

[...]

          k = 0.0380-0.0419 0.0000 ( 17876 PWs)   bands (ev):

[...]

          k =-0.0760-0.0000 0.0000 ( 17886 PWs)   bands (ev):

[...]

          k =-0.0760-0.0839 0.0000 ( 17948 PWs)   bands (ev):

   -54.9426 -54.9268 -54.9008 -54.9008 -54.8418 -54.8247 -54.8036 -54.7556
   -54.7470 -54.7415 -54.7324 -54.7294 -54.7245 -54.6625 -53.9162 -53.9159
   -31.3352 -31.3238 -31.2580 -31.2231 -31.2231 -31.2168 -31.1932 -31.1932
   -31.1682 -31.1657 -31.1566 -31.1529 -31.1449 -31.0949 -31.0812 -31.0806
   -31.0762 -31.0751 -31.0719 -31.0691 -31.0421 -31.0319 -31.0297 -31.0232
   -31.0223 -31.0202 -31.0202 -31.0191 -30.9982 -30.9805 -30.9744 -30.9678
   -30.9613 -30.9556 -30.9543 -30.9501 -30.9499 -30.9228 -30.9158 -30.9127
   -30.9081 -30.8979 -30.2400 -30.2398 -30.1545 -30.1543 -30.1150 -30.1150
   -18.9574 -18.2101 -15.2804 -15.1535 -15.0546 -14.9989 -14.9522 -14.9365
   -14.9189 -14.8656 -14.8355 -14.7757 -14.7520 -14.7037 -14.6594 -14.6555
   -14.6279 -14.5484 -14.5331 -14.5207 -14.5132 -14.4622 -14.4482 -14.4255
   -14.4027 -14.3987 -14.3804 -14.3079 -14.2980 -14.2939 -14.2551 -13.2059
   -12.4203 -12.4201 -10.9791  -7.5982  -6.3747  -5.9732  -5.7464  -3.9987
    -3.8273  -2.5624  -2.5405  -2.4053  -2.3914  -2.2800  -2.1878  -2.1375
    -2.1318  -1.9929  -1.9601  -1.9441  -1.9289  -1.9165  -1.8678  -1.8445
    -1.8085  -1.7911  -1.7815  -1.7716  -1.7560  -1.7356  -1.6834  -1.6795
    -1.6688  -1.6544  -1.6103  -1.5947  -1.5637  -1.5530  -1.5246  -1.5020
    -1.4353  -1.3407  -1.2931  -1.2500  -1.1955  -1.1428  -1.1368  -1.0581
    -1.0402  -1.0085  -0.9776  -0.9528  -0.8574  -0.7837  -0.6891  -0.6868
    -0.6831  -0.5635  -0.5232  -0.5058  -0.4931  -0.4629  -0.3786  -0.3684
    -0.3089  -0.2344  -0.2079  -0.2032  -0.1774  -0.0582  -0.0326   0.0274
     0.0578   0.0904   0.0925   0.1717   0.1848   0.2440   0.2586   0.2719
     0.3168   0.3345   0.4328   0.5227   0.5581   0.6613   0.7542   0.7835
     0.8786   0.9364   1.0409   1.0614   1.0853   1.1818   1.1900   1.2250
     1.3540   1.3609   1.4768   1.5165   1.5265   1.5291   2.4474   2.4489
     2.5315   2.5315   4.2740   4.3969   4.4124   4.4585   4.5130   4.6543
     4.6777   4.7248   4.7265   4.8010   4.8094

     the Fermi energy is     4.1998 ev

!    total energy              =   -2977.68490924 Ry
     estimated scf accuracy    <       0.00000005 Ry
     smearing contrib. (-TS)   =      -0.03700387 Ry
     internal energy E=F+TS    =   -2977.64790537 Ry

     The total energy is F=E-TS. E is the sum of the following terms:
     one-electron contribution =  -23305.72350466 Ry
     hartree contribution      =   11753.85963101 Ry
     xc contribution           =    -496.60574711 Ry
     ewald contribution        =    9070.81683782 Ry
     electric field correction =       0.00487757 Ry

     convergence has been achieved in  85 iterations

     Forces acting on atoms (cartesian axes, Ry/au):

     atom    1 type  1   force =     0.00008831   -0.00025172    0.09409294
     atom    2 type  1   force =    -0.00008348   -0.00045507   -0.17747185
     atom    3 type  2   force =     0.00006104   -0.00032915   -0.02124182
     atom    4 type  2   force =     0.00003638   -0.00179029    0.05731424
     atom    5 type  2   force =    -0.01079644   -0.00102185    0.00668121
     atom    6 type  2   force =     0.01199626   -0.00033779    0.00503529
     atom    7 type  1   force =    -0.00060317    0.00105546   -0.01460527
     atom    8 type  1   force =     0.00086510    0.00331514    0.00459989
     atom    9 type  2   force =     0.00000780   -0.00005189    0.00012510
     atom   10 type  2   force =    -0.00368552    0.00211007   -0.00164747
     atom   11 type  2   force =    -0.00016853    0.00061534   -0.00008825
     atom   12 type  2   force =     0.00018709    0.00028229   -0.00020660
     atom   13 type  1   force =    -0.00019681   -0.00027329    0.00011045
     atom   14 type  1   force =     0.00024554   -0.00022046   -0.00039146
     atom   15 type  2   force =     0.00020751    0.00034834   -0.00010403
     atom   16 type  2   force =    -0.00012161    0.00025124   -0.00019508
     atom   17 type  2   force =    -0.00009508   -0.00028787    0.00034045
     atom   18 type  2   force =     0.00017170    0.00004199    0.00000547
     atom   19 type  1   force =     0.00000047    0.00021619   -0.00041222
     atom   20 type  1   force =     0.00041327   -0.00001421   -0.00004542
     atom   21 type  2   force =     0.00011981   -0.00007752    0.10375827
     atom   22 type  2   force =     0.00056847   -0.00031553   -0.00065368
     atom   23 type  2   force =    -0.07067721   -0.00015019   -0.02713815
     atom   24 type  2   force =     0.07063918    0.00032166   -0.02713971
     atom   25 type  1   force =     0.00010994   -0.00016710    0.09371531
     atom   26 type  1   force =    -0.00006598   -0.00053795   -0.17769646
     atom   27 type  2   force =     0.00006768   -0.00005013   -0.02033827
     atom   28 type  2   force =     0.00006540   -0.00146022    0.05631562
     atom   29 type  2   force =    -0.01130504   -0.00039912    0.00736472
     atom   30 type  2   force =     0.01241725   -0.00000253    0.00575259
     atom   31 type  1   force =    -0.00074367    0.00574225   -0.01564042
     atom   32 type  1   force =     0.00082238   -0.00459350    0.00434368
     atom   33 type  2   force =     0.00002248    0.00015342    0.00027303
     atom   34 type  2   force =    -0.00321255   -0.00103045   -0.00519581
     atom   35 type  2   force =    -0.00010864   -0.00039469    0.00008608
     atom   36 type  2   force =     0.00021068   -0.00006408   -0.00008831
     atom   37 type  1   force =    -0.00012883    0.00043257   -0.00011623
     atom   38 type  1   force =     0.00009083    0.00015222   -0.00014276
     atom   39 type  2   force =    -0.00045095   -0.00030197   -0.00017108
     atom   40 type  2   force =     0.00012869   -0.00007934    0.00027501
     atom   41 type  2   force =    -0.00003791    0.00022417   -0.00014664
     atom   42 type  2   force =     0.00045374    0.00009134   -0.00026750
     atom   43 type  1   force =    -0.00016492   -0.00000016   -0.00009323
     atom   44 type  1   force =     0.00034168    0.00035125    0.00027855
     atom   45 type  2   force =     0.00010667   -0.00006404    0.10374050
     atom   46 type  2   force =    -0.07066492   -0.00007222   -0.02710839
     atom   47 type  2   force =     0.07064838    0.00033298   -0.02713550
     atom   48 type  3   force =    -0.00008386   -0.00039735    0.00065502
     atom   49 type  3   force =    -0.00019836   -0.00045585    0.00040634
     atom   50 type  4   force =     0.00366616   -0.00346285    0.00181225
     atom   51 type  5   force =     0.00054093    0.00081157   -0.00032585
     atom   52 type  5   force =    -0.00357223    0.00418053   -0.00181068
     atom   53 type  5   force =     0.00101674   -0.00085142   -0.00004036
     atom   54 type  5   force =     0.00040839   -0.00011419    0.00022721
     atom   55 type  5   force =     0.00035128   -0.00058513   -0.00013573
     atom   56 type  5   force =     0.00020704   -0.00012300    0.00041561
     atom   57 type  2   force =    -0.00083562    0.00075507    0.00147659
     atom   58 type  5   force =     0.00032863   -0.00062546   -0.00104945
     atom   59 type  5   force =     0.00038846   -0.00037551   -0.00035771

     Total force =     0.365898     Total SCF correction =     0.000554
  @ DRIVER MODE: Message from server: STATUS
  @ DRIVER MODE: Message from server: GETFORCE
  @ DRIVER MODE: Returning v,forces,stress,ensemble

     Writing output data file ./calc.save/
  @ DRIVER MODE: Message from server: EXIT
  @ DRIVE MODE: Exiting

     General routines

     Parallel routines

   This run was terminated on:   1:39: 6  16Sep2021

   JOB DONE.