     Program PWSCF v.6.8 starts on 11Oct2021 at 21:53:37

     R & G space division:  proc/nbgrp/npool/nimage =       4

     Reading input from /storage/home/hcoda1/3/ntian30/research/carbon/ACS_sus_calc/ads_slab/HNNH2/ACS_sus_calc.log/pw.inp
Warning: card &CELL ignored
Warning: card   CELL_DYNAMICS='IPI', ignored
Warning: card / ignored

     Current dimensions of program PWSCF are:
     Max number of different atomic species (ntypx) = 10
     Max number of k-points (npk) =  40000
     Max angular momentum in pseudopotentials (lmaxx) =  4
     Presently no symmetry can be used with electric field

     Message from routine cell_base_init:
     DEPRECATED: use true lattice parameter, not A to a.u. conversion factor

     IMPORTANT: XC functional enforced from input :
     Exchange-correlation= BEEF-VDW
                           (   1   4  43  14   2   0   0)
     Any further DFT definition will be discarded
     Please, verify this is what you really want

  @ DRIVER MODE: Connecting to
 qe_1139763_3174294.sched-torque.pace.gatech.eduvsalvn2j_scratch
  using UNIX socket
  @ DRIVER MODE: Message from server: STATUS
  @ DRIVER MODE: Message from server: INIT
  @ DRIVER MODE: Receiving replica           0          -1
  @ DRIVER MODE: Receiving encoded integer          25
  @ DRIVER MODE:  SCF:  T  FORCE:  T  STRESS:  F  VC:  F  ENSEMBLE:  F
  @ DRIVER MODE:  SCF:  T  FORCE:  T  STRESS:  F  VC:  F  ENSEMBLE:  F

     Using Slab Decomposition

     bravais-lattice index     =            0
     lattice parameter (alat)  =       1.8897  a.u.
     unit-cell volume          =    6658.9804 (a.u.)^3
     number of atoms/cell      =           52
     number of atomic types    =            4
     number of electrons       =       391.00
     number of Kohn-Sham states=          205
     kinetic-energy cutoff     =      29.3995  Ry
     charge density cutoff     =     293.9946  Ry
     scf convergence threshold =      7.3E-08
     mixing beta               =       0.0500
     number of iterations used =            8  plain     mixing
     Exchange-correlation= BEEF-VDW
                           (   1   4  43  14   2   0   0)

     celldm(1)=   1.889726  celldm(2)=   0.000000  celldm(3)=   0.000000
     celldm(4)=   0.000000  celldm(5)=   0.000000  celldm(6)=   0.000000

     crystal axes: (cart. coord. in units of alat)
               a(1) = (   6.579727   0.000000   0.000000 )
               a(2) = (  -0.000775   5.961596   0.000000 )
               a(3) = (   0.000000   0.000000  25.155947 )

     reciprocal axes: (cart. coord. in units 2 pi/alat)
               b(1) = (  0.151982  0.000020  0.000000 )
               b(2) = (  0.000000  0.167740  0.000000 )
               b(3) = (  0.000000  0.000000  0.039752 )

     PseudoPot. # 1 for Ti read from file:
     /storage/coda1/p-amedford6/0/shared/rich_project_chbe-medford/medford-share/data/pseudos_module/espresso/nninc/pbe/van/Ti.UPF
     MD5 check sum: 8e4df49b7f0d34bbd5052bf3f5ea0213
     Pseudo is Ultrasoft, Zval = 12.0
     Generated by new atomic code, or converted to UPF format
     Using radial grid of  851 points,  6 beta functions with:
                l(1) =   0
                l(2) =   0
                l(3) =   1
                l(4) =   1
                l(5) =   2
                l(6) =   2
     Q(r) pseudized with  8 coefficients,  rinner =    1.000   1.000   1.000
                                                       1.000   1.000

     PseudoPot. # 2 for O  read from file:
     /storage/coda1/p-amedford6/0/shared/rich_project_chbe-medford/medford-share/data/pseudos_module/espresso/nninc/pbe/van/O.UPF
     MD5 check sum: 78c19812648e8988a0fe644b0f25305e
     Pseudo is Ultrasoft, Zval =  6.0
     Generated by new atomic code, or converted to UPF format
     Using radial grid of  737 points,  4 beta functions with:
                l(1) =   0
                l(2) =   0
                l(3) =   1
                l(4) =   1
     Q(r) pseudized with  8 coefficients,  rinner =    0.800   0.800   0.800

     PseudoPot. # 3 for H  read from file:
     /storage/coda1/p-amedford6/0/shared/rich_project_chbe-medford/medford-share/data/pseudos_module/espresso/nninc/pbe/van/H.UPF
     MD5 check sum: b5ee9d7bfd3a09ee7748110bda690ff7
     Pseudo is Ultrasoft, Zval =  1.0
     Generated by new atomic code, or converted to UPF format
     Using radial grid of  615 points,  1 beta functions with:
                l(1) =   0
     Q(r) pseudized with  8 coefficients,  rinner =    0.800

     PseudoPot. # 4 for N  read from file:
     /storage/coda1/p-amedford6/0/shared/rich_project_chbe-medford/medford-share/data/pseudos_module/espresso/nninc/pbe/van/N.UPF
     MD5 check sum: 90d10febe142ad51ac9d5be1deb811c4
     Pseudo is Ultrasoft, Zval =  5.0
     Generated by new atomic code, or converted to UPF format
     Using radial grid of  729 points,  4 beta functions with:
                l(1) =   0
                l(2) =   0
                l(3) =   1
                l(4) =   1
     Q(r) pseudized with  8 coefficients,  rinner =    0.800   0.800   0.800

     atomic species   valence    mass     pseudopotential
        Ti1           12.00    47.86700     Ti( 1.00)
        O1             6.00    15.99900     O ( 1.00)
        H1             1.00     1.00800     H ( 1.00)
        N1             5.00    14.00700     N ( 1.00)

     No symmetry found

   Cartesian axes

     site n.     atom                  positions (alat units)
         1           Ti1 tau(   1) = (   0.0004258   2.9801865   6.0000000  )
         2           Ti1 tau(   2) = (   3.2906075   1.4906267   6.0002472  )
         3           O1  tau(   3) = (   0.0006271   0.0005054   7.9858123  )
         4           O1  tau(   4) = (   3.2906025   0.0005020   7.3038282  )
         5           O1  tau(   5) = (   4.5942328   1.4918067   9.2879030  )
         6           O1  tau(   6) = (   1.9868534   1.4903216   9.2879459  )
         7           Ti1 tau(   7) = (   3.2908112   2.9011704   9.1816539  )
         8           Ti1 tau(   8) = (   0.0014763   1.4060218   9.2969173  )
         9           O1  tau(   9) = (   3.2834636   5.9536718  11.3427651  )
        10           O1  tau(  10) = (   6.5788821   5.9518561  10.6083680  )
        11           O1  tau(  11) = (   1.2890473   1.4788594  12.6512550  )
        12           O1  tau(  12) = (   5.2768558   1.4824746  12.6415477  )
        13           Ti1 tau(  13) = (   6.5636691   2.9599532  12.7907335  )
        14           Ti1 tau(  14) = (   3.2780346   1.4769099  12.4944687  )
        15           O1  tau(  15) = (   6.5512709   5.9430013  14.6697103  )
        16           O1  tau(  16) = (   3.2864993   5.9466181  13.9536888  )
        17           O1  tau(  17) = (   4.5254155   1.4925735  16.1175678  )
        18           O1  tau(  18) = (   2.0219265   1.4857223  16.1066840  )
        19           Ti1 tau(  19) = (   3.2748212   2.9638608  15.7151074  )
        20           Ti1 tau(  20) = (   0.0132411   1.3635913  16.0610475  )
        21           O1  tau(  21) = (   3.2904802   0.0005063   4.7018136  )
        22           O1  tau(  22) = (   0.0080068   5.9463817  17.2233334  )
        23           O1  tau(  23) = (   1.3043587   1.4918075   6.0039043  )
        24           O1  tau(  24) = (   5.2767064   1.4903225   6.0039473  )
        25           Ti1 tau(  25) = (   0.0000382   5.9609847   6.0000000  )
        26           Ti1 tau(  26) = (   3.2902200   4.4714249   6.0002472  )
        27           O1  tau(  27) = (   0.0002396   2.9813036   7.9858123  )
        28           O1  tau(  28) = (   3.2902150   2.9813002   7.3038282  )
        29           O1  tau(  29) = (   4.5938453   4.4726049   9.2879030  )
        30           O1  tau(  30) = (   1.9864658   4.4711199   9.2879459  )
        31           Ti1 tau(  31) = (   3.2900885   5.8829342   9.1674613  )
        32           Ti1 tau(  32) = (   0.0010402   4.3495341   9.3648894  )
        33           O1  tau(  33) = (   3.2817592   2.9670725  11.3391535  )
        34           O1  tau(  34) = (   0.0014813   2.9655947  10.5838815  )
        35           O1  tau(  35) = (   1.2904457   4.4616386  12.6390961  )
        36           O1  tau(  36) = (   5.2753745   4.4574550  12.6308120  )
        37           Ti1 tau(  37) = (   6.5724122   5.9422659  12.5862661  )
        38           Ti1 tau(  38) = (   3.2782235   4.4569240  12.4854273  )
        39           O1  tau(  39) = (   6.5661373   2.9844695  14.6936362  )
        40           O1  tau(  40) = (   3.2824333   2.9713950  13.9250383  )
        41           O1  tau(  41) = (   4.5250662   4.4369383  16.1185980  )
        42           O1  tau(  42) = (   2.0183575   4.4404105  16.1194212  )
        43           Ti1 tau(  43) = (   3.2987276   5.9481038  15.7451531  )
        44           Ti1 tau(  44) = (   0.0021247   4.5059556  16.0057258  )
        45           O1  tau(  45) = (   3.2900926   2.9813045   4.7018136  )
        46           O1  tau(  46) = (   1.3039711   4.4726057   6.0039043  )
        47           O1  tau(  47) = (   5.2763189   4.4711207   6.0039473  )
        48           H1  tau(  48) = (   5.5811061   2.9907737  17.8912486  )
        49           N1  tau(  49) = (   6.5221854   2.9791106  17.4969217  )
        50           N1  tau(  50) = (   0.8249900   2.9790587  18.6202786  )
        51           H1  tau(  51) = (   1.2023370   2.0403039  18.7650705  )
        52           H1  tau(  52) = (   1.6021741   3.6112164  18.4363779  )

     number of k points=    10  Fermi-Dirac smearing, width (Ry)=  0.0073
                       cart. coord. in units 2pi/alat
        k(    1) = (   0.0000000   0.0000000   0.0000000), wk =   0.1250000
        k(    2) = (   0.0000000   0.0419351   0.0000000), wk =   0.2500000
        k(    3) = (   0.0000000  -0.0838702   0.0000000), wk =   0.1250000
        k(    4) = (   0.0379955   0.0000049   0.0000000), wk =   0.2500000
        k(    5) = (   0.0379955   0.0419400   0.0000000), wk =   0.2500000
        k(    6) = (   0.0379955  -0.0838652   0.0000000), wk =   0.2500000
        k(    7) = (   0.0379955  -0.0419301   0.0000000), wk =   0.2500000
        k(    8) = (  -0.0759910  -0.0000099   0.0000000), wk =   0.1250000
        k(    9) = (  -0.0759910   0.0419252   0.0000000), wk =   0.2500000
        k(   10) = (  -0.0759910  -0.0838800   0.0000000), wk =   0.1250000

     Initial potential from superposition of free atoms

     starting charge  374.99920, renormalised to  391.00000

     negative rho (up, down):  1.957E-02 0.000E+00

     %%%%%%%%%%%%%%%%%%%%%%%%%%%%%%%%%%%%%%%%%%%%%%%%%%%%%%%%%%%%%%%%%%%%%%%%
     %                                                                      %
     % You are using vdW-DF, which was implemented by the Thonhauser group. %
     % Please cite the following two papers that made this development      %
     % possible and the two reviews that describe the various versions:     %
     %                                                                      %
     %   T. Thonhauser et al., PRL 115, 136402 (2015).                      %
[...]
     atom   13 type  1   force =    -0.00022834   -0.00079353    0.00231241
     atom   14 type  1   force =    -0.00043670   -0.00049271   -0.00230366
     atom   15 type  2   force =     0.00039454    0.00006722    0.00297807
     atom   16 type  2   force =     0.00008736    0.00028723    0.00118699
     atom   17 type  2   force =    -0.00285903   -0.00038768   -0.00065090
     atom   18 type  2   force =     0.00132577   -0.00011265   -0.00080564
     atom   19 type  1   force =     0.00084034   -0.00083082   -0.00184989
     atom   20 type  1   force =     0.00051878   -0.00383322   -0.00018670
     atom   21 type  2   force =     0.00009091    0.00004874    0.10301358
     atom   22 type  2   force =     0.00012988   -0.00006795   -0.00343102
     atom   23 type  2   force =    -0.07127891    0.00054476   -0.03059669
     atom   24 type  2   force =     0.07124055    0.00095771   -0.03061871
     atom   25 type  1   force =     0.00007550   -0.00111140    0.11926042
     atom   26 type  1   force =     0.00003396   -0.00262477   -0.17383660
     atom   27 type  2   force =     0.00006356   -0.00162064   -0.02804409
     atom   28 type  2   force =     0.00002575   -0.00142009    0.05324707
     atom   29 type  2   force =    -0.01801244    0.00040481    0.00639356
     atom   30 type  2   force =     0.01780235    0.00112520    0.00591101
     atom   31 type  1   force =     0.00019118   -0.00242707   -0.01175441
     atom   32 type  1   force =     0.00007758   -0.00190248    0.00027800
     atom   33 type  2   force =    -0.00012390    0.00012089    0.00351914
     atom   34 type  2   force =    -0.00025505    0.00103784   -0.00332451
     atom   35 type  2   force =    -0.00109916    0.00046264    0.00034550
     atom   36 type  2   force =     0.00096945    0.00040317    0.00034631
     atom   37 type  1   force =    -0.00036446   -0.00049862   -0.00022937
     atom   38 type  1   force =    -0.00045118   -0.00029353   -0.00208831
     atom   39 type  2   force =    -0.00000737    0.00117018   -0.00091644
     atom   40 type  2   force =    -0.00009542   -0.00001740    0.00105914
     atom   41 type  2   force =    -0.00235636   -0.00008960   -0.00081870
     atom   42 type  2   force =     0.00132781   -0.00032735   -0.00002796
     atom   43 type  1   force =     0.00170598   -0.00032521   -0.00098951
     atom   44 type  1   force =     0.00027303    0.00291311   -0.00092920
     atom   45 type  2   force =     0.00008374    0.00013175    0.10294574
     atom   46 type  2   force =    -0.07157483   -0.00049597   -0.03054696
     atom   47 type  2   force =     0.07153969   -0.00004530   -0.03059150
     atom   48 type  3   force =     0.00416392    0.00058195   -0.00232628
     atom   49 type  4   force =    -0.01084320    0.00061422   -0.00633859
     atom   50 type  4   force =     0.01294490   -0.00318055    0.00851233
     atom   51 type  3   force =    -0.00145036    0.00605375   -0.00121408
     atom   52 type  3   force =    -0.00439542   -0.00302391    0.00108752

     Total force =     0.377579     Total SCF correction =     0.000729
  @ DRIVER MODE: Message from server: STATUS
  @ DRIVER MODE: Message from server: GETFORCE
  @ DRIVER MODE: Returning v,forces,stress,ensemble

     Writing config to output data dir ./calc.save/
  @ DRIVER MODE: Message from server: STATUS
  @ DRIVER MODE: Message from server: INIT
  @ DRIVER MODE: Receiving replica           0           0
  @ DRIVER MODE: Receiving encoded integer          25
  @ DRIVER MODE:  SCF:  T  FORCE:  T  STRESS:  F  VC:  F  ENSEMBLE:  F
  @ DRIVER MODE:  SCF:  T  FORCE:  T  STRESS:  F  VC:  F  ENSEMBLE:  F
  @ DRIVER MODE: Message from server: STATUS
  @ DRIVER MODE: Message from server: POSDATA
  @ DRIVER MODE: Reading and sharing positions
  @ DRIVER MODE: Received positions
     NEW-OLD atomic charge density approx. for the potential

[...]

     Self-consistent Calculation

[...]

     iteration # 25     ecut=    29.40 Ry     beta= 0.05
     Davidson diagonalization with overlap
     ethr =  1.53E-10,  avg # of iterations = 11.5

[...]

     total energy              =   -2927.71129904 Ry
     estimated scf accuracy    <       0.00000010 Ry

     iteration # 26     ecut=    29.40 Ry     beta= 0.05
     Davidson diagonalization with overlap
     c_bands:  1 eigenvalues not converged
     ethr =  2.47E-11,  avg # of iterations = 14.0

[...]

     End of self-consistent calculation

[...]

          k = 0.0380-0.0419 0.0000 ( 17876 PWs)   bands (ev):

[...]

          k =-0.0760-0.0839 0.0000 ( 17948 PWs)   bands (ev):

   -56.1276 -56.1160 -56.1072 -56.1055 -56.0377 -56.0036 -55.9725 -55.9484
   -55.8918 -55.8782 -55.8560 -55.8424 -55.7622 -55.7578 -55.0600 -55.0594
   -32.4999 -32.4964 -32.4330 -32.4231 -32.4159 -32.4101 -32.4001 -32.3986
   -32.3373 -32.3365 -32.3331 -32.3037 -32.3016 -32.2850 -32.2707 -32.2567
   -32.2488 -32.2475 -32.2345 -32.2324 -32.2199 -32.2084 -32.1939 -32.1838
   -32.1758 -32.1672 -32.1642 -32.1590 -32.1419 -32.1072 -32.0868 -32.0849
   -32.0837 -32.0657 -32.0650 -32.0591 -32.0480 -32.0206 -32.0174 -31.9906
   -31.9484 -31.9463 -31.3857 -31.3850 -31.2972 -31.2964 -31.2573 -31.2566
   -16.5408 -16.3590 -16.3128 -16.0810 -16.0657 -16.0229 -15.9453 -15.8927
   -15.8876 -15.8627 -15.8553 -15.7954 -15.7850 -15.7729 -15.7447 -15.6479
   -15.6461 -15.6345 -15.6156 -15.5541 -15.5385 -15.5040 -15.4734 -15.4643
   -15.4376 -15.4097 -15.3795 -15.3576 -15.2962 -15.2792 -13.5663 -13.5655
   -11.2828  -5.2611  -4.5645  -3.6969  -3.6467  -3.5981  -3.2940  -3.2762
    -3.2474  -3.1326  -3.0647  -3.0387  -3.0058  -2.9770  -2.9413  -2.9299
    -2.9149  -2.9106  -2.9023  -2.8997  -2.8681  -2.8381  -2.8224  -2.7760
    -2.7483  -2.7397  -2.7233  -2.7070  -2.7024  -2.6527  -2.6489  -2.6439
    -2.6352  -2.5186  -2.3854  -2.3684  -2.3303  -2.2113  -2.1877  -2.1819
    -2.1520  -2.1413  -2.1353  -2.0787  -1.9740  -1.8691  -1.8200  -1.7992
    -1.7754  -1.7134  -1.5966  -1.5458  -1.5353  -1.5042  -1.4424  -1.4225
    -1.3714  -1.3656  -1.2604  -1.2335  -1.2102  -1.1357  -1.0743  -1.0566
    -1.0344  -0.9751  -0.9278  -0.9072  -0.9001  -0.8532  -0.7525  -0.7439
    -0.6953  -0.6847  -0.6324  -0.6268  -0.5737  -0.4450  -0.2044  -0.1661
    -0.0939  -0.0711   0.0206   0.0525   0.0798   0.1747   0.2031   0.3045
     0.3449   0.4397   0.4466   0.4622   0.5048   0.6699   1.3080   1.3107
     1.3844   1.3907   1.5650   3.2132   3.2506   3.2753   3.3391   3.5195
     3.5431   3.5441   3.5586   3.5907   3.6534

     the Fermi energy is     3.0152 ev

!    total energy              =   -2927.71129982 Ry
     estimated scf accuracy    <       0.00000006 Ry
     smearing contrib. (-TS)   =      -0.02327497 Ry
     internal energy E=F+TS    =   -2927.68802485 Ry

     The total energy is F=E-TS. E is the sum of the following terms:
     one-electron contribution =  -24559.81152253 Ry
     hartree contribution      =   12363.09640642 Ry
     xc contribution           =    -481.65269066 Ry
     ewald contribution        =    9750.67938534 Ry
     electric field correction =       0.00039658 Ry

     convergence has been achieved in  26 iterations

     Forces acting on atoms (cartesian axes, Ry/au):

     atom    1 type  1   force =     0.00026783    0.00113279    0.11025646
     atom    2 type  1   force =     0.00005615    0.00172921   -0.17429931
     atom    3 type  2   force =     0.00010781    0.00665244   -0.03420544
     atom    4 type  2   force =     0.00001567   -0.00085295    0.05080841
     atom    5 type  2   force =    -0.01743795   -0.00133957    0.00576134
     atom    6 type  2   force =     0.01689072   -0.00100935    0.00539254
     atom    7 type  1   force =     0.00006262    0.00260164   -0.01785494
     atom    8 type  1   force =    -0.00002465    0.00010737    0.00031435
     atom    9 type  2   force =    -0.00001844    0.00009842   -0.00039538
     atom   10 type  2   force =    -0.00000286   -0.00052017   -0.00005242
     atom   11 type  2   force =     0.00010935   -0.00024716   -0.00004260
     atom   12 type  2   force =    -0.00012002   -0.00036564   -0.00020131
     atom   13 type  1   force =    -0.00041635   -0.00038943    0.00007421
     atom   14 type  1   force =    -0.00079722    0.00007730   -0.00012128
     atom   15 type  2   force =    -0.00011821   -0.00026366    0.00066908
     atom   16 type  2   force =     0.00011871   -0.00014299   -0.00027753
     atom   17 type  2   force =     0.00011462   -0.00026317    0.00051559
     atom   18 type  2   force =     0.00097149   -0.00049053    0.00048806
     atom   19 type  1   force =    -0.00004198    0.00035655    0.00003560
     atom   20 type  1   force =    -0.00009196   -0.00079908    0.00107885
     atom   21 type  2   force =     0.00009995    0.00007243    0.10315679
     atom   22 type  2   force =     0.00008690    0.00050984   -0.00153884
     atom   23 type  2   force =    -0.07113534    0.00062987   -0.03027336
     atom   24 type  2   force =     0.07109957    0.00104771   -0.03028295
     atom   25 type  1   force =     0.00005206   -0.00108936    0.11738182
     atom   26 type  1   force =     0.00004787   -0.00255429   -0.17413597
     atom   27 type  2   force =     0.00006901   -0.00281247   -0.02991422
     atom   28 type  2   force =     0.00002522   -0.00147874    0.05396992
     atom   29 type  2   force =    -0.01859047    0.00057192    0.00666146
     atom   30 type  2   force =     0.01807116    0.00124281    0.00630442
     atom   31 type  1   force =     0.00039820   -0.00272507   -0.01223895
     atom   32 type  1   force =     0.00000254    0.00034919    0.00067505
     atom   33 type  2   force =     0.00001637   -0.00009099   -0.00045093
     atom   34 type  2   force =     0.00006702    0.00030474    0.00043489
     atom   35 type  2   force =     0.00002346    0.00007251   -0.00027379
     atom   36 type  2   force =     0.00003849    0.00002538   -0.00031391
     atom   37 type  1   force =    -0.00055180   -0.00047549    0.00093685
     atom   38 type  1   force =    -0.00074468    0.00003198   -0.00012750
     atom   39 type  2   force =    -0.00013718   -0.00064402   -0.00040307
     atom   40 type  2   force =     0.00000517   -0.00009369   -0.00059418
     atom   41 type  2   force =    -0.00028776    0.00016634    0.00045239
     atom   42 type  2   force =     0.00081786    0.00036799    0.00005380
     atom   43 type  1   force =     0.00038528   -0.00019919   -0.00004040
     atom   44 type  1   force =     0.00052895    0.00059533    0.00056004
     atom   45 type  2   force =     0.00008331    0.00014273    0.10308806
     atom   46 type  2   force =    -0.07142643   -0.00053931   -0.03021065
     atom   47 type  2   force =     0.07139315   -0.00009742   -0.03025885
     atom   48 type  3   force =     0.00054674    0.00027234   -0.00020767
     atom   49 type  4   force =     0.00007494   -0.00001738    0.00033446
     atom   50 type  4   force =     0.00000151   -0.00069036   -0.00082971
     atom   51 type  3   force =    -0.00016515    0.00057091   -0.00033562
     atom   52 type  3   force =    -0.00054130    0.00046171    0.00047630

     Total force =     0.376065     Total SCF correction =     0.001026
  @ DRIVER MODE: Message from server: STATUS
  @ DRIVER MODE: Message from server: GETFORCE
  @ DRIVER MODE: Returning v,forces,stress,ensemble

     Writing config to output data dir ./calc.save/
  @ DRIVER MODE: Message from server: STATUS
  @ DRIVER MODE: Message from server: INIT
  @ DRIVER MODE: Receiving replica           0           0
  @ DRIVER MODE: Receiving encoded integer           2
  @ DRIVER MODE:  SCF:  T  FORCE:  T  STRESS:  F  VC:  F  ENSEMBLE:  F
  @ DRIVER MODE:  SCF:  F  FORCE:  F  STRESS:  F  VC:  F  ENSEMBLE:  T
  @ DRIVER MODE: Message from server: STATUS
  @ DRIVER MODE: Message from server: POSDATA
  @ DRIVER MODE: Reading and sharing positions
  @ DRIVER MODE: Received positions
     NEW-OLD atomic charge density approx. for the potential

[...]

     Adding external electric field

     Computed dipole along edir(3) :
        Dipole                0.4584 Ry au,          1.1652 Debye
        Dipole field          0.0009 Ry au,

        Potential amp.       -0.0802 Ry
        Total length         46.3494 bohr

  @ DRIVER MODE: BEEF-vdw

[...]

     negative rho (up, down):  1.937E-02 0.000E+00

     negative rho (up, down):  1.937E-02 0.000E+00
 BEEFens 2000 ensemble energies
             -0.345746024933562E+02
             -0.202611148138645E+01
             -0.712059555200928E+01
              0.240020620764901E+02
             -0.118760562708939E+02
             -0.918555514398605E+01
             -0.239777318997266E+02
             -0.501563001785815E+02
             -0.213900529747445E+02
             -0.225437974501411E+02
             -0.209651096114715E+02
              0.424873435368813E+01
              0.199214745278677E+01
             -0.106550602074563E+01
              0.171990818719418E+01
              0.264315065593678E+02
             -0.101704843798328E+02
             -0.718166526949327E+01
              0.117337453014262E+02
             -0.617356593386339E+02
              0.309756009496013E+02
             -0.132939204940507E+02
             -0.239589223122213E+01
             -0.557395717660829E+01
             -0.977872638632164E+00
             -0.211246833788505E+01
              0.478681123291395E+02
             -0.150138059062766E+02
             -0.398844464489355E+01
             -0.303058956017771E+02
              0.391382970064878E+02
             -0.431972233195263E+01
             -0.213076496159330E+02
              0.111853327727015E+02
             -0.204980159718315E+01
              0.130069563438558E+02
             -0.535767649447848E+00
              0.270915903823959E+01
              0.189029575481443E+02
             -0.544741367130482E+02
              0.303482787846047E+02
              0.810573580226878E+01
             -0.624976873537378E+01
             -0.174200206956382E+02
              0.687938277707838E+01
             -0.109193206825735E+02
              0.248373911186084E+02
              0.198337886847858E+02
             -0.127769752679579E+02
             -0.163427557531463E+02
             -0.172796389856662E+02
             -0.207304871825692E+02
              0.105282712029779E+02
             -0.270006569059132E+02
              0.827050424447481E+01
              0.345076670289891E+02
              0.398048378797787E+02
              0.185262834768897E+02
              0.825742041739842E+01
              0.172883932854127E+02
[...]
             -0.406958694084289E+02
              0.277439616868645E+01
             -0.146306640884567E+01
             -0.567188455914857E+01
              0.610456868051585E-01
             -0.362288377012705E+02
             -0.698823255370667E+01
              0.489891727262341E+01
              0.739746434676236E+01
              0.271525434492441E+02
             -0.237442377357790E+02
              0.309357728124301E+02
             -0.221613296299614E+02
              0.142496737570991E+02
              0.224432990026481E+02

 BEEF-vdW xc energy contributions
           1 :   -408.161611122966
           2 :    355.698506038471
           3 :   -270.930565669936
           4 :    182.317384842041
           5 :   -112.647665826652
           6 :    71.0296947145982
           7 :   -53.7350480868295
           8 :    50.6753729611259
           9 :   -52.3753408062490
          10 :    53.6042914011502
          11 :   -53.1651630187920
          12 :    51.6361217867696
          13 :   -49.4400949732373
          14 :    46.3218585426893
          15 :   -41.9302091290233
          16 :    36.4917179101008
          17 :   -30.9316351837088
          18 :    26.4117898535453
          19 :   -23.7297844548681
          20 :    22.9900253418337
          21 :   -23.7006670338727
          22 :    25.1144463526907
          23 :   -26.5515170611672
          24 :    27.5282978295827
          25 :   -27.7313684777307
          26 :    26.9693326403992
          27 :   -25.2014082869605
          28 :    22.6214267159202
          29 :   -19.6980553175146
          30 :    17.0684380512484
          31 :   -47.9193046699856
          32 :   -32.5457293265134
  @ DRIVER MODE: Message from server: STATUS
  @ DRIVER MODE: Message from server: GETFORCE
  @ DRIVER MODE: Returning v,forces,stress,ensemble
  @ DRIVE MODE: Returning Ensemble Energies

     Writing config to output data dir ./calc.save/
  @ DRIVER MODE: Message from server: EXIT
  @ DRIVE MODE: Exiting

     General routines

     Parallel routines

   This run was terminated on:   6:31:31  12Oct2021

   JOB DONE.