     Program PWSCF v.6.7GPU starts on  9Sep2021 at 15:13:19

     R & G space division:  proc/nbgrp/npool/nimage =      10
     Reading input from /storage/home/hcoda1/3/ntian30/research/carbon/CxH_vib/CH3_calc/ads_slab/CH3NH2NH_c/out_0051/pw.inp
Warning: card &CELL ignored
Warning: card   CELL_DYNAMICS='IPI', ignored
Warning: card / ignored

     Current dimensions of program PWSCF are:
     Max number of different atomic species (ntypx) = 10
     Max number of k-points (npk) =  40000
     Max angular momentum in pseudopotentials (lmaxx) =  3
     Presently no symmetry can be used with electric field

     Message from routine cell_base_init:
     DEPRECATED: use true lattice parameter, not A to a.u. conversion factor

     IMPORTANT: XC functional enforced from input :
     Exchange-correlation= BEEF-VDW
                           (   1   4  43  14   2   0   0)
     Any further DFT definition will be discarded
     Please, verify this is what you really want

  @ DRIVER MODE: Connecting to
 qe_1139763_2767400.sched-torque.pace.gatech.edufh_1o0pi_scratch
  using UNIX socket
  @ DRIVER MODE: Message from server: STATUS
  @ DRIVER MODE: Message from server: INIT
  @ DRIVER MODE: Receiving replica           0          -1
  @ DRIVER MODE: Receiving encoded integer          25
  @ DRIVER MODE:  SCF:  T  FORCE:  T  STRESS:  F  VC:  F  ENSEMBLE:  F
  @ DRIVER MODE:  SCF:  T  FORCE:  T  STRESS:  F  VC:  F  ENSEMBLE:  F

     Using Slab Decomposition

     bravais-lattice index     =            0
     lattice parameter (alat)  =       1.8897  a.u.
     unit-cell volume          =    6658.9804 (a.u.)^3
     number of atoms/cell      =           56
     number of atomic types    =            5
     number of electrons       =       398.00
     number of Kohn-Sham states=          209
     kinetic-energy cutoff     =      29.3995  Ry
     charge density cutoff     =     293.9946  Ry
     scf convergence threshold =      7.3E-08
     mixing beta               =       0.0500
     number of iterations used =            8  plain     mixing
     Exchange-correlation= BEEF-VDW
                           (   1   4  43  14   2   0   0)

     celldm(1)=   1.889726  celldm(2)=   0.000000  celldm(3)=   0.000000
     celldm(4)=   0.000000  celldm(5)=   0.000000  celldm(6)=   0.000000

     crystal axes: (cart. coord. in units of alat)
               a(1) = (   6.579727   0.000000   0.000000 )
               a(2) = (  -0.000775   5.961596   0.000000 )
               a(3) = (   0.000000   0.000000  25.155947 )

     reciprocal axes: (cart. coord. in units 2 pi/alat)
               b(1) = (  0.151982  0.000020  0.000000 )
               b(2) = (  0.000000  0.167740  0.000000 )
               b(3) = (  0.000000  0.000000  0.039752 )

     PseudoPot. # 1 for Ti read from file:
     /storage/coda1/p-amedford6/0/shared/rich_project_chbe-medford/medford-share/data/pseudos_module/espresso/nninc/pbe/van/Ti.UPF
     MD5 check sum: 8e4df49b7f0d34bbd5052bf3f5ea0213
     Pseudo is Ultrasoft, Zval = 12.0
     Generated by new atomic code, or converted to UPF format
     Using radial grid of  851 points,  6 beta functions with:
                l(1) =   0
                l(2) =   0
                l(3) =   1
                l(4) =   1
                l(5) =   2
                l(6) =   2
     Q(r) pseudized with  8 coefficients,  rinner =    1.000   1.000   1.000
                                                       1.000   1.000

     PseudoPot. # 2 for O  read from file:
     /storage/coda1/p-amedford6/0/shared/rich_project_chbe-medford/medford-share/data/pseudos_module/espresso/nninc/pbe/van/O.UPF
     MD5 check sum: 78c19812648e8988a0fe644b0f25305e
     Pseudo is Ultrasoft, Zval =  6.0
     Generated by new atomic code, or converted to UPF format
     Using radial grid of  737 points,  4 beta functions with:
                l(1) =   0
                l(2) =   0
                l(3) =   1
                l(4) =   1
     Q(r) pseudized with  8 coefficients,  rinner =    0.800   0.800   0.800

     PseudoPot. # 3 for N  read from file:
     /storage/coda1/p-amedford6/0/shared/rich_project_chbe-medford/medford-share/data/pseudos_module/espresso/nninc/pbe/van/N.UPF
     MD5 check sum: 90d10febe142ad51ac9d5be1deb811c4
     Pseudo is Ultrasoft, Zval =  5.0
     Generated by new atomic code, or converted to UPF format
     Using radial grid of  729 points,  4 beta functions with:
                l(1) =   0
                l(2) =   0
                l(3) =   1
                l(4) =   1
     Q(r) pseudized with  8 coefficients,  rinner =    0.800   0.800   0.800

     PseudoPot. # 4 for C  read from file:
     /storage/coda1/p-amedford6/0/shared/rich_project_chbe-medford/medford-share/data/pseudos_module/espresso/nninc/pbe/van/C.UPF
     MD5 check sum: 1a69bf6b8db32088f5b2163dbdb77a27
     Pseudo is Ultrasoft, Zval =  4.0
     Generated by new atomic code, or converted to UPF format
     Using radial grid of  721 points,  4 beta functions with:
                l(1) =   0
                l(2) =   0
                l(3) =   1
                l(4) =   1
     Q(r) pseudized with  8 coefficients,  rinner =    0.800   0.800   0.800

     PseudoPot. # 5 for H  read from file:
     /storage/coda1/p-amedford6/0/shared/rich_project_chbe-medford/medford-share/data/pseudos_module/espresso/nninc/pbe/van/H.UPF
     MD5 check sum: b5ee9d7bfd3a09ee7748110bda690ff7
     Pseudo is Ultrasoft, Zval =  1.0
     Generated by new atomic code, or converted to UPF format
     Using radial grid of  615 points,  1 beta functions with:
                l(1) =   0
     Q(r) pseudized with  8 coefficients,  rinner =    0.800

     atomic species   valence    mass     pseudopotential
        Ti1           12.00    47.86700     Ti( 1.00)
        O1             6.00    15.99900     O ( 1.00)
        N1             5.00    14.00700     N ( 1.00)
        C1             4.00    12.01100     C ( 1.00)
        H1             1.00     1.00800     H ( 1.00)

     No symmetry found

   Cartesian axes

     site n.     atom                  positions (alat units)
         1           Ti1 tau(   1) = (   0.0004258   2.9801865   6.0000000  )
         2           Ti1 tau(   2) = (   3.2906075   1.4906267   6.0002472  )
         3           O1  tau(   3) = (   0.0006271   0.0005054   7.9858123  )
         4           O1  tau(   4) = (   3.2906025   0.0005020   7.3038282  )
         5           O1  tau(   5) = (   4.5942328   1.4918067   9.2879030  )
         6           O1  tau(   6) = (   1.9868534   1.4903216   9.2879459  )
         7           Ti1 tau(   7) = (   3.2907910   2.8959150   9.1758416  )
         8           Ti1 tau(   8) = (   0.0015273   1.4827037   9.2680791  )
         9           O1  tau(   9) = (   3.3032705   0.0110091  11.3485381  )
        10           O1  tau(  10) = (   0.0116148   5.9584955  10.6183126  )
        11           O1  tau(  11) = (   1.3020657   1.4959176  12.6398190  )
        12           O1  tau(  12) = (   5.2896457   1.4919019  12.6612249  )
        13           Ti1 tau(  13) = (   0.0353884   3.0012823  12.5523301  )
        14           Ti1 tau(  14) = (   3.3275346   1.5008247  12.4978572  )
        15           O1  tau(  15) = (   0.0424128   0.0047235  14.7277795  )
        16           O1  tau(  16) = (   3.2762846   0.0047332  13.9819514  )
        17           O1  tau(  17) = (   4.5591522   1.5298593  16.0930730  )
        18           O1  tau(  18) = (   2.0612242   1.5646392  16.2256692  )
        19           Ti1 tau(  19) = (   3.3170857   3.0293758  15.7013767  )
        20           Ti1 tau(  20) = (   6.5267591   1.5471840  15.7818195  )
        21           O1  tau(  21) = (   3.2904802   0.0005063   4.7018136  )
        22           O1  tau(  22) = (   0.0258072   0.0396315  17.3287798  )
        23           O1  tau(  23) = (   1.3043587   1.4918075   6.0039043  )
        24           O1  tau(  24) = (   5.2767064   1.4903225   6.0039473  )
        25           Ti1 tau(  25) = (   0.0000382   5.9609847   6.0000000  )
        26           Ti1 tau(  26) = (   3.2902200   4.4714249   6.0002472  )
        27           O1  tau(  27) = (   0.0002396   2.9813036   7.9858123  )
        28           O1  tau(  28) = (   3.2902150   2.9813002   7.3038282  )
        29           O1  tau(  29) = (   4.5938453   4.4726049   9.2879030  )
        30           O1  tau(  30) = (   1.9864658   4.4711199   9.2879459  )
        31           Ti1 tau(  31) = (   3.2891106   5.8743827   9.1763621  )
        32           Ti1 tau(  32) = (   0.0006254   4.4649316   9.2693709  )
        33           O1  tau(  33) = (   3.3047253   2.9863606  11.3412877  )
        34           O1  tau(  34) = (   0.0092240   2.9805883  10.6323155  )
        35           O1  tau(  35) = (   1.3023160   4.4818153  12.6295520  )
        36           O1  tau(  36) = (   5.2910779   4.4839738  12.6480862  )
        37           Ti1 tau(  37) = (   0.0306270   0.0097343  12.5156175  )
        38           Ti1 tau(  38) = (   3.3295341   4.4791655  12.4867326  )
        39           O1  tau(  39) = (   0.0319336   2.9935560  14.7343221  )
        40           O1  tau(  40) = (   3.2835893   3.0037955  13.9224844  )
        41           O1  tau(  41) = (   4.5669158   4.4809188  16.1713821  )
        42           O1  tau(  42) = (   2.0542530   4.4668402  16.2247519  )
        43           Ti1 tau(  43) = (   3.3000170   0.0150779  15.7669526  )
        44           Ti1 tau(  44) = (   0.0416703   4.6955124  16.1636639  )
        45           O1  tau(  45) = (   3.2900926   2.9813045   4.7018136  )
        46           O1  tau(  46) = (   1.3039711   4.4726057   6.0039043  )
        47           O1  tau(  47) = (   5.2763189   4.4711207   6.0039473  )
        48           N1  tau(  48) = (   0.9019483   2.4226080  18.4567899  )
        49           N1  tau(  49) = (   6.4923839   2.9153054  17.5348467  )
        50           C1  tau(  50) = (   1.2734633   3.3482217  19.5544901  )
        51           H1  tau(  51) = (   0.3921683   3.5464126  20.1615046  )
        52           H1  tau(  52) = (   2.0553077   2.8833093  20.1573268  )
        53           H1  tau(  53) = (   1.6239766   4.2728770  19.1044814  )
        54           H1  tau(  54) = (   0.5870980   1.4942747  18.7832689  )
        55           H1  tau(  55) = (   5.5983569   2.8486818  18.0159164  )
        56           H1  tau(  56) = (   1.7025450   2.1692920  17.8234971  )

     number of k points=    10  Fermi-Dirac smearing, width (Ry)=  0.0073
                       cart. coord. in units 2pi/alat
        k(    1) = (   0.0000000   0.0000000   0.0000000), wk =   0.1250000
        k(    2) = (   0.0000000   0.0419351   0.0000000), wk =   0.2500000
        k(    3) = (   0.0000000  -0.0838702   0.0000000), wk =   0.1250000
        k(    4) = (   0.0379955   0.0000049   0.0000000), wk =   0.2500000
        k(    5) = (   0.0379955   0.0419400   0.0000000), wk =   0.2500000
        k(    6) = (   0.0379955  -0.0838652   0.0000000), wk =   0.2500000
        k(    7) = (   0.0379955  -0.0419301   0.0000000), wk =   0.2500000
        k(    8) = (  -0.0759910  -0.0000099   0.0000000), wk =   0.1250000
        k(    9) = (  -0.0759910   0.0419252   0.0000000), wk =   0.2500000
        k(   10) = (  -0.0759910  -0.0838800   0.0000000), wk =   0.1250000

     Initial potential from superposition of free atoms

     starting charge  381.99914, renormalised to  398.00000

     negative rho (up, down):  1.484E-02 0.000E+00

     %%%%%%%%%%%%%%%%%%%%%%%%%%%%%%%%%%%%%%%%%%%%%%%%%%%%%%%%%%%%%%%%%%%%%%%%
     %                                                                      %
     % You are using vdW-DF, which was implemented by the Thonhauser group. %
     % Please cite the following two papers that made this development      %
     % possible and the two reviews that describe the various versions:     %
     %                                                                      %
     %   T. Thonhauser et al., PRL 115, 136402 (2015).                      %
     %   T. Thonhauser et al., PRB 76, 125112 (2007).                       %
     %   K. Berland et al., Rep. Prog. Phys. 78, 066501 (2015).             %
     %   D.C. Langreth et al., J. Phys.: Condens. Matter 21, 084203 (2009). %
     %                                                                      %
     %                                                                      %
     % If you are calculating the stress with vdW-DF, please also cite:     %
     %                                                                      %
     %   R. Sabatini et al., J. Phys.: Condens. Matter 24, 424209 (2012).   %
     %                                                                      %
     %%%%%%%%%%%%%%%%%%%%%%%%%%%%%%%%%%%%%%%%%%%%%%%%%%%%%%%%%%%%%%%%%%%%%%%%

     Adding external electric field

     Computed dipole along edir(3) :
        Dipole              -10.9106 Ry au,        -27.7320 Debye
        Dipole field         -0.0206 Ry au,

        Potential amp.        1.9086 Ry
        Total length         46.3494 bohr

     Starting wfcs are  302 atomic wfcs
  @ DRIVER MODE: Message from server: STATUS
  @ DRIVER MODE: Message from server: POSDATA
  @ DRIVER MODE: Reading and sharing cell
  @ DRIVER MODE: Reading and sharing positions
  @ DRIVER MODE: Received positions

     Self-consistent Calculation

     iteration #  1     ecut=    29.40 Ry     beta= 0.05
     Davidson diagonalization with overlap
     c_bands:  5 eigenvalues not converged
     c_bands:  3 eigenvalues not converged
     c_bands:  1 eigenvalues not converged
     c_bands:  2 eigenvalues not converged
     c_bands:  3 eigenvalues not converged
     c_bands:  4 eigenvalues not converged
     c_bands:  4 eigenvalues not converged
     ethr =  1.00E-05,  avg # of iterations = 24.4

[...]

     total energy              =   -2445.36272721 Ry
     estimated scf accuracy    <    5568.58613061 Ry

     iteration #  2     ecut=    29.40 Ry     beta= 0.05
     Davidson diagonalization with overlap
     ethr =  1.00E-02,  avg # of iterations = 22.8

[...]

     iteration # 69     ecut=    29.40 Ry     beta= 0.05
     Davidson diagonalization with overlap
     c_bands:  1 eigenvalues not converged
     ethr =  1.60E-10,  avg # of iterations = 13.0

[...]

     total energy              =   -2942.84152439 Ry
     estimated scf accuracy    <       0.00000013 Ry

     iteration # 71     ecut=    29.40 Ry     beta= 0.05
     Davidson diagonalization with overlap
     ethr =  3.23E-11,  avg # of iterations =  7.1

     negative rho (up, down):  1.049E-02 0.000E+00

     Adding external electric field

     Computed dipole along edir(3) :
        Dipole                1.5800 Ry au,          4.0159 Debye
        Dipole field          0.0030 Ry au,

        Potential amp.       -0.2764 Ry
        Total length         46.3494 bohr

     End of self-consistent calculation

          k = 0.0000 0.0000 0.0000 ( 18029 PWs)   bands (ev):

   -55.0904 -55.0551 -55.0512 -55.0210 -54.9677 -54.9650 -54.9275 -54.8911
   -54.8826 -54.8684 -54.8553 -54.8503 -54.8036 -54.7589 -54.0654 -54.0313
   -31.6644 -31.5446 -31.4545 -31.4248 -31.3857 -31.3813 -31.3797 -31.3499
   -31.3469 -31.3452 -31.3021 -31.3001 -31.2995 -31.2649 -31.2467 -31.2271
   -31.2076 -31.2037 -31.1945 -31.1926 -31.1661 -31.1486 -31.1471 -31.1213
   -31.1119 -31.0976 -31.0952 -31.0930 -31.0893 -31.0762 -31.0712 -31.0641
   -31.0516 -31.0410 -31.0225 -31.0142 -31.0067 -31.0011 -30.9965 -30.9906
   -30.9863 -30.9516 -30.4738 -30.3820 -30.3598 -30.2904 -30.2037 -30.0927
   -19.1523 -15.9334 -15.6592 -15.5365 -15.3255 -15.2761 -15.2031 -15.0078
   -14.9432 -14.8879 -14.8782 -14.8654 -14.8484 -14.7772 -14.6979 -14.6176
   -14.6151 -14.6084 -14.5976 -14.5794 -14.5723 -14.5098 -14.5025 -14.4707
   -14.4586 -14.4184 -14.3113 -14.2296 -14.1727 -14.0221 -13.3241 -12.5677
   -12.4506 -11.1105  -7.8519  -6.5554  -5.8617  -4.1124  -3.9401  -3.2784
    -3.0929  -3.0692  -3.0087  -2.9837  -2.8087  -2.7594  -2.5534  -2.4476
    -2.3603  -2.3214  -2.3089  -2.2923  -2.1423  -2.0745  -2.0403  -1.9928
    -1.9692  -1.9464  -1.9050  -1.8973  -1.8668  -1.8487  -1.8404  -1.6628
    -1.5870  -1.5379  -1.5079  -1.4702  -1.4207  -1.3924  -1.3742  -1.3695
    -1.3643  -1.3452  -1.3141  -1.2527  -1.2241  -1.1679  -1.1000  -1.0733
    -0.9835  -0.9019  -0.7141  -0.6689  -0.6506  -0.6145  -0.5544  -0.5058
    -0.4715  -0.4365  -0.4222  -0.3558  -0.2869  -0.2544  -0.1920  -0.1273
    -0.1170  -0.0539  -0.0468   0.1146   0.1265   0.1478   0.2388   0.3244
     0.3731   0.3811   0.4395   0.5137   0.5359   0.5455   0.5818   0.6025
     0.6791   0.7880   0.8128   0.8547   0.8661   0.8998   0.9229   0.9773
     1.0011   1.0641   1.0703   1.1745   1.2242   1.2564   1.5064   1.5395
     1.8700   1.9034   1.9574   2.1440   2.5312   2.5783   4.0177   4.0805
     4.0947   4.1434   4.1666   4.1858   4.2577   4.4785   4.5037   4.5100
     4.5175

[...]

          k = 0.0380-0.0419 0.0000 ( 17876 PWs)   bands (ev):

[...]

          k =-0.0760-0.0000 0.0000 ( 17886 PWs)   bands (ev):

[...]

          k =-0.0760-0.0839 0.0000 ( 17948 PWs)   bands (ev):

   -55.0783 -55.0631 -55.0380 -55.0379 -54.9646 -54.9540 -54.9386 -54.8740
   -54.8712 -54.8705 -54.8684 -54.8660 -54.7976 -54.7648 -54.0484 -54.0482
   -31.4721 -31.4624 -31.3998 -31.3598 -31.3597 -31.3582 -31.3308 -31.3305
   -31.2994 -31.2954 -31.2905 -31.2845 -31.2592 -31.2247 -31.2175 -31.2114
   -31.2097 -31.2058 -31.2048 -31.1960 -31.1640 -31.1628 -31.1592 -31.1572
   -31.1570 -31.1540 -31.1497 -31.1331 -31.1080 -31.1043 -31.0982 -31.0890
   -31.0869 -31.0851 -31.0839 -31.0680 -31.0496 -31.0482 -31.0374 -31.0319
   -31.0070 -30.9906 -30.3726 -30.3724 -30.2865 -30.2863 -30.2471 -30.2471
   -19.1483 -15.4167 -15.3264 -15.1779 -15.1595 -15.1092 -15.0613 -15.0448
   -15.0281 -14.9711 -14.9325 -14.8860 -14.8371 -14.7941 -14.7919 -14.7533
   -14.6811 -14.6596 -14.6576 -14.6430 -14.5922 -14.5815 -14.5539 -14.5352
   -14.5301 -14.4868 -14.4274 -14.4239 -14.3846 -14.2059 -13.3343 -12.5523
   -12.5521 -11.1130  -7.8623  -6.5392  -5.8505  -4.0842  -3.9332  -2.6855
    -2.5863  -2.5239  -2.4197  -2.3328  -2.2925  -2.2578  -2.1233  -2.1044
    -2.0851  -2.0591  -2.0462  -2.0121  -2.0046  -1.9561  -1.9270  -1.9166
    -1.9104  -1.8975  -1.8752  -1.8272  -1.8049  -1.7953  -1.7859  -1.7472
    -1.7334  -1.7014  -1.6955  -1.6566  -1.6351  -1.5502  -1.4607  -1.4210
    -1.3714  -1.3056  -1.2713  -1.2646  -1.1715  -1.1633  -1.1401  -1.1067
    -1.0613  -0.9409  -0.8838  -0.8205  -0.8167  -0.8034  -0.6965  -0.6591
    -0.6290  -0.5936  -0.5562  -0.5261  -0.4875  -0.4406  -0.3640  -0.3330
    -0.2935  -0.2572  -0.1848  -0.0968  -0.0779  -0.0467  -0.0425   0.0432
     0.0686   0.1070   0.1162   0.1354   0.1920   0.2052   0.2923   0.3822
     0.4469   0.5346   0.6484   0.6528   0.7298   0.8224   0.9101   0.9481
     0.9993   1.0652   1.0674   1.1012   1.2223   1.2295   1.3511   1.3898
     1.3986   1.4211   2.3164   2.3174   2.3985   2.3985   4.1467   4.2443
     4.2835   4.3247   4.3768   4.5219   4.5451   4.5906   4.5911   4.6618
     4.6749

     the Fermi energy is     4.0643 ev

!    total energy              =   -2942.84154254 Ry
     estimated scf accuracy    <       0.00000006 Ry
     smearing contrib. (-TS)   =      -0.03725006 Ry
     internal energy E=F+TS    =   -2942.80429248 Ry

     The total energy is F=E-TS. E is the sum of the following terms:
     one-electron contribution =  -23856.51252123 Ry
     hartree contribution      =   12023.59837883 Ry
     xc contribution           =    -487.75425184 Ry
     ewald contribution        =    9377.85939091 Ry
     electric field correction =       0.00471085 Ry

     convergence has been achieved in  71 iterations

     Forces acting on atoms (cartesian axes, Ry/au):

     atom    1 type  1   force =     0.00001831   -0.00023063    0.09432798
     atom    2 type  1   force =    -0.00015506   -0.00054473   -0.17709488
     atom    3 type  2   force =     0.00001682   -0.00024800   -0.02146520
     atom    4 type  2   force =    -0.00001303   -0.00167568    0.05641791
     atom    5 type  2   force =    -0.01047952   -0.00075755    0.00562595
     atom    6 type  2   force =     0.01224601   -0.00010106    0.00551945
     atom    7 type  1   force =    -0.00024142    0.00107233   -0.01569168
     atom    8 type  1   force =    -0.00007101    0.00525779    0.00658221
     atom    9 type  2   force =    -0.00030674    0.00055756    0.00021354
     atom   10 type  2   force =    -0.00199869    0.00265947   -0.00435857
     atom   11 type  2   force =     0.00041301   -0.00022473    0.00028426
     atom   12 type  2   force =    -0.00009062   -0.00029245   -0.00019357
     atom   13 type  1   force =    -0.00073799    0.00045027   -0.00007017
     atom   14 type  1   force =     0.00038293   -0.00017212    0.00001424
     atom   15 type  2   force =    -0.00018216   -0.00059529   -0.00039266
     atom   16 type  2   force =     0.00004618    0.00039326   -0.00028728
     atom   17 type  2   force =     0.00077530    0.00016750    0.00041634
     atom   18 type  2   force =    -0.00029466   -0.00007426    0.00023477
     atom   19 type  1   force =     0.00034262    0.00097247    0.00042645
     atom   20 type  1   force =    -0.00062127    0.00025185    0.00051715
     atom   21 type  2   force =    -0.00002034   -0.00011361    0.10365384
     atom   22 type  2   force =     0.00021944    0.00039182    0.00041236
     atom   23 type  2   force =    -0.07090995   -0.00021499   -0.02720373
     atom   24 type  2   force =     0.07070730    0.00023657   -0.02725177
     atom   25 type  1   force =     0.00001691   -0.00027233    0.09399817
     atom   26 type  1   force =    -0.00024611   -0.00055354   -0.17736692
     atom   27 type  2   force =     0.00005798   -0.00008038   -0.02059637
     atom   28 type  2   force =     0.00002606   -0.00136351    0.05570902
     atom   29 type  2   force =    -0.01078442   -0.00000631    0.00592092
     atom   30 type  2   force =     0.01247154    0.00027942    0.00577199
     atom   31 type  1   force =    -0.00017159    0.00517608   -0.01626933
     atom   32 type  1   force =    -0.00009073   -0.00625394    0.00672097
     atom   33 type  2   force =    -0.00009656   -0.00047677    0.00024409
     atom   34 type  2   force =    -0.00163667    0.00066728   -0.00775812
     atom   35 type  2   force =    -0.00031754    0.00005896    0.00042517
     atom   36 type  2   force =     0.00056562    0.00005762   -0.00006332
     atom   37 type  1   force =    -0.00083064   -0.00079002   -0.00010925
     atom   38 type  1   force =     0.00048316    0.00001774    0.00042367
     atom   39 type  2   force =    -0.00027689   -0.00019627    0.00058543
     atom   40 type  2   force =    -0.00005957   -0.00020471   -0.00019326
     atom   41 type  2   force =     0.00012942   -0.00048368    0.00027554
     atom   42 type  2   force =    -0.00018747   -0.00022209    0.00044974
     atom   43 type  1   force =     0.00010679   -0.00090156   -0.00027374
     atom   44 type  1   force =     0.00032791    0.00032011    0.00038419
     atom   45 type  2   force =    -0.00002231   -0.00011605    0.10364716
     atom   46 type  2   force =    -0.07091824   -0.00013797   -0.02717615
     atom   47 type  2   force =     0.07071766    0.00028266   -0.02724551
     atom   48 type  3   force =     0.00107211   -0.00147435   -0.00043286
     atom   49 type  3   force =     0.00097320   -0.00099506    0.00062573
     atom   50 type  4   force =     0.00121174   -0.00028954   -0.00066703
     atom   51 type  5   force =     0.00016332   -0.00058272    0.00059093
     atom   52 type  5   force =    -0.00042440    0.00043067    0.00009406
     atom   53 type  5   force =     0.00045466   -0.00043882    0.00026261
     atom   54 type  5   force =    -0.00083366    0.00003036    0.00071272
     atom   55 type  5   force =    -0.00012651   -0.00056693    0.00019956
     atom   56 type  5   force =    -0.00080021    0.00191982    0.00047323

     Total force =     0.365674     Total SCF correction =     0.000555
  @ DRIVER MODE: Message from server: STATUS
  @ DRIVER MODE: Message from server: GETFORCE
  @ DRIVER MODE: Returning v,forces,stress,ensemble

     Writing output data file ./calc.save/
  @ DRIVER MODE: Message from server: EXIT
  @ DRIVE MODE: Exiting

     General routines

     Parallel routines

   This run was terminated on:  15:31:42   9Sep2021

   JOB DONE.