     Program PWSCF v.6.7GPU starts on 24Aug2021 at 22:38:33

     R & G space division:  proc/nbgrp/npool/nimage =      72
     Reading input from /storage/home/hcoda1/3/ntian30/research/carbon/CH2_vib/ads_slab/CH2NHHH_a/out_0033/pw.inp
Warning: card &CELL ignored
Warning: card   CELL_DYNAMICS='IPI', ignored
Warning: card / ignored

     Current dimensions of program PWSCF are:
     Max number of different atomic species (ntypx) = 10
     Max number of k-points (npk) =  40000
     Max angular momentum in pseudopotentials (lmaxx) =  3
     Presently no symmetry can be used with electric field

     Message from routine cell_base_init:
     DEPRECATED: use true lattice parameter, not A to a.u. conversion factor

     IMPORTANT: XC functional enforced from input :
     Exchange-correlation= BEEF-VDW
                           (   1   4  43  14   2   0   0)
     Any further DFT definition will be discarded
     Please, verify this is what you really want

  @ DRIVER MODE: Connecting to
 qe_1139763_2641440.sched-torque.pace.gatech.edu3fzwt39w_scratch
  using UNIX socket
  @ DRIVER MODE: Message from server: STATUS
  @ DRIVER MODE: Message from server: INIT
  @ DRIVER MODE: Receiving replica           0          -1
  @ DRIVER MODE: Receiving encoded integer          25
  @ DRIVER MODE:  SCF:  T  FORCE:  T  STRESS:  F  VC:  F  ENSEMBLE:  F
  @ DRIVER MODE:  SCF:  T  FORCE:  T  STRESS:  F  VC:  F  ENSEMBLE:  F

     Using Slab Decomposition

     bravais-lattice index     =            0
     lattice parameter (alat)  =       1.8897  a.u.
     unit-cell volume          =    6658.9804 (a.u.)^3
     number of atoms/cell      =           54
     number of atomic types    =            5
     number of electrons       =       392.00
     number of Kohn-Sham states=          206
     kinetic-energy cutoff     =      29.3995  Ry
     charge density cutoff     =     293.9946  Ry
     scf convergence threshold =      7.3E-08
     mixing beta               =       0.0500
     number of iterations used =            8  plain     mixing
     Exchange-correlation= BEEF-VDW
                           (   1   4  43  14   2   0   0)

     celldm(1)=   1.889726  celldm(2)=   0.000000  celldm(3)=   0.000000
     celldm(4)=   0.000000  celldm(5)=   0.000000  celldm(6)=   0.000000

     crystal axes: (cart. coord. in units of alat)
               a(1) = (   6.579727   0.000000   0.000000 )
               a(2) = (  -0.000775   5.961596   0.000000 )
               a(3) = (   0.000000   0.000000  25.155947 )

     reciprocal axes: (cart. coord. in units 2 pi/alat)
               b(1) = (  0.151982  0.000020  0.000000 )
               b(2) = (  0.000000  0.167740  0.000000 )
               b(3) = (  0.000000  0.000000  0.039752 )

     PseudoPot. # 1 for Ti read from file:
     /storage/coda1/p-amedford6/0/shared/rich_project_chbe-medford/medford-share/data/pseudos_module/espresso/nninc/pbe/van/Ti.UPF
     MD5 check sum: 8e4df49b7f0d34bbd5052bf3f5ea0213
     Pseudo is Ultrasoft, Zval = 12.0
     Generated by new atomic code, or converted to UPF format
     Using radial grid of  851 points,  6 beta functions with:
                l(1) =   0
                l(2) =   0
                l(3) =   1
                l(4) =   1
                l(5) =   2
                l(6) =   2
     Q(r) pseudized with  8 coefficients,  rinner =    1.000   1.000   1.000
                                                       1.000   1.000

     PseudoPot. # 2 for O  read from file:
     /storage/coda1/p-amedford6/0/shared/rich_project_chbe-medford/medford-share/data/pseudos_module/espresso/nninc/pbe/van/O.UPF
     MD5 check sum: 78c19812648e8988a0fe644b0f25305e
     Pseudo is Ultrasoft, Zval =  6.0
     Generated by new atomic code, or converted to UPF format
     Using radial grid of  737 points,  4 beta functions with:
                l(1) =   0
                l(2) =   0
                l(3) =   1
                l(4) =   1
     Q(r) pseudized with  8 coefficients,  rinner =    0.800   0.800   0.800

     PseudoPot. # 3 for N  read from file:
     /storage/coda1/p-amedford6/0/shared/rich_project_chbe-medford/medford-share/data/pseudos_module/espresso/nninc/pbe/van/N.UPF
     MD5 check sum: 90d10febe142ad51ac9d5be1deb811c4
     Pseudo is Ultrasoft, Zval =  5.0
     Generated by new atomic code, or converted to UPF format
     Using radial grid of  729 points,  4 beta functions with:
                l(1) =   0
                l(2) =   0
                l(3) =   1
                l(4) =   1
     Q(r) pseudized with  8 coefficients,  rinner =    0.800   0.800   0.800

     PseudoPot. # 4 for C  read from file:
     /storage/coda1/p-amedford6/0/shared/rich_project_chbe-medford/medford-share/data/pseudos_module/espresso/nninc/pbe/van/C.UPF
     MD5 check sum: 1a69bf6b8db32088f5b2163dbdb77a27
     Pseudo is Ultrasoft, Zval =  4.0
     Generated by new atomic code, or converted to UPF format
     Using radial grid of  721 points,  4 beta functions with:
                l(1) =   0
                l(2) =   0
                l(3) =   1
                l(4) =   1
     Q(r) pseudized with  8 coefficients,  rinner =    0.800   0.800   0.800

     PseudoPot. # 5 for H  read from file:
     /storage/coda1/p-amedford6/0/shared/rich_project_chbe-medford/medford-share/data/pseudos_module/espresso/nninc/pbe/van/H.UPF
     MD5 check sum: b5ee9d7bfd3a09ee7748110bda690ff7
     Pseudo is Ultrasoft, Zval =  1.0
     Generated by new atomic code, or converted to UPF format
     Using radial grid of  615 points,  1 beta functions with:
                l(1) =   0
     Q(r) pseudized with  8 coefficients,  rinner =    0.800

     atomic species   valence    mass     pseudopotential
        Ti1           12.00    47.86700     Ti( 1.00)
        O1             6.00    15.99900     O ( 1.00)
        N1             5.00    14.00700     N ( 1.00)
        C1             4.00    12.01100     C ( 1.00)
        H1             1.00     1.00800     H ( 1.00)

     No symmetry found

   Cartesian axes

     site n.     atom                  positions (alat units)
         1           Ti1 tau(   1) = (   0.0004258   2.9801865   6.0000000  )
         2           Ti1 tau(   2) = (   3.2906075   1.4906267   6.0002472  )
         3           O1  tau(   3) = (   0.0006271   0.0005054   7.9858123  )
         4           O1  tau(   4) = (   3.2906025   0.0005020   7.3038282  )
         5           O1  tau(   5) = (   4.5942328   1.4918067   9.2879030  )
         6           O1  tau(   6) = (   1.9868534   1.4903216   9.2879459  )
         7           Ti1 tau(   7) = (   3.2907910   2.8959150   9.1758416  )
         8           Ti1 tau(   8) = (   0.0015273   1.4827037   9.2680791  )
         9           O1  tau(   9) = (   3.2947057   0.0061428  11.3716447  )
        10           O1  tau(  10) = (   0.0116148   5.9584955  10.6183126  )
        11           O1  tau(  11) = (   1.2915649   1.4936813  12.6925814  )
        12           O1  tau(  12) = (   5.2970661   1.4944705  12.6810846  )
        13           Ti1 tau(  13) = (   0.0178387   2.9746902  12.5081746  )
        14           Ti1 tau(  14) = (   3.3154821   1.4870708  12.5273966  )
        15           O1  tau(  15) = (   6.5751158   5.8850184  14.6937530  )
        16           O1  tau(  16) = (   3.3021755   5.9482827  13.9948957  )
        17           O1  tau(  17) = (   4.5403780   1.5298489  16.1548813  )
        18           O1  tau(  18) = (   2.0255877   1.5226301  16.1187562  )
        19           Ti1 tau(  19) = (   3.2919084   3.0021400  15.7465462  )
        20           Ti1 tau(  20) = (   0.0121818   1.3098915  15.8601907  )
        21           O1  tau(  21) = (   3.2904802   0.0005063   4.7018136  )
        22           O1  tau(  22) = (   6.5726150   0.1553292  17.2405045  )
        23           O1  tau(  23) = (   1.3043587   1.4918075   6.0039043  )
        24           O1  tau(  24) = (   5.2767064   1.4903225   6.0039473  )
        25           Ti1 tau(  25) = (   0.0000382   5.9609847   6.0000000  )
        26           Ti1 tau(  26) = (   3.2902200   4.4714249   6.0002472  )
        27           O1  tau(  27) = (   0.0002396   2.9813036   7.9858123  )
        28           O1  tau(  28) = (   3.2902150   2.9813002   7.3038282  )
        29           O1  tau(  29) = (   4.5938453   4.4726049   9.2879030  )
        30           O1  tau(  30) = (   1.9864658   4.4711199   9.2879459  )
        31           Ti1 tau(  31) = (   3.2891106   5.8743827   9.1763621  )
        32           Ti1 tau(  32) = (   0.0006254   4.4649316   9.2693709  )
        33           O1  tau(  33) = (   3.2927311   2.9710310  11.3658552  )
        34           O1  tau(  34) = (   0.0092240   2.9805883  10.6323155  )
        35           O1  tau(  35) = (   1.2954064   4.4636889  12.6531092  )
        36           O1  tau(  36) = (   5.2951753   4.4642890  12.6444158  )
        37           Ti1 tau(  37) = (   0.0208150   5.9452171  12.5004641  )
        38           Ti1 tau(  38) = (   3.3163264   4.4646888  12.5160798  )
        39           O1  tau(  39) = (   6.5606049   3.0383603  14.9590055  )
        40           O1  tau(  40) = (   3.3003749   3.0012653  13.9593002  )
        41           O1  tau(  41) = (   4.5325621   4.4784225  16.2386555  )
        42           O1  tau(  42) = (   2.0180351   4.4745910  16.2101397  )
        43           Ti1 tau(  43) = (   3.2993765   0.0184524  15.7908042  )
        44           Ti1 tau(  44) = (   0.0223033   4.5207704  16.0490861  )
        45           O1  tau(  45) = (   3.2900926   2.9813045   4.7018136  )
        46           O1  tau(  46) = (   1.3039711   4.4726057   6.0039043  )
        47           O1  tau(  47) = (   5.2763189   4.4711207   6.0039473  )
        48           N1  tau(  48) = (   6.4337409   3.4053151  18.1409392  )
        49           C1  tau(  49) = (   1.0285230   3.1422446  19.0018829  )
        50           H1  tau(  50) = (   0.7475518   3.0234394  20.0507379  )
        51           H1  tau(  51) = (   1.7227964   3.9744885  18.9089305  )
        52           H1  tau(  52) = (   5.9280473   4.2150708  18.4935385  )
        53           H1  tau(  53) = (   5.7900178   2.6075148  18.1880975  )
        54           H1  tau(  54) = (   1.5159085   2.2300880  18.6641165  )

     number of k points=    10  Fermi-Dirac smearing, width (Ry)=  0.0073
                       cart. coord. in units 2pi/alat
        k(    1) = (   0.0000000   0.0000000   0.0000000), wk =   0.1250000
        k(    2) = (   0.0000000   0.0419351   0.0000000), wk =   0.2500000
        k(    3) = (   0.0000000  -0.0838702   0.0000000), wk =   0.1250000
        k(    4) = (   0.0379955   0.0000049   0.0000000), wk =   0.2500000
        k(    5) = (   0.0379955   0.0419400   0.0000000), wk =   0.2500000
        k(    6) = (   0.0379955  -0.0838652   0.0000000), wk =   0.2500000
        k(    7) = (   0.0379955  -0.0419301   0.0000000), wk =   0.2500000
        k(    8) = (  -0.0759910  -0.0000099   0.0000000), wk =   0.1250000
        k(    9) = (  -0.0759910   0.0419252   0.0000000), wk =   0.2500000
        k(   10) = (  -0.0759910  -0.0838800   0.0000000), wk =   0.1250000

     Initial potential from superposition of free atoms

     starting charge  375.99915, renormalised to  392.00000

     negative rho (up, down):  1.645E-02 0.000E+00

     %%%%%%%%%%%%%%%%%%%%%%%%%%%%%%%%%%%%%%%%%%%%%%%%%%%%%%%%%%%%%%%%%%%%%%%%
     %                                                                      %
     % You are using vdW-DF, which was implemented by the Thonhauser group. %
     % Please cite the following two papers that made this development      %
     % possible and the two reviews that describe the various versions:     %
     %                                                                      %
     %   T. Thonhauser et al., PRL 115, 136402 (2015).                      %
     %   T. Thonhauser et al., PRB 76, 125112 (2007).                       %
     %   K. Berland et al., Rep. Prog. Phys. 78, 066501 (2015).             %
     %   D.C. Langreth et al., J. Phys.: Condens. Matter 21, 084203 (2009). %
     %                                                                      %
     %                                                                      %
     % If you are calculating the stress with vdW-DF, please also cite:     %
     %                                                                      %
     %   R. Sabatini et al., J. Phys.: Condens. Matter 24, 424209 (2012).   %
     %                                                                      %
     %%%%%%%%%%%%%%%%%%%%%%%%%%%%%%%%%%%%%%%%%%%%%%%%%%%%%%%%%%%%%%%%%%%%%%%%

     Adding external electric field

     Computed dipole along edir(3) :
        Dipole               -7.5123 Ry au,        -19.0944 Debye
        Dipole field         -0.0142 Ry au,

        Potential amp.        1.3142 Ry
        Total length         46.3494 bohr

     Starting wfcs are  297 atomic wfcs
  @ DRIVER MODE: Message from server: STATUS
  @ DRIVER MODE: Message from server: POSDATA
  @ DRIVER MODE: Reading and sharing cell
  @ DRIVER MODE: Reading and sharing positions
  @ DRIVER MODE: Received positions

     Self-consistent Calculation

     iteration #  1     ecut=    29.40 Ry     beta= 0.05
     Davidson diagonalization with overlap
     c_bands:  1 eigenvalues not converged
     c_bands:  1 eigenvalues not converged
     c_bands:  2 eigenvalues not converged
     c_bands:  1 eigenvalues not converged
     c_bands:  1 eigenvalues not converged
     c_bands:  1 eigenvalues not converged
     ethr =  1.00E-05,  avg # of iterations = 19.3

[...]

     total energy              =   -2681.21006664 Ry
     estimated scf accuracy    <    2661.11177395 Ry

[...]

     iteration #  3     ecut=    29.40 Ry     beta= 0.05
     Davidson diagonalization with overlap
     ethr =  1.00E-02,  avg # of iterations = 14.8

[...]

     iteration # 80     ecut=    29.40 Ry     beta= 0.05
     Davidson diagonalization with overlap
     c_bands:  1 eigenvalues not converged
     c_bands:  1 eigenvalues not converged
     ethr =  9.12E-11,  avg # of iterations = 13.6

[...]

     total energy              =   -2921.63244747 Ry
     estimated scf accuracy    <       0.00000011 Ry

     iteration # 83     ecut=    29.40 Ry     beta= 0.05
     Davidson diagonalization with overlap
     ethr =  2.69E-11,  avg # of iterations =  1.8

     negative rho (up, down):  1.722E-02 0.000E+00

     Adding external electric field

     Computed dipole along edir(3) :
        Dipole                1.3049 Ry au,          3.3167 Debye
        Dipole field          0.0025 Ry au,

        Potential amp.       -0.2283 Ry
        Total length         46.3494 bohr

     End of self-consistent calculation

          k = 0.0000 0.0000 0.0000 ( 18029 PWs)   bands (ev):

   -55.4317 -55.3947 -55.3822 -55.3575 -55.3481 -55.3144 -55.3093 -55.2749
   -55.2486 -55.2320 -55.2141 -55.2131 -55.1795 -55.1009 -54.4100 -54.3759
   -32.0011 -31.8873 -31.8748 -31.7981 -31.7489 -31.7386 -31.7363 -31.7191
   -31.6741 -31.6709 -31.6421 -31.6400 -31.6269 -31.6202 -31.6019 -31.5950
   -31.5872 -31.5751 -31.5698 -31.5465 -31.5348 -31.5309 -31.5030 -31.4962
   -31.4871 -31.4793 -31.4757 -31.4511 -31.4400 -31.4394 -31.4316 -31.4128
   -31.4121 -31.4060 -31.3997 -31.3966 -31.3627 -31.3536 -31.3415 -31.3244
   -31.3065 -31.2967 -30.8193 -30.7253 -30.7032 -30.6358 -30.5490 -30.4380
   -16.2920 -16.1460 -15.9738 -15.8289 -15.7494 -15.6299 -15.5186 -15.5047
   -15.3641 -15.2824 -15.1668 -15.1421 -15.1128 -15.0904 -15.0823 -15.0651
   -14.9738 -14.9690 -14.9570 -14.9243 -14.9231 -14.8788 -14.8683 -14.8262
   -14.8051 -14.8028 -14.6832 -14.5892 -14.5173 -14.2893 -12.9127 -12.7952
   -10.2004  -6.2997  -4.8013  -3.9486  -3.6105  -3.4523  -3.3693  -3.3344
    -3.3226  -3.1910  -3.0540  -2.9052  -2.8540  -2.8195  -2.7237  -2.6471
    -2.6396  -2.6204  -2.4662  -2.4313  -2.3869  -2.3380  -2.3000  -2.2418
    -2.2211  -2.2126  -2.2003  -2.1827  -2.1742  -2.0571  -2.0007  -1.9169
    -1.8579  -1.8350  -1.7846  -1.7644  -1.7446  -1.7207  -1.7115  -1.6705
    -1.6456  -1.6252  -1.5720  -1.4606  -1.3569  -1.3064  -1.1878  -1.0663
    -1.0294  -1.0175  -0.9655  -0.9381  -0.9166  -0.8596  -0.8080  -0.7783
    -0.7208  -0.6635  -0.6021  -0.5525  -0.4792  -0.4758  -0.4169  -0.3680
    -0.2470  -0.2145  -0.1976  -0.1700  -0.0793  -0.0409   0.0026   0.0828
     0.0940   0.1134   0.2068   0.2176   0.2916   0.3400   0.3567   0.4503
     0.4849   0.4974   0.5020   0.5242   0.5542   0.6039   0.6460   0.6725
     0.7392   0.8657   1.0779   1.1588   1.1831   1.5091   1.5190   1.6127
     1.7964   2.1884   2.2365   3.6661   3.7367   3.8122   3.8188   3.8315
     3.9044   4.1389   4.1625   4.1701   4.1769   4.1976

[...]

          k = 0.0380-0.0419 0.0000 ( 17876 PWs)   bands (ev):

[...]

          k =-0.0760-0.0000 0.0000 ( 17886 PWs)   bands (ev):

[...]

          k =-0.0760-0.0839 0.0000 ( 17948 PWs)   bands (ev):

   -55.4175 -55.4087 -55.3652 -55.3649 -55.3560 -55.3108 -55.2934 -55.2908
   -55.2356 -55.2329 -55.2293 -55.1968 -55.1960 -55.1021 -54.3931 -54.3927
   -31.8082 -31.8047 -31.8011 -31.7186 -31.6928 -31.6900 -31.6898 -31.6563
   -31.6561 -31.6406 -31.6340 -31.6313 -31.6247 -31.6032 -31.5874 -31.5707
   -31.5664 -31.5642 -31.5623 -31.5574 -31.5572 -31.5543 -31.5116 -31.5093
   -31.5063 -31.5026 -31.5003 -31.4867 -31.4850 -31.4847 -31.4825 -31.4660
   -31.4625 -31.4465 -31.4428 -31.4291 -31.4260 -31.4238 -31.3779 -31.3777
   -31.3723 -31.3113 -30.7160 -30.7157 -30.6320 -30.6317 -30.5925 -30.5923
   -16.1082 -15.7827 -15.6963 -15.6404 -15.4647 -15.4369 -15.4229 -15.4032
   -15.2743 -15.2488 -15.2229 -15.2005 -15.1794 -15.1418 -15.1341 -15.1292
   -15.0516 -15.0386 -15.0329 -15.0183 -14.9488 -14.9397 -14.9359 -14.9297
   -14.8795 -14.8758 -14.8332 -14.7819 -14.7787 -14.5657 -12.8968 -12.8967
   -10.2036  -6.2700  -4.7982  -3.9121  -2.9661  -2.9356  -2.8968  -2.8961
    -2.6809  -2.6434  -2.6079  -2.5841  -2.4925  -2.4500  -2.4313  -2.4306
    -2.3563  -2.3360  -2.3242  -2.2726  -2.2676  -2.2559  -2.2323  -2.2003
    -2.1748  -2.1600  -2.1502  -2.1320  -2.0883  -2.0745  -2.0544  -2.0343
    -2.0284  -2.0150  -1.9866  -1.9472  -1.8163  -1.8050  -1.7445  -1.6368
    -1.6318  -1.5569  -1.5464  -1.5015  -1.4881  -1.4635  -1.4287  -1.2495
    -1.2073  -1.1763  -1.1668  -1.1122  -1.0371  -1.0200  -0.9572  -0.9357
    -0.9176  -0.8126  -0.7698  -0.7548  -0.6645  -0.6562  -0.5734  -0.5219
    -0.4626  -0.4371  -0.4015  -0.3866  -0.3845  -0.3366  -0.3309  -0.2473
    -0.2014  -0.1652  -0.1517  -0.1196   0.0795   0.0865   0.1087   0.2545
     0.2738   0.4096   0.4365   0.4877   0.5676   0.6009   0.6815   0.7144
     0.8430   0.8744   0.8771   0.9468   0.9611   1.0232   1.0337   1.9694
     1.9701   2.0565   2.0567   3.8169   3.9085   3.9286   3.9712   4.0842
     4.1581   4.1833   4.2050   4.2522   4.2555   4.3172

     the Fermi energy is     3.7299 ev

!    total energy              =   -2921.63245655 Ry
     estimated scf accuracy    <       0.00000007 Ry
     smearing contrib. (-TS)   =      -0.03702734 Ry
     internal energy E=F+TS    =   -2921.59542922 Ry

     The total energy is F=E-TS. E is the sum of the following terms:
     one-electron contribution =  -24082.10995683 Ry
     hartree contribution      =   12130.19395438 Ry
     xc contribution           =    -481.75465037 Ry
     ewald contribution        =    9512.07201025 Ry
     electric field correction =       0.00321336 Ry

     convergence has been achieved in  83 iterations

     Forces acting on atoms (cartesian axes, Ry/au):

     atom    1 type  1   force =     0.00005174   -0.00025031    0.09322731
     atom    2 type  1   force =    -0.00012681   -0.00043943   -0.17821530
     atom    3 type  2   force =     0.00002121   -0.00040285   -0.02020999
     atom    4 type  2   force =    -0.00001441   -0.00187881    0.05854024
     atom    5 type  2   force =    -0.00994157   -0.00082476    0.00750305
     atom    6 type  2   force =     0.01146025   -0.00027275    0.00680133
     atom    7 type  1   force =    -0.00039009    0.00195109   -0.01463962
     atom    8 type  1   force =     0.00011261   -0.00011999   -0.00501243
     atom    9 type  2   force =    -0.00011674   -0.00005661    0.00000753
     atom   10 type  2   force =    -0.00117844    0.00218874   -0.00033200
     atom   11 type  2   force =    -0.00001744   -0.00019218    0.00006930
     atom   12 type  2   force =     0.00059578   -0.00051101    0.00012889
     atom   13 type  1   force =    -0.00071469    0.00034175   -0.00036212
     atom   14 type  1   force =    -0.00001167   -0.00059705    0.00004163
     atom   15 type  2   force =     0.00004308   -0.00052837   -0.00036438
     atom   16 type  2   force =     0.00023531    0.00060336    0.00051295
     atom   17 type  2   force =     0.00007313   -0.00057654    0.00033518
     atom   18 type  2   force =     0.00015181   -0.00010312    0.00032653
     atom   19 type  1   force =     0.00009087   -0.00027956    0.00180278
     atom   20 type  1   force =    -0.00018749    0.00054306    0.00010249
     atom   21 type  2   force =     0.00001193   -0.00009794    0.10390282
     atom   22 type  2   force =     0.00015447   -0.00019917    0.00065007
     atom   23 type  2   force =    -0.07049339   -0.00018072   -0.02694365
     atom   24 type  2   force =     0.07031816    0.00025977   -0.02698388
     atom   25 type  1   force =    -0.00000410   -0.00016292    0.09273593
     atom   26 type  1   force =    -0.00019817   -0.00049453   -0.17823532
     atom   27 type  2   force =     0.00007356   -0.00024145   -0.01926582
     atom   28 type  2   force =     0.00001623   -0.00165548    0.05789434
     atom   29 type  2   force =    -0.01051162   -0.00098424    0.00820115
     atom   30 type  2   force =     0.01191406   -0.00053887    0.00742805
     atom   31 type  1   force =    -0.00034390    0.00605254   -0.01542482
     atom   32 type  1   force =     0.00011721   -0.00038470   -0.00543951
     atom   33 type  2   force =     0.00030693   -0.00009878   -0.00032313
     atom   34 type  2   force =    -0.00063644   -0.00204467   -0.00051510
     atom   35 type  2   force =    -0.00039898   -0.00002173    0.00024194
     atom   36 type  2   force =     0.00067154   -0.00006923   -0.00003639
     atom   37 type  1   force =    -0.00035471   -0.00023965    0.00023594
     atom   38 type  1   force =     0.00001670    0.00041509   -0.00004388
     atom   39 type  2   force =     0.00022774   -0.00010169    0.00020305
     atom   40 type  2   force =     0.00017205    0.00026035    0.00010810
     atom   41 type  2   force =    -0.00046156    0.00031125   -0.00015121
     atom   42 type  2   force =     0.00046545    0.00085928   -0.00014690
     atom   43 type  1   force =     0.00046816    0.00055624    0.00023183
     atom   44 type  1   force =     0.00047340    0.00035048    0.00024407
     atom   45 type  2   force =     0.00002048   -0.00009470    0.10387364
     atom   46 type  2   force =    -0.07047215   -0.00013006   -0.02689056
     atom   47 type  2   force =     0.07030027    0.00029854   -0.02694317
     atom   48 type  3   force =    -0.00592070   -0.01128379    0.00069499
     atom   49 type  4   force =     0.00091237   -0.00046254   -0.00010771
     atom   50 type  5   force =    -0.00050239    0.00019715    0.00045110
     atom   51 type  5   force =    -0.00013270    0.00022257    0.00007679
     atom   52 type  5   force =    -0.00174332   -0.00124997    0.00035415
     atom   53 type  5   force =     0.00553932    0.01090768   -0.00056624
     atom   54 type  5   force =    -0.00014233    0.00145119    0.00022597

     Total force =     0.366467     Total SCF correction =     0.000648
  @ DRIVER MODE: Message from server: STATUS
  @ DRIVER MODE: Message from server: GETFORCE
  @ DRIVER MODE: Returning v,forces,stress,ensemble

     Writing output data file ./calc.save/
  @ DRIVER MODE: Message from server: EXIT
  @ DRIVE MODE: Exiting

     General routines

     Parallel routines

   This run was terminated on:  23: 4:45  24Aug2021

   JOB DONE.