     Program PWSCF v.6.7GPU starts on 16Sep2021 at  0:57: 5

     R & G space division:  proc/nbgrp/npool/nimage =      10
     Reading input from /storage/home/hcoda1/3/ntian30/research/carbon/CxH_vib/H2O_calc/ads_slab/CH2OH2O_a/out_0028/pw.inp
Warning: card &CELL ignored
Warning: card   CELL_DYNAMICS='IPI', ignored
Warning: card / ignored

     Current dimensions of program PWSCF are:
     Max number of different atomic species (ntypx) = 10
     Max number of k-points (npk) =  40000
     Max angular momentum in pseudopotentials (lmaxx) =  3
     Presently no symmetry can be used with electric field

     Message from routine cell_base_init:
     DEPRECATED: use true lattice parameter, not A to a.u. conversion factor

     IMPORTANT: XC functional enforced from input :
     Exchange-correlation= BEEF-VDW
                           (   1   4  43  14   2   0   0)
     Any further DFT definition will be discarded
     Please, verify this is what you really want

  @ DRIVER MODE: Connecting to
 qe_1139763_2852613.sched-torque.pace.gatech.eduq_z0zgoz_scratch
  using UNIX socket
  @ DRIVER MODE: Message from server: STATUS
  @ DRIVER MODE: Message from server: INIT
  @ DRIVER MODE: Receiving replica           0          -1
  @ DRIVER MODE: Receiving encoded integer          25
  @ DRIVER MODE:  SCF:  T  FORCE:  T  STRESS:  F  VC:  F  ENSEMBLE:  F
  @ DRIVER MODE:  SCF:  T  FORCE:  T  STRESS:  F  VC:  F  ENSEMBLE:  F

     Using Slab Decomposition

     bravais-lattice index     =            0
     lattice parameter (alat)  =       1.8897  a.u.
     unit-cell volume          =    6658.9804 (a.u.)^3
     number of atoms/cell      =           54
     number of atomic types    =            4
     number of electrons       =       398.00
     number of Kohn-Sham states=          209
     kinetic-energy cutoff     =      29.3995  Ry
     charge density cutoff     =     293.9946  Ry
     scf convergence threshold =      7.3E-08
     mixing beta               =       0.0500
     number of iterations used =            8  plain     mixing
     Exchange-correlation= BEEF-VDW
                           (   1   4  43  14   2   0   0)

     celldm(1)=   1.889726  celldm(2)=   0.000000  celldm(3)=   0.000000
     celldm(4)=   0.000000  celldm(5)=   0.000000  celldm(6)=   0.000000

     crystal axes: (cart. coord. in units of alat)
               a(1) = (   6.579727   0.000000   0.000000 )
               a(2) = (  -0.000775   5.961596   0.000000 )
               a(3) = (   0.000000   0.000000  25.155947 )

     reciprocal axes: (cart. coord. in units 2 pi/alat)
               b(1) = (  0.151982  0.000020  0.000000 )
               b(2) = (  0.000000  0.167740  0.000000 )
               b(3) = (  0.000000  0.000000  0.039752 )

     PseudoPot. # 1 for O  read from file:
     /storage/coda1/p-amedford6/0/shared/rich_project_chbe-medford/medford-share/data/pseudos_module/espresso/nninc/pbe/van/O.UPF
     MD5 check sum: 78c19812648e8988a0fe644b0f25305e
     Pseudo is Ultrasoft, Zval =  6.0
     Generated by new atomic code, or converted to UPF format
     Using radial grid of  737 points,  4 beta functions with:
                l(1) =   0
                l(2) =   0
                l(3) =   1
                l(4) =   1
     Q(r) pseudized with  8 coefficients,  rinner =    0.800   0.800   0.800

     PseudoPot. # 2 for Ti read from file:
     /storage/coda1/p-amedford6/0/shared/rich_project_chbe-medford/medford-share/data/pseudos_module/espresso/nninc/pbe/van/Ti.UPF
     MD5 check sum: 8e4df49b7f0d34bbd5052bf3f5ea0213
     Pseudo is Ultrasoft, Zval = 12.0
     Generated by new atomic code, or converted to UPF format
     Using radial grid of  851 points,  6 beta functions with:
                l(1) =   0
                l(2) =   0
                l(3) =   1
                l(4) =   1
                l(5) =   2
                l(6) =   2
     Q(r) pseudized with  8 coefficients,  rinner =    1.000   1.000   1.000
                                                       1.000   1.000

     PseudoPot. # 3 for C  read from file:
     /storage/coda1/p-amedford6/0/shared/rich_project_chbe-medford/medford-share/data/pseudos_module/espresso/nninc/pbe/van/C.UPF
     MD5 check sum: 1a69bf6b8db32088f5b2163dbdb77a27
     Pseudo is Ultrasoft, Zval =  4.0
     Generated by new atomic code, or converted to UPF format
     Using radial grid of  721 points,  4 beta functions with:
                l(1) =   0
                l(2) =   0
                l(3) =   1
                l(4) =   1
     Q(r) pseudized with  8 coefficients,  rinner =    0.800   0.800   0.800

     PseudoPot. # 4 for H  read from file:
     /storage/coda1/p-amedford6/0/shared/rich_project_chbe-medford/medford-share/data/pseudos_module/espresso/nninc/pbe/van/H.UPF
     MD5 check sum: b5ee9d7bfd3a09ee7748110bda690ff7
     Pseudo is Ultrasoft, Zval =  1.0
     Generated by new atomic code, or converted to UPF format
     Using radial grid of  615 points,  1 beta functions with:
                l(1) =   0
     Q(r) pseudized with  8 coefficients,  rinner =    0.800

     atomic species   valence    mass     pseudopotential
        O1             6.00    15.99900     O ( 1.00)
        Ti1           12.00    47.86700     Ti( 1.00)
        C1             4.00    12.01100     C ( 1.00)
        H1             1.00     1.00800     H ( 1.00)

     No symmetry found

   Cartesian axes

     site n.     atom                  positions (alat units)
         1           O1  tau(   1) = (   3.2904802   0.0005063   4.7018136  )
         2           O1  tau(   2) = (   3.2900926   2.9813045   4.7018136  )
         3           Ti1 tau(   3) = (   0.0004258   2.9801865   6.0000000  )
         4           Ti1 tau(   4) = (   0.0000382   5.9609847   6.0000000  )
         5           Ti1 tau(   5) = (   3.2906075   1.4906267   6.0002472  )
         6           Ti1 tau(   6) = (   3.2902200   4.4714249   6.0002472  )
         7           O1  tau(   7) = (   1.3043587   1.4918075   6.0039043  )
         8           O1  tau(   8) = (   1.3039711   4.4726057   6.0039043  )
         9           O1  tau(   9) = (   5.2767064   1.4903225   6.0039473  )
        10           O1  tau(  10) = (   5.2763189   4.4711207   6.0039473  )
        11           O1  tau(  11) = (   3.2906025   0.0005020   7.3038282  )
        12           O1  tau(  12) = (   3.2902150   2.9813002   7.3038282  )
        13           O1  tau(  13) = (   0.0006271   0.0005054   7.9858123  )
        14           O1  tau(  14) = (   0.0002396   2.9813036   7.9858123  )
        15           Ti1 tau(  15) = (   3.3036605   0.0548493   9.1550340  )
        16           Ti1 tau(  16) = (   3.3179312   3.0323762   9.1622521  )
        17           Ti1 tau(  17) = (   0.0293130   4.5303424   9.2586280  )
        18           Ti1 tau(  18) = (   0.0255512   1.6071936   9.3606264  )
        19           O1  tau(  19) = (   4.5942328   1.4918067   9.2879030  )
        20           O1  tau(  20) = (   4.5938453   4.4726049   9.2879030  )
        21           O1  tau(  21) = (   1.9868534   1.4903216   9.2879459  )
        22           O1  tau(  22) = (   1.9864658   4.4711199   9.2879459  )
        23           O1  tau(  23) = (   0.0067149   0.0090568  10.6008527  )
        24           O1  tau(  24) = (   0.0066098   2.9904127  10.5810825  )
        25           O1  tau(  25) = (   3.3023248   2.9935247  11.3558429  )
        26           O1  tau(  26) = (   3.3019398   0.0103095  11.3581380  )
        27           Ti1 tau(  27) = (   0.0322082   0.0188897  12.5014682  )
        28           Ti1 tau(  28) = (   3.3323403   4.4947089  12.5096490  )
        29           Ti1 tau(  29) = (   3.3327227   1.5059056  12.5040540  )
        30           Ti1 tau(  30) = (   0.0321551   3.0004163  12.7750784  )
        31           O1  tau(  31) = (   1.2963378   4.4834263  12.6382484  )
        32           O1  tau(  32) = (   1.2968596   1.4996660  12.6342602  )
        33           O1  tau(  33) = (   5.3004736   4.4821179  12.6410582  )
        34           O1  tau(  34) = (   5.3007909   1.4998706  12.6367838  )
        35           O1  tau(  35) = (   3.3017874   2.9879694  13.9086975  )
        36           O1  tau(  36) = (   3.3040514   0.0100701  13.9766235  )
        37           O1  tau(  37) = (   0.0177811   0.0165449  14.6846256  )
        38           O1  tau(  38) = (   0.0218693   2.9952767  14.7100221  )
        39           Ti1 tau(  39) = (   3.3083447   2.9915206  15.7010863  )
        40           Ti1 tau(  40) = (   3.3165693   0.0114089  15.8055842  )
        41           Ti1 tau(  41) = (   0.0300915   4.5703342  15.9344200  )
        42           Ti1 tau(  42) = (   0.0294271   1.3911826  15.9958598  )
        43           O1  tau(  43) = (   4.5666857   4.4545776  16.0545193  )
        44           O1  tau(  44) = (   4.5654216   1.5273373  16.0688375  )
        45           O1  tau(  45) = (   2.0398213   1.5345912  16.0698912  )
        46           O1  tau(  46) = (   2.0372649   4.4468515  16.0554978  )
        47           O1  tau(  47) = (   0.0160947   0.0056016  17.2166677  )
        48           O1  tau(  48) = (   6.5639191   3.0028441  17.4181802  )
        49           C1  tau(  49) = (   6.3909186   3.0704891  18.6902598  )
        50           H1  tau(  50) = (   6.3116585   4.0479728  19.1570877  )
        51           H1  tau(  51) = (   6.3127454   2.1532251  19.2664540  )
        52           O1  tau(  52) = (   3.2659488   5.9419982  18.2141537  )
        53           H1  tau(  53) = (   4.0486762   5.9278262  18.7801078  )
        54           H1  tau(  54) = (   2.4667005   5.9275743  18.7583984  )

     number of k points=    10  Fermi-Dirac smearing, width (Ry)=  0.0073
                       cart. coord. in units 2pi/alat
        k(    1) = (   0.0000000   0.0000000   0.0000000), wk =   0.1250000
        k(    2) = (   0.0000000   0.0419351   0.0000000), wk =   0.2500000
        k(    3) = (   0.0000000  -0.0838702   0.0000000), wk =   0.1250000
        k(    4) = (   0.0379955   0.0000049   0.0000000), wk =   0.2500000
        k(    5) = (   0.0379955   0.0419400   0.0000000), wk =   0.2500000
        k(    6) = (   0.0379955  -0.0838652   0.0000000), wk =   0.2500000
        k(    7) = (   0.0379955  -0.0419301   0.0000000), wk =   0.2500000
        k(    8) = (  -0.0759910  -0.0000099   0.0000000), wk =   0.1250000
        k(    9) = (  -0.0759910   0.0419252   0.0000000), wk =   0.2500000
        k(   10) = (  -0.0759910  -0.0838800   0.0000000), wk =   0.1250000

     Initial potential from superposition of free atoms

     starting charge  381.99917, renormalised to  398.00000

     negative rho (up, down):  1.686E-02 0.000E+00

     %%%%%%%%%%%%%%%%%%%%%%%%%%%%%%%%%%%%%%%%%%%%%%%%%%%%%%%%%%%%%%%%%%%%%%%%
     %                                                                      %
     % You are using vdW-DF, which was implemented by the Thonhauser group. %
     % Please cite the following two papers that made this development      %
     % possible and the two reviews that describe the various versions:     %
     %                                                                      %
     %   T. Thonhauser et al., PRL 115, 136402 (2015).                      %
     %   T. Thonhauser et al., PRB 76, 125112 (2007).                       %
     %   K. Berland et al., Rep. Prog. Phys. 78, 066501 (2015).             %
     %   D.C. Langreth et al., J. Phys.: Condens. Matter 21, 084203 (2009). %
     %                                                                      %
     %                                                                      %
     % If you are calculating the stress with vdW-DF, please also cite:     %
     %                                                                      %
     %   R. Sabatini et al., J. Phys.: Condens. Matter 24, 424209 (2012).   %
     %                                                                      %
     %%%%%%%%%%%%%%%%%%%%%%%%%%%%%%%%%%%%%%%%%%%%%%%%%%%%%%%%%%%%%%%%%%%%%%%%

     Adding external electric field

     Computed dipole along edir(3) :
        Dipole               -9.6373 Ry au,        -24.4955 Debye
        Dipole field         -0.0182 Ry au,

        Potential amp.        1.6859 Ry
        Total length         46.3494 bohr

     Starting wfcs are  300 atomic wfcs
  @ DRIVER MODE: Message from server: STATUS
  @ DRIVER MODE: Message from server: POSDATA
  @ DRIVER MODE: Reading and sharing cell
  @ DRIVER MODE: Reading and sharing positions
  @ DRIVER MODE: Received positions

     Self-consistent Calculation

     iteration #  1     ecut=    29.40 Ry     beta= 0.05
     Davidson diagonalization with overlap
     c_bands:  1 eigenvalues not converged
     c_bands:  3 eigenvalues not converged
     c_bands:  2 eigenvalues not converged
     c_bands:  2 eigenvalues not converged
     c_bands:  2 eigenvalues not converged
     c_bands:  1 eigenvalues not converged
     c_bands:  2 eigenvalues not converged
     c_bands:  1 eigenvalues not converged
     c_bands:  2 eigenvalues not converged
     ethr =  1.00E-05,  avg # of iterations = 19.6

[...]

     total energy              =   -2526.83795618 Ry
     estimated scf accuracy    <    4873.64895607 Ry

     iteration #  2     ecut=    29.40 Ry     beta= 0.05
     Davidson diagonalization with overlap
     ethr =  1.00E-02,  avg # of iterations = 26.2

[...]

     iteration # 67     ecut=    29.40 Ry     beta= 0.05
     Davidson diagonalization with overlap
     c_bands:  1 eigenvalues not converged
     ethr =  4.91E-11,  avg # of iterations = 12.6

[...]

     total energy              =   -2964.99537947 Ry
     estimated scf accuracy    <       0.00000019 Ry

     iteration # 68     ecut=    29.40 Ry     beta= 0.05
     Davidson diagonalization with overlap
     ethr =  4.67E-11,  avg # of iterations = 11.8

     negative rho (up, down):  1.528E-02 0.000E+00

     Adding external electric field

     Computed dipole along edir(3) :
        Dipole                1.2214 Ry au,          3.1044 Debye
        Dipole field          0.0023 Ry au,

        Potential amp.       -0.2137 Ry
        Total length         46.3494 bohr

     End of self-consistent calculation

          k = 0.0000 0.0000 0.0000 ( 18029 PWs)   bands (ev):

   -55.5394 -55.5027 -55.5020 -55.4658 -55.4627 -55.4184 -55.3821 -55.3149
   -55.3021 -55.2793 -55.2687 -55.2594 -55.2180 -55.2098 -54.5504 -54.5164
   -32.0576 -32.0097 -31.8961 -31.8533 -31.8514 -31.8336 -31.8134 -31.8047
   -31.7811 -31.7694 -31.7357 -31.7258 -31.6983 -31.6857 -31.6834 -31.6493
   -31.6462 -31.6397 -31.6348 -31.6317 -31.6030 -31.5977 -31.5900 -31.5858
   -31.5586 -31.5544 -31.5506 -31.5303 -31.5233 -31.5214 -31.4759 -31.4748
   -31.4487 -31.4468 -31.4334 -31.4282 -31.4223 -31.4080 -31.3965 -31.3949
   -31.3919 -31.3755 -30.9600 -30.8638 -30.8414 -30.7765 -30.6904 -30.5794
   -19.3637 -19.1350 -16.2547 -15.9921 -15.8204 -15.7092 -15.6623 -15.4601
   -15.3672 -15.2866 -15.2228 -15.1452 -15.1286 -15.0910 -15.0650 -15.0592
   -15.0542 -15.0055 -14.9963 -14.9569 -14.9451 -14.9437 -14.9249 -14.9063
   -14.8243 -14.7220 -14.6786 -14.6605 -14.6016 -14.5450 -14.5317 -13.0513
   -12.9333  -9.0164  -7.1481  -5.2207  -5.1817  -3.7756  -3.5758  -3.4584
    -3.4238  -3.3882  -3.3193  -3.1381  -3.1296  -3.0368  -2.7995  -2.7091
    -2.6760  -2.6181  -2.6079  -2.5085  -2.4675  -2.3611  -2.3522  -2.3480
    -2.3318  -2.3061  -2.2730  -2.2309  -2.2064  -2.1946  -2.0667  -2.0557
    -1.9276  -1.9216  -1.8981  -1.8434  -1.8385  -1.7963  -1.7835  -1.7798
    -1.7671  -1.7186  -1.7069  -1.5939  -1.5201  -1.4571  -1.3702  -1.2317
    -1.1689  -1.0984  -1.0439  -1.0092  -0.9467  -0.9436  -0.8891  -0.8486
    -0.7902  -0.7786  -0.7715  -0.6750  -0.5761  -0.5543  -0.5240  -0.4457
    -0.3674  -0.2809  -0.2618  -0.2596  -0.2583  -0.2372  -0.0998  -0.0162
     0.0412   0.0462   0.1424   0.1754   0.2108   0.2248   0.2570   0.2776
     0.3337   0.4085   0.4201   0.4335   0.4591   0.5049   0.5105   0.6230
     0.6993   0.7008   0.7370   0.7698   0.9452   0.9802   1.1071   1.2143
     1.3807   1.4737   1.5455   1.6467   2.0597   2.1173   3.6337   3.6755
     3.6905   3.7329   3.7825   3.8091   3.8767   4.0759   4.0923   4.1020
     4.1415

[...]

          k = 0.0380-0.0419 0.0000 ( 17876 PWs)   bands (ev):

[...]

          k =-0.0760-0.0000 0.0000 ( 17886 PWs)   bands (ev):

[...]

          k =-0.0760-0.0839 0.0000 ( 17948 PWs)   bands (ev):

   -55.5280 -55.5140 -55.4852 -55.4824 -55.4611 -55.4081 -55.3923 -55.3115
   -55.2868 -55.2844 -55.2738 -55.2609 -55.2232 -55.2125 -54.5339 -54.5328
   -31.8682 -31.8535 -31.8337 -31.8211 -31.8184 -31.7990 -31.7739 -31.7563
   -31.7432 -31.7385 -31.7379 -31.7304 -31.6967 -31.6628 -31.6567 -31.6527
   -31.6437 -31.6409 -31.6376 -31.6351 -31.6294 -31.6105 -31.6095 -31.6086
   -31.6036 -31.5892 -31.5681 -31.5530 -31.5399 -31.5382 -31.5313 -31.5143
   -31.4967 -31.4922 -31.4854 -31.4837 -31.4657 -31.4475 -31.4425 -31.4368
   -31.4063 -31.3998 -30.8548 -30.8534 -30.7734 -30.7724 -30.7340 -30.7330
   -19.3549 -19.1347 -15.7060 -15.5968 -15.5628 -15.4157 -15.4115 -15.3606
   -15.3521 -15.3165 -15.2366 -15.2329 -15.1832 -15.1640 -15.1295 -15.1058
   -15.0940 -15.0485 -15.0462 -15.0275 -15.0034 -14.9849 -14.9684 -14.9409
   -14.9169 -14.9097 -14.8717 -14.8633 -14.7989 -14.7446 -14.7232 -13.0358
   -13.0335  -9.0173  -7.1456  -5.1977  -5.1585  -3.7320  -3.1566  -2.9899
    -2.8029  -2.7870  -2.6548  -2.6201  -2.6020  -2.5116  -2.4783  -2.4447
    -2.3816  -2.3707  -2.3641  -2.3425  -2.3376  -2.3238  -2.3029  -2.2659
    -2.2558  -2.2242  -2.1944  -2.1804  -2.1598  -2.1499  -2.1215  -2.1020
    -2.0893  -2.0858  -2.0240  -1.9959  -1.9107  -1.8446  -1.7635  -1.7112
    -1.6798  -1.6773  -1.6412  -1.6027  -1.5950  -1.5798  -1.4338  -1.3844
    -1.2617  -1.2484  -1.2291  -1.1532  -1.1371  -1.1031  -1.0974  -1.0314
    -0.9442  -0.9404  -0.9178  -0.8893  -0.8017  -0.7336  -0.6927  -0.6567
    -0.6129  -0.5828  -0.5090  -0.4955  -0.4847  -0.4222  -0.3818  -0.2967
    -0.2830  -0.2640  -0.2128  -0.1838  -0.1489  -0.0801  -0.0623  -0.0391
     0.0416   0.1078   0.1141   0.3239   0.4864   0.5156   0.5317   0.6167
     0.6634   0.7724   0.7952   0.8048   0.8471   0.8923   0.9799   1.0059
     1.0077   1.0852   1.8341   1.8348   1.9222   1.9327   3.5654   3.8794
     3.9438   3.9670   3.9921   4.1073   4.1099   4.1291   4.1377   4.2803
     4.2938

     the Fermi energy is     3.6119 ev

!    total energy              =   -2964.99539816 Ry
     estimated scf accuracy    <       0.00000006 Ry
     smearing contrib. (-TS)   =      -0.03110930 Ry
     internal energy E=F+TS    =   -2964.96428886 Ry

     The total energy is F=E-TS. E is the sum of the following terms:
     one-electron contribution =  -24342.45411384 Ry
     hartree contribution      =   12264.28124529 Ry
     xc contribution           =    -490.10226791 Ry
     ewald contribution        =    9603.30803252 Ry
     electric field correction =       0.00281508 Ry

     convergence has been achieved in  68 iterations

     Forces acting on atoms (cartesian axes, Ry/au):

     atom    1 type  1   force =    -0.00009904    0.00006709    0.10408274
     atom    2 type  1   force =    -0.00008910    0.00006220    0.10409944
     atom    3 type  2   force =    -0.00029492   -0.00188342    0.10330421
     atom    4 type  2   force =    -0.00015898    0.00151340    0.11463691
     atom    5 type  2   force =    -0.00038293    0.00125038   -0.17934899
     atom    6 type  2   force =    -0.00016964   -0.00076516   -0.17972136
     atom    7 type  1   force =    -0.06940900    0.00064534   -0.02929108
     atom    8 type  1   force =    -0.06895429   -0.00121843   -0.02933576
     atom    9 type  1   force =     0.06905196    0.00114026   -0.02935358
     atom   10 type  1   force =     0.06868387   -0.00079933   -0.02940877
     atom   11 type  1   force =     0.00041959    0.00056936    0.04680418
     atom   12 type  1   force =     0.00063210    0.00080578    0.04851078
     atom   13 type  1   force =     0.00026740   -0.00568492   -0.03325127
     atom   14 type  1   force =     0.00033233    0.00339635   -0.02637261
     atom   15 type  2   force =    -0.00010541   -0.00002789    0.00040278
     atom   16 type  2   force =     0.00001582    0.00002442    0.00051295
     atom   17 type  2   force =    -0.00001977    0.00012695    0.00041865
     atom   18 type  2   force =    -0.00006629   -0.00032025    0.00008466
     atom   19 type  1   force =    -0.01806067   -0.00015679    0.00403715
     atom   20 type  1   force =    -0.01683451    0.00147725    0.00328859
     atom   21 type  1   force =     0.01932749   -0.00136873    0.00448475
     atom   22 type  1   force =     0.01789364    0.00116371    0.00356150
     atom   23 type  1   force =     0.00001789    0.00003286   -0.00013162
     atom   24 type  1   force =    -0.00005334   -0.00001129   -0.00008333
     atom   25 type  1   force =    -0.00005144    0.00000520   -0.00058994
     atom   26 type  1   force =    -0.00023103    0.00014406   -0.00066891
     atom   27 type  2   force =     0.00004066    0.00014559   -0.00044745
     atom   28 type  2   force =     0.00022889    0.00002647   -0.00010123
     atom   29 type  2   force =     0.00022012    0.00000151   -0.00020607
     atom   30 type  2   force =    -0.00009045    0.00019911    0.00019632
     atom   31 type  1   force =    -0.00064981   -0.00024451    0.00053653
     atom   32 type  1   force =    -0.00056152    0.00032625    0.00056538
     atom   33 type  1   force =     0.00040705   -0.00014449    0.00035278
     atom   34 type  1   force =     0.00032916    0.00019213    0.00038117
     atom   35 type  1   force =    -0.00014740    0.00002179    0.00022915
     atom   36 type  1   force =    -0.00009016    0.00000372   -0.00019779
     atom   37 type  1   force =    -0.00036791   -0.00000401   -0.00019796
     atom   38 type  1   force =    -0.00051460    0.00028539   -0.00002959
     atom   39 type  2   force =    -0.00015711   -0.00027175    0.00128764
     atom   40 type  2   force =     0.00009398    0.00039374   -0.00133683
     atom   41 type  2   force =    -0.00031173   -0.00093187   -0.00060792
     atom   42 type  2   force =    -0.00028296    0.00093605   -0.00046225
     atom   43 type  1   force =    -0.00007775    0.00027798    0.00043309
     atom   44 type  1   force =    -0.00001095   -0.00003779   -0.00006410
     atom   45 type  1   force =    -0.00048939   -0.00019698   -0.00018633
     atom   46 type  1   force =    -0.00039284    0.00048215    0.00028571
     atom   47 type  1   force =    -0.00004931   -0.00023057    0.00018356
     atom   48 type  1   force =    -0.00022584    0.00013423    0.00066809
     atom   49 type  3   force =     0.00021528   -0.00056762    0.00021340
     atom   50 type  4   force =     0.00048281   -0.00114537    0.00045089
     atom   51 type  4   force =     0.00036581   -0.00026278   -0.00062619
     atom   52 type  1   force =     0.00047984    0.00094309   -0.00031631
     atom   53 type  4   force =     0.00022730   -0.00027041    0.00009957
     atom   54 type  4   force =    -0.00033288   -0.00024944   -0.00177533

     Total force =     0.374491     Total SCF correction =     0.000658
  @ DRIVER MODE: Message from server: STATUS
  @ DRIVER MODE: Message from server: GETFORCE
  @ DRIVER MODE: Returning v,forces,stress,ensemble

     Writing output data file ./calc.save/
  @ DRIVER MODE: Message from server: EXIT
  @ DRIVE MODE: Exiting

     General routines

     Parallel routines

   This run was terminated on:   1:15: 9  16Sep2021

   JOB DONE.