     Program PWSCF v.6.7GPU starts on 19Oct2021 at  6:55:45

     R & G space division:  proc/nbgrp/npool/nimage =       8
     Reading input from /storage/home/hcoda1/3/ntian30/research/carbon/CxH_vib/Thiel_calc/ads_slab/NH2NH2HH_perslab/out_0040/pw.inp
Warning: card &CELL ignored
Warning: card   CELL_DYNAMICS='IPI', ignored
Warning: card / ignored

     Current dimensions of program PWSCF are:
     Max number of different atomic species (ntypx) = 10
     Max number of k-points (npk) =  40000
     Max angular momentum in pseudopotentials (lmaxx) =  3
     Presently no symmetry can be used with electric field

     Message from routine cell_base_init:
     DEPRECATED: use true lattice parameter, not A to a.u. conversion factor

     IMPORTANT: XC functional enforced from input :
     Exchange-correlation= BEEF-VDW
                           (   1   4  43  14   2   0   0)
     Any further DFT definition will be discarded
     Please, verify this is what you really want

  @ DRIVER MODE: Connecting to
 qe_1139763_3255137.sched-torque.pace.gatech.edu6qj2xk6p_scratch
  using UNIX socket
  @ DRIVER MODE: Message from server: STATUS
  @ DRIVER MODE: Message from server: INIT
  @ DRIVER MODE: Receiving replica           0          -1
  @ DRIVER MODE: Receiving encoded integer          25
  @ DRIVER MODE:  SCF:  T  FORCE:  T  STRESS:  F  VC:  F  ENSEMBLE:  F
  @ DRIVER MODE:  SCF:  T  FORCE:  T  STRESS:  F  VC:  F  ENSEMBLE:  F

     Using Slab Decomposition

     bravais-lattice index     =            0
     lattice parameter (alat)  =       1.8897  a.u.
     unit-cell volume          =    9988.4706 (a.u.)^3
     number of atoms/cell      =           61
     number of atomic types    =            4
     number of electrons       =       442.00
     number of Kohn-Sham states=          231
     kinetic-energy cutoff     =      29.3995  Ry
     charge density cutoff     =     293.9946  Ry
     scf convergence threshold =      7.3E-08
     mixing beta               =       0.0500
     number of iterations used =            8  plain     mixing
     Exchange-correlation= BEEF-VDW
                           (   1   4  43  14   2   0   0)

     celldm(1)=   1.889726  celldm(2)=   0.000000  celldm(3)=   0.000000
     celldm(4)=   0.000000  celldm(5)=   0.000000  celldm(6)=   0.000000

     crystal axes: (cart. coord. in units of alat)
               a(1) = (   6.579727   0.000000   0.000000 )
               a(2) = (  -0.001163   8.942395   0.000000 )
               a(3) = (   0.000000   0.000000  25.155947 )

     reciprocal axes: (cart. coord. in units 2 pi/alat)
               b(1) = (  0.151982  0.000020  0.000000 )
               b(2) = (  0.000000  0.111827  0.000000 )
               b(3) = (  0.000000  0.000000  0.039752 )

     PseudoPot. # 1 for O  read from file:
     /storage/coda1/p-amedford6/0/shared/rich_project_chbe-medford/medford-share/data/pseudos_module/espresso/nninc/pbe/van/O.UPF
     MD5 check sum: 78c19812648e8988a0fe644b0f25305e
     Pseudo is Ultrasoft, Zval =  6.0
     Generated by new atomic code, or converted to UPF format
     Using radial grid of  737 points,  4 beta functions with:
                l(1) =   0
                l(2) =   0
                l(3) =   1
                l(4) =   1
     Q(r) pseudized with  8 coefficients,  rinner =    0.800   0.800   0.800

     PseudoPot. # 2 for Ti read from file:
     /storage/coda1/p-amedford6/0/shared/rich_project_chbe-medford/medford-share/data/pseudos_module/espresso/nninc/pbe/van/Ti.UPF
     MD5 check sum: 8e4df49b7f0d34bbd5052bf3f5ea0213
     Pseudo is Ultrasoft, Zval = 12.0
     Generated by new atomic code, or converted to UPF format
     Using radial grid of  851 points,  6 beta functions with:
                l(1) =   0
                l(2) =   0
                l(3) =   1
                l(4) =   1
                l(5) =   2
                l(6) =   2
     Q(r) pseudized with  8 coefficients,  rinner =    1.000   1.000   1.000
                                                       1.000   1.000

     PseudoPot. # 3 for N  read from file:
     /storage/coda1/p-amedford6/0/shared/rich_project_chbe-medford/medford-share/data/pseudos_module/espresso/nninc/pbe/van/N.UPF
     MD5 check sum: 90d10febe142ad51ac9d5be1deb811c4
     Pseudo is Ultrasoft, Zval =  5.0
     Generated by new atomic code, or converted to UPF format
     Using radial grid of  729 points,  4 beta functions with:
                l(1) =   0
                l(2) =   0
                l(3) =   1
                l(4) =   1
     Q(r) pseudized with  8 coefficients,  rinner =    0.800   0.800   0.800

     PseudoPot. # 4 for H  read from file:
     /storage/coda1/p-amedford6/0/shared/rich_project_chbe-medford/medford-share/data/pseudos_module/espresso/nninc/pbe/van/H.UPF
     MD5 check sum: b5ee9d7bfd3a09ee7748110bda690ff7
     Pseudo is Ultrasoft, Zval =  1.0
     Generated by new atomic code, or converted to UPF format
     Using radial grid of  615 points,  1 beta functions with:
                l(1) =   0
     Q(r) pseudized with  8 coefficients,  rinner =    0.800

     atomic species   valence    mass     pseudopotential
        O1             6.00    15.99900     O ( 1.00)
        Ti1           12.00    47.86700     Ti( 1.00)
        N1             5.00    14.00700     N ( 1.00)
        H1             1.00     1.00800     H ( 1.00)

     No symmetry found

   Cartesian axes

     site n.     atom                  positions (alat units)
         1           O1  tau(   1) = (   0.0007354   0.0005023  10.5931620  )
         2           O1  tau(   2) = (   3.2456387   0.0208629  13.8623892  )
         3           O1  tau(   3) = (   6.5569189   0.0555649  17.3369326  )
         4           O1  tau(   4) = (   0.0006271   0.0005054   7.9858123  )
         5           O1  tau(   5) = (   3.2933513   8.9300833  11.1812556  )
         6           O1  tau(   6) = (   0.0337597   0.0712708  14.6279364  )
         7           O1  tau(   7) = (   1.9868534   1.4903216   9.2879459  )
         8           O1  tau(   8) = (   5.2215124   1.6184176  12.5791628  )
         9           O1  tau(   9) = (   1.9922958   1.5902288  16.0980526  )
        10           Ti1 tau(  10) = (   0.0007404   1.4906270   9.2895810  )
        11           Ti1 tau(  11) = (   3.2860490   1.3455809  12.4359399  )
        12           Ti1 tau(  12) = (   6.5618936   1.3602716  15.8812525  )
        13           O1  tau(  13) = (   4.5942328   1.4918067   9.2879030  )
        14           O1  tau(  14) = (   1.3307156   1.5887400  12.5381291  )
        15           O1  tau(  15) = (   4.5725103   1.6118788  16.0006659  )
        16           Ti1 tau(  16) = (   3.2902859   2.9801868   9.2893338  )
        17           Ti1 tau(  17) = (   0.0046584   2.8227806  12.4510757  )
        18           Ti1 tau(  18) = (   3.2555632   2.8898243  15.6661830  )
        19           O1  tau(  19) = (   0.0003479   2.9813005  10.5931620  )
        20           O1  tau(  20) = (   3.2279248   2.9553539  13.8813459  )
        21           O1  tau(  21) = (   0.0002396   2.9813036   7.9858123  )
        22           O1  tau(  22) = (   3.2889556   2.9859946  11.1941525  )
        23           O1  tau(  23) = (   0.0559812   2.9852445  14.6488683  )
        24           O1  tau(  24) = (   1.9864658   4.4711199   9.2879459  )
        25           O1  tau(  25) = (   5.2314886   4.5920767  12.6107679  )
        26           O1  tau(  26) = (   1.9969377   4.5324570  16.1535429  )
        27           Ti1 tau(  27) = (   0.0003529   4.4714252   9.2895810  )
        28           Ti1 tau(  28) = (   3.2845268   4.3564118  12.5295435  )
        29           Ti1 tau(  29) = (   6.5676402   4.3565080  15.8255799  )
        30           O1  tau(  30) = (   4.5938453   4.4726049   9.2879030  )
        31           O1  tau(  31) = (   1.3315080   4.5776727  12.5731030  )
        32           O1  tau(  32) = (   4.5871741   4.4544688  15.9274438  )
        33           Ti1 tau(  33) = (   3.2898983   5.9609850   9.2893338  )
        34           Ti1 tau(  34) = (   6.5783773   5.8108302  12.4536689  )
        35           Ti1 tau(  35) = (   3.3162440   5.8110762  16.0333210  )
        36           O1  tau(  36) = (  -0.0000397   5.9620987  10.5931620  )
        37           O1  tau(  37) = (   3.2636778   5.9869953  13.9790019  )
        38           O1  tau(  38) = (   6.4104969   6.0475349  17.2872242  )
        39           O1  tau(  39) = (  -0.0001480   5.9621018   7.9858123  )
        40           O1  tau(  40) = (   3.2905218   5.9516507  11.2202175  )
        41           O1  tau(  41) = (   0.0617018   5.9803669  14.6637187  )
        42           O1  tau(  42) = (   1.9860782   7.4519181   9.2879459  )
        43           O1  tau(  43) = (   5.2407037   7.5572870  12.6049163  )
        44           O1  tau(  44) = (   1.9881273   7.5959696  16.0809372  )
        45           Ti1 tau(  45) = (  -0.0000347   7.4522234   9.2895810  )
        46           Ti1 tau(  46) = (   3.2912638   7.2305267  12.6172466  )
        47           Ti1 tau(  47) = (   0.0232661   7.3094817  15.9177444  )
        48           O1  tau(  48) = (   4.5934577   7.4534031   9.2879030  )
        49           O1  tau(  49) = (   1.3287160   7.5404973  12.5734398  )
        50           O1  tau(  50) = (   4.6507959   7.6754627  15.9163669  )
        51           Ti1 tau(  51) = (   3.2895107   8.9417832   9.2893338  )
        52           Ti1 tau(  52) = (   0.0077981   8.7799231  12.4640552  )
        53           Ti1 tau(  53) = (   3.2910717   8.8534038  15.6608489  )
        54           N1  tau(  54) = (   3.7626148   6.0985185  18.0019073  )
        55           H1  tau(  55) = (   3.4663780   5.3841571  18.6619304  )
        56           H1  tau(  56) = (   3.5565419   6.9988739  18.4208443  )
        57           N1  tau(  57) = (   6.5319303   3.0529623  17.4095181  )
        58           H1  tau(  58) = (   5.7013393   3.0140474  17.9904383  )
        59           H1  tau(  59) = (   0.7603229   3.1006543  18.0203722  )
        60           H1  tau(  60) = (   5.4974376   6.0568821  17.7423635  )
        61           H1  tau(  61) = (   0.7324116   0.0679216  17.9402240  )

     number of k points=    10  Fermi-Dirac smearing, width (Ry)=  0.0073
                       cart. coord. in units 2pi/alat
        k(    1) = (   0.0000000   0.0000000   0.0000000), wk =   0.1250000
        k(    2) = (   0.0000000   0.0279567   0.0000000), wk =   0.2500000
        k(    3) = (   0.0000000  -0.0559134   0.0000000), wk =   0.1250000
        k(    4) = (   0.0379955   0.0000049   0.0000000), wk =   0.2500000
        k(    5) = (   0.0379955   0.0279617   0.0000000), wk =   0.2500000
        k(    6) = (   0.0379955  -0.0559085   0.0000000), wk =   0.2500000
        k(    7) = (   0.0379955  -0.0279518   0.0000000), wk =   0.2500000
        k(    8) = (  -0.0759910  -0.0000099   0.0000000), wk =   0.1250000
        k(    9) = (  -0.0759910   0.0279468   0.0000000), wk =   0.2500000
        k(   10) = (  -0.0759910  -0.0559233   0.0000000), wk =   0.1250000

     Initial potential from superposition of free atoms

     starting charge  423.99908, renormalised to  442.00000

     negative rho (up, down):  3.745E-02 0.000E+00

     %%%%%%%%%%%%%%%%%%%%%%%%%%%%%%%%%%%%%%%%%%%%%%%%%%%%%%%%%%%%%%%%%%%%%%%%
     %                                                                      %
     % You are using vdW-DF, which was implemented by the Thonhauser group. %
     % Please cite the following two papers that made this development      %
     % possible and the two reviews that describe the various versions:     %
     %                                                                      %
     %   T. Thonhauser et al., PRL 115, 136402 (2015).                      %
     %   T. Thonhauser et al., PRB 76, 125112 (2007).                       %
     %   K. Berland et al., Rep. Prog. Phys. 78, 066501 (2015).             %
     %   D.C. Langreth et al., J. Phys.: Condens. Matter 21, 084203 (2009). %
     %                                                                      %
     %                                                                      %
     % If you are calculating the stress with vdW-DF, please also cite:     %
     %                                                                      %
     %   R. Sabatini et al., J. Phys.: Condens. Matter 24, 424209 (2012).   %
     %                                                                      %
     %%%%%%%%%%%%%%%%%%%%%%%%%%%%%%%%%%%%%%%%%%%%%%%%%%%%%%%%%%%%%%%%%%%%%%%%

     Adding external electric field

     Computed dipole along edir(3) :
        Dipole               -5.9687 Ry au,        -15.1708 Debye
        Dipole field         -0.0075 Ry au,

        Potential amp.        0.6961 Ry
        Total length         46.3494 bohr

     Starting wfcs are  334 atomic wfcs
  @ DRIVER MODE: Message from server: STATUS
  @ DRIVER MODE: Message from server: POSDATA
  @ DRIVER MODE: Reading and sharing cell
  @ DRIVER MODE: Reading and sharing positions
  @ DRIVER MODE: Received positions

     Self-consistent Calculation

     iteration #  1     ecut=    29.40 Ry     beta= 0.05
     Davidson diagonalization with overlap
     c_bands:  1 eigenvalues not converged
     c_bands:  3 eigenvalues not converged
     c_bands:  5 eigenvalues not converged
     c_bands:  2 eigenvalues not converged
     c_bands:  4 eigenvalues not converged
     c_bands:  4 eigenvalues not converged
     c_bands:  4 eigenvalues not converged
     c_bands:  2 eigenvalues not converged
     c_bands:  5 eigenvalues not converged
     ethr =  1.00E-05,  avg # of iterations = 21.0

[...]

     total energy              =   -3277.93260727 Ry
     estimated scf accuracy    <     239.63215273 Ry

     iteration #  2     ecut=    29.40 Ry     beta= 0.05
     Davidson diagonalization with overlap
     ethr =  1.00E-02,  avg # of iterations = 16.0

[...]

     iteration # 48     ecut=    29.40 Ry     beta= 0.05
     Davidson diagonalization with overlap
     c_bands:  1 eigenvalues not converged
     ethr =  1.16E-09,  avg # of iterations = 15.6

[...]

     total energy              =   -3295.80754943 Ry
     estimated scf accuracy    <       0.00000015 Ry

     iteration # 60     ecut=    29.40 Ry     beta= 0.05
     Davidson diagonalization with overlap
     ethr =  3.12E-11,  avg # of iterations =  9.2

     negative rho (up, down):  3.606E-02 0.000E+00

     Adding external electric field

     Computed dipole along edir(3) :
        Dipole                1.5095 Ry au,          3.8368 Debye
        Dipole field          0.0019 Ry au,

        Potential amp.       -0.1760 Ry
        Total length         46.3494 bohr

     End of self-consistent calculation

          k = 0.0000 0.0000 0.0000 ( 26871 PWs)   bands (ev):

   -57.7248 -57.6991 -57.6888 -57.6622 -57.6533 -57.6195 -57.6063 -57.5984
   -57.5707 -57.5576 -57.5080 -57.4777 -57.4611 -57.4551 -57.4470 -56.7466
   -56.7225 -56.7180 -34.1064 -34.1032 -34.0945 -34.0853 -34.0730 -34.0567
   -34.0560 -34.0420 -34.0288 -34.0176 -33.9877 -33.9694 -33.9498 -33.9437
   -33.9360 -33.9175 -33.9120 -33.9107 -33.8924 -33.8872 -33.8650 -33.8628
   -33.8426 -33.8330 -33.8289 -33.8229 -33.8121 -33.8101 -33.8045 -33.7951
   -33.7836 -33.7817 -33.7675 -33.7320 -33.7227 -33.7186 -33.7039 -33.7032
   -33.6955 -33.6945 -33.6832 -33.6748 -33.6680 -33.6619 -33.6394 -33.0619
   -33.0609 -33.0564 -33.0448 -33.0406 -32.9727 -32.9107 -32.9054 -32.7725
   -19.3033 -18.7611 -18.5257 -18.2270 -18.0162 -17.9740 -17.9410 -17.8195
   -17.7840 -17.7600 -17.6624 -17.6513 -17.5877 -17.5341 -17.5060 -17.4573
   -17.4391 -17.3787 -17.3647 -17.3562 -17.3510 -17.3408 -17.3305 -17.2651
   -17.2382 -17.2100 -17.1708 -17.1550 -17.1484 -17.1412 -17.1186 -16.8459
   -15.5005 -15.2129 -15.1548 -15.1535 -15.0832  -6.9868  -6.8117  -6.6492
    -6.3408  -5.8603  -5.7865  -5.6372  -5.5135  -5.2213  -5.1935  -5.1423
    -5.1155  -5.0864  -5.0220  -5.0019  -4.9890  -4.9337  -4.9162  -4.8436
    -4.8207  -4.7793  -4.7556  -4.7297  -4.6850  -4.6447  -4.6172  -4.6055
    -4.5749  -4.5673  -4.5108  -4.4872  -4.4576  -4.4521  -4.4360  -4.3255
    -4.2949  -4.2383  -4.1684  -4.0921  -4.0392  -4.0314  -3.9747  -3.9553
    -3.9030  -3.8637  -3.8259  -3.8172  -3.7809  -3.7434  -3.6422  -3.6105
    -3.5879  -3.5222  -3.5005  -3.4315  -3.4139  -3.3810  -3.3391  -3.3328
    -3.2963  -3.1982  -3.1644  -3.0845  -3.0271  -2.9743  -2.9347  -2.8903
    -2.8437  -2.8105  -2.7853  -2.7034  -2.6278  -2.5438  -2.4934  -2.4806
    -2.4690  -2.4181  -2.4113  -2.4085  -2.3526  -2.3256  -2.3150  -2.2776
    -2.2257  -2.2031  -2.1409  -2.0958  -2.0607  -1.9933  -1.9776  -1.8968
    -1.8882  -1.8269  -1.7837  -1.7440  -1.6327  -1.5974  -1.5652  -1.5626
    -1.4440  -1.4077  -1.1439  -1.0046  -0.7868  -0.7541  -0.5000  -0.4512
    -0.4484  -0.1854  -0.1820  -0.0538   1.3223   1.5109   1.6447   1.7001
     1.7050   1.7385   1.8045   1.8911   1.9164   1.9636   1.9952

[...]

          k = 0.0380-0.0280 0.0000 ( 26873 PWs)   bands (ev):

[...]

          k =-0.0760-0.0000 0.0000 ( 26902 PWs)   bands (ev):

[...]

          k =-0.0760-0.0559 0.0000 ( 26868 PWs)   bands (ev):

   -57.7212 -57.7068 -57.6846 -57.6611 -57.6533 -57.6201 -57.6076 -57.5981
   -57.5701 -57.5574 -57.5083 -57.4727 -57.4652 -57.4606 -57.4422 -56.7404
   -56.7351 -56.7116 -34.1938 -34.1566 -34.1538 -34.0942 -34.0600 -34.0525
   -34.0418 -34.0392 -34.0017 -33.9678 -33.9339 -33.9201 -33.9147 -33.9133
   -33.9023 -33.8998 -33.8802 -33.8730 -33.8684 -33.8682 -33.8643 -33.8589
   -33.8537 -33.8455 -33.8312 -33.8263 -33.8236 -33.8186 -33.8143 -33.7936
   -33.7928 -33.7704 -33.7637 -33.7562 -33.7505 -33.7320 -33.7257 -33.7204
   -33.7006 -33.7005 -33.6986 -33.6952 -33.6858 -33.6678 -33.6507 -33.1507
   -33.0616 -33.0564 -33.0340 -32.9542 -32.9483 -32.8866 -32.8720 -32.8667
   -19.2898 -18.7356 -18.2719 -18.1351 -17.9630 -17.9221 -17.8478 -17.8348
   -17.8231 -17.7937 -17.7017 -17.6784 -17.6520 -17.5689 -17.5504 -17.5001
   -17.4564 -17.4432 -17.4250 -17.4140 -17.4058 -17.3893 -17.3552 -17.3232
   -17.2905 -17.2387 -17.1768 -17.1578 -17.1094 -17.0945 -17.0638 -16.8796
   -15.4952 -15.2109 -15.2088 -15.0920 -15.0845  -6.9913  -6.8437  -6.6410
    -6.3221  -5.5170  -5.4540  -5.3706  -5.3563  -5.2386  -5.2055  -5.0148
    -5.0041  -4.9893  -4.9570  -4.9254  -4.8892  -4.8623  -4.8384  -4.8250
    -4.8111  -4.7899  -4.7639  -4.7519  -4.7355  -4.6915  -4.6445  -4.6383
    -4.6272  -4.6047  -4.5504  -4.5055  -4.4777  -4.4252  -4.4218  -4.3415
    -4.3179  -4.2999  -4.2256  -4.2175  -4.0963  -3.9479  -3.8871  -3.8673
    -3.8431  -3.7956  -3.7847  -3.7320  -3.7103  -3.6918  -3.5579  -3.4742
    -3.4512  -3.4159  -3.3845  -3.3618  -3.3262  -3.2983  -3.2769  -3.2510
    -3.2349  -3.1825  -3.1664  -3.1226  -3.0802  -2.9987  -2.9553  -2.8972
    -2.8738  -2.8552  -2.8369  -2.8331  -2.8128  -2.7800  -2.7509  -2.6942
    -2.6861  -2.6559  -2.5842  -2.5300  -2.5018  -2.4769  -2.4348  -2.4277
    -2.2729  -2.2538  -2.2209  -2.2084  -2.1349  -2.0912  -1.9997  -1.9731
    -1.9507  -1.8791  -1.8075  -1.7641  -1.7077  -1.5110  -1.5023  -1.3833
    -1.3465  -1.2975  -1.2719  -1.2287  -1.0691  -0.7351  -0.6625  -0.3793
    -0.3680  -0.3420  -0.1866  -0.1803   1.4294   1.4531   1.5384   1.5946
     1.6133   1.6510   1.6638   1.7029   1.7234   1.7800   1.9156

     the Fermi energy is     1.3732 ev

!    total energy              =   -3295.80758924 Ry
     estimated scf accuracy    <       0.00000007 Ry
     smearing contrib. (-TS)   =      -0.03571935 Ry
     internal energy E=F+TS    =   -3295.77186988 Ry

     The total energy is F=E-TS. E is the sum of the following terms:
     one-electron contribution =  -34705.78560090 Ry
     hartree contribution      =   17418.81050541 Ry
     xc contribution           =    -543.86511498 Ry
     ewald contribution        =   14535.06547380 Ry
     electric field correction =       0.00286679 Ry

     convergence has been achieved in  60 iterations

     Forces acting on atoms (cartesian axes, Ry/au):

     atom    1 type  1   force =    -0.00168719    0.00377062    0.05470766
     atom    2 type  1   force =     0.00024428   -0.00250528   -0.00839201
     atom    3 type  1   force =     0.00043101   -0.00358811    0.00038346
     atom    4 type  1   force =     0.00004385   -0.00003150    0.10679874
     atom    5 type  1   force =    -0.00020450    0.00065393    0.00658875
     atom    6 type  1   force =     0.00003658   -0.00438944    0.00374546
     atom    7 type  1   force =     0.06648085    0.00078716   -0.02967678
     atom    8 type  1   force =     0.00659155   -0.02712456    0.00195975
     atom    9 type  1   force =     0.00661878   -0.02257821    0.00513768
     atom   10 type  2   force =    -0.00011367   -0.00450848   -0.18345803
     atom   11 type  2   force =     0.00067320    0.02088783   -0.00414094
     atom   12 type  2   force =    -0.00177539    0.02775125   -0.00663024
     atom   13 type  1   force =    -0.06653938    0.00044319   -0.02982083
     atom   14 type  1   force =    -0.00433426   -0.02770280    0.00253858
     atom   15 type  1   force =    -0.00657851   -0.02337665    0.00502655
     atom   16 type  2   force =     0.00008424    0.00069346    0.06698608
     atom   17 type  2   force =    -0.00238178    0.03353059    0.00349514
     atom   18 type  2   force =     0.00131244    0.02456072   -0.00362780
     atom   19 type  1   force =    -0.00169785    0.00675136    0.05326553
     atom   20 type  1   force =     0.00023462   -0.00116100   -0.00661314
     atom   21 type  1   force =     0.00003489    0.00110172    0.10726064
     atom   22 type  1   force =    -0.00025230   -0.00198570    0.00723312
     atom   23 type  1   force =     0.00071001   -0.00580136    0.00419370
     atom   24 type  1   force =     0.06751215    0.00137985   -0.02907780
     atom   25 type  1   force =     0.00527614   -0.03016084    0.00245698
     atom   26 type  1   force =     0.00669516   -0.02606888   -0.00411405
     atom   27 type  2   force =     0.00011100   -0.00120909   -0.18675333
     atom   28 type  2   force =     0.00007980    0.02386163   -0.00246407
     atom   29 type  2   force =    -0.00128941    0.02206159    0.00106010
     atom   30 type  1   force =    -0.06761829    0.00087599   -0.02893131
     atom   31 type  1   force =    -0.00536725   -0.02962555    0.00279639
     atom   32 type  1   force =    -0.00434520   -0.02246683    0.00256219
     atom   33 type  2   force =    -0.00004787    0.00131891    0.07474330
     atom   34 type  2   force =     0.00092574    0.03692474    0.00405511
     atom   35 type  2   force =    -0.00208625    0.03471390    0.00500190
     atom   36 type  1   force =    -0.00186623    0.00288558    0.05589202
     atom   37 type  1   force =     0.00132223    0.00401823   -0.01133382
     atom   38 type  1   force =     0.00020002   -0.00309198    0.00424465
     atom   39 type  1   force =     0.00002178   -0.00063717    0.10728722
     atom   40 type  1   force =     0.00015706   -0.00141481    0.00716440
     atom   41 type  1   force =    -0.00022967   -0.00395737    0.00188676
     atom   42 type  1   force =     0.06784708   -0.00221477   -0.02971694
     atom   43 type  1   force =     0.00368238   -0.02636514    0.00153024
     atom   44 type  1   force =     0.01004329   -0.01796626    0.00265328
     atom   45 type  2   force =     0.00003252    0.00217725   -0.18332011
     atom   46 type  2   force =    -0.00023966    0.01479510    0.00204902
     atom   47 type  2   force =     0.00319803    0.02654352   -0.00912460
     atom   48 type  1   force =    -0.06791200   -0.00284296   -0.02987541
     atom   49 type  1   force =    -0.00374677   -0.02550795    0.00182968
     atom   50 type  1   force =    -0.00789925   -0.02368221    0.00530009
     atom   51 type  2   force =     0.00045178   -0.00350392    0.06840607
     atom   52 type  2   force =    -0.00011165    0.03119674    0.00595850
     atom   53 type  2   force =    -0.00217316    0.02599232   -0.00060235
     atom   54 type  3   force =     0.00075818   -0.00141638   -0.00091080
     atom   55 type  4   force =    -0.00055891    0.00038076   -0.00049686
     atom   56 type  4   force =     0.00004685    0.00088445    0.00129284
     atom   57 type  3   force =     0.00134253   -0.00279925   -0.00033548
     atom   58 type  4   force =     0.00050439    0.00108211   -0.00007641
     atom   59 type  4   force =     0.00005870    0.00029246    0.00071050
     atom   60 type  4   force =    -0.00147692   -0.00152793    0.00018430
     atom   61 type  4   force =    -0.00122979   -0.00110456    0.00110672

     Total force =     0.459568     Total SCF correction =     0.000862
  @ DRIVER MODE: Message from server: STATUS
  @ DRIVER MODE: Message from server: GETFORCE
  @ DRIVER MODE: Returning v,forces,stress,ensemble

     Writing output data file ./calc.save/
  @ DRIVER MODE: Message from server: EXIT
  @ DRIVE MODE: Exiting

     General routines

     Parallel routines

   This run was terminated on:   7:27:30  19Oct2021

   JOB DONE.