     Program PWSCF v.6.7GPU starts on 15Jul2021 at 18:37:18

     R & G space division:  proc/nbgrp/npool/nimage =      16
     Reading input from /storage/home/hcoda1/3/ntian30/research/carbon/15Jul_vib/ads_slab/CH3N2_b/out_0004/pw.inp
Warning: card &CELL ignored
Warning: card   CELL_DYNAMICS='IPI', ignored
Warning: card / ignored

     Current dimensions of program PWSCF are:
     Max number of different atomic species (ntypx) = 10
     Max number of k-points (npk) =  40000
     Max angular momentum in pseudopotentials (lmaxx) =  3
     Presently no symmetry can be used with electric field

     Message from routine cell_base_init:
     DEPRECATED: use true lattice parameter, not A to a.u. conversion factor

     IMPORTANT: XC functional enforced from input :
     Exchange-correlation= BEEF-VDW
                           (   1   4  43  14   2   0   0)
     Any further DFT definition will be discarded
     Please, verify this is what you really want

  @ DRIVER MODE: Connecting to
 qe_1139763_2351645.sched-torque.pace.gatech.edu09zqf4_x_scratch
  using UNIX socket
  @ DRIVER MODE: Message from server: STATUS
  @ DRIVER MODE: Message from server: INIT
  @ DRIVER MODE: Receiving replica           0          -1
  @ DRIVER MODE: Receiving encoded integer          25
  @ DRIVER MODE:  SCF:  T  FORCE:  T  STRESS:  F  VC:  F  ENSEMBLE:  F
  @ DRIVER MODE:  SCF:  T  FORCE:  T  STRESS:  F  VC:  F  ENSEMBLE:  F

     Using Slab Decomposition

     bravais-lattice index     =            0
     lattice parameter (alat)  =       1.8897  a.u.
     unit-cell volume          =    6658.9804 (a.u.)^3
     number of atoms/cell      =           53
     number of atomic types    =            5
     number of electrons       =       395.00
     number of Kohn-Sham states=          207
     kinetic-energy cutoff     =      29.3995  Ry
     charge density cutoff     =     293.9946  Ry
     scf convergence threshold =      7.3E-08
     mixing beta               =       0.0500
     number of iterations used =            8  plain     mixing
     Exchange-correlation= BEEF-VDW
                           (   1   4  43  14   2   0   0)

     celldm(1)=   1.889726  celldm(2)=   0.000000  celldm(3)=   0.000000
     celldm(4)=   0.000000  celldm(5)=   0.000000  celldm(6)=   0.000000

     crystal axes: (cart. coord. in units of alat)
               a(1) = (   6.579727   0.000000   0.000000 )
               a(2) = (  -0.000775   5.961596   0.000000 )
               a(3) = (   0.000000   0.000000  25.155947 )

     reciprocal axes: (cart. coord. in units 2 pi/alat)
               b(1) = (  0.151982  0.000020  0.000000 )
               b(2) = (  0.000000  0.167740  0.000000 )
               b(3) = (  0.000000  0.000000  0.039752 )

     PseudoPot. # 1 for Ti read from file:
     /storage/coda1/p-amedford6/0/shared/rich_project_chbe-medford/medford-share/data/pseudos_module/espresso/nninc/pbe/van/Ti.UPF
     MD5 check sum: 8e4df49b7f0d34bbd5052bf3f5ea0213
     Pseudo is Ultrasoft, Zval = 12.0
     Generated by new atomic code, or converted to UPF format
     Using radial grid of  851 points,  6 beta functions with:
                l(1) =   0
                l(2) =   0
                l(3) =   1
                l(4) =   1
                l(5) =   2
                l(6) =   2
     Q(r) pseudized with  8 coefficients,  rinner =    1.000   1.000   1.000
                                                       1.000   1.000

     PseudoPot. # 2 for O  read from file:
     /storage/coda1/p-amedford6/0/shared/rich_project_chbe-medford/medford-share/data/pseudos_module/espresso/nninc/pbe/van/O.UPF
     MD5 check sum: 78c19812648e8988a0fe644b0f25305e
     Pseudo is Ultrasoft, Zval =  6.0
     Generated by new atomic code, or converted to UPF format
     Using radial grid of  737 points,  4 beta functions with:
                l(1) =   0
                l(2) =   0
                l(3) =   1
                l(4) =   1
     Q(r) pseudized with  8 coefficients,  rinner =    0.800   0.800   0.800

     PseudoPot. # 3 for N  read from file:
     /storage/coda1/p-amedford6/0/shared/rich_project_chbe-medford/medford-share/data/pseudos_module/espresso/nninc/pbe/van/N.UPF
     MD5 check sum: 90d10febe142ad51ac9d5be1deb811c4
     Pseudo is Ultrasoft, Zval =  5.0
     Generated by new atomic code, or converted to UPF format
     Using radial grid of  729 points,  4 beta functions with:
                l(1) =   0
                l(2) =   0
                l(3) =   1
                l(4) =   1
     Q(r) pseudized with  8 coefficients,  rinner =    0.800   0.800   0.800

     PseudoPot. # 4 for C  read from file:
     /storage/coda1/p-amedford6/0/shared/rich_project_chbe-medford/medford-share/data/pseudos_module/espresso/nninc/pbe/van/C.UPF
     MD5 check sum: 1a69bf6b8db32088f5b2163dbdb77a27
     Pseudo is Ultrasoft, Zval =  4.0
     Generated by new atomic code, or converted to UPF format
     Using radial grid of  721 points,  4 beta functions with:
                l(1) =   0
                l(2) =   0
                l(3) =   1
                l(4) =   1
     Q(r) pseudized with  8 coefficients,  rinner =    0.800   0.800   0.800

     PseudoPot. # 5 for H  read from file:
     /storage/coda1/p-amedford6/0/shared/rich_project_chbe-medford/medford-share/data/pseudos_module/espresso/nninc/pbe/van/H.UPF
     MD5 check sum: b5ee9d7bfd3a09ee7748110bda690ff7
     Pseudo is Ultrasoft, Zval =  1.0
     Generated by new atomic code, or converted to UPF format
     Using radial grid of  615 points,  1 beta functions with:
                l(1) =   0
     Q(r) pseudized with  8 coefficients,  rinner =    0.800

     atomic species   valence    mass     pseudopotential
        Ti1           12.00    47.86700     Ti( 1.00)
        O1             6.00    15.99900     O ( 1.00)
        N1             5.00    14.00700     N ( 1.00)
        C1             4.00    12.01100     C ( 1.00)
        H1             1.00     1.00800     H ( 1.00)

     Starting magnetic structure
     atomic species   magnetization
        Ti1          0.000
        O1           0.000
        N1           0.000
        C1           0.025
        H1           0.000

     No symmetry found

   Cartesian axes

     site n.     atom                  positions (alat units)
         1           Ti1 tau(   1) = (   0.0004258   2.9801865   6.0000000  )
         2           Ti1 tau(   2) = (   3.2906075   1.4906267   6.0002472  )
         3           O1  tau(   3) = (   0.0006271   0.0005054   7.9858123  )
         4           O1  tau(   4) = (   3.2906025   0.0005020   7.3038282  )
         5           O1  tau(   5) = (   4.5942328   1.4918067   9.2879030  )
         6           O1  tau(   6) = (   1.9868534   1.4903216   9.2879459  )
         7           Ti1 tau(   7) = (   3.2907910   2.8959150   9.1758416  )
         8           Ti1 tau(   8) = (   0.0015273   1.4827037   9.2680791  )
         9           O1  tau(   9) = (   3.3037365   0.0094216  11.3222111  )
        10           O1  tau(  10) = (   0.0116148   5.9584955  10.6183126  )
        11           O1  tau(  11) = (   1.3152514   1.5075076  12.6320051  )
        12           O1  tau(  12) = (   5.3186361   1.4995162  12.6508707  )
        13           Ti1 tau(  13) = (   6.5540705   2.9956815  12.5884341  )
        14           Ti1 tau(  14) = (   3.2234832   1.4927074  12.4921739  )
        15           O1  tau(  15) = (   0.0610261   5.9052480  14.6017706  )
        16           O1  tau(  16) = (   3.2936532   0.0132264  13.8830087  )
        17           O1  tau(  17) = (   4.5722397   1.5061520  16.0138922  )
        18           O1  tau(  18) = (   2.0767725   1.5295127  16.0808449  )
        19           Ti1 tau(  19) = (   3.3650854   3.0251465  15.6907462  )
        20           Ti1 tau(  20) = (   0.0387768   1.3037779  15.7216176  )
        21           O1  tau(  21) = (   3.2904802   0.0005063   4.7018136  )
        22           O1  tau(  22) = (   0.0189486   0.1070799  17.1824039  )
        23           O1  tau(  23) = (   1.3043587   1.4918075   6.0039043  )
        24           O1  tau(  24) = (   5.2767064   1.4903225   6.0039473  )
        25           Ti1 tau(  25) = (   0.0000382   5.9609847   6.0000000  )
        26           Ti1 tau(  26) = (   3.2902200   4.4714249   6.0002472  )
        27           O1  tau(  27) = (   0.0002396   2.9813036   7.9858123  )
        28           O1  tau(  28) = (   3.2902150   2.9813002   7.3038282  )
        29           O1  tau(  29) = (   4.5938453   4.4726049   9.2879030  )
        30           O1  tau(  30) = (   1.9864658   4.4711199   9.2879459  )
        31           Ti1 tau(  31) = (   3.2891106   5.8743827   9.1763621  )
        32           Ti1 tau(  32) = (   0.0006254   4.4649316   9.2693709  )
        33           O1  tau(  33) = (   3.3043114   2.9829305  11.3227053  )
        34           O1  tau(  34) = (   0.0092240   2.9805883  10.6323155  )
        35           O1  tau(  35) = (   1.3131995   4.4620516  12.6081187  )
        36           O1  tau(  36) = (   5.3117129   4.4692194  12.6284301  )
        37           Ti1 tau(  37) = (   6.5303063   5.9583428  12.5400172  )
        38           Ti1 tau(  38) = (   3.2255477   4.4746212  12.4748647  )
        39           O1  tau(  39) = (   0.0377805   3.0059521  14.8845374  )
        40           O1  tau(  40) = (   3.3120027   2.9986483  13.8863452  )
        41           O1  tau(  41) = (   4.5434534   4.5277214  16.0148975  )
        42           O1  tau(  42) = (   2.1165747   4.4940517  16.0783766  )
        43           Ti1 tau(  43) = (   3.3042555   0.0241951  15.7004812  )
        44           Ti1 tau(  44) = (   0.0495666   4.4505358  16.3362958  )
        45           O1  tau(  45) = (   3.2900926   2.9813045   4.7018136  )
        46           O1  tau(  46) = (   1.3039711   4.4726057   6.0039043  )
        47           O1  tau(  47) = (   5.2763189   4.4711207   6.0039473  )
        48           N1  tau(  48) = (   0.5348212   3.4388502  18.0689430  )
        49           C1  tau(  49) = (   1.3556880   3.0079929  19.2215664  )
        50           H1  tau(  50) = (   1.4862090   3.8900195  19.8496782  )
        51           H1  tau(  51) = (   0.8469181   2.2141957  19.7647163  )
        52           H1  tau(  52) = (   2.3296892   2.6851793  18.8624704  )
        53           N1  tau(  53) = (   5.9145885   3.2636146  17.9655992  )

     number of k points=    10  Fermi-Dirac smearing, width (Ry)=  0.0073
                       cart. coord. in units 2pi/alat
        k(    1) = (   0.0000000   0.0000000   0.0000000), wk =   0.0625000
        k(    2) = (   0.0000000   0.0419351   0.0000000), wk =   0.1250000
        k(    3) = (   0.0000000  -0.0838702   0.0000000), wk =   0.0625000
        k(    4) = (   0.0379955   0.0000049   0.0000000), wk =   0.1250000
        k(    5) = (   0.0379955   0.0419400   0.0000000), wk =   0.1250000
        k(    6) = (   0.0379955  -0.0838652   0.0000000), wk =   0.1250000
        k(    7) = (   0.0379955  -0.0419301   0.0000000), wk =   0.1250000
        k(    8) = (  -0.0759910  -0.0000099   0.0000000), wk =   0.0625000
[...]
        k(   10) = (  -0.0759910  -0.0838800   0.0000000), wk =   0.0625000

     Initial potential from superposition of free atoms

     starting charge  378.99916, renormalised to  395.00000

     negative rho (up, down):  8.047E-03 8.054E-03

     %%%%%%%%%%%%%%%%%%%%%%%%%%%%%%%%%%%%%%%%%%%%%%%%%%%%%%%%%%%%%%%%%%%%%%%%
     %                                                                      %
     % You are using vdW-DF, which was implemented by the Thonhauser group. %
     % Please cite the following two papers that made this development      %
     % possible and the two reviews that describe the various versions:     %
     %                                                                      %
     %   T. Thonhauser et al., PRL 115, 136402 (2015).                      %
     %   T. Thonhauser et al., PRB 76, 125112 (2007).                       %
     %   K. Berland et al., Rep. Prog. Phys. 78, 066501 (2015).             %
     %   D.C. Langreth et al., J. Phys.: Condens. Matter 21, 084203 (2009). %
     %                                                                      %
     %                                                                      %
     % If you are calculating the stress with vdW-DF, please also cite:     %
     %                                                                      %
     %   R. Sabatini et al., J. Phys.: Condens. Matter 24, 424209 (2012).   %
     %                                                                      %
     %%%%%%%%%%%%%%%%%%%%%%%%%%%%%%%%%%%%%%%%%%%%%%%%%%%%%%%%%%%%%%%%%%%%%%%%

     Adding external electric field

     Computed dipole along edir(3) :
        Dipole               -8.5786 Ry au,        -21.8047 Debye
        Dipole field         -0.0162 Ry au,

        Potential amp.        1.5007 Ry
        Total length         46.3494 bohr

[...]

     Starting wfcs are  299 atomic wfcs
  @ DRIVER MODE: Message from server: STATUS
  @ DRIVER MODE: Message from server: POSDATA
  @ DRIVER MODE: Reading and sharing cell
  @ DRIVER MODE: Reading and sharing positions
  @ DRIVER MODE: Received positions

     Self-consistent Calculation

     iteration #  1     ecut=    29.40 Ry     beta= 0.05
     Davidson diagonalization with overlap
     c_bands:  1 eigenvalues not converged
     c_bands:  1 eigenvalues not converged
     c_bands:  1 eigenvalues not converged
     c_bands:  3 eigenvalues not converged
     c_bands:  1 eigenvalues not converged
     c_bands:  3 eigenvalues not converged
     c_bands:  1 eigenvalues not converged
     c_bands:  2 eigenvalues not converged
     c_bands:  1 eigenvalues not converged
     c_bands:  1 eigenvalues not converged
     c_bands:  1 eigenvalues not converged
     c_bands:  3 eigenvalues not converged
     c_bands:  1 eigenvalues not converged
     c_bands:  3 eigenvalues not converged
     c_bands:  1 eigenvalues not converged
     c_bands:  2 eigenvalues not converged
     ethr =  1.00E-05,  avg # of iterations = 19.2

[...]

     total energy              =   -2599.51844901 Ry
     estimated scf accuracy    <    3762.01086867 Ry

     total magnetization       =     0.00 Bohr mag/cell
     absolute magnetization    =     0.02 Bohr mag/cell

     iteration #  2     ecut=    29.40 Ry     beta= 0.05
     Davidson diagonalization with overlap
     ethr =  1.00E-02,  avg # of iterations = 22.5

[...]

     iteration # 40     ecut=    29.40 Ry     beta= 0.05
     Davidson diagonalization with overlap
     c_bands:  1 eigenvalues not converged
     c_bands:  1 eigenvalues not converged
     ethr =  4.58E-06,  avg # of iterations = 12.9

[...]

     total energy              =   -2939.12583514 Ry
     estimated scf accuracy    <       0.00000008 Ry

[...]

     iteration # 61     ecut=    29.40 Ry     beta= 0.05
     Davidson diagonalization with overlap
     ethr =  1.98E-11,  avg # of iterations =  5.2

     negative rho (up, down):  8.124E-03 8.125E-03

[...]

     Adding external electric field

     Computed dipole along edir(3) :
        Dipole                0.9125 Ry au,          2.3192 Debye
        Dipole field          0.0017 Ry au,

        Potential amp.       -0.1596 Ry
        Total length         46.3494 bohr

     Magnetic moment per site  (integrated on atomic sphere of radius R)
     atom   1 (R=0.727)  charge=  7.9485  magn=  0.0007
     atom   2 (R=0.727)  charge=  7.9315  magn=  0.0004
     atom   3 (R=0.727)  charge=  4.9369  magn= -0.0001
     atom   4 (R=0.727)  charge=  4.9738  magn= -0.0001
     atom   5 (R=0.727)  charge=  4.9424  magn= -0.0001
     atom   6 (R=0.727)  charge=  4.9431  magn= -0.0001
     atom   7 (R=0.727)  charge=  7.9299  magn=  0.0002
     atom   8 (R=0.727)  charge=  7.9249  magn=  0.0004
     atom   9 (R=0.727)  charge=  4.9562  magn= -0.0000
     atom  10 (R=0.727)  charge=  4.9398  magn= -0.0000
     atom  11 (R=0.727)  charge=  4.9438  magn=  0.0000
     atom  12 (R=0.727)  charge=  4.9403  magn=  0.0000
     atom  13 (R=0.727)  charge=  7.9199  magn= -0.0000
     atom  14 (R=0.727)  charge=  7.9286  magn=  0.0000
     atom  15 (R=0.727)  charge=  4.9368  magn= -0.0000
     atom  16 (R=0.727)  charge=  4.9585  magn= -0.0000
     atom  17 (R=0.727)  charge=  4.9268  magn= -0.0000
     atom  18 (R=0.727)  charge=  4.9196  magn= -0.0000
     atom  19 (R=0.727)  charge=  7.9516  magn=  0.0000
     atom  20 (R=0.727)  charge=  7.9765  magn=  0.0000
     atom  21 (R=0.727)  charge=  4.8266  magn= -0.0005
     atom  22 (R=0.727)  charge=  4.9096  magn= -0.0000
     atom  23 (R=0.727)  charge=  4.9339  magn= -0.0001
     atom  24 (R=0.727)  charge=  4.9340  magn= -0.0002
     atom  25 (R=0.727)  charge=  7.9485  magn=  0.0007
     atom  26 (R=0.727)  charge=  7.9316  magn=  0.0003
     atom  27 (R=0.727)  charge=  4.9364  magn= -0.0000
     atom  28 (R=0.727)  charge=  4.9740  magn= -0.0001
     atom  29 (R=0.727)  charge=  4.9433  magn= -0.0001
     atom  30 (R=0.727)  charge=  4.9439  magn= -0.0001
     atom  31 (R=0.727)  charge=  7.9304  magn=  0.0002
     atom  32 (R=0.727)  charge=  7.9251  magn=  0.0003
     atom  33 (R=0.727)  charge=  4.9553  magn= -0.0000
     atom  34 (R=0.727)  charge=  4.9242  magn=  0.0000
     atom  35 (R=0.727)  charge=  4.9448  magn=  0.0000
     atom  36 (R=0.727)  charge=  4.9438  magn=  0.0000
     atom  37 (R=0.727)  charge=  7.9230  magn=  0.0000
     atom  38 (R=0.727)  charge=  7.9295  magn=  0.0000
     atom  39 (R=0.727)  charge=  4.9079  magn=  0.0000
     atom  40 (R=0.727)  charge=  4.9610  magn= -0.0000
     atom  41 (R=0.727)  charge=  4.9355  magn= -0.0000
     atom  42 (R=0.727)  charge=  4.9348  magn= -0.0000
     atom  43 (R=0.727)  charge=  7.9537  magn=  0.0000
     atom  44 (R=0.727)  charge=  7.9726  magn= -0.0000
     atom  45 (R=0.727)  charge=  4.8266  magn= -0.0006
     atom  46 (R=0.727)  charge=  4.9340  magn= -0.0002
     atom  47 (R=0.727)  charge=  4.9340  magn= -0.0001
     atom  48 (R=0.502)  charge=  2.0005  magn= -0.0000
     atom  49 (R=0.448)  charge=  0.8474  magn=  0.0000
     atom  50 (R=0.448)  charge=  0.4994  magn= -0.0000
     atom  51 (R=0.448)  charge=  0.5028  magn= -0.0000
     atom  52 (R=0.448)  charge=  0.5040  magn= -0.0000
     atom  53 (R=0.502)  charge=  1.9595  magn=  0.0000

     End of self-consistent calculation

 ------ SPIN UP ------------

          k = 0.0000 0.0000 0.0000 ( 18029 PWs)   bands (ev):

   -55.7764 -55.7697 -55.7423 -55.7337 -55.6831 -55.6349 -55.5966 -55.5626
   -55.5555 -55.5218 -55.5197 -55.4467 -54.9553 -54.8081 -54.7564 -54.7223
   -32.3184 -32.2600 -32.1743 -32.0959 -32.0684 -32.0561 -32.0472 -32.0214
   -32.0055 -31.9701 -31.9400 -31.9285 -31.9215 -31.9046 -31.8825 -31.8818
   -31.8786 -31.8781 -31.8649 -31.8347 -31.8334 -31.8213 -31.8003 -31.7918
   -31.7887 -31.7820 -31.7810 -31.7553 -31.7410 -31.7361 -31.7256 -31.7105
   -31.7067 -31.6691 -31.6362 -31.5639 -31.4921 -31.3373 -31.1665 -31.1630
   -31.1058 -31.0751 -31.0673 -31.0527 -30.9800 -30.9140 -30.8935 -30.7822
   -19.4156 -16.5170 -16.2521 -15.9667 -15.9151 -15.8407 -15.7474 -15.6243
   -15.5287 -15.4101 -15.3714 -15.3149 -15.3077 -15.2634 -15.2364 -15.2324
   -15.2059 -15.1978 -15.1337 -15.1262 -15.0757 -15.0640 -15.0163 -14.9813
   -14.9697 -14.9143 -14.8456 -14.8038 -14.6854 -14.1592 -13.2563 -13.1398
   -12.2821  -7.2610  -4.9250  -4.7693  -3.8993  -3.7569  -3.7041  -3.6848
    -3.6403  -3.4398  -3.3521  -3.2836  -3.0438  -2.9525  -2.9280  -2.9172
    -2.8682  -2.7110  -2.6644  -2.6037  -2.5884  -2.5620  -2.5399  -2.5319
    -2.4966  -2.4863  -2.4591  -2.4231  -2.3260  -2.2128  -2.1835  -2.1060
    -2.0903  -2.0747  -2.0443  -2.0343  -2.0247  -2.0148  -1.9963  -1.9591
    -1.8914  -1.8517  -1.7860  -1.7020  -1.5598  -1.5370  -1.4605  -1.3849
    -1.3051  -1.2625  -1.2407  -1.2122  -1.1725  -1.0924  -1.0667  -0.9206
    -0.8234  -0.7906  -0.7728  -0.7306  -0.6949  -0.5929  -0.5711  -0.5419
    -0.5327  -0.5051  -0.4317  -0.3744  -0.2431  -0.2123  -0.2083  -0.1703
    -0.1000  -0.0463   0.0074   0.0567   0.0642   0.1001   0.1603   0.1854
     0.1902   0.2329   0.2755   0.3494   0.3762   0.4504   0.4544   0.5190
     0.5623   0.6453   0.7517   0.8739   1.0174   1.1544   1.1992   1.2682
     1.3630   1.4598   1.8386   1.8841   2.1309   3.3373   3.4446   3.4685
     3.4803   3.5871   3.7956   3.8185   3.8672   3.8879   3.8959

[...]

          k =-0.0760-0.0000 0.0000 ( 17886 PWs)   bands (ev):

[...]

 ------ SPIN DOWN ----------

[...]

          k = 0.0380-0.0419 0.0000 ( 17876 PWs)   bands (ev):

[...]

          k =-0.0760-0.0839 0.0000 ( 17948 PWs)   bands (ev):

   -55.7581 -55.7579 -55.7523 -55.7507 -55.6761 -55.6420 -55.5788 -55.5784
   -55.5383 -55.5379 -55.5151 -55.4509 -54.9539 -54.8094 -54.7382 -54.7381
   -32.1219 -32.1184 -32.0744 -32.0743 -32.0525 -32.0523 -32.0194 -32.0045
   -31.9982 -31.9895 -31.9208 -31.9156 -31.9043 -31.8980 -31.8816 -31.8796
   -31.8787 -31.8770 -31.8767 -31.8721 -31.8537 -31.8510 -31.8496 -31.8135
   -31.7841 -31.7820 -31.7802 -31.7677 -31.7674 -31.7579 -31.7570 -31.7554
   -31.7541 -31.7363 -31.7118 -31.6608 -31.4389 -31.3201 -31.1684 -31.1584
   -31.0856 -31.0643 -31.0643 -30.9747 -30.9747 -30.9358 -30.9358 -30.9172
   -19.4134 -15.9175 -15.9113 -15.7499 -15.7154 -15.6497 -15.6409 -15.5730
   -15.5061 -15.4614 -15.4564 -15.3412 -15.3391 -15.3246 -15.3029 -15.2488
   -15.2325 -15.2312 -15.2276 -15.2199 -15.2078 -15.1804 -15.1499 -15.0994
   -15.0944 -15.0735 -15.0631 -14.9415 -14.5305 -14.4699 -13.2435 -13.2434
   -12.2845  -7.2478  -4.9267  -4.7667  -3.6284  -3.2067  -3.1903  -3.0023
    -2.9191  -2.9079  -2.8925  -2.7403  -2.7282  -2.7110  -2.6535  -2.6456
    -2.6368  -2.6002  -2.5840  -2.5601  -2.5191  -2.5141  -2.4663  -2.4636
    -2.4485  -2.4296  -2.4082  -2.4026  -2.3892  -2.3740  -2.3370  -2.2806
    -2.2421  -2.2153  -2.1870  -2.0904  -2.0297  -1.9939  -1.9269  -1.9183
    -1.8670  -1.8426  -1.8279  -1.7601  -1.6910  -1.6619  -1.5774  -1.4859
    -1.4677  -1.4523  -1.3334  -1.3195  -1.2448  -1.2211  -1.1371  -1.1201
    -1.0805  -0.9699  -0.9463  -0.9146  -0.8804  -0.8357  -0.7730  -0.7363
    -0.7343  -0.6858  -0.6410  -0.5852  -0.5240  -0.5121  -0.4968  -0.4878
    -0.4237  -0.3913  -0.3691  -0.2862  -0.2713  -0.1897  -0.0457  -0.0126
     0.1455   0.1945   0.3025   0.3299   0.4210   0.4427   0.5365   0.5398
     0.5731   0.7020   0.7207   0.7385   0.7542   0.7749   0.7984   0.9372
     1.6313   1.6314   1.7026   1.7028   2.0680   3.6710   3.7081   3.7584
     3.7802   3.8844   3.8895   3.8922   3.8998   4.0209   4.0251

     the Fermi energy is     3.3514 ev

!    total energy              =   -2939.12587971 Ry
     estimated scf accuracy    <       0.00000005 Ry
     smearing contrib. (-TS)   =      -0.02052487 Ry
     internal energy E=F+TS    =   -2939.10535484 Ry

     The total energy is F=E-TS. E is the sum of the following terms:
     one-electron contribution =  -24213.39714416 Ry
     hartree contribution      =   12195.44935339 Ry
     xc contribution           =    -485.19741285 Ry
     ewald contribution        =    9564.03827760 Ry
     electric field correction =       0.00157118 Ry

     total magnetization       =     0.00 Bohr mag/cell
     absolute magnetization    =     0.01 Bohr mag/cell

     convergence has been achieved in  61 iterations

     Forces acting on atoms (cartesian axes, Ry/au):

     atom    1 type  1   force =     0.00009592   -0.00020653    0.09581711
     atom    2 type  1   force =     0.00006958   -0.00062302   -0.17548590
     atom    3 type  2   force =     0.00017873   -0.00019646   -0.02305494
     atom    4 type  2   force =     0.00004113   -0.00128688    0.05260980
     atom    5 type  2   force =    -0.00977881   -0.00031559    0.00253370
     atom    6 type  2   force =     0.01165998    0.00022678    0.00291452
     atom    7 type  1   force =     0.00088997    0.00000393   -0.00990602
     atom    8 type  1   force =     0.00000670    0.00530249    0.01816367
     atom    9 type  2   force =    -0.00001491   -0.00028907   -0.00009736
     atom   10 type  2   force =    -0.00253994    0.00216172   -0.01349473
     atom   11 type  2   force =    -0.00097198    0.00011229    0.00017229
     atom   12 type  2   force =     0.00040117   -0.00025383    0.00048642
     atom   13 type  1   force =     0.00010133   -0.00007666    0.00053472
     atom   14 type  1   force =    -0.00004316   -0.00014261   -0.00015695
     atom   15 type  2   force =    -0.00057292    0.00028340    0.00036210
     atom   16 type  2   force =    -0.00043520    0.00007752    0.00018183
     atom   17 type  2   force =    -0.00021584   -0.00011593   -0.00035501
     atom   18 type  2   force =     0.00025536    0.00028396    0.00011782
     atom   19 type  1   force =    -0.00054157   -0.00058659    0.00074303
     atom   20 type  1   force =    -0.00030156    0.00015464   -0.00069921
     atom   21 type  2   force =     0.00006838   -0.00006027    0.10320633
     atom   22 type  2   force =    -0.00001769    0.00038448   -0.00071047
     atom   23 type  2   force =    -0.07155375   -0.00019162   -0.02754682
     atom   24 type  2   force =     0.07153231    0.00031026   -0.02760999
     atom   25 type  1   force =     0.00011954   -0.00028645    0.09521893
     atom   26 type  1   force =     0.00008016   -0.00048560   -0.17564940
     atom   27 type  2   force =     0.00016062   -0.00012096   -0.02180380
     atom   28 type  2   force =     0.00008117   -0.00106038    0.05248860
     atom   29 type  2   force =    -0.01015810    0.00023391    0.00291140
     atom   30 type  2   force =     0.01197665    0.00052034    0.00328828
     atom   31 type  1   force =     0.00088238    0.00413914   -0.01177069
     atom   32 type  1   force =     0.00014168   -0.00633293    0.01829987
     atom   33 type  2   force =     0.00016443    0.00041494   -0.00009657
     atom   34 type  2   force =    -0.00308603   -0.00010264   -0.00867278
     atom   35 type  2   force =    -0.00021318    0.00006692    0.00000910
     atom   36 type  2   force =    -0.00002582    0.00027695   -0.00006627
     atom   37 type  1   force =     0.00044383   -0.00094742    0.00020658
     atom   38 type  1   force =    -0.00031544    0.00009790    0.00035236
     atom   39 type  2   force =     0.00013483   -0.00024218    0.00059024
     atom   40 type  2   force =    -0.00008290    0.00026797    0.00014850
     atom   41 type  2   force =    -0.00009116   -0.00011171   -0.00026688
     atom   42 type  2   force =    -0.00045671    0.00002806   -0.00047261
     atom   43 type  1   force =     0.00031726    0.00052768    0.00017126
     atom   44 type  1   force =    -0.00085902    0.00052076   -0.00156015
     atom   45 type  2   force =     0.00007698   -0.00005838    0.10316069
     atom   46 type  2   force =    -0.07156626   -0.00009163   -0.02753984
     atom   47 type  2   force =     0.07154801    0.00025764   -0.02760460
     atom   48 type  3   force =    -0.00225574   -0.00677168    0.00440445
     atom   49 type  4   force =     0.00018300    0.00322308   -0.00171754
     atom   50 type  5   force =     0.00092303   -0.00015117    0.00058227
     atom   51 type  5   force =    -0.00144900   -0.00002225   -0.00104339
     atom   52 type  5   force =     0.00011053   -0.00068880   -0.00098227
     atom   53 type  3   force =     0.00490202    0.00194244   -0.00131172

     Total force =     0.364901     Total SCF correction =     0.000660
  @ DRIVER MODE: Message from server: STATUS
  @ DRIVER MODE: Message from server: GETFORCE
  @ DRIVER MODE: Returning v,forces,stress,ensemble

     Writing output data file ./calc.save/
  @ DRIVER MODE: Message from server: EXIT
  @ DRIVE MODE: Exiting

     General routines

     Parallel routines

   This run was terminated on:  19: 4:43  15Jul2021

   JOB DONE.