     Program PWSCF v.6.7GPU starts on 24Sep2021 at  6:17:48

     R & G space division:  proc/nbgrp/npool/nimage =       8
     Reading input from /storage/home/hcoda1/3/ntian30/research/carbon/CxH_vib/H2O_calc/ads_slab/CH3NHNH2HO_a/out_0039/pw.inp
Warning: card &CELL ignored
Warning: card   CELL_DYNAMICS='IPI', ignored
Warning: card / ignored

     Current dimensions of program PWSCF are:
     Max number of different atomic species (ntypx) = 10
     Max number of k-points (npk) =  40000
     Max angular momentum in pseudopotentials (lmaxx) =  3
     Presently no symmetry can be used with electric field

     Message from routine cell_base_init:
     DEPRECATED: use true lattice parameter, not A to a.u. conversion factor

     IMPORTANT: XC functional enforced from input :
     Exchange-correlation= BEEF-VDW
                           (   1   4  43  14   2   0   0)
     Any further DFT definition will be discarded
     Please, verify this is what you really want

  @ DRIVER MODE: Connecting to
 qe_1139763_2947307.sched-torque.pace.gatech.edury44uvfe_scratch
  using UNIX socket
  @ DRIVER MODE: Message from server: STATUS
  @ DRIVER MODE: Message from server: INIT
  @ DRIVER MODE: Receiving replica           0          -1
  @ DRIVER MODE: Receiving encoded integer          25
  @ DRIVER MODE:  SCF:  T  FORCE:  T  STRESS:  F  VC:  F  ENSEMBLE:  F
  @ DRIVER MODE:  SCF:  T  FORCE:  T  STRESS:  F  VC:  F  ENSEMBLE:  F

     Using Slab Decomposition

     bravais-lattice index     =            0
     lattice parameter (alat)  =       1.8897  a.u.
     unit-cell volume          =    6658.9804 (a.u.)^3
     number of atoms/cell      =           58
     number of atomic types    =            5
     number of electrons       =       405.00
     number of Kohn-Sham states=          212
     kinetic-energy cutoff     =      29.3995  Ry
     charge density cutoff     =     293.9946  Ry
     scf convergence threshold =      7.3E-08
     mixing beta               =       0.0500
     number of iterations used =            8  plain     mixing
     Exchange-correlation= BEEF-VDW
                           (   1   4  43  14   2   0   0)

     celldm(1)=   1.889726  celldm(2)=   0.000000  celldm(3)=   0.000000
     celldm(4)=   0.000000  celldm(5)=   0.000000  celldm(6)=   0.000000

     crystal axes: (cart. coord. in units of alat)
               a(1) = (   6.579727   0.000000   0.000000 )
               a(2) = (  -0.000775   5.961596   0.000000 )
               a(3) = (   0.000000   0.000000  25.155947 )

     reciprocal axes: (cart. coord. in units 2 pi/alat)
               b(1) = (  0.151982  0.000020  0.000000 )
               b(2) = (  0.000000  0.167740  0.000000 )
               b(3) = (  0.000000  0.000000  0.039752 )

     PseudoPot. # 1 for Ti read from file:
     /storage/coda1/p-amedford6/0/shared/rich_project_chbe-medford/medford-share/data/pseudos_module/espresso/nninc/pbe/van/Ti.UPF
     MD5 check sum: 8e4df49b7f0d34bbd5052bf3f5ea0213
     Pseudo is Ultrasoft, Zval = 12.0
     Generated by new atomic code, or converted to UPF format
     Using radial grid of  851 points,  6 beta functions with:
                l(1) =   0
                l(2) =   0
                l(3) =   1
                l(4) =   1
                l(5) =   2
                l(6) =   2
     Q(r) pseudized with  8 coefficients,  rinner =    1.000   1.000   1.000
                                                       1.000   1.000

     PseudoPot. # 2 for O  read from file:
     /storage/coda1/p-amedford6/0/shared/rich_project_chbe-medford/medford-share/data/pseudos_module/espresso/nninc/pbe/van/O.UPF
     MD5 check sum: 78c19812648e8988a0fe644b0f25305e
     Pseudo is Ultrasoft, Zval =  6.0
     Generated by new atomic code, or converted to UPF format
     Using radial grid of  737 points,  4 beta functions with:
                l(1) =   0
                l(2) =   0
                l(3) =   1
                l(4) =   1
     Q(r) pseudized with  8 coefficients,  rinner =    0.800   0.800   0.800

     PseudoPot. # 3 for N  read from file:
     /storage/coda1/p-amedford6/0/shared/rich_project_chbe-medford/medford-share/data/pseudos_module/espresso/nninc/pbe/van/N.UPF
     MD5 check sum: 90d10febe142ad51ac9d5be1deb811c4
     Pseudo is Ultrasoft, Zval =  5.0
     Generated by new atomic code, or converted to UPF format
     Using radial grid of  729 points,  4 beta functions with:
                l(1) =   0
                l(2) =   0
                l(3) =   1
                l(4) =   1
     Q(r) pseudized with  8 coefficients,  rinner =    0.800   0.800   0.800

     PseudoPot. # 4 for C  read from file:
     /storage/coda1/p-amedford6/0/shared/rich_project_chbe-medford/medford-share/data/pseudos_module/espresso/nninc/pbe/van/C.UPF
     MD5 check sum: 1a69bf6b8db32088f5b2163dbdb77a27
     Pseudo is Ultrasoft, Zval =  4.0
     Generated by new atomic code, or converted to UPF format
     Using radial grid of  721 points,  4 beta functions with:
                l(1) =   0
                l(2) =   0
                l(3) =   1
                l(4) =   1
     Q(r) pseudized with  8 coefficients,  rinner =    0.800   0.800   0.800

     PseudoPot. # 5 for H  read from file:
     /storage/coda1/p-amedford6/0/shared/rich_project_chbe-medford/medford-share/data/pseudos_module/espresso/nninc/pbe/van/H.UPF
     MD5 check sum: b5ee9d7bfd3a09ee7748110bda690ff7
     Pseudo is Ultrasoft, Zval =  1.0
     Generated by new atomic code, or converted to UPF format
     Using radial grid of  615 points,  1 beta functions with:
                l(1) =   0
     Q(r) pseudized with  8 coefficients,  rinner =    0.800

     atomic species   valence    mass     pseudopotential
        Ti1           12.00    47.86700     Ti( 1.00)
        O1             6.00    15.99900     O ( 1.00)
        N1             5.00    14.00700     N ( 1.00)
        C1             4.00    12.01100     C ( 1.00)
        H1             1.00     1.00800     H ( 1.00)

     No symmetry found

   Cartesian axes

     site n.     atom                  positions (alat units)
         1           Ti1 tau(   1) = (   0.0004258   2.9801865   6.0000000  )
         2           Ti1 tau(   2) = (   3.2906075   1.4906267   6.0002472  )
         3           O1  tau(   3) = (   0.0006271   0.0005054   7.9858123  )
         4           O1  tau(   4) = (   3.2906025   0.0005020   7.3038282  )
         5           O1  tau(   5) = (   4.5942328   1.4918067   9.2879030  )
         6           O1  tau(   6) = (   1.9868534   1.4903216   9.2879459  )
         7           Ti1 tau(   7) = (   3.2907910   2.8959150   9.1758416  )
         8           Ti1 tau(   8) = (   0.0015273   1.4827037   9.2680791  )
         9           O1  tau(   9) = (   3.3003128   0.0493987  11.3625472  )
        10           O1  tau(  10) = (   0.0116148   5.9584955  10.6183126  )
        11           O1  tau(  11) = (   1.2863924   1.5188706  12.6959087  )
        12           O1  tau(  12) = (   5.3173592   1.5183023  12.6957539  )
        13           Ti1 tau(  13) = (   0.0130489   2.9571150  12.5182267  )
        14           Ti1 tau(  14) = (   3.3124343   1.5987737  12.4587140  )
        15           O1  tau(  15) = (   0.0455642   5.8537743  14.6515032  )
        16           O1  tau(  16) = (   3.3135256   5.8999501  14.0036581  )
        17           O1  tau(  17) = (   4.5824137   1.5787328  16.0473457  )
        18           O1  tau(  18) = (   2.0456054   1.5356268  16.0652349  )
        19           Ti1 tau(  19) = (   3.2855744   2.9948502  15.7047272  )
        20           Ti1 tau(  20) = (   0.0729980   1.3194477  15.7501807  )
        21           O1  tau(  21) = (   3.2904802   0.0005063   4.7018136  )
        22           O1  tau(  22) = (   6.5643345   0.1786488  17.1561759  )
        23           O1  tau(  23) = (   1.3043587   1.4918075   6.0039043  )
        24           O1  tau(  24) = (   5.2767064   1.4903225   6.0039473  )
        25           Ti1 tau(  25) = (   0.0000382   5.9609847   6.0000000  )
        26           Ti1 tau(  26) = (   3.2902200   4.4714249   6.0002472  )
        27           O1  tau(  27) = (   0.0002396   2.9813036   7.9858123  )
        28           O1  tau(  28) = (   3.2902150   2.9813002   7.3038282  )
        29           O1  tau(  29) = (   4.5938453   4.4726049   9.2879030  )
        30           O1  tau(  30) = (   1.9864658   4.4711199   9.2879459  )
        31           Ti1 tau(  31) = (   3.2891106   5.8743827   9.1763621  )
        32           Ti1 tau(  32) = (   0.0006254   4.4649316   9.2693709  )
        33           O1  tau(  33) = (   3.3044115   2.9646987  11.3227374  )
        34           O1  tau(  34) = (   0.0092240   2.9805883  10.6323155  )
        35           O1  tau(  35) = (   1.2889249   4.4812606  12.6373974  )
        36           O1  tau(  36) = (   5.3198440   4.4849614  12.6453916  )
        37           Ti1 tau(  37) = (   0.0274371   5.9167426  12.5032498  )
        38           Ti1 tau(  38) = (   3.3124303   4.6827448  12.7121475  )
        39           O1  tau(  39) = (   0.0064664   3.0605765  14.9143048  )
        40           O1  tau(  40) = (   3.2921723   3.0190953  13.9337278  )
        41           O1  tau(  41) = (   4.5343043   4.4484976  16.2223827  )
        42           O1  tau(  42) = (   2.0055671   4.4324605  16.2273083  )
        43           Ti1 tau(  43) = (   3.3963104   0.0511244  16.3072024  )
        44           Ti1 tau(  44) = (   0.1011521   4.5293608  16.0606835  )
        45           O1  tau(  45) = (   3.2900926   2.9813045   4.7018136  )
        46           O1  tau(  46) = (   1.3039711   4.4726057   6.0039043  )
        47           O1  tau(  47) = (   5.2763189   4.4711207   6.0039473  )
        48           N1  tau(  48) = (   0.7799224   3.1460235  19.0808133  )
        49           N1  tau(  49) = (   6.3029119   3.3142126  18.0946246  )
        50           C1  tau(  50) = (   0.9829876   4.3811599  19.8296872  )
        51           H1  tau(  51) = (   0.0599524   4.7630682  20.2995108  )
        52           H1  tau(  52) = (   1.7087173   4.1728717  20.6153690  )
        53           H1  tau(  53) = (   1.3778604   5.1510331  19.1745456  )
        54           H1  tau(  54) = (   0.4845774   2.3957476  19.7140978  )
        55           H1  tau(  55) = (   5.5451363   3.8924421  18.4761980  )
        56           H1  tau(  56) = (   5.8791802   2.3931312  17.9634808  )
        57           O1  tau(  57) = (   3.3895457   0.1916509  18.1699706  )
        58           H1  tau(  58) = (   3.8128180   5.4341384  18.6581559  )

     number of k points=    10  Fermi-Dirac smearing, width (Ry)=  0.0073
                       cart. coord. in units 2pi/alat
        k(    1) = (   0.0000000   0.0000000   0.0000000), wk =   0.1250000
        k(    2) = (   0.0000000   0.0419351   0.0000000), wk =   0.2500000
        k(    3) = (   0.0000000  -0.0838702   0.0000000), wk =   0.1250000
        k(    4) = (   0.0379955   0.0000049   0.0000000), wk =   0.2500000
        k(    5) = (   0.0379955   0.0419400   0.0000000), wk =   0.2500000
        k(    6) = (   0.0379955  -0.0838652   0.0000000), wk =   0.2500000
        k(    7) = (   0.0379955  -0.0419301   0.0000000), wk =   0.2500000
        k(    8) = (  -0.0759910  -0.0000099   0.0000000), wk =   0.1250000
        k(    9) = (  -0.0759910   0.0419252   0.0000000), wk =   0.2500000
        k(   10) = (  -0.0759910  -0.0838800   0.0000000), wk =   0.1250000

     Initial potential from superposition of free atoms

     starting charge  388.99913, renormalised to  405.00000

     negative rho (up, down):  1.368E-02 0.000E+00

     %%%%%%%%%%%%%%%%%%%%%%%%%%%%%%%%%%%%%%%%%%%%%%%%%%%%%%%%%%%%%%%%%%%%%%%%
     %                                                                      %
     % You are using vdW-DF, which was implemented by the Thonhauser group. %
     % Please cite the following two papers that made this development      %
     % possible and the two reviews that describe the various versions:     %
     %                                                                      %
     %   T. Thonhauser et al., PRL 115, 136402 (2015).                      %
     %   T. Thonhauser et al., PRB 76, 125112 (2007).                       %
     %   K. Berland et al., Rep. Prog. Phys. 78, 066501 (2015).             %
     %   D.C. Langreth et al., J. Phys.: Condens. Matter 21, 084203 (2009). %
     %                                                                      %
     %                                                                      %
     % If you are calculating the stress with vdW-DF, please also cite:     %
     %                                                                      %
     %   R. Sabatini et al., J. Phys.: Condens. Matter 24, 424209 (2012).   %
     %                                                                      %
     %%%%%%%%%%%%%%%%%%%%%%%%%%%%%%%%%%%%%%%%%%%%%%%%%%%%%%%%%%%%%%%%%%%%%%%%

     Adding external electric field

     Computed dipole along edir(3) :
        Dipole              -14.8124 Ry au,        -37.6493 Debye
        Dipole field         -0.0280 Ry au,

        Potential amp.        2.5912 Ry
        Total length         46.3494 bohr

     Starting wfcs are  307 atomic wfcs
  @ DRIVER MODE: Message from server: STATUS
  @ DRIVER MODE: Message from server: POSDATA
  @ DRIVER MODE: Reading and sharing cell
  @ DRIVER MODE: Reading and sharing positions
  @ DRIVER MODE: Received positions

     Self-consistent Calculation

     iteration #  1     ecut=    29.40 Ry     beta= 0.05
     Davidson diagonalization with overlap
     c_bands:  4 eigenvalues not converged
     c_bands:  4 eigenvalues not converged
     c_bands:  5 eigenvalues not converged
     c_bands:  2 eigenvalues not converged
     c_bands:  3 eigenvalues not converged
     c_bands:  4 eigenvalues not converged
     c_bands:  2 eigenvalues not converged
     ethr =  1.00E-05,  avg # of iterations = 22.9

[...]

     total energy              =   -2203.00707118 Ry
     estimated scf accuracy    <    8803.85941302 Ry

     iteration #  2     ecut=    29.40 Ry     beta= 0.05
     Davidson diagonalization with overlap
     ethr =  1.00E-02,  avg # of iterations = 32.4

[...]

     iteration # 42     ecut=    29.40 Ry     beta= 0.05
     Davidson diagonalization with overlap
     c_bands:  1 eigenvalues not converged
     ethr =  7.22E-07,  avg # of iterations = 12.4

[...]

     total energy              =   -2976.46394162 Ry
     estimated scf accuracy    <       0.00000009 Ry

     iteration # 61     ecut=    29.40 Ry     beta= 0.05
     Davidson diagonalization with overlap
     ethr =  2.25E-11,  avg # of iterations =  5.1

     negative rho (up, down):  1.440E-02 0.000E+00

     Adding external electric field

     Computed dipole along edir(3) :
        Dipole                1.2252 Ry au,          3.1141 Debye
        Dipole field          0.0023 Ry au,

        Potential amp.       -0.2143 Ry
        Total length         46.3494 bohr

     End of self-consistent calculation

          k = 0.0000 0.0000 0.0000 ( 18029 PWs)   bands (ev):

   -55.4450 -55.3569 -55.3229 -55.2183 -55.2153 -55.1876 -55.1855 -55.1778
   -55.1535 -55.1306 -55.0875 -54.9855 -54.9376 -54.8939 -54.3318 -54.2977
   -31.8421 -31.7914 -31.7221 -31.7045 -31.6904 -31.6756 -31.6549 -31.6478
   -31.6167 -31.6031 -31.5971 -31.5095 -31.4945 -31.4873 -31.4675 -31.4640
   -31.4601 -31.4509 -31.4504 -31.4206 -31.4144 -31.3927 -31.3857 -31.3757
   -31.3710 -31.3550 -31.3539 -31.3220 -31.3218 -31.3150 -31.3143 -31.3086
   -31.3002 -31.2822 -31.2583 -31.2399 -31.1746 -31.1533 -31.1413 -31.1332
   -31.1122 -31.1031 -30.7378 -30.6514 -30.6289 -30.5553 -30.4689 -30.3571
   -17.7311 -16.3677 -16.0112 -15.8473 -15.6325 -15.5399 -15.5128 -15.3140
   -15.2190 -15.1608 -14.9595 -14.9323 -14.8946 -14.8819 -14.8730 -14.8520
   -14.8483 -14.7969 -14.7812 -14.7714 -14.7679 -14.7376 -14.7106 -14.6712
   -14.6116 -14.5978 -14.4953 -14.4399 -14.4000 -14.1586 -14.1388 -13.1628
   -12.8307 -12.7143  -9.4290  -6.4363  -5.7289  -4.2699  -3.9345  -3.3692
    -3.2677  -3.2561  -3.1997  -3.1322  -2.9816  -2.8844  -2.7827  -2.7433
    -2.6110  -2.5973  -2.4925  -2.4437  -2.3707  -2.3245  -2.2833  -2.2487
    -2.2208  -2.1648  -2.1425  -2.1167  -2.1054  -2.0326  -2.0143  -1.9246
    -1.8916  -1.8782  -1.7606  -1.7259  -1.6912  -1.6780  -1.6689  -1.6624
    -1.6189  -1.6086  -1.5980  -1.5558  -1.4554  -1.4475  -1.4299  -1.3393
    -1.2419  -0.9918  -0.9606  -0.9101  -0.8986  -0.8203  -0.7817  -0.7501
    -0.7174  -0.6476  -0.6366  -0.6104  -0.5492  -0.4736  -0.4194  -0.3717
    -0.3376  -0.2256  -0.1756  -0.1317  -0.0989  -0.0622   0.0008   0.0402
     0.0644   0.1076   0.1952   0.2585   0.2859   0.3028   0.3530   0.3948
     0.4328   0.4732   0.5450   0.5675   0.5777   0.6170   0.6256   0.6465
     0.7419   0.7603   0.8199   0.8471   0.9351   0.9660   1.0102   1.1799
     1.2493   1.3076   1.3872   1.4858   1.6399   1.6944   1.7194   1.8883
     2.2616   2.3071   3.7268   3.8744   3.8906   3.9682   3.9852   4.0494
     4.2158   4.2749   4.4126   4.4236

[...]

          k = 0.0380-0.0419 0.0000 ( 17876 PWs)   bands (ev):

[...]

          k =-0.0760-0.0000 0.0000 ( 17886 PWs)   bands (ev):

[...]

          k =-0.0760-0.0839 0.0000 ( 17948 PWs)   bands (ev):

   -55.4442 -55.3399 -55.3397 -55.2170 -55.2037 -55.1893 -55.1862 -55.1718
   -55.1689 -55.1225 -55.0956 -54.9825 -54.9387 -54.8969 -54.3147 -54.3147
   -31.7301 -31.6697 -31.6574 -31.6573 -31.6563 -31.6422 -31.6334 -31.6331
   -31.5760 -31.5310 -31.5096 -31.4988 -31.4934 -31.4882 -31.4655 -31.4598
   -31.4592 -31.4563 -31.4498 -31.4373 -31.4306 -31.4278 -31.4161 -31.3901
   -31.3855 -31.3836 -31.3761 -31.3683 -31.3499 -31.3444 -31.3411 -31.3408
   -31.3381 -31.3177 -31.3162 -31.2516 -31.2346 -31.2073 -31.1788 -31.1556
   -31.1491 -31.1079 -30.6417 -30.6416 -30.5508 -30.5505 -30.5122 -30.5120
   -17.7269 -16.3577 -15.5919 -15.4468 -15.3385 -15.3281 -15.2042 -15.1370
   -15.1272 -15.0936 -15.0708 -15.0489 -15.0304 -15.0152 -14.9605 -14.9207
   -14.8893 -14.8619 -14.8573 -14.8144 -14.8046 -14.7933 -14.7755 -14.7640
   -14.7086 -14.6725 -14.6629 -14.6044 -14.4651 -14.4452 -14.2888 -13.1641
   -12.8163 -12.8160  -9.4482  -6.4204  -5.7358  -4.2554  -3.9232  -2.9671
    -2.8013  -2.6583  -2.6053  -2.5629  -2.4494  -2.4252  -2.3672  -2.3167
    -2.2926  -2.2710  -2.2190  -2.2089  -2.1630  -2.1469  -2.1228  -2.1078
    -2.0915  -2.0850  -2.0571  -2.0413  -2.0310  -2.0179  -1.9909  -1.9798
    -1.9615  -1.9328  -1.9126  -1.9035  -1.8702  -1.8278  -1.7666  -1.6560
    -1.5819  -1.5710  -1.5273  -1.5025  -1.4862  -1.4451  -1.4325  -1.3915
    -1.3741  -1.3079  -1.1501  -1.1251  -1.1104  -0.9679  -0.9607  -0.9318
    -0.8577  -0.8160  -0.7942  -0.7362  -0.7065  -0.6663  -0.5893  -0.5459
    -0.4918  -0.4256  -0.3257  -0.3181  -0.3020  -0.2820  -0.2659  -0.2579
    -0.2248  -0.1876  -0.1146  -0.0680  -0.0594  -0.0533  -0.0022   0.0776
     0.1286   0.2429   0.3891   0.3936   0.4605   0.4614   0.6610   0.6699
     0.7465   0.7820   0.8164   0.8436   0.9374   0.9554   0.9930   1.0756
     1.1394   1.1690   1.1898   1.1946   1.2477   1.4694   2.0567   2.0645
     2.1273   2.1274   3.9679   4.2009   4.2412   4.2544   4.2727   4.2992
     4.3128   4.3271   4.3940   4.4184

     the Fermi energy is     3.7641 ev

!    total energy              =   -2976.46399107 Ry
     estimated scf accuracy    <       0.00000006 Ry
     smearing contrib. (-TS)   =      -0.01955746 Ry
     internal energy E=F+TS    =   -2976.44443361 Ry

     The total energy is F=E-TS. E is the sum of the following terms:
     one-electron contribution =  -23037.17193154 Ry
     hartree contribution      =   11616.30228470 Ry
     xc contribution           =    -495.71930021 Ry
     ewald contribution        =    8940.14168067 Ry
     electric field correction =       0.00283278 Ry

     convergence has been achieved in  61 iterations

     Forces acting on atoms (cartesian axes, Ry/au):

     atom    1 type  1   force =     0.00016399   -0.00022444    0.09417548
     atom    2 type  1   force =    -0.00009815    0.00018424   -0.17534802
     atom    3 type  2   force =     0.00005416   -0.00049605   -0.02103495
     atom    4 type  2   force =    -0.00002485   -0.00093629    0.05425312
     atom    5 type  2   force =    -0.00487185   -0.00215814    0.00106726
     atom    6 type  2   force =     0.00669564   -0.00138448    0.00108308
     atom    7 type  1   force =     0.00005665    0.00331630    0.00865475
     atom    8 type  1   force =    -0.00010094    0.00119893    0.00271166
     atom    9 type  2   force =    -0.00021984   -0.00030634   -0.00056353
     atom   10 type  2   force =    -0.00112043    0.00429207   -0.01024656
     atom   11 type  2   force =    -0.00008162   -0.00054763   -0.00010893
     atom   12 type  2   force =     0.00062304   -0.00031137   -0.00027210
     atom   13 type  1   force =    -0.00143997    0.00019863   -0.00058004
     atom   14 type  1   force =     0.00071300    0.00017492   -0.00046671
     atom   15 type  2   force =     0.00013036    0.00000891    0.00004487
     atom   16 type  2   force =    -0.00009462   -0.00069918   -0.00031563
     atom   17 type  2   force =    -0.00043224    0.00069431    0.00007156
     atom   18 type  2   force =    -0.00076373    0.00031661   -0.00022024
     atom   19 type  1   force =     0.00041462   -0.00091941    0.00060589
     atom   20 type  1   force =    -0.00068718   -0.00005708    0.00049615
     atom   21 type  2   force =     0.00003771   -0.00000907    0.10318899
     atom   22 type  2   force =    -0.00010833    0.00004788    0.00048963
     atom   23 type  2   force =    -0.07200426   -0.00020114   -0.02726006
     atom   24 type  2   force =     0.07188123    0.00025655   -0.02733053
     atom   25 type  1   force =     0.00007254   -0.00016877    0.09390647
     atom   26 type  1   force =    -0.00012059   -0.00137100   -0.17548880
     atom   27 type  2   force =     0.00011127   -0.00005257   -0.01984699
     atom   28 type  2   force =     0.00006486   -0.00105040    0.04979975
     atom   29 type  2   force =    -0.00745265    0.00209746    0.00339134
     atom   30 type  2   force =     0.00905701    0.00223818    0.00331018
     atom   31 type  1   force =     0.00019521    0.00151887    0.00005053
     atom   32 type  1   force =    -0.00008798   -0.00227303    0.00301904
     atom   33 type  2   force =    -0.00017647   -0.00031712   -0.00000721
     atom   34 type  2   force =    -0.00117079   -0.00218262   -0.00963556
     atom   35 type  2   force =     0.00063492    0.00005483   -0.00022365
     atom   36 type  2   force =     0.00037920    0.00011537   -0.00035081
     atom   37 type  1   force =    -0.00096915    0.00025818    0.00034522
     atom   38 type  1   force =     0.00096965   -0.00024685    0.00020089
     atom   39 type  2   force =    -0.00016885   -0.00052931    0.00010808
     atom   40 type  2   force =    -0.00020010   -0.00019007   -0.00016798
     atom   41 type  2   force =     0.00025173   -0.00031779   -0.00010613
     atom   42 type  2   force =    -0.00065547    0.00005886   -0.00012192
     atom   43 type  1   force =     0.00023470    0.00092803    0.00044874
     atom   44 type  1   force =    -0.00039700    0.00078576    0.00007273
     atom   45 type  2   force =     0.00002647    0.00003472    0.10300977
     atom   46 type  2   force =    -0.07195416   -0.00007972   -0.02721326
     atom   47 type  2   force =     0.07184518    0.00035445   -0.02729668
     atom   48 type  3   force =    -0.00277844   -0.00922705    0.00459209
     atom   49 type  3   force =    -0.00031677   -0.00016545   -0.00042441
     atom   50 type  4   force =    -0.00043634   -0.00112273    0.00091243
     atom   51 type  5   force =    -0.00102005   -0.00013261    0.00052996
     atom   52 type  5   force =     0.00056543   -0.00003858    0.00037480
     atom   53 type  5   force =    -0.00022745    0.00050421   -0.00068023
     atom   54 type  5   force =     0.00396111    0.00888931   -0.00593261
     atom   55 type  5   force =     0.00049541   -0.00061949    0.00007981
     atom   56 type  5   force =     0.00061862    0.00005516   -0.00011828
     atom   57 type  2   force =     0.00072228   -0.00118352    0.00013297
     atom   58 type  5   force =    -0.00079574    0.00093656    0.00023458

     Total force =     0.362313     Total SCF correction =     0.000594
  @ DRIVER MODE: Message from server: STATUS
  @ DRIVER MODE: Message from server: GETFORCE
  @ DRIVER MODE: Returning v,forces,stress,ensemble

     Writing output data file ./calc.save/
  @ DRIVER MODE: Message from server: EXIT
  @ DRIVE MODE: Exiting

     General routines

     Parallel routines

   This run was terminated on:   6:48:38  24Sep2021

   JOB DONE.