     Program PWSCF v.6.7GPU starts on 16Sep2021 at  6:27:30

     R & G space division:  proc/nbgrp/npool/nimage =      10
     Reading input from /storage/home/hcoda1/3/ntian30/research/carbon/CxH_vib/H2O_calc/ads_slab/CH2N2H2O_b/out_0045/pw.inp
Warning: card &CELL ignored
Warning: card   CELL_DYNAMICS='IPI', ignored
Warning: card / ignored

     Current dimensions of program PWSCF are:
     Max number of different atomic species (ntypx) = 10
     Max number of k-points (npk) =  40000
     Max angular momentum in pseudopotentials (lmaxx) =  3
     Presently no symmetry can be used with electric field

     Message from routine cell_base_init:
     DEPRECATED: use true lattice parameter, not A to a.u. conversion factor

     IMPORTANT: XC functional enforced from input :
     Exchange-correlation= BEEF-VDW
                           (   1   4  43  14   2   0   0)
     Any further DFT definition will be discarded
     Please, verify this is what you really want

  @ DRIVER MODE: Connecting to
 qe_1139763_2852605.sched-torque.pace.gatech.edu2bnv_j4a_scratch
  using UNIX socket
  @ DRIVER MODE: Message from server: STATUS
  @ DRIVER MODE: Message from server: INIT
  @ DRIVER MODE: Receiving replica           0          -1
  @ DRIVER MODE: Receiving encoded integer          25
  @ DRIVER MODE:  SCF:  T  FORCE:  T  STRESS:  F  VC:  F  ENSEMBLE:  F
  @ DRIVER MODE:  SCF:  T  FORCE:  T  STRESS:  F  VC:  F  ENSEMBLE:  F

     Using Slab Decomposition

     bravais-lattice index     =            0
     lattice parameter (alat)  =       1.8897  a.u.
     unit-cell volume          =    6658.9804 (a.u.)^3
     number of atoms/cell      =           55
     number of atomic types    =            5
     number of electrons       =       402.00
     number of Kohn-Sham states=          211
     kinetic-energy cutoff     =      29.3995  Ry
     charge density cutoff     =     293.9946  Ry
     scf convergence threshold =      7.3E-08
     mixing beta               =       0.0500
     number of iterations used =            8  plain     mixing
     Exchange-correlation= BEEF-VDW
                           (   1   4  43  14   2   0   0)

     celldm(1)=   1.889726  celldm(2)=   0.000000  celldm(3)=   0.000000
     celldm(4)=   0.000000  celldm(5)=   0.000000  celldm(6)=   0.000000

     crystal axes: (cart. coord. in units of alat)
               a(1) = (   6.579727   0.000000   0.000000 )
               a(2) = (  -0.000775   5.961596   0.000000 )
               a(3) = (   0.000000   0.000000  25.155947 )

     reciprocal axes: (cart. coord. in units 2 pi/alat)
               b(1) = (  0.151982  0.000020  0.000000 )
               b(2) = (  0.000000  0.167740  0.000000 )
               b(3) = (  0.000000  0.000000  0.039752 )

     PseudoPot. # 1 for Ti read from file:
     /storage/coda1/p-amedford6/0/shared/rich_project_chbe-medford/medford-share/data/pseudos_module/espresso/nninc/pbe/van/Ti.UPF
     MD5 check sum: 8e4df49b7f0d34bbd5052bf3f5ea0213
     Pseudo is Ultrasoft, Zval = 12.0
     Generated by new atomic code, or converted to UPF format
     Using radial grid of  851 points,  6 beta functions with:
                l(1) =   0
                l(2) =   0
                l(3) =   1
                l(4) =   1
                l(5) =   2
                l(6) =   2
     Q(r) pseudized with  8 coefficients,  rinner =    1.000   1.000   1.000
                                                       1.000   1.000

     PseudoPot. # 2 for O  read from file:
     /storage/coda1/p-amedford6/0/shared/rich_project_chbe-medford/medford-share/data/pseudos_module/espresso/nninc/pbe/van/O.UPF
     MD5 check sum: 78c19812648e8988a0fe644b0f25305e
     Pseudo is Ultrasoft, Zval =  6.0
     Generated by new atomic code, or converted to UPF format
     Using radial grid of  737 points,  4 beta functions with:
                l(1) =   0
                l(2) =   0
                l(3) =   1
                l(4) =   1
     Q(r) pseudized with  8 coefficients,  rinner =    0.800   0.800   0.800

     PseudoPot. # 3 for N  read from file:
     /storage/coda1/p-amedford6/0/shared/rich_project_chbe-medford/medford-share/data/pseudos_module/espresso/nninc/pbe/van/N.UPF
     MD5 check sum: 90d10febe142ad51ac9d5be1deb811c4
     Pseudo is Ultrasoft, Zval =  5.0
     Generated by new atomic code, or converted to UPF format
     Using radial grid of  729 points,  4 beta functions with:
                l(1) =   0
                l(2) =   0
                l(3) =   1
                l(4) =   1
     Q(r) pseudized with  8 coefficients,  rinner =    0.800   0.800   0.800

     PseudoPot. # 4 for C  read from file:
     /storage/coda1/p-amedford6/0/shared/rich_project_chbe-medford/medford-share/data/pseudos_module/espresso/nninc/pbe/van/C.UPF
     MD5 check sum: 1a69bf6b8db32088f5b2163dbdb77a27
     Pseudo is Ultrasoft, Zval =  4.0
     Generated by new atomic code, or converted to UPF format
     Using radial grid of  721 points,  4 beta functions with:
                l(1) =   0
                l(2) =   0
                l(3) =   1
                l(4) =   1
     Q(r) pseudized with  8 coefficients,  rinner =    0.800   0.800   0.800

     PseudoPot. # 5 for H  read from file:
     /storage/coda1/p-amedford6/0/shared/rich_project_chbe-medford/medford-share/data/pseudos_module/espresso/nninc/pbe/van/H.UPF
     MD5 check sum: b5ee9d7bfd3a09ee7748110bda690ff7
     Pseudo is Ultrasoft, Zval =  1.0
     Generated by new atomic code, or converted to UPF format
     Using radial grid of  615 points,  1 beta functions with:
                l(1) =   0
     Q(r) pseudized with  8 coefficients,  rinner =    0.800

     atomic species   valence    mass     pseudopotential
        Ti1           12.00    47.86700     Ti( 1.00)
        O1             6.00    15.99900     O ( 1.00)
        N1             5.00    14.00700     N ( 1.00)
        C1             4.00    12.01100     C ( 1.00)
        H1             1.00     1.00800     H ( 1.00)

     No symmetry found

   Cartesian axes

     site n.     atom                  positions (alat units)
         1           Ti1 tau(   1) = (   0.0004258   2.9801865   6.0000000  )
         2           Ti1 tau(   2) = (   3.2906075   1.4906267   6.0002472  )
         3           O1  tau(   3) = (   0.0006271   0.0005054   7.9858123  )
         4           O1  tau(   4) = (   3.2906025   0.0005020   7.3038282  )
         5           O1  tau(   5) = (   4.5942328   1.4918067   9.2879030  )
         6           O1  tau(   6) = (   1.9868534   1.4903216   9.2879459  )
         7           Ti1 tau(   7) = (   3.2907910   2.8959150   9.1758416  )
         8           Ti1 tau(   8) = (   0.0015273   1.4827037   9.2680791  )
         9           O1  tau(   9) = (   3.2934429   5.9466490  11.3040654  )
        10           O1  tau(  10) = (   0.0116148   5.9584955  10.6183126  )
        11           O1  tau(  11) = (   1.2867109   1.4782735  12.6190062  )
        12           O1  tau(  12) = (   5.2776945   1.4764076  12.5976694  )
        13           Ti1 tau(  13) = (   0.0846880   2.9559742  12.7004455  )
        14           Ti1 tau(  14) = (   3.4192946   1.4610250  12.4797112  )
        15           O1  tau(  15) = (   0.0040618   5.9510889  14.6015872  )
        16           O1  tau(  16) = (   3.2972055   5.9566395  13.8969661  )
        17           O1  tau(  17) = (   4.5327346   1.5242580  16.0225792  )
        18           O1  tau(  18) = (   2.0474321   1.5095568  15.9818283  )
        19           Ti1 tau(  19) = (   3.2830006   2.9631064  15.6531525  )
        20           Ti1 tau(  20) = (   6.5418150   1.5417905  15.9635021  )
        21           O1  tau(  21) = (   3.2904802   0.0005063   4.7018136  )
        22           O1  tau(  22) = (   0.0063621   0.0138944  17.1794403  )
        23           O1  tau(  23) = (   1.3043587   1.4918075   6.0039043  )
        24           O1  tau(  24) = (   5.2767064   1.4903225   6.0039473  )
        25           Ti1 tau(  25) = (   0.0000382   5.9609847   6.0000000  )
        26           Ti1 tau(  26) = (   3.2902200   4.4714249   6.0002472  )
        27           O1  tau(  27) = (   0.0002396   2.9813036   7.9858123  )
        28           O1  tau(  28) = (   3.2902150   2.9813002   7.3038282  )
        29           O1  tau(  29) = (   4.5938453   4.4726049   9.2879030  )
        30           O1  tau(  30) = (   1.9864658   4.4711199   9.2879459  )
        31           Ti1 tau(  31) = (   3.2891106   5.8743827   9.1763621  )
        32           Ti1 tau(  32) = (   0.0006254   4.4649316   9.2693709  )
        33           O1  tau(  33) = (   3.2987291   2.9703105  11.3060640  )
        34           O1  tau(  34) = (   0.0092240   2.9805883  10.6323155  )
        35           O1  tau(  35) = (   1.2872851   4.4534926  12.6272766  )
        36           O1  tau(  36) = (   5.2800973   4.4624318  12.6062822  )
        37           Ti1 tau(  37) = (   0.1009857   5.9355968  12.6779778  )
        38           Ti1 tau(  38) = (   3.4194502   4.4581092  12.4739500  )
        39           O1  tau(  39) = (   6.5579784   2.9468049  14.6267102  )
        40           O1  tau(  40) = (   3.2950467   2.9662764  13.8528306  )
        41           O1  tau(  41) = (   4.5369278   4.4531499  15.9976687  )
        42           O1  tau(  42) = (   2.0426393   4.4597293  15.9709435  )
        43           Ti1 tau(  43) = (   3.2485613   5.9322867  15.7552632  )
        44           Ti1 tau(  44) = (   6.5504849   4.5932964  16.0494500  )
        45           O1  tau(  45) = (   3.2900926   2.9813045   4.7018136  )
        46           O1  tau(  46) = (   1.3039711   4.4726057   6.0039043  )
        47           O1  tau(  47) = (   5.2763189   4.4711207   6.0039473  )
        48           N1  tau(  48) = (   0.6156314   2.9572148  18.5116157  )
        49           N1  tau(  49) = (   0.0870375   2.9660652  17.3203775  )
        50           C1  tau(  50) = (   6.5561155   3.1780822  19.6039678  )
        51           H1  tau(  51) = (   5.4868456   3.3930584  19.6151425  )
        52           H1  tau(  52) = (   0.5344647   3.1546629  20.5288580  )
        53           O1  tau(  53) = (   3.2552377   5.9566958  18.1335742  )
        54           H1  tau(  54) = (   4.0211122   0.5273114  18.4085372  )
        55           H1  tau(  55) = (   2.4596908   0.4632500  18.4230009  )

     number of k points=    10  Fermi-Dirac smearing, width (Ry)=  0.0073
                       cart. coord. in units 2pi/alat
        k(    1) = (   0.0000000   0.0000000   0.0000000), wk =   0.1250000
        k(    2) = (   0.0000000   0.0419351   0.0000000), wk =   0.2500000
        k(    3) = (   0.0000000  -0.0838702   0.0000000), wk =   0.1250000
        k(    4) = (   0.0379955   0.0000049   0.0000000), wk =   0.2500000
        k(    5) = (   0.0379955   0.0419400   0.0000000), wk =   0.2500000
        k(    6) = (   0.0379955  -0.0838652   0.0000000), wk =   0.2500000
        k(    7) = (   0.0379955  -0.0419301   0.0000000), wk =   0.2500000
        k(    8) = (  -0.0759910  -0.0000099   0.0000000), wk =   0.1250000
        k(    9) = (  -0.0759910   0.0419252   0.0000000), wk =   0.2500000
        k(   10) = (  -0.0759910  -0.0838800   0.0000000), wk =   0.1250000

     Initial potential from superposition of free atoms

     starting charge  385.99915, renormalised to  402.00000

     negative rho (up, down):  1.463E-02 0.000E+00

     %%%%%%%%%%%%%%%%%%%%%%%%%%%%%%%%%%%%%%%%%%%%%%%%%%%%%%%%%%%%%%%%%%%%%%%%
     %                                                                      %
     % You are using vdW-DF, which was implemented by the Thonhauser group. %
     % Please cite the following two papers that made this development      %
     % possible and the two reviews that describe the various versions:     %
     %                                                                      %
     %   T. Thonhauser et al., PRL 115, 136402 (2015).                      %
     %   T. Thonhauser et al., PRB 76, 125112 (2007).                       %
     %   K. Berland et al., Rep. Prog. Phys. 78, 066501 (2015).             %
     %   D.C. Langreth et al., J. Phys.: Condens. Matter 21, 084203 (2009). %
     %                                                                      %
     %                                                                      %
     % If you are calculating the stress with vdW-DF, please also cite:     %
     %                                                                      %
     %   R. Sabatini et al., J. Phys.: Condens. Matter 24, 424209 (2012).   %
     %                                                                      %
     %%%%%%%%%%%%%%%%%%%%%%%%%%%%%%%%%%%%%%%%%%%%%%%%%%%%%%%%%%%%%%%%%%%%%%%%

     Adding external electric field

     Computed dipole along edir(3) :
        Dipole              -11.9608 Ry au,        -30.4013 Debye
        Dipole field         -0.0226 Ry au,

        Potential amp.        2.0924 Ry
        Total length         46.3494 bohr

     Starting wfcs are  304 atomic wfcs
  @ DRIVER MODE: Message from server: STATUS
  @ DRIVER MODE: Message from server: POSDATA
  @ DRIVER MODE: Reading and sharing cell
  @ DRIVER MODE: Reading and sharing positions
  @ DRIVER MODE: Received positions

     Self-consistent Calculation

     iteration #  1     ecut=    29.40 Ry     beta= 0.05
     Davidson diagonalization with overlap
     c_bands:  3 eigenvalues not converged
     c_bands:  1 eigenvalues not converged
     c_bands:  5 eigenvalues not converged
     c_bands:  3 eigenvalues not converged
     c_bands:  3 eigenvalues not converged
     c_bands:  2 eigenvalues not converged
     c_bands:  4 eigenvalues not converged
     c_bands:  4 eigenvalues not converged
     c_bands:  3 eigenvalues not converged
     ethr =  1.00E-05,  avg # of iterations = 21.6

[...]

     total energy              =   -2415.32363793 Ry
     estimated scf accuracy    <    6284.06223613 Ry

     iteration #  2     ecut=    29.40 Ry     beta= 0.05
     Davidson diagonalization with overlap
     ethr =  1.00E-02,  avg # of iterations = 23.6

[...]

     iteration # 64     ecut=    29.40 Ry     beta= 0.05
     Davidson diagonalization with overlap
     c_bands:  1 eigenvalues not converged
     ethr =  5.43E-11,  avg # of iterations =  7.6

[...]

     total energy              =   -2972.73816786 Ry
     estimated scf accuracy    <       0.00000011 Ry

     iteration # 68     ecut=    29.40 Ry     beta= 0.05
     Davidson diagonalization with overlap
     ethr =  2.80E-11,  avg # of iterations =  6.8

     negative rho (up, down):  1.529E-02 0.000E+00

     Adding external electric field

     Computed dipole along edir(3) :
        Dipole                0.6745 Ry au,          1.7145 Debye
        Dipole field          0.0013 Ry au,

        Potential amp.       -0.1180 Ry
        Total length         46.3494 bohr

     End of self-consistent calculation

          k = 0.0000 0.0000 0.0000 ( 18029 PWs)   bands (ev):

   -56.1190 -56.0852 -55.6564 -55.6226 -55.5641 -55.5395 -55.5297 -55.5040
   -55.4190 -55.3701 -55.3295 -55.2611 -54.9355 -54.9015 -54.8608 -54.8214
   -32.5708 -32.4102 -32.3826 -32.2793 -32.1946 -32.1863 -32.1237 -32.0723
   -32.0504 -31.8996 -31.8765 -31.8725 -31.8405 -31.8391 -31.8209 -31.7869
   -31.7768 -31.7737 -31.7600 -31.7586 -31.7534 -31.7189 -31.7171 -31.7098
   -31.6757 -31.6736 -31.6599 -31.6490 -31.6293 -31.5980 -31.5402 -31.5380
   -31.5085 -31.4817 -31.4537 -31.4212 -31.3919 -31.3356 -31.2645 -31.2411
   -31.1531 -31.1071 -31.0739 -31.0678 -31.0576 -31.0343 -30.9567 -30.9472
   -18.7047 -17.4855 -16.4398 -16.2207 -15.9855 -15.7468 -15.6957 -15.5795
   -15.5658 -15.5582 -15.4451 -15.4277 -15.3710 -15.2649 -15.1948 -15.1585
   -15.1051 -15.0966 -15.0730 -14.9800 -14.9653 -14.9490 -14.9376 -14.8627
   -14.8193 -14.7993 -14.6925 -14.6248 -14.5596 -14.5306 -14.2360 -13.4358
   -13.3225 -11.6631  -6.5559  -6.4817  -4.4133  -3.9406  -3.9310  -3.7204
    -3.5592  -3.4573  -3.3286  -3.3120  -3.1829  -3.0705  -2.9439  -2.8849
    -2.8773  -2.8059  -2.7816  -2.7743  -2.6391  -2.6002  -2.5577  -2.5346
    -2.5040  -2.4276  -2.4145  -2.3588  -2.3185  -2.2850  -2.1794  -2.1404
    -2.1009  -2.0858  -2.0616  -2.0166  -1.9802  -1.9584  -1.9490  -1.9350
    -1.8969  -1.8045  -1.7544  -1.6558  -1.5997  -1.4993  -1.4557  -1.4397
    -1.3740  -1.2819  -1.1635  -1.1508  -1.0800  -1.0403  -0.9931  -0.9658
    -0.8926  -0.8834  -0.8128  -0.7735  -0.6994  -0.6491  -0.6169  -0.5933
    -0.5704  -0.4746  -0.4253  -0.3472  -0.2885  -0.2324  -0.2115  -0.1182
    -0.0896  -0.0570  -0.0326   0.0249   0.0675   0.0845   0.1049   0.1302
     0.1633   0.1870   0.3071   0.3605   0.3738   0.4070   0.4316   0.5417
     0.6025   0.6779   0.7370   0.7780   0.8808   0.8968   0.9413   1.0667
     1.0794   1.0866   1.1452   1.3044   1.6191   1.6447   1.6858   1.7777
     2.9517   3.1095   3.2260   3.4477   3.5461   3.5809   3.8461   3.9522
     3.9903   4.0166   4.0243

[...]

          k = 0.0380-0.0419 0.0000 ( 17876 PWs)   bands (ev):

[...]

          k =-0.0760-0.0000 0.0000 ( 17886 PWs)   bands (ev):

[...]

          k =-0.0760-0.0839 0.0000 ( 17948 PWs)   bands (ev):

   -56.1021 -56.1020 -55.6416 -55.6371 -55.5499 -55.5439 -55.5231 -55.5201
   -55.4170 -55.3603 -55.3393 -55.2629 -54.9186 -54.9183 -54.8509 -54.8312
   -32.3959 -32.3955 -32.3867 -32.3866 -32.2310 -32.2308 -31.9484 -31.9431
   -31.8935 -31.8921 -31.8894 -31.8688 -31.8320 -31.8272 -31.8085 -31.8072
   -31.7910 -31.7873 -31.7647 -31.7590 -31.7557 -31.7502 -31.7498 -31.7439
   -31.7104 -31.6713 -31.6659 -31.6589 -31.6337 -31.6223 -31.5866 -31.5724
   -31.5652 -31.5293 -31.5144 -31.4620 -31.2729 -31.2541 -31.2539 -31.1588
   -31.1496 -31.1494 -31.1106 -31.1105 -31.0664 -31.0538 -31.0450 -31.0269
   -18.7037 -17.4798 -15.8148 -15.8095 -15.7427 -15.7388 -15.6697 -15.6071
   -15.5070 -15.5032 -15.4601 -15.3724 -15.2946 -15.2757 -15.2057 -15.1991
   -15.1973 -15.1886 -15.1199 -15.1096 -15.0748 -15.0516 -15.0264 -15.0229
   -14.9944 -14.9711 -14.7580 -14.7015 -14.6351 -14.5597 -14.4107 -13.4252
   -13.4252 -11.6681  -6.5347  -6.4928  -4.3675  -3.9227  -3.1274  -3.0172
    -2.9355  -2.9239  -2.8971  -2.8037  -2.7829  -2.7352  -2.7098  -2.6890
    -2.6142  -2.6026  -2.5508  -2.5451  -2.5118  -2.4947  -2.4409  -2.4312
    -2.4208  -2.4158  -2.3670  -2.3317  -2.3277  -2.3172  -2.2954  -2.2266
    -2.1638  -2.1263  -2.0881  -2.0725  -2.0701  -2.0130  -1.9868  -1.9542
    -1.9015  -1.8977  -1.8640  -1.8128  -1.6836  -1.6731  -1.5411  -1.4700
    -1.4512  -1.3727  -1.3226  -1.2895  -1.2168  -1.1656  -1.1361  -1.0289
    -1.0071  -0.9757  -0.9616  -0.9265  -0.9218  -0.8817  -0.7752  -0.7534
    -0.7154  -0.7121  -0.6336  -0.6034  -0.5498  -0.5290  -0.5169  -0.4746
    -0.4562  -0.3745  -0.3498  -0.2939  -0.2394  -0.1971  -0.1460  -0.0944
    -0.0117   0.0549   0.1085   0.1998   0.2023   0.2145   0.4204   0.4260
     0.5253   0.6083   0.7343   0.7603   0.7745   0.8785   0.9184   0.9420
     0.9691   1.1336   1.1754   1.4705   1.4722   1.5021   1.5024   1.7264
     2.8921   3.6431   3.6433   3.6792   3.6806   3.9126   3.9171   3.9649
     3.9710   4.0268   4.0508

     the Fermi energy is     3.0511 ev

!    total energy              =   -2972.73819377 Ry
     estimated scf accuracy    <       0.00000003 Ry
     smearing contrib. (-TS)   =      -0.01267942 Ry
     internal energy E=F+TS    =   -2972.72551434 Ry

     The total energy is F=E-TS. E is the sum of the following terms:
     one-electron contribution =  -24071.39145012 Ry
     hartree contribution      =   12129.30318767 Ry
     xc contribution           =    -493.18177021 Ry
     ewald contribution        =    9462.54365967 Ry
     electric field correction =       0.00085865 Ry

     convergence has been achieved in  68 iterations

     Forces acting on atoms (cartesian axes, Ry/au):

     atom    1 type  1   force =     0.00013181   -0.00030381    0.10879263
     atom    2 type  1   force =    -0.00011542   -0.00041134   -0.16773124
     atom    3 type  2   force =    -0.00015624   -0.00000957   -0.04385937
     atom    4 type  2   force =     0.00005031   -0.00075185    0.03934166
     atom    5 type  2   force =    -0.01329159    0.00016486   -0.00456856
     atom    6 type  2   force =     0.01488909    0.00103707   -0.00539248
     atom    7 type  1   force =    -0.00093517   -0.00251290    0.01168122
     atom    8 type  1   force =     0.00124594    0.00154393    0.07746287
     atom    9 type  2   force =    -0.00005342   -0.00014833   -0.00023275
     atom   10 type  2   force =    -0.00114923    0.00038886   -0.05115996
     atom   11 type  2   force =    -0.00007885    0.00036305    0.00010325
     atom   12 type  2   force =     0.00000081    0.00024868    0.00006526
     atom   13 type  1   force =     0.00045772    0.00001142    0.00002331
     atom   14 type  1   force =    -0.00024419   -0.00007632    0.00014645
     atom   15 type  2   force =    -0.00020448   -0.00012468    0.00044575
     atom   16 type  2   force =     0.00013577    0.00001151   -0.00005422
     atom   17 type  2   force =    -0.00072804    0.00032091   -0.00013538
     atom   18 type  2   force =     0.00036906    0.00028113   -0.00015519
     atom   19 type  1   force =     0.00035719   -0.00018789    0.00013362
     atom   20 type  1   force =    -0.00011817    0.00051321   -0.00015210
     atom   21 type  2   force =     0.00007877    0.00005554    0.10121429
     atom   22 type  2   force =    -0.00006625   -0.00005417    0.00014623
     atom   23 type  2   force =    -0.07507013   -0.00002435   -0.03016539
     atom   24 type  2   force =     0.07504460    0.00043096   -0.03016226
     atom   25 type  1   force =     0.00021077   -0.00028943    0.10844124
     atom   26 type  1   force =    -0.00010171   -0.00044989   -0.16775009
     atom   27 type  2   force =    -0.00002055   -0.00025375   -0.04286221
     atom   28 type  2   force =     0.00011569   -0.00047236    0.03870185
     atom   29 type  2   force =    -0.01360994    0.00094439   -0.00479946
     atom   30 type  2   force =     0.01514314    0.00120638   -0.00567607
     atom   31 type  1   force =    -0.00125568    0.00051163    0.00738280
     atom   32 type  1   force =     0.00133016   -0.00408947    0.07789995
     atom   33 type  2   force =    -0.00005661    0.00012313   -0.00026022
     atom   34 type  2   force =    -0.00137870    0.00034706   -0.05721819
     atom   35 type  2   force =    -0.00001230   -0.00050090   -0.00003670
     atom   36 type  2   force =    -0.00034549   -0.00022450   -0.00013690
     atom   37 type  1   force =    -0.00006704   -0.00002290   -0.00028795
     atom   38 type  1   force =    -0.00020094    0.00021013   -0.00012753
     atom   39 type  2   force =     0.00000862   -0.00002214   -0.00046140
     atom   40 type  2   force =    -0.00001120    0.00028907    0.00021779
     atom   41 type  2   force =    -0.00000862   -0.00012244    0.00000113
     atom   42 type  2   force =    -0.00031651    0.00006882   -0.00003588
     atom   43 type  1   force =     0.00030341    0.00081709    0.00013784
     atom   44 type  1   force =    -0.00010453   -0.00001598    0.00007634
     atom   45 type  2   force =     0.00006791    0.00003837    0.10117722
     atom   46 type  2   force =    -0.07505817    0.00004024   -0.03012572
     atom   47 type  2   force =     0.07503369    0.00047337   -0.03013707
     atom   48 type  3   force =     0.00000677    0.00008887    0.00025076
     atom   49 type  3   force =     0.00022993    0.00019079    0.00009950
     atom   50 type  4   force =    -0.00017533    0.00008954   -0.00000597
     atom   51 type  5   force =     0.00021825    0.00050216   -0.00022114
     atom   52 type  5   force =    -0.00020526   -0.00017268    0.00002657
     atom   53 type  2   force =     0.00829885   -0.00481245   -0.00299535
     atom   54 type  5   force =    -0.00180326   -0.00057466    0.00007066
     atom   55 type  5   force =    -0.00678527    0.00531658    0.00286655

     Total force =     0.390672     Total SCF correction =     0.000620
  @ DRIVER MODE: Message from server: STATUS
  @ DRIVER MODE: Message from server: GETFORCE
  @ DRIVER MODE: Returning v,forces,stress,ensemble

     Writing output data file ./calc.save/
  @ DRIVER MODE: Message from server: EXIT
  @ DRIVE MODE: Exiting

     General routines

     Parallel routines

   This run was terminated on:   6:47:12  16Sep2021

   JOB DONE.