     Program PWSCF v.6.7GPU starts on 16Sep2021 at 12:55:33

     R & G space division:  proc/nbgrp/npool/nimage =      10
     Reading input from /storage/home/hcoda1/3/ntian30/research/carbon/CxH_vib/H2O_calc/ads_slab/CH2NNHHHH2O_a/out_0059/pw.inp
Warning: card &CELL ignored
Warning: card   CELL_DYNAMICS='IPI', ignored
Warning: card / ignored

     Current dimensions of program PWSCF are:
     Max number of different atomic species (ntypx) = 10
     Max number of k-points (npk) =  40000
     Max angular momentum in pseudopotentials (lmaxx) =  3
     Presently no symmetry can be used with electric field

     Message from routine cell_base_init:
     DEPRECATED: use true lattice parameter, not A to a.u. conversion factor

     IMPORTANT: XC functional enforced from input :
     Exchange-correlation= BEEF-VDW
                           (   1   4  43  14   2   0   0)
     Any further DFT definition will be discarded
     Please, verify this is what you really want

  @ DRIVER MODE: Connecting to
 qe_1139763_2852612.sched-torque.pace.gatech.edurbp2h85q_scratch
  using UNIX socket
  @ DRIVER MODE: Message from server: STATUS
  @ DRIVER MODE: Message from server: INIT
  @ DRIVER MODE: Receiving replica           0          -1
  @ DRIVER MODE: Receiving encoded integer          25
  @ DRIVER MODE:  SCF:  T  FORCE:  T  STRESS:  F  VC:  F  ENSEMBLE:  F
  @ DRIVER MODE:  SCF:  T  FORCE:  T  STRESS:  F  VC:  F  ENSEMBLE:  F

     Using Slab Decomposition

     bravais-lattice index     =            0
     lattice parameter (alat)  =       1.8897  a.u.
     unit-cell volume          =    6658.9804 (a.u.)^3
     number of atoms/cell      =           58
     number of atomic types    =            5
     number of electrons       =       405.00
     number of Kohn-Sham states=          212
     kinetic-energy cutoff     =      29.3995  Ry
     charge density cutoff     =     293.9946  Ry
     scf convergence threshold =      7.3E-08
     mixing beta               =       0.0500
     number of iterations used =            8  plain     mixing
     Exchange-correlation= BEEF-VDW
                           (   1   4  43  14   2   0   0)

     celldm(1)=   1.889726  celldm(2)=   0.000000  celldm(3)=   0.000000
     celldm(4)=   0.000000  celldm(5)=   0.000000  celldm(6)=   0.000000

     crystal axes: (cart. coord. in units of alat)
               a(1) = (   6.579727   0.000000   0.000000 )
               a(2) = (  -0.000775   5.961596   0.000000 )
               a(3) = (   0.000000   0.000000  25.155947 )

     reciprocal axes: (cart. coord. in units 2 pi/alat)
               b(1) = (  0.151982  0.000020  0.000000 )
               b(2) = (  0.000000  0.167740  0.000000 )
               b(3) = (  0.000000  0.000000  0.039752 )

     PseudoPot. # 1 for Ti read from file:
     /storage/coda1/p-amedford6/0/shared/rich_project_chbe-medford/medford-share/data/pseudos_module/espresso/nninc/pbe/van/Ti.UPF
     MD5 check sum: 8e4df49b7f0d34bbd5052bf3f5ea0213
     Pseudo is Ultrasoft, Zval = 12.0
     Generated by new atomic code, or converted to UPF format
     Using radial grid of  851 points,  6 beta functions with:
                l(1) =   0
                l(2) =   0
                l(3) =   1
                l(4) =   1
                l(5) =   2
                l(6) =   2
     Q(r) pseudized with  8 coefficients,  rinner =    1.000   1.000   1.000
                                                       1.000   1.000

     PseudoPot. # 2 for O  read from file:
     /storage/coda1/p-amedford6/0/shared/rich_project_chbe-medford/medford-share/data/pseudos_module/espresso/nninc/pbe/van/O.UPF
     MD5 check sum: 78c19812648e8988a0fe644b0f25305e
     Pseudo is Ultrasoft, Zval =  6.0
     Generated by new atomic code, or converted to UPF format
     Using radial grid of  737 points,  4 beta functions with:
                l(1) =   0
                l(2) =   0
                l(3) =   1
                l(4) =   1
     Q(r) pseudized with  8 coefficients,  rinner =    0.800   0.800   0.800

     PseudoPot. # 3 for N  read from file:
     /storage/coda1/p-amedford6/0/shared/rich_project_chbe-medford/medford-share/data/pseudos_module/espresso/nninc/pbe/van/N.UPF
     MD5 check sum: 90d10febe142ad51ac9d5be1deb811c4
     Pseudo is Ultrasoft, Zval =  5.0
     Generated by new atomic code, or converted to UPF format
     Using radial grid of  729 points,  4 beta functions with:
                l(1) =   0
                l(2) =   0
                l(3) =   1
                l(4) =   1
     Q(r) pseudized with  8 coefficients,  rinner =    0.800   0.800   0.800

     PseudoPot. # 4 for C  read from file:
     /storage/coda1/p-amedford6/0/shared/rich_project_chbe-medford/medford-share/data/pseudos_module/espresso/nninc/pbe/van/C.UPF
     MD5 check sum: 1a69bf6b8db32088f5b2163dbdb77a27
     Pseudo is Ultrasoft, Zval =  4.0
     Generated by new atomic code, or converted to UPF format
     Using radial grid of  721 points,  4 beta functions with:
                l(1) =   0
                l(2) =   0
                l(3) =   1
                l(4) =   1
     Q(r) pseudized with  8 coefficients,  rinner =    0.800   0.800   0.800

     PseudoPot. # 5 for H  read from file:
     /storage/coda1/p-amedford6/0/shared/rich_project_chbe-medford/medford-share/data/pseudos_module/espresso/nninc/pbe/van/H.UPF
     MD5 check sum: b5ee9d7bfd3a09ee7748110bda690ff7
     Pseudo is Ultrasoft, Zval =  1.0
     Generated by new atomic code, or converted to UPF format
     Using radial grid of  615 points,  1 beta functions with:
                l(1) =   0
     Q(r) pseudized with  8 coefficients,  rinner =    0.800

     atomic species   valence    mass     pseudopotential
        Ti1           12.00    47.86700     Ti( 1.00)
        O1             6.00    15.99900     O ( 1.00)
        N1             5.00    14.00700     N ( 1.00)
        C1             4.00    12.01100     C ( 1.00)
        H1             1.00     1.00800     H ( 1.00)

     No symmetry found

   Cartesian axes

     site n.     atom                  positions (alat units)
         1           Ti1 tau(   1) = (   0.0004258   2.9801865   6.0000000  )
         2           Ti1 tau(   2) = (   3.2906075   1.4906267   6.0002472  )
         3           O1  tau(   3) = (   0.0006271   0.0005054   7.9858123  )
         4           O1  tau(   4) = (   3.2906025   0.0005020   7.3038282  )
         5           O1  tau(   5) = (   4.5942328   1.4918067   9.2879030  )
         6           O1  tau(   6) = (   1.9868534   1.4903216   9.2879459  )
         7           Ti1 tau(   7) = (   3.2907910   2.8959150   9.1758416  )
         8           Ti1 tau(   8) = (   0.0015273   1.4827037   9.2680791  )
         9           O1  tau(   9) = (   3.2987819   5.9401718  11.3551833  )
        10           O1  tau(  10) = (   0.0116148   5.9584955  10.6183126  )
        11           O1  tau(  11) = (   1.3094369   1.4889762  12.6418845  )
        12           O1  tau(  12) = (   5.3041503   1.4933078  12.6143371  )
        13           Ti1 tau(  13) = (   0.0302489   2.9730182  12.5448133  )
        14           Ti1 tau(  14) = (   3.3273137   1.4751619  12.4920661  )
        15           O1  tau(  15) = (   6.5331299   0.0759724  14.6728253  )
        16           O1  tau(  16) = (   3.3443954   0.0128112  13.9985917  )
        17           O1  tau(  17) = (   4.5384157   1.5150964  16.2525342  )
        18           O1  tau(  18) = (   2.0107438   1.5096167  16.1239609  )
        19           Ti1 tau(  19) = (   3.2468703   2.9375149  15.6823127  )
        20           Ti1 tau(  20) = (   6.5402329   1.3810098  16.1103674  )
        21           O1  tau(  21) = (   3.2904802   0.0005063   4.7018136  )
        22           O1  tau(  22) = (   0.0855018   5.8309792  17.2460454  )
        23           O1  tau(  23) = (   1.3043587   1.4918075   6.0039043  )
        24           O1  tau(  24) = (   5.2767064   1.4903225   6.0039473  )
        25           Ti1 tau(  25) = (   0.0000382   5.9609847   6.0000000  )
        26           Ti1 tau(  26) = (   3.2902200   4.4714249   6.0002472  )
        27           O1  tau(  27) = (   0.0002396   2.9813036   7.9858123  )
        28           O1  tau(  28) = (   3.2902150   2.9813002   7.3038282  )
        29           O1  tau(  29) = (   4.5938453   4.4726049   9.2879030  )
        30           O1  tau(  30) = (   1.9864658   4.4711199   9.2879459  )
        31           Ti1 tau(  31) = (   3.2891106   5.8743827   9.1763621  )
        32           Ti1 tau(  32) = (   0.0006254   4.4649316   9.2693709  )
        33           O1  tau(  33) = (   3.2978634   2.9839445  11.3486163  )
        34           O1  tau(  34) = (   0.0092240   2.9805883  10.6323155  )
        35           O1  tau(  35) = (   1.3057425   4.4725738  12.6940039  )
        36           O1  tau(  36) = (   5.3035974   4.4670288  12.6562451  )
        37           Ti1 tau(  37) = (   0.0240142   0.0094741  12.5095027  )
        38           Ti1 tau(  38) = (   3.3290383   4.4615466  12.5202027  )
        39           O1  tau(  39) = (   6.5484913   2.9337383  14.8377676  )
        40           O1  tau(  40) = (   3.3243726   2.9440003  13.9069550  )
        41           O1  tau(  41) = (   4.5478640   4.3999133  16.1372545  )
        42           O1  tau(  42) = (   2.0209518   4.4226222  15.9786897  )
        43           Ti1 tau(  43) = (   3.3220059   5.9437776  15.8132296  )
        44           Ti1 tau(  44) = (   0.0730556   4.5544523  15.7304118  )
        45           O1  tau(  45) = (   3.2900926   2.9813045   4.7018136  )
        46           O1  tau(  46) = (   1.3039711   4.4726057   6.0039043  )
        47           O1  tau(  47) = (   5.2763189   4.4711207   6.0039473  )
        48           N1  tau(  48) = (   0.0453545   2.8788619  17.9090770  )
        49           C1  tau(  49) = (   1.0089482   2.8008358  18.8431878  )
        50           H1  tau(  50) = (   1.0080222   3.4413729  19.7168629  )
        51           H1  tau(  51) = (   1.8954070   2.2543435  18.5800802  )
        52           N1  tau(  52) = (   5.5320326   3.6725468  18.4365114  )
        53           H1  tau(  53) = (   5.8975581   4.6271042  18.6377988  )
        54           H1  tau(  54) = (   4.8553295   3.8628436  17.6443034  )
        55           H1  tau(  55) = (   5.1025442   3.2364756  19.2632064  )
        56           O1  tau(  56) = (   2.8928424   5.6518753  18.2681889  )
        57           H1  tau(  57) = (   3.0708471   0.5134993  18.7360362  )
        58           H1  tau(  58) = (   1.9180978   5.6479514  18.1114729  )

     number of k points=    10  Fermi-Dirac smearing, width (Ry)=  0.0073
                       cart. coord. in units 2pi/alat
        k(    1) = (   0.0000000   0.0000000   0.0000000), wk =   0.1250000
        k(    2) = (   0.0000000   0.0419351   0.0000000), wk =   0.2500000
        k(    3) = (   0.0000000  -0.0838702   0.0000000), wk =   0.1250000
        k(    4) = (   0.0379955   0.0000049   0.0000000), wk =   0.2500000
        k(    5) = (   0.0379955   0.0419400   0.0000000), wk =   0.2500000
        k(    6) = (   0.0379955  -0.0838652   0.0000000), wk =   0.2500000
        k(    7) = (   0.0379955  -0.0419301   0.0000000), wk =   0.2500000
        k(    8) = (  -0.0759910  -0.0000099   0.0000000), wk =   0.1250000
        k(    9) = (  -0.0759910   0.0419252   0.0000000), wk =   0.2500000
        k(   10) = (  -0.0759910  -0.0838800   0.0000000), wk =   0.1250000

     Initial potential from superposition of free atoms

     starting charge  388.99913, renormalised to  405.00000

     negative rho (up, down):  1.580E-02 0.000E+00

     %%%%%%%%%%%%%%%%%%%%%%%%%%%%%%%%%%%%%%%%%%%%%%%%%%%%%%%%%%%%%%%%%%%%%%%%
     %                                                                      %
     % You are using vdW-DF, which was implemented by the Thonhauser group. %
     % Please cite the following two papers that made this development      %
     % possible and the two reviews that describe the various versions:     %
     %                                                                      %
     %   T. Thonhauser et al., PRL 115, 136402 (2015).                      %
     %   T. Thonhauser et al., PRB 76, 125112 (2007).                       %
     %   K. Berland et al., Rep. Prog. Phys. 78, 066501 (2015).             %
     %   D.C. Langreth et al., J. Phys.: Condens. Matter 21, 084203 (2009). %
     %                                                                      %
     %                                                                      %
     % If you are calculating the stress with vdW-DF, please also cite:     %
     %                                                                      %
     %   R. Sabatini et al., J. Phys.: Condens. Matter 24, 424209 (2012).   %
     %                                                                      %
     %%%%%%%%%%%%%%%%%%%%%%%%%%%%%%%%%%%%%%%%%%%%%%%%%%%%%%%%%%%%%%%%%%%%%%%%

     Adding external electric field

     Computed dipole along edir(3) :
        Dipole              -14.4808 Ry au,        -36.8066 Debye
        Dipole field         -0.0273 Ry au,

        Potential amp.        2.5332 Ry
        Total length         46.3494 bohr

     Starting wfcs are  307 atomic wfcs
  @ DRIVER MODE: Message from server: STATUS
  @ DRIVER MODE: Message from server: POSDATA
  @ DRIVER MODE: Reading and sharing cell
  @ DRIVER MODE: Reading and sharing positions
  @ DRIVER MODE: Received positions

     Self-consistent Calculation

     iteration #  1     ecut=    29.40 Ry     beta= 0.05
     Davidson diagonalization with overlap
     c_bands:  2 eigenvalues not converged
     c_bands:  5 eigenvalues not converged
     c_bands:  1 eigenvalues not converged
     c_bands:  3 eigenvalues not converged
     c_bands:  3 eigenvalues not converged
     c_bands:  4 eigenvalues not converged
     ethr =  1.00E-05,  avg # of iterations = 27.0

[...]

     total energy              =   -2173.25791622 Ry
     estimated scf accuracy    <    9121.19653451 Ry

     iteration #  2     ecut=    29.40 Ry     beta= 0.05
     Davidson diagonalization with overlap
     ethr =  1.00E-02,  avg # of iterations = 29.0

[...]

     iteration # 66     ecut=    29.40 Ry     beta= 0.05
     Davidson diagonalization with overlap
     c_bands:  1 eigenvalues not converged
     ethr =  6.09E-11,  avg # of iterations = 14.4

[...]

     total energy              =   -2976.32714957 Ry
     estimated scf accuracy    <       0.00000015 Ry

     iteration # 68     ecut=    29.40 Ry     beta= 0.05
     Davidson diagonalization with overlap
     ethr =  3.59E-11,  avg # of iterations =  6.5

     negative rho (up, down):  1.318E-02 0.000E+00

     Adding external electric field

     Computed dipole along edir(3) :
        Dipole                1.3383 Ry au,          3.4016 Debye
        Dipole field          0.0025 Ry au,

        Potential amp.       -0.2341 Ry
        Total length         46.3494 bohr

     End of self-consistent calculation

          k = 0.0000 0.0000 0.0000 ( 18029 PWs)   bands (ev):

   -55.1718 -55.1427 -55.1308 -55.1086 -55.0924 -55.0491 -55.0081 -54.9817
   -54.9708 -54.9556 -54.9461 -54.9380 -54.8721 -54.7252 -54.1544 -54.1203
   -31.7385 -31.6324 -31.5365 -31.5029 -31.4815 -31.4739 -31.4707 -31.4325
   -31.4095 -31.3877 -31.3817 -31.3794 -31.3673 -31.3462 -31.3198 -31.3168
   -31.3068 -31.2954 -31.2896 -31.2849 -31.2540 -31.2368 -31.2303 -31.2108
   -31.1995 -31.1818 -31.1799 -31.1792 -31.1702 -31.1676 -31.1509 -31.1418
   -31.1318 -31.1306 -31.1086 -31.1010 -31.0969 -31.0792 -31.0533 -31.0171
   -31.0019 -30.8710 -30.5627 -30.4709 -30.4487 -30.3795 -30.2928 -30.1816
   -19.0908 -18.8305 -16.0089 -15.7513 -15.6240 -15.4464 -15.3666 -15.2129
   -15.1428 -15.0603 -15.0332 -14.9686 -14.9305 -14.8995 -14.7866 -14.7794
   -14.7064 -14.7058 -14.6976 -14.6650 -14.6614 -14.6578 -14.6012 -14.5985
   -14.5590 -14.5480 -14.5355 -14.3935 -14.3186 -14.2617 -14.0909 -13.9759
   -12.6568 -12.5397  -9.0027  -7.6890  -6.9456  -6.5721  -5.7621  -3.8051
    -3.3466  -3.2137  -3.1755  -3.1160  -3.0721  -2.9892  -2.8948  -2.7734
    -2.5547  -2.4782  -2.4375  -2.3886  -2.3802  -2.3336  -2.2455  -2.1609
    -2.1288  -2.0928  -2.0435  -2.0281  -1.9869  -1.9606  -1.9416  -1.9000
    -1.8916  -1.7445  -1.6856  -1.6296  -1.5816  -1.5607  -1.5587  -1.5023
    -1.4885  -1.4663  -1.4636  -1.4535  -1.4237  -1.3860  -1.3831  -1.3291
    -1.2901  -1.1643  -1.0903  -0.9750  -0.9155  -0.8849  -0.8004  -0.7319
    -0.7157  -0.6435  -0.5794  -0.5599  -0.5023  -0.4653  -0.3745  -0.3407
    -0.2912  -0.2648  -0.1567  -0.1435  -0.1278  -0.0570   0.0325   0.0413
     0.0654   0.1109   0.1952   0.2299   0.2836   0.3099   0.4099   0.4412
     0.4831   0.5009   0.5263   0.6077   0.6787   0.7157   0.7765   0.7859
     0.8206   0.8256   0.8487   0.9429   0.9736   0.9785   1.0266   1.1933
     1.2503   1.4500   1.4518   1.7823   1.8179   1.8685   2.0547   2.4423
     2.4895   3.9272   3.9934   4.0421   4.0590   4.0773   4.1353   4.1699
     4.3977   4.4205   4.4348   4.4486

[...]

          k = 0.0380-0.0419 0.0000 ( 17876 PWs)   bands (ev):

[...]

          k =-0.0760-0.0000 0.0000 ( 17886 PWs)   bands (ev):

[...]

          k =-0.0760-0.0839 0.0000 ( 17948 PWs)   bands (ev):

   -55.1610 -55.1414 -55.1255 -55.1255 -55.0902 -55.0398 -55.0173 -54.9661
   -54.9604 -54.9576 -54.9559 -54.9539 -54.8704 -54.7269 -54.1373 -54.1373
   -31.5496 -31.5347 -31.4476 -31.4475 -31.4475 -31.4378 -31.4179 -31.4179
   -31.3833 -31.3779 -31.3683 -31.3666 -31.3365 -31.3082 -31.3008 -31.2986
   -31.2961 -31.2925 -31.2900 -31.2852 -31.2760 -31.2625 -31.2483 -31.2448
   -31.2448 -31.2426 -31.2402 -31.2141 -31.1993 -31.1913 -31.1803 -31.1759
   -31.1754 -31.1748 -31.1561 -31.1550 -31.1357 -31.1332 -31.0713 -31.0095
   -31.0057 -30.9450 -30.4614 -30.4614 -30.3754 -30.3752 -30.3362 -30.3361
   -19.0828 -18.8339 -15.5108 -15.3745 -15.3357 -15.2455 -15.1637 -15.1477
   -15.1400 -15.1058 -15.0536 -14.9942 -14.9489 -14.9143 -14.8734 -14.8719
   -14.8592 -14.7586 -14.7476 -14.7400 -14.7231 -14.6750 -14.6653 -14.6485
   -14.6233 -14.6216 -14.5964 -14.5157 -14.5147 -14.4164 -14.3110 -14.0373
   -12.6413 -12.6412  -8.9903  -7.7047  -6.9021  -6.5618  -5.7764  -3.8866
    -3.0078  -2.7686  -2.5741  -2.5463  -2.4269  -2.3750  -2.3290  -2.3080
    -2.2213  -2.1811  -2.1643  -2.1586  -2.1389  -2.0820  -2.0603  -2.0212
    -2.0013  -1.9872  -1.9789  -1.9543  -1.9494  -1.9181  -1.9019  -1.8829
    -1.8770  -1.8408  -1.8017  -1.7908  -1.7530  -1.7326  -1.7241  -1.6689
    -1.5682  -1.5353  -1.4909  -1.4249  -1.3617  -1.3580  -1.2928  -1.2681
    -1.2498  -1.2317  -1.1960  -1.1838  -1.0707  -1.0143  -0.9097  -0.8970
    -0.8911  -0.7871  -0.7523  -0.7107  -0.6803  -0.6433  -0.5877  -0.5091
    -0.5020  -0.4268  -0.3894  -0.3778  -0.3590  -0.2192  -0.1872  -0.1543
    -0.1301  -0.1256  -0.0716  -0.0285   0.0017   0.0391   0.0662   0.0990
     0.1152   0.1911   0.3280   0.3601   0.4019   0.5345   0.5622   0.6768
     0.7030   0.8231   0.8968   0.9412   0.9617   1.0393   1.1162   1.1380
     1.1438   1.2546   1.3054   1.3074   1.3248   2.2272   2.2287   2.3095
     2.3097   3.7810   4.0728   4.1981   4.2146   4.2556   4.3793   4.4447
     4.4800   4.5020   4.5048   4.5914

     the Fermi energy is     3.9761 ev

!    total energy              =   -2976.32717535 Ry
     estimated scf accuracy    <       0.00000004 Ry
     smearing contrib. (-TS)   =      -0.04071097 Ry
     internal energy E=F+TS    =   -2976.28646438 Ry

     The total energy is F=E-TS. E is the sum of the following terms:
     one-electron contribution =  -23821.21417176 Ry
     hartree contribution      =   12009.44472741 Ry
     xc contribution           =    -495.76364487 Ry
     ewald contribution        =    9331.24324490 Ry
     electric field correction =       0.00337994 Ry

     convergence has been achieved in  68 iterations

     Forces acting on atoms (cartesian axes, Ry/au):

     atom    1 type  1   force =     0.00015605   -0.00019975    0.09424935
     atom    2 type  1   force =    -0.00011104   -0.00035744   -0.17723622
     atom    3 type  2   force =     0.00008675    0.00003779   -0.02132087
     atom    4 type  2   force =     0.00001878   -0.00174376    0.05669265
     atom    5 type  2   force =    -0.01043290   -0.00127728    0.00673593
     atom    6 type  2   force =     0.01219323   -0.00072149    0.00625071
     atom    7 type  1   force =    -0.00028607    0.00288091   -0.01265429
     atom    8 type  1   force =    -0.00014267    0.00438652    0.00453617
     atom    9 type  2   force =    -0.00036268    0.00009054    0.00076919
     atom   10 type  2   force =    -0.00008342   -0.00089215   -0.00639856
     atom   11 type  2   force =    -0.00042019   -0.00033171    0.00006224
     atom   12 type  2   force =    -0.00031857   -0.00042533    0.00014943
     atom   13 type  1   force =    -0.00034577   -0.00016075   -0.00033340
     atom   14 type  1   force =     0.00003633   -0.00043912   -0.00035842
     atom   15 type  2   force =    -0.00020097   -0.00007759    0.00003201
     atom   16 type  2   force =    -0.00065492    0.00024073   -0.00032500
     atom   17 type  2   force =    -0.00015502    0.00002889    0.00028217
     atom   18 type  2   force =     0.00038265   -0.00011973    0.00039285
     atom   19 type  1   force =     0.00022586   -0.00087285   -0.00003353
     atom   20 type  1   force =     0.00020971   -0.00019820    0.00063346
     atom   21 type  2   force =     0.00004762    0.00001746    0.10364977
     atom   22 type  2   force =    -0.00030944    0.00014443    0.00058926
     atom   23 type  2   force =    -0.07082419   -0.00010937   -0.02714981
     atom   24 type  2   force =     0.07072339    0.00032910   -0.02717916
     atom   25 type  1   force =    -0.00006799   -0.00022728    0.09368181
     atom   26 type  1   force =    -0.00013569   -0.00042320   -0.17736672
     atom   27 type  2   force =     0.00014889   -0.00039350   -0.02027380
     atom   28 type  2   force =     0.00005410   -0.00138013    0.05584596
     atom   29 type  2   force =    -0.01030384   -0.00029873    0.00538813
     atom   30 type  2   force =     0.01197552    0.00009958    0.00502589
     atom   31 type  1   force =    -0.00017345    0.00358505   -0.01531908
     atom   32 type  1   force =    -0.00018770   -0.00485089    0.00438276
     atom   33 type  2   force =    -0.00006605   -0.00017127    0.00032099
     atom   34 type  2   force =     0.00120617    0.00258844   -0.00429531
     atom   35 type  2   force =    -0.00071304   -0.00016076    0.00017406
     atom   36 type  2   force =    -0.00001144   -0.00002779    0.00045186
     atom   37 type  1   force =     0.00038822    0.00040954   -0.00031068
     atom   38 type  1   force =    -0.00000336    0.00053097   -0.00158416
     atom   39 type  2   force =     0.00026586   -0.00046905   -0.00020971
     atom   40 type  2   force =     0.00004828    0.00004673    0.00059066
     atom   41 type  2   force =    -0.00020640   -0.00027908   -0.00018177
     atom   42 type  2   force =     0.00044795   -0.00041515   -0.00003877
     atom   43 type  1   force =    -0.00070107    0.00049265    0.00044315
     atom   44 type  1   force =    -0.00005464    0.00002107   -0.00009745
     atom   45 type  2   force =     0.00004011   -0.00002552    0.10365161
     atom   46 type  2   force =    -0.07086011   -0.00006360   -0.02714735
     atom   47 type  2   force =     0.07075584    0.00033863   -0.02717816
     atom   48 type  3   force =     0.00034059    0.00033658   -0.00029750
     atom   49 type  4   force =     0.00071886   -0.00054775    0.00055995
     atom   50 type  5   force =     0.00118121   -0.00013449   -0.00028671
     atom   51 type  5   force =    -0.00081800    0.00076159   -0.00042370
     atom   52 type  3   force =     0.00060342   -0.00012464    0.00019435
     atom   53 type  5   force =    -0.00134886   -0.00009383    0.00037336
     atom   54 type  5   force =     0.00025337   -0.00037046    0.00051913
     atom   55 type  5   force =    -0.00061031   -0.00001235    0.00021286
     atom   56 type  2   force =    -0.00240513   -0.00653128   -0.00529151
     atom   57 type  5   force =     0.00180626    0.00748864    0.00532820
     atom   58 type  5   force =    -0.00100009    0.00007142    0.00112170

     Total force =     0.365539     Total SCF correction =     0.000528
  @ DRIVER MODE: Message from server: STATUS
  @ DRIVER MODE: Message from server: GETFORCE
  @ DRIVER MODE: Returning v,forces,stress,ensemble

     Writing output data file ./calc.save/
  @ DRIVER MODE: Message from server: EXIT
  @ DRIVE MODE: Exiting

     General routines

     Parallel routines

   This run was terminated on:  13:15:23  16Sep2021

   JOB DONE.