     Program PWSCF v.6.7GPU starts on  9Sep2021 at  7:33:44

     R & G space division:  proc/nbgrp/npool/nimage =      10
     Reading input from /storage/home/hcoda1/3/ntian30/research/carbon/CxH_vib/CH2_calc/ads_slab/CH2NNHH_a/out_0029/pw.inp
Warning: card &CELL ignored
Warning: card   CELL_DYNAMICS='IPI', ignored
Warning: card / ignored

     Current dimensions of program PWSCF are:
     Max number of different atomic species (ntypx) = 10
     Max number of k-points (npk) =  40000
     Max angular momentum in pseudopotentials (lmaxx) =  3
     Presently no symmetry can be used with electric field

     Message from routine cell_base_init:
     DEPRECATED: use true lattice parameter, not A to a.u. conversion factor

     IMPORTANT: XC functional enforced from input :
     Exchange-correlation= BEEF-VDW
                           (   1   4  43  14   2   0   0)
     Any further DFT definition will be discarded
     Please, verify this is what you really want

  @ DRIVER MODE: Connecting to
 qe_1139763_2767391.sched-torque.pace.gatech.edub3l3umjv_scratch
  using UNIX socket
  @ DRIVER MODE: Message from server: STATUS
  @ DRIVER MODE: Message from server: INIT
  @ DRIVER MODE: Receiving replica           0          -1
  @ DRIVER MODE: Receiving encoded integer          25
  @ DRIVER MODE:  SCF:  T  FORCE:  T  STRESS:  F  VC:  F  ENSEMBLE:  F
  @ DRIVER MODE:  SCF:  T  FORCE:  T  STRESS:  F  VC:  F  ENSEMBLE:  F

     Using Slab Decomposition

     bravais-lattice index     =            0
     lattice parameter (alat)  =       1.8897  a.u.
     unit-cell volume          =    6658.9804 (a.u.)^3
     number of atoms/cell      =           54
     number of atomic types    =            5
     number of electrons       =       396.00
     number of Kohn-Sham states=          208
     kinetic-energy cutoff     =      29.3995  Ry
     charge density cutoff     =     293.9946  Ry
     scf convergence threshold =      7.3E-08
     mixing beta               =       0.0500
     number of iterations used =            8  plain     mixing
     Exchange-correlation= BEEF-VDW
                           (   1   4  43  14   2   0   0)

     celldm(1)=   1.889726  celldm(2)=   0.000000  celldm(3)=   0.000000
     celldm(4)=   0.000000  celldm(5)=   0.000000  celldm(6)=   0.000000

     crystal axes: (cart. coord. in units of alat)
               a(1) = (   6.579727   0.000000   0.000000 )
               a(2) = (  -0.000775   5.961596   0.000000 )
               a(3) = (   0.000000   0.000000  25.155947 )

     reciprocal axes: (cart. coord. in units 2 pi/alat)
               b(1) = (  0.151982  0.000020  0.000000 )
               b(2) = (  0.000000  0.167740  0.000000 )
               b(3) = (  0.000000  0.000000  0.039752 )

     PseudoPot. # 1 for Ti read from file:
     /storage/coda1/p-amedford6/0/shared/rich_project_chbe-medford/medford-share/data/pseudos_module/espresso/nninc/pbe/van/Ti.UPF
     MD5 check sum: 8e4df49b7f0d34bbd5052bf3f5ea0213
     Pseudo is Ultrasoft, Zval = 12.0
     Generated by new atomic code, or converted to UPF format
     Using radial grid of  851 points,  6 beta functions with:
                l(1) =   0
                l(2) =   0
                l(3) =   1
                l(4) =   1
                l(5) =   2
                l(6) =   2
     Q(r) pseudized with  8 coefficients,  rinner =    1.000   1.000   1.000
                                                       1.000   1.000

     PseudoPot. # 2 for O  read from file:
     /storage/coda1/p-amedford6/0/shared/rich_project_chbe-medford/medford-share/data/pseudos_module/espresso/nninc/pbe/van/O.UPF
     MD5 check sum: 78c19812648e8988a0fe644b0f25305e
     Pseudo is Ultrasoft, Zval =  6.0
     Generated by new atomic code, or converted to UPF format
     Using radial grid of  737 points,  4 beta functions with:
                l(1) =   0
                l(2) =   0
                l(3) =   1
                l(4) =   1
     Q(r) pseudized with  8 coefficients,  rinner =    0.800   0.800   0.800

     PseudoPot. # 3 for N  read from file:
     /storage/coda1/p-amedford6/0/shared/rich_project_chbe-medford/medford-share/data/pseudos_module/espresso/nninc/pbe/van/N.UPF
     MD5 check sum: 90d10febe142ad51ac9d5be1deb811c4
     Pseudo is Ultrasoft, Zval =  5.0
     Generated by new atomic code, or converted to UPF format
     Using radial grid of  729 points,  4 beta functions with:
                l(1) =   0
                l(2) =   0
                l(3) =   1
                l(4) =   1
     Q(r) pseudized with  8 coefficients,  rinner =    0.800   0.800   0.800

     PseudoPot. # 4 for C  read from file:
     /storage/coda1/p-amedford6/0/shared/rich_project_chbe-medford/medford-share/data/pseudos_module/espresso/nninc/pbe/van/C.UPF
     MD5 check sum: 1a69bf6b8db32088f5b2163dbdb77a27
     Pseudo is Ultrasoft, Zval =  4.0
     Generated by new atomic code, or converted to UPF format
     Using radial grid of  721 points,  4 beta functions with:
                l(1) =   0
                l(2) =   0
                l(3) =   1
                l(4) =   1
     Q(r) pseudized with  8 coefficients,  rinner =    0.800   0.800   0.800

     PseudoPot. # 5 for H  read from file:
     /storage/coda1/p-amedford6/0/shared/rich_project_chbe-medford/medford-share/data/pseudos_module/espresso/nninc/pbe/van/H.UPF
     MD5 check sum: b5ee9d7bfd3a09ee7748110bda690ff7
     Pseudo is Ultrasoft, Zval =  1.0
     Generated by new atomic code, or converted to UPF format
     Using radial grid of  615 points,  1 beta functions with:
                l(1) =   0
     Q(r) pseudized with  8 coefficients,  rinner =    0.800

     atomic species   valence    mass     pseudopotential
        Ti1           12.00    47.86700     Ti( 1.00)
        O1             6.00    15.99900     O ( 1.00)
        N1             5.00    14.00700     N ( 1.00)
        C1             4.00    12.01100     C ( 1.00)
        H1             1.00     1.00800     H ( 1.00)

     No symmetry found

   Cartesian axes

     site n.     atom                  positions (alat units)
         1           Ti1 tau(   1) = (   0.0004258   2.9801865   6.0000000  )
         2           Ti1 tau(   2) = (   3.2906075   1.4906267   6.0002472  )
         3           O1  tau(   3) = (   0.0006271   0.0005054   7.9858123  )
         4           O1  tau(   4) = (   3.2906025   0.0005020   7.3038282  )
         5           O1  tau(   5) = (   4.5942328   1.4918067   9.2879030  )
         6           O1  tau(   6) = (   1.9868534   1.4903216   9.2879459  )
         7           Ti1 tau(   7) = (   3.2907910   2.8959150   9.1758416  )
         8           Ti1 tau(   8) = (   0.0015273   1.4827037   9.2680791  )
         9           O1  tau(   9) = (   3.2741875   5.9357071  11.3735532  )
        10           O1  tau(  10) = (   0.0116148   5.9584955  10.6183126  )
        11           O1  tau(  11) = (   1.2759687   1.4857368  12.6615302  )
        12           O1  tau(  12) = (   5.2764777   1.4850508  12.6403612  )
        13           Ti1 tau(  13) = (   6.5724762   2.9646551  12.5117882  )
        14           Ti1 tau(  14) = (   3.2886223   1.4652571  12.5194246  )
        15           O1  tau(  15) = (   6.5416971   0.0664024  14.6986244  )
        16           O1  tau(  16) = (   3.2828258   5.9593040  13.9967703  )
        17           O1  tau(  17) = (   4.5136565   1.4796660  16.2299008  )
        18           O1  tau(  18) = (   2.0038615   1.4742267  16.2123189  )
        19           Ti1 tau(  19) = (   3.2480181   2.9445974  15.7466143  )
        20           Ti1 tau(  20) = (   6.5118905   1.3801257  16.1190456  )
        21           O1  tau(  21) = (   3.2904802   0.0005063   4.7018136  )
        22           O1  tau(  22) = (   6.5538845   5.8109167  17.2256470  )
        23           O1  tau(  23) = (   1.3043587   1.4918075   6.0039043  )
        24           O1  tau(  24) = (   5.2767064   1.4903225   6.0039473  )
        25           Ti1 tau(  25) = (   0.0000382   5.9609847   6.0000000  )
        26           Ti1 tau(  26) = (   3.2902200   4.4714249   6.0002472  )
        27           O1  tau(  27) = (   0.0002396   2.9813036   7.9858123  )
        28           O1  tau(  28) = (   3.2902150   2.9813002   7.3038282  )
        29           O1  tau(  29) = (   4.5938453   4.4726049   9.2879030  )
        30           O1  tau(  30) = (   1.9864658   4.4711199   9.2879459  )
        31           Ti1 tau(  31) = (   3.2891106   5.8743827   9.1763621  )
        32           Ti1 tau(  32) = (   0.0006254   4.4649316   9.2693709  )
        33           O1  tau(  33) = (   3.2754078   2.9701464  11.3677572  )
        34           O1  tau(  34) = (   0.0092240   2.9805883  10.6323155  )
        35           O1  tau(  35) = (   1.2711598   4.4556272  12.7031535  )
        36           O1  tau(  36) = (   5.2783420   4.4558858  12.6781970  )
        37           Ti1 tau(  37) = (   0.0002938   5.9583472  12.5066983  )
        38           Ti1 tau(  38) = (   3.2916940   4.4447674  12.5292973  )
        39           O1  tau(  39) = (   6.5347695   2.9176514  14.9891124  )
        40           O1  tau(  40) = (   3.2818703   2.9467213  13.9608579  )
        41           O1  tau(  41) = (   4.5039121   4.4250859  16.1805084  )
        42           O1  tau(  42) = (   2.0002864   4.4376668  16.1101511  )
        43           Ti1 tau(  43) = (   3.2613398   5.9375382  15.7939200  )
        44           Ti1 tau(  44) = (   0.0097882   4.6113729  15.8292928  )
        45           O1  tau(  45) = (   3.2900926   2.9813045   4.7018136  )
        46           O1  tau(  46) = (   1.3039711   4.4726057   6.0039043  )
        47           O1  tau(  47) = (   5.2763189   4.4711207   6.0039473  )
        48           N1  tau(  48) = (   6.5527080   2.6566917  18.2311642  )
        49           C1  tau(  49) = (   0.9950107   2.5313988  18.9921798  )
        50           H1  tau(  50) = (   0.9966315   2.9146593  20.0110098  )
        51           H1  tau(  51) = (   1.8622571   2.0164067  18.6108951  )
        52           N1  tau(  52) = (   5.4094651   3.2293427  18.7444413  )
        53           H1  tau(  53) = (   5.6216840   3.8708726  19.5154782  )
        54           H1  tau(  54) = (   4.9168071   3.7283298  18.0160565  )

     number of k points=    10  Fermi-Dirac smearing, width (Ry)=  0.0073
                       cart. coord. in units 2pi/alat
        k(    1) = (   0.0000000   0.0000000   0.0000000), wk =   0.1250000
        k(    2) = (   0.0000000   0.0419351   0.0000000), wk =   0.2500000
        k(    3) = (   0.0000000  -0.0838702   0.0000000), wk =   0.1250000
        k(    4) = (   0.0379955   0.0000049   0.0000000), wk =   0.2500000
        k(    5) = (   0.0379955   0.0419400   0.0000000), wk =   0.2500000
        k(    6) = (   0.0379955  -0.0838652   0.0000000), wk =   0.2500000
        k(    7) = (   0.0379955  -0.0419301   0.0000000), wk =   0.2500000
        k(    8) = (  -0.0759910  -0.0000099   0.0000000), wk =   0.1250000
        k(    9) = (  -0.0759910   0.0419252   0.0000000), wk =   0.2500000
        k(   10) = (  -0.0759910  -0.0838800   0.0000000), wk =   0.1250000

     Initial potential from superposition of free atoms

     starting charge  379.99915, renormalised to  396.00000

     negative rho (up, down):  1.579E-02 0.000E+00

     %%%%%%%%%%%%%%%%%%%%%%%%%%%%%%%%%%%%%%%%%%%%%%%%%%%%%%%%%%%%%%%%%%%%%%%%
     %                                                                      %
     % You are using vdW-DF, which was implemented by the Thonhauser group. %
     % Please cite the following two papers that made this development      %
     % possible and the two reviews that describe the various versions:     %
     %                                                                      %
     %   T. Thonhauser et al., PRL 115, 136402 (2015).                      %
     %   T. Thonhauser et al., PRB 76, 125112 (2007).                       %
     %   K. Berland et al., Rep. Prog. Phys. 78, 066501 (2015).             %
     %   D.C. Langreth et al., J. Phys.: Condens. Matter 21, 084203 (2009). %
     %                                                                      %
     %                                                                      %
     % If you are calculating the stress with vdW-DF, please also cite:     %
     %                                                                      %
     %   R. Sabatini et al., J. Phys.: Condens. Matter 24, 424209 (2012).   %
     %                                                                      %
     %%%%%%%%%%%%%%%%%%%%%%%%%%%%%%%%%%%%%%%%%%%%%%%%%%%%%%%%%%%%%%%%%%%%%%%%

     Adding external electric field

     Computed dipole along edir(3) :
        Dipole               -9.9758 Ry au,        -25.3560 Debye
        Dipole field         -0.0188 Ry au,

        Potential amp.        1.7451 Ry
        Total length         46.3494 bohr

     Starting wfcs are  300 atomic wfcs
  @ DRIVER MODE: Message from server: STATUS
  @ DRIVER MODE: Message from server: POSDATA
  @ DRIVER MODE: Reading and sharing cell
  @ DRIVER MODE: Reading and sharing positions
  @ DRIVER MODE: Received positions

     Self-consistent Calculation

     iteration #  1     ecut=    29.40 Ry     beta= 0.05
     Davidson diagonalization with overlap
     c_bands:  1 eigenvalues not converged
     c_bands:  2 eigenvalues not converged
     c_bands:  2 eigenvalues not converged
     c_bands:  1 eigenvalues not converged
     c_bands:  3 eigenvalues not converged
     c_bands:  2 eigenvalues not converged
     c_bands:  3 eigenvalues not converged
     c_bands:  2 eigenvalues not converged
     c_bands:  1 eigenvalues not converged
     c_bands:  1 eigenvalues not converged
     ethr =  1.00E-05,  avg # of iterations = 20.0

[...]

     total energy              =   -2515.80655229 Ry
     estimated scf accuracy    <    4740.77571055 Ry

     iteration #  2     ecut=    29.40 Ry     beta= 0.05
     Davidson diagonalization with overlap
     ethr =  1.00E-02,  avg # of iterations = 24.2

[...]

     iteration # 76     ecut=    29.40 Ry     beta= 0.05
     Davidson diagonalization with overlap
     c_bands:  1 eigenvalues not converged
     ethr =  3.93E-11,  avg # of iterations = 15.1

[...]

     total energy              =   -2940.36648312 Ry
     estimated scf accuracy    <       0.00000012 Ry

     iteration # 77     ecut=    29.40 Ry     beta= 0.05
     Davidson diagonalization with overlap
     ethr =  3.09E-11,  avg # of iterations = 13.4

     negative rho (up, down):  1.644E-02 0.000E+00

     Adding external electric field

     Computed dipole along edir(3) :
        Dipole                1.2682 Ry au,          3.2235 Debye
        Dipole field          0.0024 Ry au,

        Potential amp.       -0.2219 Ry
        Total length         46.3494 bohr

     End of self-consistent calculation

          k = 0.0000 0.0000 0.0000 ( 18029 PWs)   bands (ev):

   -55.4158 -55.3790 -55.3677 -55.3336 -55.2949 -55.2911 -55.2853 -55.2603
   -55.2336 -55.2173 -55.1994 -55.1990 -55.1657 -55.0491 -54.3953 -54.3612
   -31.9848 -31.8601 -31.8173 -31.7831 -31.7291 -31.7233 -31.7183 -31.7048
   -31.6569 -31.6493 -31.6260 -31.6248 -31.6128 -31.5859 -31.5708 -31.5657
   -31.5532 -31.5525 -31.5313 -31.5257 -31.5200 -31.5099 -31.4815 -31.4723
   -31.4643 -31.4616 -31.4360 -31.4258 -31.4247 -31.4192 -31.4167 -31.3979
   -31.3969 -31.3915 -31.3843 -31.3817 -31.3477 -31.3343 -31.3276 -31.3106
   -31.2704 -31.2134 -30.8047 -30.7106 -30.6885 -30.6210 -30.5342 -30.4234
   -18.6253 -16.2476 -15.9788 -15.8365 -15.7121 -15.6129 -15.4884 -15.4664
   -15.3388 -15.2539 -15.1405 -15.0965 -15.0848 -15.0815 -15.0485 -15.0220
   -14.9571 -14.9526 -14.9350 -14.9086 -14.8980 -14.8549 -14.8516 -14.8101
   -14.7897 -14.7881 -14.6614 -14.5724 -14.5020 -14.1797 -13.6833 -12.8978
   -12.7804  -8.7568  -6.5152  -6.0620  -4.0165  -3.5884  -3.4324  -3.3791
    -3.3347  -3.3075  -3.2160  -3.1620  -3.0214  -2.8246  -2.7760  -2.6858
    -2.6234  -2.6149  -2.5958  -2.4148  -2.4076  -2.3510  -2.3006  -2.2588
    -2.2368  -2.2221  -2.2029  -2.1780  -2.1673  -2.1570  -1.9841  -1.9688
    -1.8970  -1.8235  -1.8134  -1.7631  -1.7423  -1.7112  -1.7034  -1.6954
    -1.6501  -1.6307  -1.6006  -1.5517  -1.4270  -1.3359  -1.3034  -1.2220
    -1.0927  -1.0510  -0.9990  -0.9958  -0.9031  -0.8990  -0.8785  -0.7931
    -0.7597  -0.7099  -0.6379  -0.5696  -0.5129  -0.4542  -0.4071  -0.3968
    -0.3420  -0.2248  -0.1991  -0.1803  -0.1585  -0.0377  -0.0192   0.0209
     0.0955   0.1258   0.1267   0.2434   0.2696   0.3272   0.3317   0.4082
     0.4692   0.5137   0.5227   0.5416   0.5707   0.5738   0.6484   0.6616
     0.6919   0.7620   0.8297   0.9199   1.1493   1.1858   1.1992   1.5321
     1.5342   1.6275   1.8112   2.2033   2.2514   3.6833   3.7534   3.8280
     3.8343   3.8525   3.9209   4.1575   4.1757   4.1837   4.1891   4.2321

[...]

          k = 0.0380-0.0419 0.0000 ( 17876 PWs)   bands (ev):

[...]

          k =-0.0760-0.0000 0.0000 ( 17886 PWs)   bands (ev):

[...]

          k =-0.0760-0.0839 0.0000 ( 17948 PWs)   bands (ev):

   -55.4011 -55.3934 -55.3508 -55.3503 -55.2859 -55.2849 -55.2794 -55.2758
   -55.2214 -55.2180 -55.2143 -55.1828 -55.1824 -55.0503 -54.3782 -54.3782
   -31.7912 -31.7855 -31.7444 -31.6918 -31.6781 -31.6753 -31.6750 -31.6423
   -31.6421 -31.6258 -31.6169 -31.6121 -31.6075 -31.5608 -31.5535 -31.5512
   -31.5489 -31.5470 -31.5416 -31.5364 -31.5211 -31.5085 -31.4918 -31.4914
   -31.4871 -31.4730 -31.4713 -31.4704 -31.4699 -31.4681 -31.4512 -31.4471
   -31.4414 -31.4311 -31.4277 -31.4131 -31.4121 -31.4083 -31.3634 -31.3631
   -31.2917 -31.2741 -30.7012 -30.7012 -30.6172 -30.6171 -30.5777 -30.5776
   -18.6229 -15.7098 -15.6767 -15.6193 -15.4390 -15.4113 -15.4046 -15.3855
   -15.2555 -15.2390 -15.2081 -15.1786 -15.1474 -15.1221 -15.1179 -15.1002
   -15.0302 -15.0193 -15.0112 -14.9936 -14.9281 -14.9242 -14.9154 -14.9106
   -14.8637 -14.8610 -14.7656 -14.7640 -14.6643 -14.5487 -13.6892 -12.8819
   -12.8819  -8.7376  -6.4909  -6.0763  -4.0247  -3.2815  -2.9429  -2.8762
    -2.8479  -2.6508  -2.6271  -2.5844  -2.5292  -2.4491  -2.4231  -2.4164
    -2.4076  -2.3367  -2.3250  -2.2754  -2.2661  -2.2470  -2.2317  -2.2213
    -2.1918  -2.1657  -2.1418  -2.1329  -2.1216  -2.0676  -2.0572  -2.0396
    -2.0093  -1.9896  -1.9803  -1.9634  -1.8642  -1.7800  -1.7507  -1.7231
    -1.6193  -1.6149  -1.5343  -1.5181  -1.4868  -1.4465  -1.4338  -1.4124
    -1.2314  -1.2010  -1.1703  -1.1574  -1.1490  -1.0100  -0.9960  -0.9401
    -0.8990  -0.8929  -0.7841  -0.7592  -0.7350  -0.6582  -0.6230  -0.5889
    -0.5365  -0.4317  -0.4150  -0.4042  -0.3707  -0.3667  -0.3107  -0.2987
    -0.2235  -0.1813  -0.1485  -0.1345  -0.0917   0.0967   0.1196   0.1344
     0.2779   0.3330   0.4266   0.5267   0.5369   0.5925   0.6312   0.6980
     0.7590   0.8204   0.8725   0.8937   0.8950   0.9735   0.9912   1.0449
     1.0467   1.9844   1.9850   2.0713   2.0717   3.8259   3.9347   3.9457
     3.9863   4.0682   4.1269   4.1997   4.2280   4.2671   4.2698   4.3352

     the Fermi energy is     3.7453 ev

!    total energy              =   -2940.36649194 Ry
     estimated scf accuracy    <       0.00000007 Ry
     smearing contrib. (-TS)   =      -0.03727994 Ry
     internal energy E=F+TS    =   -2940.32921200 Ry

     The total energy is F=E-TS. E is the sum of the following terms:
     one-electron contribution =  -23761.49565649 Ry
     hartree contribution      =   11972.10944827 Ry
     xc contribution           =    -486.11966001 Ry
     ewald contribution        =    9335.17362098 Ry
     electric field correction =       0.00303525 Ry

     convergence has been achieved in  77 iterations

     Forces acting on atoms (cartesian axes, Ry/au):

     atom    1 type  1   force =     0.00005770   -0.00013321    0.09327862
     atom    2 type  1   force =    -0.00005630   -0.00026082   -0.17807665
     atom    3 type  2   force =     0.00002081   -0.00016894   -0.02028472
     atom    4 type  2   force =     0.00000969   -0.00196028    0.05850173
     atom    5 type  2   force =    -0.01067439   -0.00127630    0.00870693
     atom    6 type  2   force =     0.01176943   -0.00062236    0.00683030
     atom    7 type  1   force =    -0.00092031    0.00299073   -0.01444440
     atom    8 type  1   force =     0.00064151   -0.00049433   -0.00371822
     atom    9 type  2   force =     0.00014296    0.00011177    0.00009699
     atom   10 type  2   force =    -0.00209614   -0.00122681    0.00066985
     atom   11 type  2   force =     0.00007571    0.00021464   -0.00010927
     atom   12 type  2   force =     0.00057618    0.00028609   -0.00005587
     atom   13 type  1   force =    -0.00014150    0.00028582    0.00007329
     atom   14 type  1   force =     0.00013161    0.00046936   -0.00037365
     atom   15 type  2   force =     0.00002611    0.00038249   -0.00006572
     atom   16 type  2   force =     0.00041421    0.00017866   -0.00031795
     atom   17 type  2   force =     0.00031529   -0.00034705   -0.00036158
     atom   18 type  2   force =     0.00019429   -0.00054356    0.00009346
     atom   19 type  1   force =    -0.00094913   -0.00005587    0.00013783
     atom   20 type  1   force =     0.00037473   -0.00003500   -0.00023908
     atom   21 type  2   force =     0.00009665    0.00000058    0.10393343
     atom   22 type  2   force =    -0.00022149    0.00008436    0.00019739
     atom   23 type  2   force =    -0.07039492   -0.00012969   -0.02690358
     atom   24 type  2   force =     0.07032705    0.00032772   -0.02693943
     atom   25 type  1   force =     0.00009733   -0.00022773    0.09281325
     atom   26 type  1   force =    -0.00005478   -0.00033617   -0.17808492
     atom   27 type  2   force =     0.00010983   -0.00035564   -0.01933527
     atom   28 type  2   force =     0.00004019   -0.00165137    0.05792381
     atom   29 type  2   force =    -0.01064840   -0.00128249    0.00803325
     atom   30 type  2   force =     0.01165169   -0.00088878    0.00609256
     atom   31 type  1   force =    -0.00089741    0.00489425   -0.01543166
     atom   32 type  1   force =     0.00083411    0.00019702   -0.00392821
     atom   33 type  2   force =     0.00010197    0.00045434    0.00022449
     atom   34 type  2   force =    -0.00177262    0.00110557    0.00072512
     atom   35 type  2   force =     0.00030551    0.00006615    0.00009040
     atom   36 type  2   force =     0.00027383   -0.00024835    0.00019795
     atom   37 type  1   force =    -0.00035972    0.00001907   -0.00010554
     atom   38 type  1   force =    -0.00022977    0.00050411   -0.00015249
     atom   39 type  2   force =     0.00047668   -0.00072748   -0.00001790
     atom   40 type  2   force =    -0.00015647    0.00006191   -0.00001111
     atom   41 type  2   force =    -0.00002412    0.00001887   -0.00035584
     atom   42 type  2   force =     0.00014867    0.00010258   -0.00000616
     atom   43 type  1   force =    -0.00022040   -0.00015618    0.00005179
     atom   44 type  1   force =     0.00013363    0.00018322   -0.00031426
     atom   45 type  2   force =     0.00010819   -0.00003277    0.10390069
     atom   46 type  2   force =    -0.07040835   -0.00004830   -0.02689713
     atom   47 type  2   force =     0.07035881    0.00037680   -0.02690998
     atom   48 type  3   force =     0.00048949   -0.00106037   -0.00538709
     atom   49 type  4   force =     0.00035940   -0.00011310    0.00067783
     atom   50 type  5   force =     0.00047009    0.00007225    0.00051814
     atom   51 type  5   force =    -0.00059677   -0.00020891   -0.00035236
     atom   52 type  3   force =     0.00792892    0.00382595    0.02265013
     atom   53 type  5   force =    -0.00387111   -0.00733436   -0.00730767
     atom   54 type  5   force =    -0.00436818    0.00471190   -0.00993154

     Total force =     0.367094     Total SCF correction =     0.000727
  @ DRIVER MODE: Message from server: STATUS
  @ DRIVER MODE: Message from server: GETFORCE
  @ DRIVER MODE: Returning v,forces,stress,ensemble

     Writing output data file ./calc.save/
  @ DRIVER MODE: Message from server: EXIT
  @ DRIVE MODE: Exiting

     General routines

     Parallel routines

   This run was terminated on:   7:54: 4   9Sep2021

   JOB DONE.