     Program PWSCF v.6.7GPU starts on 19Oct2021 at  3:35:14

     R & G space division:  proc/nbgrp/npool/nimage =       8
     Reading input from /storage/home/hcoda1/3/ntian30/research/carbon/CxH_vib/Thiel_calc/ads_slab/NH3NH3_perslab/out_0034/pw.inp
Warning: card &CELL ignored
Warning: card   CELL_DYNAMICS='IPI', ignored
Warning: card / ignored

     Current dimensions of program PWSCF are:
     Max number of different atomic species (ntypx) = 10
     Max number of k-points (npk) =  40000
     Max angular momentum in pseudopotentials (lmaxx) =  3
     Presently no symmetry can be used with electric field

     Message from routine cell_base_init:
     DEPRECATED: use true lattice parameter, not A to a.u. conversion factor

     IMPORTANT: XC functional enforced from input :
     Exchange-correlation= BEEF-VDW
                           (   1   4  43  14   2   0   0)
     Any further DFT definition will be discarded
     Please, verify this is what you really want

  @ DRIVER MODE: Connecting to
 qe_1139763_3255140.sched-torque.pace.gatech.edudewwoz5m_scratch
  using UNIX socket
  @ DRIVER MODE: Message from server: STATUS
  @ DRIVER MODE: Message from server: INIT
  @ DRIVER MODE: Receiving replica           0          -1
  @ DRIVER MODE: Receiving encoded integer          25
  @ DRIVER MODE:  SCF:  T  FORCE:  T  STRESS:  F  VC:  F  ENSEMBLE:  F
  @ DRIVER MODE:  SCF:  T  FORCE:  T  STRESS:  F  VC:  F  ENSEMBLE:  F

     Using Slab Decomposition

     bravais-lattice index     =            0
     lattice parameter (alat)  =       1.8897  a.u.
     unit-cell volume          =    9988.4706 (a.u.)^3
     number of atoms/cell      =           61
     number of atomic types    =            4
     number of electrons       =       442.00
     number of Kohn-Sham states=          231
     kinetic-energy cutoff     =      29.3995  Ry
     charge density cutoff     =     293.9946  Ry
     scf convergence threshold =      7.3E-08
     mixing beta               =       0.0500
     number of iterations used =            8  plain     mixing
     Exchange-correlation= BEEF-VDW
                           (   1   4  43  14   2   0   0)

     celldm(1)=   1.889726  celldm(2)=   0.000000  celldm(3)=   0.000000
     celldm(4)=   0.000000  celldm(5)=   0.000000  celldm(6)=   0.000000

     crystal axes: (cart. coord. in units of alat)
               a(1) = (   6.579727   0.000000   0.000000 )
               a(2) = (  -0.001163   8.942395   0.000000 )
               a(3) = (   0.000000   0.000000  25.155947 )

     reciprocal axes: (cart. coord. in units 2 pi/alat)
               b(1) = (  0.151982  0.000020  0.000000 )
               b(2) = (  0.000000  0.111827  0.000000 )
               b(3) = (  0.000000  0.000000  0.039752 )

     PseudoPot. # 1 for O  read from file:
     /storage/coda1/p-amedford6/0/shared/rich_project_chbe-medford/medford-share/data/pseudos_module/espresso/nninc/pbe/van/O.UPF
     MD5 check sum: 78c19812648e8988a0fe644b0f25305e
     Pseudo is Ultrasoft, Zval =  6.0
     Generated by new atomic code, or converted to UPF format
     Using radial grid of  737 points,  4 beta functions with:
                l(1) =   0
                l(2) =   0
                l(3) =   1
                l(4) =   1
     Q(r) pseudized with  8 coefficients,  rinner =    0.800   0.800   0.800

     PseudoPot. # 2 for Ti read from file:
     /storage/coda1/p-amedford6/0/shared/rich_project_chbe-medford/medford-share/data/pseudos_module/espresso/nninc/pbe/van/Ti.UPF
     MD5 check sum: 8e4df49b7f0d34bbd5052bf3f5ea0213
     Pseudo is Ultrasoft, Zval = 12.0
     Generated by new atomic code, or converted to UPF format
     Using radial grid of  851 points,  6 beta functions with:
                l(1) =   0
                l(2) =   0
                l(3) =   1
                l(4) =   1
                l(5) =   2
                l(6) =   2
     Q(r) pseudized with  8 coefficients,  rinner =    1.000   1.000   1.000
                                                       1.000   1.000

     PseudoPot. # 3 for N  read from file:
     /storage/coda1/p-amedford6/0/shared/rich_project_chbe-medford/medford-share/data/pseudos_module/espresso/nninc/pbe/van/N.UPF
     MD5 check sum: 90d10febe142ad51ac9d5be1deb811c4
     Pseudo is Ultrasoft, Zval =  5.0
     Generated by new atomic code, or converted to UPF format
     Using radial grid of  729 points,  4 beta functions with:
                l(1) =   0
                l(2) =   0
                l(3) =   1
                l(4) =   1
     Q(r) pseudized with  8 coefficients,  rinner =    0.800   0.800   0.800

     PseudoPot. # 4 for H  read from file:
     /storage/coda1/p-amedford6/0/shared/rich_project_chbe-medford/medford-share/data/pseudos_module/espresso/nninc/pbe/van/H.UPF
     MD5 check sum: b5ee9d7bfd3a09ee7748110bda690ff7
     Pseudo is Ultrasoft, Zval =  1.0
     Generated by new atomic code, or converted to UPF format
     Using radial grid of  615 points,  1 beta functions with:
                l(1) =   0
     Q(r) pseudized with  8 coefficients,  rinner =    0.800

     atomic species   valence    mass     pseudopotential
        O1             6.00    15.99900     O ( 1.00)
        Ti1           12.00    47.86700     Ti( 1.00)
        N1             5.00    14.00700     N ( 1.00)
        H1             1.00     1.00800     H ( 1.00)

     No symmetry found

   Cartesian axes

     site n.     atom                  positions (alat units)
         1           O1  tau(   1) = (   0.0007354   0.0005023  10.5931620  )
         2           O1  tau(   2) = (   3.2905679   0.0262843  13.8966672  )
         3           O1  tau(   3) = (   0.0007290   0.0579300  17.2579193  )
         4           O1  tau(   4) = (   0.0006271   0.0005054   7.9858123  )
         5           O1  tau(   5) = (   3.2893100   8.9214726  11.1892856  )
         6           O1  tau(   6) = (   0.0005199   0.0455907  14.6396817  )
         7           O1  tau(   7) = (   1.9868534   1.4903216   9.2879459  )
         8           O1  tau(   8) = (   5.2380180   1.6024468  12.5713634  )
         9           O1  tau(   9) = (   2.0277759   1.4975965  16.1012153  )
        10           Ti1 tau(  10) = (   0.0007404   1.4906270   9.2895810  )
        11           Ti1 tau(  11) = (   3.2903786   1.3551844  12.4711573  )
        12           Ti1 tau(  12) = (   0.0003174   1.4440192  15.7330511  )
        13           O1  tau(  13) = (   4.5942328   1.4918067   9.2879030  )
        14           O1  tau(  14) = (   1.3426987   1.6023923  12.5713351  )
        15           O1  tau(  15) = (   4.5529958   1.4977110  16.1013444  )
        16           Ti1 tau(  16) = (   3.2902859   2.9801868   9.2893338  )
        17           Ti1 tau(  17) = (   0.0005333   2.8255407  12.4640987  )
        18           Ti1 tau(  18) = (   3.2895849   3.0341113  15.6952405  )
        19           O1  tau(  19) = (   0.0003479   2.9813005  10.5931620  )
        20           O1  tau(  20) = (   3.2900438   2.9627632  13.8881152  )
        21           O1  tau(  21) = (   0.0002396   2.9813036   7.9858123  )
        22           O1  tau(  22) = (   3.2902621   2.9759438  11.1922459  )
        23           O1  tau(  23) = (   0.0002943   2.9805036  14.7119039  )
        24           O1  tau(  24) = (   1.9864658   4.4711199   9.2879459  )
        25           O1  tau(  25) = (   5.2407125   4.5787950  12.5855407  )
        26           O1  tau(  26) = (   1.9842138   4.3634165  16.0604883  )
        27           Ti1 tau(  27) = (   0.0003529   4.4714252   9.2895810  )
        28           Ti1 tau(  28) = (   3.2904166   4.3402611  12.5252975  )
        29           Ti1 tau(  29) = (  -0.0003584   4.7219071  15.7914592  )
        30           O1  tau(  30) = (   4.5938453   4.4726049   9.2879030  )
        31           O1  tau(  31) = (   1.3394863   4.5787101  12.5854501  )
        32           O1  tau(  32) = (   4.5953883   4.3633133  16.0606172  )
        33           Ti1 tau(  33) = (   3.2898983   5.9609850   9.2893338  )
        34           Ti1 tau(  34) = (   0.0004309   5.8055675  12.4642027  )
        35           Ti1 tau(  35) = (   3.2895961   6.0676247  15.8182862  )
        36           O1  tau(  36) = (  -0.0000397   5.9620987  10.5931620  )
        37           O1  tau(  37) = (   3.2897974   5.9491097  13.9522666  )
        38           O1  tau(  38) = (  -0.0001005   5.9419674  17.2168411  )
        39           O1  tau(  39) = (  -0.0001480   5.9621018   7.9858123  )
        40           O1  tau(  40) = (   3.2898294   5.9516608  11.2068290  )
        41           O1  tau(  41) = (  -0.0002620   6.0093330  14.6024556  )
        42           O1  tau(  42) = (   1.9860782   7.4519181   9.2879459  )
        43           O1  tau(  43) = (   5.2335766   7.5615516  12.5803788  )
        44           O1  tau(  44) = (   2.0229086   7.4656171  16.0362607  )
        45           Ti1 tau(  45) = (  -0.0000347   7.4522234   9.2895810  )
        46           Ti1 tau(  46) = (   3.2895523   7.2794780  12.5477951  )
        47           Ti1 tau(  47) = (  -0.0001499   7.5569733  16.2601047  )
        48           O1  tau(  48) = (   4.5934577   7.4534031   9.2879030  )
        49           O1  tau(  49) = (   1.3453152   7.5613653  12.5804751  )
        50           O1  tau(  50) = (   4.5562564   7.4656138  16.0364310  )
        51           Ti1 tau(  51) = (   3.2895107   8.9417832   9.2893338  )
        52           Ti1 tau(  52) = (  -0.0004710   8.7769229  12.4586551  )
        53           Ti1 tau(  53) = (   3.2909234   0.0582169  15.6986445  )
        54           N1  tau(  54) = (   3.2892347   5.9685454  18.1810142  )
        55           H1  tau(  55) = (   3.2893406   5.0219839  18.5418895  )
        56           H1  tau(  56) = (   2.4590131   6.4368771  18.5304692  )
        57           H1  tau(  57) = (   4.1190552   6.4372901  18.5310312  )
        58           N1  tau(  58) = (  -0.0003436   2.9015831  17.9177722  )
        59           H1  tau(  59) = (   6.5794260   1.9711702  18.3102355  )
        60           H1  tau(  60) = (   5.7593157   3.3919262  18.2600543  )
        61           H1  tau(  61) = (   0.8192290   3.3923488  18.2608005  )

     number of k points=    10  Fermi-Dirac smearing, width (Ry)=  0.0073
                       cart. coord. in units 2pi/alat
        k(    1) = (   0.0000000   0.0000000   0.0000000), wk =   0.1250000
        k(    2) = (   0.0000000   0.0279567   0.0000000), wk =   0.2500000
        k(    3) = (   0.0000000  -0.0559134   0.0000000), wk =   0.1250000
        k(    4) = (   0.0379955   0.0000049   0.0000000), wk =   0.2500000
        k(    5) = (   0.0379955   0.0279617   0.0000000), wk =   0.2500000
        k(    6) = (   0.0379955  -0.0559085   0.0000000), wk =   0.2500000
        k(    7) = (   0.0379955  -0.0279518   0.0000000), wk =   0.2500000
        k(    8) = (  -0.0759910  -0.0000099   0.0000000), wk =   0.1250000
        k(    9) = (  -0.0759910   0.0279468   0.0000000), wk =   0.2500000
        k(   10) = (  -0.0759910  -0.0559233   0.0000000), wk =   0.1250000

     Initial potential from superposition of free atoms

     starting charge  423.99908, renormalised to  442.00000

     negative rho (up, down):  3.646E-02 0.000E+00

     %%%%%%%%%%%%%%%%%%%%%%%%%%%%%%%%%%%%%%%%%%%%%%%%%%%%%%%%%%%%%%%%%%%%%%%%
     %                                                                      %
     % You are using vdW-DF, which was implemented by the Thonhauser group. %
     % Please cite the following two papers that made this development      %
     % possible and the two reviews that describe the various versions:     %
     %                                                                      %
     %   T. Thonhauser et al., PRL 115, 136402 (2015).                      %
     %   T. Thonhauser et al., PRB 76, 125112 (2007).                       %
     %   K. Berland et al., Rep. Prog. Phys. 78, 066501 (2015).             %
     %   D.C. Langreth et al., J. Phys.: Condens. Matter 21, 084203 (2009). %
     %                                                                      %
     %                                                                      %
     % If you are calculating the stress with vdW-DF, please also cite:     %
     %                                                                      %
     %   R. Sabatini et al., J. Phys.: Condens. Matter 24, 424209 (2012).   %
     %                                                                      %
     %%%%%%%%%%%%%%%%%%%%%%%%%%%%%%%%%%%%%%%%%%%%%%%%%%%%%%%%%%%%%%%%%%%%%%%%

     Adding external electric field

     Computed dipole along edir(3) :
        Dipole               -6.4271 Ry au,        -16.3360 Debye
        Dipole field         -0.0081 Ry au,

        Potential amp.        0.7495 Ry
        Total length         46.3494 bohr

     Starting wfcs are  334 atomic wfcs
  @ DRIVER MODE: Message from server: STATUS
  @ DRIVER MODE: Message from server: POSDATA
  @ DRIVER MODE: Reading and sharing cell
  @ DRIVER MODE: Reading and sharing positions
  @ DRIVER MODE: Received positions

     Self-consistent Calculation

     iteration #  1     ecut=    29.40 Ry     beta= 0.05
     Davidson diagonalization with overlap
     c_bands:  1 eigenvalues not converged
     c_bands:  2 eigenvalues not converged
     c_bands:  2 eigenvalues not converged
     c_bands:  2 eigenvalues not converged
     c_bands:  3 eigenvalues not converged
     c_bands:  5 eigenvalues not converged
     c_bands:  3 eigenvalues not converged
     c_bands:  2 eigenvalues not converged
     c_bands:  3 eigenvalues not converged
     ethr =  1.00E-05,  avg # of iterations = 19.8

[...]

     total energy              =   -3273.10044296 Ry
     estimated scf accuracy    <     292.41668655 Ry

[...]

     iteration #  4     ecut=    29.40 Ry     beta= 0.05
     Davidson diagonalization with overlap
     ethr =  2.68E-03,  avg # of iterations =  4.0

[...]

     iteration # 38     ecut=    29.40 Ry     beta= 0.05
     Davidson diagonalization with overlap
     c_bands:  1 eigenvalues not converged
     c_bands:  1 eigenvalues not converged
     ethr =  1.06E-06,  avg # of iterations = 15.9

[...]

     total energy              =   -3295.91270534 Ry
     estimated scf accuracy    <       0.00000014 Ry

     iteration # 61     ecut=    29.40 Ry     beta= 0.05
     Davidson diagonalization with overlap
     ethr =  1.83E-11,  avg # of iterations =  7.4

     negative rho (up, down):  3.470E-02 0.000E+00

     Adding external electric field

     Computed dipole along edir(3) :
        Dipole                1.8707 Ry au,          4.7549 Debye
        Dipole field          0.0024 Ry au,

        Potential amp.       -0.2182 Ry
        Total length         46.3494 bohr

     End of self-consistent calculation

          k = 0.0000 0.0000 0.0000 ( 26871 PWs)   bands (ev):

   -57.5933 -57.5531 -57.5295 -57.5235 -57.4934 -57.3941 -57.3866 -57.3657
   -57.3510 -57.3258 -57.2995 -57.2805 -57.2167 -57.1579 -57.0593 -56.5649
   -56.5398 -56.5388 -33.9742 -33.9346 -33.9301 -33.9040 -33.8860 -33.8674
   -33.8653 -33.8559 -33.8292 -33.8188 -33.8081 -33.7927 -33.7762 -33.7584
   -33.7482 -33.7344 -33.7201 -33.6874 -33.6796 -33.6757 -33.6664 -33.6516
   -33.6464 -33.6436 -33.6377 -33.6063 -33.5878 -33.5843 -33.5740 -33.5598
   -33.5566 -33.5508 -33.5366 -33.5353 -33.5322 -33.5180 -33.5137 -33.5002
   -33.4982 -33.4698 -33.4108 -33.3657 -33.3364 -33.3304 -33.2373 -32.8803
   -32.8780 -32.8764 -32.8637 -32.8626 -32.7908 -32.7268 -32.7257 -32.5906
   -18.3888 -18.0511 -17.8380 -17.7838 -17.7607 -17.6884 -17.6383 -17.6214
   -17.5542 -17.4984 -17.3698 -17.3261 -17.3228 -17.3136 -17.3061 -17.2377
   -17.2220 -17.2109 -17.2023 -17.1856 -17.1818 -17.1390 -17.0657 -17.0563
   -17.0154 -17.0012 -16.9807 -16.9781 -16.9301 -16.8778 -16.8674 -16.6734
   -16.6343 -16.4783 -15.0320 -14.9748 -14.9725  -7.7476  -7.7263  -7.5541
    -7.4598  -5.7125  -5.5301  -5.4650  -5.3705  -4.9983  -4.9406  -4.9263
    -4.9001  -4.8584  -4.8173  -4.8022  -4.7772  -4.7762  -4.7328  -4.6890
    -4.6635  -4.6440  -4.5440  -4.5074  -4.4690  -4.4389  -4.4328  -4.3813
    -4.3656  -4.3258  -4.3254  -4.2771  -4.2368  -4.2260  -4.2051  -4.1379
    -4.1198  -4.0155  -3.9277  -3.8694  -3.8623  -3.8217  -3.8083  -3.7627
    -3.7396  -3.7028  -3.6805  -3.6341  -3.6101  -3.5420  -3.4899  -3.3899
    -3.2935  -3.2667  -3.2405  -3.2185  -3.1732  -3.1202  -3.0005  -2.9600
    -2.9281  -2.9059  -2.8211  -2.8165  -2.7258  -2.7104  -2.6953  -2.6514
    -2.6011  -2.5854  -2.5513  -2.4346  -2.4139  -2.3216  -2.3121  -2.3101
    -2.2807  -2.2190  -2.2073  -2.1832  -2.1617  -2.1343  -2.1194  -2.0810
    -2.0774  -1.9787  -1.9574  -1.9009  -1.8783  -1.8775  -1.7796  -1.7616
    -1.7367  -1.7242  -1.6565  -1.5727  -1.4619  -1.4117  -1.3866  -1.3835
    -1.2843  -1.2559  -1.2130  -1.1319  -0.7967  -0.6000  -0.3130  -0.2688
    -0.2684  -0.0059  -0.0042   0.1244   1.4470   1.6623   1.6837   1.8757
     1.8979   1.9419   2.0283   2.0364   2.0982   2.1980   2.2142

[...]

          k = 0.0380-0.0280 0.0000 ( 26873 PWs)   bands (ev):

[...]

          k =-0.0760-0.0000 0.0000 ( 26902 PWs)   bands (ev):

[...]

          k =-0.0760-0.0559 0.0000 ( 26868 PWs)   bands (ev):

   -57.5932 -57.5469 -57.5415 -57.5176 -57.4935 -57.3917 -57.3865 -57.3705
   -57.3481 -57.3238 -57.3039 -57.2783 -57.2165 -57.1582 -57.0591 -56.5569
   -56.5558 -56.5308 -34.0256 -34.0136 -33.9171 -33.8919 -33.8820 -33.8773
   -33.8758 -33.8542 -33.8256 -33.8125 -33.7775 -33.7431 -33.7377 -33.7347
   -33.7229 -33.6958 -33.6922 -33.6875 -33.6820 -33.6790 -33.6416 -33.6354
   -33.6326 -33.6255 -33.6069 -33.6067 -33.6042 -33.6020 -33.5982 -33.5855
   -33.5782 -33.5701 -33.5686 -33.5593 -33.5387 -33.5265 -33.5224 -33.5145
   -33.4985 -33.4240 -33.4172 -33.3711 -33.3370 -33.3321 -33.2701 -32.9688
   -32.8794 -32.8784 -32.8546 -32.7699 -32.7688 -32.7047 -32.6882 -32.6869
   -18.0786 -18.0153 -17.7597 -17.7051 -17.6885 -17.6535 -17.6377 -17.5602
   -17.5400 -17.5252 -17.5035 -17.4653 -17.3855 -17.3362 -17.3343 -17.3275
   -17.2573 -17.2532 -17.2447 -17.2402 -17.1941 -17.1798 -17.1701 -17.1144
   -17.0361 -16.9665 -16.9538 -16.9469 -16.9079 -16.8929 -16.8419 -16.7072
   -16.6980 -16.4064 -15.0305 -15.0279 -14.9114  -7.7556  -7.7119  -7.5627
    -7.4593  -5.3354  -5.3051  -5.2757  -5.2113  -5.0204  -4.8607  -4.8299
    -4.8235  -4.7856  -4.7363  -4.7091  -4.7026  -4.6934  -4.6761  -4.6614
    -4.6134  -4.6092  -4.5837  -4.5109  -4.4698  -4.4650  -4.4461  -4.4320
    -4.4260  -4.3579  -4.2832  -4.2164  -4.1700  -4.1553  -4.1388  -4.0912
    -4.0547  -4.0251  -3.9812  -3.9713  -3.9029  -3.7958  -3.7112  -3.6713
    -3.6710  -3.6301  -3.5810  -3.5803  -3.4799  -3.4175  -3.3427  -3.2113
    -3.2046  -3.1919  -3.1673  -3.1532  -3.1151  -3.1034  -3.0790  -3.0278
    -3.0179  -2.9961  -2.9358  -2.8692  -2.7841  -2.7561  -2.7229  -2.7164
    -2.6923  -2.6808  -2.6531  -2.6504  -2.6160  -2.6073  -2.5531  -2.5260
    -2.4752  -2.4476  -2.4038  -2.3184  -2.3025  -2.2801  -2.1903  -2.1261
    -2.1104  -2.1045  -2.0753  -2.0276  -1.9310  -1.8366  -1.8017  -1.7573
    -1.6452  -1.6445  -1.6414  -1.6255  -1.5524  -1.5375  -1.3339  -1.3218
    -1.2619  -1.1872  -1.1476  -1.1119  -1.1095  -0.8922  -0.4817  -0.1983
    -0.1852  -0.1615  -0.0089  -0.0037   1.5932   1.6751   1.7100   1.7597
     1.7954   1.7987   1.8049   1.8683   1.9322   1.9419   2.1619

     the Fermi energy is     1.5313 ev

!    total energy              =   -3295.91274142 Ry
     estimated scf accuracy    <       0.00000003 Ry
     smearing contrib. (-TS)   =      -0.03397235 Ry
     internal energy E=F+TS    =   -3295.87876907 Ry

     The total energy is F=E-TS. E is the sum of the following terms:
     one-electron contribution =  -34427.57097115 Ry
     hartree contribution      =   17282.30842197 Ry
     xc contribution           =    -543.76456569 Ry
     ewald contribution        =   14393.14394305 Ry
     electric field correction =       0.00440274 Ry

     convergence has been achieved in  61 iterations

     Forces acting on atoms (cartesian axes, Ry/au):

     atom    1 type  1   force =     0.00001592    0.00450500    0.05616473
     atom    2 type  1   force =     0.00000010   -0.00095094   -0.00072336
     atom    3 type  1   force =    -0.00000917    0.00143305   -0.00041362
     atom    4 type  1   force =     0.00005869    0.00031234    0.10697384
     atom    5 type  1   force =     0.00000243    0.00080548    0.00980560
     atom    6 type  1   force =     0.00000578   -0.00263094    0.00103462
     atom    7 type  1   force =     0.06728383   -0.00023258   -0.02910675
     atom    8 type  1   force =     0.00475234   -0.02828029    0.00257768
     atom    9 type  1   force =     0.00734252   -0.00156174   -0.00301691
     atom   10 type  2   force =    -0.00005193   -0.00148378   -0.18423192
     atom   11 type  2   force =     0.00003727    0.02164327   -0.00779993
     atom   12 type  2   force =     0.00003220   -0.00266594    0.01236647
     atom   13 type  1   force =    -0.06738628   -0.00069477   -0.02907139
     atom   14 type  1   force =    -0.00477833   -0.02828133    0.00257761
     atom   15 type  1   force =    -0.00736414   -0.00156079   -0.00303229
     atom   16 type  2   force =     0.00009516    0.00012783    0.06630838
     atom   17 type  2   force =    -0.00001229    0.03587407    0.00370568
     atom   18 type  2   force =     0.00002116   -0.01057655   -0.00439605
     atom   19 type  1   force =     0.00001963    0.00444106    0.05988830
     atom   20 type  1   force =    -0.00000232    0.00082687   -0.00593405
     atom   21 type  1   force =     0.00005874    0.00018703    0.10720731
     atom   22 type  1   force =    -0.00000114   -0.00066430    0.00885725
     atom   23 type  1   force =    -0.00000620    0.00502073    0.00315224
     atom   24 type  1   force =     0.06803876    0.00051586   -0.02900423
     atom   25 type  1   force =     0.00341890   -0.02997031    0.00209194
     atom   26 type  1   force =     0.01009990    0.02029028    0.00206921
     atom   27 type  2   force =    -0.00005896    0.00003177   -0.18365382
     atom   28 type  2   force =     0.00003405    0.02158962   -0.00596790
     atom   29 type  2   force =     0.00001063   -0.02161835   -0.00605702
     atom   30 type  1   force =    -0.06813824    0.00006755   -0.02897219
     atom   31 type  1   force =    -0.00345129   -0.02995737    0.00209988
     atom   32 type  1   force =    -0.01012670    0.02029642    0.00206625
     atom   33 type  2   force =     0.00010260   -0.00025978    0.06932727
     atom   34 type  2   force =    -0.00001546    0.03687290    0.00370583
     atom   35 type  2   force =     0.00000381   -0.02924884    0.01036567
     atom   36 type  1   force =     0.00002593    0.00482180    0.05629894
     atom   37 type  1   force =    -0.00001039    0.00204991   -0.00518080
     atom   38 type  1   force =    -0.00000476    0.00416070   -0.00005841
     atom   39 type  1   force =     0.00005698    0.00002750    0.10681875
     atom   40 type  1   force =    -0.00000496   -0.00060714    0.00812357
     atom   41 type  1   force =     0.00000251    0.00065924    0.00249595
     atom   42 type  1   force =     0.06806097   -0.00121226   -0.02960049
     atom   43 type  1   force =     0.00353301   -0.02805406    0.00205914
     atom   44 type  1   force =     0.01056924    0.01131827    0.00281344
     atom   45 type  2   force =    -0.00006056   -0.00196811   -0.18353074
     atom   46 type  2   force =     0.00003433    0.01959547   -0.00655297
     atom   47 type  2   force =    -0.00000811   -0.01008706   -0.01261624
     atom   48 type  1   force =    -0.06815556   -0.00165267   -0.02956383
     atom   49 type  1   force =    -0.00354811   -0.02805547    0.00205709
     atom   50 type  1   force =    -0.01058920    0.01132130    0.00280154
     atom   51 type  2   force =     0.00009740   -0.00307838    0.06760624
     atom   52 type  2   force =    -0.00002124    0.03494518    0.00627845
     atom   53 type  2   force =     0.00000217    0.00508715    0.00129877
     atom   54 type  3   force =     0.00007799    0.00064175   -0.00244628
     atom   55 type  4   force =    -0.00000677   -0.00142728   -0.00039478
     atom   56 type  4   force =    -0.00130083    0.00057466    0.00022128
     atom   57 type  4   force =     0.00120220    0.00053445    0.00018460
     atom   58 type  3   force =     0.00010894    0.01139297   -0.00331326
     atom   59 type  4   force =    -0.00000333   -0.01430030    0.00547968
     atom   60 type  4   force =     0.00079924   -0.00042246   -0.00111104
     atom   61 type  4   force =    -0.00088905   -0.00046770   -0.00113293

     Total force =     0.455169     Total SCF correction =     0.000290
  @ DRIVER MODE: Message from server: STATUS
  @ DRIVER MODE: Message from server: GETFORCE
  @ DRIVER MODE: Returning v,forces,stress,ensemble

     Writing output data file ./calc.save/
  @ DRIVER MODE: Message from server: EXIT
  @ DRIVE MODE: Exiting

     General routines

     Parallel routines

   This run was terminated on:   4: 5:51  19Oct2021

   JOB DONE.