     Program PWSCF v.6.7GPU starts on 24Aug2021 at 18:57:46

     R & G space division:  proc/nbgrp/npool/nimage =      72
     Reading input from /storage/home/hcoda1/3/ntian30/research/carbon/CH2_vib/ads_slab/CH2NHH_a/out_0026/pw.inp
Warning: card &CELL ignored
Warning: card   CELL_DYNAMICS='IPI', ignored
Warning: card / ignored

     Current dimensions of program PWSCF are:
     Max number of different atomic species (ntypx) = 10
     Max number of k-points (npk) =  40000
     Max angular momentum in pseudopotentials (lmaxx) =  3
     Presently no symmetry can be used with electric field

     Message from routine cell_base_init:
     DEPRECATED: use true lattice parameter, not A to a.u. conversion factor

     IMPORTANT: XC functional enforced from input :
     Exchange-correlation= BEEF-VDW
                           (   1   4  43  14   2   0   0)
     Any further DFT definition will be discarded
     Please, verify this is what you really want

  @ DRIVER MODE: Connecting to
 qe_1139763_2641439.sched-torque.pace.gatech.edu41j4qy3a_scratch
  using UNIX socket
  @ DRIVER MODE: Message from server: STATUS
  @ DRIVER MODE: Message from server: INIT
  @ DRIVER MODE: Receiving replica           0          -1
  @ DRIVER MODE: Receiving encoded integer          25
  @ DRIVER MODE:  SCF:  T  FORCE:  T  STRESS:  F  VC:  F  ENSEMBLE:  F
  @ DRIVER MODE:  SCF:  T  FORCE:  T  STRESS:  F  VC:  F  ENSEMBLE:  F

     Using Slab Decomposition

     bravais-lattice index     =            0
     lattice parameter (alat)  =       1.8897  a.u.
     unit-cell volume          =    6658.9804 (a.u.)^3
     number of atoms/cell      =           53
     number of atomic types    =            5
     number of electrons       =       391.00
     number of Kohn-Sham states=          205
     kinetic-energy cutoff     =      29.3995  Ry
     charge density cutoff     =     293.9946  Ry
     scf convergence threshold =      7.3E-08
     mixing beta               =       0.0500
     number of iterations used =            8  plain     mixing
     Exchange-correlation= BEEF-VDW
                           (   1   4  43  14   2   0   0)

     celldm(1)=   1.889726  celldm(2)=   0.000000  celldm(3)=   0.000000
     celldm(4)=   0.000000  celldm(5)=   0.000000  celldm(6)=   0.000000

     crystal axes: (cart. coord. in units of alat)
               a(1) = (   6.579727   0.000000   0.000000 )
               a(2) = (  -0.000775   5.961596   0.000000 )
               a(3) = (   0.000000   0.000000  25.155947 )

     reciprocal axes: (cart. coord. in units 2 pi/alat)
               b(1) = (  0.151982  0.000020  0.000000 )
               b(2) = (  0.000000  0.167740  0.000000 )
               b(3) = (  0.000000  0.000000  0.039752 )

     PseudoPot. # 1 for Ti read from file:
     /storage/coda1/p-amedford6/0/shared/rich_project_chbe-medford/medford-share/data/pseudos_module/espresso/nninc/pbe/van/Ti.UPF
     MD5 check sum: 8e4df49b7f0d34bbd5052bf3f5ea0213
     Pseudo is Ultrasoft, Zval = 12.0
     Generated by new atomic code, or converted to UPF format
     Using radial grid of  851 points,  6 beta functions with:
                l(1) =   0
                l(2) =   0
                l(3) =   1
                l(4) =   1
                l(5) =   2
                l(6) =   2
     Q(r) pseudized with  8 coefficients,  rinner =    1.000   1.000   1.000
                                                       1.000   1.000

     PseudoPot. # 2 for O  read from file:
     /storage/coda1/p-amedford6/0/shared/rich_project_chbe-medford/medford-share/data/pseudos_module/espresso/nninc/pbe/van/O.UPF
     MD5 check sum: 78c19812648e8988a0fe644b0f25305e
     Pseudo is Ultrasoft, Zval =  6.0
     Generated by new atomic code, or converted to UPF format
     Using radial grid of  737 points,  4 beta functions with:
                l(1) =   0
                l(2) =   0
                l(3) =   1
                l(4) =   1
     Q(r) pseudized with  8 coefficients,  rinner =    0.800   0.800   0.800

     PseudoPot. # 3 for N  read from file:
     /storage/coda1/p-amedford6/0/shared/rich_project_chbe-medford/medford-share/data/pseudos_module/espresso/nninc/pbe/van/N.UPF
     MD5 check sum: 90d10febe142ad51ac9d5be1deb811c4
     Pseudo is Ultrasoft, Zval =  5.0
     Generated by new atomic code, or converted to UPF format
     Using radial grid of  729 points,  4 beta functions with:
                l(1) =   0
                l(2) =   0
                l(3) =   1
                l(4) =   1
     Q(r) pseudized with  8 coefficients,  rinner =    0.800   0.800   0.800

     PseudoPot. # 4 for C  read from file:
     /storage/coda1/p-amedford6/0/shared/rich_project_chbe-medford/medford-share/data/pseudos_module/espresso/nninc/pbe/van/C.UPF
     MD5 check sum: 1a69bf6b8db32088f5b2163dbdb77a27
     Pseudo is Ultrasoft, Zval =  4.0
     Generated by new atomic code, or converted to UPF format
     Using radial grid of  721 points,  4 beta functions with:
                l(1) =   0
                l(2) =   0
                l(3) =   1
                l(4) =   1
     Q(r) pseudized with  8 coefficients,  rinner =    0.800   0.800   0.800

     PseudoPot. # 5 for H  read from file:
     /storage/coda1/p-amedford6/0/shared/rich_project_chbe-medford/medford-share/data/pseudos_module/espresso/nninc/pbe/van/H.UPF
     MD5 check sum: b5ee9d7bfd3a09ee7748110bda690ff7
     Pseudo is Ultrasoft, Zval =  1.0
     Generated by new atomic code, or converted to UPF format
     Using radial grid of  615 points,  1 beta functions with:
                l(1) =   0
     Q(r) pseudized with  8 coefficients,  rinner =    0.800

     atomic species   valence    mass     pseudopotential
        Ti1           12.00    47.86700     Ti( 1.00)
        O1             6.00    15.99900     O ( 1.00)
        N1             5.00    14.00700     N ( 1.00)
        C1             4.00    12.01100     C ( 1.00)
        H1             1.00     1.00800     H ( 1.00)

     No symmetry found

   Cartesian axes

     site n.     atom                  positions (alat units)
         1           Ti1 tau(   1) = (   0.0004258   2.9801865   6.0000000  )
         2           Ti1 tau(   2) = (   3.2906075   1.4906267   6.0002472  )
         3           O1  tau(   3) = (   0.0006271   0.0005054   7.9858123  )
         4           O1  tau(   4) = (   3.2906025   0.0005020   7.3038282  )
         5           O1  tau(   5) = (   4.5942328   1.4918067   9.2879030  )
         6           O1  tau(   6) = (   1.9868534   1.4903216   9.2879459  )
         7           Ti1 tau(   7) = (   3.2907910   2.8959150   9.1758416  )
         8           Ti1 tau(   8) = (   0.0015273   1.4827037   9.2680791  )
         9           O1  tau(   9) = (   3.2941312   5.9515177  11.3840049  )
        10           O1  tau(  10) = (   0.0116148   5.9584955  10.6183126  )
        11           O1  tau(  11) = (   1.2915503   1.4777401  12.6967708  )
        12           O1  tau(  12) = (   5.3002239   1.4803738  12.6794006  )
        13           Ti1 tau(  13) = (   0.0161863   2.9610389  12.5056540  )
        14           Ti1 tau(  14) = (   3.3199580   1.4690355  12.5397617  )
        15           O1  tau(  15) = (   6.5577523   5.8663973  14.6994336  )
        16           O1  tau(  16) = (   3.3105950   5.9380289  14.0083265  )
        17           O1  tau(  17) = (   4.5355139   1.5078041  16.1868020  )
        18           O1  tau(  18) = (   2.0231344   1.4922588  16.1350940  )
        19           Ti1 tau(  19) = (   3.2781988   2.9761027  15.7713632  )
        20           Ti1 tau(  20) = (   0.0162001   1.2772015  15.8797579  )
        21           O1  tau(  21) = (   3.2904802   0.0005063   4.7018136  )
        22           O1  tau(  22) = (   6.5682446   0.1140876  17.2519115  )
        23           O1  tau(  23) = (   1.3043587   1.4918075   6.0039043  )
        24           O1  tau(  24) = (   5.2767064   1.4903225   6.0039473  )
        25           Ti1 tau(  25) = (   0.0000382   5.9609847   6.0000000  )
        26           Ti1 tau(  26) = (   3.2902200   4.4714249   6.0002472  )
        27           O1  tau(  27) = (   0.0002396   2.9813036   7.9858123  )
        28           O1  tau(  28) = (   3.2902150   2.9813002   7.3038282  )
        29           O1  tau(  29) = (   4.5938453   4.4726049   9.2879030  )
        30           O1  tau(  30) = (   1.9864658   4.4711199   9.2879459  )
        31           Ti1 tau(  31) = (   3.2891106   5.8743827   9.1763621  )
        32           Ti1 tau(  32) = (   0.0006254   4.4649316   9.2693709  )
        33           O1  tau(  33) = (   3.2958891   2.9587481  11.3780895  )
        34           O1  tau(  34) = (   0.0092240   2.9805883  10.6323155  )
        35           O1  tau(  35) = (   1.2947421   4.4484190  12.6652604  )
        36           O1  tau(  36) = (   5.2996063   4.4466420  12.6515021  )
        37           Ti1 tau(  37) = (   0.0283143   5.9336383  12.5061025  )
        38           Ti1 tau(  38) = (   3.3214233   4.4478814  12.5310514  )
        39           O1  tau(  39) = (   6.5589476   3.0029366  14.9874712  )
        40           O1  tau(  40) = (   3.3011147   2.9794859  13.9794371  )
        41           O1  tau(  41) = (   4.5155863   4.4560770  16.2359875  )
        42           O1  tau(  42) = (   2.0187475   4.4548860  16.2131175  )
        43           Ti1 tau(  43) = (   3.3138217   5.9556645  15.8088081  )
        44           Ti1 tau(  44) = (   0.0451788   4.5003401  16.0524233  )
        45           O1  tau(  45) = (   3.2900926   2.9813045   4.7018136  )
        46           O1  tau(  46) = (   1.3039711   4.4726057   6.0039043  )
        47           O1  tau(  47) = (   5.2763189   4.4711207   6.0039473  )
        48           N1  tau(  48) = (   6.2013940   3.4221407  18.2524812  )
        49           C1  tau(  49) = (   0.6861764   3.1362451  19.0985974  )
        50           H1  tau(  50) = (   1.2250757   3.9700495  19.5149693  )
        51           H1  tau(  51) = (   1.1126790   2.1486344  19.0481404  )
        52           H1  tau(  52) = (   5.7134377   4.2789310  18.4761913  )
        53           H1  tau(  53) = (   5.5430662   2.6552022  18.1284619  )

     number of k points=    10  Fermi-Dirac smearing, width (Ry)=  0.0073
                       cart. coord. in units 2pi/alat
        k(    1) = (   0.0000000   0.0000000   0.0000000), wk =   0.1250000
        k(    2) = (   0.0000000   0.0419351   0.0000000), wk =   0.2500000
        k(    3) = (   0.0000000  -0.0838702   0.0000000), wk =   0.1250000
        k(    4) = (   0.0379955   0.0000049   0.0000000), wk =   0.2500000
        k(    5) = (   0.0379955   0.0419400   0.0000000), wk =   0.2500000
        k(    6) = (   0.0379955  -0.0838652   0.0000000), wk =   0.2500000
        k(    7) = (   0.0379955  -0.0419301   0.0000000), wk =   0.2500000
        k(    8) = (  -0.0759910  -0.0000099   0.0000000), wk =   0.1250000
        k(    9) = (  -0.0759910   0.0419252   0.0000000), wk =   0.2500000
        k(   10) = (  -0.0759910  -0.0838800   0.0000000), wk =   0.1250000

     Initial potential from superposition of free atoms

     starting charge  374.99916, renormalised to  391.00000

     negative rho (up, down):  1.685E-02 0.000E+00

     %%%%%%%%%%%%%%%%%%%%%%%%%%%%%%%%%%%%%%%%%%%%%%%%%%%%%%%%%%%%%%%%%%%%%%%%
     %                                                                      %
     % You are using vdW-DF, which was implemented by the Thonhauser group. %
     % Please cite the following two papers that made this development      %
     % possible and the two reviews that describe the various versions:     %
     %                                                                      %
     %   T. Thonhauser et al., PRL 115, 136402 (2015).                      %
     %   T. Thonhauser et al., PRB 76, 125112 (2007).                       %
     %   K. Berland et al., Rep. Prog. Phys. 78, 066501 (2015).             %
     %   D.C. Langreth et al., J. Phys.: Condens. Matter 21, 084203 (2009). %
     %                                                                      %
     %                                                                      %
     % If you are calculating the stress with vdW-DF, please also cite:     %
     %                                                                      %
     %   R. Sabatini et al., J. Phys.: Condens. Matter 24, 424209 (2012).   %
     %                                                                      %
     %%%%%%%%%%%%%%%%%%%%%%%%%%%%%%%%%%%%%%%%%%%%%%%%%%%%%%%%%%%%%%%%%%%%%%%%

     Adding external electric field

     Computed dipole along edir(3) :
        Dipole               -6.9321 Ry au,        -17.6197 Debye
        Dipole field         -0.0131 Ry au,

        Potential amp.        1.2127 Ry
        Total length         46.3494 bohr

     Starting wfcs are  296 atomic wfcs
  @ DRIVER MODE: Message from server: STATUS
  @ DRIVER MODE: Message from server: POSDATA
  @ DRIVER MODE: Reading and sharing cell
  @ DRIVER MODE: Reading and sharing positions
  @ DRIVER MODE: Received positions

     Self-consistent Calculation

     iteration #  1     ecut=    29.40 Ry     beta= 0.05
     Davidson diagonalization with overlap
     c_bands:  1 eigenvalues not converged
     ethr =  1.00E-05,  avg # of iterations = 15.4

[...]

     total energy              =   -2713.43945754 Ry
     estimated scf accuracy    <    2282.63631998 Ry

[...]

     iteration #  3     ecut=    29.40 Ry     beta= 0.05
     Davidson diagonalization with overlap
     ethr =  1.00E-02,  avg # of iterations = 15.8

[...]

     iteration # 73     ecut=    29.40 Ry     beta= 0.05
     Davidson diagonalization with overlap
     ethr =  4.05E-11,  avg # of iterations =  8.3

[...]

     total energy              =   -2920.25693638 Ry
     estimated scf accuracy    <       0.00000016 Ry

     iteration # 74     ecut=    29.40 Ry     beta= 0.05
     Davidson diagonalization with overlap
     c_bands:  1 eigenvalues not converged
     ethr =  4.05E-11,  avg # of iterations = 11.3

     negative rho (up, down):  1.610E-02 0.000E+00

     Adding external electric field

     Computed dipole along edir(3) :
        Dipole                0.8936 Ry au,          2.2713 Debye
        Dipole field          0.0017 Ry au,

        Potential amp.       -0.1563 Ry
        Total length         46.3494 bohr

     End of self-consistent calculation

          k = 0.0000 0.0000 0.0000 ( 18029 PWs)   bands (ev):

   -55.7223 -55.6864 -55.6741 -55.6400 -55.6116 -55.6025 -55.5681 -55.5466
   -55.5387 -55.5122 -55.5056 -55.4720 -55.4653 -55.3052 -54.7062 -54.6722
   -32.2876 -32.1671 -32.0905 -32.0579 -32.0430 -32.0356 -32.0322 -32.0117
   -31.9630 -31.9572 -31.9342 -31.9284 -31.9190 -31.8913 -31.8759 -31.8740
   -31.8611 -31.8499 -31.8421 -31.8267 -31.8212 -31.7885 -31.7811 -31.7772
   -31.7490 -31.7454 -31.7346 -31.7313 -31.7254 -31.7211 -31.7051 -31.7033
   -31.6951 -31.6922 -31.6720 -31.6600 -31.6575 -31.6429 -31.6336 -31.6172
   -31.5257 -31.4731 -31.1158 -31.0211 -30.9991 -30.9321 -30.8453 -30.7344
   -16.6882 -16.5306 -16.2740 -16.1141 -16.0187 -15.9221 -15.7907 -15.7629
   -15.6468 -15.5702 -15.4286 -15.3982 -15.3824 -15.3607 -15.3435 -15.3309
   -15.2700 -15.2639 -15.2440 -15.2185 -15.2152 -15.1683 -15.1636 -15.1232
   -15.0991 -15.0460 -14.9685 -14.8841 -14.8112 -14.4908 -13.2090 -13.0915
    -9.5218  -6.8956  -4.9398  -3.8867  -3.7433  -3.6748  -3.6249  -3.6160
    -3.4747  -3.3006  -3.1583  -3.1401  -3.0958  -2.9953  -2.9275  -2.9136
    -2.8891  -2.7482  -2.7342  -2.6802  -2.6524  -2.5752  -2.5704  -2.5274
    -2.5084  -2.4738  -2.4695  -2.4395  -2.3007  -2.2927  -2.2530  -2.1908
    -2.1318  -2.1287  -2.0736  -2.0544  -2.0131  -2.0038  -1.9951  -1.9517
    -1.9473  -1.9134  -1.8186  -1.7481  -1.6209  -1.5846  -1.4421  -1.3637
    -1.3160  -1.2957  -1.2150  -1.2079  -1.1484  -1.1036  -1.1016  -1.0614
    -0.9499  -0.8684  -0.8159  -0.7583  -0.7247  -0.7079  -0.6230  -0.5259
    -0.5021  -0.4895  -0.4540  -0.3538  -0.3287  -0.2678  -0.2037  -0.1914
    -0.1785  -0.0939  -0.0560   0.0166   0.0664   0.0863   0.1636   0.1856
     0.2094   0.2153   0.2460   0.2618   0.3332   0.3526   0.3776   0.4650
     0.5857   0.8277   0.8868   0.8953   1.2157   1.2207   1.3163   1.4995
     1.8929   1.9413   3.3706   3.3883   3.4523   3.5206   3.5243   3.5864
     3.6113   3.8578   3.8771   3.8852   3.9027

[...]

          k = 0.0380-0.0419 0.0000 ( 17876 PWs)   bands (ev):

[...]

          k =-0.0760-0.0000 0.0000 ( 17886 PWs)   bands (ev):

[...]

          k =-0.0760-0.0839 0.0000 ( 17948 PWs)   bands (ev):

   -55.7057 -55.7028 -55.6571 -55.6569 -55.6073 -55.5860 -55.5845 -55.5428
   -55.5311 -55.5273 -55.4892 -55.4886 -55.4632 -55.3072 -54.6893 -54.6890
   -32.0933 -32.0908 -32.0000 -31.9822 -31.9822 -31.9791 -31.9698 -31.9483
   -31.9483 -31.9321 -31.9255 -31.9185 -31.9140 -31.8746 -31.8663 -31.8633
   -31.8591 -31.8542 -31.8499 -31.8450 -31.8313 -31.8122 -31.8004 -31.7995
   -31.7812 -31.7773 -31.7769 -31.7765 -31.7641 -31.7602 -31.7438 -31.7419
   -31.7398 -31.7304 -31.7222 -31.7194 -31.6861 -31.6694 -31.6690 -31.6507
   -31.5653 -31.5278 -31.0119 -31.0116 -30.9284 -30.9281 -30.8887 -30.8886
   -16.6572 -16.0388 -15.9458 -15.9078 -15.7600 -15.7223 -15.6871 -15.6748
   -15.5524 -15.5262 -15.5006 -15.4796 -15.4442 -15.4281 -15.4210 -15.3730
   -15.3416 -15.3222 -15.3165 -15.3044 -15.2415 -15.2336 -15.2297 -15.2227
   -15.1733 -15.1697 -15.0788 -15.0759 -15.0636 -14.7765 -13.1930 -13.1929
    -9.5233  -6.8780  -4.9207  -3.2156  -3.1944  -3.1610  -3.1367  -2.9786
    -2.9106  -2.8976  -2.8747  -2.7977  -2.7563  -2.7350  -2.6941  -2.6834
    -2.6309  -2.6044  -2.5769  -2.5610  -2.5564  -2.5399  -2.5190  -2.4848
    -2.4560  -2.4531  -2.4426  -2.4023  -2.3753  -2.3613  -2.3274  -2.3178
    -2.3102  -2.2808  -2.2214  -2.1152  -2.0911  -2.0592  -1.9649  -1.9315
    -1.9267  -1.8465  -1.8162  -1.7580  -1.7549  -1.7439  -1.5975  -1.5153
    -1.4721  -1.4695  -1.4475  -1.3204  -1.3111  -1.2264  -1.2040  -1.1944
    -1.1072  -1.0810  -1.0432  -1.0178  -0.9353  -0.9100  -0.8442  -0.7559
    -0.7196  -0.7116  -0.6800  -0.6772  -0.6281  -0.6166  -0.5355  -0.4932
    -0.4570  -0.4468  -0.4058  -0.2212  -0.2041  -0.1612  -0.0326   0.0124
     0.1453   0.1627   0.2273   0.3040   0.3363   0.3903   0.4264   0.5724
     0.5823   0.6143   0.6590   0.6685   0.7281   0.7373   1.6725   1.6732
     1.7612   1.7614   3.3925   3.6192   3.6259   3.6650   3.6878   3.8403
     3.8911   3.9291   3.9546   3.9598   3.9754

     the Fermi energy is     3.4385 ev

!    total energy              =   -2920.25694791 Ry
     estimated scf accuracy    <       0.00000003 Ry
     smearing contrib. (-TS)   =      -0.04300883 Ry
     internal energy E=F+TS    =   -2920.21393909 Ry

     The total energy is F=E-TS. E is the sum of the following terms:
     one-electron contribution =  -24044.06892634 Ry
     hartree contribution      =   12108.16528158 Ry
     xc contribution           =    -480.86131964 Ry
     ewald contribution        =    9496.54951841 Ry
     electric field correction =       0.00150690 Ry

     convergence has been achieved in  74 iterations

     Forces acting on atoms (cartesian axes, Ry/au):

     atom    1 type  1   force =     0.00008636   -0.00016523    0.09316390
     atom    2 type  1   force =    -0.00019937   -0.00024921   -0.17848678
     atom    3 type  2   force =     0.00003795   -0.00036718   -0.02007654
     atom    4 type  2   force =    -0.00001948   -0.00199530    0.05917716
     atom    5 type  2   force =    -0.01040225   -0.00114081    0.00790601
     atom    6 type  2   force =     0.01196195   -0.00052301    0.00733049
     atom    7 type  1   force =    -0.00041606    0.00230388   -0.01384796
     atom    8 type  1   force =     0.00003955   -0.00144584   -0.00477704
     atom    9 type  2   force =     0.00000341   -0.00028764   -0.00033681
     atom   10 type  2   force =    -0.00082752    0.00065940    0.00152235
     atom   11 type  2   force =     0.00009942   -0.00003661    0.00025390
     atom   12 type  2   force =    -0.00007545    0.00009004    0.00033965
     atom   13 type  1   force =    -0.00057289    0.00062403   -0.00011153
     atom   14 type  1   force =     0.00025957    0.00021503    0.00009488
     atom   15 type  2   force =    -0.00017350    0.00055409    0.00041882
     atom   16 type  2   force =    -0.00016400   -0.00006320   -0.00009858
     atom   17 type  2   force =    -0.00010260   -0.00004739   -0.00001641
     atom   18 type  2   force =    -0.00021017   -0.00014325   -0.00045137
     atom   19 type  1   force =    -0.00002686    0.00011057   -0.00010286
     atom   20 type  1   force =    -0.00006353   -0.00007912   -0.00022313
     atom   21 type  2   force =     0.00001208   -0.00001511    0.10397371
     atom   22 type  2   force =    -0.00002033    0.00031515    0.00081132
     atom   23 type  2   force =    -0.07039134   -0.00010492   -0.02689493
     atom   24 type  2   force =     0.07020594    0.00032520   -0.02695392
     atom   25 type  1   force =    -0.00001180   -0.00012288    0.09255255
     atom   26 type  1   force =    -0.00017742   -0.00038842   -0.17853050
     atom   27 type  2   force =     0.00009511   -0.00026878   -0.01916157
     atom   28 type  2   force =     0.00002841   -0.00176262    0.05849835
     atom   29 type  2   force =    -0.01089243   -0.00133021    0.00844185
     atom   30 type  2   force =     0.01234653   -0.00099019    0.00779246
     atom   31 type  1   force =    -0.00022678    0.00598444   -0.01472310
     atom   32 type  1   force =     0.00005776    0.00099150   -0.00536094
     atom   33 type  2   force =    -0.00030712    0.00024302    0.00015814
     atom   34 type  2   force =    -0.00022305   -0.00291123    0.00010900
     atom   35 type  2   force =     0.00060093    0.00021657   -0.00003683
     atom   36 type  2   force =    -0.00064900    0.00017634   -0.00026398
     atom   37 type  1   force =    -0.00055098   -0.00047403   -0.00009111
     atom   38 type  1   force =     0.00016839   -0.00050086    0.00011388
     atom   39 type  2   force =     0.00003780   -0.00025101    0.00038780
     atom   40 type  2   force =    -0.00000970    0.00045177   -0.00057281
     atom   41 type  2   force =    -0.00004658    0.00048099   -0.00021804
     atom   42 type  2   force =     0.00006243    0.00055287   -0.00012322
     atom   43 type  1   force =    -0.00007147    0.00027425   -0.00065741
     atom   44 type  1   force =    -0.00050743   -0.00024204   -0.00015369
     atom   45 type  2   force =     0.00000369   -0.00002582    0.10394402
     atom   46 type  2   force =    -0.07036720   -0.00005172   -0.02686149
     atom   47 type  2   force =     0.07020257    0.00037766   -0.02691041
     atom   48 type  3   force =     0.00440551   -0.00597564   -0.00078988
     atom   49 type  4   force =     0.00175765   -0.00121247   -0.00114732
     atom   50 type  5   force =     0.00023821   -0.00010541   -0.00052013
     atom   51 type  5   force =    -0.00019889    0.00062517    0.00019548
     atom   52 type  5   force =    -0.00476844    0.00571215    0.00122858
     atom   53 type  5   force =    -0.00003758    0.00199302    0.00008600

     Total force =     0.366571     Total SCF correction =     0.000378
  @ DRIVER MODE: Message from server: STATUS
  @ DRIVER MODE: Message from server: GETFORCE
  @ DRIVER MODE: Returning v,forces,stress,ensemble

     Writing output data file ./calc.save/
  @ DRIVER MODE: Message from server: EXIT
  @ DRIVE MODE: Exiting

     General routines

     Parallel routines

   This run was terminated on:  19:17:46  24Aug2021

   JOB DONE.