     Program PWSCF v.6.7GPU starts on 27Sep2021 at 14:34:41

     R & G space division:  proc/nbgrp/npool/nimage =       8
     Reading input from /storage/home/hcoda1/3/ntian30/research/carbon/CxH_vib/CH_calc/ads_slab/CHONHNH_a/out_0041/pw.inp
Warning: card &CELL ignored
Warning: card   CELL_DYNAMICS='IPI', ignored
Warning: card / ignored

     Current dimensions of program PWSCF are:
     Max number of different atomic species (ntypx) = 10
     Max number of k-points (npk) =  40000
     Max angular momentum in pseudopotentials (lmaxx) =  3
     Presently no symmetry can be used with electric field

     Message from routine cell_base_init:
     DEPRECATED: use true lattice parameter, not A to a.u. conversion factor

     IMPORTANT: XC functional enforced from input :
     Exchange-correlation= BEEF-VDW
                           (   1   4  43  14   2   0   0)
     Any further DFT definition will be discarded
     Please, verify this is what you really want

  @ DRIVER MODE: Connecting to
 qe_1139763_2982671.sched-torque.pace.gatech.edun3i2qwgv_scratch
  using UNIX socket
  @ DRIVER MODE: Message from server: STATUS
  @ DRIVER MODE: Message from server: INIT
  @ DRIVER MODE: Receiving replica           0          -1
  @ DRIVER MODE: Receiving encoded integer          25
  @ DRIVER MODE:  SCF:  T  FORCE:  T  STRESS:  F  VC:  F  ENSEMBLE:  F
  @ DRIVER MODE:  SCF:  T  FORCE:  T  STRESS:  F  VC:  F  ENSEMBLE:  F

     Using Slab Decomposition

     bravais-lattice index     =            0
     lattice parameter (alat)  =       1.8897  a.u.
     unit-cell volume          =    6658.9804 (a.u.)^3
     number of atoms/cell      =           54
     number of atomic types    =            5
     number of electrons       =       401.00
     number of Kohn-Sham states=          210
     kinetic-energy cutoff     =      29.3995  Ry
     charge density cutoff     =     293.9946  Ry
     scf convergence threshold =      7.3E-08
     mixing beta               =       0.0500
     number of iterations used =            8  plain     mixing
     Exchange-correlation= BEEF-VDW
                           (   1   4  43  14   2   0   0)

     celldm(1)=   1.889726  celldm(2)=   0.000000  celldm(3)=   0.000000
     celldm(4)=   0.000000  celldm(5)=   0.000000  celldm(6)=   0.000000

     crystal axes: (cart. coord. in units of alat)
               a(1) = (   6.579727   0.000000   0.000000 )
               a(2) = (  -0.000775   5.961596   0.000000 )
               a(3) = (   0.000000   0.000000  25.155947 )

     reciprocal axes: (cart. coord. in units 2 pi/alat)
               b(1) = (  0.151982  0.000020  0.000000 )
               b(2) = (  0.000000  0.167740  0.000000 )
               b(3) = (  0.000000  0.000000  0.039752 )

     PseudoPot. # 1 for O  read from file:
     /storage/coda1/p-amedford6/0/shared/rich_project_chbe-medford/medford-share/data/pseudos_module/espresso/nninc/pbe/van/O.UPF
     MD5 check sum: 78c19812648e8988a0fe644b0f25305e
     Pseudo is Ultrasoft, Zval =  6.0
     Generated by new atomic code, or converted to UPF format
     Using radial grid of  737 points,  4 beta functions with:
                l(1) =   0
                l(2) =   0
                l(3) =   1
                l(4) =   1
     Q(r) pseudized with  8 coefficients,  rinner =    0.800   0.800   0.800

     PseudoPot. # 2 for Ti read from file:
     /storage/coda1/p-amedford6/0/shared/rich_project_chbe-medford/medford-share/data/pseudos_module/espresso/nninc/pbe/van/Ti.UPF
     MD5 check sum: 8e4df49b7f0d34bbd5052bf3f5ea0213
     Pseudo is Ultrasoft, Zval = 12.0
     Generated by new atomic code, or converted to UPF format
     Using radial grid of  851 points,  6 beta functions with:
                l(1) =   0
                l(2) =   0
                l(3) =   1
                l(4) =   1
                l(5) =   2
                l(6) =   2
     Q(r) pseudized with  8 coefficients,  rinner =    1.000   1.000   1.000
                                                       1.000   1.000

     PseudoPot. # 3 for N  read from file:
     /storage/coda1/p-amedford6/0/shared/rich_project_chbe-medford/medford-share/data/pseudos_module/espresso/nninc/pbe/van/N.UPF
     MD5 check sum: 90d10febe142ad51ac9d5be1deb811c4
     Pseudo is Ultrasoft, Zval =  5.0
     Generated by new atomic code, or converted to UPF format
     Using radial grid of  729 points,  4 beta functions with:
                l(1) =   0
                l(2) =   0
                l(3) =   1
                l(4) =   1
     Q(r) pseudized with  8 coefficients,  rinner =    0.800   0.800   0.800

     PseudoPot. # 4 for C  read from file:
     /storage/coda1/p-amedford6/0/shared/rich_project_chbe-medford/medford-share/data/pseudos_module/espresso/nninc/pbe/van/C.UPF
     MD5 check sum: 1a69bf6b8db32088f5b2163dbdb77a27
     Pseudo is Ultrasoft, Zval =  4.0
     Generated by new atomic code, or converted to UPF format
     Using radial grid of  721 points,  4 beta functions with:
                l(1) =   0
                l(2) =   0
                l(3) =   1
                l(4) =   1
     Q(r) pseudized with  8 coefficients,  rinner =    0.800   0.800   0.800

     PseudoPot. # 5 for H  read from file:
     /storage/coda1/p-amedford6/0/shared/rich_project_chbe-medford/medford-share/data/pseudos_module/espresso/nninc/pbe/van/H.UPF
     MD5 check sum: b5ee9d7bfd3a09ee7748110bda690ff7
     Pseudo is Ultrasoft, Zval =  1.0
     Generated by new atomic code, or converted to UPF format
     Using radial grid of  615 points,  1 beta functions with:
                l(1) =   0
     Q(r) pseudized with  8 coefficients,  rinner =    0.800

     atomic species   valence    mass     pseudopotential
        O1             6.00    15.99900     O ( 1.00)
        Ti1           12.00    47.86700     Ti( 1.00)
        N1             5.00    14.00700     N ( 1.00)
        C1             4.00    12.01100     C ( 1.00)
        H1             1.00     1.00800     H ( 1.00)

     No symmetry found

   Cartesian axes

     site n.     atom                  positions (alat units)
         1           O1  tau(   1) = (   3.2904802   0.0005063   4.7018136  )
         2           O1  tau(   2) = (   3.2900926   2.9813045   4.7018136  )
         3           Ti1 tau(   3) = (   0.0004258   2.9801865   6.0000000  )
         4           Ti1 tau(   4) = (   0.0000382   5.9609847   6.0000000  )
         5           Ti1 tau(   5) = (   3.2906075   1.4906267   6.0002472  )
         6           Ti1 tau(   6) = (   3.2902200   4.4714249   6.0002472  )
         7           O1  tau(   7) = (   1.3043587   1.4918075   6.0039043  )
         8           O1  tau(   8) = (   1.3039711   4.4726057   6.0039043  )
         9           O1  tau(   9) = (   5.2767064   1.4903225   6.0039473  )
        10           O1  tau(  10) = (   5.2763189   4.4711207   6.0039473  )
        11           O1  tau(  11) = (   3.2906025   0.0005020   7.3038282  )
        12           O1  tau(  12) = (   3.2902150   2.9813002   7.3038282  )
        13           O1  tau(  13) = (   0.0006271   0.0005054   7.9858123  )
        14           O1  tau(  14) = (   0.0002396   2.9813036   7.9858123  )
        15           Ti1 tau(  15) = (   3.2907910   2.8959150   9.1758416  )
        16           Ti1 tau(  16) = (   3.2891106   5.8743827   9.1763621  )
        17           Ti1 tau(  17) = (   0.0015273   1.4827037   9.2680791  )
        18           Ti1 tau(  18) = (   0.0006254   4.4649316   9.2693709  )
        19           O1  tau(  19) = (   4.5942328   1.4918067   9.2879030  )
        20           O1  tau(  20) = (   4.5938453   4.4726049   9.2879030  )
        21           O1  tau(  21) = (   1.9868534   1.4903216   9.2879459  )
        22           O1  tau(  22) = (   1.9864658   4.4711199   9.2879459  )
        23           O1  tau(  23) = (   0.0116148   5.9584955  10.6183126  )
        24           O1  tau(  24) = (   0.0092240   2.9805883  10.6323155  )
        25           O1  tau(  25) = (   3.2531556   2.9620241  11.3322950  )
        26           O1  tau(  26) = (   3.2474763   5.9435521  11.3438280  )
        27           Ti1 tau(  27) = (   3.3237694   4.3814390  12.5572636  )
        28           Ti1 tau(  28) = (   0.0094504   0.0092305  12.5172013  )
        29           Ti1 tau(  29) = (   3.3224445   1.4452456  12.4745429  )
        30           Ti1 tau(  30) = (   0.0090234   2.9988230  12.5821063  )
        31           O1  tau(  31) = (   5.2496676   1.4726344  12.6006421  )
        32           O1  tau(  32) = (   5.2531746   4.4496067  12.6010712  )
        33           O1  tau(  33) = (   1.2410339   1.4659728  12.6671891  )
        34           O1  tau(  34) = (   1.2387123   4.4686174  12.6665250  )
        35           O1  tau(  35) = (   3.3067986   5.9564546  13.9007842  )
        36           O1  tau(  36) = (   3.2420318   3.0005841  13.9279729  )
        37           O1  tau(  37) = (   6.4209026   5.9439257  14.7021623  )
        38           O1  tau(  38) = (   6.4587925   2.9577525  14.6988961  )
        39           Ti1 tau(  39) = (   3.2423495   0.0283394  15.6829305  )
        40           Ti1 tau(  40) = (   6.4236859   1.5154006  15.7784978  )
        41           Ti1 tau(  41) = (   3.0799157   3.0146384  15.8599260  )
        42           O1  tau(  42) = (   1.9357555   1.4358950  15.9107064  )
        43           O1  tau(  43) = (   1.9271111   4.5447382  15.9660097  )
        44           Ti1 tau(  44) = (   6.4519450   4.6669281  16.1370820  )
        45           O1  tau(  45) = (   4.4443926   1.5071054  16.1134243  )
        46           O1  tau(  46) = (   4.4397279   4.4733020  16.1527106  )
        47           O1  tau(  47) = (   6.5167551   0.0277669  17.2715591  )
        48           N1  tau(  48) = (   0.3759035   2.6095042  18.6336219  )
        49           C1  tau(  49) = (   2.8136782   2.9081565  18.1516972  )
        50           H1  tau(  50) = (   0.1656462   1.5987175  18.7006542  )
        51           N1  tau(  51) = (   1.8163940   2.6652851  18.9293397  )
        52           H1  tau(  52) = (   3.7261332   2.9868749  18.7514029  )
        53           H1  tau(  53) = (   1.8928842   2.5952305  19.9427491  )
        54           O1  tau(  54) = (   0.0982553   2.9165792  17.3065359  )

     number of k points=    10  Fermi-Dirac smearing, width (Ry)=  0.0073
                       cart. coord. in units 2pi/alat
        k(    1) = (   0.0000000   0.0000000   0.0000000), wk =   0.1250000
        k(    2) = (   0.0000000   0.0419351   0.0000000), wk =   0.2500000
        k(    3) = (   0.0000000  -0.0838702   0.0000000), wk =   0.1250000
        k(    4) = (   0.0379955   0.0000049   0.0000000), wk =   0.2500000
        k(    5) = (   0.0379955   0.0419400   0.0000000), wk =   0.2500000
        k(    6) = (   0.0379955  -0.0838652   0.0000000), wk =   0.2500000
        k(    7) = (   0.0379955  -0.0419301   0.0000000), wk =   0.2500000
        k(    8) = (  -0.0759910  -0.0000099   0.0000000), wk =   0.1250000
        k(    9) = (  -0.0759910   0.0419252   0.0000000), wk =   0.2500000
        k(   10) = (  -0.0759910  -0.0838800   0.0000000), wk =   0.1250000

     Initial potential from superposition of free atoms

     starting charge  384.99916, renormalised to  401.00000

     negative rho (up, down):  1.631E-02 0.000E+00

     %%%%%%%%%%%%%%%%%%%%%%%%%%%%%%%%%%%%%%%%%%%%%%%%%%%%%%%%%%%%%%%%%%%%%%%%
     %                                                                      %
     % You are using vdW-DF, which was implemented by the Thonhauser group. %
     % Please cite the following two papers that made this development      %
     % possible and the two reviews that describe the various versions:     %
     %                                                                      %
     %   T. Thonhauser et al., PRL 115, 136402 (2015).                      %
     %   T. Thonhauser et al., PRB 76, 125112 (2007).                       %
     %   K. Berland et al., Rep. Prog. Phys. 78, 066501 (2015).             %
     %   D.C. Langreth et al., J. Phys.: Condens. Matter 21, 084203 (2009). %
     %                                                                      %
     %                                                                      %
     % If you are calculating the stress with vdW-DF, please also cite:     %
     %                                                                      %
     %   R. Sabatini et al., J. Phys.: Condens. Matter 24, 424209 (2012).   %
     %                                                                      %
     %%%%%%%%%%%%%%%%%%%%%%%%%%%%%%%%%%%%%%%%%%%%%%%%%%%%%%%%%%%%%%%%%%%%%%%%

     Adding external electric field

     Computed dipole along edir(3) :
        Dipole              -11.6267 Ry au,        -29.5522 Debye
        Dipole field         -0.0219 Ry au,

        Potential amp.        2.0339 Ry
        Total length         46.3494 bohr

     Starting wfcs are  303 atomic wfcs
  @ DRIVER MODE: Message from server: STATUS
  @ DRIVER MODE: Message from server: POSDATA
  @ DRIVER MODE: Reading and sharing cell
  @ DRIVER MODE: Reading and sharing positions
  @ DRIVER MODE: Received positions

     Self-consistent Calculation

     iteration #  1     ecut=    29.40 Ry     beta= 0.05
     Davidson diagonalization with overlap
     c_bands:  3 eigenvalues not converged
     c_bands:  3 eigenvalues not converged
     c_bands:  5 eigenvalues not converged
     c_bands:  4 eigenvalues not converged
     c_bands:  4 eigenvalues not converged
     c_bands:  3 eigenvalues not converged
     c_bands:  1 eigenvalues not converged
     c_bands:  3 eigenvalues not converged
     ethr =  1.00E-05,  avg # of iterations = 22.1

[...]

     total energy              =   -2394.40949668 Ry
     estimated scf accuracy    <    6493.71719640 Ry

     iteration #  2     ecut=    29.40 Ry     beta= 0.05
     Davidson diagonalization with overlap
     ethr =  1.00E-02,  avg # of iterations = 23.9

[...]

     iteration # 40     ecut=    29.40 Ry     beta= 0.05
     Davidson diagonalization with overlap
     c_bands:  1 eigenvalues not converged
     ethr =  3.02E-07,  avg # of iterations = 13.0

[...]

     total energy              =   -2971.36022869 Ry
     estimated scf accuracy    <       0.00000015 Ry

     iteration # 60     ecut=    29.40 Ry     beta= 0.05
     Davidson diagonalization with overlap
     ethr =  3.69E-11,  avg # of iterations =  8.6

     negative rho (up, down):  1.696E-02 0.000E+00

     Adding external electric field

     Computed dipole along edir(3) :
        Dipole                1.3844 Ry au,          3.5188 Debye
        Dipole field          0.0026 Ry au,

        Potential amp.       -0.2422 Ry
        Total length         46.3494 bohr

     End of self-consistent calculation

          k = 0.0000 0.0000 0.0000 ( 18029 PWs)   bands (ev):

   -55.3573 -55.3232 -55.2776 -55.2330 -55.2281 -55.2175 -55.1898 -55.1786
   -55.1447 -55.1367 -55.1229 -55.1014 -55.0253 -54.9855 -54.3374 -54.3033
   -31.8417 -31.8021 -31.7257 -31.6789 -31.6733 -31.6491 -31.6270 -31.6026
   -31.5915 -31.5624 -31.5342 -31.5097 -31.4963 -31.4892 -31.4636 -31.4607
   -31.4562 -31.4425 -31.4307 -31.4146 -31.3957 -31.3924 -31.3878 -31.3764
   -31.3721 -31.3711 -31.3669 -31.3583 -31.3347 -31.3342 -31.3279 -31.3185
   -31.3146 -31.3091 -31.2910 -31.2877 -31.2797 -31.2495 -31.2269 -31.2149
   -31.2004 -31.1703 -30.7441 -30.6564 -30.6340 -30.5613 -30.4749 -30.3634
   -20.1217 -17.3414 -16.0479 -15.8361 -15.6311 -15.5231 -15.4742 -15.2422
   -15.1248 -15.0939 -15.0063 -14.9371 -14.9210 -14.8974 -14.8857 -14.8677
   -14.8088 -14.7956 -14.7842 -14.7818 -14.7530 -14.7321 -14.7089 -14.6967
   -14.5755 -14.5624 -14.5329 -14.5014 -14.4788 -14.4183 -14.1596 -12.8381
   -12.7752 -12.7216  -9.0828  -7.2349  -5.6874  -4.9672  -3.4210  -3.3074
    -3.2806  -3.2642  -3.1815  -3.1382  -3.0157  -2.7994  -2.6524  -2.5525
    -2.5270  -2.4466  -2.3759  -2.3551  -2.3083  -2.2544  -2.2004  -2.1534
    -2.1276  -2.1030  -2.0965  -2.0904  -1.9988  -1.9740  -1.9389  -1.8883
    -1.8503  -1.7534  -1.7367  -1.6802  -1.6724  -1.6309  -1.6208  -1.6113
    -1.6026  -1.5846  -1.5009  -1.4869  -1.4375  -1.3604  -1.1689  -1.1183
    -1.0218  -0.9661  -0.8634  -0.8380  -0.7957  -0.7684  -0.7590  -0.7503
    -0.7057  -0.6082  -0.5674  -0.5151  -0.4548  -0.3764  -0.3077  -0.2671
    -0.1569  -0.1430  -0.1165  -0.1086  -0.0761   0.0649   0.1235   0.1734
     0.1986   0.2363   0.3015   0.3635   0.3770   0.4227   0.4468   0.5129
     0.5490   0.5687   0.5888   0.6160   0.6297   0.6586   0.6743   0.7225
     0.8484   0.8593   0.9069   0.9507   1.0049   1.1273   1.1308   1.2955
     1.3713   1.5374   1.6244   1.6867   1.7484   1.8782   2.2565   2.3022
     3.7483   3.8632   3.8953   3.9238   4.0070   4.0469   4.2168   4.2825
     4.3047   4.3424

[...]

          k = 0.0380-0.0419 0.0000 ( 17876 PWs)   bands (ev):

[...]

          k =-0.0760-0.0000 0.0000 ( 17886 PWs)   bands (ev):

[...]

          k =-0.0760-0.0839 0.0000 ( 17948 PWs)   bands (ev):

   -55.3404 -55.3400 -55.2716 -55.2254 -55.2244 -55.2231 -55.1983 -55.1617
   -55.1611 -55.1255 -55.1244 -55.1139 -55.0174 -54.9933 -54.3203 -54.3203
   -31.6571 -31.6568 -31.6434 -31.6347 -31.6343 -31.5844 -31.5614 -31.5430
   -31.5352 -31.5194 -31.4972 -31.4890 -31.4856 -31.4795 -31.4739 -31.4661
   -31.4599 -31.4598 -31.4573 -31.4532 -31.4495 -31.4328 -31.4308 -31.4239
   -31.4149 -31.4094 -31.3977 -31.3792 -31.3654 -31.3633 -31.3512 -31.3404
   -31.3401 -31.3373 -31.3347 -31.3342 -31.3316 -31.3236 -31.2545 -31.2408
   -31.2220 -31.2019 -30.6467 -30.6467 -30.5570 -30.5569 -30.5182 -30.5181
   -20.1165 -17.3382 -15.4797 -15.3676 -15.3634 -15.2973 -15.2417 -15.1717
   -15.1220 -15.0913 -15.0523 -15.0342 -15.0073 -14.9661 -14.9260 -14.9147
   -14.8901 -14.8811 -14.8594 -14.8159 -14.8072 -14.7985 -14.7925 -14.7662
   -14.7259 -14.6993 -14.6777 -14.6732 -14.6430 -14.5037 -14.3607 -12.8235
   -12.8234 -12.7802  -9.0756  -7.1774  -5.6980  -4.9899  -3.3187  -2.7447
    -2.6546  -2.5680  -2.4970  -2.4252  -2.3898  -2.3638  -2.3055  -2.3011
    -2.2730  -2.2109  -2.1922  -2.1768  -2.1614  -2.1306  -2.1226  -2.1001
    -2.0918  -2.0841  -2.0420  -2.0391  -2.0141  -2.0119  -1.9857  -1.9790
    -1.9494  -1.9208  -1.8993  -1.8612  -1.8174  -1.7164  -1.6304  -1.5597
    -1.5059  -1.4948  -1.4849  -1.4307  -1.4135  -1.3841  -1.3551  -1.3190
    -1.1837  -1.0455  -1.0366  -0.9985  -0.9374  -0.9044  -0.8666  -0.8433
    -0.7699  -0.7524  -0.7188  -0.6920  -0.6199  -0.5303  -0.4859  -0.4459
    -0.4148  -0.3599  -0.3321  -0.3122  -0.2951  -0.2809  -0.2457  -0.1813
    -0.1351  -0.1113  -0.0793  -0.0531  -0.0309  -0.0070   0.1662   0.1840
     0.2820   0.3512   0.4102   0.5449   0.6453   0.6841   0.7252   0.7842
     0.8511   0.9047   0.9393   0.9550   0.9741   1.0291   1.0884   1.1611
     1.1764   1.2092   1.2874   1.4210   2.0503   2.0527   2.1222   2.1224
     4.1185   4.1677   4.1926   4.2022   4.2695   4.2948   4.3114   4.3151
     4.4197   4.4397

     the Fermi energy is     3.7685 ev

!    total energy              =   -2971.36028362 Ry
     estimated scf accuracy    <       0.00000005 Ry
     smearing contrib. (-TS)   =      -0.02057913 Ry
     internal energy E=F+TS    =   -2971.33970449 Ry

     The total energy is F=E-TS. E is the sum of the following terms:
     one-electron contribution =  -24171.86056350 Ry
     hartree contribution      =   12181.63925698 Ry
     xc contribution           =    -492.42330232 Ry
     ewald contribution        =    9511.30128755 Ry
     electric field correction =       0.00361679 Ry

     convergence has been achieved in  60 iterations

     Forces acting on atoms (cartesian axes, Ry/au):

     atom    1 type  1   force =     0.00007522   -0.00012082    0.10310044
     atom    2 type  1   force =     0.00007430   -0.00010114    0.10313558
     atom    3 type  2   force =     0.00002185   -0.00020331    0.09529323
     atom    4 type  2   force =     0.00007888   -0.00049376    0.09488806
     atom    5 type  2   force =    -0.00022086   -0.00070863   -0.17562912
     atom    6 type  2   force =    -0.00005636   -0.00023320   -0.17574623
     atom    7 type  1   force =    -0.07170737   -0.00018543   -0.02758352
     atom    8 type  1   force =    -0.07169301   -0.00021287   -0.02750708
     atom    9 type  1   force =     0.07157600    0.00025824   -0.02758455
     atom   10 type  1   force =     0.07154728    0.00026333   -0.02755853
     atom   11 type  1   force =    -0.00007931   -0.00144204    0.05242738
     atom   12 type  1   force =    -0.00000273   -0.00149911    0.05289104
     atom   13 type  1   force =    -0.00013073   -0.00018054   -0.02269004
     atom   14 type  1   force =    -0.00005957   -0.00028642   -0.02181460
     atom   15 type  2   force =    -0.00221951    0.00205953   -0.00871435
     atom   16 type  2   force =    -0.00226642    0.00207282   -0.00147995
     atom   17 type  2   force =     0.00140977    0.00933191    0.01495190
     atom   18 type  2   force =     0.00155212   -0.01042949    0.01573194
     atom   19 type  1   force =    -0.01011602   -0.00094343    0.00485268
     atom   20 type  1   force =    -0.01049477   -0.00075799    0.00459823
     atom   21 type  1   force =     0.01029028   -0.00001139    0.00094911
     atom   22 type  1   force =     0.01056609   -0.00053859    0.00076294
     atom   23 type  1   force =    -0.00214475    0.00037065   -0.01190660
     atom   24 type  1   force =    -0.00061836   -0.00078448   -0.01490810
     atom   25 type  1   force =     0.00002340    0.00040192    0.00000717
     atom   26 type  1   force =     0.00010641   -0.00025603   -0.00044679
     atom   27 type  2   force =     0.00053691   -0.00008222   -0.00074182
     atom   28 type  2   force =    -0.00021351   -0.00020893    0.00011290
     atom   29 type  2   force =     0.00022306    0.00074183    0.00012929
     atom   30 type  2   force =    -0.00030677   -0.00027282    0.00012292
     atom   31 type  1   force =     0.00021905    0.00057245    0.00022265
     atom   32 type  1   force =    -0.00065825    0.00046297    0.00001172
     atom   33 type  1   force =     0.00044819    0.00052650    0.00008274
     atom   34 type  1   force =     0.00072378    0.00022805   -0.00019067
     atom   35 type  1   force =    -0.00010498   -0.00034505   -0.00001842
     atom   36 type  1   force =     0.00079867    0.00058359   -0.00057748
     atom   37 type  1   force =     0.00043862   -0.00005412   -0.00007712
     atom   38 type  1   force =     0.00049244    0.00061954   -0.00000748
     atom   39 type  2   force =     0.00044056   -0.00021914   -0.00041858
     atom   40 type  2   force =    -0.00041423   -0.00056496   -0.00116978
     atom   41 type  2   force =     0.00067451    0.00015789   -0.00039249
     atom   42 type  1   force =     0.00068531    0.00004217    0.00009515
     atom   43 type  1   force =     0.00061377    0.00024260    0.00024607
     atom   44 type  2   force =    -0.00044838    0.00115725   -0.00114251
     atom   45 type  1   force =    -0.00019543   -0.00014090   -0.00047723
     atom   46 type  1   force =    -0.00007989    0.00073860    0.00026197
     atom   47 type  1   force =    -0.00030912    0.00033940    0.00036362
     atom   48 type  3   force =    -0.00179284    0.00145799   -0.00675678
     atom   49 type  4   force =    -0.00007181   -0.00064216    0.00015233
     atom   50 type  5   force =     0.00028279    0.00109230   -0.00189567
     atom   51 type  3   force =    -0.00094009    0.00072208   -0.00211543
     atom   52 type  5   force =     0.00136229   -0.00012919    0.00088345
     atom   53 type  5   force =    -0.00052550   -0.00001235    0.00114192
     atom   54 type  1   force =     0.00260898   -0.00238310    0.01213449

     Total force =     0.364752     Total SCF correction =     0.000459
  @ DRIVER MODE: Message from server: STATUS
  @ DRIVER MODE: Message from server: GETFORCE
  @ DRIVER MODE: Returning v,forces,stress,ensemble

     Writing output data file ./calc.save/
  @ DRIVER MODE: Message from server: EXIT
  @ DRIVE MODE: Exiting

     General routines

     Parallel routines

   This run was terminated on:  14:58:40  27Sep2021

   JOB DONE.