     Program PWSCF v.6.7GPU starts on 15Sep2021 at 20:44:47

     R & G space division:  proc/nbgrp/npool/nimage =      10
     Reading input from /storage/home/hcoda1/3/ntian30/research/carbon/CxH_vib/H2O_calc/ads_slab/CHNHHH2O_a/out_0016/pw.inp
Warning: card &CELL ignored
Warning: card   CELL_DYNAMICS='IPI', ignored
Warning: card / ignored

     Current dimensions of program PWSCF are:
     Max number of different atomic species (ntypx) = 10
     Max number of k-points (npk) =  40000
     Max angular momentum in pseudopotentials (lmaxx) =  3
     Presently no symmetry can be used with electric field

     Message from routine cell_base_init:
     DEPRECATED: use true lattice parameter, not A to a.u. conversion factor

     IMPORTANT: XC functional enforced from input :
     Exchange-correlation= BEEF-VDW
                           (   1   4  43  14   2   0   0)
     Any further DFT definition will be discarded
     Please, verify this is what you really want

  @ DRIVER MODE: Connecting to
 qe_1139763_2852629.sched-torque.pace.gatech.edux0awht0__scratch
  using UNIX socket
  @ DRIVER MODE: Message from server: STATUS
  @ DRIVER MODE: Message from server: INIT
  @ DRIVER MODE: Receiving replica           0          -1
  @ DRIVER MODE: Receiving encoded integer          25
  @ DRIVER MODE:  SCF:  T  FORCE:  T  STRESS:  F  VC:  F  ENSEMBLE:  F
  @ DRIVER MODE:  SCF:  T  FORCE:  T  STRESS:  F  VC:  F  ENSEMBLE:  F

     Using Slab Decomposition

     bravais-lattice index     =            0
     lattice parameter (alat)  =       1.8897  a.u.
     unit-cell volume          =    6658.9804 (a.u.)^3
     number of atoms/cell      =           55
     number of atomic types    =            5
     number of electrons       =       398.00
     number of Kohn-Sham states=          209
     kinetic-energy cutoff     =      29.3995  Ry
     charge density cutoff     =     293.9946  Ry
     scf convergence threshold =      7.3E-08
     mixing beta               =       0.0500
     number of iterations used =            8  plain     mixing
     Exchange-correlation= BEEF-VDW
                           (   1   4  43  14   2   0   0)

     celldm(1)=   1.889726  celldm(2)=   0.000000  celldm(3)=   0.000000
     celldm(4)=   0.000000  celldm(5)=   0.000000  celldm(6)=   0.000000

     crystal axes: (cart. coord. in units of alat)
               a(1) = (   6.579727   0.000000   0.000000 )
               a(2) = (  -0.000775   5.961596   0.000000 )
               a(3) = (   0.000000   0.000000  25.155947 )

     reciprocal axes: (cart. coord. in units 2 pi/alat)
               b(1) = (  0.151982  0.000020  0.000000 )
               b(2) = (  0.000000  0.167740  0.000000 )
               b(3) = (  0.000000  0.000000  0.039752 )

     PseudoPot. # 1 for Ti read from file:
     /storage/coda1/p-amedford6/0/shared/rich_project_chbe-medford/medford-share/data/pseudos_module/espresso/nninc/pbe/van/Ti.UPF
     MD5 check sum: 8e4df49b7f0d34bbd5052bf3f5ea0213
     Pseudo is Ultrasoft, Zval = 12.0
     Generated by new atomic code, or converted to UPF format
     Using radial grid of  851 points,  6 beta functions with:
                l(1) =   0
                l(2) =   0
                l(3) =   1
                l(4) =   1
                l(5) =   2
                l(6) =   2
     Q(r) pseudized with  8 coefficients,  rinner =    1.000   1.000   1.000
                                                       1.000   1.000

     PseudoPot. # 2 for O  read from file:
     /storage/coda1/p-amedford6/0/shared/rich_project_chbe-medford/medford-share/data/pseudos_module/espresso/nninc/pbe/van/O.UPF
     MD5 check sum: 78c19812648e8988a0fe644b0f25305e
     Pseudo is Ultrasoft, Zval =  6.0
     Generated by new atomic code, or converted to UPF format
     Using radial grid of  737 points,  4 beta functions with:
                l(1) =   0
                l(2) =   0
                l(3) =   1
                l(4) =   1
     Q(r) pseudized with  8 coefficients,  rinner =    0.800   0.800   0.800

     PseudoPot. # 3 for N  read from file:
     /storage/coda1/p-amedford6/0/shared/rich_project_chbe-medford/medford-share/data/pseudos_module/espresso/nninc/pbe/van/N.UPF
     MD5 check sum: 90d10febe142ad51ac9d5be1deb811c4
     Pseudo is Ultrasoft, Zval =  5.0
     Generated by new atomic code, or converted to UPF format
     Using radial grid of  729 points,  4 beta functions with:
                l(1) =   0
                l(2) =   0
                l(3) =   1
                l(4) =   1
     Q(r) pseudized with  8 coefficients,  rinner =    0.800   0.800   0.800

     PseudoPot. # 4 for C  read from file:
     /storage/coda1/p-amedford6/0/shared/rich_project_chbe-medford/medford-share/data/pseudos_module/espresso/nninc/pbe/van/C.UPF
     MD5 check sum: 1a69bf6b8db32088f5b2163dbdb77a27
     Pseudo is Ultrasoft, Zval =  4.0
     Generated by new atomic code, or converted to UPF format
     Using radial grid of  721 points,  4 beta functions with:
                l(1) =   0
                l(2) =   0
                l(3) =   1
                l(4) =   1
     Q(r) pseudized with  8 coefficients,  rinner =    0.800   0.800   0.800

     PseudoPot. # 5 for H  read from file:
     /storage/coda1/p-amedford6/0/shared/rich_project_chbe-medford/medford-share/data/pseudos_module/espresso/nninc/pbe/van/H.UPF
     MD5 check sum: b5ee9d7bfd3a09ee7748110bda690ff7
     Pseudo is Ultrasoft, Zval =  1.0
     Generated by new atomic code, or converted to UPF format
     Using radial grid of  615 points,  1 beta functions with:
                l(1) =   0
     Q(r) pseudized with  8 coefficients,  rinner =    0.800

     atomic species   valence    mass     pseudopotential
        Ti1           12.00    47.86700     Ti( 1.00)
        O1             6.00    15.99900     O ( 1.00)
        N1             5.00    14.00700     N ( 1.00)
        C1             4.00    12.01100     C ( 1.00)
        H1             1.00     1.00800     H ( 1.00)

     No symmetry found

   Cartesian axes

     site n.     atom                  positions (alat units)
         1           Ti1 tau(   1) = (   0.0004258   2.9801865   6.0000000  )
         2           Ti1 tau(   2) = (   3.2906075   1.4906267   6.0002472  )
         3           O1  tau(   3) = (   0.0006271   0.0005054   7.9858123  )
         4           O1  tau(   4) = (   3.2906025   0.0005020   7.3038282  )
         5           O1  tau(   5) = (   4.5942328   1.4918067   9.2879030  )
         6           O1  tau(   6) = (   1.9868534   1.4903216   9.2879459  )
         7           Ti1 tau(   7) = (   3.2907910   2.8959150   9.1758416  )
         8           Ti1 tau(   8) = (   0.0015273   1.4827037   9.2680791  )
         9           O1  tau(   9) = (   3.2943807   5.9438157  11.3430345  )
        10           O1  tau(  10) = (   0.0116148   5.9584955  10.6183126  )
        11           O1  tau(  11) = (   1.2953376   1.4759649  12.6292060  )
        12           O1  tau(  12) = (   5.2846356   1.4785235  12.6176154  )
        13           Ti1 tau(  13) = (   0.0556596   2.9564334  12.6140783  )
        14           Ti1 tau(  14) = (   3.3658323   1.4657407  12.4949608  )
        15           O1  tau(  15) = (   6.5664030   0.0209144  14.6477191  )
        16           O1  tau(  16) = (   3.3113265   5.9542485  13.9698242  )
        17           O1  tau(  17) = (   4.5454210   1.5146250  16.1225105  )
        18           O1  tau(  18) = (   2.0305911   1.5113983  16.0894517  )
        19           Ti1 tau(  19) = (   3.2587399   2.9544808  15.6767922  )
        20           Ti1 tau(  20) = (   6.5654577   1.5458692  15.9193722  )
        21           O1  tau(  21) = (   3.2904802   0.0005063   4.7018136  )
        22           O1  tau(  22) = (   0.0418464   5.8849155  17.2380659  )
        23           O1  tau(  23) = (   1.3043587   1.4918075   6.0039043  )
        24           O1  tau(  24) = (   5.2767064   1.4903225   6.0039473  )
        25           Ti1 tau(  25) = (   0.0000382   5.9609847   6.0000000  )
        26           Ti1 tau(  26) = (   3.2902200   4.4714249   6.0002472  )
        27           O1  tau(  27) = (   0.0002396   2.9813036   7.9858123  )
        28           O1  tau(  28) = (   3.2902150   2.9813002   7.3038282  )
        29           O1  tau(  29) = (   4.5938453   4.4726049   9.2879030  )
        30           O1  tau(  30) = (   1.9864658   4.4711199   9.2879459  )
        31           Ti1 tau(  31) = (   3.2891106   5.8743827   9.1763621  )
        32           Ti1 tau(  32) = (   0.0006254   4.4649316   9.2693709  )
        33           O1  tau(  33) = (   3.2978316   2.9705197  11.3397625  )
        34           O1  tau(  34) = (   0.0092240   2.9805883  10.6323155  )
        35           O1  tau(  35) = (   1.2936985   4.4655287  12.6460247  )
        36           O1  tau(  36) = (   5.2856521   4.4646452  12.6308247  )
        37           Ti1 tau(  37) = (   0.0515089   5.9379728  12.5308627  )
        38           Ti1 tau(  38) = (   3.3654372   4.4547101  12.4935900  )
        39           O1  tau(  39) = (   6.5748852   2.9443291  14.6951209  )
        40           O1  tau(  40) = (   3.2957406   2.9584624  13.8938737  )
        41           O1  tau(  41) = (   4.5486474   4.4154460  16.0876977  )
        42           O1  tau(  42) = (   2.0388008   4.4257786  16.0448984  )
        43           Ti1 tau(  43) = (   3.3137362   5.9209902  15.7922403  )
        44           Ti1 tau(  44) = (   0.0032603   4.6697478  15.9558853  )
        45           O1  tau(  45) = (   3.2900926   2.9813045   4.7018136  )
        46           O1  tau(  46) = (   1.3039711   4.4726057   6.0039043  )
        47           O1  tau(  47) = (   5.2763189   4.4711207   6.0039473  )
        48           N1  tau(  48) = (   5.6270067   3.1633449  18.6203826  )
        49           C1  tau(  49) = (   0.0237924   2.7940403  17.7774691  )
        50           H1  tau(  50) = (   0.9584034   2.6560975  18.3247808  )
        51           H1  tau(  51) = (   4.7713523   3.5531088  18.2436842  )
        52           H1  tau(  52) = (   5.8168525   3.4166350  19.5804594  )
        53           O1  tau(  53) = (   3.2115967   5.9081562  18.2546127  )
        54           H1  tau(  54) = (   3.8106726   0.6855978  18.4519937  )
        55           H1  tau(  55) = (   2.3006756   0.2828797  18.3268221  )

     number of k points=    10  Fermi-Dirac smearing, width (Ry)=  0.0073
                       cart. coord. in units 2pi/alat
        k(    1) = (   0.0000000   0.0000000   0.0000000), wk =   0.1250000
        k(    2) = (   0.0000000   0.0419351   0.0000000), wk =   0.2500000
        k(    3) = (   0.0000000  -0.0838702   0.0000000), wk =   0.1250000
        k(    4) = (   0.0379955   0.0000049   0.0000000), wk =   0.2500000
        k(    5) = (   0.0379955   0.0419400   0.0000000), wk =   0.2500000
        k(    6) = (   0.0379955  -0.0838652   0.0000000), wk =   0.2500000
        k(    7) = (   0.0379955  -0.0419301   0.0000000), wk =   0.2500000
        k(    8) = (  -0.0759910  -0.0000099   0.0000000), wk =   0.1250000
        k(    9) = (  -0.0759910   0.0419252   0.0000000), wk =   0.2500000
        k(   10) = (  -0.0759910  -0.0838800   0.0000000), wk =   0.1250000

     Initial potential from superposition of free atoms

     starting charge  381.99915, renormalised to  398.00000

     negative rho (up, down):  1.708E-02 0.000E+00

     %%%%%%%%%%%%%%%%%%%%%%%%%%%%%%%%%%%%%%%%%%%%%%%%%%%%%%%%%%%%%%%%%%%%%%%%
     %                                                                      %
     % You are using vdW-DF, which was implemented by the Thonhauser group. %
     % Please cite the following two papers that made this development      %
     % possible and the two reviews that describe the various versions:     %
     %                                                                      %
     %   T. Thonhauser et al., PRL 115, 136402 (2015).                      %
     %   T. Thonhauser et al., PRB 76, 125112 (2007).                       %
     %   K. Berland et al., Rep. Prog. Phys. 78, 066501 (2015).             %
     %   D.C. Langreth et al., J. Phys.: Condens. Matter 21, 084203 (2009). %
     %                                                                      %
     %                                                                      %
     % If you are calculating the stress with vdW-DF, please also cite:     %
     %                                                                      %
     %   R. Sabatini et al., J. Phys.: Condens. Matter 24, 424209 (2012).   %
     %                                                                      %
     %%%%%%%%%%%%%%%%%%%%%%%%%%%%%%%%%%%%%%%%%%%%%%%%%%%%%%%%%%%%%%%%%%%%%%%%

     Adding external electric field

     Computed dipole along edir(3) :
        Dipole              -10.1352 Ry au,        -25.7611 Debye
        Dipole field         -0.0191 Ry au,

        Potential amp.        1.7730 Ry
        Total length         46.3494 bohr

     Starting wfcs are  301 atomic wfcs
  @ DRIVER MODE: Message from server: STATUS
  @ DRIVER MODE: Message from server: POSDATA
  @ DRIVER MODE: Reading and sharing cell
  @ DRIVER MODE: Reading and sharing positions
  @ DRIVER MODE: Received positions

     Self-consistent Calculation

     iteration #  1     ecut=    29.40 Ry     beta= 0.05
     Davidson diagonalization with overlap
     c_bands:  2 eigenvalues not converged
     c_bands:  1 eigenvalues not converged
     c_bands:  1 eigenvalues not converged
     c_bands:  3 eigenvalues not converged
     c_bands:  1 eigenvalues not converged
     c_bands:  3 eigenvalues not converged
     c_bands:  3 eigenvalues not converged
     c_bands:  3 eigenvalues not converged
     c_bands:  1 eigenvalues not converged
     ethr =  1.00E-05,  avg # of iterations = 19.8

[...]

     total energy              =   -2497.70944831 Ry
     estimated scf accuracy    <    5094.09689593 Ry

     iteration #  2     ecut=    29.40 Ry     beta= 0.05
     Davidson diagonalization with overlap
     ethr =  1.00E-02,  avg # of iterations = 25.7

[...]

     iteration # 74     ecut=    29.40 Ry     beta= 0.05
     Davidson diagonalization with overlap
     c_bands:  1 eigenvalues not converged
     ethr =  1.75E-10,  avg # of iterations = 13.3

[...]

     total energy              =   -2953.88254649 Ry
     estimated scf accuracy    <       0.00000011 Ry

     iteration # 78     ecut=    29.40 Ry     beta= 0.05
     Davidson diagonalization with overlap
     ethr =  2.76E-11,  avg # of iterations =  7.3

     negative rho (up, down):  1.666E-02 0.000E+00

     Adding external electric field

     Computed dipole along edir(3) :
        Dipole                1.2967 Ry au,          3.2959 Debye
        Dipole field          0.0024 Ry au,

        Potential amp.       -0.2268 Ry
        Total length         46.3494 bohr

     End of self-consistent calculation

          k = 0.0000 0.0000 0.0000 ( 18029 PWs)   bands (ev):

   -55.4426 -55.4359 -55.4169 -55.4085 -55.3998 -55.2986 -55.2567 -55.2504
   -55.2354 -55.2330 -55.2158 -55.1995 -54.8589 -54.7667 -54.4290 -54.3950
   -31.9920 -31.9265 -31.8179 -31.7936 -31.7532 -31.7492 -31.7338 -31.7235
   -31.6852 -31.6837 -31.6537 -31.6380 -31.6270 -31.6161 -31.5956 -31.5827
   -31.5734 -31.5483 -31.5441 -31.5086 -31.5004 -31.4973 -31.4632 -31.4516
   -31.4454 -31.4429 -31.4347 -31.4343 -31.4340 -31.4083 -31.4079 -31.4023
   -31.3856 -31.3816 -31.3572 -31.3497 -31.3426 -31.1911 -31.0763 -31.0246
   -30.9650 -30.9285 -30.8365 -30.7471 -30.7247 -30.6532 -30.5666 -30.4556
   -19.0614 -16.4578 -16.1999 -15.9386 -15.7549 -15.6257 -15.5982 -15.4244
   -15.2894 -15.1874 -15.1251 -15.0686 -15.0485 -15.0006 -14.9981 -14.9859
   -14.9832 -14.9520 -14.9038 -14.8830 -14.8633 -14.8218 -14.8126 -14.7959
   -14.7467 -14.7081 -14.6132 -14.5815 -14.5551 -14.5149 -14.0305 -12.9314
   -12.8149  -9.0206  -6.8703  -6.6904  -4.2569  -3.5708  -3.4085  -3.3544
    -3.3451  -3.3201  -3.2303  -3.0913  -2.9538  -2.7208  -2.6585  -2.6228
    -2.5903  -2.5530  -2.4369  -2.3850  -2.3739  -2.3085  -2.2613  -2.2532
    -2.2402  -2.2190  -2.2037  -2.1426  -2.1288  -2.0295  -1.9873  -1.9177
    -1.8569  -1.8249  -1.7746  -1.7595  -1.7160  -1.7127  -1.6975  -1.6788
    -1.6649  -1.6493  -1.5900  -1.5296  -1.4519  -1.2668  -1.2339  -1.1179
    -1.0891  -1.0579  -1.0138  -0.9302  -0.9033  -0.8811  -0.8417  -0.7508
    -0.7252  -0.6782  -0.5895  -0.4998  -0.4539  -0.4281  -0.3484  -0.3134
    -0.2850  -0.2186  -0.2112  -0.1996  -0.1230  -0.0701   0.0383   0.0745
     0.1090   0.1245   0.1387   0.2239   0.2625   0.3195   0.3637   0.4166
     0.4529   0.4677   0.5036   0.5248   0.5396   0.5667   0.5786   0.7614
     0.8027   0.8318   0.8623   0.9472   1.0490   1.1157   1.1992   1.2687
     1.5158   1.5932   1.6464   1.7838   2.1654   2.2117   3.6284   3.7570
     3.7753   3.7938   3.8250   3.8876   3.9507   4.1397   4.1623   4.1835
     4.2119

[...]

          k = 0.0380-0.0419 0.0000 ( 17876 PWs)   bands (ev):

[...]

          k =-0.0760-0.0000 0.0000 ( 17886 PWs)   bands (ev):

[...]

          k =-0.0760-0.0839 0.0000 ( 17948 PWs)   bands (ev):

   -55.4260 -55.4249 -55.4196 -55.4164 -55.4147 -55.2897 -55.2655 -55.2369
   -55.2352 -55.2302 -55.2180 -55.2150 -54.8558 -54.7698 -54.4120 -54.4118
   -31.8015 -31.7909 -31.7421 -31.7413 -31.7265 -31.7197 -31.7186 -31.7024
   -31.6872 -31.6460 -31.6386 -31.6333 -31.6236 -31.6053 -31.5692 -31.5589
   -31.5544 -31.5543 -31.5519 -31.5461 -31.5455 -31.5450 -31.5418 -31.5023
   -31.4813 -31.4756 -31.4644 -31.4507 -31.4455 -31.4416 -31.4401 -31.4394
   -31.4326 -31.4293 -31.4103 -31.4049 -31.2516 -31.1929 -31.0697 -31.0423
   -31.0258 -30.9650 -30.7375 -30.7374 -30.6493 -30.6491 -30.6100 -30.6098
   -19.0604 -16.4474 -15.6897 -15.5604 -15.4317 -15.3741 -15.3687 -15.3101
   -15.3061 -15.1927 -15.1830 -15.1546 -15.1297 -15.1127 -15.0847 -15.0652
   -15.0034 -14.9828 -14.9793 -14.9492 -14.9200 -14.9071 -14.9024 -14.8876
   -14.8838 -14.8295 -14.7736 -14.7705 -14.6593 -14.5565 -14.1871 -12.9167
   -12.9165  -9.0302  -6.8544  -6.7093  -4.2244  -3.2354  -2.9740  -2.7927
    -2.6872  -2.6310  -2.5677  -2.5490  -2.3828  -2.3677  -2.3578  -2.3210
    -2.3045  -2.2832  -2.2728  -2.2681  -2.2417  -2.2299  -2.2116  -2.1802
    -2.1471  -2.1289  -2.1207  -2.1145  -2.0982  -2.0794  -2.0565  -2.0356
    -2.0300  -2.0044  -1.9646  -1.9394  -1.8811  -1.7457  -1.7087  -1.6679
    -1.5980  -1.5914  -1.5380  -1.5218  -1.4948  -1.4670  -1.4034  -1.3805
    -1.2339  -1.1676  -1.1515  -1.1354  -1.1212  -0.9996  -0.9588  -0.8900
    -0.8636  -0.7942  -0.7638  -0.7520  -0.7054  -0.6037  -0.5909  -0.5391
    -0.5276  -0.4305  -0.4080  -0.3969  -0.3619  -0.3174  -0.2491  -0.2081
    -0.1934  -0.1838  -0.1506  -0.1435  -0.1032   0.0170   0.0771   0.1386
     0.2096   0.3122   0.4240   0.4364   0.5857   0.6121   0.6260   0.7318
     0.8179   0.8486   0.8686   0.8958   0.8991   1.0238   1.0712   1.0809
     1.0826   1.2332   1.9554   1.9568   2.0312   2.0316   3.7368   3.9363
     3.9580   3.9999   4.0465   4.1779   4.1869   4.2211   4.2223   4.3062
     4.3391

     the Fermi energy is     3.6880 ev

!    total energy              =   -2953.88256321 Ry
     estimated scf accuracy    <       0.00000004 Ry
     smearing contrib. (-TS)   =      -0.03290637 Ry
     internal energy E=F+TS    =   -2953.84965684 Ry

     The total energy is F=E-TS. E is the sum of the following terms:
     one-electron contribution =  -24258.47007483 Ry
     hartree contribution      =   12222.79273546 Ry
     xc contribution           =    -488.84438948 Ry
     ewald contribution        =    9570.66889893 Ry
     electric field correction =       0.00317308 Ry

     convergence has been achieved in  78 iterations

     Forces acting on atoms (cartesian axes, Ry/au):

     atom    1 type  1   force =     0.00020982   -0.00020202    0.09615410
     atom    2 type  1   force =    -0.00011333   -0.00027529   -0.17604642
     atom    3 type  2   force =     0.00002662    0.00001773   -0.02489860
     atom    4 type  2   force =     0.00003514   -0.00160052    0.05415265
     atom    5 type  2   force =    -0.01177915   -0.00148997    0.00428220
     atom    6 type  2   force =     0.01354604   -0.00071247    0.00348845
     atom    7 type  1   force =    -0.00083878    0.00087036   -0.01027558
     atom    8 type  1   force =     0.00024996    0.01223014    0.02352845
     atom    9 type  2   force =    -0.00035628   -0.00008565   -0.00025010
     atom   10 type  2   force =    -0.00088153   -0.00045335   -0.01484726
     atom   11 type  2   force =     0.00042546    0.00007851    0.00018258
     atom   12 type  2   force =    -0.00040786   -0.00007453    0.00003078
     atom   13 type  1   force =    -0.00066762   -0.00006626   -0.00157427
     atom   14 type  1   force =     0.00058283    0.00018838    0.00032416
     atom   15 type  2   force =     0.00056897    0.00043722    0.00004728
     atom   16 type  2   force =    -0.00028143    0.00005718    0.00037036
     atom   17 type  2   force =    -0.00012953   -0.00027268   -0.00040844
     atom   18 type  2   force =     0.00010440   -0.00010619   -0.00005304
     atom   19 type  1   force =     0.00079552    0.00003474    0.00056362
     atom   20 type  1   force =    -0.00038993   -0.00061174    0.00034156
     atom   21 type  2   force =     0.00006123    0.00004360    0.10331910
     atom   22 type  2   force =     0.00037946    0.00069806   -0.00024219
     atom   23 type  2   force =    -0.07131705   -0.00007975   -0.02763235
     atom   24 type  2   force =     0.07127455    0.00035760   -0.02766997
     atom   25 type  1   force =    -0.00006190   -0.00014525    0.09567444
     atom   26 type  1   force =    -0.00020242   -0.00030865   -0.17599138
     atom   27 type  2   force =     0.00012403   -0.00040075   -0.02390230
     atom   28 type  2   force =     0.00009724   -0.00126668    0.05361694
     atom   29 type  2   force =    -0.01201008    0.00044794    0.00380505
     atom   30 type  2   force =     0.01365740    0.00069169    0.00308718
     atom   31 type  1   force =    -0.00061073    0.00369843   -0.01331544
     atom   32 type  1   force =     0.00020703   -0.01324962    0.02339667
     atom   33 type  2   force =    -0.00007438   -0.00005613   -0.00030697
     atom   34 type  2   force =    -0.00008427    0.00021954   -0.01832546
     atom   35 type  2   force =     0.00034950   -0.00048885    0.00025131
     atom   36 type  2   force =    -0.00031411   -0.00016211    0.00011567
     atom   37 type  1   force =    -0.00083548   -0.00023417   -0.00009180
     atom   38 type  1   force =     0.00047271    0.00008865    0.00064903
     atom   39 type  2   force =     0.00000832    0.00083496   -0.00005451
     atom   40 type  2   force =    -0.00023046   -0.00018382   -0.00062079
     atom   41 type  2   force =     0.00033098    0.00044361    0.00006024
     atom   42 type  2   force =    -0.00080632    0.00018556    0.00009610
     atom   43 type  1   force =     0.00078285    0.00015700   -0.00007638
     atom   44 type  1   force =    -0.00039144   -0.00083763    0.00040261
     atom   45 type  2   force =     0.00006088    0.00003602    0.10327715
     atom   46 type  2   force =    -0.07130051   -0.00001988   -0.02759978
     atom   47 type  2   force =     0.07124812    0.00040610   -0.02761959
     atom   48 type  3   force =    -0.00078313    0.00101928   -0.00042714
     atom   49 type  4   force =    -0.00099183    0.00196534   -0.00102643
     atom   50 type  5   force =     0.00220505   -0.00106898    0.00143983
     atom   51 type  5   force =     0.00035493    0.00009798    0.00015741
     atom   52 type  5   force =    -0.00003497    0.00033240    0.00017832
     atom   53 type  2   force =    -0.00149433   -0.00109055   -0.00066205
     atom   54 type  5   force =    -0.00073777    0.00080875    0.00047402
     atom   55 type  5   force =    -0.00003242   -0.00090329    0.00045096

     Total force =     0.367583     Total SCF correction =     0.000750
  @ DRIVER MODE: Message from server: STATUS
  @ DRIVER MODE: Message from server: GETFORCE
  @ DRIVER MODE: Returning v,forces,stress,ensemble

     Writing output data file ./calc.save/
  @ DRIVER MODE: Message from server: EXIT
  @ DRIVE MODE: Exiting

     General routines

     Parallel routines

   This run was terminated on:  21: 6: 3  15Sep2021

   JOB DONE.