     Program PWSCF v.6.7GPU starts on 27Sep2021 at  4: 2:24

     R & G space division:  proc/nbgrp/npool/nimage =       8
     Reading input from /storage/home/hcoda1/3/ntian30/research/carbon/CxH_vib/CH_calc/ads_slab/CHONHNH2_b/out_0039/pw.inp
Warning: card &CELL ignored
Warning: card   CELL_DYNAMICS='IPI', ignored
Warning: card / ignored

     Current dimensions of program PWSCF are:
     Max number of different atomic species (ntypx) = 10
     Max number of k-points (npk) =  40000
     Max angular momentum in pseudopotentials (lmaxx) =  3
     Presently no symmetry can be used with electric field

     Message from routine cell_base_init:
     DEPRECATED: use true lattice parameter, not A to a.u. conversion factor

     IMPORTANT: XC functional enforced from input :
     Exchange-correlation= BEEF-VDW
                           (   1   4  43  14   2   0   0)
     Any further DFT definition will be discarded
     Please, verify this is what you really want

  @ DRIVER MODE: Connecting to
 qe_1139763_2982672.sched-torque.pace.gatech.edual9si8ae_scratch
  using UNIX socket
  @ DRIVER MODE: Message from server: STATUS
  @ DRIVER MODE: Message from server: INIT
  @ DRIVER MODE: Receiving replica           0          -1
  @ DRIVER MODE: Receiving encoded integer          25
  @ DRIVER MODE:  SCF:  T  FORCE:  T  STRESS:  F  VC:  F  ENSEMBLE:  F
  @ DRIVER MODE:  SCF:  T  FORCE:  T  STRESS:  F  VC:  F  ENSEMBLE:  F

     Using Slab Decomposition

     bravais-lattice index     =            0
     lattice parameter (alat)  =       1.8897  a.u.
     unit-cell volume          =    6658.9804 (a.u.)^3
     number of atoms/cell      =           55
     number of atomic types    =            5
     number of electrons       =       402.00
     number of Kohn-Sham states=          211
     kinetic-energy cutoff     =      29.3995  Ry
     charge density cutoff     =     293.9946  Ry
     scf convergence threshold =      7.3E-08
     mixing beta               =       0.0500
     number of iterations used =            8  plain     mixing
     Exchange-correlation= BEEF-VDW
                           (   1   4  43  14   2   0   0)

     celldm(1)=   1.889726  celldm(2)=   0.000000  celldm(3)=   0.000000
     celldm(4)=   0.000000  celldm(5)=   0.000000  celldm(6)=   0.000000

     crystal axes: (cart. coord. in units of alat)
               a(1) = (   6.579727   0.000000   0.000000 )
               a(2) = (  -0.000775   5.961596   0.000000 )
               a(3) = (   0.000000   0.000000  25.155947 )

     reciprocal axes: (cart. coord. in units 2 pi/alat)
               b(1) = (  0.151982  0.000020  0.000000 )
               b(2) = (  0.000000  0.167740  0.000000 )
               b(3) = (  0.000000  0.000000  0.039752 )

     PseudoPot. # 1 for O  read from file:
     /storage/coda1/p-amedford6/0/shared/rich_project_chbe-medford/medford-share/data/pseudos_module/espresso/nninc/pbe/van/O.UPF
     MD5 check sum: 78c19812648e8988a0fe644b0f25305e
     Pseudo is Ultrasoft, Zval =  6.0
     Generated by new atomic code, or converted to UPF format
     Using radial grid of  737 points,  4 beta functions with:
                l(1) =   0
                l(2) =   0
                l(3) =   1
                l(4) =   1
     Q(r) pseudized with  8 coefficients,  rinner =    0.800   0.800   0.800

     PseudoPot. # 2 for Ti read from file:
     /storage/coda1/p-amedford6/0/shared/rich_project_chbe-medford/medford-share/data/pseudos_module/espresso/nninc/pbe/van/Ti.UPF
     MD5 check sum: 8e4df49b7f0d34bbd5052bf3f5ea0213
     Pseudo is Ultrasoft, Zval = 12.0
     Generated by new atomic code, or converted to UPF format
     Using radial grid of  851 points,  6 beta functions with:
                l(1) =   0
                l(2) =   0
                l(3) =   1
                l(4) =   1
                l(5) =   2
                l(6) =   2
     Q(r) pseudized with  8 coefficients,  rinner =    1.000   1.000   1.000
                                                       1.000   1.000

     PseudoPot. # 3 for N  read from file:
     /storage/coda1/p-amedford6/0/shared/rich_project_chbe-medford/medford-share/data/pseudos_module/espresso/nninc/pbe/van/N.UPF
     MD5 check sum: 90d10febe142ad51ac9d5be1deb811c4
     Pseudo is Ultrasoft, Zval =  5.0
     Generated by new atomic code, or converted to UPF format
     Using radial grid of  729 points,  4 beta functions with:
                l(1) =   0
                l(2) =   0
                l(3) =   1
                l(4) =   1
     Q(r) pseudized with  8 coefficients,  rinner =    0.800   0.800   0.800

     PseudoPot. # 4 for H  read from file:
     /storage/coda1/p-amedford6/0/shared/rich_project_chbe-medford/medford-share/data/pseudos_module/espresso/nninc/pbe/van/H.UPF
     MD5 check sum: b5ee9d7bfd3a09ee7748110bda690ff7
     Pseudo is Ultrasoft, Zval =  1.0
     Generated by new atomic code, or converted to UPF format
     Using radial grid of  615 points,  1 beta functions with:
                l(1) =   0
     Q(r) pseudized with  8 coefficients,  rinner =    0.800

     PseudoPot. # 5 for C  read from file:
     /storage/coda1/p-amedford6/0/shared/rich_project_chbe-medford/medford-share/data/pseudos_module/espresso/nninc/pbe/van/C.UPF
     MD5 check sum: 1a69bf6b8db32088f5b2163dbdb77a27
     Pseudo is Ultrasoft, Zval =  4.0
     Generated by new atomic code, or converted to UPF format
     Using radial grid of  721 points,  4 beta functions with:
                l(1) =   0
                l(2) =   0
                l(3) =   1
                l(4) =   1
     Q(r) pseudized with  8 coefficients,  rinner =    0.800   0.800   0.800

     atomic species   valence    mass     pseudopotential
        O1             6.00    15.99900     O ( 1.00)
        Ti1           12.00    47.86700     Ti( 1.00)
        N1             5.00    14.00700     N ( 1.00)
        H1             1.00     1.00800     H ( 1.00)
        C1             4.00    12.01100     C ( 1.00)

     No symmetry found

   Cartesian axes

     site n.     atom                  positions (alat units)
         1           O1  tau(   1) = (   3.2904802   0.0005063   4.7018136  )
         2           O1  tau(   2) = (   3.2900926   2.9813045   4.7018136  )
         3           Ti1 tau(   3) = (   0.0004258   2.9801865   6.0000000  )
         4           Ti1 tau(   4) = (   0.0000382   5.9609847   6.0000000  )
         5           Ti1 tau(   5) = (   3.2906075   1.4906267   6.0002472  )
         6           Ti1 tau(   6) = (   3.2902200   4.4714249   6.0002472  )
         7           O1  tau(   7) = (   1.3043587   1.4918075   6.0039043  )
         8           O1  tau(   8) = (   1.3039711   4.4726057   6.0039043  )
         9           O1  tau(   9) = (   5.2767064   1.4903225   6.0039473  )
        10           O1  tau(  10) = (   5.2763189   4.4711207   6.0039473  )
        11           O1  tau(  11) = (   3.2906025   0.0005020   7.3038282  )
        12           O1  tau(  12) = (   3.2902150   2.9813002   7.3038282  )
        13           O1  tau(  13) = (   0.0006271   0.0005054   7.9858123  )
        14           O1  tau(  14) = (   0.0002396   2.9813036   7.9858123  )
        15           Ti1 tau(  15) = (   3.2907910   2.8959150   9.1758416  )
        16           Ti1 tau(  16) = (   3.2891106   5.8743827   9.1763621  )
        17           Ti1 tau(  17) = (   0.0015273   1.4827037   9.2680791  )
        18           Ti1 tau(  18) = (   0.0006254   4.4649316   9.2693709  )
        19           O1  tau(  19) = (   4.5942328   1.4918067   9.2879030  )
        20           O1  tau(  20) = (   4.5938453   4.4726049   9.2879030  )
        21           O1  tau(  21) = (   1.9868534   1.4903216   9.2879459  )
        22           O1  tau(  22) = (   1.9864658   4.4711199   9.2879459  )
        23           O1  tau(  23) = (   0.0116148   5.9584955  10.6183126  )
        24           O1  tau(  24) = (   0.0092240   2.9805883  10.6323155  )
        25           O1  tau(  25) = (   3.2729272   2.9749101  11.3358637  )
        26           O1  tau(  26) = (   3.2774458   5.9577983  11.3358029  )
        27           Ti1 tau(  27) = (   6.5123228   0.0223980  12.5466522  )
        28           Ti1 tau(  28) = (   6.5139447   2.9993280  12.6164542  )
        29           Ti1 tau(  29) = (   3.1950650   4.4673527  12.4897579  )
        30           Ti1 tau(  30) = (   3.1950454   1.4921031  12.4944583  )
        31           O1  tau(  31) = (   5.2839716   4.4726476  12.6140382  )
        32           O1  tau(  32) = (   1.2968206   4.4781603  12.6268461  )
        33           O1  tau(  33) = (   5.2856119   1.4917077  12.6233973  )
        34           O1  tau(  34) = (   1.2888650   1.4770595  12.6372879  )
        35           O1  tau(  35) = (   3.2788258   2.9629383  13.9230881  )
        36           O1  tau(  36) = (   3.2980453   5.9500611  13.9147740  )
        37           O1  tau(  37) = (   6.5334376   5.9389224  14.6738689  )
        38           O1  tau(  38) = (   6.5776160   3.0156023  14.6540868  )
        39           Ti1 tau(  39) = (   3.2542760   2.9504115  15.7371360  )
        40           Ti1 tau(  40) = (   3.3062714   5.9309079  15.7116640  )
        41           Ti1 tau(  41) = (   6.5650095   1.2976281  16.1142359  )
        42           Ti1 tau(  42) = (   0.0079766   4.4268374  15.8391656  )
        43           O1  tau(  43) = (   2.0280489   1.4492115  16.0660627  )
        44           O1  tau(  44) = (   4.5116609   1.4624326  16.0993158  )
        45           O1  tau(  45) = (   2.0244938   4.4513709  16.0356871  )
        46           O1  tau(  46) = (   4.5113612   4.4342832  16.0730653  )
        47           O1  tau(  47) = (   6.5716746   5.9215154  17.2308814  )
        48           N1  tau(  48) = (   5.9800345   2.9984367  18.5879729  )
        49           H1  tau(  49) = (   4.9797160   2.8240766  18.4383897  )
        50           H1  tau(  50) = (   1.6245422   1.3425840  19.0439533  )
        51           H1  tau(  51) = (   6.0578502   3.9810051  18.8619266  )
        52           N1  tau(  52) = (   2.1403542   1.9713023  19.6616680  )
        53           C1  tau(  53) = (   2.8938676   2.8537551  19.2737185  )
        54           H1  tau(  54) = (   3.3792091   3.5664479  19.9483559  )
        55           O1  tau(  55) = (   6.5521836   2.9666373  17.2729174  )

     number of k points=    10  Fermi-Dirac smearing, width (Ry)=  0.0073
                       cart. coord. in units 2pi/alat
        k(    1) = (   0.0000000   0.0000000   0.0000000), wk =   0.1250000
        k(    2) = (   0.0000000   0.0419351   0.0000000), wk =   0.2500000
        k(    3) = (   0.0000000  -0.0838702   0.0000000), wk =   0.1250000
        k(    4) = (   0.0379955   0.0000049   0.0000000), wk =   0.2500000
        k(    5) = (   0.0379955   0.0419400   0.0000000), wk =   0.2500000
        k(    6) = (   0.0379955  -0.0838652   0.0000000), wk =   0.2500000
        k(    7) = (   0.0379955  -0.0419301   0.0000000), wk =   0.2500000
        k(    8) = (  -0.0759910  -0.0000099   0.0000000), wk =   0.1250000
        k(    9) = (  -0.0759910   0.0419252   0.0000000), wk =   0.2500000
        k(   10) = (  -0.0759910  -0.0838800   0.0000000), wk =   0.1250000

     Initial potential from superposition of free atoms

     starting charge  385.99915, renormalised to  402.00000

     negative rho (up, down):  1.542E-02 0.000E+00

     %%%%%%%%%%%%%%%%%%%%%%%%%%%%%%%%%%%%%%%%%%%%%%%%%%%%%%%%%%%%%%%%%%%%%%%%
     %                                                                      %
     % You are using vdW-DF, which was implemented by the Thonhauser group. %
     % Please cite the following two papers that made this development      %
     % possible and the two reviews that describe the various versions:     %
     %                                                                      %
     %   T. Thonhauser et al., PRL 115, 136402 (2015).                      %
     %   T. Thonhauser et al., PRB 76, 125112 (2007).                       %
     %   K. Berland et al., Rep. Prog. Phys. 78, 066501 (2015).             %
     %   D.C. Langreth et al., J. Phys.: Condens. Matter 21, 084203 (2009). %
     %                                                                      %
     %                                                                      %
     % If you are calculating the stress with vdW-DF, please also cite:     %
     %                                                                      %
     %   R. Sabatini et al., J. Phys.: Condens. Matter 24, 424209 (2012).   %
     %                                                                      %
     %%%%%%%%%%%%%%%%%%%%%%%%%%%%%%%%%%%%%%%%%%%%%%%%%%%%%%%%%%%%%%%%%%%%%%%%

     Adding external electric field

     Computed dipole along edir(3) :
        Dipole              -12.8629 Ry au,        -32.6941 Debye
        Dipole field         -0.0243 Ry au,

        Potential amp.        2.2502 Ry
        Total length         46.3494 bohr

     Starting wfcs are  304 atomic wfcs
  @ DRIVER MODE: Message from server: STATUS
  @ DRIVER MODE: Message from server: POSDATA
  @ DRIVER MODE: Reading and sharing cell
  @ DRIVER MODE: Reading and sharing positions
  @ DRIVER MODE: Received positions

     Self-consistent Calculation

     iteration #  1     ecut=    29.40 Ry     beta= 0.05
     Davidson diagonalization with overlap
     c_bands:  5 eigenvalues not converged
     c_bands:  2 eigenvalues not converged
     c_bands:  2 eigenvalues not converged
     c_bands:  5 eigenvalues not converged
     c_bands:  3 eigenvalues not converged
     c_bands:  3 eigenvalues not converged
     c_bands:  2 eigenvalues not converged
     c_bands:  3 eigenvalues not converged
     c_bands:  1 eigenvalues not converged
     ethr =  1.00E-05,  avg # of iterations = 21.5

[...]

     total energy              =   -2369.73312460 Ry
     estimated scf accuracy    <    6837.14483929 Ry

     iteration #  2     ecut=    29.40 Ry     beta= 0.05
     Davidson diagonalization with overlap
     ethr =  1.00E-02,  avg # of iterations = 22.7

[...]

     iteration # 86     ecut=    29.40 Ry     beta= 0.05
     Davidson diagonalization with overlap
     c_bands:  1 eigenvalues not converged
     ethr =  6.10E-11,  avg # of iterations = 14.0

[...]

     total energy              =   -2972.58422350 Ry
     estimated scf accuracy    <       0.00000013 Ry

     iteration # 87     ecut=    29.40 Ry     beta= 0.05
     Davidson diagonalization with overlap
     ethr =  3.23E-11,  avg # of iterations =  9.1

     negative rho (up, down):  1.521E-02 0.000E+00

     Adding external electric field

     Computed dipole along edir(3) :
        Dipole                0.4793 Ry au,          1.2182 Debye
        Dipole field          0.0009 Ry au,

        Potential amp.       -0.0838 Ry
        Total length         46.3494 bohr

     End of self-consistent calculation

          k = 0.0000 0.0000 0.0000 ( 18029 PWs)   bands (ev):

   -55.8923 -55.8719 -55.8582 -55.8338 -55.7527 -55.7323 -55.7175 -55.7034
   -55.6905 -55.6694 -55.6679 -55.6339 -55.5207 -55.3073 -54.8712 -54.8372
   -32.4170 -32.3751 -32.2511 -32.2024 -32.1920 -32.1851 -32.1682 -32.1581
   -32.1356 -32.1024 -32.0568 -32.0464 -32.0444 -32.0413 -32.0259 -32.0049
   -31.9969 -31.9966 -31.9853 -31.9723 -31.9619 -31.9505 -31.9494 -31.9068
   -31.8998 -31.8945 -31.8926 -31.8828 -31.8720 -31.8680 -31.8639 -31.8438
   -31.8343 -31.8210 -31.8102 -31.7997 -31.7800 -31.7577 -31.7263 -31.5772
   -31.5391 -31.5215 -31.2783 -31.1899 -31.1675 -31.0950 -31.0086 -30.8975
   -18.6560 -16.6128 -16.3626 -16.1199 -16.0393 -16.0044 -15.8810 -15.8524
   -15.7303 -15.6195 -15.5247 -15.4493 -15.4298 -15.4290 -15.3891 -15.3770
   -15.3508 -15.3365 -15.3272 -15.3106 -15.2855 -15.2500 -15.2343 -15.2273
   -15.1364 -15.0598 -15.0266 -14.9785 -14.9731 -14.9494 -14.5605 -13.3732
   -13.2568 -12.2298  -8.1643  -5.3131  -4.9569  -4.5264  -3.9870  -3.8483
    -3.7982  -3.7300  -3.6862  -3.5111  -3.4006  -3.1456  -3.0718  -3.0518
    -3.0288  -2.9817  -2.8775  -2.8003  -2.7035  -2.6977  -2.6953  -2.6620
    -2.6525  -2.6356  -2.5933  -2.5731  -2.5056  -2.4343  -2.3969  -2.2909
    -2.2827  -2.2473  -2.2050  -2.1952  -2.1513  -2.1301  -2.1149  -2.1088
    -2.0958  -2.0574  -2.0234  -1.9149  -1.8791  -1.7968  -1.6846  -1.6085
    -1.5009  -1.4842  -1.3650  -1.3575  -1.3307  -1.3188  -1.2847  -1.2346
    -1.1801  -1.0763  -1.0482  -1.0164  -1.0114  -0.9117  -0.8521  -0.8275
    -0.7632  -0.6900  -0.6638  -0.6513  -0.6409  -0.6079  -0.3913  -0.3492
    -0.3296  -0.2976  -0.2508  -0.1968  -0.1595  -0.1119  -0.0723  -0.0063
     0.0028   0.0543   0.0784   0.0919   0.1079   0.1188   0.1352   0.2329
     0.3226   0.3610   0.3822   0.4580   0.4630   0.6352   0.7022   0.7640
     0.8760   1.0774   1.1512   1.2362   1.3433   1.7224   1.7606   1.7683
     3.2368   3.2387   3.3297   3.3721   3.3809   3.4812   3.5339   3.6933
     3.7271   3.7593   3.7969

[...]

          k = 0.0380-0.0419 0.0000 ( 17876 PWs)   bands (ev):

[...]

          k =-0.0760-0.0000 0.0000 ( 17886 PWs)   bands (ev):

[...]

          k =-0.0760-0.0839 0.0000 ( 17948 PWs)   bands (ev):

   -55.8759 -55.8745 -55.8592 -55.8462 -55.7389 -55.7313 -55.7231 -55.6996
   -55.6874 -55.6849 -55.6535 -55.6485 -55.5193 -55.3085 -54.8542 -54.8541
   -32.2275 -32.2142 -32.1909 -32.1898 -32.1710 -32.1698 -32.1206 -32.1122
   -32.0951 -32.0858 -32.0473 -32.0384 -32.0187 -32.0108 -32.0072 -32.0055
   -31.9998 -31.9954 -31.9940 -31.9915 -31.9877 -31.9843 -31.9500 -31.9479
   -31.9419 -31.9251 -31.9183 -31.9091 -31.8876 -31.8863 -31.8839 -31.8831
   -31.8780 -31.8678 -31.8645 -31.8625 -31.8567 -31.7554 -31.7295 -31.6480
   -31.5685 -31.5288 -31.1803 -31.1801 -31.0912 -31.0910 -31.0519 -31.0518
   -18.6409 -16.0316 -16.0103 -15.8827 -15.8474 -15.8109 -15.7710 -15.7592
   -15.6831 -15.6026 -15.5824 -15.5776 -15.4952 -15.4768 -15.4637 -15.4288
   -15.4156 -15.4051 -15.3993 -15.3599 -15.3491 -15.3399 -15.3317 -15.3240
   -15.2468 -15.2112 -15.2064 -15.1908 -15.0806 -14.9548 -14.7367 -13.3587
   -13.3585 -12.2424  -8.1644  -5.3087  -4.9636  -4.4509  -3.3181  -3.2855
    -3.1046  -3.0212  -3.0057  -2.9881  -2.8769  -2.8015  -2.7953  -2.7591
    -2.7282  -2.7208  -2.7109  -2.7080  -2.6842  -2.6739  -2.6233  -2.6023
    -2.5887  -2.5635  -2.5507  -2.5484  -2.5179  -2.5044  -2.4665  -2.4458
    -2.4257  -2.4142  -2.3926  -2.3240  -2.2073  -2.1250  -2.0933  -2.0342
    -2.0238  -1.9928  -1.9595  -1.9455  -1.9215  -1.8884  -1.8585  -1.7457
    -1.6376  -1.5825  -1.5806  -1.5040  -1.4673  -1.4241  -1.3777  -1.3239
    -1.2907  -1.2795  -1.2305  -1.1684  -1.1504  -1.0761  -1.0330  -1.0027
    -0.9597  -0.9368  -0.8646  -0.8525  -0.8498  -0.8157  -0.7273  -0.7076
    -0.6541  -0.6474  -0.6204  -0.5646  -0.5458  -0.5147  -0.3912  -0.3681
    -0.2425  -0.1760  -0.0860   0.0623   0.0847   0.1785   0.2182   0.2449
     0.3025   0.4045   0.4219   0.4349   0.4539   0.4852   0.5153   0.6379
     0.6519   0.6867   0.8067   1.5150   1.5155   1.5876   1.5882   1.6076
     3.2231   3.5694   3.5761   3.5963   3.6236   3.7558   3.7578   3.7755
     3.7771   3.9113   3.9290

     the Fermi energy is     3.2405 ev

!    total energy              =   -2972.58423000 Ry
     estimated scf accuracy    <       0.00000006 Ry
     smearing contrib. (-TS)   =      -0.03078850 Ry
     internal energy E=F+TS    =   -2972.55344150 Ry

     The total energy is F=E-TS. E is the sum of the following terms:
     one-electron contribution =  -23745.03997414 Ry
     hartree contribution      =   11963.82404391 Ry
     xc contribution           =    -493.07596519 Ry
     ewald contribution        =    9301.73802044 Ry
     electric field correction =       0.00043349 Ry

     convergence has been achieved in  87 iterations

     Forces acting on atoms (cartesian axes, Ry/au):

     atom    1 type  1   force =     0.00004374   -0.00002935    0.10322586
     atom    2 type  1   force =     0.00004783   -0.00004556    0.10327065
     atom    3 type  2   force =     0.00007616   -0.00022600    0.09627497
     atom    4 type  2   force =    -0.00001352   -0.00030013    0.09606513
     atom    5 type  2   force =     0.00003285   -0.00063953   -0.17556089
     atom    6 type  2   force =    -0.00002025   -0.00023933   -0.17551442
     atom    7 type  1   force =    -0.07155629   -0.00013339   -0.02767785
     atom    8 type  1   force =    -0.07154103   -0.00013945   -0.02765032
     atom    9 type  1   force =     0.07140239    0.00029744   -0.02774516
     atom   10 type  1   force =     0.07139039    0.00030278   -0.02770761
     atom   11 type  1   force =    -0.00005445   -0.00144999    0.05287357
     atom   12 type  1   force =    -0.00002686   -0.00125789    0.05321824
     atom   13 type  1   force =     0.00000849   -0.00000708   -0.02442375
     atom   14 type  1   force =     0.00010053   -0.00022777   -0.02346391
     atom   15 type  2   force =     0.00002807    0.00047800   -0.01060577
     atom   16 type  2   force =     0.00014772    0.00348767   -0.00994880
     atom   17 type  2   force =     0.00069195    0.01062174    0.02597646
     atom   18 type  2   force =     0.00083147   -0.01140562    0.02628242
     atom   19 type  1   force =    -0.01195080   -0.00052111    0.00382946
     atom   20 type  1   force =    -0.01229306   -0.00009301    0.00374064
     atom   21 type  1   force =     0.01291523   -0.00009157    0.00216973
     atom   22 type  1   force =     0.01315886    0.00047693    0.00212558
     atom   23 type  1   force =    -0.00431714    0.00132739   -0.01322292
     atom   24 type  1   force =    -0.00236657    0.00055045   -0.02180915
     atom   25 type  1   force =     0.00024349   -0.00090769    0.00013709
     atom   26 type  1   force =     0.00002068    0.00044105    0.00077968
     atom   27 type  2   force =    -0.00042789    0.00040607   -0.00003141
     atom   28 type  2   force =    -0.00068357   -0.00052155   -0.00000649
     atom   29 type  2   force =     0.00097913    0.00002505   -0.00016510
     atom   30 type  2   force =     0.00036336   -0.00073963   -0.00015955
     atom   31 type  1   force =     0.00084862    0.00011881    0.00023708
     atom   32 type  1   force =    -0.00045116   -0.00002043    0.00012305
     atom   33 type  1   force =     0.00041675   -0.00036887   -0.00002140
     atom   34 type  1   force =     0.00126488   -0.00021517   -0.00000667
     atom   35 type  1   force =     0.00030782   -0.00030018    0.00012006
     atom   36 type  1   force =     0.00027094    0.00025415   -0.00043525
     atom   37 type  1   force =     0.00019373   -0.00010180   -0.00067394
     atom   38 type  1   force =     0.00019701    0.00013963   -0.00020167
     atom   39 type  2   force =    -0.00082685    0.00023582   -0.00033084
     atom   40 type  2   force =    -0.00072554    0.00003646    0.00051971
     atom   41 type  2   force =     0.00024188   -0.00027524   -0.00033092
     atom   42 type  2   force =     0.00077496   -0.00007532    0.00028665
     atom   43 type  1   force =     0.00034866    0.00025840   -0.00035802
     atom   44 type  1   force =     0.00022341   -0.00002270   -0.00012450
     atom   45 type  1   force =     0.00038482    0.00021388   -0.00000595
     atom   46 type  1   force =     0.00008544    0.00047285    0.00014287
     atom   47 type  1   force =     0.00007710   -0.00002859   -0.00021367
     atom   48 type  3   force =    -0.00079110    0.00002576   -0.00102420
     atom   49 type  4   force =     0.00091999    0.00051547    0.00015371
     atom   50 type  4   force =    -0.00023547   -0.00022176   -0.00055272
     atom   51 type  4   force =    -0.00026997    0.00071498   -0.00017987
     atom   52 type  3   force =    -0.00129668   -0.00208148   -0.00057207
     atom   53 type  5   force =    -0.00188767   -0.00304708   -0.00306399
     atom   54 type  4   force =     0.00282694    0.00453212    0.00287946
     atom   55 type  1   force =    -0.00012943   -0.00019866   -0.00064330

     Total force =     0.367410     Total SCF correction =     0.000537
  @ DRIVER MODE: Message from server: STATUS
  @ DRIVER MODE: Message from server: GETFORCE
  @ DRIVER MODE: Returning v,forces,stress,ensemble

     Writing output data file ./calc.save/
  @ DRIVER MODE: Message from server: EXIT
  @ DRIVE MODE: Exiting

     General routines

     Parallel routines

   This run was terminated on:   4:30:14  27Sep2021

   JOB DONE.