     Program PWSCF v.6.7GPU starts on 23Sep2021 at  9:38:11

     R & G space division:  proc/nbgrp/npool/nimage =      10
     Reading input from /storage/home/hcoda1/3/ntian30/research/carbon/CxH_vib/H2O_calc/ads_slab/CHNHNHH2O_b/out_0052/pw.inp
Warning: card &CELL ignored
Warning: card   CELL_DYNAMICS='IPI', ignored
Warning: card / ignored

     Current dimensions of program PWSCF are:
     Max number of different atomic species (ntypx) = 10
     Max number of k-points (npk) =  40000
     Max angular momentum in pseudopotentials (lmaxx) =  3
     Presently no symmetry can be used with electric field

     Message from routine cell_base_init:
     DEPRECATED: use true lattice parameter, not A to a.u. conversion factor

     IMPORTANT: XC functional enforced from input :
     Exchange-correlation= BEEF-VDW
                           (   1   4  43  14   2   0   0)
     Any further DFT definition will be discarded
     Please, verify this is what you really want

  @ DRIVER MODE: Connecting to
 qe_1139763_2937311.sched-torque.pace.gatech.edu280xmhqv_scratch
  using UNIX socket
  @ DRIVER MODE: Message from server: STATUS
  @ DRIVER MODE: Message from server: INIT
  @ DRIVER MODE: Receiving replica           0          -1
  @ DRIVER MODE: Receiving encoded integer          25
  @ DRIVER MODE:  SCF:  T  FORCE:  T  STRESS:  F  VC:  F  ENSEMBLE:  F
  @ DRIVER MODE:  SCF:  T  FORCE:  T  STRESS:  F  VC:  F  ENSEMBLE:  F

     Using Slab Decomposition

     bravais-lattice index     =            0
     lattice parameter (alat)  =       1.8897  a.u.
     unit-cell volume          =    6658.9804 (a.u.)^3
     number of atoms/cell      =           56
     number of atomic types    =            5
     number of electrons       =       403.00
     number of Kohn-Sham states=          211
     kinetic-energy cutoff     =      29.3995  Ry
     charge density cutoff     =     293.9946  Ry
     scf convergence threshold =      7.3E-08
     mixing beta               =       0.0500
     number of iterations used =            8  plain     mixing
     Exchange-correlation= BEEF-VDW
                           (   1   4  43  14   2   0   0)

     celldm(1)=   1.889726  celldm(2)=   0.000000  celldm(3)=   0.000000
     celldm(4)=   0.000000  celldm(5)=   0.000000  celldm(6)=   0.000000

     crystal axes: (cart. coord. in units of alat)
               a(1) = (   6.579727   0.000000   0.000000 )
               a(2) = (  -0.000775   5.961596   0.000000 )
               a(3) = (   0.000000   0.000000  25.155947 )

     reciprocal axes: (cart. coord. in units 2 pi/alat)
               b(1) = (  0.151982  0.000020  0.000000 )
               b(2) = (  0.000000  0.167740  0.000000 )
               b(3) = (  0.000000  0.000000  0.039752 )

     PseudoPot. # 1 for Ti read from file:
     /storage/coda1/p-amedford6/0/shared/rich_project_chbe-medford/medford-share/data/pseudos_module/espresso/nninc/pbe/van/Ti.UPF
     MD5 check sum: 8e4df49b7f0d34bbd5052bf3f5ea0213
     Pseudo is Ultrasoft, Zval = 12.0
     Generated by new atomic code, or converted to UPF format
     Using radial grid of  851 points,  6 beta functions with:
                l(1) =   0
                l(2) =   0
                l(3) =   1
                l(4) =   1
                l(5) =   2
                l(6) =   2
     Q(r) pseudized with  8 coefficients,  rinner =    1.000   1.000   1.000
                                                       1.000   1.000

     PseudoPot. # 2 for O  read from file:
     /storage/coda1/p-amedford6/0/shared/rich_project_chbe-medford/medford-share/data/pseudos_module/espresso/nninc/pbe/van/O.UPF
     MD5 check sum: 78c19812648e8988a0fe644b0f25305e
     Pseudo is Ultrasoft, Zval =  6.0
     Generated by new atomic code, or converted to UPF format
     Using radial grid of  737 points,  4 beta functions with:
                l(1) =   0
                l(2) =   0
                l(3) =   1
                l(4) =   1
     Q(r) pseudized with  8 coefficients,  rinner =    0.800   0.800   0.800

     PseudoPot. # 3 for N  read from file:
     /storage/coda1/p-amedford6/0/shared/rich_project_chbe-medford/medford-share/data/pseudos_module/espresso/nninc/pbe/van/N.UPF
     MD5 check sum: 90d10febe142ad51ac9d5be1deb811c4
     Pseudo is Ultrasoft, Zval =  5.0
     Generated by new atomic code, or converted to UPF format
     Using radial grid of  729 points,  4 beta functions with:
                l(1) =   0
                l(2) =   0
                l(3) =   1
                l(4) =   1
     Q(r) pseudized with  8 coefficients,  rinner =    0.800   0.800   0.800

     PseudoPot. # 4 for C  read from file:
     /storage/coda1/p-amedford6/0/shared/rich_project_chbe-medford/medford-share/data/pseudos_module/espresso/nninc/pbe/van/C.UPF
     MD5 check sum: 1a69bf6b8db32088f5b2163dbdb77a27
     Pseudo is Ultrasoft, Zval =  4.0
     Generated by new atomic code, or converted to UPF format
     Using radial grid of  721 points,  4 beta functions with:
                l(1) =   0
                l(2) =   0
                l(3) =   1
                l(4) =   1
     Q(r) pseudized with  8 coefficients,  rinner =    0.800   0.800   0.800

     PseudoPot. # 5 for H  read from file:
     /storage/coda1/p-amedford6/0/shared/rich_project_chbe-medford/medford-share/data/pseudos_module/espresso/nninc/pbe/van/H.UPF
     MD5 check sum: b5ee9d7bfd3a09ee7748110bda690ff7
     Pseudo is Ultrasoft, Zval =  1.0
     Generated by new atomic code, or converted to UPF format
     Using radial grid of  615 points,  1 beta functions with:
                l(1) =   0
     Q(r) pseudized with  8 coefficients,  rinner =    0.800

     atomic species   valence    mass     pseudopotential
        Ti1           12.00    47.86700     Ti( 1.00)
        O1             6.00    15.99900     O ( 1.00)
        N1             5.00    14.00700     N ( 1.00)
        C1             4.00    12.01100     C ( 1.00)
        H1             1.00     1.00800     H ( 1.00)

     No symmetry found

   Cartesian axes

     site n.     atom                  positions (alat units)
         1           Ti1 tau(   1) = (   0.0004258   2.9801865   6.0000000  )
         2           Ti1 tau(   2) = (   3.2906075   1.4906267   6.0002472  )
         3           O1  tau(   3) = (   0.0006271   0.0005054   7.9858123  )
         4           O1  tau(   4) = (   3.2906025   0.0005020   7.3038282  )
         5           O1  tau(   5) = (   4.5942328   1.4918067   9.2879030  )
         6           O1  tau(   6) = (   1.9868534   1.4903216   9.2879459  )
         7           Ti1 tau(   7) = (   3.2907910   2.8959150   9.1758416  )
         8           Ti1 tau(   8) = (   0.0015273   1.4827037   9.2680791  )
         9           O1  tau(   9) = (   3.2780774   5.9605562  11.3537357  )
        10           O1  tau(  10) = (   0.0116148   5.9584955  10.6183126  )
        11           O1  tau(  11) = (   1.2922713   1.4781662  12.6511241  )
        12           O1  tau(  12) = (   5.2965393   1.5043564  12.6031353  )
        13           Ti1 tau(  13) = (   6.5273184   3.0207086  12.5807821  )
        14           Ti1 tau(  14) = (   3.2344070   1.4559942  12.5004267  )
        15           O1  tau(  15) = (   6.4759410   0.0295824  14.6525783  )
        16           O1  tau(  16) = (   3.3604338   0.0238249  13.9383540  )
        17           O1  tau(  17) = (   4.5324113   1.5808541  16.1066768  )
        18           O1  tau(  18) = (   1.9684897   1.4712893  15.8817925  )
        19           Ti1 tau(  19) = (   3.2566353   3.0739815  15.8599551  )
        20           Ti1 tau(  20) = (   6.5466614   1.5318677  15.7800735  )
        21           O1  tau(  21) = (   3.2904802   0.0005063   4.7018136  )
        22           O1  tau(  22) = (   6.5744325   0.0155309  17.2227980  )
        23           O1  tau(  23) = (   1.3043587   1.4918075   6.0039043  )
        24           O1  tau(  24) = (   5.2767064   1.4903225   6.0039473  )
        25           Ti1 tau(  25) = (   0.0000382   5.9609847   6.0000000  )
        26           Ti1 tau(  26) = (   3.2902200   4.4714249   6.0002472  )
        27           O1  tau(  27) = (   0.0002396   2.9813036   7.9858123  )
        28           O1  tau(  28) = (   3.2902150   2.9813002   7.3038282  )
        29           O1  tau(  29) = (   4.5938453   4.4726049   9.2879030  )
        30           O1  tau(  30) = (   1.9864658   4.4711199   9.2879459  )
        31           Ti1 tau(  31) = (   3.2891106   5.8743827   9.1763621  )
        32           Ti1 tau(  32) = (   0.0006254   4.4649316   9.2693709  )
        33           O1  tau(  33) = (   3.2727763   2.9788165  11.3438337  )
        34           O1  tau(  34) = (   0.0092240   2.9805883  10.6323155  )
        35           O1  tau(  35) = (   1.2865780   4.4896361  12.6556599  )
        36           O1  tau(  36) = (   5.2967437   4.4749066  12.6066920  )
        37           Ti1 tau(  37) = (   6.5467059   0.0356701  12.5108493  )
        38           Ti1 tau(  38) = (   3.2305653   4.4019604  12.5605372  )
        39           O1  tau(  39) = (   6.5199767   2.9846217  14.6905747  )
        40           O1  tau(  40) = (   3.2851694   3.0254550  13.9321539  )
        41           O1  tau(  41) = (   4.5310495   4.4602642  16.1636806  )
        42           O1  tau(  42) = (   1.9842988   4.5744318  15.9411167  )
        43           Ti1 tau(  43) = (   3.2691225   0.1036042  15.7405456  )
        44           Ti1 tau(  44) = (   6.5697781   4.6877429  16.0360384  )
        45           O1  tau(  45) = (   3.2900926   2.9813045   4.7018136  )
        46           O1  tau(  46) = (   1.3039711   4.4726057   6.0039043  )
        47           O1  tau(  47) = (   5.2763189   4.4711207   6.0039473  )
        48           N1  tau(  48) = (   1.2792381   2.8578196  18.3696018  )
        49           N1  tau(  49) = (   0.1888888   2.9646215  17.5057353  )
        50           C1  tau(  50) = (   2.5352320   2.9081513  18.0382144  )
        51           H1  tau(  51) = (   3.1442446   2.7411670  18.9317345  )
        52           H1  tau(  52) = (   1.0014291   2.6635404  19.3302151  )
        53           H1  tau(  53) = (   5.9397212   2.8571719  18.0851170  )
        54           O1  tau(  54) = (   3.2630597   0.0341043  18.2348460  )
        55           H1  tau(  55) = (   4.0455299   5.4198958  18.2485053  )
        56           H1  tau(  56) = (   2.4923979   5.4191459  18.3156537  )

     number of k points=    10  Fermi-Dirac smearing, width (Ry)=  0.0073
                       cart. coord. in units 2pi/alat
        k(    1) = (   0.0000000   0.0000000   0.0000000), wk =   0.1250000
        k(    2) = (   0.0000000   0.0419351   0.0000000), wk =   0.2500000
        k(    3) = (   0.0000000  -0.0838702   0.0000000), wk =   0.1250000
        k(    4) = (   0.0379955   0.0000049   0.0000000), wk =   0.2500000
        k(    5) = (   0.0379955   0.0419400   0.0000000), wk =   0.2500000
        k(    6) = (   0.0379955  -0.0838652   0.0000000), wk =   0.2500000
        k(    7) = (   0.0379955  -0.0419301   0.0000000), wk =   0.2500000
        k(    8) = (  -0.0759910  -0.0000099   0.0000000), wk =   0.1250000
        k(    9) = (  -0.0759910   0.0419252   0.0000000), wk =   0.2500000
        k(   10) = (  -0.0759910  -0.0838800   0.0000000), wk =   0.1250000

     Initial potential from superposition of free atoms

     starting charge  386.99914, renormalised to  403.00000

     negative rho (up, down):  1.738E-02 0.000E+00

     %%%%%%%%%%%%%%%%%%%%%%%%%%%%%%%%%%%%%%%%%%%%%%%%%%%%%%%%%%%%%%%%%%%%%%%%
     %                                                                      %
     % You are using vdW-DF, which was implemented by the Thonhauser group. %
     % Please cite the following two papers that made this development      %
     % possible and the two reviews that describe the various versions:     %
     %                                                                      %
     %   T. Thonhauser et al., PRL 115, 136402 (2015).                      %
     %   T. Thonhauser et al., PRB 76, 125112 (2007).                       %
     %   K. Berland et al., Rep. Prog. Phys. 78, 066501 (2015).             %
     %   D.C. Langreth et al., J. Phys.: Condens. Matter 21, 084203 (2009). %
     %                                                                      %
     %                                                                      %
     % If you are calculating the stress with vdW-DF, please also cite:     %
     %                                                                      %
     %   R. Sabatini et al., J. Phys.: Condens. Matter 24, 424209 (2012).   %
     %                                                                      %
     %%%%%%%%%%%%%%%%%%%%%%%%%%%%%%%%%%%%%%%%%%%%%%%%%%%%%%%%%%%%%%%%%%%%%%%%

     Adding external electric field

     Computed dipole along edir(3) :
        Dipole              -12.3463 Ry au,        -31.3811 Debye
        Dipole field         -0.0233 Ry au,

        Potential amp.        2.1598 Ry
        Total length         46.3494 bohr

     Starting wfcs are  305 atomic wfcs
  @ DRIVER MODE: Message from server: STATUS
  @ DRIVER MODE: Message from server: POSDATA
  @ DRIVER MODE: Reading and sharing cell
  @ DRIVER MODE: Reading and sharing positions
  @ DRIVER MODE: Received positions

     Self-consistent Calculation

     iteration #  1     ecut=    29.40 Ry     beta= 0.05
     Davidson diagonalization with overlap
     c_bands:  5 eigenvalues not converged
     c_bands:  3 eigenvalues not converged
     c_bands:  3 eigenvalues not converged
     c_bands:  1 eigenvalues not converged
     c_bands:  2 eigenvalues not converged
     c_bands:  2 eigenvalues not converged
     c_bands:  5 eigenvalues not converged
     c_bands:  2 eigenvalues not converged
     c_bands:  4 eigenvalues not converged
     ethr =  1.00E-05,  avg # of iterations = 29.3

[...]

     total energy              =   -2358.71612721 Ry
     estimated scf accuracy    <    6971.26099643 Ry

     iteration #  2     ecut=    29.40 Ry     beta= 0.05
     Davidson diagonalization with overlap
     ethr =  1.00E-02,  avg # of iterations = 26.7

[...]

     iteration # 69     ecut=    29.40 Ry     beta= 0.05
     Davidson diagonalization with overlap
     c_bands:  1 eigenvalues not converged
     ethr =  3.03E-11,  avg # of iterations = 13.4

[...]

     total energy              =   -2973.94003324 Ry
     estimated scf accuracy    <       0.00000010 Ry

     iteration # 71     ecut=    29.40 Ry     beta= 0.05
     Davidson diagonalization with overlap
     ethr =  2.40E-11,  avg # of iterations = 11.1

     negative rho (up, down):  1.725E-02 0.000E+00

     Adding external electric field

     Computed dipole along edir(3) :
        Dipole                1.4004 Ry au,          3.5596 Debye
        Dipole field          0.0026 Ry au,

        Potential amp.       -0.2450 Ry
        Total length         46.3494 bohr

     End of self-consistent calculation

          k = 0.0000 0.0000 0.0000 ( 18029 PWs)   bands (ev):

   -55.3188 -55.2847 -55.2099 -55.1856 -55.1670 -55.1552 -55.1398 -55.1180
   -55.1059 -55.1037 -55.0972 -55.0626 -54.9915 -54.8340 -54.2993 -54.2653
   -31.8030 -31.7309 -31.6565 -31.6496 -31.6395 -31.6108 -31.5868 -31.5640
   -31.5197 -31.5008 -31.4712 -31.4636 -31.4553 -31.4405 -31.4248 -31.4210
   -31.3976 -31.3799 -31.3761 -31.3646 -31.3348 -31.3325 -31.3283 -31.3255
   -31.3227 -31.3188 -31.3146 -31.2965 -31.2887 -31.2787 -31.2717 -31.2715
   -31.2613 -31.2599 -31.2516 -31.2476 -31.2396 -31.2142 -31.2097 -31.0901
   -31.0752 -31.0493 -30.7062 -30.6181 -30.5957 -30.5232 -30.4367 -30.3255
   -18.9069 -18.6517 -15.9774 -15.7936 -15.6126 -15.4734 -15.3916 -15.1599
   -15.1015 -15.0630 -14.9820 -14.9594 -14.8583 -14.8399 -14.8384 -14.8200
   -14.8171 -14.7619 -14.7469 -14.7422 -14.6938 -14.6870 -14.6617 -14.6462
   -14.5938 -14.5149 -14.5064 -14.4598 -14.4147 -14.3682 -14.0229 -13.4120
   -12.8002 -12.6837  -8.8017  -7.2696  -6.6723  -4.3204  -3.7847  -3.3605
    -3.2842  -3.2488  -3.2237  -3.0880  -2.9711  -2.8599  -2.7551  -2.6697
    -2.5842  -2.4799  -2.4232  -2.3776  -2.3170  -2.2572  -2.2310  -2.1452
    -2.1255  -2.1058  -2.0844  -2.0576  -2.0281  -1.9909  -1.8685  -1.8579
    -1.7759  -1.7199  -1.6823  -1.6630  -1.6387  -1.6331  -1.6008  -1.5803
    -1.5720  -1.5604  -1.5591  -1.5240  -1.3847  -1.3613  -1.3320  -1.3100
    -1.1629  -1.0254  -0.9367  -0.9341  -0.8248  -0.7600  -0.7567  -0.7182
    -0.7027  -0.6006  -0.5150  -0.4788  -0.4539  -0.3757  -0.3182  -0.2624
    -0.2106  -0.1752  -0.1086  -0.0846  -0.0679  -0.0511   0.0178   0.0805
     0.1416   0.2268   0.2704   0.2948   0.3856   0.3999   0.4230   0.4876
     0.5197   0.5646   0.6001   0.6293   0.6530   0.6831   0.7082   0.7515
     0.7896   0.9153   0.9334   0.9621   0.9832   1.1575   1.2070   1.3104
     1.3403   1.4426   1.4843   1.6633   1.7245   1.8037   1.9164   2.2947
     2.3405   3.7903   3.9016   3.9357   3.9605   3.9998   4.0511   4.2581
     4.3307   4.3720   4.4301

[...]

          k = 0.0380-0.0419 0.0000 ( 17876 PWs)   bands (ev):

[...]

          k =-0.0760-0.0000 0.0000 ( 17886 PWs)   bands (ev):

[...]

          k =-0.0760-0.0839 0.0000 ( 17948 PWs)   bands (ev):

   -55.3020 -55.3014 -55.2005 -55.1822 -55.1756 -55.1437 -55.1298 -55.1229
   -55.1222 -55.1073 -55.0839 -55.0760 -54.9898 -54.8356 -54.2823 -54.2822
   -31.6184 -31.6180 -31.5964 -31.5960 -31.5652 -31.5333 -31.5021 -31.4896
   -31.4824 -31.4671 -31.4483 -31.4433 -31.4391 -31.4300 -31.4249 -31.4231
   -31.4214 -31.4210 -31.4163 -31.4006 -31.3897 -31.3756 -31.3645 -31.3623
   -31.3575 -31.3531 -31.3438 -31.3312 -31.3253 -31.3239 -31.3087 -31.2996
   -31.2961 -31.2956 -31.2939 -31.2909 -31.2606 -31.2329 -31.2189 -31.1461
   -31.0925 -31.0782 -30.6084 -30.6084 -30.5191 -30.5190 -30.4800 -30.4799
   -18.8975 -18.6569 -15.3548 -15.3200 -15.2817 -15.2542 -15.2383 -15.1175
   -15.1039 -15.0683 -15.0266 -15.0134 -14.9832 -14.9544 -14.9056 -14.8971
   -14.8628 -14.8432 -14.8040 -14.7778 -14.7582 -14.7539 -14.7372 -14.7156
   -14.6722 -14.6503 -14.6377 -14.6334 -14.5815 -14.4875 -14.2083 -13.4346
   -12.7855 -12.7855  -8.7974  -7.1948  -6.6729  -4.5279  -3.5712  -2.8569
    -2.6686  -2.6302  -2.5773  -2.4878  -2.4405  -2.3187  -2.3122  -2.2894
    -2.2440  -2.2312  -2.1906  -2.1501  -2.1442  -2.1162  -2.1041  -2.0593
    -2.0481  -2.0450  -2.0307  -1.9971  -1.9914  -1.9710  -1.9470  -1.9437
    -1.9334  -1.9170  -1.8839  -1.8768  -1.8498  -1.8307  -1.6805  -1.6065
    -1.5626  -1.4851  -1.4620  -1.4452  -1.4262  -1.3913  -1.3711  -1.3456
    -1.3172  -1.1715  -1.0330  -0.9961  -0.9715  -0.8728  -0.8577  -0.8385
    -0.7910  -0.7497  -0.7145  -0.6565  -0.6469  -0.6013  -0.5799  -0.4598
    -0.4226  -0.3239  -0.2876  -0.2862  -0.2682  -0.2535  -0.2365  -0.2105
    -0.1610  -0.0895  -0.0741  -0.0256  -0.0016   0.0010   0.0140   0.1600
     0.2308   0.2512   0.3534   0.3835   0.5583   0.7223   0.7343   0.8021
     0.8650   0.9200   0.9540   0.9940   1.0042   1.0698   1.0944   1.1993
     1.2095   1.2584   1.2635   1.3425   1.3547   2.0882   2.0899   2.1604
     2.1606   4.1539   4.1700   4.1978   4.2609   4.3045   4.3162   4.3537
     4.3574   4.4601   4.4755

     the Fermi energy is     3.8084 ev

!    total energy              =   -2973.94005013 Ry
     estimated scf accuracy    <       0.00000004 Ry
     smearing contrib. (-TS)   =      -0.02072683 Ry
     internal energy E=F+TS    =   -2973.91932330 Ry

     The total energy is F=E-TS. E is the sum of the following terms:
     one-electron contribution =  -24339.04874557 Ry
     hartree contribution      =   12267.23820682 Ry
     xc contribution           =    -494.12365281 Ry
     ewald contribution        =    9592.01116714 Ry
     electric field correction =       0.00370112 Ry

     convergence has been achieved in  71 iterations

     Forces acting on atoms (cartesian axes, Ry/au):

     atom    1 type  1   force =     0.00002598   -0.00009925    0.09506798
     atom    2 type  1   force =     0.00017947   -0.00068836   -0.17564439
     atom    3 type  2   force =     0.00008794   -0.00004842   -0.02292556
     atom    4 type  2   force =     0.00002214   -0.00143412    0.05291077
     atom    5 type  2   force =    -0.01000278   -0.00031481    0.00381435
     atom    6 type  2   force =     0.01112700    0.00020263    0.00206993
     atom    7 type  1   force =    -0.00021184    0.00178227   -0.00590035
     atom    8 type  1   force =     0.00080750    0.01008427    0.01604012
     atom    9 type  2   force =    -0.00015536    0.00086996    0.00032589
     atom   10 type  2   force =    -0.00227297    0.00217757   -0.01802665
     atom   11 type  2   force =     0.00023802   -0.00003303    0.00007880
     atom   12 type  2   force =    -0.00034753   -0.00018752    0.00055701
     atom   13 type  1   force =    -0.00002421    0.00125043    0.00015452
     atom   14 type  1   force =    -0.00011907    0.00009409   -0.00002794
     atom   15 type  2   force =     0.00011912    0.00021214    0.00000030
     atom   16 type  2   force =    -0.00037030    0.00044799   -0.00019713
     atom   17 type  2   force =    -0.00016728   -0.00023603   -0.00004290
     atom   18 type  2   force =    -0.00003624   -0.00001328    0.00043345
     atom   19 type  1   force =    -0.00053490    0.00032780   -0.00020670
     atom   20 type  1   force =    -0.00030047   -0.00007252    0.00016029
     atom   21 type  2   force =     0.00009069   -0.00008512    0.10317544
     atom   22 type  2   force =     0.00042617    0.00004049    0.00063426
     atom   23 type  2   force =    -0.07158193   -0.00016654   -0.02756853
     atom   24 type  2   force =     0.07154056    0.00024831   -0.02761734
     atom   25 type  1   force =     0.00023791   -0.00039567    0.09517434
     atom   26 type  1   force =    -0.00003946   -0.00020195   -0.17581206
     atom   27 type  2   force =     0.00012141   -0.00012221   -0.02195292
     atom   28 type  2   force =     0.00001397   -0.00139793    0.05324071
     atom   29 type  2   force =    -0.01034819   -0.00022749    0.00365691
     atom   30 type  2   force =     0.01138496    0.00042345    0.00192522
     atom   31 type  1   force =    -0.00030017    0.00266475   -0.00010043
     atom   32 type  1   force =     0.00067461   -0.01114185    0.01692280
     atom   33 type  2   force =     0.00036996   -0.00027072    0.00000269
     atom   34 type  2   force =    -0.00033824    0.00144236   -0.01896033
     atom   35 type  2   force =    -0.00000681   -0.00035111   -0.00016814
     atom   36 type  2   force =    -0.00000157   -0.00024229    0.00043256
     atom   37 type  1   force =    -0.00005375   -0.00122143    0.00031721
     atom   38 type  1   force =    -0.00039477    0.00088608    0.00003988
     atom   39 type  2   force =     0.00010200    0.00008006    0.00010058
     atom   40 type  2   force =    -0.00049626   -0.00059758   -0.00001300
     atom   41 type  2   force =     0.00019497   -0.00010077    0.00033534
     atom   42 type  2   force =    -0.00017851   -0.00029875   -0.00019351
     atom   43 type  1   force =    -0.00020166   -0.00020299    0.00029558
     atom   44 type  1   force =     0.00008259   -0.00038919    0.00020487
     atom   45 type  2   force =     0.00010078   -0.00010208    0.10319581
     atom   46 type  2   force =    -0.07156730   -0.00017052   -0.02756101
     atom   47 type  2   force =     0.07156790    0.00024289   -0.02757370
     atom   48 type  3   force =     0.00033658   -0.00050432    0.00030105
     atom   49 type  3   force =     0.00001079    0.00009888   -0.00020592
     atom   50 type  4   force =     0.00024848   -0.00028264    0.00045737
     atom   51 type  5   force =    -0.00015132   -0.00046775   -0.00024768
     atom   52 type  5   force =    -0.00002587   -0.00098915   -0.00081362
     atom   53 type  5   force =     0.00016962   -0.00041484   -0.00061401
     atom   54 type  2   force =     0.00935530    0.00900458   -0.00123137
     atom   55 type  5   force =    -0.00086849   -0.00068032    0.00006289
     atom   56 type  5   force =    -0.00853919   -0.00842843    0.00151627

     Total force =     0.365604     Total SCF correction =     0.000657
  @ DRIVER MODE: Message from server: STATUS
  @ DRIVER MODE: Message from server: GETFORCE
  @ DRIVER MODE: Returning v,forces,stress,ensemble

     Writing output data file ./calc.save/
  @ DRIVER MODE: Message from server: EXIT
  @ DRIVE MODE: Exiting

     General routines

     Parallel routines

   This run was terminated on:   9:58:24  23Sep2021

   JOB DONE.