     Program PWSCF v.6.7GPU starts on 23Sep2021 at 23:51:20

     R & G space division:  proc/nbgrp/npool/nimage =       8
     Reading input from /storage/home/hcoda1/3/ntian30/research/carbon/CxH_vib/H2O_calc/ads_slab/CH3NHNH2HO_a/out_0028/pw.inp
Warning: card &CELL ignored
Warning: card   CELL_DYNAMICS='IPI', ignored
Warning: card / ignored

     Current dimensions of program PWSCF are:
     Max number of different atomic species (ntypx) = 10
     Max number of k-points (npk) =  40000
     Max angular momentum in pseudopotentials (lmaxx) =  3
     Presently no symmetry can be used with electric field

     Message from routine cell_base_init:
     DEPRECATED: use true lattice parameter, not A to a.u. conversion factor

     IMPORTANT: XC functional enforced from input :
     Exchange-correlation= BEEF-VDW
                           (   1   4  43  14   2   0   0)
     Any further DFT definition will be discarded
     Please, verify this is what you really want

  @ DRIVER MODE: Connecting to
 qe_1139763_2947307.sched-torque.pace.gatech.edum1_7eubh_scratch
  using UNIX socket
  @ DRIVER MODE: Message from server: STATUS
  @ DRIVER MODE: Message from server: INIT
  @ DRIVER MODE: Receiving replica           0          -1
  @ DRIVER MODE: Receiving encoded integer          25
  @ DRIVER MODE:  SCF:  T  FORCE:  T  STRESS:  F  VC:  F  ENSEMBLE:  F
  @ DRIVER MODE:  SCF:  T  FORCE:  T  STRESS:  F  VC:  F  ENSEMBLE:  F

     Using Slab Decomposition

     bravais-lattice index     =            0
     lattice parameter (alat)  =       1.8897  a.u.
     unit-cell volume          =    6658.9804 (a.u.)^3
     number of atoms/cell      =           58
     number of atomic types    =            5
     number of electrons       =       405.00
     number of Kohn-Sham states=          212
     kinetic-energy cutoff     =      29.3995  Ry
     charge density cutoff     =     293.9946  Ry
     scf convergence threshold =      7.3E-08
     mixing beta               =       0.0500
     number of iterations used =            8  plain     mixing
     Exchange-correlation= BEEF-VDW
                           (   1   4  43  14   2   0   0)

     celldm(1)=   1.889726  celldm(2)=   0.000000  celldm(3)=   0.000000
     celldm(4)=   0.000000  celldm(5)=   0.000000  celldm(6)=   0.000000

     crystal axes: (cart. coord. in units of alat)
               a(1) = (   6.579727   0.000000   0.000000 )
               a(2) = (  -0.000775   5.961596   0.000000 )
               a(3) = (   0.000000   0.000000  25.155947 )

     reciprocal axes: (cart. coord. in units 2 pi/alat)
               b(1) = (  0.151982  0.000020  0.000000 )
               b(2) = (  0.000000  0.167740  0.000000 )
               b(3) = (  0.000000  0.000000  0.039752 )

     PseudoPot. # 1 for Ti read from file:
     /storage/coda1/p-amedford6/0/shared/rich_project_chbe-medford/medford-share/data/pseudos_module/espresso/nninc/pbe/van/Ti.UPF
     MD5 check sum: 8e4df49b7f0d34bbd5052bf3f5ea0213
     Pseudo is Ultrasoft, Zval = 12.0
     Generated by new atomic code, or converted to UPF format
     Using radial grid of  851 points,  6 beta functions with:
                l(1) =   0
                l(2) =   0
                l(3) =   1
                l(4) =   1
                l(5) =   2
                l(6) =   2
     Q(r) pseudized with  8 coefficients,  rinner =    1.000   1.000   1.000
                                                       1.000   1.000

     PseudoPot. # 2 for O  read from file:
     /storage/coda1/p-amedford6/0/shared/rich_project_chbe-medford/medford-share/data/pseudos_module/espresso/nninc/pbe/van/O.UPF
     MD5 check sum: 78c19812648e8988a0fe644b0f25305e
     Pseudo is Ultrasoft, Zval =  6.0
     Generated by new atomic code, or converted to UPF format
     Using radial grid of  737 points,  4 beta functions with:
                l(1) =   0
                l(2) =   0
                l(3) =   1
                l(4) =   1
     Q(r) pseudized with  8 coefficients,  rinner =    0.800   0.800   0.800

     PseudoPot. # 3 for N  read from file:
     /storage/coda1/p-amedford6/0/shared/rich_project_chbe-medford/medford-share/data/pseudos_module/espresso/nninc/pbe/van/N.UPF
     MD5 check sum: 90d10febe142ad51ac9d5be1deb811c4
     Pseudo is Ultrasoft, Zval =  5.0
     Generated by new atomic code, or converted to UPF format
     Using radial grid of  729 points,  4 beta functions with:
                l(1) =   0
                l(2) =   0
                l(3) =   1
                l(4) =   1
     Q(r) pseudized with  8 coefficients,  rinner =    0.800   0.800   0.800

     PseudoPot. # 4 for C  read from file:
     /storage/coda1/p-amedford6/0/shared/rich_project_chbe-medford/medford-share/data/pseudos_module/espresso/nninc/pbe/van/C.UPF
     MD5 check sum: 1a69bf6b8db32088f5b2163dbdb77a27
     Pseudo is Ultrasoft, Zval =  4.0
     Generated by new atomic code, or converted to UPF format
     Using radial grid of  721 points,  4 beta functions with:
                l(1) =   0
                l(2) =   0
                l(3) =   1
                l(4) =   1
     Q(r) pseudized with  8 coefficients,  rinner =    0.800   0.800   0.800

     PseudoPot. # 5 for H  read from file:
     /storage/coda1/p-amedford6/0/shared/rich_project_chbe-medford/medford-share/data/pseudos_module/espresso/nninc/pbe/van/H.UPF
     MD5 check sum: b5ee9d7bfd3a09ee7748110bda690ff7
     Pseudo is Ultrasoft, Zval =  1.0
     Generated by new atomic code, or converted to UPF format
     Using radial grid of  615 points,  1 beta functions with:
                l(1) =   0
     Q(r) pseudized with  8 coefficients,  rinner =    0.800

     atomic species   valence    mass     pseudopotential
        Ti1           12.00    47.86700     Ti( 1.00)
        O1             6.00    15.99900     O ( 1.00)
        N1             5.00    14.00700     N ( 1.00)
        C1             4.00    12.01100     C ( 1.00)
        H1             1.00     1.00800     H ( 1.00)

     No symmetry found

   Cartesian axes

     site n.     atom                  positions (alat units)
         1           Ti1 tau(   1) = (   0.0004258   2.9801865   6.0000000  )
         2           Ti1 tau(   2) = (   3.2906075   1.4906267   6.0002472  )
         3           O1  tau(   3) = (   0.0006271   0.0005054   7.9858123  )
         4           O1  tau(   4) = (   3.2906025   0.0005020   7.3038282  )
         5           O1  tau(   5) = (   4.5942328   1.4918067   9.2879030  )
         6           O1  tau(   6) = (   1.9868534   1.4903216   9.2879459  )
         7           Ti1 tau(   7) = (   3.2907910   2.8959150   9.1758416  )
         8           Ti1 tau(   8) = (   0.0015273   1.4827037   9.2680791  )
         9           O1  tau(   9) = (   3.3003128   0.0493987  11.3625472  )
        10           O1  tau(  10) = (   0.0116148   5.9584955  10.6183126  )
        11           O1  tau(  11) = (   1.2863924   1.5188706  12.6959087  )
        12           O1  tau(  12) = (   5.3173592   1.5183023  12.6957539  )
        13           Ti1 tau(  13) = (   0.0130489   2.9571150  12.5182267  )
        14           Ti1 tau(  14) = (   3.3124343   1.5987737  12.4587140  )
        15           O1  tau(  15) = (   0.0455642   5.8537743  14.6515032  )
        16           O1  tau(  16) = (   3.3135256   5.8999501  14.0036581  )
        17           O1  tau(  17) = (   4.5824137   1.5787328  16.0473457  )
        18           O1  tau(  18) = (   2.0456054   1.5356268  16.0652349  )
        19           Ti1 tau(  19) = (   3.2855744   2.9948502  15.7047272  )
        20           Ti1 tau(  20) = (   0.0729980   1.3194477  15.7501807  )
        21           O1  tau(  21) = (   3.2904802   0.0005063   4.7018136  )
        22           O1  tau(  22) = (   6.5643345   0.1786488  17.1561759  )
        23           O1  tau(  23) = (   1.3043587   1.4918075   6.0039043  )
        24           O1  tau(  24) = (   5.2767064   1.4903225   6.0039473  )
        25           Ti1 tau(  25) = (   0.0000382   5.9609847   6.0000000  )
        26           Ti1 tau(  26) = (   3.2902200   4.4714249   6.0002472  )
        27           O1  tau(  27) = (   0.0002396   2.9813036   7.9858123  )
        28           O1  tau(  28) = (   3.2902150   2.9813002   7.3038282  )
        29           O1  tau(  29) = (   4.5938453   4.4726049   9.2879030  )
        30           O1  tau(  30) = (   1.9864658   4.4711199   9.2879459  )
        31           Ti1 tau(  31) = (   3.2891106   5.8743827   9.1763621  )
        32           Ti1 tau(  32) = (   0.0006254   4.4649316   9.2693709  )
        33           O1  tau(  33) = (   3.3044115   2.9646987  11.3227374  )
        34           O1  tau(  34) = (   0.0092240   2.9805883  10.6323155  )
        35           O1  tau(  35) = (   1.2889249   4.4812606  12.6373974  )
        36           O1  tau(  36) = (   5.3198440   4.4849614  12.6453916  )
        37           Ti1 tau(  37) = (   0.0274371   5.9167426  12.5032498  )
        38           Ti1 tau(  38) = (   3.3124303   4.6827448  12.7121475  )
        39           O1  tau(  39) = (   0.0064664   3.0605765  14.9143048  )
        40           O1  tau(  40) = (   3.2921723   3.0190953  13.9337278  )
        41           O1  tau(  41) = (   4.5343043   4.4484976  16.2223827  )
        42           O1  tau(  42) = (   2.0055671   4.4324605  16.2273083  )
        43           Ti1 tau(  43) = (   3.3963104   0.0511244  16.3072024  )
        44           Ti1 tau(  44) = (   0.1011521   4.5293608  16.0606835  )
        45           O1  tau(  45) = (   3.2900926   2.9813045   4.7018136  )
        46           O1  tau(  46) = (   1.3039711   4.4726057   6.0039043  )
        47           O1  tau(  47) = (   5.2763189   4.4711207   6.0039473  )
        48           N1  tau(  48) = (   0.7799224   3.1460235  19.0808133  )
        49           N1  tau(  49) = (   6.3029119   3.3142126  18.0946246  )
        50           C1  tau(  50) = (   0.9829876   4.3811599  19.8296872  )
        51           H1  tau(  51) = (   0.0599524   4.7630682  20.2995108  )
        52           H1  tau(  52) = (   1.7087173   4.1828717  20.6153690  )
        53           H1  tau(  53) = (   1.3778604   5.1510331  19.1745456  )
        54           H1  tau(  54) = (   0.4845774   2.4057476  19.7140978  )
        55           H1  tau(  55) = (   5.5451363   3.8924421  18.4761980  )
        56           H1  tau(  56) = (   5.8791802   2.3931312  17.9634808  )
        57           O1  tau(  57) = (   3.3895457   0.1916509  18.1699706  )
        58           H1  tau(  58) = (   3.8128180   5.4341384  18.6581559  )

     number of k points=    10  Fermi-Dirac smearing, width (Ry)=  0.0073
                       cart. coord. in units 2pi/alat
        k(    1) = (   0.0000000   0.0000000   0.0000000), wk =   0.1250000
        k(    2) = (   0.0000000   0.0419351   0.0000000), wk =   0.2500000
        k(    3) = (   0.0000000  -0.0838702   0.0000000), wk =   0.1250000
        k(    4) = (   0.0379955   0.0000049   0.0000000), wk =   0.2500000
        k(    5) = (   0.0379955   0.0419400   0.0000000), wk =   0.2500000
        k(    6) = (   0.0379955  -0.0838652   0.0000000), wk =   0.2500000
        k(    7) = (   0.0379955  -0.0419301   0.0000000), wk =   0.2500000
        k(    8) = (  -0.0759910  -0.0000099   0.0000000), wk =   0.1250000
        k(    9) = (  -0.0759910   0.0419252   0.0000000), wk =   0.2500000
        k(   10) = (  -0.0759910  -0.0838800   0.0000000), wk =   0.1250000

     Initial potential from superposition of free atoms

     starting charge  388.99913, renormalised to  405.00000

     negative rho (up, down):  1.368E-02 0.000E+00

     %%%%%%%%%%%%%%%%%%%%%%%%%%%%%%%%%%%%%%%%%%%%%%%%%%%%%%%%%%%%%%%%%%%%%%%%
     %                                                                      %
     % You are using vdW-DF, which was implemented by the Thonhauser group. %
     % Please cite the following two papers that made this development      %
     % possible and the two reviews that describe the various versions:     %
     %                                                                      %
     %   T. Thonhauser et al., PRL 115, 136402 (2015).                      %
     %   T. Thonhauser et al., PRB 76, 125112 (2007).                       %
     %   K. Berland et al., Rep. Prog. Phys. 78, 066501 (2015).             %
     %   D.C. Langreth et al., J. Phys.: Condens. Matter 21, 084203 (2009). %
     %                                                                      %
     %                                                                      %
     % If you are calculating the stress with vdW-DF, please also cite:     %
     %                                                                      %
     %   R. Sabatini et al., J. Phys.: Condens. Matter 24, 424209 (2012).   %
     %                                                                      %
     %%%%%%%%%%%%%%%%%%%%%%%%%%%%%%%%%%%%%%%%%%%%%%%%%%%%%%%%%%%%%%%%%%%%%%%%

     Adding external electric field

     Computed dipole along edir(3) :
        Dipole              -14.8124 Ry au,        -37.6493 Debye
        Dipole field         -0.0280 Ry au,

        Potential amp.        2.5912 Ry
        Total length         46.3494 bohr

     Starting wfcs are  307 atomic wfcs
  @ DRIVER MODE: Message from server: STATUS
  @ DRIVER MODE: Message from server: POSDATA
  @ DRIVER MODE: Reading and sharing cell
  @ DRIVER MODE: Reading and sharing positions
  @ DRIVER MODE: Received positions

     Self-consistent Calculation

     iteration #  1     ecut=    29.40 Ry     beta= 0.05
     Davidson diagonalization with overlap
     c_bands:  4 eigenvalues not converged
     c_bands:  4 eigenvalues not converged
     c_bands:  5 eigenvalues not converged
     c_bands:  2 eigenvalues not converged
     c_bands:  3 eigenvalues not converged
     c_bands:  4 eigenvalues not converged
     c_bands:  2 eigenvalues not converged
     ethr =  1.00E-05,  avg # of iterations = 22.9

[...]

     total energy              =   -2202.97951941 Ry
     estimated scf accuracy    <    8803.88990284 Ry

     iteration #  2     ecut=    29.40 Ry     beta= 0.05
     Davidson diagonalization with overlap
     ethr =  1.00E-02,  avg # of iterations = 31.2

[...]

     iteration # 50     ecut=    29.40 Ry     beta= 0.05
     Davidson diagonalization with overlap
     c_bands:  1 eigenvalues not converged
     ethr =  2.34E-07,  avg # of iterations = 11.7

[...]

     total energy              =   -2976.46402875 Ry
     estimated scf accuracy    <       0.00000011 Ry

     iteration # 71     ecut=    29.40 Ry     beta= 0.05
     Davidson diagonalization with overlap
     ethr =  2.61E-11,  avg # of iterations =  6.7

     negative rho (up, down):  1.441E-02 0.000E+00

     Adding external electric field

     Computed dipole along edir(3) :
        Dipole                1.2264 Ry au,          3.1172 Debye
        Dipole field          0.0023 Ry au,

        Potential amp.       -0.2145 Ry
        Total length         46.3494 bohr

     End of self-consistent calculation

          k = 0.0000 0.0000 0.0000 ( 18029 PWs)   bands (ev):

   -55.4448 -55.3567 -55.3227 -55.2180 -55.2149 -55.1875 -55.1852 -55.1774
   -55.1535 -55.1302 -55.0872 -54.9854 -54.9368 -54.8938 -54.3315 -54.2975
   -31.8419 -31.7911 -31.7217 -31.7042 -31.6903 -31.6754 -31.6548 -31.6475
   -31.6164 -31.6029 -31.5968 -31.5092 -31.4943 -31.4870 -31.4672 -31.4638
   -31.4597 -31.4507 -31.4501 -31.4203 -31.4141 -31.3924 -31.3855 -31.3756
   -31.3707 -31.3546 -31.3536 -31.3218 -31.3212 -31.3149 -31.3141 -31.3083
   -31.3001 -31.2819 -31.2582 -31.2396 -31.1744 -31.1526 -31.1411 -31.1325
   -31.1121 -31.1029 -30.7375 -30.6512 -30.6287 -30.5550 -30.4686 -30.3569
   -17.7436 -16.3677 -16.0109 -15.8471 -15.6323 -15.5396 -15.5126 -15.3137
   -15.2187 -15.1605 -14.9591 -14.9321 -14.8945 -14.8816 -14.8727 -14.8517
   -14.8481 -14.7965 -14.7811 -14.7711 -14.7676 -14.7373 -14.7102 -14.6710
   -14.6114 -14.5977 -14.4951 -14.4396 -14.3997 -14.1587 -14.1382 -13.1757
   -12.8302 -12.7138  -9.4471  -6.4476  -5.7432  -4.2693  -3.9345  -3.3689
    -3.2676  -3.2559  -3.1997  -3.1320  -2.9926  -2.8842  -2.7809  -2.7424
    -2.6051  -2.5957  -2.4922  -2.4436  -2.3702  -2.3243  -2.2831  -2.2482
    -2.2207  -2.1646  -2.1423  -2.1165  -2.1052  -2.0324  -2.0141  -1.9240
    -1.8915  -1.8780  -1.7604  -1.7256  -1.6911  -1.6779  -1.6687  -1.6625
    -1.6189  -1.6084  -1.5977  -1.5560  -1.4553  -1.4473  -1.4297  -1.3390
    -1.2418  -0.9915  -0.9603  -0.9098  -0.8983  -0.8201  -0.7815  -0.7499
    -0.7172  -0.6476  -0.6364  -0.6101  -0.5488  -0.4734  -0.4191  -0.3714
    -0.3373  -0.2254  -0.1754  -0.1315  -0.0987  -0.0619   0.0010   0.0407
     0.0647   0.1078   0.1954   0.2587   0.2863   0.3030   0.3532   0.3950
     0.4330   0.4735   0.5452   0.5678   0.5779   0.6172   0.6258   0.6467
     0.7422   0.7606   0.8201   0.8473   0.9352   0.9662   1.0104   1.1799
     1.2495   1.3079   1.3861   1.4772   1.6403   1.6948   1.7197   1.8887
     2.2621   2.3075   3.7271   3.8745   3.8908   3.9686   3.9855   4.0497
     4.2160   4.2753   4.4153   4.4235

[...]

          k = 0.0380-0.0419 0.0000 ( 17876 PWs)   bands (ev):

[...]

          k =-0.0760-0.0000 0.0000 ( 17886 PWs)   bands (ev):

[...]

          k =-0.0760-0.0839 0.0000 ( 17948 PWs)   bands (ev):

   -55.4440 -55.3397 -55.3395 -55.2167 -55.2033 -55.1890 -55.1859 -55.1716
   -55.1689 -55.1222 -55.0953 -54.9823 -54.9378 -54.8967 -54.3145 -54.3144
   -31.7298 -31.6695 -31.6572 -31.6571 -31.6560 -31.6419 -31.6332 -31.6329
   -31.5757 -31.5307 -31.5094 -31.4987 -31.4932 -31.4879 -31.4652 -31.4596
   -31.4590 -31.4560 -31.4495 -31.4370 -31.4303 -31.4275 -31.4158 -31.3899
   -31.3852 -31.3834 -31.3759 -31.3681 -31.3496 -31.3443 -31.3408 -31.3404
   -31.3376 -31.3174 -31.3159 -31.2515 -31.2344 -31.2064 -31.1786 -31.1548
   -31.1490 -31.1077 -30.6415 -30.6414 -30.5506 -30.5502 -30.5120 -30.5118
   -17.7395 -16.3577 -15.5916 -15.4466 -15.3382 -15.3278 -15.2039 -15.1368
   -15.1270 -15.0934 -15.0705 -15.0487 -15.0302 -15.0150 -14.9602 -14.9205
   -14.8891 -14.8617 -14.8571 -14.8142 -14.8044 -14.7931 -14.7751 -14.7636
   -14.7084 -14.6722 -14.6626 -14.6041 -14.4650 -14.4443 -14.2890 -13.1771
   -12.8157 -12.8155  -9.4661  -6.4319  -5.7494  -4.2551  -3.9233  -2.9792
    -2.8007  -2.6581  -2.5971  -2.5625  -2.4491  -2.4241  -2.3669  -2.3165
    -2.2924  -2.2708  -2.2188  -2.2087  -2.1628  -2.1467  -2.1226  -2.1076
    -2.0912  -2.0847  -2.0568  -2.0410  -2.0307  -2.0175  -1.9907  -1.9796
    -1.9614  -1.9326  -1.9125  -1.9034  -1.8699  -1.8275  -1.7664  -1.6559
    -1.5821  -1.5711  -1.5271  -1.5021  -1.4859  -1.4449  -1.4323  -1.3913
    -1.3739  -1.3078  -1.1498  -1.1247  -1.1102  -0.9677  -0.9605  -0.9316
    -0.8575  -0.8157  -0.7939  -0.7359  -0.7062  -0.6655  -0.5890  -0.5458
    -0.4915  -0.4254  -0.3255  -0.3179  -0.3018  -0.2818  -0.2657  -0.2577
    -0.2246  -0.1874  -0.1144  -0.0678  -0.0591  -0.0531  -0.0020   0.0779
     0.1288   0.2432   0.3894   0.3938   0.4608   0.4617   0.6613   0.6700
     0.7469   0.7822   0.8168   0.8439   0.9377   0.9557   0.9933   1.0761
     1.1396   1.1692   1.1901   1.1949   1.2480   1.4597   2.0571   2.0649
     2.1278   2.1279   3.9682   4.2013   4.2419   4.2547   4.2732   4.2995
     4.3133   4.3273   4.3941   4.4176

     the Fermi energy is     3.7644 ev

!    total energy              =   -2976.46405006 Ry
     estimated scf accuracy    <       0.00000004 Ry
     smearing contrib. (-TS)   =      -0.01955513 Ry
     internal energy E=F+TS    =   -2976.44449493 Ry

     The total energy is F=E-TS. E is the sum of the following terms:
     one-electron contribution =  -23037.27305629 Ry
     hartree contribution      =   11616.35712817 Ry
     xc contribution           =    -495.72689639 Ry
     ewald contribution        =    8940.19549114 Ry
     electric field correction =       0.00283843 Ry

     convergence has been achieved in  71 iterations

     Forces acting on atoms (cartesian axes, Ry/au):

     atom    1 type  1   force =     0.00016376   -0.00022822    0.09416651
     atom    2 type  1   force =    -0.00010429    0.00018319   -0.17537419
     atom    3 type  2   force =     0.00005503   -0.00049553   -0.02102485
     atom    4 type  2   force =    -0.00002449   -0.00093792    0.05425590
     atom    5 type  2   force =    -0.00488416   -0.00215810    0.00107327
     atom    6 type  2   force =     0.00670817   -0.00138384    0.00108823
     atom    7 type  1   force =     0.00006101    0.00331344    0.00865864
     atom    8 type  1   force =    -0.00010016    0.00119258    0.00271770
     atom    9 type  2   force =    -0.00021969   -0.00030772   -0.00058717
     atom   10 type  2   force =    -0.00111944    0.00428832   -0.01025785
     atom   11 type  2   force =    -0.00008286   -0.00055677   -0.00010387
     atom   12 type  2   force =     0.00062525   -0.00032159   -0.00026571
     atom   13 type  1   force =    -0.00143296    0.00020073   -0.00058487
     atom   14 type  1   force =     0.00070934    0.00019331   -0.00048226
     atom   15 type  2   force =     0.00013444   -0.00001274    0.00004652
     atom   16 type  2   force =    -0.00009253   -0.00069436   -0.00029117
     atom   17 type  2   force =    -0.00043779    0.00068929    0.00007617
     atom   18 type  2   force =    -0.00074711    0.00030873   -0.00022248
     atom   19 type  1   force =     0.00040167   -0.00092487    0.00058583
     atom   20 type  1   force =    -0.00068505   -0.00008200    0.00052199
     atom   21 type  2   force =     0.00003708   -0.00001076    0.10320628
     atom   22 type  2   force =    -0.00011916    0.00004516    0.00039616
     atom   23 type  2   force =    -0.07199795   -0.00019864   -0.02725722
     atom   24 type  2   force =     0.07187378    0.00025589   -0.02732672
     atom   25 type  1   force =     0.00007813   -0.00016886    0.09388775
     atom   26 type  1   force =    -0.00011972   -0.00136746   -0.17551520
     atom   27 type  2   force =     0.00011168   -0.00005241   -0.01983432
     atom   28 type  2   force =     0.00006523   -0.00105013    0.04980654
     atom   29 type  2   force =    -0.00746519    0.00209603    0.00339431
     atom   30 type  2   force =     0.00906990    0.00223797    0.00331345
     atom   31 type  1   force =     0.00019822    0.00150845    0.00005477
     atom   32 type  1   force =    -0.00008764   -0.00226719    0.00303160
     atom   33 type  2   force =    -0.00017637   -0.00030386   -0.00002744
     atom   34 type  2   force =    -0.00117076   -0.00218161   -0.00964894
     atom   35 type  2   force =     0.00063275    0.00006242   -0.00022097
     atom   36 type  2   force =     0.00038256    0.00012273   -0.00034775
     atom   37 type  1   force =    -0.00096734    0.00025039    0.00033977
     atom   38 type  1   force =     0.00096302   -0.00026937    0.00016837
     atom   39 type  2   force =    -0.00017109   -0.00052176    0.00011074
     atom   40 type  2   force =    -0.00019892   -0.00019044   -0.00015442
     atom   41 type  2   force =     0.00024671   -0.00031974   -0.00009776
     atom   42 type  2   force =    -0.00065249    0.00005655   -0.00011370
     atom   43 type  1   force =     0.00021843    0.00091873    0.00046581
     atom   44 type  1   force =    -0.00037844    0.00087974    0.00005837
     atom   45 type  2   force =     0.00002457    0.00003345    0.10302380
     atom   46 type  2   force =    -0.07194707   -0.00007949   -0.02720990
     atom   47 type  2   force =     0.07183974    0.00035264   -0.02729225
     atom   48 type  3   force =     0.00074922   -0.00114950    0.00017236
     atom   49 type  3   force =    -0.00022620   -0.00001637   -0.00029470
     atom   50 type  4   force =    -0.00145296    0.00205341   -0.00144459
     atom   51 type  5   force =    -0.00124196   -0.00012488    0.00021455
     atom   52 type  5   force =     0.00198906   -0.00244737    0.00172863
     atom   53 type  5   force =    -0.00083708    0.00072551   -0.00099441
     atom   54 type  5   force =     0.00066588   -0.00029636   -0.00001002
     atom   55 type  5   force =     0.00052666   -0.00056129    0.00006401
     atom   56 type  5   force =     0.00068549   -0.00004980   -0.00000446
     atom   57 type  2   force =     0.00071389   -0.00118092    0.00013983
     atom   58 type  5   force =    -0.00078980    0.00094327    0.00022131

     Total force =     0.362030     Total SCF correction =     0.000464
  @ DRIVER MODE: Message from server: STATUS
  @ DRIVER MODE: Message from server: GETFORCE
  @ DRIVER MODE: Returning v,forces,stress,ensemble

     Writing output data file ./calc.save/
  @ DRIVER MODE: Message from server: EXIT
  @ DRIVE MODE: Exiting

     General routines

     Parallel routines

   This run was terminated on:   0:20:23  24Sep2021

   JOB DONE.