     Program PWSCF v.6.7GPU starts on 24Aug2021 at 17:32:15

     R & G space division:  proc/nbgrp/npool/nimage =      72
     Reading input from /storage/home/hcoda1/3/ntian30/research/carbon/CH2_vib/ads_slab/CH2NNH3_a/out_0021/pw.inp
Warning: card &CELL ignored
Warning: card   CELL_DYNAMICS='IPI', ignored
Warning: card / ignored

     Current dimensions of program PWSCF are:
     Max number of different atomic species (ntypx) = 10
     Max number of k-points (npk) =  40000
     Max angular momentum in pseudopotentials (lmaxx) =  3
     Presently no symmetry can be used with electric field

     Message from routine cell_base_init:
     DEPRECATED: use true lattice parameter, not A to a.u. conversion factor

     IMPORTANT: XC functional enforced from input :
     Exchange-correlation= BEEF-VDW
                           (   1   4  43  14   2   0   0)
     Any further DFT definition will be discarded
     Please, verify this is what you really want

  @ DRIVER MODE: Connecting to
 qe_1139763_2641442.sched-torque.pace.gatech.edu0qxxf14r_scratch
  using UNIX socket
  @ DRIVER MODE: Message from server: STATUS
  @ DRIVER MODE: Message from server: INIT
  @ DRIVER MODE: Receiving replica           0          -1
  @ DRIVER MODE: Receiving encoded integer          25
  @ DRIVER MODE:  SCF:  T  FORCE:  T  STRESS:  F  VC:  F  ENSEMBLE:  F
  @ DRIVER MODE:  SCF:  T  FORCE:  T  STRESS:  F  VC:  F  ENSEMBLE:  F

     Using Slab Decomposition

     bravais-lattice index     =            0
     lattice parameter (alat)  =       1.8897  a.u.
     unit-cell volume          =    6658.9804 (a.u.)^3
     number of atoms/cell      =           55
     number of atomic types    =            5
     number of electrons       =       397.00
     number of Kohn-Sham states=          208
     kinetic-energy cutoff     =      29.3995  Ry
     charge density cutoff     =     293.9946  Ry
     scf convergence threshold =      7.3E-08
     mixing beta               =       0.0500
     number of iterations used =            8  plain     mixing
     Exchange-correlation= BEEF-VDW
                           (   1   4  43  14   2   0   0)

     celldm(1)=   1.889726  celldm(2)=   0.000000  celldm(3)=   0.000000
     celldm(4)=   0.000000  celldm(5)=   0.000000  celldm(6)=   0.000000

     crystal axes: (cart. coord. in units of alat)
               a(1) = (   6.579727   0.000000   0.000000 )
               a(2) = (  -0.000775   5.961596   0.000000 )
               a(3) = (   0.000000   0.000000  25.155947 )

     reciprocal axes: (cart. coord. in units 2 pi/alat)
               b(1) = (  0.151982  0.000020  0.000000 )
               b(2) = (  0.000000  0.167740  0.000000 )
               b(3) = (  0.000000  0.000000  0.039752 )

     PseudoPot. # 1 for Ti read from file:
     /storage/coda1/p-amedford6/0/shared/rich_project_chbe-medford/medford-share/data/pseudos_module/espresso/nninc/pbe/van/Ti.UPF
     MD5 check sum: 8e4df49b7f0d34bbd5052bf3f5ea0213
     Pseudo is Ultrasoft, Zval = 12.0
     Generated by new atomic code, or converted to UPF format
     Using radial grid of  851 points,  6 beta functions with:
                l(1) =   0
                l(2) =   0
                l(3) =   1
                l(4) =   1
                l(5) =   2
                l(6) =   2
     Q(r) pseudized with  8 coefficients,  rinner =    1.000   1.000   1.000
                                                       1.000   1.000

     PseudoPot. # 2 for O  read from file:
     /storage/coda1/p-amedford6/0/shared/rich_project_chbe-medford/medford-share/data/pseudos_module/espresso/nninc/pbe/van/O.UPF
     MD5 check sum: 78c19812648e8988a0fe644b0f25305e
     Pseudo is Ultrasoft, Zval =  6.0
     Generated by new atomic code, or converted to UPF format
     Using radial grid of  737 points,  4 beta functions with:
                l(1) =   0
                l(2) =   0
                l(3) =   1
                l(4) =   1
     Q(r) pseudized with  8 coefficients,  rinner =    0.800   0.800   0.800

     PseudoPot. # 3 for N  read from file:
     /storage/coda1/p-amedford6/0/shared/rich_project_chbe-medford/medford-share/data/pseudos_module/espresso/nninc/pbe/van/N.UPF
     MD5 check sum: 90d10febe142ad51ac9d5be1deb811c4
     Pseudo is Ultrasoft, Zval =  5.0
     Generated by new atomic code, or converted to UPF format
     Using radial grid of  729 points,  4 beta functions with:
                l(1) =   0
                l(2) =   0
                l(3) =   1
                l(4) =   1
     Q(r) pseudized with  8 coefficients,  rinner =    0.800   0.800   0.800

     PseudoPot. # 4 for C  read from file:
     /storage/coda1/p-amedford6/0/shared/rich_project_chbe-medford/medford-share/data/pseudos_module/espresso/nninc/pbe/van/C.UPF
     MD5 check sum: 1a69bf6b8db32088f5b2163dbdb77a27
     Pseudo is Ultrasoft, Zval =  4.0
     Generated by new atomic code, or converted to UPF format
     Using radial grid of  721 points,  4 beta functions with:
                l(1) =   0
                l(2) =   0
                l(3) =   1
                l(4) =   1
     Q(r) pseudized with  8 coefficients,  rinner =    0.800   0.800   0.800

     PseudoPot. # 5 for H  read from file:
     /storage/coda1/p-amedford6/0/shared/rich_project_chbe-medford/medford-share/data/pseudos_module/espresso/nninc/pbe/van/H.UPF
     MD5 check sum: b5ee9d7bfd3a09ee7748110bda690ff7
     Pseudo is Ultrasoft, Zval =  1.0
     Generated by new atomic code, or converted to UPF format
     Using radial grid of  615 points,  1 beta functions with:
                l(1) =   0
     Q(r) pseudized with  8 coefficients,  rinner =    0.800

     atomic species   valence    mass     pseudopotential
        Ti1           12.00    47.86700     Ti( 1.00)
        O1             6.00    15.99900     O ( 1.00)
        N1             5.00    14.00700     N ( 1.00)
        C1             4.00    12.01100     C ( 1.00)
        H1             1.00     1.00800     H ( 1.00)

     No symmetry found

   Cartesian axes

     site n.     atom                  positions (alat units)
         1           Ti1 tau(   1) = (   0.0004258   2.9801865   6.0000000  )
         2           Ti1 tau(   2) = (   3.2906075   1.4906267   6.0002472  )
         3           O1  tau(   3) = (   0.0006271   0.0005054   7.9858123  )
         4           O1  tau(   4) = (   3.2906025   0.0005020   7.3038282  )
         5           O1  tau(   5) = (   4.5942328   1.4918067   9.2879030  )
         6           O1  tau(   6) = (   1.9868534   1.4903216   9.2879459  )
         7           Ti1 tau(   7) = (   3.2907910   2.8959150   9.1758416  )
         8           Ti1 tau(   8) = (   0.0015273   1.4827037   9.2680791  )
         9           O1  tau(   9) = (   3.2870044   0.0008392  11.3329265  )
        10           O1  tau(  10) = (   0.0116148   5.9584955  10.6183126  )
        11           O1  tau(  11) = (   1.3103063   1.4923116  12.6208530  )
        12           O1  tau(  12) = (   5.2933663   1.4849185  12.6124200  )
        13           Ti1 tau(  13) = (   6.5212574   2.9536302  12.6166858  )
        14           Ti1 tau(  14) = (   3.2058376   1.4897313  12.4816367  )
        15           O1  tau(  15) = (   6.5713238   0.0136578  14.6546308  )
        16           O1  tau(  16) = (   3.3039920   0.0133407  13.9274802  )
        17           O1  tau(  17) = (   4.5398155   1.5323753  16.0810081  )
        18           O1  tau(  18) = (   2.0543055   1.5218724  16.0470058  )
        19           Ti1 tau(  19) = (   3.2774803   3.0107093  15.7022328  )
        20           Ti1 tau(  20) = (   6.5342633   1.5374647  15.8423947  )
        21           O1  tau(  21) = (   3.2904802   0.0005063   4.7018136  )
        22           O1  tau(  22) = (   0.0034288   0.0322173  17.2228558  )
        23           O1  tau(  23) = (   1.3043587   1.4918075   6.0039043  )
        24           O1  tau(  24) = (   5.2767064   1.4903225   6.0039473  )
        25           Ti1 tau(  25) = (   0.0000382   5.9609847   6.0000000  )
        26           Ti1 tau(  26) = (   3.2902200   4.4714249   6.0002472  )
        27           O1  tau(  27) = (   0.0002396   2.9813036   7.9858123  )
        28           O1  tau(  28) = (   3.2902150   2.9813002   7.3038282  )
        29           O1  tau(  29) = (   4.5938453   4.4726049   9.2879030  )
        30           O1  tau(  30) = (   1.9864658   4.4711199   9.2879459  )
        31           Ti1 tau(  31) = (   3.2891106   5.8743827   9.1763621  )
        32           Ti1 tau(  32) = (   0.0006254   4.4649316   9.2693709  )
        33           O1  tau(  33) = (   3.2848367   2.9872869  11.3311783  )
        34           O1  tau(  34) = (   0.0092240   2.9805883  10.6323155  )
        35           O1  tau(  35) = (   1.3050274   4.4824158  12.6313026  )
        36           O1  tau(  36) = (   5.2955027   4.4751037  12.6224712  )
        37           Ti1 tau(  37) = (   6.5218534   5.9301143  12.5590122  )
        38           Ti1 tau(  38) = (   3.2037265   4.4702053  12.4865905  )
        39           O1  tau(  39) = (   6.5652647   2.9430126  14.6458727  )
        40           O1  tau(  40) = (   3.3006234   2.9978660  13.9063397  )
        41           O1  tau(  41) = (   4.5289998   4.4870283  16.1192093  )
        42           O1  tau(  42) = (   2.0463452   4.4937679  16.0531255  )
        43           Ti1 tau(  43) = (   3.2679282   0.0255942  15.7259849  )
        44           Ti1 tau(  44) = (   6.5624932   4.6695214  16.1100661  )
        45           O1  tau(  45) = (   3.2900926   2.9813045   4.7018136  )
        46           O1  tau(  46) = (   1.3039711   4.4726057   6.0039043  )
        47           O1  tau(  47) = (   5.2763189   4.4711207   6.0039473  )
        48           N1  tau(  48) = (   0.0665130   2.9625449  17.3937163  )
        49           C1  tau(  49) = (   0.2662726   2.8715582  18.6342609  )
        50           H1  tau(  50) = (   0.3859136   3.7587535  19.2661104  )
        51           H1  tau(  51) = (   0.3502417   1.8826937  19.1273272  )
        52           N1  tau(  52) = (   3.5829462   4.8819607  19.5834040  )
        53           H1  tau(  53) = (   4.1394342   5.6873527  19.8504637  )
        54           H1  tau(  54) = (   4.0752263   4.4438539  18.8113048  )
        55           H1  tau(  55) = (   3.6086599   4.2347498  20.3655469  )

     number of k points=    10  Fermi-Dirac smearing, width (Ry)=  0.0073
                       cart. coord. in units 2pi/alat
        k(    1) = (   0.0000000   0.0000000   0.0000000), wk =   0.1250000
        k(    2) = (   0.0000000   0.0419351   0.0000000), wk =   0.2500000
        k(    3) = (   0.0000000  -0.0838702   0.0000000), wk =   0.1250000
        k(    4) = (   0.0379955   0.0000049   0.0000000), wk =   0.2500000
        k(    5) = (   0.0379955   0.0419400   0.0000000), wk =   0.2500000
        k(    6) = (   0.0379955  -0.0838652   0.0000000), wk =   0.2500000
        k(    7) = (   0.0379955  -0.0419301   0.0000000), wk =   0.2500000
        k(    8) = (  -0.0759910  -0.0000099   0.0000000), wk =   0.1250000
        k(    9) = (  -0.0759910   0.0419252   0.0000000), wk =   0.2500000
        k(   10) = (  -0.0759910  -0.0838800   0.0000000), wk =   0.1250000

     Initial potential from superposition of free atoms

     starting charge  380.99914, renormalised to  397.00000

     negative rho (up, down):  1.455E-02 0.000E+00

     %%%%%%%%%%%%%%%%%%%%%%%%%%%%%%%%%%%%%%%%%%%%%%%%%%%%%%%%%%%%%%%%%%%%%%%%
     %                                                                      %
     % You are using vdW-DF, which was implemented by the Thonhauser group. %
     % Please cite the following two papers that made this development      %
     % possible and the two reviews that describe the various versions:     %
     %                                                                      %
     %   T. Thonhauser et al., PRL 115, 136402 (2015).                      %
     %   T. Thonhauser et al., PRB 76, 125112 (2007).                       %
     %   K. Berland et al., Rep. Prog. Phys. 78, 066501 (2015).             %
     %   D.C. Langreth et al., J. Phys.: Condens. Matter 21, 084203 (2009). %
     %                                                                      %
     %                                                                      %
     % If you are calculating the stress with vdW-DF, please also cite:     %
     %                                                                      %
     %   R. Sabatini et al., J. Phys.: Condens. Matter 24, 424209 (2012).   %
     %                                                                      %
     %%%%%%%%%%%%%%%%%%%%%%%%%%%%%%%%%%%%%%%%%%%%%%%%%%%%%%%%%%%%%%%%%%%%%%%%

     Adding external electric field

     Computed dipole along edir(3) :
        Dipole              -10.1102 Ry au,        -25.6976 Debye
        Dipole field         -0.0191 Ry au,

        Potential amp.        1.7686 Ry
        Total length         46.3494 bohr

     Starting wfcs are  301 atomic wfcs
  @ DRIVER MODE: Message from server: STATUS
  @ DRIVER MODE: Message from server: POSDATA
  @ DRIVER MODE: Reading and sharing cell
  @ DRIVER MODE: Reading and sharing positions
  @ DRIVER MODE: Received positions

     Self-consistent Calculation

     iteration #  1     ecut=    29.40 Ry     beta= 0.05
     Davidson diagonalization with overlap
     c_bands:  2 eigenvalues not converged
     c_bands:  1 eigenvalues not converged
     c_bands:  1 eigenvalues not converged
     c_bands:  1 eigenvalues not converged
     c_bands:  1 eigenvalues not converged
     c_bands:  1 eigenvalues not converged
     c_bands:  1 eigenvalues not converged
     c_bands:  2 eigenvalues not converged
     ethr =  1.00E-05,  avg # of iterations = 19.0

[...]

     total energy              =   -2537.39680067 Ry
     estimated scf accuracy    <    4509.62690229 Ry

     iteration #  2     ecut=    29.40 Ry     beta= 0.05
     Davidson diagonalization with overlap
     ethr =  1.00E-02,  avg # of iterations = 24.6

[...]

     iteration # 59     ecut=    29.40 Ry     beta= 0.05
     Davidson diagonalization with overlap
     c_bands:  1 eigenvalues not converged
     ethr =  8.04E-10,  avg # of iterations = 13.8

[...]

     total energy              =   -2941.70783182 Ry
     estimated scf accuracy    <       0.00000020 Ry

     iteration # 65     ecut=    29.40 Ry     beta= 0.05
     Davidson diagonalization with overlap
     ethr =  4.82E-11,  avg # of iterations =  7.9

     negative rho (up, down):  1.502E-02 0.000E+00

     Adding external electric field

     Computed dipole along edir(3) :
        Dipole                0.8833 Ry au,          2.2451 Debye
        Dipole field          0.0017 Ry au,

        Potential amp.       -0.1545 Ry
        Total length         46.3494 bohr

     End of self-consistent calculation

          k = 0.0000 0.0000 0.0000 ( 18029 PWs)   bands (ev):

   -55.7600 -55.7514 -55.7259 -55.7154 -55.6454 -55.6051 -55.5887 -55.5706
   -55.5687 -55.5347 -55.5331 -55.4995 -55.2792 -55.0273 -54.7374 -54.7033
   -32.3043 -32.2424 -32.1063 -32.0953 -32.0674 -32.0639 -32.0528 -32.0236
   -32.0025 -31.9785 -31.9718 -31.9513 -31.9311 -31.9120 -31.9035 -31.8905
   -31.8764 -31.8643 -31.8498 -31.8170 -31.8144 -31.8117 -31.7701 -31.7636
   -31.7633 -31.7611 -31.7565 -31.7473 -31.7350 -31.7199 -31.7120 -31.7082
   -31.7028 -31.6990 -31.6861 -31.6760 -31.6452 -31.5334 -31.4603 -31.3087
   -31.2811 -31.2348 -31.1444 -31.0561 -31.0337 -30.9611 -30.8746 -30.7636
   -16.5001 -16.2349 -16.0179 -15.9137 -15.8784 -15.7626 -15.5987 -15.4795
   -15.4269 -15.3288 -15.3151 -15.2957 -15.2623 -15.2454 -15.2249 -15.2059
   -15.2017 -15.1839 -15.1703 -15.1192 -15.0964 -15.0589 -14.9616 -14.9320
   -14.8944 -14.8776 -14.8200 -14.8150 -14.6795 -14.3316 -14.0416 -13.2397
   -13.1233  -7.2654  -4.1713  -4.1242  -4.0091  -3.8755  -3.7633  -3.7133
    -3.6651  -3.6049  -3.3980  -3.3081  -3.2813  -2.9872  -2.9413  -2.9264
    -2.9042  -2.8787  -2.6594  -2.6043  -2.5730  -2.5557  -2.5411  -2.5279
    -2.5202  -2.5005  -2.4665  -2.3688  -2.3151  -2.3004  -2.1772  -2.1488
    -2.0885  -2.0718  -2.0251  -2.0103  -1.9973  -1.9921  -1.9641  -1.9479
    -1.9222  -1.8441  -1.7286  -1.5760  -1.5578  -1.5241  -1.4039  -1.3669
    -1.3029  -1.2192  -1.2012  -1.1852  -1.1510  -1.1392  -1.0602  -0.9469
    -0.9070  -0.8984  -0.7950  -0.7551  -0.7347  -0.6307  -0.6068  -0.5391
    -0.5224  -0.5126  -0.4796  -0.3185  -0.2616  -0.2267  -0.1622  -0.1389
    -0.0794  -0.0618  -0.0315   0.0512   0.0994   0.1260   0.1280   0.1765
     0.2149   0.2317   0.2358   0.2507   0.2709   0.4379   0.5135   0.5276
     0.5970   0.6089   0.7711   0.8155   0.8975   0.9999   1.0433   1.2105
     1.2848   1.3744   1.4770   1.6805   1.8560   1.9016   3.3770   3.4604
     3.5087   3.5213   3.6192   3.6609   3.8298   3.8382   3.8486   3.9231

[...]

          k = 0.0380-0.0419 0.0000 ( 17876 PWs)   bands (ev):

[...]

          k =-0.0760-0.0000 0.0000 ( 17886 PWs)   bands (ev):

[...]

          k =-0.0760-0.0839 0.0000 ( 17948 PWs)   bands (ev):

   -55.7433 -55.7425 -55.7341 -55.7324 -55.6395 -55.5945 -55.5895 -55.5860
   -55.5523 -55.5506 -55.5171 -55.5157 -55.2781 -55.0283 -54.7204 -54.7202
   -32.1093 -32.1065 -32.0579 -32.0574 -32.0386 -32.0377 -32.0227 -32.0105
   -31.9582 -31.9541 -31.9494 -31.9452 -31.9106 -31.8840 -31.8824 -31.8794
   -31.8702 -31.8643 -31.8625 -31.8619 -31.8559 -31.8534 -31.8427 -31.8087
   -31.8026 -31.7953 -31.7831 -31.7704 -31.7513 -31.7509 -31.7481 -31.7470
   -31.7316 -31.7309 -31.7255 -31.7226 -31.6429 -31.5359 -31.4568 -31.3754
   -31.2828 -31.2568 -31.0465 -31.0463 -30.9573 -30.9571 -30.9180 -30.9178
   -15.9394 -15.9081 -15.7031 -15.6761 -15.6724 -15.6562 -15.5313 -15.4682
   -15.4551 -15.4528 -15.3885 -15.3681 -15.3317 -15.3044 -15.2902 -15.2800
   -15.2742 -15.2680 -15.2195 -15.2137 -15.1959 -15.1887 -15.0856 -15.0762
   -15.0723 -15.0171 -14.9367 -14.7946 -14.6960 -14.5054 -14.0413 -13.2252
   -13.2251  -7.2618  -4.1883  -4.0918  -4.0249  -3.4346  -3.2292  -3.1920
    -2.9328  -2.9146  -2.9011  -2.8459  -2.6731  -2.6557  -2.6342  -2.6162
    -2.5824  -2.5815  -2.5624  -2.5604  -2.5496  -2.5150  -2.5034  -2.4737
    -2.4362  -2.4261  -2.4142  -2.4128  -2.3828  -2.3730  -2.3342  -2.3048
    -2.2956  -2.2771  -2.2623  -2.0925  -1.9847  -1.9594  -1.8965  -1.8887
    -1.8596  -1.8234  -1.8160  -1.7952  -1.7446  -1.6583  -1.4915  -1.4593
    -1.4411  -1.3786  -1.3613  -1.3104  -1.2305  -1.1567  -1.1345  -1.1291
    -1.0794  -0.9698  -0.9471  -0.9389  -0.8693  -0.8229  -0.8157  -0.7808
    -0.7521  -0.7193  -0.7150  -0.6229  -0.5735  -0.5305  -0.5256  -0.4773
    -0.4099  -0.3987  -0.3701  -0.2609  -0.2382  -0.1803  -0.1457  -0.0358
     0.0280   0.2253   0.2792   0.3153   0.3727   0.4475   0.5302   0.5454
     0.5496   0.5600   0.6158   0.6693   0.7736   0.7825   0.8377   0.9447
     1.0102   1.6033   1.6486   1.6492   1.7214   1.7215   3.6598   3.6715
     3.7103   3.7309   3.8691   3.8843   3.9081   3.9089   3.9608   4.0460

     the Fermi energy is     3.3744 ev

!    total energy              =   -2941.70786444 Ry
     estimated scf accuracy    <       0.00000007 Ry
     smearing contrib. (-TS)   =      -0.02185248 Ry
     internal energy E=F+TS    =   -2941.68601197 Ry

     The total energy is F=E-TS. E is the sum of the following terms:
     one-electron contribution =  -23925.18630040 Ry
     hartree contribution      =   12052.21208381 Ry
     xc contribution           =    -486.75840452 Ry
     ewald contribution        =    9418.04513679 Ry
     electric field correction =       0.00147235 Ry

     convergence has been achieved in  65 iterations

     Forces acting on atoms (cartesian axes, Ry/au):

     atom    1 type  1   force =     0.00002861   -0.00025379    0.09665291
     atom    2 type  1   force =     0.00003888   -0.00058165   -0.17537711
     atom    3 type  2   force =     0.00011588   -0.00004014   -0.02488029
     atom    4 type  2   force =    -0.00000182   -0.00141072    0.05293291
     atom    5 type  2   force =    -0.01228156   -0.00027334    0.00347543
     atom    6 type  2   force =     0.01364311    0.00026121    0.00255134
     atom    7 type  1   force =     0.00031200    0.00057560   -0.01137036
     atom    8 type  1   force =     0.00051676    0.00783749    0.02844880
     atom    9 type  2   force =     0.00020519    0.00041183    0.00049124
     atom   10 type  2   force =    -0.00291890    0.00138202   -0.01557161
     atom   11 type  2   force =     0.00066923   -0.00000531   -0.00001724
     atom   12 type  2   force =    -0.00008156   -0.00013652   -0.00013968
     atom   13 type  1   force =    -0.00018883   -0.00032477    0.00099861
     atom   14 type  1   force =     0.00018015   -0.00007057   -0.00017562
     atom   15 type  2   force =     0.00017537    0.00049554    0.00023304
     atom   16 type  2   force =    -0.00033275   -0.00035989   -0.00031240
     atom   17 type  2   force =    -0.00063842    0.00001811   -0.00046724
     atom   18 type  2   force =     0.00036244    0.00044009   -0.00006255
     atom   19 type  1   force =    -0.00049668   -0.00079956   -0.00020906
     atom   20 type  1   force =     0.00046081    0.00091847   -0.00119191
     atom   21 type  2   force =     0.00005483   -0.00005874    0.10319623
     atom   22 type  2   force =    -0.00078551    0.00011448    0.00065245
     atom   23 type  2   force =    -0.07150571   -0.00014488   -0.02771701
     atom   24 type  2   force =     0.07143235    0.00031878   -0.02779256
     atom   25 type  1   force =     0.00016535   -0.00024857    0.09628340
     atom   26 type  1   force =     0.00009369   -0.00022768   -0.17563074
     atom   27 type  2   force =     0.00017248   -0.00019238   -0.02392643
     atom   28 type  2   force =     0.00000001   -0.00118226    0.05284298
     atom   29 type  2   force =    -0.01241115    0.00038938    0.00317077
     atom   30 type  2   force =     0.01367074    0.00085746    0.00221669
     atom   31 type  1   force =     0.00028273    0.00324154   -0.01196012
     atom   32 type  1   force =     0.00065291   -0.01006079    0.02885189
     atom   33 type  2   force =     0.00024278   -0.00024286    0.00062184
     atom   34 type  2   force =    -0.00237687    0.00102393   -0.02371733
     atom   35 type  2   force =     0.00059365   -0.00070713   -0.00009025
     atom   36 type  2   force =    -0.00015883   -0.00079454    0.00017422
     atom   37 type  1   force =    -0.00017102   -0.00013811    0.00048787
     atom   38 type  1   force =     0.00029604    0.00036000   -0.00063474
     atom   39 type  2   force =    -0.00009288   -0.00074439    0.00118780
     atom   40 type  2   force =     0.00026541   -0.00062513   -0.00014044
     atom   41 type  2   force =    -0.00023052   -0.00062572   -0.00003312
     atom   42 type  2   force =    -0.00036812   -0.00024677   -0.00003501
     atom   43 type  1   force =    -0.00049356    0.00070676    0.00005636
     atom   44 type  1   force =    -0.00017844    0.00014800   -0.00040519
     atom   45 type  2   force =     0.00007273   -0.00006992    0.10321619
     atom   46 type  2   force =    -0.07154239   -0.00008717   -0.02774498
     atom   47 type  2   force =     0.07144812    0.00033641   -0.02780877
     atom   48 type  3   force =    -0.00012448   -0.00047662   -0.00073760
     atom   49 type  4   force =     0.00107482   -0.01000412    0.00357321
     atom   50 type  5   force =    -0.00033595    0.00012284    0.00148384
     atom   51 type  5   force =    -0.00086899    0.01007468   -0.00404385
     atom   52 type  3   force =    -0.00159915    0.00029404   -0.00062353
     atom   53 type  5   force =     0.00137749    0.00077608   -0.00011838
     atom   54 type  5   force =     0.00138308   -0.00041531    0.00100111
     atom   55 type  5   force =     0.00019644    0.00044463   -0.00186604

     Total force =     0.368399     Total SCF correction =     0.000591
  @ DRIVER MODE: Message from server: STATUS
  @ DRIVER MODE: Message from server: GETFORCE
  @ DRIVER MODE: Returning v,forces,stress,ensemble

     Writing output data file ./calc.save/
  @ DRIVER MODE: Message from server: EXIT
  @ DRIVE MODE: Exiting

     General routines

     Parallel routines

   This run was terminated on:  17:53: 2  24Aug2021

   JOB DONE.