     Program PWSCF v.6.7GPU starts on 16Jul2021 at  5: 9:39

     R & G space division:  proc/nbgrp/npool/nimage =      16
     Reading input from /storage/home/hcoda1/3/ntian30/research/carbon/15Jul_vib/ads_slab/CH3NNH3_a/out_0024/pw.inp
Warning: card &CELL ignored
Warning: card   CELL_DYNAMICS='IPI', ignored
Warning: card / ignored

     Current dimensions of program PWSCF are:
     Max number of different atomic species (ntypx) = 10
     Max number of k-points (npk) =  40000
     Max angular momentum in pseudopotentials (lmaxx) =  3
     Presently no symmetry can be used with electric field

     Message from routine cell_base_init:
     DEPRECATED: use true lattice parameter, not A to a.u. conversion factor

     IMPORTANT: XC functional enforced from input :
     Exchange-correlation= BEEF-VDW
                           (   1   4  43  14   2   0   0)
     Any further DFT definition will be discarded
     Please, verify this is what you really want

  @ DRIVER MODE: Connecting to
 qe_1139763_2351650.sched-torque.pace.gatech.edun3qsupoy_scratch
  using UNIX socket
  @ DRIVER MODE: Message from server: STATUS
  @ DRIVER MODE: Message from server: INIT
  @ DRIVER MODE: Receiving replica           0          -1
  @ DRIVER MODE: Receiving encoded integer          25
  @ DRIVER MODE:  SCF:  T  FORCE:  T  STRESS:  F  VC:  F  ENSEMBLE:  F
  @ DRIVER MODE:  SCF:  T  FORCE:  T  STRESS:  F  VC:  F  ENSEMBLE:  F

     Using Slab Decomposition

     bravais-lattice index     =            0
     lattice parameter (alat)  =       1.8897  a.u.
     unit-cell volume          =    6658.9804 (a.u.)^3
     number of atoms/cell      =           56
     number of atomic types    =            5
     number of electrons       =       398.00
     number of Kohn-Sham states=          209
     kinetic-energy cutoff     =      29.3995  Ry
     charge density cutoff     =     293.9946  Ry
     scf convergence threshold =      7.3E-08
     mixing beta               =       0.0500
     number of iterations used =            8  plain     mixing
     Exchange-correlation= BEEF-VDW
                           (   1   4  43  14   2   0   0)

     celldm(1)=   1.889726  celldm(2)=   0.000000  celldm(3)=   0.000000
     celldm(4)=   0.000000  celldm(5)=   0.000000  celldm(6)=   0.000000

     crystal axes: (cart. coord. in units of alat)
               a(1) = (   6.579727   0.000000   0.000000 )
               a(2) = (  -0.000775   5.961596   0.000000 )
               a(3) = (   0.000000   0.000000  25.155947 )

     reciprocal axes: (cart. coord. in units 2 pi/alat)
               b(1) = (  0.151982  0.000020  0.000000 )
               b(2) = (  0.000000  0.167740  0.000000 )
               b(3) = (  0.000000  0.000000  0.039752 )

     PseudoPot. # 1 for Ti read from file:
     /storage/coda1/p-amedford6/0/shared/rich_project_chbe-medford/medford-share/data/pseudos_module/espresso/nninc/pbe/van/Ti.UPF
     MD5 check sum: 8e4df49b7f0d34bbd5052bf3f5ea0213
     Pseudo is Ultrasoft, Zval = 12.0
     Generated by new atomic code, or converted to UPF format
     Using radial grid of  851 points,  6 beta functions with:
                l(1) =   0
                l(2) =   0
                l(3) =   1
                l(4) =   1
                l(5) =   2
                l(6) =   2
     Q(r) pseudized with  8 coefficients,  rinner =    1.000   1.000   1.000
                                                       1.000   1.000

     PseudoPot. # 2 for O  read from file:
     /storage/coda1/p-amedford6/0/shared/rich_project_chbe-medford/medford-share/data/pseudos_module/espresso/nninc/pbe/van/O.UPF
     MD5 check sum: 78c19812648e8988a0fe644b0f25305e
     Pseudo is Ultrasoft, Zval =  6.0
     Generated by new atomic code, or converted to UPF format
     Using radial grid of  737 points,  4 beta functions with:
                l(1) =   0
                l(2) =   0
                l(3) =   1
                l(4) =   1
     Q(r) pseudized with  8 coefficients,  rinner =    0.800   0.800   0.800

     PseudoPot. # 3 for N  read from file:
     /storage/coda1/p-amedford6/0/shared/rich_project_chbe-medford/medford-share/data/pseudos_module/espresso/nninc/pbe/van/N.UPF
     MD5 check sum: 90d10febe142ad51ac9d5be1deb811c4
     Pseudo is Ultrasoft, Zval =  5.0
     Generated by new atomic code, or converted to UPF format
     Using radial grid of  729 points,  4 beta functions with:
                l(1) =   0
                l(2) =   0
                l(3) =   1
                l(4) =   1
     Q(r) pseudized with  8 coefficients,  rinner =    0.800   0.800   0.800

     PseudoPot. # 4 for C  read from file:
     /storage/coda1/p-amedford6/0/shared/rich_project_chbe-medford/medford-share/data/pseudos_module/espresso/nninc/pbe/van/C.UPF
     MD5 check sum: 1a69bf6b8db32088f5b2163dbdb77a27
     Pseudo is Ultrasoft, Zval =  4.0
     Generated by new atomic code, or converted to UPF format
     Using radial grid of  721 points,  4 beta functions with:
                l(1) =   0
                l(2) =   0
                l(3) =   1
                l(4) =   1
     Q(r) pseudized with  8 coefficients,  rinner =    0.800   0.800   0.800

     PseudoPot. # 5 for H  read from file:
     /storage/coda1/p-amedford6/0/shared/rich_project_chbe-medford/medford-share/data/pseudos_module/espresso/nninc/pbe/van/H.UPF
     MD5 check sum: b5ee9d7bfd3a09ee7748110bda690ff7
     Pseudo is Ultrasoft, Zval =  1.0
     Generated by new atomic code, or converted to UPF format
     Using radial grid of  615 points,  1 beta functions with:
                l(1) =   0
     Q(r) pseudized with  8 coefficients,  rinner =    0.800

     atomic species   valence    mass     pseudopotential
        Ti1           12.00    47.86700     Ti( 1.00)
        O1             6.00    15.99900     O ( 1.00)
        N1             5.00    14.00700     N ( 1.00)
        C1             4.00    12.01100     C ( 1.00)
        H1             1.00     1.00800     H ( 1.00)

     Starting magnetic structure
     atomic species   magnetization
        Ti1          0.000
        O1           0.000
        N1           0.000
        C1           0.025
        H1           0.000

     No symmetry found

   Cartesian axes

     site n.     atom                  positions (alat units)
         1           Ti1 tau(   1) = (   0.0004258   2.9801865   6.0000000  )
         2           Ti1 tau(   2) = (   3.2906075   1.4906267   6.0002472  )
         3           O1  tau(   3) = (   0.0006271   0.0005054   7.9858123  )
         4           O1  tau(   4) = (   3.2906025   0.0005020   7.3038282  )
         5           O1  tau(   5) = (   4.5942328   1.4918067   9.2879030  )
         6           O1  tau(   6) = (   1.9868534   1.4903216   9.2879459  )
         7           Ti1 tau(   7) = (   3.2907910   2.8959150   9.1758416  )
         8           Ti1 tau(   8) = (   0.0015273   1.4827037   9.2680791  )
         9           O1  tau(   9) = (   3.3019049   5.9598586  11.2958584  )
        10           O1  tau(  10) = (   0.0116148   5.9584955  10.6183126  )
        11           O1  tau(  11) = (   1.3346742   1.4914638  12.6145280  )
        12           O1  tau(  12) = (   5.3113054   1.4894223  12.6320738  )
        13           Ti1 tau(  13) = (   6.4919192   2.9607050  12.7581921  )
        14           Ti1 tau(  14) = (   3.1808934   1.4809541  12.4628303  )
        15           O1  tau(  15) = (   0.0259758   5.9327586  14.5948705  )
        16           O1  tau(  16) = (   3.3179433   0.0111293  13.8771559  )
        17           O1  tau(  17) = (   4.5450242   1.5254396  16.0425357  )
        18           O1  tau(  18) = (   2.0945915   1.5254857  16.0466093  )
        19           Ti1 tau(  19) = (   3.3175380   3.0118254  15.6854273  )
        20           Ti1 tau(  20) = (   0.0287691   1.6153805  16.0968480  )
        21           O1  tau(  21) = (   3.2904802   0.0005063   4.7018136  )
        22           O1  tau(  22) = (   0.0272082   0.0527987  17.2096484  )
        23           O1  tau(  23) = (   1.3043587   1.4918075   6.0039043  )
        24           O1  tau(  24) = (   5.2767064   1.4903225   6.0039473  )
        25           Ti1 tau(  25) = (   0.0000382   5.9609847   6.0000000  )
        26           Ti1 tau(  26) = (   3.2902200   4.4714249   6.0002472  )
        27           O1  tau(  27) = (   0.0002396   2.9813036   7.9858123  )
        28           O1  tau(  28) = (   3.2902150   2.9813002   7.3038282  )
        29           O1  tau(  29) = (   4.5938453   4.4726049   9.2879030  )
        30           O1  tau(  30) = (   1.9864658   4.4711199   9.2879459  )
        31           Ti1 tau(  31) = (   3.2891106   5.8743827   9.1763621  )
        32           Ti1 tau(  32) = (   0.0006254   4.4649316   9.2693709  )
        33           O1  tau(  33) = (   3.3007599   2.9794320  11.2948048  )
        34           O1  tau(  34) = (   0.0092240   2.9805883  10.6323155  )
        35           O1  tau(  35) = (   1.3367187   4.4652043  12.6121808  )
        36           O1  tau(  36) = (   5.3110114   4.4536366  12.6300246  )
        37           Ti1 tau(  37) = (   6.5175235   5.9394146  12.7678677  )
        38           Ti1 tau(  38) = (   3.1810223   4.4618757  12.4682998  )
        39           O1  tau(  39) = (   0.0141956   2.9656780  14.6533049  )
        40           O1  tau(  40) = (   3.3125561   2.9946134  13.8784269  )
        41           O1  tau(  41) = (   4.5469694   4.5079638  16.0550352  )
        42           O1  tau(  42) = (   2.0896055   4.5089645  16.0567747  )
        43           Ti1 tau(  43) = (   3.3249511   0.0336637  15.6879192  )
        44           Ti1 tau(  44) = (   0.0309337   4.5948497  16.1324869  )
        45           O1  tau(  45) = (   3.2900926   2.9813045   4.7018136  )
        46           O1  tau(  46) = (   1.3039711   4.4726057   6.0039043  )
        47           O1  tau(  47) = (   5.2763189   4.4711207   6.0039473  )
        48           N1  tau(  48) = (   0.0510883   3.0100077  17.3315927  )
        49           C1  tau(  49) = (   0.2149723   3.0659314  18.7643681  )
        50           H1  tau(  50) = (   6.1109748   3.7957518  19.2115106  )
        51           H1  tau(  51) = (   0.0391147   2.0919789  19.2377120  )
        52           H1  tau(  52) = (   1.2341903   3.3897193  19.0223879  )
        53           N1  tau(  53) = (   4.7717085   1.8344328  21.5424420  )
        54           H1  tau(  54) = (   4.4711387   2.7986659  21.4441960  )
        55           H1  tau(  55) = (   4.1840297   1.2822813  20.9257432  )
        56           H1  tau(  56) = (   4.5427024   1.5537098  22.4892962  )

     number of k points=    10  Fermi-Dirac smearing, width (Ry)=  0.0073
                       cart. coord. in units 2pi/alat
        k(    1) = (   0.0000000   0.0000000   0.0000000), wk =   0.0625000
        k(    2) = (   0.0000000   0.0419351   0.0000000), wk =   0.1250000
        k(    3) = (   0.0000000  -0.0838702   0.0000000), wk =   0.0625000
        k(    4) = (   0.0379955   0.0000049   0.0000000), wk =   0.1250000
        k(    5) = (   0.0379955   0.0419400   0.0000000), wk =   0.1250000
[...]
     % possible and the two reviews that describe the various versions:     %
     %                                                                      %
     %   T. Thonhauser et al., PRL 115, 136402 (2015).                      %
     %   T. Thonhauser et al., PRB 76, 125112 (2007).                       %
     %   K. Berland et al., Rep. Prog. Phys. 78, 066501 (2015).             %
     %   D.C. Langreth et al., J. Phys.: Condens. Matter 21, 084203 (2009). %
     %                                                                      %
     %                                                                      %
     % If you are calculating the stress with vdW-DF, please also cite:     %
     %                                                                      %
     %   R. Sabatini et al., J. Phys.: Condens. Matter 24, 424209 (2012).   %
     %                                                                      %
     %%%%%%%%%%%%%%%%%%%%%%%%%%%%%%%%%%%%%%%%%%%%%%%%%%%%%%%%%%%%%%%%%%%%%%%%

     Adding external electric field

     Computed dipole along edir(3) :
        Dipole              -11.2925 Ry au,        -28.7027 Debye
        Dipole field         -0.0213 Ry au,

        Potential amp.        1.9755 Ry
        Total length         46.3494 bohr

[...]

     Starting wfcs are  302 atomic wfcs
  @ DRIVER MODE: Message from server: STATUS
  @ DRIVER MODE: Message from server: POSDATA
  @ DRIVER MODE: Reading and sharing cell
  @ DRIVER MODE: Reading and sharing positions
  @ DRIVER MODE: Received positions

     Self-consistent Calculation

     iteration #  1     ecut=    29.40 Ry     beta= 0.05
     Davidson diagonalization with overlap
     c_bands:  1 eigenvalues not converged
     c_bands:  1 eigenvalues not converged
     c_bands:  2 eigenvalues not converged
     c_bands:  1 eigenvalues not converged
     c_bands:  1 eigenvalues not converged
     c_bands:  1 eigenvalues not converged
     c_bands:  2 eigenvalues not converged
     c_bands:  2 eigenvalues not converged
     c_bands:  1 eigenvalues not converged
     c_bands:  1 eigenvalues not converged
     c_bands:  2 eigenvalues not converged
     c_bands:  1 eigenvalues not converged
     c_bands:  1 eigenvalues not converged
     c_bands:  1 eigenvalues not converged
     c_bands:  2 eigenvalues not converged
     c_bands:  2 eigenvalues not converged
     ethr =  1.00E-05,  avg # of iterations = 19.6

[...]

     total energy              =   -2520.82826872 Ry
     estimated scf accuracy    <    4704.51575836 Ry

     total magnetization       =     0.00 Bohr mag/cell
     absolute magnetization    =     0.01 Bohr mag/cell

     iteration #  2     ecut=    29.40 Ry     beta= 0.05
     Davidson diagonalization with overlap
     ethr =  1.00E-02,  avg # of iterations = 21.9

[...]

     iteration # 42     ecut=    29.40 Ry     beta= 0.05
     Davidson diagonalization with overlap
     c_bands:  1 eigenvalues not converged
     c_bands:  1 eigenvalues not converged
     c_bands:  2 eigenvalues not converged
     c_bands:  3 eigenvalues not converged
     c_bands:  1 eigenvalues not converged
     ethr =  2.20E-06,  avg # of iterations = 13.8

[...]

     total energy              =   -2942.90774450 Ry
     estimated scf accuracy    <       0.00000012 Ry

[...]

     iteration # 71     ecut=    29.40 Ry     beta= 0.05
     Davidson diagonalization with overlap
     ethr =  2.93E-11,  avg # of iterations =  4.2

     negative rho (up, down):  5.679E-03 5.679E-03

[...]

     Adding external electric field

     Computed dipole along edir(3) :
        Dipole                0.4183 Ry au,          1.0631 Debye
        Dipole field          0.0008 Ry au,

        Potential amp.       -0.0732 Ry
        Total length         46.3494 bohr

     Magnetic moment per site  (integrated on atomic sphere of radius R)
     atom   1 (R=0.735)  charge=  8.0053  magn=  0.0001
     atom   2 (R=0.735)  charge=  8.0011  magn= -0.0000
     atom   3 (R=0.735)  charge=  4.9959  magn= -0.0000
     atom   4 (R=0.735)  charge=  5.0345  magn= -0.0000
     atom   5 (R=0.735)  charge=  4.9982  magn= -0.0000
     atom   6 (R=0.735)  charge=  4.9994  magn= -0.0000
     atom   7 (R=0.735)  charge=  7.9947  magn=  0.0000
     atom   8 (R=0.735)  charge=  7.9823  magn=  0.0001
     atom   9 (R=0.735)  charge=  5.0128  magn= -0.0000
     atom  10 (R=0.735)  charge=  4.9434  magn= -0.0001
     atom  11 (R=0.735)  charge=  4.9999  magn= -0.0000
     atom  12 (R=0.735)  charge=  5.0035  magn= -0.0000
     atom  13 (R=0.735)  charge=  7.9933  magn=  0.0000
     atom  14 (R=0.735)  charge=  8.0007  magn=  0.0000
     atom  15 (R=0.735)  charge=  4.9894  magn= -0.0000
     atom  16 (R=0.735)  charge=  5.0146  magn= -0.0000
     atom  17 (R=0.735)  charge=  4.9900  magn= -0.0001
     atom  18 (R=0.735)  charge=  4.9888  magn= -0.0000
     atom  19 (R=0.735)  charge=  8.0209  magn=  0.0000
     atom  20 (R=0.735)  charge=  8.0242  magn=  0.0001
     atom  21 (R=0.735)  charge=  4.8827  magn= -0.0000
     atom  22 (R=0.735)  charge=  4.9719  magn= -0.0000
     atom  23 (R=0.735)  charge=  4.9884  magn= -0.0000
     atom  24 (R=0.735)  charge=  4.9885  magn= -0.0000
     atom  25 (R=0.735)  charge=  8.0053  magn=  0.0001
     atom  26 (R=0.735)  charge=  8.0011  magn= -0.0000
     atom  27 (R=0.735)  charge=  4.9957  magn= -0.0000
     atom  28 (R=0.735)  charge=  5.0347  magn= -0.0000
     atom  29 (R=0.735)  charge=  4.9989  magn= -0.0000
     atom  30 (R=0.735)  charge=  5.0001  magn= -0.0000
     atom  31 (R=0.735)  charge=  7.9948  magn=  0.0000
     atom  32 (R=0.735)  charge=  7.9826  magn=  0.0001
     atom  33 (R=0.735)  charge=  5.0126  magn= -0.0000
     atom  34 (R=0.735)  charge=  4.9424  magn= -0.0001
     atom  35 (R=0.735)  charge=  5.0006  magn= -0.0000
     atom  36 (R=0.735)  charge=  5.0043  magn= -0.0000
     atom  37 (R=0.735)  charge=  7.9990  magn=  0.0000
     atom  38 (R=0.735)  charge=  8.0004  magn=  0.0000
     atom  39 (R=0.735)  charge=  4.9853  magn= -0.0000
     atom  40 (R=0.735)  charge=  5.0160  magn= -0.0000
     atom  41 (R=0.735)  charge=  4.9884  magn= -0.0001
     atom  42 (R=0.735)  charge=  4.9879  magn= -0.0000
     atom  43 (R=0.735)  charge=  8.0214  magn=  0.0000
     atom  44 (R=0.735)  charge=  8.0216  magn=  0.0001
     atom  45 (R=0.735)  charge=  4.8827  magn=  0.0002
     atom  46 (R=0.735)  charge=  4.9884  magn= -0.0000
     atom  47 (R=0.735)  charge=  4.9885  magn= -0.0000
     atom  48 (R=0.418)  charge=  1.3136  magn= -0.0001
     atom  49 (R=0.452)  charge=  0.8583  magn=  0.0001
     atom  50 (R=0.418)  charge=  0.4372  magn= -0.0000
     atom  51 (R=0.418)  charge=  0.4366  magn= -0.0000
     atom  52 (R=0.418)  charge=  0.4339  magn= -0.0000
     atom  53 (R=0.418)  charge=  1.3298  magn= -0.0000
     atom  54 (R=0.418)  charge=  0.4522  magn=  0.0000
     atom  55 (R=0.418)  charge=  0.4511  magn=  0.0000
     atom  56 (R=0.418)  charge=  0.4538  magn=  0.0000

     End of self-consistent calculation

 ------ SPIN UP ------------

          k = 0.0000 0.0000 0.0000 ( 18029 PWs)   bands (ev):

   -56.6315 -56.5979 -55.7562 -55.7440 -55.7213 -55.7111 -55.6106 -55.5752
   -55.3930 -55.3572 -55.2967 -55.2915 -55.2628 -55.1937 -54.7284 -54.6167
   -33.0593 -32.9062 -32.8780 -32.8073 -32.7162 -32.6853 -32.2266 -32.2207
   -32.1532 -32.0400 -31.9938 -31.9698 -31.9511 -31.9301 -31.8964 -31.8918
   -31.8905 -31.8852 -31.8595 -31.8567 -31.8454 -31.8180 -31.7932 -31.7783
   -31.7653 -31.7468 -31.7374 -31.7127 -31.6889 -31.6350 -31.6236 -31.6109
   -31.5342 -31.5311 -31.5075 -31.4672 -31.4590 -31.4240 -31.4216 -31.3974
   -31.3749 -31.3132 -31.2340 -30.9741 -30.9586 -30.8759 -30.8384 -30.7486
   -16.7963 -16.3642 -16.1336 -15.9943 -15.9286 -15.8725 -15.8297 -15.7038
   -15.6359 -15.6278 -15.5863 -15.5583 -15.4867 -15.3471 -15.2486 -15.1959
   -15.1513 -15.0310 -14.9699 -14.9375 -14.9269 -14.8842 -14.8744 -14.6808
   -14.6578 -14.5639 -14.5426 -14.4220 -14.1869 -13.7953 -13.7030 -13.6852
   -12.7951  -7.4951  -4.3616  -3.8601  -3.7699  -3.7450  -3.6215  -3.5352
    -3.4280  -3.4139  -3.3273  -3.2129  -3.1686  -3.1209  -3.0045  -3.0031
    -2.8548  -2.8073  -2.8071  -2.7986  -2.7444  -2.6964  -2.6724  -2.6411
    -2.6317  -2.6021  -2.4758  -2.3798  -2.3072  -2.2852  -2.2792  -2.2435
    -2.1677  -2.1383  -2.1303  -2.1267  -2.0191  -1.8741  -1.8674  -1.8444
    -1.8025  -1.7970  -1.7545  -1.7413  -1.6242  -1.5330  -1.4310  -1.4144
    -1.3701  -1.3140  -1.3063  -1.2163  -1.1382  -1.0475  -1.0463  -0.9367
    -0.8893  -0.8722  -0.7819  -0.7223  -0.6830  -0.6567  -0.6443  -0.5441
    -0.5217  -0.5116  -0.4274  -0.4157  -0.3667  -0.2775  -0.2547  -0.2458
    -0.1636  -0.1610  -0.0653  -0.0239   0.0162   0.0514   0.1674   0.1848
     0.2830   0.3115   0.3397   0.4521   0.4681   0.5336   0.6079   0.6706
     0.6983   0.7248   0.7541   0.7734   0.8481   0.9600   0.9690   1.0715
     1.1035   1.2775   1.3164   1.3901   1.6023   1.6365   2.3053   2.6431
     2.8023   3.1009   3.2884   3.4016   3.6174   3.6336   3.6386   3.8082
     3.8604

[...]

          k =-0.0760-0.0000 0.0000 ( 17886 PWs)   bands (ev):

[...]

 ------ SPIN DOWN ----------

[...]

          k = 0.0380-0.0419 0.0000 ( 17876 PWs)   bands (ev):

[...]

          k =-0.0760-0.0839 0.0000 ( 17948 PWs)   bands (ev):

   -56.6145 -56.6142 -55.7409 -55.7350 -55.7281 -55.7276 -55.5930 -55.5922
   -55.3791 -55.3706 -55.2882 -55.2798 -55.2798 -55.1967 -54.7254 -54.6192
   -32.8917 -32.8915 -32.8760 -32.8759 -32.7600 -32.7597 -32.0564 -32.0540
   -32.0450 -32.0384 -31.9851 -31.9841 -31.9414 -31.9410 -31.9390 -31.9379
   -31.9303 -31.9274 -31.9252 -31.9236 -31.8455 -31.8435 -31.7945 -31.7917
   -31.7298 -31.7194 -31.6607 -31.6527 -31.6240 -31.6239 -31.6173 -31.5774
   -31.5732 -31.5456 -31.5114 -31.5052 -31.5052 -31.4661 -31.4661 -31.4624
   -31.4390 -31.3995 -31.1139 -30.9937 -30.9580 -30.9277 -30.8406 -30.8036
   -16.1452 -16.1431 -16.1102 -16.1099 -15.8415 -15.8379 -15.7952 -15.7928
   -15.6189 -15.6128 -15.4064 -15.3977 -15.3910 -15.3895 -15.2616 -15.2558
   -15.1904 -15.1800 -15.0905 -15.0814 -15.0250 -15.0185 -14.9759 -14.9549
   -14.6450 -14.6356 -14.5149 -14.4975 -14.3306 -13.7886 -13.7882 -13.7023
   -12.8118  -7.4854  -3.7772  -3.7532  -3.2440  -3.2437  -3.1800  -3.1789
    -3.0575  -3.0535  -2.9746  -2.9739  -2.8760  -2.8747  -2.7467  -2.7317
    -2.7289  -2.7260  -2.7018  -2.6612  -2.5755  -2.5725  -2.5621  -2.5472
    -2.4891  -2.4872  -2.4665  -2.3994  -2.3854  -2.3539  -2.3161  -2.2019
    -2.1916  -2.1793  -2.1478  -2.0852  -2.0775  -2.0645  -2.0221  -1.9891
    -1.9130  -1.8416  -1.8017  -1.6886  -1.6840  -1.6721  -1.6603  -1.5067
    -1.4664  -1.4358  -1.4288  -1.4226  -1.3748  -1.2799  -1.2724  -1.1405
    -1.1388  -1.0647  -0.9830  -0.9619  -0.9335  -0.8048  -0.7608  -0.7263
    -0.7186  -0.6905  -0.6702  -0.6487  -0.6047  -0.4693  -0.4574  -0.4188
    -0.3843  -0.3621  -0.3278  -0.2701  -0.1843  -0.1057  -0.1053  -0.0499
     0.0181   0.0785   0.1659   0.1758   0.1813   0.4621   0.5408   0.6305
     0.7061   0.7724   0.8356   0.8669   0.9222   0.9667   1.1034   1.1066
     1.1259   1.1265   1.1852   1.1889   1.3727   1.6421   2.1941   3.2159
     3.2162   3.2831   3.2836   3.6071   3.6129   3.7211   3.7304   3.8375
     3.8423

     the Fermi energy is     2.4835 ev

!    total energy              =   -2942.90777378 Ry
     estimated scf accuracy    <       0.00000007 Ry
     smearing contrib. (-TS)   =      -0.00487746 Ry
     internal energy E=F+TS    =   -2942.90289632 Ry

     The total energy is F=E-TS. E is the sum of the following terms:
     one-electron contribution =  -23241.92833177 Ry
     hartree contribution      =   11711.16709275 Ry
     xc contribution           =    -487.46907920 Ry
     ewald contribution        =    9075.32709178 Ry
     electric field correction =       0.00033012 Ry

     total magnetization       =    -0.00 Bohr mag/cell
     absolute magnetization    =     0.00 Bohr mag/cell

     convergence has been achieved in  71 iterations

     Forces acting on atoms (cartesian axes, Ry/au):

     atom    1 type  1   force =     0.00003723   -0.00041093    0.12407341
     atom    2 type  1   force =    -0.00010492   -0.00057022   -0.16065632
     atom    3 type  2   force =     0.00023418   -0.00026943   -0.06798899
     atom    4 type  2   force =     0.00001225   -0.00029258    0.02760010
     atom    5 type  2   force =    -0.01616320    0.00175521   -0.00937284
     atom    6 type  2   force =     0.01819349    0.00219335   -0.00899632
     atom    7 type  1   force =     0.00115003   -0.00377318    0.02168930
     atom    8 type  1   force =    -0.00057818   -0.00291088    0.11105992
     atom    9 type  2   force =    -0.00017949    0.00030640   -0.00045765
     atom   10 type  2   force =    -0.00196071    0.00129274   -0.07321932
     atom   11 type  2   force =     0.00021850   -0.00010607    0.00017228
     atom   12 type  2   force =    -0.00025413    0.00022361    0.00020685
     atom   13 type  1   force =    -0.00009273    0.00008524   -0.00044495
     atom   14 type  1   force =    -0.00058102    0.00045495    0.00042335
     atom   15 type  2   force =     0.00027448   -0.00000962    0.00018618
     atom   16 type  2   force =    -0.00049122   -0.00036776    0.00055259
     atom   17 type  2   force =    -0.00059970    0.00024125    0.00007682
     atom   18 type  2   force =     0.00002730    0.00024942    0.00008326
     atom   19 type  1   force =     0.00038109   -0.00055060    0.00003876
     atom   20 type  1   force =    -0.00009985   -0.00010557    0.00023080
     atom   21 type  2   force =     0.00004976   -0.00000910    0.09972234
     atom   22 type  2   force =     0.00027012   -0.00010622   -0.00050350
     atom   23 type  2   force =    -0.07916304    0.00000044   -0.03243649
     atom   24 type  2   force =     0.07904787    0.00043917   -0.03246083
     atom   25 type  1   force =     0.00001751   -0.00041539    0.12359985
     atom   26 type  1   force =    -0.00010169   -0.00046351   -0.16078945
     atom   27 type  2   force =     0.00032916   -0.00048454   -0.06703936
     atom   28 type  2   force =     0.00002694   -0.00012197    0.02732673
     atom   29 type  2   force =    -0.01663838    0.00127822   -0.00947944
     atom   30 type  2   force =     0.01856644    0.00165601   -0.00911456
     atom   31 type  1   force =     0.00116434   -0.00137812    0.02111612
     atom   32 type  1   force =    -0.00053195    0.00034560    0.11170336
     atom   33 type  2   force =    -0.00015977   -0.00024883    0.00006549
     atom   34 type  2   force =    -0.00132573    0.00066900   -0.07266923
     atom   35 type  2   force =    -0.00078991   -0.00043300   -0.00002164
     atom   36 type  2   force =     0.00011208   -0.00002030    0.00010882
     atom   37 type  1   force =     0.00005939    0.00063703    0.00021091
     atom   38 type  1   force =    -0.00021000    0.00002627   -0.00016161
     atom   39 type  2   force =     0.00013455   -0.00019253    0.00093559
     atom   40 type  2   force =    -0.00018331   -0.00046435    0.00031275
     atom   41 type  2   force =     0.00008261   -0.00009082    0.00004997
     atom   42 type  2   force =     0.00040041    0.00001860    0.00000857
     atom   43 type  1   force =    -0.00023295   -0.00011344    0.00010251
     atom   44 type  1   force =    -0.00024761    0.00060415    0.00015415
     atom   45 type  2   force =     0.00002376   -0.00003262    0.09974646
     atom   46 type  2   force =    -0.07916776    0.00005366   -0.03243825
     atom   47 type  2   force =     0.07904815    0.00047723   -0.03245388
     atom   48 type  3   force =     0.00080700   -0.00008729   -0.00021348
     atom   49 type  4   force =    -0.00052741   -0.00374284    0.00304212
     atom   50 type  5   force =     0.00001113    0.00114282    0.00060130
     atom   51 type  5   force =     0.00087964    0.00414564   -0.00392107
     atom   52 type  5   force =    -0.00025843   -0.00002908   -0.00013866
     atom   53 type  3   force =     0.00002656   -0.00087823   -0.00007785
     atom   54 type  5   force =    -0.00002879    0.00020269   -0.00054625
     atom   55 type  5   force =     0.00015272    0.00032152   -0.00082787
     atom   56 type  5   force =    -0.00106680   -0.00014118    0.00122916

     Total force =     0.424433     Total SCF correction =     0.000459
  @ DRIVER MODE: Message from server: STATUS
  @ DRIVER MODE: Message from server: GETFORCE
  @ DRIVER MODE: Returning v,forces,stress,ensemble

     Writing output data file ./calc.save/
  @ DRIVER MODE: Message from server: EXIT
  @ DRIVE MODE: Exiting

     General routines

     Parallel routines

   This run was terminated on:   5:40:18  16Jul2021

   JOB DONE.