     Program PWSCF v.6.7GPU starts on 15Sep2021 at 19: 7:15

     R & G space division:  proc/nbgrp/npool/nimage =      10
     Reading input from /storage/home/hcoda1/3/ntian30/research/carbon/CxH_vib/H2O_calc/ads_slab/CH2NNHHH2O_a/out_0010/pw.inp
Warning: card &CELL ignored
Warning: card   CELL_DYNAMICS='IPI', ignored
Warning: card / ignored

     Current dimensions of program PWSCF are:
     Max number of different atomic species (ntypx) = 10
     Max number of k-points (npk) =  40000
     Max angular momentum in pseudopotentials (lmaxx) =  3
     Presently no symmetry can be used with electric field

     Message from routine cell_base_init:
     DEPRECATED: use true lattice parameter, not A to a.u. conversion factor

     IMPORTANT: XC functional enforced from input :
     Exchange-correlation= BEEF-VDW
                           (   1   4  43  14   2   0   0)
     Any further DFT definition will be discarded
     Please, verify this is what you really want

  @ DRIVER MODE: Connecting to
 qe_1139763_2852611.sched-torque.pace.gatech.eduduukzqjk_scratch
  using UNIX socket
  @ DRIVER MODE: Message from server: STATUS
  @ DRIVER MODE: Message from server: INIT
  @ DRIVER MODE: Receiving replica           0          -1
  @ DRIVER MODE: Receiving encoded integer          25
  @ DRIVER MODE:  SCF:  T  FORCE:  T  STRESS:  F  VC:  F  ENSEMBLE:  F
  @ DRIVER MODE:  SCF:  T  FORCE:  T  STRESS:  F  VC:  F  ENSEMBLE:  F

     Using Slab Decomposition

     bravais-lattice index     =            0
     lattice parameter (alat)  =       1.8897  a.u.
     unit-cell volume          =    6658.9804 (a.u.)^3
     number of atoms/cell      =           57
     number of atomic types    =            5
     number of electrons       =       404.00
     number of Kohn-Sham states=          212
     kinetic-energy cutoff     =      29.3995  Ry
     charge density cutoff     =     293.9946  Ry
     scf convergence threshold =      7.3E-08
     mixing beta               =       0.0500
     number of iterations used =            8  plain     mixing
     Exchange-correlation= BEEF-VDW
                           (   1   4  43  14   2   0   0)

     celldm(1)=   1.889726  celldm(2)=   0.000000  celldm(3)=   0.000000
     celldm(4)=   0.000000  celldm(5)=   0.000000  celldm(6)=   0.000000

     crystal axes: (cart. coord. in units of alat)
               a(1) = (   6.579727   0.000000   0.000000 )
               a(2) = (  -0.000775   5.961596   0.000000 )
               a(3) = (   0.000000   0.000000  25.155947 )

     reciprocal axes: (cart. coord. in units 2 pi/alat)
               b(1) = (  0.151982  0.000020  0.000000 )
               b(2) = (  0.000000  0.167740  0.000000 )
               b(3) = (  0.000000  0.000000  0.039752 )

     PseudoPot. # 1 for Ti read from file:
     /storage/coda1/p-amedford6/0/shared/rich_project_chbe-medford/medford-share/data/pseudos_module/espresso/nninc/pbe/van/Ti.UPF
     MD5 check sum: 8e4df49b7f0d34bbd5052bf3f5ea0213
     Pseudo is Ultrasoft, Zval = 12.0
     Generated by new atomic code, or converted to UPF format
     Using radial grid of  851 points,  6 beta functions with:
                l(1) =   0
                l(2) =   0
                l(3) =   1
                l(4) =   1
                l(5) =   2
                l(6) =   2
     Q(r) pseudized with  8 coefficients,  rinner =    1.000   1.000   1.000
                                                       1.000   1.000

     PseudoPot. # 2 for O  read from file:
     /storage/coda1/p-amedford6/0/shared/rich_project_chbe-medford/medford-share/data/pseudos_module/espresso/nninc/pbe/van/O.UPF
     MD5 check sum: 78c19812648e8988a0fe644b0f25305e
     Pseudo is Ultrasoft, Zval =  6.0
     Generated by new atomic code, or converted to UPF format
     Using radial grid of  737 points,  4 beta functions with:
                l(1) =   0
                l(2) =   0
                l(3) =   1
                l(4) =   1
     Q(r) pseudized with  8 coefficients,  rinner =    0.800   0.800   0.800

     PseudoPot. # 3 for N  read from file:
     /storage/coda1/p-amedford6/0/shared/rich_project_chbe-medford/medford-share/data/pseudos_module/espresso/nninc/pbe/van/N.UPF
     MD5 check sum: 90d10febe142ad51ac9d5be1deb811c4
     Pseudo is Ultrasoft, Zval =  5.0
     Generated by new atomic code, or converted to UPF format
     Using radial grid of  729 points,  4 beta functions with:
                l(1) =   0
                l(2) =   0
                l(3) =   1
                l(4) =   1
     Q(r) pseudized with  8 coefficients,  rinner =    0.800   0.800   0.800

     PseudoPot. # 4 for C  read from file:
     /storage/coda1/p-amedford6/0/shared/rich_project_chbe-medford/medford-share/data/pseudos_module/espresso/nninc/pbe/van/C.UPF
     MD5 check sum: 1a69bf6b8db32088f5b2163dbdb77a27
     Pseudo is Ultrasoft, Zval =  4.0
     Generated by new atomic code, or converted to UPF format
     Using radial grid of  721 points,  4 beta functions with:
                l(1) =   0
                l(2) =   0
                l(3) =   1
                l(4) =   1
     Q(r) pseudized with  8 coefficients,  rinner =    0.800   0.800   0.800

     PseudoPot. # 5 for H  read from file:
     /storage/coda1/p-amedford6/0/shared/rich_project_chbe-medford/medford-share/data/pseudos_module/espresso/nninc/pbe/van/H.UPF
     MD5 check sum: b5ee9d7bfd3a09ee7748110bda690ff7
     Pseudo is Ultrasoft, Zval =  1.0
     Generated by new atomic code, or converted to UPF format
     Using radial grid of  615 points,  1 beta functions with:
                l(1) =   0
     Q(r) pseudized with  8 coefficients,  rinner =    0.800

     atomic species   valence    mass     pseudopotential
        Ti1           12.00    47.86700     Ti( 1.00)
        O1             6.00    15.99900     O ( 1.00)
        N1             5.00    14.00700     N ( 1.00)
        C1             4.00    12.01100     C ( 1.00)
        H1             1.00     1.00800     H ( 1.00)

     No symmetry found

   Cartesian axes

     site n.     atom                  positions (alat units)
         1           Ti1 tau(   1) = (   0.0004258   2.9801865   6.0000000  )
         2           Ti1 tau(   2) = (   3.2906075   1.4906267   6.0002472  )
         3           O1  tau(   3) = (   0.0006271   0.0005054   7.9858123  )
         4           O1  tau(   4) = (   3.2906025   0.0005020   7.3038282  )
         5           O1  tau(   5) = (   4.5942328   1.4918067   9.2879030  )
         6           O1  tau(   6) = (   1.9868534   1.4903216   9.2879459  )
         7           Ti1 tau(   7) = (   3.2907910   2.8959150   9.1758416  )
         8           Ti1 tau(   8) = (   0.0015273   1.4827037   9.2680791  )
         9           O1  tau(   9) = (   3.3121314   5.9338840  11.3691909  )
        10           O1  tau(  10) = (   0.0116148   5.9584955  10.6183126  )
        11           O1  tau(  11) = (   1.3134021   1.4784130  12.6451072  )
        12           O1  tau(  12) = (   5.3172625   1.4801399  12.6491864  )
        13           Ti1 tau(  13) = (   0.0380378   2.9573341  12.5222382  )
        14           Ti1 tau(  14) = (   3.3404755   1.4532591  12.5245293  )
        15           O1  tau(  15) = (   0.0239237   0.0366503  14.6894071  )
        16           O1  tau(  16) = (   3.3255740   5.9570089  14.0129324  )
        17           O1  tau(  17) = (   4.5846449   1.4795273  16.1858442  )
        18           O1  tau(  18) = (   2.0539891   1.4908220  16.1938258  )
        19           Ti1 tau(  19) = (   3.3028508   2.9322526  15.7076921  )
        20           Ti1 tau(  20) = (   0.0088316   1.3655950  16.0522487  )
        21           O1  tau(  21) = (   3.2904802   0.0005063   4.7018136  )
        22           O1  tau(  22) = (   0.0586005   5.8320325  17.2288864  )
        23           O1  tau(  23) = (   1.3043587   1.4918075   6.0039043  )
        24           O1  tau(  24) = (   5.2767064   1.4903225   6.0039473  )
        25           Ti1 tau(  25) = (   0.0000382   5.9609847   6.0000000  )
        26           Ti1 tau(  26) = (   3.2902200   4.4714249   6.0002472  )
        27           O1  tau(  27) = (   0.0002396   2.9813036   7.9858123  )
        28           O1  tau(  28) = (   3.2902150   2.9813002   7.3038282  )
        29           O1  tau(  29) = (   4.5938453   4.4726049   9.2879030  )
        30           O1  tau(  30) = (   1.9864658   4.4711199   9.2879459  )
        31           Ti1 tau(  31) = (   3.2891106   5.8743827   9.1763621  )
        32           Ti1 tau(  32) = (   0.0006254   4.4649316   9.2693709  )
        33           O1  tau(  33) = (   3.3142679   2.9660735  11.3641874  )
        34           O1  tau(  34) = (   0.0092240   2.9805883  10.6323155  )
        35           O1  tau(  35) = (   1.3108675   4.4558178  12.6782323  )
        36           O1  tau(  36) = (   5.3175068   4.4537340  12.6790822  )
        37           Ti1 tau(  37) = (   0.0418451   5.9490355  12.4996082  )
        38           Ti1 tau(  38) = (   3.3402151   4.4429940  12.5219265  )
        39           O1  tau(  39) = (   0.0332256   2.9148708  14.9327709  )
        40           O1  tau(  40) = (   3.3156017   2.9437717  13.9283311  )
        41           O1  tau(  41) = (   4.5915719   4.3868214  16.1197993  )
        42           O1  tau(  42) = (   2.0539401   4.4017640  16.0846163  )
        43           Ti1 tau(  43) = (   3.3369130   5.9116756  15.8392261  )
        44           Ti1 tau(  44) = (   0.0533093   4.5818758  15.8415549  )
        45           O1  tau(  45) = (   3.2900926   2.9813045   4.7018136  )
        46           O1  tau(  46) = (   1.3039711   4.4726057   6.0039043  )
        47           O1  tau(  47) = (   5.2763189   4.4711207   6.0039473  )
        48           N1  tau(  48) = (   6.5287229   2.7802708  18.1865785  )
        49           C1  tau(  49) = (   0.9724842   2.7844648  18.9576868  )
        50           H1  tau(  50) = (   0.9153086   3.0669255  20.0057840  )
        51           H1  tau(  51) = (   1.9225290   2.4867234  18.5393133  )
        52           N1  tau(  52) = (   5.2958906   3.1014149  18.7352402  )
        53           H1  tau(  53) = (   5.3913054   3.6367428  19.5974321  )
        54           H1  tau(  54) = (   4.7863746   3.6605970  18.0522289  )
        55           O1  tau(  55) = (   3.2511457   5.8152340  18.3397965  )
        56           H1  tau(  56) = (   3.7467739   0.6636339  18.5518981  )
        57           H1  tau(  57) = (   2.3053106   0.0674530  18.4201010  )

     number of k points=    10  Fermi-Dirac smearing, width (Ry)=  0.0073
                       cart. coord. in units 2pi/alat
        k(    1) = (   0.0000000   0.0000000   0.0000000), wk =   0.1250000
        k(    2) = (   0.0000000   0.0419351   0.0000000), wk =   0.2500000
        k(    3) = (   0.0000000  -0.0838702   0.0000000), wk =   0.1250000
        k(    4) = (   0.0379955   0.0000049   0.0000000), wk =   0.2500000
        k(    5) = (   0.0379955   0.0419400   0.0000000), wk =   0.2500000
        k(    6) = (   0.0379955  -0.0838652   0.0000000), wk =   0.2500000
        k(    7) = (   0.0379955  -0.0419301   0.0000000), wk =   0.2500000
        k(    8) = (  -0.0759910  -0.0000099   0.0000000), wk =   0.1250000
        k(    9) = (  -0.0759910   0.0419252   0.0000000), wk =   0.2500000
        k(   10) = (  -0.0759910  -0.0838800   0.0000000), wk =   0.1250000

     Initial potential from superposition of free atoms

     starting charge  387.99913, renormalised to  404.00000

     negative rho (up, down):  1.527E-02 0.000E+00

     %%%%%%%%%%%%%%%%%%%%%%%%%%%%%%%%%%%%%%%%%%%%%%%%%%%%%%%%%%%%%%%%%%%%%%%%
     %                                                                      %
     % You are using vdW-DF, which was implemented by the Thonhauser group. %
     % Please cite the following two papers that made this development      %
     % possible and the two reviews that describe the various versions:     %
     %                                                                      %
     %   T. Thonhauser et al., PRL 115, 136402 (2015).                      %
     %   T. Thonhauser et al., PRB 76, 125112 (2007).                       %
     %   K. Berland et al., Rep. Prog. Phys. 78, 066501 (2015).             %
     %   D.C. Langreth et al., J. Phys.: Condens. Matter 21, 084203 (2009). %
     %                                                                      %
     %                                                                      %
     % If you are calculating the stress with vdW-DF, please also cite:     %
     %                                                                      %
     %   R. Sabatini et al., J. Phys.: Condens. Matter 24, 424209 (2012).   %
     %                                                                      %
     %%%%%%%%%%%%%%%%%%%%%%%%%%%%%%%%%%%%%%%%%%%%%%%%%%%%%%%%%%%%%%%%%%%%%%%%

     Adding external electric field

     Computed dipole along edir(3) :
        Dipole              -14.3244 Ry au,        -36.4090 Debye
        Dipole field         -0.0270 Ry au,

        Potential amp.        2.5058 Ry
        Total length         46.3494 bohr

     Starting wfcs are  306 atomic wfcs
  @ DRIVER MODE: Message from server: STATUS
  @ DRIVER MODE: Message from server: POSDATA
  @ DRIVER MODE: Reading and sharing cell
  @ DRIVER MODE: Reading and sharing positions
  @ DRIVER MODE: Received positions

     Self-consistent Calculation

     iteration #  1     ecut=    29.40 Ry     beta= 0.05
     Davidson diagonalization with overlap
     c_bands:  4 eigenvalues not converged
     c_bands:  3 eigenvalues not converged
     c_bands:  5 eigenvalues not converged
     c_bands:  1 eigenvalues not converged
     c_bands:  2 eigenvalues not converged
     c_bands:  1 eigenvalues not converged
     c_bands:  2 eigenvalues not converged
     c_bands:  4 eigenvalues not converged
     c_bands:  5 eigenvalues not converged
     ethr =  1.00E-05,  avg # of iterations = 24.6

[...]

     total energy              =   -2233.94313957 Ry
     estimated scf accuracy    <    8445.26475662 Ry

     iteration #  2     ecut=    29.40 Ry     beta= 0.05
     Davidson diagonalization with overlap
     ethr =  1.00E-02,  avg # of iterations = 26.4

[...]

     iteration # 67     ecut=    29.40 Ry     beta= 0.05
     Davidson diagonalization with overlap
     c_bands:  1 eigenvalues not converged
     c_bands:  1 eigenvalues not converged
     c_bands:  2 eigenvalues not converged
     c_bands:  1 eigenvalues not converged
     ethr =  4.20E-11,  avg # of iterations = 17.9

[...]

     total energy              =   -2975.20592549 Ry
     estimated scf accuracy    <       0.00000012 Ry

     iteration # 70     ecut=    29.40 Ry     beta= 0.05
     Davidson diagonalization with overlap
     ethr =  1.96E-11,  avg # of iterations =  6.9

     negative rho (up, down):  1.521E-02 0.000E+00

     Adding external electric field

     Computed dipole along edir(3) :
        Dipole                1.4033 Ry au,          3.5668 Debye
        Dipole field          0.0026 Ry au,

        Potential amp.       -0.2455 Ry
        Total length         46.3494 bohr

     End of self-consistent calculation

          k = 0.0000 0.0000 0.0000 ( 18029 PWs)   bands (ev):

   -55.1872 -55.1512 -55.1476 -55.1135 -55.0995 -55.0677 -55.0341 -55.0297
   -55.0060 -54.9766 -54.9711 -54.9678 -54.9430 -54.8728 -54.1706 -54.1365
   -31.7525 -31.6392 -31.5980 -31.5563 -31.5057 -31.4954 -31.4885 -31.4812
   -31.4366 -31.4021 -31.3986 -31.3921 -31.3900 -31.3637 -31.3410 -31.3321
   -31.3311 -31.3248 -31.3054 -31.2995 -31.2801 -31.2754 -31.2607 -31.2467
   -31.2360 -31.2337 -31.2132 -31.2066 -31.2046 -31.1979 -31.1922 -31.1742
   -31.1696 -31.1592 -31.1543 -31.1414 -31.1202 -31.1162 -31.1046 -31.0882
   -31.0870 -31.0025 -30.5796 -30.4862 -30.4641 -30.3961 -30.3093 -30.1983
   -18.9156 -18.5462 -16.0130 -15.7478 -15.6119 -15.5018 -15.3860 -15.2564
   -15.2086 -15.0775 -15.0179 -14.9045 -14.8766 -14.8343 -14.8154 -14.8100
   -14.7520 -14.7245 -14.7177 -14.6924 -14.6821 -14.6607 -14.6214 -14.6151
   -14.5791 -14.5683 -14.5643 -14.4194 -14.3418 -14.2774 -13.9665 -13.6642
   -12.6729 -12.5556  -8.8008  -6.7037  -6.4569  -6.0729  -4.1413  -3.3561
    -3.2005  -3.1845  -3.1241  -3.0841  -3.0592  -3.0079  -2.9380  -2.7349
    -2.5999  -2.5731  -2.4537  -2.3878  -2.3832  -2.3302  -2.1874  -2.1827
    -2.1273  -2.0880  -2.0378  -2.0178  -1.9943  -1.9706  -1.9368  -1.9175
    -1.8905  -1.7558  -1.7360  -1.6620  -1.5996  -1.5890  -1.5309  -1.5070
    -1.4883  -1.4829  -1.4742  -1.4620  -1.4230  -1.4094  -1.3660  -1.3095
    -1.2061  -1.1226  -1.0263  -0.9481  -0.8838  -0.8217  -0.7601  -0.7510
    -0.6741  -0.6617  -0.5705  -0.5475  -0.5167  -0.4039  -0.3417  -0.3373
    -0.2738  -0.1720  -0.1434  -0.1276  -0.0559   0.0223   0.0412   0.0488
     0.0571   0.1807   0.2338   0.2661   0.2992   0.3701   0.3918   0.4414
     0.4881   0.4941   0.5738   0.6336   0.6877   0.7374   0.7545   0.7794
     0.7966   0.8063   0.8234   0.9045   0.9273   0.9602   1.0136   1.1691
     1.3282   1.4280   1.4440   1.7620   1.7752   1.8524   2.0368   2.4276
     2.4755   3.9088   3.9857   4.0445   4.0510   4.0601   4.1461   4.3905
     4.4061   4.4190   4.4311   4.4747

[...]

          k = 0.0380-0.0419 0.0000 ( 17876 PWs)   bands (ev):

[...]

          k =-0.0760-0.0000 0.0000 ( 17886 PWs)   bands (ev):

[...]

          k =-0.0760-0.0839 0.0000 ( 17948 PWs)   bands (ev):

   -55.1700 -55.1682 -55.1305 -55.1304 -55.0971 -55.0568 -55.0406 -55.0321
   -54.9916 -54.9850 -54.9699 -54.9601 -54.9597 -54.8748 -54.1535 -54.1535
   -31.5618 -31.5517 -31.5229 -31.4543 -31.4543 -31.4479 -31.4389 -31.4219
   -31.4219 -31.4006 -31.3899 -31.3872 -31.3748 -31.3488 -31.3246 -31.3191
   -31.3189 -31.3185 -31.3161 -31.3068 -31.3011 -31.2828 -31.2695 -31.2667
   -31.2528 -31.2500 -31.2500 -31.2493 -31.2396 -31.2348 -31.2251 -31.2238
   -31.2158 -31.2048 -31.1989 -31.1889 -31.1878 -31.1511 -31.1402 -31.1398
   -31.0964 -31.0889 -30.4768 -30.4768 -30.3922 -30.3920 -30.3527 -30.3527
   -18.9132 -18.5455 -15.5301 -15.4835 -15.3281 -15.1937 -15.1905 -15.1503
   -15.0947 -15.0232 -15.0021 -14.9590 -14.9481 -14.9296 -14.8929 -14.8855
   -14.8593 -14.7885 -14.7790 -14.7706 -14.7367 -14.6977 -14.6870 -14.6856
   -14.6688 -14.6389 -14.6358 -14.5383 -14.5361 -14.4442 -14.3062 -13.6794
   -12.6572 -12.6571  -8.7652  -6.7033  -6.4061  -6.1005  -4.1824  -3.2040
    -2.9265  -2.7474  -2.6423  -2.5401  -2.4132  -2.4074  -2.3221  -2.3138
    -2.2328  -2.1985  -2.1862  -2.1706  -2.0794  -2.0659  -2.0557  -2.0338
    -2.0173  -1.9994  -1.9676  -1.9617  -1.9379  -1.9112  -1.9009  -1.8993
    -1.8810  -1.8472  -1.8158  -1.7969  -1.7762  -1.7456  -1.7345  -1.6671
    -1.6265  -1.5385  -1.5036  -1.3887  -1.3869  -1.3672  -1.3098  -1.2898
    -1.2689  -1.2196  -1.2108  -1.1645  -1.0238  -0.9356  -0.9248  -0.8868
    -0.8378  -0.7891  -0.7420  -0.7268  -0.6606  -0.6397  -0.5474  -0.5312
    -0.4302  -0.3881  -0.3761  -0.3603  -0.2783  -0.2137  -0.1667  -0.1466
    -0.1422  -0.0915  -0.0773  -0.0640   0.0075   0.0550   0.0788   0.0933
     0.1347   0.3030   0.3634   0.3770   0.4962   0.5455   0.6496   0.7095
     0.7854   0.8054   0.8416   0.9320   0.9384   1.0151   1.1099   1.1239
     1.1599   1.2045   1.2533   1.2762   1.2811   2.2097   2.2111   2.2955
     2.2956   4.0527   4.1291   4.1869   4.2350   4.2436   4.3643   4.4262
     4.4688   4.4909   4.4930   4.5771

     the Fermi energy is     3.9669 ev

!    total energy              =   -2975.20594660 Ry
     estimated scf accuracy    <       0.00000005 Ry
     smearing contrib. (-TS)   =      -0.03732422 Ry
     internal energy E=F+TS    =   -2975.16862238 Ry

     The total energy is F=E-TS. E is the sum of the following terms:
     one-electron contribution =  -23538.21129483 Ry
     hartree contribution      =   11867.13628742 Ry
     xc contribution           =    -494.97218446 Ry
     ewald contribution        =    9190.87485333 Ry
     electric field correction =       0.00371616 Ry

     convergence has been achieved in  70 iterations

     Forces acting on atoms (cartesian axes, Ry/au):

     atom    1 type  1   force =     0.00006374   -0.00019593    0.09356236
     atom    2 type  1   force =    -0.00020506   -0.00021272   -0.17804141
     atom    3 type  2   force =     0.00011086   -0.00019866   -0.02066380
     atom    4 type  2   force =     0.00004903   -0.00197783    0.05807843
     atom    5 type  2   force =    -0.01002271   -0.00167124    0.00692655
     atom    6 type  2   force =     0.01217071   -0.00103903    0.00744031
     atom    7 type  1   force =     0.00022253    0.00249068   -0.01209869
     atom    8 type  1   force =    -0.00049959    0.00203167   -0.00194482
     atom    9 type  2   force =     0.00006812    0.00006594   -0.00005289
     atom   10 type  2   force =    -0.00044117   -0.00134489   -0.00316692
     atom   11 type  2   force =     0.00016286   -0.00007759   -0.00007748
     atom   12 type  2   force =    -0.00067110   -0.00011613    0.00008146
     atom   13 type  1   force =     0.00050966    0.00098305    0.00023851
     atom   14 type  1   force =    -0.00139870    0.00026630    0.00016688
     atom   15 type  2   force =    -0.00018794    0.00095359    0.00024614
     atom   16 type  2   force =    -0.00001082   -0.00042974    0.00013978
     atom   17 type  2   force =     0.00073827    0.00004096   -0.00023066
     atom   18 type  2   force =     0.00052664    0.00014204   -0.00031938
     atom   19 type  1   force =    -0.00119682    0.00093993    0.00053188
     atom   20 type  1   force =     0.00063385   -0.00011190   -0.00081479
     atom   21 type  2   force =     0.00001409   -0.00001947    0.10388219
     atom   22 type  2   force =     0.00006927    0.00093650   -0.00008127
     atom   23 type  2   force =    -0.07054216   -0.00011809   -0.02696494
     atom   24 type  2   force =     0.07048024    0.00031223   -0.02702646
     atom   25 type  1   force =     0.00001766   -0.00019294    0.09301794
     atom   26 type  1   force =    -0.00009944   -0.00048364   -0.17796033
     atom   27 type  2   force =     0.00017266   -0.00036982   -0.01955130
     atom   28 type  2   force =     0.00011076   -0.00160600    0.05715987
     atom   29 type  2   force =    -0.01007734   -0.00086106    0.00630511
     atom   30 type  2   force =     0.01214075   -0.00061541    0.00686391
     atom   31 type  1   force =     0.00031701    0.00502312   -0.01527383
     atom   32 type  1   force =    -0.00039490   -0.00268423   -0.00236553
     atom   33 type  2   force =    -0.00003015   -0.00025933   -0.00004907
     atom   34 type  2   force =     0.00046350    0.00031111   -0.00054905
     atom   35 type  2   force =    -0.00011312   -0.00037100   -0.00007505
     atom   36 type  2   force =    -0.00045015   -0.00036225    0.00024472
     atom   37 type  1   force =     0.00026992   -0.00103650    0.00050689
     atom   38 type  1   force =    -0.00122407    0.00025803    0.00128682
     atom   39 type  2   force =    -0.00012271   -0.00046339    0.00027881
     atom   40 type  2   force =     0.00003321   -0.00042179    0.00044563
     atom   41 type  2   force =    -0.00014803   -0.00002017    0.00010811
     atom   42 type  2   force =     0.00127943   -0.00023661    0.00002240
     atom   43 type  1   force =    -0.00123690   -0.00070793   -0.00006466
     atom   44 type  1   force =     0.00097364    0.00065771   -0.00005136
     atom   45 type  2   force =     0.00004054   -0.00001850    0.10381870
     atom   46 type  2   force =    -0.07057214   -0.00007703   -0.02697317
     atom   47 type  2   force =     0.07048070    0.00038981   -0.02700392
     atom   48 type  3   force =    -0.00067339    0.00199889    0.00168464
     atom   49 type  4   force =     0.00462467   -0.00530587   -0.00511553
     atom   50 type  5   force =    -0.00089345    0.00217786    0.00207190
     atom   51 type  5   force =    -0.00303238    0.00182847    0.00150233
     atom   52 type  3   force =    -0.00100879    0.00036085   -0.00007332
     atom   53 type  5   force =     0.00015630    0.00054956   -0.00043422
     atom   54 type  5   force =    -0.00072412    0.00070488    0.00019525
     atom   55 type  2   force =    -0.00055781    0.00077316   -0.00007118
     atom   56 type  5   force =    -0.00036354   -0.00034611    0.00080206
     atom   57 type  5   force =    -0.00000213   -0.00024357   -0.00051451

     Total force =     0.365896     Total SCF correction =     0.000620
  @ DRIVER MODE: Message from server: STATUS
  @ DRIVER MODE: Message from server: GETFORCE
  @ DRIVER MODE: Returning v,forces,stress,ensemble

     Writing output data file ./calc.save/
  @ DRIVER MODE: Message from server: EXIT
  @ DRIVE MODE: Exiting

     General routines

     Parallel routines

   This run was terminated on:  19:26:43  15Sep2021

   JOB DONE.