     Program PWSCF v.6.7GPU starts on 23Sep2021 at 11: 2:25

     R & G space division:  proc/nbgrp/npool/nimage =       8
     Reading input from /storage/home/hcoda1/3/ntian30/research/carbon/CxH_vib/H2O_calc/ads_slab/CH3NHHO_a/out_0001/pw.inp
Warning: card &CELL ignored
Warning: card   CELL_DYNAMICS='IPI', ignored
Warning: card / ignored

     Current dimensions of program PWSCF are:
     Max number of different atomic species (ntypx) = 10
     Max number of k-points (npk) =  40000
     Max angular momentum in pseudopotentials (lmaxx) =  3
     Presently no symmetry can be used with electric field

     Message from routine cell_base_init:
     DEPRECATED: use true lattice parameter, not A to a.u. conversion factor

     IMPORTANT: XC functional enforced from input :
     Exchange-correlation= BEEF-VDW
                           (   1   4  43  14   2   0   0)
     Any further DFT definition will be discarded
     Please, verify this is what you really want

  @ DRIVER MODE: Connecting to
 qe_1139763_2947309.sched-torque.pace.gatech.edurff_s8ex_scratch
  using UNIX socket
  @ DRIVER MODE: Message from server: STATUS
  @ DRIVER MODE: Message from server: INIT
  @ DRIVER MODE: Receiving replica           0          -1
  @ DRIVER MODE: Receiving encoded integer          25
  @ DRIVER MODE:  SCF:  T  FORCE:  T  STRESS:  F  VC:  F  ENSEMBLE:  F
  @ DRIVER MODE:  SCF:  T  FORCE:  T  STRESS:  F  VC:  F  ENSEMBLE:  F

     Using Slab Decomposition

     bravais-lattice index     =            0
     lattice parameter (alat)  =       1.8897  a.u.
     unit-cell volume          =    6658.9804 (a.u.)^3
     number of atoms/cell      =           55
     number of atomic types    =            5
     number of electrons       =       398.00
     number of Kohn-Sham states=          209
     kinetic-energy cutoff     =      29.3995  Ry
     charge density cutoff     =     293.9946  Ry
     scf convergence threshold =      7.3E-08
     mixing beta               =       0.0500
     number of iterations used =            8  plain     mixing
     Exchange-correlation= BEEF-VDW
                           (   1   4  43  14   2   0   0)

     celldm(1)=   1.889726  celldm(2)=   0.000000  celldm(3)=   0.000000
     celldm(4)=   0.000000  celldm(5)=   0.000000  celldm(6)=   0.000000

     crystal axes: (cart. coord. in units of alat)
               a(1) = (   6.579727   0.000000   0.000000 )
               a(2) = (  -0.000775   5.961596   0.000000 )
               a(3) = (   0.000000   0.000000  25.155947 )

     reciprocal axes: (cart. coord. in units 2 pi/alat)
               b(1) = (  0.151982  0.000020  0.000000 )
               b(2) = (  0.000000  0.167740  0.000000 )
               b(3) = (  0.000000  0.000000  0.039752 )

     PseudoPot. # 1 for Ti read from file:
     /storage/coda1/p-amedford6/0/shared/rich_project_chbe-medford/medford-share/data/pseudos_module/espresso/nninc/pbe/van/Ti.UPF
     MD5 check sum: 8e4df49b7f0d34bbd5052bf3f5ea0213
     Pseudo is Ultrasoft, Zval = 12.0
     Generated by new atomic code, or converted to UPF format
     Using radial grid of  851 points,  6 beta functions with:
                l(1) =   0
                l(2) =   0
                l(3) =   1
                l(4) =   1
                l(5) =   2
                l(6) =   2
     Q(r) pseudized with  8 coefficients,  rinner =    1.000   1.000   1.000
                                                       1.000   1.000

     PseudoPot. # 2 for O  read from file:
     /storage/coda1/p-amedford6/0/shared/rich_project_chbe-medford/medford-share/data/pseudos_module/espresso/nninc/pbe/van/O.UPF
     MD5 check sum: 78c19812648e8988a0fe644b0f25305e
     Pseudo is Ultrasoft, Zval =  6.0
     Generated by new atomic code, or converted to UPF format
     Using radial grid of  737 points,  4 beta functions with:
                l(1) =   0
                l(2) =   0
                l(3) =   1
                l(4) =   1
     Q(r) pseudized with  8 coefficients,  rinner =    0.800   0.800   0.800

     PseudoPot. # 3 for H  read from file:
     /storage/coda1/p-amedford6/0/shared/rich_project_chbe-medford/medford-share/data/pseudos_module/espresso/nninc/pbe/van/H.UPF
     MD5 check sum: b5ee9d7bfd3a09ee7748110bda690ff7
     Pseudo is Ultrasoft, Zval =  1.0
     Generated by new atomic code, or converted to UPF format
     Using radial grid of  615 points,  1 beta functions with:
                l(1) =   0
     Q(r) pseudized with  8 coefficients,  rinner =    0.800

     PseudoPot. # 4 for N  read from file:
     /storage/coda1/p-amedford6/0/shared/rich_project_chbe-medford/medford-share/data/pseudos_module/espresso/nninc/pbe/van/N.UPF
     MD5 check sum: 90d10febe142ad51ac9d5be1deb811c4
     Pseudo is Ultrasoft, Zval =  5.0
     Generated by new atomic code, or converted to UPF format
     Using radial grid of  729 points,  4 beta functions with:
                l(1) =   0
                l(2) =   0
                l(3) =   1
                l(4) =   1
     Q(r) pseudized with  8 coefficients,  rinner =    0.800   0.800   0.800

     PseudoPot. # 5 for C  read from file:
     /storage/coda1/p-amedford6/0/shared/rich_project_chbe-medford/medford-share/data/pseudos_module/espresso/nninc/pbe/van/C.UPF
     MD5 check sum: 1a69bf6b8db32088f5b2163dbdb77a27
     Pseudo is Ultrasoft, Zval =  4.0
     Generated by new atomic code, or converted to UPF format
     Using radial grid of  721 points,  4 beta functions with:
                l(1) =   0
                l(2) =   0
                l(3) =   1
                l(4) =   1
     Q(r) pseudized with  8 coefficients,  rinner =    0.800   0.800   0.800

     atomic species   valence    mass     pseudopotential
        Ti1           12.00    47.86700     Ti( 1.00)
        O1             6.00    15.99900     O ( 1.00)
        H1             1.00     1.00800     H ( 1.00)
        N1             5.00    14.00700     N ( 1.00)
        C1             4.00    12.01100     C ( 1.00)

     No symmetry found

   Cartesian axes

     site n.     atom                  positions (alat units)
         1           Ti1 tau(   1) = (   0.0004258   2.9801865   6.0000000  )
         2           Ti1 tau(   2) = (   3.2906075   1.4906267   6.0002472  )
         3           O1  tau(   3) = (   0.0006271   0.0005054   7.9858123  )
         4           O1  tau(   4) = (   3.2906025   0.0005020   7.3038282  )
         5           O1  tau(   5) = (   4.5942328   1.4918067   9.2879030  )
         6           O1  tau(   6) = (   1.9868534   1.4903216   9.2879459  )
         7           Ti1 tau(   7) = (   3.2907910   2.8959150   9.1758416  )
         8           Ti1 tau(   8) = (   0.0015273   1.4827037   9.2680791  )
         9           O1  tau(   9) = (   3.2831040   5.9360571  11.2641146  )
        10           O1  tau(  10) = (   0.0116148   5.9584955  10.6183126  )
        11           O1  tau(  11) = (   1.2851963   1.4867209  12.6255510  )
        12           O1  tau(  12) = (   5.2924406   1.4772461  12.6192171  )
        13           Ti1 tau(  13) = (   0.0036382   2.8404764  12.7021481  )
        14           Ti1 tau(  14) = (   3.2814461   1.2926050  12.6442039  )
        15           O1  tau(  15) = (   6.5789252   5.9354829  14.6389027  )
        16           O1  tau(  16) = (   3.2852549   0.0163589  13.8648689  )
        17           O1  tau(  17) = (   4.5445832   1.5164849  16.0197972  )
        18           O1  tau(  18) = (   2.0258823   1.4930055  16.0750729  )
        19           Ti1 tau(  19) = (   3.3156224   2.9699746  15.6194889  )
        20           Ti1 tau(  20) = (   0.0515760   1.3234122  16.0730098  )
        21           O1  tau(  21) = (   3.2904802   0.0005063   4.7018136  )
        22           O1  tau(  22) = (   6.5454194   5.9222349  17.1870725  )
        23           O1  tau(  23) = (   1.3043587   1.4918075   6.0039043  )
        24           O1  tau(  24) = (   5.2767064   1.4903225   6.0039473  )
        25           Ti1 tau(  25) = (   0.0000382   5.9609847   6.0000000  )
        26           Ti1 tau(  26) = (   3.2902200   4.4714249   6.0002472  )
        27           O1  tau(  27) = (   0.0002396   2.9813036   7.9858123  )
        28           O1  tau(  28) = (   3.2902150   2.9813002   7.3038282  )
        29           O1  tau(  29) = (   4.5938453   4.4726049   9.2879030  )
        30           O1  tau(  30) = (   1.9864658   4.4711199   9.2879459  )
        31           Ti1 tau(  31) = (   3.2891106   5.8743827   9.1763621  )
        32           Ti1 tau(  32) = (   0.0006254   4.4649316   9.2693709  )
        33           O1  tau(  33) = (   3.2861177   3.0127509  11.2320142  )
        34           O1  tau(  34) = (   0.0092240   2.9805883  10.6323155  )
        35           O1  tau(  35) = (   1.2872320   4.4646868  12.6147789  )
        36           O1  tau(  36) = (   5.2799320   4.4658550  12.6114028  )
        37           Ti1 tau(  37) = (   6.5510365   5.8261734  12.6423015  )
        38           Ti1 tau(  38) = (   3.2652589   4.3917841  12.4002916  )
        39           O1  tau(  39) = (   0.0003569   2.9920414  14.6539809  )
        40           O1  tau(  40) = (   3.2835110   2.9651371  13.8409569  )
        41           O1  tau(  41) = (   4.5245492   4.4030193  16.0142317  )
        42           O1  tau(  42) = (   2.0132503   4.4096711  16.0494848  )
        43           Ti1 tau(  43) = (   3.3389516   5.9588577  16.2858146  )
        44           Ti1 tau(  44) = (   0.0865397   4.4271626  15.8895714  )
        45           O1  tau(  45) = (   3.2900926   2.9813045   4.7018136  )
        46           O1  tau(  46) = (   1.3039711   4.4726057   6.0039043  )
        47           O1  tau(  47) = (   5.2763189   4.4711207   6.0039473  )
        48           H1  tau(  48) = (   5.5549379   3.0085428  17.7754687  )
        49           N1  tau(  49) = (   6.5266086   2.9804045  17.4451690  )
        50           C1  tau(  50) = (   0.8252436   3.0135910  18.6253707  )
        51           H1  tau(  51) = (   0.7415300   3.9712607  19.1474969  )
        52           H1  tau(  52) = (   0.5789590   2.2014881  19.3161603  )
        53           H1  tau(  53) = (   1.8636945   2.8847911  18.3311598  )
        54           O1  tau(  54) = (   3.4430348   5.9447220  18.1074838  )
        55           H1  tau(  55) = (   4.3135669   5.8364121  18.5244127  )

     number of k points=    10  Fermi-Dirac smearing, width (Ry)=  0.0073
                       cart. coord. in units 2pi/alat
        k(    1) = (   0.0000000   0.0000000   0.0000000), wk =   0.1250000
        k(    2) = (   0.0000000   0.0419351   0.0000000), wk =   0.2500000
        k(    3) = (   0.0000000  -0.0838702   0.0000000), wk =   0.1250000
        k(    4) = (   0.0379955   0.0000049   0.0000000), wk =   0.2500000
        k(    5) = (   0.0379955   0.0419400   0.0000000), wk =   0.2500000
        k(    6) = (   0.0379955  -0.0838652   0.0000000), wk =   0.2500000
        k(    7) = (   0.0379955  -0.0419301   0.0000000), wk =   0.2500000
        k(    8) = (  -0.0759910  -0.0000099   0.0000000), wk =   0.1250000
        k(    9) = (  -0.0759910   0.0419252   0.0000000), wk =   0.2500000
        k(   10) = (  -0.0759910  -0.0838800   0.0000000), wk =   0.1250000

     Initial potential from superposition of free atoms

     starting charge  381.99915, renormalised to  398.00000

     negative rho (up, down):  1.687E-02 0.000E+00

     %%%%%%%%%%%%%%%%%%%%%%%%%%%%%%%%%%%%%%%%%%%%%%%%%%%%%%%%%%%%%%%%%%%%%%%%
     %                                                                      %
     % You are using vdW-DF, which was implemented by the Thonhauser group. %
     % Please cite the following two papers that made this development      %
     % possible and the two reviews that describe the various versions:     %
     %                                                                      %
     %   T. Thonhauser et al., PRL 115, 136402 (2015).                      %
     %   T. Thonhauser et al., PRB 76, 125112 (2007).                       %
     %   K. Berland et al., Rep. Prog. Phys. 78, 066501 (2015).             %
     %   D.C. Langreth et al., J. Phys.: Condens. Matter 21, 084203 (2009). %
     %                                                                      %
     %                                                                      %
     % If you are calculating the stress with vdW-DF, please also cite:     %
     %                                                                      %
     %   R. Sabatini et al., J. Phys.: Condens. Matter 24, 424209 (2012).   %
     %                                                                      %
     %%%%%%%%%%%%%%%%%%%%%%%%%%%%%%%%%%%%%%%%%%%%%%%%%%%%%%%%%%%%%%%%%%%%%%%%

     Adding external electric field

     Computed dipole along edir(3) :
        Dipole               -8.7629 Ry au,        -22.2732 Debye
        Dipole field         -0.0165 Ry au,

        Potential amp.        1.5329 Ry
        Total length         46.3494 bohr

     Starting wfcs are  301 atomic wfcs
  @ DRIVER MODE: Message from server: STATUS
  @ DRIVER MODE: Message from server: POSDATA
  @ DRIVER MODE: Reading and sharing cell
  @ DRIVER MODE: Reading and sharing positions
  @ DRIVER MODE: Received positions

     Self-consistent Calculation

     iteration #  1     ecut=    29.40 Ry     beta= 0.05
     Davidson diagonalization with overlap
     c_bands:  2 eigenvalues not converged
     c_bands:  1 eigenvalues not converged
     c_bands:  1 eigenvalues not converged
     c_bands:  2 eigenvalues not converged
     ethr =  1.00E-05,  avg # of iterations = 18.0

[...]

     total energy              =   -2565.28786187 Ry
     estimated scf accuracy    <    4294.34886008 Ry

     iteration #  2     ecut=    29.40 Ry     beta= 0.05
     Davidson diagonalization with overlap
     ethr =  1.00E-02,  avg # of iterations = 22.9

[...]

     iteration # 50     ecut=    29.40 Ry     beta= 0.05
     Davidson diagonalization with overlap
     c_bands:  1 eigenvalues not converged
     ethr =  2.75E-08,  avg # of iterations =  6.7

[...]

     total energy              =   -2954.01276054 Ry
     estimated scf accuracy    <       0.00000008 Ry

     iteration # 66     ecut=    29.40 Ry     beta= 0.05
     Davidson diagonalization with overlap
     ethr =  2.04E-11,  avg # of iterations =  4.5

     negative rho (up, down):  1.730E-02 0.000E+00

     Adding external electric field

     Computed dipole along edir(3) :
        Dipole                0.2169 Ry au,          0.5513 Debye
        Dipole field          0.0004 Ry au,

        Potential amp.       -0.0379 Ry
        Total length         46.3494 bohr

     End of self-consistent calculation

          k = 0.0000 0.0000 0.0000 ( 18029 PWs)   bands (ev):

   -56.9287 -56.8951 -56.0282 -55.9933 -55.7929 -55.7250 -55.6384 -55.4803
   -55.4464 -55.4070 -55.3950 -55.3290 -55.3234 -55.2782 -55.1327 -55.0554
   -33.3478 -33.2006 -33.1726 -33.1072 -33.0169 -32.9749 -32.5109 -32.2686
   -32.2489 -32.2229 -32.1705 -32.1655 -32.1399 -32.0286 -32.0087 -31.9617
   -31.9452 -31.9295 -31.9134 -31.8901 -31.8882 -31.8671 -31.8594 -31.8284
   -31.8274 -31.8029 -31.7588 -31.7177 -31.6846 -31.6772 -31.6187 -31.6077
   -31.6040 -31.5884 -31.5761 -31.5470 -31.5266 -31.5209 -31.5074 -31.5006
   -31.4924 -31.4416 -31.3983 -31.3748 -31.3363 -31.3109 -31.3045 -31.2380
   -17.0352 -16.4898 -16.4462 -16.2467 -16.1440 -16.1241 -16.0868 -16.0375
   -15.8377 -15.7882 -15.7502 -15.6842 -15.5871 -15.4304 -15.3335 -15.1603
   -15.1108 -15.0799 -15.0616 -15.0556 -15.0500 -15.0373 -14.9820 -14.9260
   -14.8857 -14.8026 -14.7488 -14.6377 -14.4115 -14.3814 -13.9777 -13.8707
   -13.7787  -8.4740  -4.6089  -4.1043  -3.9653  -3.9320  -3.7795  -3.6263
    -3.5019  -3.4485  -3.4240  -3.3145  -3.2976  -3.2880  -3.1984  -3.0692
    -2.9987  -2.9874  -2.9199  -2.9024  -2.8744  -2.8601  -2.6959  -2.6638
    -2.5696  -2.5179  -2.4958  -2.4150  -2.4059  -2.3462  -2.2958  -2.2841
    -2.2619  -2.2026  -2.1992  -2.1276  -2.1016  -2.0253  -1.9999  -1.9685
    -1.9445  -1.8739  -1.7979  -1.7634  -1.6086  -1.5718  -1.5395  -1.5040
    -1.4872  -1.4066  -1.3362  -1.2539  -1.2199  -1.1527  -1.1043  -1.0643
    -1.0518  -0.9365  -0.9117  -0.8549  -0.7909  -0.7744  -0.7677  -0.7220
    -0.6076  -0.5278  -0.5163  -0.4939  -0.4347  -0.4146  -0.3771  -0.3525
    -0.2764  -0.2595  -0.1509  -0.0787  -0.0476  -0.0226   0.0786   0.1573
     0.1789   0.2210   0.2645   0.3066   0.3355   0.3794   0.4475   0.4951
     0.5182   0.5412   0.5701   0.6661   0.7168   0.7534   0.8094   0.8250
     0.8892   0.9602   0.9872   1.0761   1.1204   1.4862   1.6387   2.3645
     2.5351   2.8112   2.9844   3.3001   3.3504   3.3661   3.3676   3.6536
     3.7774

[...]

          k = 0.0380-0.0419 0.0000 ( 17876 PWs)   bands (ev):

[...]

          k =-0.0760-0.0000 0.0000 ( 17886 PWs)   bands (ev):

[...]

          k =-0.0760-0.0839 0.0000 ( 17948 PWs)   bands (ev):

   -56.9125 -56.9111 -56.0154 -56.0059 -55.7884 -55.7294 -55.6376 -55.4639
   -55.4627 -55.4029 -55.3956 -55.3327 -55.3221 -55.2770 -55.1340 -55.0565
   -33.1871 -33.1857 -33.1657 -33.1644 -33.0612 -33.0601 -32.3350 -32.3269
   -32.2103 -32.2007 -32.1997 -32.1939 -32.0918 -32.0462 -32.0218 -32.0075
   -31.9564 -31.9556 -31.9101 -31.8779 -31.8665 -31.8164 -31.8155 -31.7738
   -31.7348 -31.7024 -31.6839 -31.6823 -31.6788 -31.6746 -31.6450 -31.6440
   -31.6336 -31.6293 -31.6085 -31.5974 -31.5746 -31.5659 -31.5348 -31.5244
   -31.5156 -31.4836 -31.4371 -31.3998 -31.3740 -31.3408 -31.3129 -31.2656
   -16.4330 -16.3959 -16.3939 -16.3468 -16.3451 -16.0904 -16.0857 -15.8399
   -15.8080 -15.6871 -15.5337 -15.5044 -15.4670 -15.4174 -15.3715 -15.3013
   -15.2828 -15.2426 -15.2091 -15.1534 -15.1277 -15.0495 -15.0153 -14.9564
   -14.9205 -14.8315 -14.7847 -14.7785 -14.5577 -14.5417 -13.9753 -13.9747
   -13.7953  -8.4791  -4.0718  -3.9808  -3.4689  -3.4638  -3.4429  -3.4336
    -3.2192  -3.2135  -3.0460  -3.0028  -2.9836  -2.9425  -2.9263  -2.8387
    -2.8203  -2.7918  -2.7501  -2.7449  -2.7365  -2.7185  -2.6712  -2.6627
    -2.6223  -2.4857  -2.4710  -2.4513  -2.3923  -2.3285  -2.2976  -2.2464
    -2.2188  -2.2052  -2.1784  -2.1706  -2.1656  -2.1360  -2.1087  -1.9521
    -1.9101  -1.8085  -1.7765  -1.7511  -1.7299  -1.6752  -1.6718  -1.6419
    -1.6189  -1.5870  -1.5265  -1.4931  -1.4516  -1.3272  -1.3056  -1.2637
    -1.2486  -1.1894  -1.0926  -1.0041  -0.9900  -0.9481  -0.9285  -0.8825
    -0.8682  -0.8392  -0.7603  -0.7027  -0.5959  -0.5655  -0.5534  -0.5308
    -0.5007  -0.4584  -0.4109  -0.3426  -0.3270  -0.2079  -0.1389  -0.0912
    -0.0269   0.0389   0.0791   0.1210   0.1713   0.2667   0.2865   0.3608
     0.3746   0.4949   0.6037   0.6208   0.7746   0.8068   0.8756   0.9163
     0.9211   0.9315   0.9493   0.9606   1.0133   1.0894   1.5880   2.9561
     2.9590   3.0162   3.0220   3.3319   3.3329   3.4428   3.4446   3.7599
     3.7698

     the Fermi energy is     2.0654 ev

!    total energy              =   -2954.01279262 Ry
     estimated scf accuracy    <       0.00000006 Ry
     smearing contrib. (-TS)   =      -0.00174160 Ry
     internal energy E=F+TS    =   -2954.01105102 Ry

     The total energy is F=E-TS. E is the sum of the following terms:
     one-electron contribution =  -24213.93341063 Ry
     hartree contribution      =   12197.05722297 Ry
     xc contribution           =    -488.74161201 Ry
     ewald contribution        =    9551.60665988 Ry
     electric field correction =       0.00008878 Ry

     convergence has been achieved in  66 iterations

     Forces acting on atoms (cartesian axes, Ry/au):

     atom    1 type  1   force =     0.00017704   -0.00052607    0.12566601
     atom    2 type  1   force =     0.00000910    0.00026599   -0.15443086
     atom    3 type  2   force =     0.00002150   -0.00022379   -0.06669156
     atom    4 type  2   force =    -0.00002098    0.00008352    0.01673478
     atom    5 type  2   force =    -0.00392119   -0.00229243   -0.01290345
     atom    6 type  2   force =     0.00531515   -0.00149649   -0.01431143
     atom    7 type  1   force =    -0.00049719   -0.00698260    0.05719915
     atom    8 type  1   force =     0.00071525    0.00722980    0.09828349
     atom    9 type  2   force =     0.00002678    0.00008253   -0.00005448
     atom   10 type  2   force =    -0.00290262    0.00059082   -0.06191063
     atom   11 type  2   force =    -0.00002889   -0.00005981   -0.00000383
     atom   12 type  2   force =    -0.00005833    0.00015737    0.00016716
     atom   13 type  1   force =     0.00010494    0.00015802   -0.00012091
     atom   14 type  1   force =     0.00001145   -0.00008136    0.00008843
     atom   15 type  2   force =    -0.00003171    0.00004138   -0.00001401
     atom   16 type  2   force =     0.00005631    0.00016688   -0.00019543
     atom   17 type  2   force =    -0.00010651    0.00007883    0.00015626
     atom   18 type  2   force =    -0.00000183    0.00027358   -0.00000830
     atom   19 type  1   force =    -0.00014850   -0.00000655    0.00001317
     atom   20 type  1   force =     0.00019156    0.00021013    0.00025015
     atom   21 type  2   force =     0.00007151    0.00021595    0.09776794
     atom   22 type  2   force =     0.00039345   -0.00000371    0.00002636
     atom   23 type  2   force =    -0.08272149    0.00009023   -0.03303141
     atom   24 type  2   force =     0.08267892    0.00050683   -0.03307997
     atom   25 type  1   force =     0.00009763   -0.00059587    0.12551846
     atom   26 type  1   force =     0.00000498   -0.00169881   -0.15484810
     atom   27 type  2   force =     0.00008846   -0.00076875   -0.06513033
     atom   28 type  2   force =     0.00004924    0.00188298    0.01158491
     atom   29 type  2   force =    -0.00252235    0.00468478   -0.01584801
     atom   30 type  2   force =     0.00369000    0.00502124   -0.01727519
     atom   31 type  1   force =    -0.00029189    0.00180712    0.04008870
     atom   32 type  1   force =     0.00091126   -0.01042120    0.09794636
     atom   33 type  2   force =    -0.00004585   -0.00001443    0.00014905
     atom   34 type  2   force =    -0.00230227    0.00078010   -0.07400502
     atom   35 type  2   force =     0.00010581    0.00002980    0.00003109
     atom   36 type  2   force =    -0.00008891   -0.00007334   -0.00002316
     atom   37 type  1   force =     0.00034802    0.00005976    0.00008381
     atom   38 type  1   force =     0.00012016   -0.00004667   -0.00030107
     atom   39 type  2   force =     0.00016019   -0.00010449   -0.00007803
     atom   40 type  2   force =     0.00001825    0.00004400   -0.00010427
     atom   41 type  2   force =    -0.00011557    0.00019570    0.00008146
     atom   42 type  2   force =    -0.00000488    0.00001957    0.00014084
     atom   43 type  1   force =     0.00020061   -0.00017298   -0.00013808
     atom   44 type  1   force =     0.00025413    0.00010799    0.00031677
     atom   45 type  2   force =     0.00004471    0.00004533    0.09755054
     atom   46 type  2   force =    -0.08278299    0.00004829   -0.03304808
     atom   47 type  2   force =     0.08270831    0.00048222   -0.03306546
     atom   48 type  3   force =     0.01400985   -0.00033159   -0.00385796
     atom   49 type  4   force =    -0.01300405    0.00049019    0.00386815
     atom   50 type  5   force =    -0.00099772   -0.00061411    0.00051441
     atom   51 type  3   force =    -0.00007910    0.00007249    0.00021954
     atom   52 type  3   force =    -0.00013177    0.00052458    0.00005379
     atom   53 type  3   force =     0.00019464    0.00027084   -0.00006090
     atom   54 type  2   force =     0.00039666   -0.00063580    0.00093960
     atom   55 type  3   force =    -0.00036928    0.00043201   -0.00090046

     Total force =     0.417631     Total SCF correction =     0.000884
  @ DRIVER MODE: Message from server: STATUS
  @ DRIVER MODE: Message from server: GETFORCE
  @ DRIVER MODE: Returning v,forces,stress,ensemble

     Writing output data file ./calc.save/
  @ DRIVER MODE: Message from server: EXIT
  @ DRIVE MODE: Exiting

     General routines

     Parallel routines

   This run was terminated on:  11:24:32  23Sep2021

   JOB DONE.