     Program PWSCF v.6.7GPU starts on 18Oct2021 at 17:32:33

     R & G space division:  proc/nbgrp/npool/nimage =       8
     Reading input from /storage/home/hcoda1/3/ntian30/research/carbon/CxH_vib/Thiel_calc/ads_slab/N2HH_perslab/out_0012/pw.inp
Warning: card &CELL ignored
Warning: card   CELL_DYNAMICS='IPI', ignored
Warning: card / ignored

     Current dimensions of program PWSCF are:
     Max number of different atomic species (ntypx) = 10
     Max number of k-points (npk) =  40000
     Max angular momentum in pseudopotentials (lmaxx) =  3
     Presently no symmetry can be used with electric field

     Message from routine cell_base_init:
     DEPRECATED: use true lattice parameter, not A to a.u. conversion factor

     IMPORTANT: XC functional enforced from input :
     Exchange-correlation= BEEF-VDW
                           (   1   4  43  14   2   0   0)
     Any further DFT definition will be discarded
     Please, verify this is what you really want

  @ DRIVER MODE: Connecting to
 qe_1139763_3255130.sched-torque.pace.gatech.eduyly4gan4_scratch
  using UNIX socket
  @ DRIVER MODE: Message from server: STATUS
  @ DRIVER MODE: Message from server: INIT
  @ DRIVER MODE: Receiving replica           0          -1
  @ DRIVER MODE: Receiving encoded integer          25
  @ DRIVER MODE:  SCF:  T  FORCE:  T  STRESS:  F  VC:  F  ENSEMBLE:  F
  @ DRIVER MODE:  SCF:  T  FORCE:  T  STRESS:  F  VC:  F  ENSEMBLE:  F

     Using Slab Decomposition

     bravais-lattice index     =            0
     lattice parameter (alat)  =       1.8897  a.u.
     unit-cell volume          =    9988.4706 (a.u.)^3
     number of atoms/cell      =           57
     number of atomic types    =            4
     number of electrons       =       438.00
     number of Kohn-Sham states=          229
     kinetic-energy cutoff     =      29.3995  Ry
     charge density cutoff     =     293.9946  Ry
     scf convergence threshold =      7.3E-08
     mixing beta               =       0.0500
     number of iterations used =            8  plain     mixing
     Exchange-correlation= BEEF-VDW
                           (   1   4  43  14   2   0   0)

     celldm(1)=   1.889726  celldm(2)=   0.000000  celldm(3)=   0.000000
     celldm(4)=   0.000000  celldm(5)=   0.000000  celldm(6)=   0.000000

     crystal axes: (cart. coord. in units of alat)
               a(1) = (   6.579727   0.000000   0.000000 )
               a(2) = (  -0.001163   8.942395   0.000000 )
               a(3) = (   0.000000   0.000000  25.155947 )

     reciprocal axes: (cart. coord. in units 2 pi/alat)
               b(1) = (  0.151982  0.000020  0.000000 )
               b(2) = (  0.000000  0.111827  0.000000 )
               b(3) = (  0.000000  0.000000  0.039752 )

     PseudoPot. # 1 for O  read from file:
     /storage/coda1/p-amedford6/0/shared/rich_project_chbe-medford/medford-share/data/pseudos_module/espresso/nninc/pbe/van/O.UPF
     MD5 check sum: 78c19812648e8988a0fe644b0f25305e
     Pseudo is Ultrasoft, Zval =  6.0
     Generated by new atomic code, or converted to UPF format
     Using radial grid of  737 points,  4 beta functions with:
                l(1) =   0
                l(2) =   0
                l(3) =   1
                l(4) =   1
     Q(r) pseudized with  8 coefficients,  rinner =    0.800   0.800   0.800

     PseudoPot. # 2 for Ti read from file:
     /storage/coda1/p-amedford6/0/shared/rich_project_chbe-medford/medford-share/data/pseudos_module/espresso/nninc/pbe/van/Ti.UPF
     MD5 check sum: 8e4df49b7f0d34bbd5052bf3f5ea0213
     Pseudo is Ultrasoft, Zval = 12.0
     Generated by new atomic code, or converted to UPF format
     Using radial grid of  851 points,  6 beta functions with:
                l(1) =   0
                l(2) =   0
                l(3) =   1
                l(4) =   1
                l(5) =   2
                l(6) =   2
     Q(r) pseudized with  8 coefficients,  rinner =    1.000   1.000   1.000
                                                       1.000   1.000

     PseudoPot. # 3 for H  read from file:
     /storage/coda1/p-amedford6/0/shared/rich_project_chbe-medford/medford-share/data/pseudos_module/espresso/nninc/pbe/van/H.UPF
     MD5 check sum: b5ee9d7bfd3a09ee7748110bda690ff7
     Pseudo is Ultrasoft, Zval =  1.0
     Generated by new atomic code, or converted to UPF format
     Using radial grid of  615 points,  1 beta functions with:
                l(1) =   0
     Q(r) pseudized with  8 coefficients,  rinner =    0.800

     PseudoPot. # 4 for N  read from file:
     /storage/coda1/p-amedford6/0/shared/rich_project_chbe-medford/medford-share/data/pseudos_module/espresso/nninc/pbe/van/N.UPF
     MD5 check sum: 90d10febe142ad51ac9d5be1deb811c4
     Pseudo is Ultrasoft, Zval =  5.0
     Generated by new atomic code, or converted to UPF format
     Using radial grid of  729 points,  4 beta functions with:
                l(1) =   0
                l(2) =   0
                l(3) =   1
                l(4) =   1
     Q(r) pseudized with  8 coefficients,  rinner =    0.800   0.800   0.800

     atomic species   valence    mass     pseudopotential
        O1             6.00    15.99900     O ( 1.00)
        Ti1           12.00    47.86700     Ti( 1.00)
        H1             1.00     1.00800     H ( 1.00)
        N1             5.00    14.00700     N ( 1.00)

     No symmetry found

   Cartesian axes

     site n.     atom                  positions (alat units)
         1           O1  tau(   1) = (   0.0007354   0.0005023  10.5931620  )
         2           O1  tau(   2) = (   3.3150156   8.9360210  13.9574341  )
         3           O1  tau(   3) = (   6.5771809   0.1322222  17.3752006  )
         4           O1  tau(   4) = (   0.0006271   0.0005054   7.9858123  )
         5           O1  tau(   5) = (   3.2854428   8.9395983  11.2048121  )
         6           O1  tau(   6) = (   6.5534721   0.0059909  14.6304568  )
         7           O1  tau(   7) = (   1.9868534   1.4903216   9.2879459  )
         8           O1  tau(   8) = (   5.2434221   1.6171961  12.5999149  )
         9           O1  tau(   9) = (   1.9662201   1.5518754  16.1237639  )
        10           Ti1 tau(  10) = (   0.0007404   1.4906270   9.2895810  )
        11           Ti1 tau(  11) = (   3.2893977   1.3594553  12.5356033  )
        12           Ti1 tau(  12) = (   0.0178951   1.3769434  15.7441411  )
        13           O1  tau(  13) = (   4.5942328   1.4918067   9.2879030  )
        14           O1  tau(  14) = (   1.3385959   1.6247007  12.6234478  )
        15           O1  tau(  15) = (   4.5909775   1.5586907  16.1788856  )
        16           Ti1 tau(  16) = (   3.2902859   2.9801868   9.2893338  )
        17           Ti1 tau(  17) = (   6.5767353   2.8476438  12.4354253  )
        18           Ti1 tau(  18) = (   3.2855622   3.0003959  15.7804328  )
        19           O1  tau(  19) = (   0.0003479   2.9813005  10.5931620  )
        20           O1  tau(  20) = (   3.3036998   2.9877085  13.9702655  )
        21           O1  tau(  21) = (   0.0002396   2.9813036   7.9858123  )
        22           O1  tau(  22) = (   3.2849372   2.9737507  11.2063419  )
        23           O1  tau(  23) = (   6.5394694   3.0167582  14.8135819  )
        24           O1  tau(  24) = (   1.9864658   4.4711199   9.2879459  )
        25           O1  tau(  25) = (   5.2427600   4.5794291  12.6037842  )
        26           O1  tau(  26) = (   1.9458942   4.4597853  16.1214517  )
        27           Ti1 tau(  27) = (   0.0003529   4.4714252   9.2895810  )
        28           Ti1 tau(  28) = (   3.2810590   4.3307370  12.5385870  )
        29           Ti1 tau(  29) = (   6.5544800   4.6619433  15.7291082  )
        30           O1  tau(  30) = (   4.5938453   4.4726049   9.2879030  )
        31           O1  tau(  31) = (   1.3254974   4.5864429  12.6215760  )
        32           O1  tau(  32) = (   4.5799584   4.4820416  16.1880388  )
        33           Ti1 tau(  33) = (   3.2898983   5.9609850   9.2893338  )
        34           Ti1 tau(  34) = (   6.5675573   5.8255355  12.4420054  )
        35           Ti1 tau(  35) = (   3.2444431   5.9917870  15.7690220  )
        36           O1  tau(  36) = (  -0.0000397   5.9620987  10.5931620  )
        37           O1  tau(  37) = (   3.2928066   5.9693490  13.9649938  )
        38           O1  tau(  38) = (   6.5603845   5.9023223  17.3786232  )
        39           O1  tau(  39) = (  -0.0001480   5.9621018   7.9858123  )
        40           O1  tau(  40) = (   3.2839194   5.9454927  11.2056182  )
        41           O1  tau(  41) = (   6.5420590   6.0665053  14.6296390  )
        42           O1  tau(  42) = (   1.9860782   7.4519181   9.2879459  )
        43           O1  tau(  43) = (   5.2396418   7.5574700  12.5673505  )
        44           O1  tau(  44) = (   1.9576089   7.5211923  16.0792554  )
        45           Ti1 tau(  45) = (  -0.0000347   7.4522234   9.2895810  )
        46           Ti1 tau(  46) = (   3.2826699   7.3152331  12.5262848  )
        47           Ti1 tau(  47) = (   0.0069763   7.4761561  16.0760502  )
        48           O1  tau(  48) = (   4.5934577   7.4534031   9.2879030  )
        49           O1  tau(  49) = (   1.3370172   7.5712087  12.5877691  )
        50           O1  tau(  50) = (   4.5576284   7.4668559  16.1934357  )
        51           Ti1 tau(  51) = (   3.2895107   8.9417832   9.2893338  )
        52           Ti1 tau(  52) = (   6.5702701   8.7900240  12.4479541  )
        53           Ti1 tau(  53) = (   3.3076380   0.0053799  15.7629688  )
        54           H1  tau(  54) = (   5.7681615   5.8474147  17.9327380  )
        55           H1  tau(  55) = (   5.8019348   0.2260023  17.9563436  )
        56           N1  tau(  56) = (   6.2964029   3.7918275  19.8857669  )
        57           N1  tau(  57) = (   6.3580303   2.9648886  19.1553858  )

     number of k points=    10  Fermi-Dirac smearing, width (Ry)=  0.0073
                       cart. coord. in units 2pi/alat
        k(    1) = (   0.0000000   0.0000000   0.0000000), wk =   0.1250000
        k(    2) = (   0.0000000   0.0279567   0.0000000), wk =   0.2500000
        k(    3) = (   0.0000000  -0.0559134   0.0000000), wk =   0.1250000
        k(    4) = (   0.0379955   0.0000049   0.0000000), wk =   0.2500000
        k(    5) = (   0.0379955   0.0279617   0.0000000), wk =   0.2500000
        k(    6) = (   0.0379955  -0.0559085   0.0000000), wk =   0.2500000
        k(    7) = (   0.0379955  -0.0279518   0.0000000), wk =   0.2500000
        k(    8) = (  -0.0759910  -0.0000099   0.0000000), wk =   0.1250000
        k(    9) = (  -0.0759910   0.0279468   0.0000000), wk =   0.2500000
        k(   10) = (  -0.0759910  -0.0559233   0.0000000), wk =   0.1250000

     Initial potential from superposition of free atoms

     starting charge  419.99912, renormalised to  438.00000

     negative rho (up, down):  3.690E-02 0.000E+00

     %%%%%%%%%%%%%%%%%%%%%%%%%%%%%%%%%%%%%%%%%%%%%%%%%%%%%%%%%%%%%%%%%%%%%%%%
     %                                                                      %
     % You are using vdW-DF, which was implemented by the Thonhauser group. %
     % Please cite the following two papers that made this development      %
     % possible and the two reviews that describe the various versions:     %
     %                                                                      %
     %   T. Thonhauser et al., PRL 115, 136402 (2015).                      %
     %   T. Thonhauser et al., PRB 76, 125112 (2007).                       %
     %   K. Berland et al., Rep. Prog. Phys. 78, 066501 (2015).             %
     %   D.C. Langreth et al., J. Phys.: Condens. Matter 21, 084203 (2009). %
     %                                                                      %
     %                                                                      %
     % If you are calculating the stress with vdW-DF, please also cite:     %
     %                                                                      %
     %   R. Sabatini et al., J. Phys.: Condens. Matter 24, 424209 (2012).   %
     %                                                                      %
     %%%%%%%%%%%%%%%%%%%%%%%%%%%%%%%%%%%%%%%%%%%%%%%%%%%%%%%%%%%%%%%%%%%%%%%%

     Adding external electric field

     Computed dipole along edir(3) :
        Dipole               -6.4278 Ry au,        -16.3380 Debye
        Dipole field         -0.0081 Ry au,

        Potential amp.        0.7496 Ry
        Total length         46.3494 bohr

     Starting wfcs are  330 atomic wfcs
  @ DRIVER MODE: Message from server: STATUS
  @ DRIVER MODE: Message from server: POSDATA
  @ DRIVER MODE: Reading and sharing cell
  @ DRIVER MODE: Reading and sharing positions
  @ DRIVER MODE: Received positions

     Self-consistent Calculation

     iteration #  1     ecut=    29.40 Ry     beta= 0.05
     Davidson diagonalization with overlap
     c_bands:  2 eigenvalues not converged
     c_bands:  2 eigenvalues not converged
     c_bands:  5 eigenvalues not converged
     c_bands:  2 eigenvalues not converged
     c_bands:  4 eigenvalues not converged
     c_bands:  5 eigenvalues not converged
     c_bands:  4 eigenvalues not converged
     c_bands:  3 eigenvalues not converged
     c_bands:  4 eigenvalues not converged
     c_bands:  4 eigenvalues not converged
     ethr =  1.00E-05,  avg # of iterations = 20.0

[...]

     total energy              =   -3266.83529592 Ry
     estimated scf accuracy    <     310.68394490 Ry

[...]

     iteration #  3     ecut=    29.40 Ry     beta= 0.05
     Davidson diagonalization with overlap
     ethr =  1.00E-02,  avg # of iterations = 13.5

[...]

     iteration # 48     ecut=    29.40 Ry     beta= 0.05
     Davidson diagonalization with overlap
     ethr =  5.46E-07,  avg # of iterations =  1.0

[...]

     total energy              =   -3290.82350330 Ry
     estimated scf accuracy    <       0.00000017 Ry

     iteration # 71     ecut=    29.40 Ry     beta= 0.05
     Davidson diagonalization with overlap
     c_bands:  2 eigenvalues not converged
     ethr =  2.57E-11,  avg # of iterations = 13.3

     negative rho (up, down):  3.510E-02 0.000E+00

     Adding external electric field

     Computed dipole along edir(3) :
        Dipole                1.4975 Ry au,          3.8063 Debye
        Dipole field          0.0019 Ry au,

        Potential amp.       -0.1746 Ry
        Total length         46.3494 bohr

     End of self-consistent calculation

          k = 0.0000 0.0000 0.0000 ( 26871 PWs)   bands (ev):

   -57.5937 -57.5686 -57.5671 -57.5036 -57.4813 -57.4636 -57.4383 -57.4363
   -57.4172 -57.4120 -57.3940 -57.3843 -57.3765 -57.3536 -57.3497 -56.7201
   -56.6963 -56.6903 -33.9858 -33.9839 -33.9672 -33.9618 -33.9429 -33.9292
   -33.9126 -33.9003 -33.8967 -33.8897 -33.8872 -33.8747 -33.8419 -33.8348
   -33.8171 -33.7917 -33.7630 -33.7391 -33.7342 -33.7322 -33.7189 -33.7149
   -33.7124 -33.7058 -33.6958 -33.6949 -33.6912 -33.6905 -33.6710 -33.6645
   -33.6379 -33.6345 -33.6301 -33.6262 -33.6200 -33.6129 -33.5981 -33.5954
   -33.5809 -33.5587 -33.5318 -33.5297 -33.5245 -33.4915 -33.4799 -33.0405
   -33.0324 -33.0262 -33.0109 -33.0058 -32.9503 -32.8889 -32.8821 -32.7494
   -23.7157 -19.5216 -19.3630 -18.4788 -18.1069 -17.9363 -17.9241 -17.9018
   -17.8678 -17.7236 -17.6978 -17.6538 -17.6244 -17.6078 -17.4588 -17.4389
   -17.4219 -17.4186 -17.3727 -17.3680 -17.3618 -17.3326 -17.3257 -17.3140
   -17.2906 -17.2622 -17.1627 -17.1437 -17.1384 -17.1053 -17.0670 -17.0652
   -16.7609 -15.1844 -15.1246 -15.1199  -8.9484  -7.2042  -7.0632  -6.8520
    -6.8386  -5.8003  -5.6748  -5.6101  -5.5574  -5.4254  -5.1276  -5.0899
    -5.0558  -5.0354  -5.0188  -4.9661  -4.9148  -4.9059  -4.8880  -4.8579
    -4.8516  -4.7873  -4.7703  -4.7556  -4.6654  -4.6299  -4.6231  -4.5876
    -4.5654  -4.5013  -4.4895  -4.4694  -4.4321  -4.4237  -4.3973  -4.3802
    -4.2648  -4.1546  -4.1349  -4.0902  -4.0715  -3.9631  -3.9477  -3.9118
    -3.8911  -3.8310  -3.7936  -3.7732  -3.7565  -3.6877  -3.6332  -3.6103
    -3.5728  -3.5185  -3.4681  -3.4457  -3.4242  -3.4077  -3.3482  -3.2917
    -3.2550  -3.1892  -3.1395  -3.0509  -3.0460  -2.9598  -2.9090  -2.7779
    -2.7412  -2.6806  -2.6628  -2.6153  -2.5920  -2.4474  -2.4352  -2.4192
    -2.4162  -2.3823  -2.3280  -2.3073  -2.3049  -2.2830  -2.2542  -2.2057
    -2.1880  -2.1216  -2.0789  -2.0567  -2.0419  -2.0081  -1.9454  -1.9187
    -1.8390  -1.7776  -1.7553  -1.6618  -1.5468  -1.5302  -1.5298  -1.4172
    -1.3934  -1.0198  -0.7933  -0.4958  -0.4304  -0.4283  -0.1436  -0.1383
     0.0001   1.3441   1.4174   1.5878   1.6116   1.6784   1.8179   1.8412
     1.9212   1.9600   1.9783   1.9919   1.9987

[...]

          k = 0.0380-0.0280 0.0000 ( 26873 PWs)   bands (ev):

[...]

          k =-0.0760-0.0000 0.0000 ( 26902 PWs)   bands (ev):

[...]

          k =-0.0760-0.0559 0.0000 ( 26868 PWs)   bands (ev):

   -57.5858 -57.5842 -57.5593 -57.5001 -57.4871 -57.4610 -57.4350 -57.4338
   -57.4230 -57.4154 -57.3918 -57.3826 -57.3703 -57.3665 -57.3434 -56.7142
   -56.7079 -56.6844 -34.0790 -34.0249 -33.9820 -33.9684 -33.9481 -33.9249
   -33.9088 -33.9052 -33.9023 -33.8837 -33.8597 -33.8159 -33.8084 -33.7940
   -33.7917 -33.7461 -33.7364 -33.7346 -33.7339 -33.7219 -33.7163 -33.7034
   -33.7024 -33.6818 -33.6732 -33.6704 -33.6673 -33.6669 -33.6635 -33.6603
   -33.6581 -33.6547 -33.6503 -33.6398 -33.6339 -33.6279 -33.6195 -33.5994
   -33.5769 -33.5732 -33.5703 -33.5592 -33.5571 -33.5093 -33.4911 -33.1280
   -33.0277 -33.0222 -32.9997 -32.9324 -32.9252 -32.8641 -32.8499 -32.8427
   -23.7157 -19.5059 -19.3677 -18.1307 -18.0974 -17.9772 -17.9150 -17.7952
   -17.7777 -17.6977 -17.6841 -17.6759 -17.6404 -17.6022 -17.5629 -17.5475
   -17.4700 -17.4404 -17.4144 -17.4029 -17.3933 -17.3865 -17.3789 -17.3651
   -17.2591 -17.2572 -17.2525 -17.2219 -17.1538 -17.1010 -17.0485 -17.0329
   -16.7931 -15.1819 -15.1765 -15.0610  -8.9483  -7.2438  -7.0374  -6.8527
    -6.8429  -5.6541  -5.3992  -5.3376  -5.3160  -5.2685  -5.1682  -5.1001
    -5.0562  -4.9992  -4.9397  -4.8881  -4.8551  -4.7918  -4.7781  -4.7656
    -4.7545  -4.7053  -4.6649  -4.6481  -4.6336  -4.6180  -4.6015  -4.5733
    -4.5628  -4.5311  -4.4630  -4.4232  -4.3360  -4.3279  -4.2979  -4.2609
    -4.2361  -4.2154  -4.1568  -4.1417  -4.1100  -4.0877  -3.9682  -3.8526
    -3.8383  -3.8033  -3.7972  -3.7662  -3.7279  -3.7214  -3.6184  -3.5440
    -3.4084  -3.3820  -3.3786  -3.3658  -3.3450  -3.2774  -3.2679  -3.2327
    -3.2002  -3.1855  -3.1643  -3.1098  -3.0804  -3.0039  -2.9719  -2.9130
    -2.8601  -2.8278  -2.7693  -2.7585  -2.7358  -2.7248  -2.7198  -2.7083
    -2.6886  -2.6416  -2.6323  -2.4834  -2.4490  -2.4418  -2.4300  -2.3198
    -2.3020  -2.2027  -2.1931  -2.1600  -2.1485  -2.0606  -2.0407  -1.9356
    -1.9153  -1.8567  -1.8099  -1.7606  -1.4485  -1.4372  -1.4086  -1.3757
    -1.2899  -1.2833  -1.0331  -0.6313  -0.3723  -0.3528  -0.3071  -0.1354
    -0.1335   1.4697   1.5369   1.5615   1.5791   1.6772   1.6899   1.7148
     1.7307   1.7676   1.7801   1.8858   1.9503

     the Fermi energy is     1.4888 ev

!    total energy              =   -3290.82351485 Ry
     estimated scf accuracy    <       0.00000005 Ry
     smearing contrib. (-TS)   =      -0.05465310 Ry
     internal energy E=F+TS    =   -3290.76886176 Ry

     The total energy is F=E-TS. E is the sum of the following terms:
     one-electron contribution =  -33575.13192577 Ry
     hartree contribution      =   16851.27910007 Ry
     xc contribution           =    -540.38796873 Ry
     ewald contribution        =   13973.46911130 Ry
     electric field correction =       0.00282138 Ry

     convergence has been achieved in  71 iterations

     Forces acting on atoms (cartesian axes, Ry/au):

     atom    1 type  1   force =     0.00049475    0.00768504    0.05388524
     atom    2 type  1   force =     0.00023168    0.00346476    0.00200978
     atom    3 type  1   force =    -0.01086807   -0.00059583    0.00508489
     atom    4 type  1   force =     0.00004237    0.00063171    0.10809151
     atom    5 type  1   force =     0.00011847   -0.00052216    0.01010017
     atom    6 type  1   force =    -0.00049563   -0.00866063   -0.00252366
     atom    7 type  1   force =     0.06410156    0.00022907   -0.02867815
     atom    8 type  1   force =     0.00331835   -0.02900859    0.00415620
     atom    9 type  1   force =     0.01268997   -0.00959699   -0.00137541
     atom   10 type  2   force =     0.00006260   -0.00637737   -0.19200074
     atom   11 type  2   force =    -0.00025060    0.01998064   -0.01152819
     atom   12 type  2   force =    -0.00153920    0.01544716    0.01073596
     atom   13 type  1   force =    -0.06423443   -0.00020335   -0.02809535
     atom   14 type  1   force =    -0.00397639   -0.02855328    0.00379118
     atom   15 type  1   force =    -0.01086698   -0.01180445    0.00071992
     atom   16 type  2   force =    -0.00026953   -0.00085201    0.07230110
     atom   17 type  2   force =     0.00033556    0.03631278    0.00478664
     atom   18 type  2   force =    -0.00018178    0.00080443   -0.00732474
     atom   19 type  1   force =     0.00077020    0.00327391    0.05940650
     atom   20 type  1   force =    -0.00031409    0.00182494   -0.00318031
     atom   21 type  1   force =     0.00006505    0.00073655    0.10922949
     atom   22 type  1   force =     0.00005516   -0.00031844    0.01012198
     atom   23 type  1   force =    -0.00002973    0.00081445    0.00144899
     atom   24 type  1   force =     0.06377139   -0.00058237   -0.02863995
     atom   25 type  1   force =     0.00304304   -0.02881928    0.00381110
     atom   26 type  1   force =     0.01003457    0.01237628    0.00069942
     atom   27 type  2   force =     0.00003537    0.00225209   -0.19417142
     atom   28 type  2   force =     0.00014012    0.01851621   -0.01070005
     atom   29 type  2   force =     0.00009017   -0.01691392    0.00906603
     atom   30 type  1   force =    -0.06393168   -0.00100899   -0.02801661
     atom   31 type  1   force =    -0.00266795   -0.02913848    0.00378497
     atom   32 type  1   force =    -0.01243529    0.00751543   -0.00163508
     atom   33 type  2   force =    -0.00026161   -0.00104861    0.07250669
     atom   34 type  2   force =    -0.00011008    0.03449835    0.00420902
     atom   35 type  2   force =     0.00292294   -0.01379740   -0.00299740
     atom   36 type  1   force =     0.00026475    0.00299726    0.05372781
     atom   37 type  1   force =    -0.00022598    0.00130113    0.00204097
     atom   38 type  1   force =    -0.00059657    0.00094816   -0.00073043
     atom   39 type  1   force =     0.00007410   -0.00111047    0.10847019
     atom   40 type  1   force =     0.00000435   -0.00028194    0.00995253
     atom   41 type  1   force =     0.00095598    0.00809630   -0.00139813
     atom   42 type  1   force =     0.06451915   -0.00059558   -0.02829950
     atom   43 type  1   force =     0.00208575   -0.02819782    0.00292175
     atom   44 type  1   force =     0.01360702   -0.00754743    0.00862647
     atom   45 type  2   force =     0.00016127    0.00153884   -0.18904507
     atom   46 type  2   force =    -0.00007032    0.01915256   -0.01211738
     atom   47 type  2   force =     0.00022302    0.00408858   -0.00932525
     atom   48 type  1   force =    -0.06468588   -0.00108724   -0.02774241
     atom   49 type  1   force =    -0.00260625   -0.02847402    0.00286257
     atom   50 type  1   force =    -0.01380406    0.00192265    0.00415535
     atom   51 type  2   force =    -0.00025813   -0.00040262    0.07291127
     atom   52 type  2   force =     0.00057948    0.03495660    0.00446698
     atom   53 type  2   force =    -0.00207232    0.01512600   -0.00244887
     atom   54 type  3   force =     0.00182755    0.00025274   -0.00119798
     atom   55 type  3   force =     0.01000108   -0.00116749   -0.00771420
     atom   56 type  4   force =     0.00018422   -0.00263244   -0.00045590
     atom   57 type  4   force =    -0.00005852    0.00255459    0.00125949

     Total force =     0.463132     Total SCF correction =     0.000681
  @ DRIVER MODE: Message from server: STATUS
  @ DRIVER MODE: Message from server: GETFORCE
  @ DRIVER MODE: Returning v,forces,stress,ensemble

     Writing output data file ./calc.save/
  @ DRIVER MODE: Message from server: EXIT
  @ DRIVE MODE: Exiting

     General routines

     Parallel routines

   This run was terminated on:  18: 8:11  18Oct2021

   JOB DONE.