     Program PWSCF v.6.7GPU starts on 23Sep2021 at  2:30: 5

     R & G space division:  proc/nbgrp/npool/nimage =       8
     Reading input from /storage/home/hcoda1/3/ntian30/research/carbon/CxH_vib/H2O_calc/ads_slab/CH3HO_a/out_0013/pw.inp
Warning: card &CELL ignored
Warning: card   CELL_DYNAMICS='IPI', ignored
Warning: card / ignored

     Current dimensions of program PWSCF are:
     Max number of different atomic species (ntypx) = 10
     Max number of k-points (npk) =  40000
     Max angular momentum in pseudopotentials (lmaxx) =  3
     Presently no symmetry can be used with electric field

     Message from routine cell_base_init:
     DEPRECATED: use true lattice parameter, not A to a.u. conversion factor

     IMPORTANT: XC functional enforced from input :
     Exchange-correlation= BEEF-VDW
                           (   1   4  43  14   2   0   0)
     Any further DFT definition will be discarded
     Please, verify this is what you really want

  @ DRIVER MODE: Connecting to
 qe_1139763_2941010.sched-torque.pace.gatech.edu6wvnn092_scratch
  using UNIX socket
  @ DRIVER MODE: Message from server: STATUS
  @ DRIVER MODE: Message from server: INIT
  @ DRIVER MODE: Receiving replica           0          -1
  @ DRIVER MODE: Receiving encoded integer          25
  @ DRIVER MODE:  SCF:  T  FORCE:  T  STRESS:  F  VC:  F  ENSEMBLE:  F
  @ DRIVER MODE:  SCF:  T  FORCE:  T  STRESS:  F  VC:  F  ENSEMBLE:  F

     Using Slab Decomposition

     bravais-lattice index     =            0
     lattice parameter (alat)  =       1.8897  a.u.
     unit-cell volume          =    6658.9804 (a.u.)^3
     number of atoms/cell      =           53
     number of atomic types    =            4
     number of electrons       =       392.00
     number of Kohn-Sham states=          206
     kinetic-energy cutoff     =      29.3995  Ry
     charge density cutoff     =     293.9946  Ry
     scf convergence threshold =      7.3E-08
     mixing beta               =       0.0500
     number of iterations used =            8  plain     mixing
     Exchange-correlation= BEEF-VDW
                           (   1   4  43  14   2   0   0)

     celldm(1)=   1.889726  celldm(2)=   0.000000  celldm(3)=   0.000000
     celldm(4)=   0.000000  celldm(5)=   0.000000  celldm(6)=   0.000000

     crystal axes: (cart. coord. in units of alat)
               a(1) = (   6.579727   0.000000   0.000000 )
               a(2) = (  -0.000775   5.961596   0.000000 )
               a(3) = (   0.000000   0.000000  25.155947 )

     reciprocal axes: (cart. coord. in units 2 pi/alat)
               b(1) = (  0.151982  0.000020  0.000000 )
               b(2) = (  0.000000  0.167740  0.000000 )
               b(3) = (  0.000000  0.000000  0.039752 )

     PseudoPot. # 1 for Ti read from file:
     /storage/coda1/p-amedford6/0/shared/rich_project_chbe-medford/medford-share/data/pseudos_module/espresso/nninc/pbe/van/Ti.UPF
     MD5 check sum: 8e4df49b7f0d34bbd5052bf3f5ea0213
     Pseudo is Ultrasoft, Zval = 12.0
     Generated by new atomic code, or converted to UPF format
     Using radial grid of  851 points,  6 beta functions with:
                l(1) =   0
                l(2) =   0
                l(3) =   1
                l(4) =   1
                l(5) =   2
                l(6) =   2
     Q(r) pseudized with  8 coefficients,  rinner =    1.000   1.000   1.000
                                                       1.000   1.000

     PseudoPot. # 2 for O  read from file:
     /storage/coda1/p-amedford6/0/shared/rich_project_chbe-medford/medford-share/data/pseudos_module/espresso/nninc/pbe/van/O.UPF
     MD5 check sum: 78c19812648e8988a0fe644b0f25305e
     Pseudo is Ultrasoft, Zval =  6.0
     Generated by new atomic code, or converted to UPF format
     Using radial grid of  737 points,  4 beta functions with:
                l(1) =   0
                l(2) =   0
                l(3) =   1
                l(4) =   1
     Q(r) pseudized with  8 coefficients,  rinner =    0.800   0.800   0.800

     PseudoPot. # 3 for C  read from file:
     /storage/coda1/p-amedford6/0/shared/rich_project_chbe-medford/medford-share/data/pseudos_module/espresso/nninc/pbe/van/C.UPF
     MD5 check sum: 1a69bf6b8db32088f5b2163dbdb77a27
     Pseudo is Ultrasoft, Zval =  4.0
     Generated by new atomic code, or converted to UPF format
     Using radial grid of  721 points,  4 beta functions with:
                l(1) =   0
                l(2) =   0
                l(3) =   1
                l(4) =   1
     Q(r) pseudized with  8 coefficients,  rinner =    0.800   0.800   0.800

     PseudoPot. # 4 for H  read from file:
     /storage/coda1/p-amedford6/0/shared/rich_project_chbe-medford/medford-share/data/pseudos_module/espresso/nninc/pbe/van/H.UPF
     MD5 check sum: b5ee9d7bfd3a09ee7748110bda690ff7
     Pseudo is Ultrasoft, Zval =  1.0
     Generated by new atomic code, or converted to UPF format
     Using radial grid of  615 points,  1 beta functions with:
                l(1) =   0
     Q(r) pseudized with  8 coefficients,  rinner =    0.800

     atomic species   valence    mass     pseudopotential
        Ti1           12.00    47.86700     Ti( 1.00)
        O1             6.00    15.99900     O ( 1.00)
        C1             4.00    12.01100     C ( 1.00)
        H1             1.00     1.00800     H ( 1.00)

     No symmetry found

   Cartesian axes

     site n.     atom                  positions (alat units)
         1           Ti1 tau(   1) = (   0.0004258   2.9801865   6.0000000  )
         2           Ti1 tau(   2) = (   3.2906075   1.4906267   6.0002472  )
         3           O1  tau(   3) = (   0.0006271   0.0005054   7.9858123  )
         4           O1  tau(   4) = (   3.2906025   0.0005020   7.3038282  )
         5           O1  tau(   5) = (   4.5942328   1.4918067   9.2879030  )
         6           O1  tau(   6) = (   1.9868534   1.4903216   9.2879459  )
         7           Ti1 tau(   7) = (   3.2776386   2.8603028   9.2190116  )
         8           Ti1 tau(   8) = (   6.5598479   1.4304724   9.3580194  )
         9           O1  tau(   9) = (   3.2889234   5.9509398  11.3217173  )
        10           O1  tau(  10) = (   6.5764018   5.9495644  10.5876710  )
        11           O1  tau(  11) = (   1.2812264   1.4943635  12.6442538  )
        12           O1  tau(  12) = (   5.3065913   1.4950901  12.6410841  )
        13           Ti1 tau(  13) = (   0.0201148   2.8652118  12.8170930  )
        14           Ti1 tau(  14) = (   3.2957237   1.3106547  12.6889287  )
        15           O1  tau(  15) = (   6.5548780   5.9443598  14.6367865  )
        16           O1  tau(  16) = (   3.2877845   0.0417723  13.9217912  )
        17           O1  tau(  17) = (   4.5532326   1.5761655  16.0783859  )
        18           O1  tau(  18) = (   2.0366504   1.5601698  16.0762102  )
        19           Ti1 tau(  19) = (   3.2678531   3.0297845  15.6708759  )
        20           Ti1 tau(  20) = (   6.4629285   1.5188837  16.1410570  )
        21           O1  tau(  21) = (   3.2904802   0.0005063   4.7018136  )
        22           O1  tau(  22) = (   6.5629482   0.0231895  17.1619738  )
        23           O1  tau(  23) = (   1.3043587   1.4918075   6.0039043  )
        24           O1  tau(  24) = (   5.2767064   1.4903225   6.0039473  )
        25           Ti1 tau(  25) = (   0.0000382   5.9609847   6.0000000  )
        26           Ti1 tau(  26) = (   3.2902200   4.4714249   6.0002472  )
        27           O1  tau(  27) = (   0.0002396   2.9813036   7.9858123  )
        28           O1  tau(  28) = (   3.2902150   2.9813002   7.3038282  )
        29           O1  tau(  29) = (   4.5938453   4.4726049   9.2879030  )
        30           O1  tau(  30) = (   1.9864658   4.4711199   9.2879459  )
        31           Ti1 tau(  31) = (   3.2699525   5.8470351   9.1790592  )
        32           Ti1 tau(  32) = (   6.5580068   4.3764721   9.3475679  )
        33           O1  tau(  33) = (   3.2877686   3.0124297  11.2895287  )
        34           O1  tau(  34) = (   0.0005883   2.9642609  10.5504472  )
        35           O1  tau(  35) = (   1.2748618   4.4645017  12.6259732  )
        36           O1  tau(  36) = (   5.2954498   4.4639995  12.6225180  )
        37           Ti1 tau(  37) = (   6.5558271   5.8472513  12.6028672  )
        38           Ti1 tau(  38) = (   3.2807834   4.4064534  12.4217905  )
        39           O1  tau(  39) = (   6.5786029   2.9813041  14.7145626  )
        40           O1  tau(  40) = (   3.2869290   2.9992676  13.8921391  )
        41           O1  tau(  41) = (   4.5413935   4.4541386  16.0960746  )
        42           O1  tau(  42) = (   2.0104822   4.4576224  16.0708021  )
        43           Ti1 tau(  43) = (   3.1667734   0.0431258  16.3165854  )
        44           Ti1 tau(  44) = (   6.5007865   4.6242813  15.9014112  )
        45           O1  tau(  45) = (   3.2900926   2.9813045   4.7018136  )
        46           O1  tau(  46) = (   1.3039711   4.4726057   6.0039043  )
        47           O1  tau(  47) = (   5.2763189   4.4711207   6.0039473  )
        48           C1  tau(  48) = (   0.0287742   2.9159372  17.8309569  )
        49           H1  tau(  49) = (   0.0209232   3.9694834  18.1111783  )
        50           H1  tau(  50) = (   0.9359818   2.5003430  18.2552837  )
        51           H1  tau(  51) = (   5.7514102   2.4667126  18.3442606  )
        52           O1  tau(  52) = (   3.2249103   0.0683284  18.1361362  )
        53           H1  tau(  53) = (   3.4857875   5.2839856  18.6954204  )

     number of k points=    10  Fermi-Dirac smearing, width (Ry)=  0.0073
                       cart. coord. in units 2pi/alat
        k(    1) = (   0.0000000   0.0000000   0.0000000), wk =   0.1250000
        k(    2) = (   0.0000000   0.0419351   0.0000000), wk =   0.2500000
        k(    3) = (   0.0000000  -0.0838702   0.0000000), wk =   0.1250000
        k(    4) = (   0.0379955   0.0000049   0.0000000), wk =   0.2500000
        k(    5) = (   0.0379955   0.0419400   0.0000000), wk =   0.2500000
        k(    6) = (   0.0379955  -0.0838652   0.0000000), wk =   0.2500000
        k(    7) = (   0.0379955  -0.0419301   0.0000000), wk =   0.2500000
        k(    8) = (  -0.0759910  -0.0000099   0.0000000), wk =   0.1250000
        k(    9) = (  -0.0759910   0.0419252   0.0000000), wk =   0.2500000
        k(   10) = (  -0.0759910  -0.0838800   0.0000000), wk =   0.1250000

     Initial potential from superposition of free atoms

     starting charge  375.99917, renormalised to  392.00000

     negative rho (up, down):  1.891E-02 0.000E+00

     %%%%%%%%%%%%%%%%%%%%%%%%%%%%%%%%%%%%%%%%%%%%%%%%%%%%%%%%%%%%%%%%%%%%%%%%
     %                                                                      %
     % You are using vdW-DF, which was implemented by the Thonhauser group. %
     % Please cite the following two papers that made this development      %
     % possible and the two reviews that describe the various versions:     %
     %                                                                      %
     %   T. Thonhauser et al., PRL 115, 136402 (2015).                      %
     %   T. Thonhauser et al., PRB 76, 125112 (2007).                       %
     %   K. Berland et al., Rep. Prog. Phys. 78, 066501 (2015).             %
     %   D.C. Langreth et al., J. Phys.: Condens. Matter 21, 084203 (2009). %
     %                                                                      %
     %                                                                      %
     % If you are calculating the stress with vdW-DF, please also cite:     %
     %                                                                      %
     %   R. Sabatini et al., J. Phys.: Condens. Matter 24, 424209 (2012).   %
     %                                                                      %
     %%%%%%%%%%%%%%%%%%%%%%%%%%%%%%%%%%%%%%%%%%%%%%%%%%%%%%%%%%%%%%%%%%%%%%%%

     Adding external electric field

     Computed dipole along edir(3) :
        Dipole               -5.0034 Ry au,        -12.7174 Debye
        Dipole field         -0.0094 Ry au,

        Potential amp.        0.8753 Ry
        Total length         46.3494 bohr

     Starting wfcs are  296 atomic wfcs
  @ DRIVER MODE: Message from server: STATUS
  @ DRIVER MODE: Message from server: POSDATA
  @ DRIVER MODE: Reading and sharing cell
  @ DRIVER MODE: Reading and sharing positions
  @ DRIVER MODE: Received positions

     Self-consistent Calculation

     iteration #  1     ecut=    29.40 Ry     beta= 0.05
     Davidson diagonalization with overlap
     c_bands:  5 eigenvalues not converged
     c_bands:  4 eigenvalues not converged
     c_bands:  5 eigenvalues not converged
     c_bands:  3 eigenvalues not converged
     c_bands:  2 eigenvalues not converged
     c_bands:  2 eigenvalues not converged
     c_bands:  4 eigenvalues not converged
     c_bands:  2 eigenvalues not converged
     c_bands:  3 eigenvalues not converged
     ethr =  1.00E-05,  avg # of iterations = 19.7

[...]

     total energy              =   -2842.50024311 Ry
     estimated scf accuracy    <     996.81789491 Ry

     iteration #  2     ecut=    29.40 Ry     beta= 0.05
     Davidson diagonalization with overlap
     ethr =  1.00E-02,  avg # of iterations = 16.1

[...]

     iteration # 32     ecut=    29.40 Ry     beta= 0.05
     Davidson diagonalization with overlap
     c_bands:  2 eigenvalues not converged
     c_bands:  1 eigenvalues not converged
     ethr =  6.10E-07,  avg # of iterations =  8.9

[...]

     total energy              =   -2932.63105329 Ry
     estimated scf accuracy    <       0.00000018 Ry

     iteration # 61     ecut=    29.40 Ry     beta= 0.05
     Davidson diagonalization with overlap
     ethr =  2.53E-11,  avg # of iterations =  5.0

     negative rho (up, down):  1.833E-02 0.000E+00

     Adding external electric field

     Computed dipole along edir(3) :
        Dipole                0.4030 Ry au,          1.0243 Debye
        Dipole field          0.0008 Ry au,

        Potential amp.       -0.0705 Ry
        Total length         46.3494 bohr

     End of self-consistent calculation

          k = 0.0000 0.0000 0.0000 ( 18029 PWs)   bands (ev):

   -56.6132 -56.5630 -56.0781 -56.0398 -56.0046 -55.9339 -55.9081 -55.8945
   -55.8542 -55.8479 -55.8054 -55.7825 -55.7269 -55.6355 -55.2246 -55.1907
   -33.0249 -32.8783 -32.8239 -32.7919 -32.6962 -32.6510 -32.5034 -32.4884
   -32.4503 -32.3436 -32.3247 -32.3188 -32.3126 -32.3053 -32.2863 -32.2688
   -32.2454 -32.2245 -32.2185 -32.1430 -32.1399 -32.1380 -32.1252 -32.1138
   -32.1082 -32.1033 -32.0925 -32.0899 -32.0849 -32.0537 -32.0401 -32.0396
   -32.0096 -31.9995 -31.9954 -31.9833 -31.9676 -31.9513 -31.8921 -31.8590
   -31.8454 -31.8382 -31.6192 -31.5648 -31.5404 -31.4360 -31.3511 -31.2402
   -16.9221 -16.7695 -16.6313 -16.4086 -16.2684 -16.1579 -15.9403 -15.9290
   -15.8072 -15.8036 -15.7615 -15.6362 -15.6218 -15.5854 -15.5738 -15.5494
   -15.5363 -15.5258 -15.5213 -15.4973 -15.4616 -15.4388 -15.3955 -15.3242
   -15.2588 -15.2416 -15.2031 -15.1396 -15.1073 -14.8726 -13.7263 -13.6176
    -9.3951  -4.6675  -4.2956  -4.0802  -3.9659  -3.9240  -3.7863  -3.6404
    -3.4647  -3.3712  -3.2409  -3.2343  -3.1639  -3.1220  -3.1109  -3.1073
    -3.0215  -2.9742  -2.9468  -2.9181  -2.9045  -2.8516  -2.8175  -2.7753
    -2.7546  -2.7525  -2.7089  -2.6816  -2.5360  -2.5056  -2.4888  -2.4814
    -2.4423  -2.4238  -2.3889  -2.3722  -2.2925  -2.2097  -2.1912  -2.1296
    -2.0647  -2.0190  -1.8274  -1.8152  -1.7160  -1.6390  -1.6157  -1.5693
    -1.5297  -1.4886  -1.4217  -1.3961  -1.3081  -1.2537  -1.2003  -1.1894
    -1.1561  -1.1220  -1.0799  -0.9753  -0.9263  -0.9206  -0.8106  -0.7578
    -0.6925  -0.6877  -0.6323  -0.5996  -0.4963  -0.4780  -0.4451  -0.4095
    -0.3775  -0.3546  -0.2964  -0.2759  -0.2468  -0.1855  -0.1462  -0.1264
    -0.0972  -0.0823  -0.0183   0.0383   0.0575   0.1640   0.1827   0.2185
     0.2896   0.3795   0.4330   0.5205   0.6934   0.7928   0.8267   0.9364
     1.0069   1.0534   1.3443   1.3902   2.6884   2.8504   3.1297   3.2820
     3.3046   3.3599   3.4070   3.4627   3.6219   3.6621

[...]

          k = 0.0380-0.0419 0.0000 ( 17876 PWs)   bands (ev):

[...]

          k =-0.0760-0.0000 0.0000 ( 17886 PWs)   bands (ev):

[...]

          k =-0.0760-0.0839 0.0000 ( 17948 PWs)   bands (ev):

   -56.6067 -56.5694 -56.0770 -56.0375 -55.9999 -55.9383 -55.9102 -55.8953
   -55.8522 -55.8395 -55.8138 -55.7806 -55.7288 -55.6373 -55.2079 -55.2073
   -32.8741 -32.8574 -32.8279 -32.8254 -32.7585 -32.7267 -32.3828 -32.3576
   -32.3439 -32.3230 -32.2925 -32.2901 -32.2673 -32.2633 -32.2502 -32.2431
   -32.2196 -32.2171 -32.2074 -32.1884 -32.1837 -32.1657 -32.1605 -32.1370
   -32.1337 -32.1333 -32.1197 -32.1038 -32.0997 -32.0704 -32.0619 -32.0499
   -32.0475 -32.0407 -32.0070 -32.0043 -31.9906 -31.9873 -31.9688 -31.8932
   -31.8816 -31.8488 -31.5537 -31.5533 -31.4348 -31.4330 -31.3933 -31.3923
   -16.9075 -16.1666 -16.0827 -16.0764 -16.0656 -16.0357 -15.9906 -15.9215
   -15.9186 -15.8257 -15.7935 -15.7581 -15.7240 -15.7081 -15.6547 -15.6498
   -15.6329 -15.5687 -15.5261 -15.4995 -15.4815 -15.4771 -15.4490 -15.4294
   -15.4177 -15.3986 -15.3330 -15.2997 -15.2227 -15.0128 -13.7219 -13.7207
    -9.4096  -4.6750  -3.3949  -3.3249  -3.2537  -3.2346  -3.1564  -3.1124
    -3.0978  -3.0751  -3.0501  -3.0178  -2.9886  -2.9764  -2.9277  -2.9158
    -2.9087  -2.9062  -2.8975  -2.8844  -2.8590  -2.8057  -2.7957  -2.7894
    -2.7686  -2.7623  -2.7464  -2.7256  -2.6806  -2.6650  -2.6220  -2.4598
    -2.4298  -2.4223  -2.3751  -2.3516  -2.3013  -2.2725  -2.1970  -2.1826
    -2.1745  -2.1446  -2.0274  -1.9115  -1.7803  -1.7710  -1.7349  -1.6645
    -1.6292  -1.5656  -1.5366  -1.5140  -1.4878  -1.4453  -1.4254  -1.3383
    -1.3300  -1.2873  -1.2730  -1.2572  -1.1747  -1.1133  -1.0850  -1.0626
    -1.0233  -0.9879  -0.9284  -0.8819  -0.8693  -0.8398  -0.8215  -0.7040
    -0.6702  -0.6401  -0.4920  -0.4572  -0.4504  -0.4037  -0.2505  -0.2075
    -0.1573  -0.1130  -0.0841   0.0465   0.0911   0.1379   0.1452   0.1999
     0.3187   0.3418   0.3863   0.4528   0.4762   0.4867   0.5268   1.0268
     1.1857   1.1885   1.1968   1.2021   3.2298   3.2541   3.2667   3.2977
     3.4700   3.5397   3.5760   3.6043   3.6502   3.7116

     the Fermi energy is     2.0974 ev

!    total energy              =   -2932.63109868 Ry
     estimated scf accuracy    <       0.00000006 Ry
     smearing contrib. (-TS)   =      -0.00015675 Ry
     internal energy E=F+TS    =   -2932.63094193 Ry

     The total energy is F=E-TS. E is the sum of the following terms:
     one-electron contribution =  -24308.15729096 Ry
     hartree contribution      =   12238.26048394 Ry
     xc contribution           =    -482.65735581 Ry
     ewald contribution        =    9619.92291444 Ry
     electric field correction =       0.00030646 Ry

     convergence has been achieved in  61 iterations

     Forces acting on atoms (cartesian axes, Ry/au):

     atom    1 type  1   force =     0.00035312   -0.00030292    0.13236240
     atom    2 type  1   force =     0.00005455    0.00687720   -0.15778061
     atom    3 type  2   force =     0.00014652    0.00441285   -0.05305620
     atom    4 type  2   force =    -0.00038315   -0.00087161    0.04047864
     atom    5 type  2   force =    -0.00906794   -0.00264666    0.00214250
     atom    6 type  2   force =     0.00917303   -0.00496058    0.00181317
     atom    7 type  1   force =     0.00068980    0.00107374    0.00043416
     atom    8 type  1   force =    -0.00079139   -0.00013860   -0.00014736
     atom    9 type  2   force =     0.00000640   -0.00017368    0.00052071
     atom   10 type  2   force =     0.00004994   -0.00007017   -0.00011371
     atom   11 type  2   force =    -0.00057629    0.00020913   -0.00039096
     atom   12 type  2   force =    -0.00052541   -0.00055013   -0.00059791
     atom   13 type  1   force =     0.00095987   -0.00084971   -0.00004151
     atom   14 type  1   force =    -0.00105649   -0.00093202    0.00006858
     atom   15 type  2   force =     0.00003972    0.00013632   -0.00079920
     atom   16 type  2   force =     0.00009154    0.00003453   -0.00040663
     atom   17 type  2   force =     0.00001321   -0.00013180    0.00007742
     atom   18 type  2   force =    -0.00019975   -0.00001692    0.00031985
     atom   19 type  1   force =     0.00012133   -0.00013329   -0.00085414
     atom   20 type  1   force =    -0.00027701   -0.00034815   -0.00015558
     atom   21 type  2   force =     0.00016189    0.00008686    0.09927690
     atom   22 type  2   force =     0.00017401    0.00022096   -0.00000975
     atom   23 type  2   force =    -0.08041379    0.00141440   -0.03415845
     atom   24 type  2   force =     0.08050149    0.00191513   -0.03420116
     atom   25 type  1   force =     0.00021157   -0.00005062    0.14216234
     atom   26 type  1   force =     0.00010443   -0.00847901   -0.15825175
     atom   27 type  2   force =    -0.00011062   -0.00043241   -0.05127792
     atom   28 type  2   force =    -0.00024887   -0.00030745    0.04227031
     atom   29 type  2   force =    -0.00856271    0.00487304    0.00031112
     atom   30 type  2   force =     0.00771313    0.00352222    0.00001412
     atom   31 type  1   force =     0.00054088   -0.00129117    0.00085647
     atom   32 type  1   force =    -0.00091292    0.00037158   -0.00079001
     atom   33 type  2   force =     0.00001957   -0.00027807   -0.00015729
     atom   34 type  2   force =     0.00000328   -0.00099935    0.00035288
     atom   35 type  2   force =    -0.00038115    0.00005017   -0.00020579
     atom   36 type  2   force =     0.00020454   -0.00021832   -0.00022710
     atom   37 type  1   force =     0.00101616    0.00078320    0.00042716
     atom   38 type  1   force =    -0.00047980    0.00000643    0.00018049
     atom   39 type  2   force =    -0.00026483   -0.00025341   -0.00014636
     atom   40 type  2   force =     0.00024657   -0.00028523   -0.00003305
     atom   41 type  2   force =     0.00012492   -0.00011812   -0.00007219
     atom   42 type  2   force =     0.00003344    0.00029112    0.00000268
     atom   43 type  1   force =     0.00001753    0.00037237   -0.00074048
     atom   44 type  1   force =     0.00026926    0.00014536    0.00004614
     atom   45 type  2   force =     0.00015788    0.00004449    0.09877510
     atom   46 type  2   force =    -0.08045027   -0.00101082   -0.03416626
     atom   47 type  2   force =     0.08054270   -0.00052877   -0.03420055
     atom   48 type  3   force =    -0.00874320    0.00322584   -0.00336879
     atom   49 type  4   force =    -0.00008872    0.00012015    0.00056535
     atom   50 type  4   force =     0.00947338   -0.00383592    0.00397337
     atom   51 type  4   force =    -0.00109033    0.00021007   -0.00024127
     atom   52 type  2   force =     0.00063806   -0.00165424   -0.00048849
     atom   53 type  4   force =     0.00077094    0.00147202   -0.00035133

     Total force =     0.384054     Total SCF correction =     0.000978
  @ DRIVER MODE: Message from server: STATUS
  @ DRIVER MODE: Message from server: GETFORCE
  @ DRIVER MODE: Returning v,forces,stress,ensemble

     Writing output data file ./calc.save/
  @ DRIVER MODE: Message from server: EXIT
  @ DRIVE MODE: Exiting

     General routines

     Parallel routines

   This run was terminated on:   2:48:33  23Sep2021

   JOB DONE.