     Program PWSCF v.6.7GPU starts on 10Sep2021 at  3:40:32

     R & G space division:  proc/nbgrp/npool/nimage =      10
     Reading input from /storage/home/hcoda1/3/ntian30/research/carbon/CxH_vib/CH3_calc/ads_slab/CH3N2H2O_g/out_0021/pw.inp
Warning: card &CELL ignored
Warning: card   CELL_DYNAMICS='IPI', ignored
Warning: card / ignored

     Current dimensions of program PWSCF are:
     Max number of different atomic species (ntypx) = 10
     Max number of k-points (npk) =  40000
     Max angular momentum in pseudopotentials (lmaxx) =  3
     Presently no symmetry can be used with electric field

     Message from routine cell_base_init:
     DEPRECATED: use true lattice parameter, not A to a.u. conversion factor

     IMPORTANT: XC functional enforced from input :
     Exchange-correlation= BEEF-VDW
                           (   1   4  43  14   2   0   0)
     Any further DFT definition will be discarded
     Please, verify this is what you really want

  @ DRIVER MODE: Connecting to
 qe_1139763_2779714.sched-torque.pace.gatech.edudq057ltj_scratch
  using UNIX socket
  @ DRIVER MODE: Message from server: STATUS
  @ DRIVER MODE: Message from server: INIT
  @ DRIVER MODE: Receiving replica           0          -1
  @ DRIVER MODE: Receiving encoded integer          25
  @ DRIVER MODE:  SCF:  T  FORCE:  T  STRESS:  F  VC:  F  ENSEMBLE:  F
  @ DRIVER MODE:  SCF:  T  FORCE:  T  STRESS:  F  VC:  F  ENSEMBLE:  F

     Using Slab Decomposition

     bravais-lattice index     =            0
     lattice parameter (alat)  =       1.8897  a.u.
     unit-cell volume          =    6658.9804 (a.u.)^3
     number of atoms/cell      =           56
     number of atomic types    =            5
     number of electrons       =       403.00
     number of Kohn-Sham states=          211
     kinetic-energy cutoff     =      29.3995  Ry
     charge density cutoff     =     293.9946  Ry
     scf convergence threshold =      7.3E-08
     mixing beta               =       0.0500
     number of iterations used =            8  plain     mixing
     Exchange-correlation= BEEF-VDW
                           (   1   4  43  14   2   0   0)

     celldm(1)=   1.889726  celldm(2)=   0.000000  celldm(3)=   0.000000
     celldm(4)=   0.000000  celldm(5)=   0.000000  celldm(6)=   0.000000

     crystal axes: (cart. coord. in units of alat)
               a(1) = (   6.579727   0.000000   0.000000 )
               a(2) = (  -0.000775   5.961596   0.000000 )
               a(3) = (   0.000000   0.000000  25.155947 )

     reciprocal axes: (cart. coord. in units 2 pi/alat)
               b(1) = (  0.151982  0.000020  0.000000 )
               b(2) = (  0.000000  0.167740  0.000000 )
               b(3) = (  0.000000  0.000000  0.039752 )

     PseudoPot. # 1 for Ti read from file:
     /storage/coda1/p-amedford6/0/shared/rich_project_chbe-medford/medford-share/data/pseudos_module/espresso/nninc/pbe/van/Ti.UPF
     MD5 check sum: 8e4df49b7f0d34bbd5052bf3f5ea0213
     Pseudo is Ultrasoft, Zval = 12.0
     Generated by new atomic code, or converted to UPF format
     Using radial grid of  851 points,  6 beta functions with:
                l(1) =   0
                l(2) =   0
                l(3) =   1
                l(4) =   1
                l(5) =   2
                l(6) =   2
     Q(r) pseudized with  8 coefficients,  rinner =    1.000   1.000   1.000
                                                       1.000   1.000

     PseudoPot. # 2 for O  read from file:
     /storage/coda1/p-amedford6/0/shared/rich_project_chbe-medford/medford-share/data/pseudos_module/espresso/nninc/pbe/van/O.UPF
     MD5 check sum: 78c19812648e8988a0fe644b0f25305e
     Pseudo is Ultrasoft, Zval =  6.0
     Generated by new atomic code, or converted to UPF format
     Using radial grid of  737 points,  4 beta functions with:
                l(1) =   0
                l(2) =   0
                l(3) =   1
                l(4) =   1
     Q(r) pseudized with  8 coefficients,  rinner =    0.800   0.800   0.800

     PseudoPot. # 3 for N  read from file:
     /storage/coda1/p-amedford6/0/shared/rich_project_chbe-medford/medford-share/data/pseudos_module/espresso/nninc/pbe/van/N.UPF
     MD5 check sum: 90d10febe142ad51ac9d5be1deb811c4
     Pseudo is Ultrasoft, Zval =  5.0
     Generated by new atomic code, or converted to UPF format
     Using radial grid of  729 points,  4 beta functions with:
                l(1) =   0
                l(2) =   0
                l(3) =   1
                l(4) =   1
     Q(r) pseudized with  8 coefficients,  rinner =    0.800   0.800   0.800

     PseudoPot. # 4 for C  read from file:
     /storage/coda1/p-amedford6/0/shared/rich_project_chbe-medford/medford-share/data/pseudos_module/espresso/nninc/pbe/van/C.UPF
     MD5 check sum: 1a69bf6b8db32088f5b2163dbdb77a27
     Pseudo is Ultrasoft, Zval =  4.0
     Generated by new atomic code, or converted to UPF format
     Using radial grid of  721 points,  4 beta functions with:
                l(1) =   0
                l(2) =   0
                l(3) =   1
                l(4) =   1
     Q(r) pseudized with  8 coefficients,  rinner =    0.800   0.800   0.800

     PseudoPot. # 5 for H  read from file:
     /storage/coda1/p-amedford6/0/shared/rich_project_chbe-medford/medford-share/data/pseudos_module/espresso/nninc/pbe/van/H.UPF
     MD5 check sum: b5ee9d7bfd3a09ee7748110bda690ff7
     Pseudo is Ultrasoft, Zval =  1.0
     Generated by new atomic code, or converted to UPF format
     Using radial grid of  615 points,  1 beta functions with:
                l(1) =   0
     Q(r) pseudized with  8 coefficients,  rinner =    0.800

     atomic species   valence    mass     pseudopotential
        Ti1           12.00    47.86700     Ti( 1.00)
        O1             6.00    15.99900     O ( 1.00)
        N1             5.00    14.00700     N ( 1.00)
        C1             4.00    12.01100     C ( 1.00)
        H1             1.00     1.00800     H ( 1.00)

     No symmetry found

   Cartesian axes

     site n.     atom                  positions (alat units)
         1           Ti1 tau(   1) = (   0.0004258   2.9801865   6.0000000  )
         2           Ti1 tau(   2) = (   3.2906075   1.4906267   6.0002472  )
         3           O1  tau(   3) = (   0.0006271   0.0005054   7.9858123  )
         4           O1  tau(   4) = (   3.2906025   0.0005020   7.3038282  )
         5           O1  tau(   5) = (   4.5942328   1.4918067   9.2879030  )
         6           O1  tau(   6) = (   1.9868534   1.4903216   9.2879459  )
         7           Ti1 tau(   7) = (   3.2907910   2.8959150   9.1758416  )
         8           Ti1 tau(   8) = (   0.0015273   1.4827037   9.2680791  )
         9           O1  tau(   9) = (   3.3002115   5.9463602  11.3460011  )
        10           O1  tau(  10) = (   0.0116148   5.9584955  10.6183126  )
        11           O1  tau(  11) = (   1.3192008   1.4768417  12.6238339  )
        12           O1  tau(  12) = (   5.3062067   1.4698383  12.6193417  )
        13           Ti1 tau(  13) = (   6.5330844   2.9444840  12.6148558  )
        14           Ti1 tau(  14) = (   3.2222230   1.4676475  12.5013840  )
        15           O1  tau(  15) = (   0.0064324   5.9471174  14.6352917  )
        16           O1  tau(  16) = (   3.3028336   5.9445487  13.9678148  )
        17           O1  tau(  17) = (   4.5628415   1.5226527  16.0793330  )
        18           O1  tau(  18) = (   2.0474444   1.5206590  16.0184434  )
        19           Ti1 tau(  19) = (   3.3141275   2.9607752  15.6908890  )
        20           Ti1 tau(  20) = (   6.5660065   1.5097775  15.7997320  )
        21           O1  tau(  21) = (   3.2904802   0.0005063   4.7018136  )
        22           O1  tau(  22) = (   0.0269361   0.0086655  17.1987262  )
        23           O1  tau(  23) = (   1.3043587   1.4918075   6.0039043  )
        24           O1  tau(  24) = (   5.2767064   1.4903225   6.0039473  )
        25           Ti1 tau(  25) = (   0.0000382   5.9609847   6.0000000  )
        26           Ti1 tau(  26) = (   3.2902200   4.4714249   6.0002472  )
        27           O1  tau(  27) = (   0.0002396   2.9813036   7.9858123  )
        28           O1  tau(  28) = (   3.2902150   2.9813002   7.3038282  )
        29           O1  tau(  29) = (   4.5938453   4.4726049   9.2879030  )
        30           O1  tau(  30) = (   1.9864658   4.4711199   9.2879459  )
        31           Ti1 tau(  31) = (   3.2891106   5.8743827   9.1763621  )
        32           Ti1 tau(  32) = (   0.0006254   4.4649316   9.2693709  )
        33           O1  tau(  33) = (   3.2944391   2.9688829  11.3444728  )
        34           O1  tau(  34) = (   0.0092240   2.9805883  10.6323155  )
        35           O1  tau(  35) = (   1.3142520   4.4635248  12.6275686  )
        36           O1  tau(  36) = (   5.3078217   4.4601700  12.6226734  )
        37           Ti1 tau(  37) = (   6.5374036   5.9186568  12.5467527  )
        38           Ti1 tau(  38) = (   3.2213306   4.4595164  12.5065882  )
        39           O1  tau(  39) = (   6.5756885   2.9534048  14.6511233  )
        40           O1  tau(  40) = (   3.3206316   2.9687378  13.8980937  )
        41           O1  tau(  41) = (   4.5543359   4.4428353  16.0905846  )
        42           O1  tau(  42) = (   2.0427057   4.4323087  16.0570365  )
        43           Ti1 tau(  43) = (   3.2570595   5.9269474  15.8069103  )
        44           Ti1 tau(  44) = (   6.5609319   4.6488967  16.0725391  )
        45           O1  tau(  45) = (   3.2900926   2.9813045   4.7018136  )
        46           O1  tau(  46) = (   1.3039711   4.4726057   6.0039043  )
        47           O1  tau(  47) = (   5.2763189   4.4711207   6.0039473  )
        48           N1  tau(  48) = (   0.2492319   2.6641403  18.6309932  )
        49           N1  tau(  49) = (   0.0782707   2.8835230  17.4382120  )
        50           C1  tau(  50) = (   0.2622466   3.8234900  19.5663878  )
        51           H1  tau(  51) = (   6.1755609   4.6133469  19.2444151  )
        52           H1  tau(  52) = (   6.5754044   3.4477461  20.5519103  )
        53           H1  tau(  53) = (   1.2857956   4.2073973  19.6006198  )
        54           O1  tau(  54) = (   3.1761146   0.0362278  18.2233714  )
        55           H1  tau(  55) = (   3.9097821   0.6076051  18.5038283  )
        56           H1  tau(  56) = (   2.3516031   0.5117379  18.4309238  )

     number of k points=    10  Fermi-Dirac smearing, width (Ry)=  0.0073
                       cart. coord. in units 2pi/alat
        k(    1) = (   0.0000000   0.0000000   0.0000000), wk =   0.1250000
        k(    2) = (   0.0000000   0.0419351   0.0000000), wk =   0.2500000
        k(    3) = (   0.0000000  -0.0838702   0.0000000), wk =   0.1250000
        k(    4) = (   0.0379955   0.0000049   0.0000000), wk =   0.2500000
        k(    5) = (   0.0379955   0.0419400   0.0000000), wk =   0.2500000
        k(    6) = (   0.0379955  -0.0838652   0.0000000), wk =   0.2500000
        k(    7) = (   0.0379955  -0.0419301   0.0000000), wk =   0.2500000
        k(    8) = (  -0.0759910  -0.0000099   0.0000000), wk =   0.1250000
        k(    9) = (  -0.0759910   0.0419252   0.0000000), wk =   0.2500000
        k(   10) = (  -0.0759910  -0.0838800   0.0000000), wk =   0.1250000

     Initial potential from superposition of free atoms

     starting charge  386.99914, renormalised to  403.00000

     negative rho (up, down):  1.449E-02 0.000E+00

     %%%%%%%%%%%%%%%%%%%%%%%%%%%%%%%%%%%%%%%%%%%%%%%%%%%%%%%%%%%%%%%%%%%%%%%%
     %                                                                      %
     % You are using vdW-DF, which was implemented by the Thonhauser group. %
     % Please cite the following two papers that made this development      %
     % possible and the two reviews that describe the various versions:     %
     %                                                                      %
     %   T. Thonhauser et al., PRL 115, 136402 (2015).                      %
     %   T. Thonhauser et al., PRB 76, 125112 (2007).                       %
     %   K. Berland et al., Rep. Prog. Phys. 78, 066501 (2015).             %
     %   D.C. Langreth et al., J. Phys.: Condens. Matter 21, 084203 (2009). %
     %                                                                      %
     %                                                                      %
     % If you are calculating the stress with vdW-DF, please also cite:     %
     %                                                                      %
     %   R. Sabatini et al., J. Phys.: Condens. Matter 24, 424209 (2012).   %
     %                                                                      %
     %%%%%%%%%%%%%%%%%%%%%%%%%%%%%%%%%%%%%%%%%%%%%%%%%%%%%%%%%%%%%%%%%%%%%%%%

     Adding external electric field

     Computed dipole along edir(3) :
        Dipole              -13.2089 Ry au,        -33.5737 Debye
        Dipole field         -0.0249 Ry au,

        Potential amp.        2.3107 Ry
        Total length         46.3494 bohr

     Starting wfcs are  305 atomic wfcs
  @ DRIVER MODE: Message from server: STATUS
  @ DRIVER MODE: Message from server: POSDATA
  @ DRIVER MODE: Reading and sharing cell
  @ DRIVER MODE: Reading and sharing positions
  @ DRIVER MODE: Received positions

     Self-consistent Calculation

     iteration #  1     ecut=    29.40 Ry     beta= 0.05
     Davidson diagonalization with overlap
     c_bands:  4 eigenvalues not converged
     c_bands:  2 eigenvalues not converged
     c_bands:  2 eigenvalues not converged
     c_bands:  5 eigenvalues not converged
     c_bands:  1 eigenvalues not converged
     c_bands:  1 eigenvalues not converged
     c_bands:  4 eigenvalues not converged
     c_bands:  1 eigenvalues not converged
     c_bands:  1 eigenvalues not converged
     ethr =  1.00E-05,  avg # of iterations = 28.0

[...]

     total energy              =   -2367.55737712 Ry
     estimated scf accuracy    <    6916.05907433 Ry

     iteration #  2     ecut=    29.40 Ry     beta= 0.05
     Davidson diagonalization with overlap
     ethr =  1.00E-02,  avg # of iterations = 23.6

[...]

     iteration # 62     ecut=    29.40 Ry     beta= 0.05
     Davidson diagonalization with overlap
     c_bands:  2 eigenvalues not converged
     ethr =  6.36E-09,  avg # of iterations = 12.9

[...]

     total energy              =   -2974.00269100 Ry
     estimated scf accuracy    <       0.00000018 Ry

     iteration # 74     ecut=    29.40 Ry     beta= 0.05
     Davidson diagonalization with overlap
     ethr =  2.92E-11,  avg # of iterations = 14.8

     negative rho (up, down):  1.477E-02 0.000E+00

     Adding external electric field

     Computed dipole along edir(3) :
        Dipole                0.8914 Ry au,          2.2656 Debye
        Dipole field          0.0017 Ry au,

        Potential amp.       -0.1559 Ry
        Total length         46.3494 bohr

     End of self-consistent calculation

          k = 0.0000 0.0000 0.0000 ( 18029 PWs)   bands (ev):

   -55.6187 -55.5846 -55.5767 -55.5601 -55.5401 -55.4470 -55.4287 -55.4078
   -55.3948 -55.3941 -55.3655 -55.3603 -55.0025 -54.8625 -54.5975 -54.5634
   -32.1189 -32.1011 -31.9617 -31.9444 -31.9275 -31.9116 -31.8836 -31.8776
   -31.8616 -31.8080 -31.8017 -31.7837 -31.7710 -31.7551 -31.7392 -31.7300
   -31.7230 -31.7103 -31.7042 -31.6759 -31.6672 -31.6498 -31.6213 -31.6171
   -31.6012 -31.5985 -31.5981 -31.5930 -31.5688 -31.5641 -31.5611 -31.5561
   -31.5467 -31.5420 -31.5354 -31.5085 -31.5057 -31.2726 -31.1983 -31.1228
   -31.1056 -31.0714 -31.0047 -30.9161 -30.8936 -30.8213 -30.7348 -30.6239
   -18.8643 -18.3057 -16.3105 -16.0821 -15.8524 -15.7647 -15.7159 -15.5164
   -15.4145 -15.3422 -15.2196 -15.1567 -15.1447 -15.1307 -15.1117 -15.1097
   -15.0574 -15.0504 -15.0463 -15.0386 -15.0052 -14.9650 -14.9500 -14.9394
   -14.8455 -14.7721 -14.7549 -14.7310 -14.6856 -14.6692 -14.1956 -13.0997
   -12.9833 -11.2651  -6.8775  -6.6386  -4.2022  -3.8555  -3.8021  -3.6832
    -3.5557  -3.5226  -3.4410  -3.3676  -3.2310  -3.1985  -3.0365  -2.8462
    -2.7856  -2.7595  -2.7066  -2.6398  -2.5262  -2.4671  -2.4224  -2.4153
    -2.3980  -2.3909  -2.3667  -2.3541  -2.2527  -2.2311  -2.1535  -2.1495
    -2.0974  -1.9799  -1.9652  -1.9308  -1.9180  -1.8948  -1.8730  -1.8521
    -1.8418  -1.8177  -1.7673  -1.6991  -1.6331  -1.5948  -1.5089  -1.4414
    -1.3979  -1.3507  -1.2287  -1.1352  -1.1009  -1.0600  -1.0526  -1.0395
    -1.0106  -0.9928  -0.8799  -0.7658  -0.7491  -0.6836  -0.6237  -0.5425
    -0.5163  -0.4362  -0.3823  -0.3639  -0.3602  -0.3146  -0.2851  -0.2257
    -0.0919  -0.0403  -0.0065   0.0027   0.0617   0.1052   0.1338   0.2211
     0.2273   0.2728   0.3108   0.3434   0.3565   0.3717   0.3902   0.4196
     0.4345   0.6260   0.6621   0.7009   0.7389   0.7818   0.9200   0.9444
     1.0425   1.1518   1.3510   1.4248   1.5297   1.6168   1.9963   2.0421
     2.7476   3.5166   3.6038   3.6486   3.6777   3.7613   3.7753   3.9714
     3.9874   4.0258   4.0966

[...]

          k = 0.0380-0.0419 0.0000 ( 17876 PWs)   bands (ev):

[...]

          k =-0.0760-0.0000 0.0000 ( 17886 PWs)   bands (ev):

[...]

          k =-0.0760-0.0839 0.0000 ( 17948 PWs)   bands (ev):

   -55.6021 -55.6011 -55.5626 -55.5585 -55.5540 -55.4368 -55.4182 -55.4124
   -55.4105 -55.3789 -55.3757 -55.3670 -55.0006 -54.8643 -54.5805 -54.5803
   -31.9325 -31.9168 -31.9163 -31.9160 -31.8975 -31.8965 -31.8471 -31.8410
   -31.8197 -31.7945 -31.7823 -31.7733 -31.7692 -31.7311 -31.7265 -31.7249
   -31.7217 -31.7207 -31.7181 -31.7158 -31.7133 -31.7072 -31.6712 -31.6539
   -31.6352 -31.6310 -31.6237 -31.6118 -31.6114 -31.6085 -31.6030 -31.5936
   -31.5901 -31.5790 -31.5782 -31.5699 -31.4196 -31.2745 -31.2143 -31.1616
   -31.1240 -31.0980 -30.9064 -30.9063 -30.8176 -30.8173 -30.7782 -30.7781
   -18.8632 -18.3021 -15.7689 -15.6586 -15.5680 -15.5338 -15.4763 -15.4071
   -15.3994 -15.3126 -15.2967 -15.2936 -15.2279 -15.2072 -15.1699 -15.1630
   -15.1403 -15.1245 -15.1179 -15.0685 -15.0564 -15.0536 -15.0468 -15.0419
   -14.9657 -14.9354 -14.9316 -14.9225 -14.7948 -14.6703 -14.3672 -13.0851
   -13.0849 -11.2628  -6.9046  -6.6159  -4.1285  -3.8861  -3.7656  -3.2162
    -3.0514  -2.8381  -2.8191  -2.7232  -2.7114  -2.6768  -2.5460  -2.5052
    -2.4644  -2.4479  -2.4290  -2.4276  -2.4103  -2.4046  -2.3844  -2.3590
    -2.3341  -2.3135  -2.2846  -2.2811  -2.2682  -2.2551  -2.2321  -2.2197
    -2.2033  -2.1727  -2.1470  -2.1310  -2.0641  -1.9927  -1.8313  -1.7930
    -1.7541  -1.7478  -1.7308  -1.7001  -1.6845  -1.6665  -1.6198  -1.5842
    -1.5051  -1.3574  -1.3372  -1.3143  -1.2939  -1.2826  -1.2097  -1.1014
    -1.0823  -1.0112  -1.0030  -0.8966  -0.8883  -0.8031  -0.7949  -0.7851
    -0.7097  -0.6828  -0.6679  -0.5790  -0.5769  -0.5533  -0.5036  -0.4763
    -0.4117  -0.3694  -0.3388  -0.3354  -0.2895  -0.2673  -0.2232  -0.1571
    -0.1035  -0.0673   0.0293   0.1336   0.2347   0.3496   0.4645   0.4785
     0.5607   0.5940   0.6789   0.6946   0.7029   0.7752   0.7801   0.8790
     0.9235   0.9380   0.9786   1.1012   1.7880   1.7894   1.8616   1.8619
     2.7716   3.7341   3.8540   3.8961   3.9140   3.9882   4.0308   4.0503
     4.0528   4.0868   4.1924

     the Fermi energy is     3.5154 ev

!    total energy              =   -2974.00270759 Ry
     estimated scf accuracy    <       0.00000006 Ry
     smearing contrib. (-TS)   =      -0.02182650 Ry
     internal energy E=F+TS    =   -2973.98088108 Ry

     The total energy is F=E-TS. E is the sum of the following terms:
     one-electron contribution =  -23848.06514836 Ry
     hartree contribution      =   12018.45995785 Ry
     xc contribution           =    -494.03402584 Ry
     ewald contribution        =    9349.65683585 Ry
     electric field correction =       0.00149942 Ry

     convergence has been achieved in  74 iterations

     Forces acting on atoms (cartesian axes, Ry/au):

     atom    1 type  1   force =     0.00003681   -0.00023818    0.09646070
     atom    2 type  1   force =     0.00005573   -0.00043895   -0.17546281
     atom    3 type  2   force =     0.00011498   -0.00009506   -0.02476635
     atom    4 type  2   force =     0.00004258   -0.00157831    0.05349205
     atom    5 type  2   force =    -0.01196691   -0.00100837    0.00308801
     atom    6 type  2   force =     0.01370969   -0.00064957    0.00292652
     atom    7 type  1   force =     0.00074582    0.00068275   -0.00681307
     atom    8 type  1   force =     0.00021755    0.00948201    0.02714472
     atom    9 type  2   force =    -0.00014295   -0.00006284   -0.00006035
     atom   10 type  2   force =    -0.00204738    0.00048670   -0.01820209
     atom   11 type  2   force =    -0.00056733    0.00032622    0.00012709
     atom   12 type  2   force =     0.00067541    0.00012722    0.00031877
     atom   13 type  1   force =    -0.00016279   -0.00010069   -0.00013570
     atom   14 type  1   force =    -0.00040339   -0.00015083    0.00026778
     atom   15 type  2   force =     0.00003374   -0.00059292    0.00068042
     atom   16 type  2   force =    -0.00025749   -0.00007140   -0.00036710
     atom   17 type  2   force =    -0.00022655    0.00017354   -0.00029951
     atom   18 type  2   force =    -0.00001543    0.00019653   -0.00028958
     atom   19 type  1   force =    -0.00032339    0.00016941   -0.00006398
     atom   20 type  1   force =    -0.00046371   -0.00004430    0.00032265
     atom   21 type  2   force =     0.00008259    0.00001573    0.10326558
     atom   22 type  2   force =     0.00013491    0.00036132    0.00007890
     atom   23 type  2   force =    -0.07145251   -0.00009285   -0.02773707
     atom   24 type  2   force =     0.07140867    0.00036080   -0.02780881
     atom   25 type  1   force =     0.00017795   -0.00033982    0.09614054
     atom   26 type  1   force =     0.00000731   -0.00037656   -0.17578549
     atom   27 type  2   force =     0.00021087   -0.00020555   -0.02375510
     atom   28 type  2   force =     0.00002539   -0.00128232    0.05295527
     atom   29 type  2   force =    -0.01220668    0.00023663    0.00291438
     atom   30 type  2   force =     0.01386964    0.00081671    0.00273571
     atom   31 type  1   force =     0.00042119    0.00343613   -0.00984405
     atom   32 type  1   force =     0.00036176   -0.01130714    0.02755372
     atom   33 type  2   force =     0.00010400    0.00014620   -0.00000039
     atom   34 type  2   force =    -0.00188069   -0.00045331   -0.02415131
     atom   35 type  2   force =     0.00042123    0.00003243   -0.00026335
     atom   36 type  2   force =    -0.00030796   -0.00006263    0.00008324
     atom   37 type  1   force =    -0.00031340   -0.00013288    0.00011869
     atom   38 type  1   force =    -0.00079420    0.00013206   -0.00048556
     atom   39 type  2   force =     0.00009214   -0.00030719   -0.00022736
     atom   40 type  2   force =     0.00020130    0.00034222    0.00045635
     atom   41 type  2   force =     0.00024342    0.00010059   -0.00031085
     atom   42 type  2   force =    -0.00043140   -0.00007957   -0.00033335
     atom   43 type  1   force =     0.00031446    0.00079892    0.00028481
     atom   44 type  1   force =    -0.00009351    0.00114989   -0.00071734
     atom   45 type  2   force =     0.00008596   -0.00002658    0.10325112
     atom   46 type  2   force =    -0.07145476   -0.00002053   -0.02775081
     atom   47 type  2   force =     0.07141197    0.00040585   -0.02780635
     atom   48 type  3   force =     0.00003001   -0.00096855   -0.00159787
     atom   49 type  3   force =    -0.00007238   -0.00024294    0.00155886
     atom   50 type  4   force =     0.00473064   -0.00615257    0.00260341
     atom   51 type  5   force =    -0.00382450    0.00674014   -0.00263925
     atom   52 type  5   force =     0.00008946   -0.00006405   -0.00008645
     atom   53 type  5   force =    -0.00033784   -0.00031009    0.00004060
     atom   54 type  2   force =     0.00016097    0.00054709   -0.00075590
     atom   55 type  5   force =    -0.00006035   -0.00008812   -0.00003977
     atom   56 type  5   force =    -0.00041063    0.00027758   -0.00031292

     Total force =     0.368180     Total SCF correction =     0.000575
  @ DRIVER MODE: Message from server: STATUS
  @ DRIVER MODE: Message from server: GETFORCE
  @ DRIVER MODE: Returning v,forces,stress,ensemble

     Writing output data file ./calc.save/
  @ DRIVER MODE: Message from server: EXIT
  @ DRIVE MODE: Exiting

     General routines

     Parallel routines

   This run was terminated on:   4: 1:34  10Sep2021

   JOB DONE.