     Program PWSCF v.6.7GPU starts on 23Sep2021 at 19:48:26

     R & G space division:  proc/nbgrp/npool/nimage =       8
     Reading input from /storage/home/hcoda1/3/ntian30/research/carbon/CxH_vib/H2O_calc/ads_slab/CH2N2HO_b/out_0023/pw.inp
Warning: card &CELL ignored
Warning: card   CELL_DYNAMICS='IPI', ignored
Warning: card / ignored

     Current dimensions of program PWSCF are:
     Max number of different atomic species (ntypx) = 10
     Max number of k-points (npk) =  40000
     Max angular momentum in pseudopotentials (lmaxx) =  3
     Presently no symmetry can be used with electric field

     Message from routine cell_base_init:
     DEPRECATED: use true lattice parameter, not A to a.u. conversion factor

     IMPORTANT: XC functional enforced from input :
     Exchange-correlation= BEEF-VDW
                           (   1   4  43  14   2   0   0)
     Any further DFT definition will be discarded
     Please, verify this is what you really want

  @ DRIVER MODE: Connecting to
 qe_1139763_2947312.sched-torque.pace.gatech.edumqpavdfi_scratch
  using UNIX socket
  @ DRIVER MODE: Message from server: STATUS
  @ DRIVER MODE: Message from server: INIT
  @ DRIVER MODE: Receiving replica           0          -1
  @ DRIVER MODE: Receiving encoded integer          25
  @ DRIVER MODE:  SCF:  T  FORCE:  T  STRESS:  F  VC:  F  ENSEMBLE:  F
  @ DRIVER MODE:  SCF:  T  FORCE:  T  STRESS:  F  VC:  F  ENSEMBLE:  F

     Using Slab Decomposition

     bravais-lattice index     =            0
     lattice parameter (alat)  =       1.8897  a.u.
     unit-cell volume          =    6658.9804 (a.u.)^3
     number of atoms/cell      =           54
     number of atomic types    =            5
     number of electrons       =       401.00
     number of Kohn-Sham states=          210
     kinetic-energy cutoff     =      29.3995  Ry
     charge density cutoff     =     293.9946  Ry
     scf convergence threshold =      7.3E-08
     mixing beta               =       0.0500
     number of iterations used =            8  plain     mixing
     Exchange-correlation= BEEF-VDW
                           (   1   4  43  14   2   0   0)

     celldm(1)=   1.889726  celldm(2)=   0.000000  celldm(3)=   0.000000
     celldm(4)=   0.000000  celldm(5)=   0.000000  celldm(6)=   0.000000

     crystal axes: (cart. coord. in units of alat)
               a(1) = (   6.579727   0.000000   0.000000 )
               a(2) = (  -0.000775   5.961596   0.000000 )
               a(3) = (   0.000000   0.000000  25.155947 )

     reciprocal axes: (cart. coord. in units 2 pi/alat)
               b(1) = (  0.151982  0.000020  0.000000 )
               b(2) = (  0.000000  0.167740  0.000000 )
               b(3) = (  0.000000  0.000000  0.039752 )

     PseudoPot. # 1 for Ti read from file:
     /storage/coda1/p-amedford6/0/shared/rich_project_chbe-medford/medford-share/data/pseudos_module/espresso/nninc/pbe/van/Ti.UPF
     MD5 check sum: 8e4df49b7f0d34bbd5052bf3f5ea0213
     Pseudo is Ultrasoft, Zval = 12.0
     Generated by new atomic code, or converted to UPF format
     Using radial grid of  851 points,  6 beta functions with:
                l(1) =   0
                l(2) =   0
                l(3) =   1
                l(4) =   1
                l(5) =   2
                l(6) =   2
     Q(r) pseudized with  8 coefficients,  rinner =    1.000   1.000   1.000
                                                       1.000   1.000

     PseudoPot. # 2 for O  read from file:
     /storage/coda1/p-amedford6/0/shared/rich_project_chbe-medford/medford-share/data/pseudos_module/espresso/nninc/pbe/van/O.UPF
     MD5 check sum: 78c19812648e8988a0fe644b0f25305e
     Pseudo is Ultrasoft, Zval =  6.0
     Generated by new atomic code, or converted to UPF format
     Using radial grid of  737 points,  4 beta functions with:
                l(1) =   0
                l(2) =   0
                l(3) =   1
                l(4) =   1
     Q(r) pseudized with  8 coefficients,  rinner =    0.800   0.800   0.800

     PseudoPot. # 3 for N  read from file:
     /storage/coda1/p-amedford6/0/shared/rich_project_chbe-medford/medford-share/data/pseudos_module/espresso/nninc/pbe/van/N.UPF
     MD5 check sum: 90d10febe142ad51ac9d5be1deb811c4
     Pseudo is Ultrasoft, Zval =  5.0
     Generated by new atomic code, or converted to UPF format
     Using radial grid of  729 points,  4 beta functions with:
                l(1) =   0
                l(2) =   0
                l(3) =   1
                l(4) =   1
     Q(r) pseudized with  8 coefficients,  rinner =    0.800   0.800   0.800

     PseudoPot. # 4 for C  read from file:
     /storage/coda1/p-amedford6/0/shared/rich_project_chbe-medford/medford-share/data/pseudos_module/espresso/nninc/pbe/van/C.UPF
     MD5 check sum: 1a69bf6b8db32088f5b2163dbdb77a27
     Pseudo is Ultrasoft, Zval =  4.0
     Generated by new atomic code, or converted to UPF format
     Using radial grid of  721 points,  4 beta functions with:
                l(1) =   0
                l(2) =   0
                l(3) =   1
                l(4) =   1
     Q(r) pseudized with  8 coefficients,  rinner =    0.800   0.800   0.800

     PseudoPot. # 5 for H  read from file:
     /storage/coda1/p-amedford6/0/shared/rich_project_chbe-medford/medford-share/data/pseudos_module/espresso/nninc/pbe/van/H.UPF
     MD5 check sum: b5ee9d7bfd3a09ee7748110bda690ff7
     Pseudo is Ultrasoft, Zval =  1.0
     Generated by new atomic code, or converted to UPF format
     Using radial grid of  615 points,  1 beta functions with:
                l(1) =   0
     Q(r) pseudized with  8 coefficients,  rinner =    0.800

     atomic species   valence    mass     pseudopotential
        Ti1           12.00    47.86700     Ti( 1.00)
        O1             6.00    15.99900     O ( 1.00)
        N1             5.00    14.00700     N ( 1.00)
        C1             4.00    12.01100     C ( 1.00)
        H1             1.00     1.00800     H ( 1.00)

     No symmetry found

   Cartesian axes

     site n.     atom                  positions (alat units)
         1           Ti1 tau(   1) = (   0.0004258   2.9801865   6.0000000  )
         2           Ti1 tau(   2) = (   3.2906075   1.4906267   6.0002472  )
         3           O1  tau(   3) = (   0.0006271   0.0005054   7.9858123  )
         4           O1  tau(   4) = (   3.2906025   0.0005020   7.3038282  )
         5           O1  tau(   5) = (   4.5942328   1.4918067   9.2879030  )
         6           O1  tau(   6) = (   1.9868534   1.4903216   9.2879459  )
         7           Ti1 tau(   7) = (   3.2907910   2.8959150   9.1758416  )
         8           Ti1 tau(   8) = (   0.0015273   1.4827037   9.2680791  )
         9           O1  tau(   9) = (   3.2935892   5.9488104  11.3374186  )
        10           O1  tau(  10) = (   0.0116148   5.9584955  10.6183126  )
        11           O1  tau(  11) = (   1.2908913   1.5070562  12.6495475  )
        12           O1  tau(  12) = (   5.3136790   1.4931969  12.6373367  )
        13           Ti1 tau(  13) = (   0.0127878   2.8868139  12.6015941  )
        14           Ti1 tau(  14) = (   3.2987545   1.3040885  12.7026746  )
        15           O1  tau(  15) = (   0.0175227   0.0240941  14.6538407  )
        16           O1  tau(  16) = (   3.3064676   0.0741613  13.9771881  )
        17           O1  tau(  17) = (   4.5827780   1.5498142  16.1449436  )
        18           O1  tau(  18) = (   2.0366442   1.5898792  16.0867183  )
        19           Ti1 tau(  19) = (   3.3102262   3.0030951  15.6784192  )
        20           Ti1 tau(  20) = (   0.0574396   1.3488835  16.0050117  )
        21           O1  tau(  21) = (   3.2904802   0.0005063   4.7018136  )
        22           O1  tau(  22) = (   0.0721820   0.0083530  17.1768217  )
        23           O1  tau(  23) = (   1.3043587   1.4918075   6.0039043  )
        24           O1  tau(  24) = (   5.2767064   1.4903225   6.0039473  )
        25           Ti1 tau(  25) = (   0.0000382   5.9609847   6.0000000  )
        26           Ti1 tau(  26) = (   3.2902200   4.4714249   6.0002472  )
        27           O1  tau(  27) = (   0.0002396   2.9813036   7.9858123  )
        28           O1  tau(  28) = (   3.2902150   2.9813002   7.3038282  )
        29           O1  tau(  29) = (   4.5938453   4.4726049   9.2879030  )
        30           O1  tau(  30) = (   1.9864658   4.4711199   9.2879459  )
        31           Ti1 tau(  31) = (   3.2891106   5.8743827   9.1763621  )
        32           Ti1 tau(  32) = (   0.0006254   4.4649316   9.2693709  )
        33           O1  tau(  33) = (   3.2934580   3.0155445  11.2926531  )
        34           O1  tau(  34) = (   0.0092240   2.9805883  10.6323155  )
        35           O1  tau(  35) = (   1.2931599   4.4792858  12.6478595  )
        36           O1  tau(  36) = (   5.3056662   4.4876152  12.6363886  )
        37           Ti1 tau(  37) = (   6.5746511   5.8741161  12.5153022  )
        38           Ti1 tau(  38) = (   3.2863760   4.3878630  12.4273393  )
        39           O1  tau(  39) = (   6.5684735   3.0099032  14.7382625  )
        40           O1  tau(  40) = (   3.3273571   2.9915841  13.8999870  )
        41           O1  tau(  41) = (   4.5754576   4.4629145  16.1269992  )
        42           O1  tau(  42) = (   2.0375947   4.4358961  16.0236521  )
        43           Ti1 tau(  43) = (   3.3857405   0.0156461  16.2930207  )
        44           Ti1 tau(  44) = (   0.0840152   4.5257857  15.8004899  )
        45           O1  tau(  45) = (   3.2900926   2.9813045   4.7018136  )
        46           O1  tau(  46) = (   1.3039711   4.4726057   6.0039043  )
        47           O1  tau(  47) = (   5.2763189   4.4711207   6.0039473  )
        48           N1  tau(  48) = (   6.4876325   3.2951735  18.6921505  )
        49           N1  tau(  49) = (   0.0139976   3.0420413  17.5569154  )
        50           C1  tau(  50) = (   6.3059459   3.6199554  19.9036174  )
        51           H1  tau(  51) = (   5.2963100   3.8231348  20.2272398  )
        52           H1  tau(  52) = (   0.5840524   3.7151184  20.5547593  )
        53           O1  tau(  53) = (   3.1058724   5.9363815  18.1230642  )
        54           H1  tau(  54) = (   2.1709728   0.0855973  18.3648350  )

     number of k points=    10  Fermi-Dirac smearing, width (Ry)=  0.0073
                       cart. coord. in units 2pi/alat
        k(    1) = (   0.0000000   0.0000000   0.0000000), wk =   0.1250000
        k(    2) = (   0.0000000   0.0419351   0.0000000), wk =   0.2500000
        k(    3) = (   0.0000000  -0.0838702   0.0000000), wk =   0.1250000
        k(    4) = (   0.0379955   0.0000049   0.0000000), wk =   0.2500000
        k(    5) = (   0.0379955   0.0419400   0.0000000), wk =   0.2500000
        k(    6) = (   0.0379955  -0.0838652   0.0000000), wk =   0.2500000
        k(    7) = (   0.0379955  -0.0419301   0.0000000), wk =   0.2500000
        k(    8) = (  -0.0759910  -0.0000099   0.0000000), wk =   0.1250000
        k(    9) = (  -0.0759910   0.0419252   0.0000000), wk =   0.2500000
        k(   10) = (  -0.0759910  -0.0838800   0.0000000), wk =   0.1250000

     Initial potential from superposition of free atoms

     starting charge  384.99916, renormalised to  401.00000

     negative rho (up, down):  1.407E-02 0.000E+00

     %%%%%%%%%%%%%%%%%%%%%%%%%%%%%%%%%%%%%%%%%%%%%%%%%%%%%%%%%%%%%%%%%%%%%%%%
     %                                                                      %
     % You are using vdW-DF, which was implemented by the Thonhauser group. %
     % Please cite the following two papers that made this development      %
     % possible and the two reviews that describe the various versions:     %
     %                                                                      %
     %   T. Thonhauser et al., PRL 115, 136402 (2015).                      %
     %   T. Thonhauser et al., PRB 76, 125112 (2007).                       %
     %   K. Berland et al., Rep. Prog. Phys. 78, 066501 (2015).             %
     %   D.C. Langreth et al., J. Phys.: Condens. Matter 21, 084203 (2009). %
     %                                                                      %
     %                                                                      %
     % If you are calculating the stress with vdW-DF, please also cite:     %
     %                                                                      %
     %   R. Sabatini et al., J. Phys.: Condens. Matter 24, 424209 (2012).   %
     %                                                                      %
     %%%%%%%%%%%%%%%%%%%%%%%%%%%%%%%%%%%%%%%%%%%%%%%%%%%%%%%%%%%%%%%%%%%%%%%%

     Adding external electric field

     Computed dipole along edir(3) :
        Dipole              -11.8198 Ry au,        -30.0428 Debye
        Dipole field         -0.0223 Ry au,

        Potential amp.        2.0677 Ry
        Total length         46.3494 bohr

     Starting wfcs are  303 atomic wfcs
  @ DRIVER MODE: Message from server: STATUS
  @ DRIVER MODE: Message from server: POSDATA
  @ DRIVER MODE: Reading and sharing cell
  @ DRIVER MODE: Reading and sharing positions
  @ DRIVER MODE: Received positions

     Self-consistent Calculation

     iteration #  1     ecut=    29.40 Ry     beta= 0.05
     Davidson diagonalization with overlap
     c_bands:  3 eigenvalues not converged
     c_bands:  4 eigenvalues not converged
     c_bands:  1 eigenvalues not converged
     c_bands:  4 eigenvalues not converged
     c_bands:  4 eigenvalues not converged
     c_bands:  1 eigenvalues not converged
     c_bands:  2 eigenvalues not converged
     ethr =  1.00E-05,  avg # of iterations = 22.9

[...]

     total energy              =   -2411.65745173 Ry
     estimated scf accuracy    <    6295.61757196 Ry

     iteration #  2     ecut=    29.40 Ry     beta= 0.05
     Davidson diagonalization with overlap
     ethr =  1.00E-02,  avg # of iterations = 22.1

[...]

     iteration # 56     ecut=    29.40 Ry     beta= 0.05
     Davidson diagonalization with overlap
     c_bands:  1 eigenvalues not converged
     ethr =  1.58E-07,  avg # of iterations = 11.4

[...]

     total energy              =   -2971.49157156 Ry
     estimated scf accuracy    <       0.00000019 Ry

     iteration # 74     ecut=    29.40 Ry     beta= 0.05
     Davidson diagonalization with overlap
     ethr =  4.73E-11,  avg # of iterations =  5.8

     negative rho (up, down):  1.461E-02 0.000E+00

     Adding external electric field

     Computed dipole along edir(3) :
        Dipole                1.0663 Ry au,          2.7103 Debye
        Dipole field          0.0020 Ry au,

        Potential amp.       -0.1865 Ry
        Total length         46.3494 bohr

     End of self-consistent calculation

          k = 0.0000 0.0000 0.0000 ( 18029 PWs)   bands (ev):

   -55.6909 -55.6569 -55.4755 -55.4747 -55.4417 -55.3330 -55.3157 -55.2811
   -55.2804 -55.2255 -55.1801 -55.0953 -55.0859 -54.9801 -54.5984 -54.5644
   -32.1648 -31.9861 -31.9841 -31.9280 -31.8435 -31.8162 -31.8110 -31.7925
   -31.7874 -31.7561 -31.7493 -31.7482 -31.7123 -31.6948 -31.6829 -31.6494
   -31.6473 -31.6102 -31.5832 -31.5780 -31.5749 -31.5507 -31.5413 -31.5383
   -31.4934 -31.4863 -31.4805 -31.4699 -31.4580 -31.4439 -31.4395 -31.4247
   -31.4238 -31.3686 -31.3641 -31.3602 -31.2943 -31.2811 -31.2586 -31.2295
   -31.2041 -31.1909 -31.0014 -30.9227 -30.8999 -30.8194 -30.7335 -30.6215
   -20.7455 -16.2544 -16.1709 -15.9662 -15.7885 -15.6377 -15.5849 -15.4447
   -15.3731 -15.2743 -15.1928 -15.0935 -15.0732 -15.0330 -14.9975 -14.9954
   -14.9678 -14.9352 -14.9347 -14.9126 -14.8943 -14.8469 -14.7867 -14.7698
   -14.7250 -14.6976 -14.6505 -14.6456 -14.6172 -14.5149 -14.2472 -14.2330
   -13.0965 -12.9814  -7.4007  -6.1107  -5.6758  -5.0479  -3.7637  -3.5788
    -3.5043  -3.3556  -3.2765  -3.2017  -3.0844  -2.9853  -2.9073  -2.7472
    -2.6616  -2.6354  -2.5839  -2.5273  -2.4619  -2.4356  -2.3947  -2.3718
    -2.2935  -2.2525  -2.2295  -2.2082  -2.1540  -2.1247  -2.0897  -2.0042
    -1.9748  -1.9406  -1.8661  -1.8575  -1.8325  -1.8245  -1.7819  -1.7635
    -1.7502  -1.7318  -1.5955  -1.5871  -1.5094  -1.4705  -1.3238  -1.1995
    -1.1351  -1.0652  -1.0506  -0.9684  -0.9328  -0.8532  -0.8344  -0.8044
    -0.7667  -0.6993  -0.6351  -0.6124  -0.5678  -0.5311  -0.3951  -0.3730
    -0.3260  -0.3217  -0.2981  -0.2342  -0.1646  -0.0833  -0.0710  -0.0052
     0.0153   0.0973   0.1795   0.1867   0.2363   0.2599   0.3143   0.3374
     0.3556   0.3890   0.4186   0.4879   0.5511   0.5983   0.6038   0.6369
     0.7042   0.7718   0.8119   0.8451   0.9944   1.0233   1.0372   1.1287
     1.1395   1.2476   1.4062   1.4277   1.6317   1.6329   1.9876   2.0301
     3.4556   3.5857   3.6195   3.6935   3.7788   3.9063   3.9152   4.0425
     4.1618   4.1672

[...]

          k = 0.0380-0.0419 0.0000 ( 17876 PWs)   bands (ev):

[...]

          k =-0.0760-0.0000 0.0000 ( 17886 PWs)   bands (ev):

[...]

          k =-0.0760-0.0839 0.0000 ( 17948 PWs)   bands (ev):

   -55.6744 -55.6732 -55.4739 -55.4598 -55.4572 -55.3267 -55.3021 -55.2938
   -55.2873 -55.2261 -55.1766 -55.0988 -55.0833 -54.9826 -54.5819 -54.5808
   -31.9807 -31.9800 -31.9703 -31.9695 -31.7950 -31.7936 -31.7812 -31.7755
   -31.7423 -31.7218 -31.6944 -31.6880 -31.6840 -31.6692 -31.6531 -31.6483
   -31.6309 -31.6171 -31.6157 -31.6113 -31.5927 -31.5511 -31.5461 -31.5242
   -31.5230 -31.5180 -31.5131 -31.5120 -31.5040 -31.4862 -31.4642 -31.4565
   -31.4292 -31.3888 -31.3751 -31.3524 -31.3407 -31.3255 -31.2977 -31.2851
   -31.2358 -31.1944 -30.9130 -30.9123 -30.8154 -30.8140 -30.7769 -30.7760
   -20.7444 -16.2286 -15.6168 -15.5487 -15.5284 -15.5198 -15.4044 -15.3718
   -15.2399 -15.2389 -15.2161 -15.1570 -15.1468 -15.1157 -15.1082 -15.0831
   -15.0500 -15.0251 -15.0021 -14.9721 -14.9614 -14.9177 -14.8907 -14.8873
   -14.8734 -14.8247 -14.7380 -14.6549 -14.6472 -14.5748 -14.4936 -14.3662
   -13.0840 -13.0833  -7.4014  -6.1142  -5.6785  -5.0255  -3.7368  -3.1192
    -2.8958  -2.7482  -2.7213  -2.5934  -2.5745  -2.4804  -2.4723  -2.4291
    -2.4158  -2.3764  -2.3487  -2.3314  -2.2889  -2.2717  -2.2563  -2.2523
    -2.2338  -2.2032  -2.1948  -2.1906  -2.1816  -2.1519  -2.1249  -2.1104
    -2.0943  -2.0474  -2.0208  -1.9217  -1.8167  -1.7917  -1.7184  -1.7125
    -1.7105  -1.6981  -1.6758  -1.6521  -1.5674  -1.4775  -1.4399  -1.3836
    -1.2093  -1.1953  -1.1724  -1.1508  -1.0935  -1.0459  -1.0170  -0.9652
    -0.9529  -0.9293  -0.8565  -0.7936  -0.7207  -0.7000  -0.6318  -0.5823
    -0.5650  -0.4748  -0.4616  -0.4287  -0.3879  -0.3736  -0.3448  -0.2907
    -0.2758  -0.2566  -0.2283  -0.1900  -0.1545   0.0147   0.1481   0.2113
     0.2294   0.2661   0.3203   0.3858   0.4097   0.5935   0.6063   0.6110
     0.6492   0.7091   0.7347   0.7514   0.8426   0.9570   0.9847   1.0207
     1.0485   1.0681   1.1483   1.2079   1.7986   1.8067   1.8496   1.8504
     3.4571   3.9925   4.0115   4.0131   4.0140   4.1087   4.1335   4.1421
     4.2062   4.2638

     the Fermi energy is     3.4499 ev

!    total energy              =   -2971.49159350 Ry
     estimated scf accuracy    <       0.00000006 Ry
     smearing contrib. (-TS)   =      -0.01886782 Ry
     internal energy E=F+TS    =   -2971.47272567 Ry

     The total energy is F=E-TS. E is the sum of the following terms:
     one-electron contribution =  -23618.63802791 Ry
     hartree contribution      =   11903.17446355 Ry
     xc contribution           =    -492.37005107 Ry
     ewald contribution        =    9236.35874406 Ry
     electric field correction =       0.00214570 Ry

     convergence has been achieved in  74 iterations

     Forces acting on atoms (cartesian axes, Ry/au):

     atom    1 type  1   force =     0.00001373   -0.00040172    0.09767689
     atom    2 type  1   force =    -0.00003968    0.00022409   -0.17213297
     atom    3 type  2   force =     0.00005154   -0.00005219   -0.02535804
     atom    4 type  2   force =     0.00001544   -0.00144610    0.04760133
     atom    5 type  2   force =    -0.00616833   -0.00240159   -0.00085306
     atom    6 type  2   force =     0.00779126   -0.00181913   -0.00151831
     atom    7 type  1   force =    -0.00008619   -0.00483784    0.01886536
     atom    8 type  1   force =     0.00022363    0.01221577    0.02697513
     atom    9 type  2   force =    -0.00010470   -0.00016908   -0.00009702
     atom   10 type  2   force =    -0.00111849    0.00132041   -0.02498679
     atom   11 type  2   force =     0.00014364   -0.00003393    0.00007614
     atom   12 type  2   force =     0.00006017   -0.00003743    0.00000164
     atom   13 type  1   force =     0.00034629   -0.00021275   -0.00022164
     atom   14 type  1   force =     0.00005195   -0.00014327   -0.00021143
     atom   15 type  2   force =    -0.00029895   -0.00018924   -0.00026547
     atom   16 type  2   force =    -0.00002962   -0.00013283   -0.00044997
     atom   17 type  2   force =    -0.00013816   -0.00006060   -0.00002421
     atom   18 type  2   force =     0.00002956   -0.00017266   -0.00003463
     atom   19 type  1   force =    -0.00018048   -0.00001110   -0.00042999
     atom   20 type  1   force =    -0.00019027   -0.00019823    0.00007116
     atom   21 type  2   force =     0.00005658    0.00008801    0.10223889
     atom   22 type  2   force =     0.00008835    0.00003967   -0.00015579
     atom   23 type  2   force =    -0.07351941   -0.00015745   -0.02809484
     atom   24 type  2   force =     0.07343787    0.00028541   -0.02816994
     atom   25 type  1   force =     0.00014014   -0.00033303    0.09746578
     atom   26 type  1   force =    -0.00004063   -0.00130964   -0.17226916
     atom   27 type  2   force =     0.00009431   -0.00030268   -0.02399650
     atom   28 type  2   force =     0.00004223    0.00031193    0.04322781
     atom   29 type  2   force =    -0.00506005    0.00403198   -0.00277612
     atom   30 type  2   force =     0.00656989    0.00442095   -0.00333301
     atom   31 type  1   force =     0.00001014    0.00579950    0.00689178
     atom   32 type  1   force =     0.00029148   -0.01518730    0.02655791
     atom   33 type  2   force =     0.00038316   -0.00004225    0.00011379
     atom   34 type  2   force =    -0.00138477    0.00100079   -0.02672476
     atom   35 type  2   force =     0.00037220    0.00005417    0.00004343
     atom   36 type  2   force =    -0.00028278   -0.00006033   -0.00007632
     atom   37 type  1   force =     0.00009923   -0.00052089   -0.00014737
     atom   38 type  1   force =     0.00024624    0.00013296    0.00007161
     atom   39 type  2   force =    -0.00012880   -0.00016318   -0.00005293
     atom   40 type  2   force =     0.00005559    0.00002929   -0.00009948
     atom   41 type  2   force =    -0.00014710    0.00007759   -0.00014920
     atom   42 type  2   force =    -0.00026574   -0.00010154    0.00003309
     atom   43 type  1   force =    -0.00010751    0.00021654   -0.00074528
     atom   44 type  1   force =    -0.00022833    0.00041003    0.00007373
     atom   45 type  2   force =     0.00004935   -0.00008189    0.10203997
     atom   46 type  2   force =    -0.07355786   -0.00008041   -0.02813202
     atom   47 type  2   force =     0.07346411    0.00035868   -0.02817920
     atom   48 type  3   force =     0.00059838   -0.00015097   -0.00100259
     atom   49 type  3   force =    -0.00014507   -0.00027088    0.00011312
     atom   50 type  4   force =     0.00225356   -0.00103851   -0.00242266
     atom   51 type  5   force =    -0.00326018    0.00099995    0.00305346
     atom   52 type  5   force =    -0.00071207    0.00006394    0.00031372
     atom   53 type  2   force =     0.00035862    0.00069452   -0.00017411
     atom   54 type  5   force =    -0.00014350   -0.00065553   -0.00022093

     Total force =     0.365014     Total SCF correction =     0.000740
  @ DRIVER MODE: Message from server: STATUS
  @ DRIVER MODE: Message from server: GETFORCE
  @ DRIVER MODE: Returning v,forces,stress,ensemble

     Writing output data file ./calc.save/
  @ DRIVER MODE: Message from server: EXIT
  @ DRIVE MODE: Exiting

     General routines

     Parallel routines

   This run was terminated on:  20:12:58  23Sep2021

   JOB DONE.