     Program PWSCF v.6.7GPU starts on  3Aug2021 at  1:18:54

     R & G space division:  proc/nbgrp/npool/nimage =      16
     Reading input from /storage/home/hcoda1/3/ntian30/research/carbon/02Aug_vib_paired/ads_slab/CH3NH3_a/out_0043/pw.inp
Warning: card &CELL ignored
Warning: card   CELL_DYNAMICS='IPI', ignored
Warning: card / ignored

     Current dimensions of program PWSCF are:
     Max number of different atomic species (ntypx) = 10
     Max number of k-points (npk) =  40000
     Max angular momentum in pseudopotentials (lmaxx) =  3
     Presently no symmetry can be used with electric field

     Message from routine cell_base_init:
     DEPRECATED: use true lattice parameter, not A to a.u. conversion factor

     IMPORTANT: XC functional enforced from input :
     Exchange-correlation= BEEF-VDW
                           (   1   4  43  14   2   0   0)
     Any further DFT definition will be discarded
     Please, verify this is what you really want

  @ DRIVER MODE: Connecting to
 qe_1139763_2482539.sched-torque.pace.gatech.eduuzlgcuzd_scratch
  using UNIX socket
  @ DRIVER MODE: Message from server: STATUS
  @ DRIVER MODE: Message from server: INIT
  @ DRIVER MODE: Receiving replica           0          -1
  @ DRIVER MODE: Receiving encoded integer          25
  @ DRIVER MODE:  SCF:  T  FORCE:  T  STRESS:  F  VC:  F  ENSEMBLE:  F
  @ DRIVER MODE:  SCF:  T  FORCE:  T  STRESS:  F  VC:  F  ENSEMBLE:  F

     Using Slab Decomposition

     bravais-lattice index     =            0
     lattice parameter (alat)  =       1.8897  a.u.
     unit-cell volume          =    6658.9804 (a.u.)^3
     number of atoms/cell      =           55
     number of atomic types    =            5
     number of electrons       =       393.00
     number of Kohn-Sham states=          206
     kinetic-energy cutoff     =      29.3995  Ry
     charge density cutoff     =     293.9946  Ry
     scf convergence threshold =      7.3E-08
     mixing beta               =       0.0500
     number of iterations used =            8  plain     mixing
     Exchange-correlation= BEEF-VDW
                           (   1   4  43  14   2   0   0)

     celldm(1)=   1.889726  celldm(2)=   0.000000  celldm(3)=   0.000000
     celldm(4)=   0.000000  celldm(5)=   0.000000  celldm(6)=   0.000000

     crystal axes: (cart. coord. in units of alat)
               a(1) = (   6.579727   0.000000   0.000000 )
               a(2) = (  -0.000775   5.961596   0.000000 )
               a(3) = (   0.000000   0.000000  25.155947 )

     reciprocal axes: (cart. coord. in units 2 pi/alat)
               b(1) = (  0.151982  0.000020  0.000000 )
               b(2) = (  0.000000  0.167740  0.000000 )
               b(3) = (  0.000000  0.000000  0.039752 )

     PseudoPot. # 1 for Ti read from file:
     /storage/coda1/p-amedford6/0/shared/rich_project_chbe-medford/medford-share/data/pseudos_module/espresso/nninc/pbe/van/Ti.UPF
     MD5 check sum: 8e4df49b7f0d34bbd5052bf3f5ea0213
     Pseudo is Ultrasoft, Zval = 12.0
     Generated by new atomic code, or converted to UPF format
     Using radial grid of  851 points,  6 beta functions with:
                l(1) =   0
                l(2) =   0
                l(3) =   1
                l(4) =   1
                l(5) =   2
                l(6) =   2
     Q(r) pseudized with  8 coefficients,  rinner =    1.000   1.000   1.000
                                                       1.000   1.000

     PseudoPot. # 2 for O  read from file:
     /storage/coda1/p-amedford6/0/shared/rich_project_chbe-medford/medford-share/data/pseudos_module/espresso/nninc/pbe/van/O.UPF
     MD5 check sum: 78c19812648e8988a0fe644b0f25305e
     Pseudo is Ultrasoft, Zval =  6.0
     Generated by new atomic code, or converted to UPF format
     Using radial grid of  737 points,  4 beta functions with:
                l(1) =   0
                l(2) =   0
                l(3) =   1
                l(4) =   1
     Q(r) pseudized with  8 coefficients,  rinner =    0.800   0.800   0.800

     PseudoPot. # 3 for C  read from file:
     /storage/coda1/p-amedford6/0/shared/rich_project_chbe-medford/medford-share/data/pseudos_module/espresso/nninc/pbe/van/C.UPF
     MD5 check sum: 1a69bf6b8db32088f5b2163dbdb77a27
     Pseudo is Ultrasoft, Zval =  4.0
     Generated by new atomic code, or converted to UPF format
     Using radial grid of  721 points,  4 beta functions with:
                l(1) =   0
                l(2) =   0
                l(3) =   1
                l(4) =   1
     Q(r) pseudized with  8 coefficients,  rinner =    0.800   0.800   0.800

     PseudoPot. # 4 for H  read from file:
     /storage/coda1/p-amedford6/0/shared/rich_project_chbe-medford/medford-share/data/pseudos_module/espresso/nninc/pbe/van/H.UPF
     MD5 check sum: b5ee9d7bfd3a09ee7748110bda690ff7
     Pseudo is Ultrasoft, Zval =  1.0
     Generated by new atomic code, or converted to UPF format
     Using radial grid of  615 points,  1 beta functions with:
                l(1) =   0
     Q(r) pseudized with  8 coefficients,  rinner =    0.800

     PseudoPot. # 5 for N  read from file:
     /storage/coda1/p-amedford6/0/shared/rich_project_chbe-medford/medford-share/data/pseudos_module/espresso/nninc/pbe/van/N.UPF
     MD5 check sum: 90d10febe142ad51ac9d5be1deb811c4
     Pseudo is Ultrasoft, Zval =  5.0
     Generated by new atomic code, or converted to UPF format
     Using radial grid of  729 points,  4 beta functions with:
                l(1) =   0
                l(2) =   0
                l(3) =   1
                l(4) =   1
     Q(r) pseudized with  8 coefficients,  rinner =    0.800   0.800   0.800

     atomic species   valence    mass     pseudopotential
        Ti1           12.00    47.86700     Ti( 1.00)
        O1             6.00    15.99900     O ( 1.00)
        C1             4.00    12.01100     C ( 1.00)
        H1             1.00     1.00800     H ( 1.00)
        N1             5.00    14.00700     N ( 1.00)

     No symmetry found

   Cartesian axes

     site n.     atom                  positions (alat units)
         1           Ti1 tau(   1) = (   0.0004258   2.9801865   6.0000000  )
         2           Ti1 tau(   2) = (   3.2906075   1.4906267   6.0002472  )
         3           O1  tau(   3) = (   0.0006271   0.0005054   7.9858123  )
         4           O1  tau(   4) = (   3.2906025   0.0005020   7.3038282  )
         5           O1  tau(   5) = (   4.5942328   1.4918067   9.2879030  )
         6           O1  tau(   6) = (   1.9868534   1.4903216   9.2879459  )
         7           Ti1 tau(   7) = (   3.2907910   2.8959150   9.1758416  )
         8           Ti1 tau(   8) = (   0.0015273   1.4827037   9.2680791  )
         9           O1  tau(   9) = (   3.2981156   0.0012339  11.3300471  )
        10           O1  tau(  10) = (   0.0116148   5.9584955  10.6183126  )
        11           O1  tau(  11) = (   1.3033605   1.5036236  12.6199488  )
        12           O1  tau(  12) = (   5.2811161   1.5074500  12.6162500  )
        13           Ti1 tau(  13) = (   0.0407500   2.9455431  12.6352795  )
        14           Ti1 tau(  14) = (   3.3444429   1.4910927  12.4779025  )
        15           O1  tau(  15) = (   0.0052662   0.0451097  14.6026341  )
        16           O1  tau(  16) = (   3.2946143   0.0124870  13.9210852  )
        17           O1  tau(  17) = (   4.5465206   1.5046604  16.0624161  )
        18           O1  tau(  18) = (   2.0546879   1.5048301  16.0609706  )
        19           Ti1 tau(  19) = (   3.2991624   2.9918142  15.6995589  )
        20           Ti1 tau(  20) = (   6.5707204   1.4025535  15.8059435  )
        21           O1  tau(  21) = (   3.2904802   0.0005063   4.7018136  )
        22           O1  tau(  22) = (   0.0164654   0.0145536  17.1360041  )
        23           O1  tau(  23) = (   1.3043587   1.4918075   6.0039043  )
        24           O1  tau(  24) = (   5.2767064   1.4903225   6.0039473  )
        25           Ti1 tau(  25) = (   0.0000382   5.9609847   6.0000000  )
        26           Ti1 tau(  26) = (   3.2902200   4.4714249   6.0002472  )
        27           O1  tau(  27) = (   0.0002396   2.9813036   7.9858123  )
        28           O1  tau(  28) = (   3.2902150   2.9813002   7.3038282  )
        29           O1  tau(  29) = (   4.5938453   4.4726049   9.2879030  )
        30           O1  tau(  30) = (   1.9864658   4.4711199   9.2879459  )
        31           Ti1 tau(  31) = (   3.2891106   5.8743827   9.1763621  )
        32           Ti1 tau(  32) = (   0.0006254   4.4649316   9.2693709  )
        33           O1  tau(  33) = (   3.2977166   2.9913250  11.3287690  )
        34           O1  tau(  34) = (   0.0092240   2.9805883  10.6323155  )
        35           O1  tau(  35) = (   1.3008534   4.4801743  12.6308489  )
        36           O1  tau(  36) = (   5.2850400   4.4860598  12.6280017  )
        37           Ti1 tau(  37) = (   0.0409916   5.9178611  12.5441859  )
        38           Ti1 tau(  38) = (   3.3442415   4.4710906  12.4862270  )
        39           O1  tau(  39) = (   0.0109228   2.9791018  14.7123696  )
        40           O1  tau(  40) = (   3.2998940   2.9912248  13.9043662  )
        41           O1  tau(  41) = (   4.5474046   4.4713503  16.0779382  )
        42           O1  tau(  42) = (   2.0618872   4.4767818  16.0643778  )
        43           Ti1 tau(  43) = (   3.2722838   0.0128901  15.7174356  )
        44           Ti1 tau(  44) = (   6.5592075   4.4947239  16.1563676  )
        45           O1  tau(  45) = (   3.2900926   2.9813045   4.7018136  )
        46           O1  tau(  46) = (   1.3039711   4.4726057   6.0039043  )
        47           O1  tau(  47) = (   5.2763189   4.4711207   6.0039473  )
        48           C1  tau(  48) = (   0.0359503   3.0870652  17.8341721  )
        49           H1  tau(  49) = (   5.8142062   3.6010452  18.3763092  )
        50           H1  tau(  50) = (   6.4784518   2.0305676  18.0614951  )
        51           H1  tau(  51) = (   0.9863100   3.3782628  18.2908018  )
        52           N1  tau(  52) = (   4.7642638   1.7931862  21.6370373  )
        53           H1  tau(  53) = (   4.5527921   2.7808570  21.5386679  )
        54           H1  tau(  54) = (   4.1042548   1.2952780  21.0483319  )
        55           H1  tau(  55) = (   4.5335699   1.5432347  22.5953497  )

     number of k points=    10  Fermi-Dirac smearing, width (Ry)=  0.0073
                       cart. coord. in units 2pi/alat
        k(    1) = (   0.0000000   0.0000000   0.0000000), wk =   0.1250000
        k(    2) = (   0.0000000   0.0419351   0.0000000), wk =   0.2500000
        k(    3) = (   0.0000000  -0.0838702   0.0000000), wk =   0.1250000
        k(    4) = (   0.0379955   0.0000049   0.0000000), wk =   0.2500000
        k(    5) = (   0.0379955   0.0419400   0.0000000), wk =   0.2500000
        k(    6) = (   0.0379955  -0.0838652   0.0000000), wk =   0.2500000
        k(    7) = (   0.0379955  -0.0419301   0.0000000), wk =   0.2500000
        k(    8) = (  -0.0759910  -0.0000099   0.0000000), wk =   0.1250000
        k(    9) = (  -0.0759910   0.0419252   0.0000000), wk =   0.2500000
        k(   10) = (  -0.0759910  -0.0838800   0.0000000), wk =   0.1250000

     Initial potential from superposition of free atoms

     starting charge  376.99914, renormalised to  393.00000

     negative rho (up, down):  1.000E-02 0.000E+00

     %%%%%%%%%%%%%%%%%%%%%%%%%%%%%%%%%%%%%%%%%%%%%%%%%%%%%%%%%%%%%%%%%%%%%%%%
     %                                                                      %
     % You are using vdW-DF, which was implemented by the Thonhauser group. %
     % Please cite the following two papers that made this development      %
     % possible and the two reviews that describe the various versions:     %
     %                                                                      %
     %   T. Thonhauser et al., PRL 115, 136402 (2015).                      %
     %   T. Thonhauser et al., PRB 76, 125112 (2007).                       %
     %   K. Berland et al., Rep. Prog. Phys. 78, 066501 (2015).             %
     %   D.C. Langreth et al., J. Phys.: Condens. Matter 21, 084203 (2009). %
     %                                                                      %
     %                                                                      %
     % If you are calculating the stress with vdW-DF, please also cite:     %
     %                                                                      %
     %   R. Sabatini et al., J. Phys.: Condens. Matter 24, 424209 (2012).   %
     %                                                                      %
     %%%%%%%%%%%%%%%%%%%%%%%%%%%%%%%%%%%%%%%%%%%%%%%%%%%%%%%%%%%%%%%%%%%%%%%%

     Adding external electric field

     Computed dipole along edir(3) :
        Dipole               -9.0616 Ry au,        -23.0322 Debye
        Dipole field         -0.0171 Ry au,

        Potential amp.        1.5852 Ry
        Total length         46.3494 bohr

     Starting wfcs are  298 atomic wfcs
  @ DRIVER MODE: Message from server: STATUS
  @ DRIVER MODE: Message from server: POSDATA
  @ DRIVER MODE: Reading and sharing cell
  @ DRIVER MODE: Reading and sharing positions
  @ DRIVER MODE: Received positions

     Self-consistent Calculation

     iteration #  1     ecut=    29.40 Ry     beta= 0.05
     Davidson diagonalization with overlap
     c_bands:  1 eigenvalues not converged
     c_bands:  1 eigenvalues not converged
     c_bands:  1 eigenvalues not converged
     ethr =  1.00E-05,  avg # of iterations = 17.8

[...]

     total energy              =   -2692.43548581 Ry
     estimated scf accuracy    <    2566.21698954 Ry

[...]

     iteration #  3     ecut=    29.40 Ry     beta= 0.05
     Davidson diagonalization with overlap
     ethr =  1.00E-02,  avg # of iterations = 16.3

[...]

     iteration # 42     ecut=    29.40 Ry     beta= 0.05
     Davidson diagonalization with overlap
     c_bands:  1 eigenvalues not converged
     ethr =  1.33E-07,  avg # of iterations = 11.5

[...]

     total energy              =   -2922.78955608 Ry
     estimated scf accuracy    <       0.00000009 Ry

     iteration # 64     ecut=    29.40 Ry     beta= 0.05
     Davidson diagonalization with overlap
     ethr =  2.11E-11,  avg # of iterations =  5.5

     negative rho (up, down):  1.131E-02 0.000E+00

     Adding external electric field

     Computed dipole along edir(3) :
        Dipole                0.5487 Ry au,          1.3946 Debye
        Dipole field          0.0010 Ry au,

        Potential amp.       -0.0960 Ry
        Total length         46.3494 bohr

     End of self-consistent calculation

          k = 0.0000 0.0000 0.0000 ( 18029 PWs)   bands (ev):

   -56.0346 -56.0306 -56.0005 -55.9942 -55.9020 -55.8673 -55.8669 -55.8424
   -55.8239 -55.8085 -55.8033 -55.7696 -55.5691 -55.4023 -55.0099 -54.9759
   -32.5890 -32.5166 -32.3616 -32.3556 -32.3417 -32.3406 -32.3276 -32.2940
   -32.2771 -32.2400 -32.2341 -32.2334 -32.2101 -32.1868 -32.1738 -32.1676
   -32.1385 -32.1358 -32.1217 -32.0918 -32.0816 -32.0706 -32.0391 -32.0341
   -32.0299 -32.0282 -32.0139 -32.0125 -32.0057 -31.9805 -31.9800 -31.9776
   -31.9726 -31.9718 -31.9564 -31.9473 -31.9156 -31.8479 -31.7833 -31.6900
   -31.6307 -31.5198 -31.4170 -31.3288 -31.3064 -31.2337 -31.1472 -31.0362
   -16.7690 -16.5057 -16.2736 -16.1831 -16.1333 -16.0468 -15.8693 -15.7528
   -15.7043 -15.6034 -15.5709 -15.5510 -15.5344 -15.5040 -15.4957 -15.4707
   -15.4595 -15.4531 -15.4186 -15.3906 -15.3654 -15.3508 -15.2309 -15.1786
   -15.1625 -15.1313 -15.0833 -15.0672 -14.6124 -13.6560 -13.5126 -13.3963
    -9.0487  -4.1437  -3.9635  -3.9382  -3.8898  -3.8480  -3.7022  -3.6848
    -3.6455  -3.5851  -3.2675  -3.2103  -3.2021  -3.1613  -3.1466  -2.9892
    -2.9247  -2.8511  -2.8345  -2.8289  -2.8035  -2.7983  -2.7935  -2.7509
    -2.7084  -2.6530  -2.6293  -2.5596  -2.5177  -2.4445  -2.3716  -2.3443
    -2.3018  -2.2989  -2.2627  -2.2506  -2.2424  -2.2324  -2.1967  -2.1813
    -2.0020  -1.9513  -1.8828  -1.8172  -1.8027  -1.6389  -1.5321  -1.4842
    -1.4657  -1.4587  -1.4403  -1.4236  -1.3278  -1.2097  -1.1768  -1.1272
    -1.0795  -1.0310  -1.0010  -0.9006  -0.8841  -0.7931  -0.7797  -0.7612
    -0.6499  -0.6257  -0.4919  -0.4703  -0.4645  -0.4043  -0.3887  -0.3159
    -0.2917  -0.2351  -0.1701  -0.1579  -0.0897  -0.0637  -0.0605  -0.0037
     0.0008   0.0461   0.0607   0.1703   0.2261   0.2755   0.3294   0.4360
     0.5158   0.6302   0.6770   0.7363   0.9381   1.0117   1.1211   1.1820
     1.2047   1.4542   1.5830   1.6285   3.1041   3.1891   3.2108   3.2366
     3.3442   3.3691   3.5546   3.5714   3.6057   3.6257

[...]

          k = 0.0380-0.0419 0.0000 ( 17876 PWs)   bands (ev):

[...]

          k =-0.0760-0.0000 0.0000 ( 17886 PWs)   bands (ev):

[...]

          k =-0.0760-0.0839 0.0000 ( 17948 PWs)   bands (ev):

   -56.0180 -56.0170 -56.0153 -56.0094 -55.8871 -55.8821 -55.8585 -55.8324
   -55.8260 -55.8242 -55.7877 -55.7853 -55.5676 -55.4037 -54.9930 -54.9927
   -32.3949 -32.3885 -32.3322 -32.3316 -32.3134 -32.3125 -32.2938 -32.2890
   -32.2228 -32.2218 -32.2188 -32.2079 -32.1677 -32.1666 -32.1474 -32.1430
   -32.1388 -32.1375 -32.1364 -32.1282 -32.1270 -32.1241 -32.0885 -32.0780
   -32.0734 -32.0512 -32.0470 -32.0332 -32.0243 -32.0234 -32.0195 -32.0175
   -32.0022 -32.0008 -31.9970 -31.9908 -31.9258 -31.8309 -31.7855 -31.6927
   -31.6751 -31.5641 -31.3192 -31.3190 -31.2299 -31.2297 -31.1905 -31.1904
   -16.2109 -16.1879 -15.9816 -15.9473 -15.9439 -15.9368 -15.8060 -15.7257
   -15.7252 -15.6993 -15.6382 -15.6268 -15.6050 -15.5665 -15.5421 -15.5397
   -15.5210 -15.5160 -15.4898 -15.4797 -15.4669 -15.4596 -15.3670 -15.3475
   -15.3436 -15.2939 -15.1488 -15.0022 -14.8930 -13.6553 -13.4982 -13.4980
    -9.0631  -3.7168  -3.6833  -3.5071  -3.4758  -3.2334  -3.1951  -3.1820
    -3.1130  -2.9565  -2.9169  -2.8989  -2.8913  -2.8469  -2.8393  -2.8341
    -2.8224  -2.7942  -2.7770  -2.7399  -2.7338  -2.7184  -2.7112  -2.6999
    -2.6828  -2.6530  -2.6444  -2.6135  -2.6088  -2.5882  -2.5720  -2.5441
    -2.5392  -2.4115  -2.2526  -2.2289  -2.1681  -2.1606  -2.1141  -2.1013
    -2.0949  -2.0675  -2.0382  -2.0112  -1.8519  -1.7410  -1.7264  -1.7097
    -1.6409  -1.6132  -1.5281  -1.4379  -1.3969  -1.3787  -1.3106  -1.3069
    -1.2569  -1.2323  -1.2114  -1.1440  -1.0875  -1.0503  -0.9934  -0.9873
    -0.9792  -0.9089  -0.8666  -0.7917  -0.7830  -0.7460  -0.7110  -0.6557
    -0.6214  -0.6103  -0.5202  -0.4877  -0.3754  -0.3266  -0.0682  -0.0199
     0.0331   0.0611   0.1265   0.1844   0.1885   0.2857   0.2895   0.3262
     0.4054   0.4268   0.4976   0.5169   0.5668   0.7287   1.2772   1.3758
     1.3766   1.4449   1.4481   1.4487   3.4021   3.4138   3.4209   3.4655
     3.6106   3.6153   3.6340   3.6357   3.7743   3.7928

     the Fermi energy is     3.1007 ev

!    total energy              =   -2922.78958211 Ry
     estimated scf accuracy    <       0.00000003 Ry
     smearing contrib. (-TS)   =      -0.02169446 Ry
     internal energy E=F+TS    =   -2922.76788765 Ry

     The total energy is F=E-TS. E is the sum of the following terms:
     one-electron contribution =  -23651.32482235 Ry
     hartree contribution      =   11909.87172350 Ry
     xc contribution           =    -482.26187982 Ry
     ewald contribution        =    9300.94652288 Ry
     electric field correction =       0.00056815 Ry

     convergence has been achieved in  64 iterations

     Forces acting on atoms (cartesian axes, Ry/au):

     atom    1 type  1   force =     0.00004988   -0.00022595    0.09685268
     atom    2 type  1   force =    -0.00017600   -0.00055320   -0.17514848
     atom    3 type  2   force =     0.00002284   -0.00005090   -0.02503479
     atom    4 type  2   force =     0.00002778   -0.00139857    0.05263372
     atom    5 type  2   force =    -0.01205355   -0.00051145    0.00330237
     atom    6 type  2   force =     0.01377964    0.00008472    0.00270169
     atom    7 type  1   force =    -0.00058120    0.00057090   -0.01156632
     atom    8 type  1   force =     0.00020569    0.01201073    0.02898688
     atom    9 type  2   force =    -0.00029795    0.00057113    0.00057330
     atom   10 type  2   force =    -0.00153428    0.00252255   -0.01947608
     atom   11 type  2   force =    -0.00017858   -0.00037599   -0.00014038
     atom   12 type  2   force =    -0.00090344    0.00003272   -0.00029385
     atom   13 type  1   force =     0.00055405   -0.00096425    0.00110160
     atom   14 type  1   force =     0.00145467    0.00057702   -0.00067791
     atom   15 type  2   force =    -0.00013924   -0.00105953    0.00039990
     atom   16 type  2   force =    -0.00021008   -0.00020134   -0.00146650
     atom   17 type  2   force =    -0.00065242    0.00074708   -0.00000909
     atom   18 type  2   force =     0.00048431    0.00092741    0.00002526
     atom   19 type  1   force =    -0.00019409   -0.00112700    0.00061882
     atom   20 type  1   force =    -0.00011366    0.00046724   -0.00006238
     atom   21 type  2   force =     0.00004715   -0.00003966    0.10321834
     atom   22 type  2   force =     0.00027099   -0.00029665    0.00093951
     atom   23 type  2   force =    -0.07156430   -0.00014427   -0.02770011
     atom   24 type  2   force =     0.07145695    0.00026976   -0.02773052
     atom   25 type  1   force =     0.00005583   -0.00028667    0.09644443
     atom   26 type  1   force =    -0.00019592   -0.00029108   -0.17537531
     atom   27 type  2   force =     0.00008550   -0.00017058   -0.02382633
     atom   28 type  2   force =     0.00004391   -0.00113838    0.05271568
     atom   29 type  2   force =    -0.01209334    0.00085235    0.00276906
     atom   30 type  2   force =     0.01373622    0.00123913    0.00218705
     atom   31 type  1   force =    -0.00046967    0.00303980   -0.01242666
     atom   32 type  1   force =     0.00018768   -0.01423173    0.02939759
     atom   33 type  2   force =    -0.00023259   -0.00062619    0.00042878
     atom   34 type  2   force =    -0.00098297    0.00176511   -0.02267930
     atom   35 type  2   force =    -0.00066489   -0.00060754   -0.00011966
     atom   36 type  2   force =     0.00002384   -0.00015070   -0.00033511
     atom   37 type  1   force =     0.00064952    0.00027423    0.00056386
     atom   38 type  1   force =     0.00150428    0.00018586   -0.00067243
     atom   39 type  2   force =     0.00006441    0.00013801   -0.00125158
     atom   40 type  2   force =    -0.00034932   -0.00010289    0.00176224
     atom   41 type  2   force =    -0.00076578   -0.00106298   -0.00011388
     atom   42 type  2   force =     0.00027556   -0.00146463    0.00027122
     atom   43 type  1   force =     0.00022348    0.00066798    0.00108733
     atom   44 type  1   force =     0.00044787   -0.00024154    0.00070675
     atom   45 type  2   force =     0.00005609   -0.00009134    0.10319102
     atom   46 type  2   force =    -0.07154775   -0.00011573   -0.02770246
     atom   47 type  2   force =     0.07145390    0.00031605   -0.02773569
     atom   48 type  3   force =     0.00030096    0.00086395   -0.00064619
     atom   49 type  4   force =    -0.00080423    0.00000992   -0.00049027
     atom   50 type  4   force =    -0.00031626   -0.00055786    0.00098622
     atom   51 type  4   force =    -0.00080057   -0.00013892   -0.00023080
     atom   52 type  5   force =    -0.00141793   -0.00176560    0.00360147
     atom   53 type  4   force =     0.00054372    0.00016185   -0.00066860
     atom   54 type  4   force =     0.00009658    0.00046550   -0.00115278
     atom   55 type  4   force =     0.00113673    0.00123211   -0.00273329

     Total force =     0.368399     Total SCF correction =     0.000240
  @ DRIVER MODE: Message from server: STATUS
  @ DRIVER MODE: Message from server: GETFORCE
  @ DRIVER MODE: Returning v,forces,stress,ensemble

     Writing output data file ./calc.save/
  @ DRIVER MODE: Message from server: EXIT
  @ DRIVE MODE: Exiting

     General routines

     Parallel routines

   This run was terminated on:   1:33:45   3Aug2021

   JOB DONE.