     Program PWSCF v.6.7GPU starts on 16Jul2021 at 20: 0:49

     R & G space division:  proc/nbgrp/npool/nimage =      16
     Reading input from /storage/home/hcoda1/3/ntian30/research/carbon/15Jul_vib/ads_slab/CH3NNHH_a/out_0042/pw.inp
Warning: card &CELL ignored
Warning: card   CELL_DYNAMICS='IPI', ignored
Warning: card / ignored

     Current dimensions of program PWSCF are:
     Max number of different atomic species (ntypx) = 10
     Max number of k-points (npk) =  40000
     Max angular momentum in pseudopotentials (lmaxx) =  3
     Presently no symmetry can be used with electric field

     Message from routine cell_base_init:
     DEPRECATED: use true lattice parameter, not A to a.u. conversion factor

     IMPORTANT: XC functional enforced from input :
     Exchange-correlation= BEEF-VDW
                           (   1   4  43  14   2   0   0)
     Any further DFT definition will be discarded
     Please, verify this is what you really want

  @ DRIVER MODE: Connecting to
 qe_1139763_2351651.sched-torque.pace.gatech.edueofssdlk_scratch
  using UNIX socket
  @ DRIVER MODE: Message from server: STATUS
  @ DRIVER MODE: Message from server: INIT
  @ DRIVER MODE: Receiving replica           0          -1
  @ DRIVER MODE: Receiving encoded integer          25
  @ DRIVER MODE:  SCF:  T  FORCE:  T  STRESS:  F  VC:  F  ENSEMBLE:  F
  @ DRIVER MODE:  SCF:  T  FORCE:  T  STRESS:  F  VC:  F  ENSEMBLE:  F

     Using Slab Decomposition

     bravais-lattice index     =            0
     lattice parameter (alat)  =       1.8897  a.u.
     unit-cell volume          =    6658.9804 (a.u.)^3
     number of atoms/cell      =           55
     number of atomic types    =            5
     number of electrons       =       397.00
     number of Kohn-Sham states=          208
     kinetic-energy cutoff     =      29.3995  Ry
     charge density cutoff     =     293.9946  Ry
     scf convergence threshold =      7.3E-08
     mixing beta               =       0.0500
     number of iterations used =            8  plain     mixing
     Exchange-correlation= BEEF-VDW
                           (   1   4  43  14   2   0   0)

     celldm(1)=   1.889726  celldm(2)=   0.000000  celldm(3)=   0.000000
     celldm(4)=   0.000000  celldm(5)=   0.000000  celldm(6)=   0.000000

     crystal axes: (cart. coord. in units of alat)
               a(1) = (   6.579727   0.000000   0.000000 )
               a(2) = (  -0.000775   5.961596   0.000000 )
               a(3) = (   0.000000   0.000000  25.155947 )

     reciprocal axes: (cart. coord. in units 2 pi/alat)
               b(1) = (  0.151982  0.000020  0.000000 )
               b(2) = (  0.000000  0.167740  0.000000 )
               b(3) = (  0.000000  0.000000  0.039752 )

     PseudoPot. # 1 for Ti read from file:
     /storage/coda1/p-amedford6/0/shared/rich_project_chbe-medford/medford-share/data/pseudos_module/espresso/nninc/pbe/van/Ti.UPF
     MD5 check sum: 8e4df49b7f0d34bbd5052bf3f5ea0213
     Pseudo is Ultrasoft, Zval = 12.0
     Generated by new atomic code, or converted to UPF format
     Using radial grid of  851 points,  6 beta functions with:
                l(1) =   0
                l(2) =   0
                l(3) =   1
                l(4) =   1
                l(5) =   2
                l(6) =   2
     Q(r) pseudized with  8 coefficients,  rinner =    1.000   1.000   1.000
                                                       1.000   1.000

     PseudoPot. # 2 for O  read from file:
     /storage/coda1/p-amedford6/0/shared/rich_project_chbe-medford/medford-share/data/pseudos_module/espresso/nninc/pbe/van/O.UPF
     MD5 check sum: 78c19812648e8988a0fe644b0f25305e
     Pseudo is Ultrasoft, Zval =  6.0
     Generated by new atomic code, or converted to UPF format
     Using radial grid of  737 points,  4 beta functions with:
                l(1) =   0
                l(2) =   0
                l(3) =   1
                l(4) =   1
     Q(r) pseudized with  8 coefficients,  rinner =    0.800   0.800   0.800

     PseudoPot. # 3 for N  read from file:
     /storage/coda1/p-amedford6/0/shared/rich_project_chbe-medford/medford-share/data/pseudos_module/espresso/nninc/pbe/van/N.UPF
     MD5 check sum: 90d10febe142ad51ac9d5be1deb811c4
     Pseudo is Ultrasoft, Zval =  5.0
     Generated by new atomic code, or converted to UPF format
     Using radial grid of  729 points,  4 beta functions with:
                l(1) =   0
                l(2) =   0
                l(3) =   1
                l(4) =   1
     Q(r) pseudized with  8 coefficients,  rinner =    0.800   0.800   0.800

     PseudoPot. # 4 for C  read from file:
     /storage/coda1/p-amedford6/0/shared/rich_project_chbe-medford/medford-share/data/pseudos_module/espresso/nninc/pbe/van/C.UPF
     MD5 check sum: 1a69bf6b8db32088f5b2163dbdb77a27
     Pseudo is Ultrasoft, Zval =  4.0
     Generated by new atomic code, or converted to UPF format
     Using radial grid of  721 points,  4 beta functions with:
                l(1) =   0
                l(2) =   0
                l(3) =   1
                l(4) =   1
     Q(r) pseudized with  8 coefficients,  rinner =    0.800   0.800   0.800

     PseudoPot. # 5 for H  read from file:
     /storage/coda1/p-amedford6/0/shared/rich_project_chbe-medford/medford-share/data/pseudos_module/espresso/nninc/pbe/van/H.UPF
     MD5 check sum: b5ee9d7bfd3a09ee7748110bda690ff7
     Pseudo is Ultrasoft, Zval =  1.0
     Generated by new atomic code, or converted to UPF format
     Using radial grid of  615 points,  1 beta functions with:
                l(1) =   0
     Q(r) pseudized with  8 coefficients,  rinner =    0.800

     atomic species   valence    mass     pseudopotential
        Ti1           12.00    47.86700     Ti( 1.00)
        O1             6.00    15.99900     O ( 1.00)
        N1             5.00    14.00700     N ( 1.00)
        C1             4.00    12.01100     C ( 1.00)
        H1             1.00     1.00800     H ( 1.00)

     Starting magnetic structure
     atomic species   magnetization
        Ti1          0.000
        O1           0.000
        N1           0.000
        C1           0.025
        H1           0.000

     No symmetry found

   Cartesian axes

     site n.     atom                  positions (alat units)
         1           Ti1 tau(   1) = (   0.0004258   2.9801865   6.0000000  )
         2           Ti1 tau(   2) = (   3.2906075   1.4906267   6.0002472  )
         3           O1  tau(   3) = (   0.0006271   0.0005054   7.9858123  )
         4           O1  tau(   4) = (   3.2906025   0.0005020   7.3038282  )
         5           O1  tau(   5) = (   4.5942328   1.4918067   9.2879030  )
         6           O1  tau(   6) = (   1.9868534   1.4903216   9.2879459  )
         7           Ti1 tau(   7) = (   3.2907910   2.8959150   9.1758416  )
         8           Ti1 tau(   8) = (   0.0015273   1.4827037   9.2680791  )
         9           O1  tau(   9) = (   3.3020592   5.9599881  11.3075072  )
        10           O1  tau(  10) = (   0.0116148   5.9584955  10.6183126  )
        11           O1  tau(  11) = (   1.3218652   1.4872367  12.6142461  )
        12           O1  tau(  12) = (   5.3149618   1.4866655  12.6283206  )
        13           Ti1 tau(  13) = (   6.5343381   3.0098038  12.6530281  )
        14           Ti1 tau(  14) = (   3.2132235   1.4912063  12.4551521  )
        15           O1  tau(  15) = (   0.0515422   5.9562953  14.6829507  )
        16           O1  tau(  16) = (   3.3088797   0.0214154  13.8770011  )
        17           O1  tau(  17) = (   4.5726725   1.5412406  16.1224456  )
        18           O1  tau(  18) = (   2.0900022   1.5114086  15.9969863  )
        19           Ti1 tau(  19) = (   3.3311046   3.0200058  15.6476981  )
        20           Ti1 tau(  20) = (   0.0790784   1.4105808  15.8036947  )
        21           O1  tau(  21) = (   3.2904802   0.0005063   4.7018136  )
        22           O1  tau(  22) = (   0.0613336   0.0214447  17.2555488  )
        23           O1  tau(  23) = (   1.3043587   1.4918075   6.0039043  )
        24           O1  tau(  24) = (   5.2767064   1.4903225   6.0039473  )
        25           Ti1 tau(  25) = (   0.0000382   5.9609847   6.0000000  )
        26           Ti1 tau(  26) = (   3.2902200   4.4714249   6.0002472  )
        27           O1  tau(  27) = (   0.0002396   2.9813036   7.9858123  )
        28           O1  tau(  28) = (   3.2902150   2.9813002   7.3038282  )
        29           O1  tau(  29) = (   4.5938453   4.4726049   9.2879030  )
        30           O1  tau(  30) = (   1.9864658   4.4711199   9.2879459  )
        31           Ti1 tau(  31) = (   3.2891106   5.8743827   9.1763621  )
        32           Ti1 tau(  32) = (   0.0006254   4.4649316   9.2693709  )
        33           O1  tau(  33) = (   3.3026341   2.9893090  11.3092672  )
        34           O1  tau(  34) = (   0.0092240   2.9805883  10.6323155  )
        35           O1  tau(  35) = (   1.3182942   4.4670451  12.6271195  )
        36           O1  tau(  36) = (   5.3124783   4.4780259  12.6376329  )
        37           Ti1 tau(  37) = (   6.5365500   0.0194685  12.5464133  )
        38           Ti1 tau(  38) = (   3.2155898   4.4753301  12.4613306  )
        39           O1  tau(  39) = (   0.0167368   2.9407051  14.7244952  )
        40           O1  tau(  40) = (   3.3149560   2.9822459  13.8616979  )
        41           O1  tau(  41) = (   4.5706274   4.5128733  15.9228735  )
        42           O1  tau(  42) = (   2.1262058   4.4922812  16.0793225  )
        43           Ti1 tau(  43) = (   3.3222298   0.0210159  15.6751784  )
        44           Ti1 tau(  44) = (   6.5499002   4.5104744  16.2959303  )
        45           O1  tau(  45) = (   3.2900926   2.9813045   4.7018136  )
        46           O1  tau(  46) = (   1.3039711   4.4726057   6.0039043  )
        47           O1  tau(  47) = (   5.2763189   4.4711207   6.0039473  )
        48           N1  tau(  48) = (   0.3735289   2.9861087  17.6038306  )
        49           C1  tau(  49) = (   1.3580301   2.7301661  18.6431808  )
        50           H1  tau(  50) = (   1.5128655   3.6233449  19.2641712  )
        51           H1  tau(  51) = (   1.0354786   1.8978442  19.2795547  )
        52           H1  tau(  52) = (   2.3065860   2.4473273  18.1987077  )
        53           N1  tau(  53) = (   5.7326324   3.4596218  18.1373629  )
        54           H1  tau(  54) = (   5.8436824   4.0267099  18.9848678  )
        55           H1  tau(  55) = (   5.0375616   2.7244768  18.2555579  )

     number of k points=    10  Fermi-Dirac smearing, width (Ry)=  0.0073
                       cart. coord. in units 2pi/alat
        k(    1) = (   0.0000000   0.0000000   0.0000000), wk =   0.0625000
        k(    2) = (   0.0000000   0.0419351   0.0000000), wk =   0.1250000
        k(    3) = (   0.0000000  -0.0838702   0.0000000), wk =   0.0625000
        k(    4) = (   0.0379955   0.0000049   0.0000000), wk =   0.1250000
        k(    5) = (   0.0379955   0.0419400   0.0000000), wk =   0.1250000
        k(    6) = (   0.0379955  -0.0838652   0.0000000), wk =   0.1250000
[...]
     %                                                                      %
     % You are using vdW-DF, which was implemented by the Thonhauser group. %
     % Please cite the following two papers that made this development      %
     % possible and the two reviews that describe the various versions:     %
     %                                                                      %
     %   T. Thonhauser et al., PRL 115, 136402 (2015).                      %
     %   T. Thonhauser et al., PRB 76, 125112 (2007).                       %
     %   K. Berland et al., Rep. Prog. Phys. 78, 066501 (2015).             %
     %   D.C. Langreth et al., J. Phys.: Condens. Matter 21, 084203 (2009). %
     %                                                                      %
     %                                                                      %
     % If you are calculating the stress with vdW-DF, please also cite:     %
     %                                                                      %
     %   R. Sabatini et al., J. Phys.: Condens. Matter 24, 424209 (2012).   %
     %                                                                      %
     %%%%%%%%%%%%%%%%%%%%%%%%%%%%%%%%%%%%%%%%%%%%%%%%%%%%%%%%%%%%%%%%%%%%%%%%

     Adding external electric field

     Computed dipole along edir(3) :
        Dipole               -9.2590 Ry au,        -23.5340 Debye
        Dipole field         -0.0175 Ry au,

        Potential amp.        1.6197 Ry
        Total length         46.3494 bohr

[...]

     Starting wfcs are  301 atomic wfcs
  @ DRIVER MODE: Message from server: STATUS
  @ DRIVER MODE: Message from server: POSDATA
  @ DRIVER MODE: Reading and sharing cell
  @ DRIVER MODE: Reading and sharing positions
  @ DRIVER MODE: Received positions

     Self-consistent Calculation

     iteration #  1     ecut=    29.40 Ry     beta= 0.05
     Davidson diagonalization with overlap
     c_bands:  1 eigenvalues not converged
     c_bands:  2 eigenvalues not converged
     c_bands:  1 eigenvalues not converged
     c_bands:  2 eigenvalues not converged
     c_bands:  2 eigenvalues not converged
     c_bands:  2 eigenvalues not converged
     c_bands:  2 eigenvalues not converged
     c_bands:  1 eigenvalues not converged
     c_bands:  4 eigenvalues not converged
     c_bands:  1 eigenvalues not converged
     c_bands:  2 eigenvalues not converged
     c_bands:  1 eigenvalues not converged
     c_bands:  2 eigenvalues not converged
     c_bands:  2 eigenvalues not converged
     c_bands:  2 eigenvalues not converged
     c_bands:  2 eigenvalues not converged
     c_bands:  1 eigenvalues not converged
     c_bands:  4 eigenvalues not converged
     ethr =  1.00E-05,  avg # of iterations = 19.8

[...]

     total energy              =   -2525.31656050 Ry
     estimated scf accuracy    <    4616.19719593 Ry

     total magnetization       =     0.00 Bohr mag/cell
     absolute magnetization    =     0.03 Bohr mag/cell

     iteration #  2     ecut=    29.40 Ry     beta= 0.05
     Davidson diagonalization with overlap
     ethr =  1.00E-02,  avg # of iterations = 23.6

[...]

     iteration #129     ecut=    29.40 Ry     beta= 0.05
     Davidson diagonalization with overlap
     ethr =  2.00E-11,  avg # of iterations = 10.9

[...]

     total energy              =   -2941.63802740 Ry
     estimated scf accuracy    <       0.00000009 Ry

[...]

     iteration #130     ecut=    29.40 Ry     beta= 0.05
     Davidson diagonalization with overlap
     c_bands:  1 eigenvalues not converged
     ethr =  2.00E-11,  avg # of iterations =  8.8

     negative rho (up, down):  8.390E-03 8.387E-03

[...]

     Adding external electric field

     Computed dipole along edir(3) :
        Dipole                1.1494 Ry au,          2.9215 Debye
        Dipole field          0.0022 Ry au,

        Potential amp.       -0.2011 Ry
        Total length         46.3494 bohr

     Magnetic moment per site  (integrated on atomic sphere of radius R)
     atom   1 (R=0.726)  charge=  7.9409  magn= -0.0206
     atom   2 (R=0.726)  charge=  7.9244  magn= -0.0008
     atom   3 (R=0.726)  charge=  4.9319  magn=  0.0018
     atom   4 (R=0.726)  charge=  4.9681  magn=  0.0002
     atom   5 (R=0.726)  charge=  4.9368  magn=  0.0003
     atom   6 (R=0.726)  charge=  4.9376  magn=  0.0003
     atom   7 (R=0.726)  charge=  7.9229  magn= -0.0008
     atom   8 (R=0.726)  charge=  7.9151  magn= -0.0068
     atom   9 (R=0.726)  charge=  4.9562  magn=  0.0001
     atom  10 (R=0.726)  charge=  4.9310  magn=  0.0006
     atom  11 (R=0.726)  charge=  4.9388  magn=  0.0002
     atom  12 (R=0.726)  charge=  4.9369  magn=  0.0002
     atom  13 (R=0.726)  charge=  7.9088  magn= -0.0014
     atom  14 (R=0.726)  charge=  7.9273  magn= -0.0004
     atom  15 (R=0.726)  charge=  4.9164  magn=  0.0001
     atom  16 (R=0.726)  charge=  4.9542  magn=  0.0000
     atom  17 (R=0.726)  charge=  4.9068  magn=  0.0000
     atom  18 (R=0.726)  charge=  4.9387  magn=  0.0000
     atom  19 (R=0.726)  charge=  7.9528  magn= -0.0000
     atom  20 (R=0.726)  charge=  7.9411  magn= -0.0002
     atom  21 (R=0.726)  charge=  4.8211  magn=  0.0007
     atom  22 (R=0.726)  charge=  4.9006  magn= -0.0000
     atom  23 (R=0.726)  charge=  4.9281  magn=  0.0025
     atom  24 (R=0.726)  charge=  4.9282  magn=  0.0025
     atom  25 (R=0.726)  charge=  7.9408  magn= -0.0206
     atom  26 (R=0.726)  charge=  7.9244  magn= -0.0008
     atom  27 (R=0.726)  charge=  4.9306  magn=  0.0019
     atom  28 (R=0.726)  charge=  4.9683  magn=  0.0002
     atom  29 (R=0.726)  charge=  4.9375  magn=  0.0002
     atom  30 (R=0.726)  charge=  4.9383  magn=  0.0003
     atom  31 (R=0.726)  charge=  7.9236  magn= -0.0008
     atom  32 (R=0.726)  charge=  7.9153  magn= -0.0067
     atom  33 (R=0.726)  charge=  4.9540  magn=  0.0001
     atom  34 (R=0.726)  charge=  4.9049  magn=  0.0007
     atom  35 (R=0.726)  charge=  4.9378  magn=  0.0002
     atom  36 (R=0.726)  charge=  4.9369  magn=  0.0002
     atom  37 (R=0.726)  charge=  7.9159  magn= -0.0015
     atom  38 (R=0.726)  charge=  7.9271  magn= -0.0004
     atom  39 (R=0.726)  charge=  4.9089  magn=  0.0001
     atom  40 (R=0.726)  charge=  4.9620  magn=  0.0000
     atom  41 (R=0.726)  charge=  4.9464  magn=  0.0000
     atom  42 (R=0.726)  charge=  4.9157  magn= -0.0000
     atom  43 (R=0.726)  charge=  7.9490  magn= -0.0000
     atom  44 (R=0.726)  charge=  7.9599  magn= -0.0000
     atom  45 (R=0.726)  charge=  4.8212  magn=  0.0007
     atom  46 (R=0.726)  charge=  4.9281  magn=  0.0025
     atom  47 (R=0.726)  charge=  4.9282  magn=  0.0025
     atom  48 (R=0.420)  charge=  1.3185  magn= -0.0000
     atom  49 (R=0.448)  charge=  0.8405  magn=  0.0000
     atom  50 (R=0.420)  charge=  0.4425  magn= -0.0000
     atom  51 (R=0.420)  charge=  0.4415  magn= -0.0000
     atom  52 (R=0.420)  charge=  0.4495  magn= -0.0000
     atom  53 (R=0.420)  charge=  1.3396  magn= -0.0000
     atom  54 (R=0.420)  charge=  0.4476  magn=  0.0000
     atom  55 (R=0.420)  charge=  0.4509  magn=  0.0000

     End of self-consistent calculation

 ------ SPIN UP ------------

          k = 0.0000 0.0000 0.0000 ( 18029 PWs)   bands (ev):

   -55.5733 -55.5493 -55.5355 -55.5152 -55.4589 -55.4226 -55.4216 -55.3871
   -55.3634 -55.3293 -55.3254 -55.2916 -55.0308 -54.8739 -54.5357 -54.5017
   -32.1355 -32.0419 -31.9574 -31.8912 -31.8871 -31.8608 -31.8391 -31.8180
   -31.8042 -31.7907 -31.7835 -31.7582 -31.7537 -31.7252 -31.7147 -31.6978
   -31.6636 -31.6592 -31.6568 -31.6454 -31.6445 -31.6111 -31.6024 -31.5939
   -31.5691 -31.5669 -31.5615 -31.5541 -31.5526 -31.5289 -31.5029 -31.4974
   -31.4941 -31.4913 -31.4796 -31.4666 -31.4387 -31.3050 -31.2557 -31.1539
   -31.1266 -31.0351 -30.9423 -30.8548 -30.8325 -30.7588 -30.6724 -30.5615
   -17.5697 -16.3610 -16.0484 -15.8340 -15.7255 -15.7220 -15.6375 -15.4165
   -15.2949 -15.2810 -15.1653 -15.1615 -15.1025 -15.0600 -15.0528 -15.0461
   -15.0133 -15.0018 -14.9845 -14.9480 -14.9149 -14.8970 -14.8739 -14.7720
   -14.7052 -14.6996 -14.6813 -14.6165 -14.5689 -14.2082 -13.0386 -12.9224
   -12.5243  -9.1936  -6.3115  -5.0883  -4.1908  -3.7392  -3.5496  -3.4715
    -3.4372  -3.3700  -3.3466  -3.1798  -3.1714  -2.7930  -2.7738  -2.7558
    -2.7345  -2.7312  -2.4620  -2.4096  -2.3944  -2.3905  -2.3726  -2.3559
    -2.3351  -2.3248  -2.2971  -2.2867  -2.1533  -2.1094  -2.0305  -2.0045
    -1.9888  -1.8758  -1.8520  -1.8320  -1.8203  -1.8068  -1.7778  -1.7709
    -1.7491  -1.6406  -1.5314  -1.4520  -1.4120  -1.3596  -1.3387  -1.1622
    -1.1097  -1.0504  -1.0266  -1.0021  -0.9869  -0.9530  -0.8792  -0.8554
    -0.7123  -0.6737  -0.6198  -0.5937  -0.5650  -0.5095  -0.4756  -0.4453
    -0.3501  -0.3374  -0.3266  -0.3136  -0.2574  -0.0662  -0.0176   0.0013
     0.0165   0.1157   0.1554   0.1793   0.2142   0.2704   0.2994   0.3639
     0.3922   0.4122   0.4231   0.4521   0.4686   0.6006   0.6249   0.6566
     0.7180   0.7716   0.8470   0.9589   1.0418   1.0991   1.2002   1.4188
     1.4863   1.5698   1.6797   1.7117   2.0553   2.1011   3.5779   3.6794
     3.6976   3.7148   3.8189   3.8680   4.0204   4.0330   4.0693   4.0959

[...]

          k =-0.0760-0.0000 0.0000 ( 17886 PWs)   bands (ev):

[...]

 ------ SPIN DOWN ----------

[...]

          k = 0.0380-0.0419 0.0000 ( 17876 PWs)   bands (ev):

[...]

          k =-0.0760-0.0839 0.0000 ( 17948 PWs)   bands (ev):

   -55.5715 -55.5704 -55.5605 -55.5495 -55.4503 -55.4357 -55.4085 -55.4011
   -55.3609 -55.3576 -55.3118 -55.3082 -55.0298 -54.8752 -54.5201 -54.5200
   -31.9417 -31.9312 -31.8741 -31.8734 -31.8685 -31.8676 -31.8435 -31.8269
   -31.8024 -31.7884 -31.7676 -31.7479 -31.7229 -31.7123 -31.7063 -31.6948
   -31.6935 -31.6852 -31.6805 -31.6737 -31.6668 -31.6534 -31.6499 -31.6478
   -31.6284 -31.6127 -31.6035 -31.6020 -31.5559 -31.5537 -31.5447 -31.5424
   -31.5397 -31.5359 -31.5270 -31.5250 -31.4111 -31.3163 -31.2578 -31.2155
   -31.1320 -31.0463 -30.8470 -30.8470 -30.7558 -30.7556 -30.7172 -30.7172
   -17.5576 -15.8208 -15.7808 -15.5256 -15.5162 -15.5138 -15.4729 -15.3500
   -15.3016 -15.2754 -15.2639 -15.2451 -15.2371 -15.1363 -15.1214 -15.1059
   -15.0943 -15.0690 -15.0252 -15.0200 -15.0122 -15.0008 -14.9896 -14.9239
   -14.8714 -14.8675 -14.7543 -14.6621 -14.5220 -14.4329 -13.0232 -13.0229
   -12.5437  -9.1540  -6.2702  -5.1180  -4.1238  -3.4173  -3.1214  -3.0739
    -2.7859  -2.7664  -2.7516  -2.6379  -2.5185  -2.5092  -2.4832  -2.4615
    -2.4271  -2.4143  -2.4042  -2.3961  -2.3779  -2.3598  -2.3490  -2.3096
    -2.2409  -2.2329  -2.2244  -2.2165  -2.1995  -2.1758  -2.1650  -2.1380
    -2.1134  -2.0787  -2.0195  -1.9888  -1.8392  -1.7954  -1.7334  -1.6953
    -1.6867  -1.6575  -1.6235  -1.6160  -1.5053  -1.4912  -1.4581  -1.3275
    -1.2671  -1.2590  -1.2264  -1.1389  -1.1004  -0.9712  -0.9579  -0.9206
    -0.8653  -0.8575  -0.8204  -0.7824  -0.7317  -0.6793  -0.6363  -0.6127
    -0.5951  -0.5221  -0.5216  -0.4759  -0.4194  -0.3493  -0.3264  -0.3188
    -0.2852  -0.2422  -0.1954  -0.1319  -0.0568  -0.0381  -0.0224   0.0765
     0.1497   0.3683   0.4162   0.5122   0.5353   0.5615   0.6226   0.6719
     0.7420   0.7578   0.7852   0.8579   0.8794   0.9722   0.9836   1.0005
     1.1783   1.6474   1.8521   1.8530   1.9209   1.9215   3.8572   3.8734
     3.8975   3.9213   4.0720   4.0751   4.0930   4.0958   4.2162   4.2489

     the Fermi energy is     3.5643 ev

!    total energy              =   -2941.63802760 Ry
     estimated scf accuracy    <       0.00000007 Ry
     smearing contrib. (-TS)   =      -0.02167171 Ry
     internal energy E=F+TS    =   -2941.61635588 Ry

     The total energy is F=E-TS. E is the sum of the following terms:
     one-electron contribution =  -24387.54467512 Ry
     hartree contribution      =   12285.73577968 Ry
     xc contribution           =    -486.93429743 Ry
     ewald contribution        =    9647.12434380 Ry
     electric field correction =       0.00249317 Ry

     total magnetization       =    -0.08 Bohr mag/cell
     absolute magnetization    =     0.12 Bohr mag/cell

     convergence has been achieved in 130 iterations

     Forces acting on atoms (cartesian axes, Ry/au):

     atom    1 type  1   force =    -0.00000813   -0.00019703    0.09679641
     atom    2 type  1   force =     0.00008969   -0.00069337   -0.17465112
     atom    3 type  2   force =     0.00018266   -0.00006030   -0.02504977
     atom    4 type  2   force =     0.00000893   -0.00124888    0.05120568
     atom    5 type  2   force =    -0.01126073   -0.00080414    0.00229214
     atom    6 type  2   force =     0.01310288   -0.00035425    0.00273818
     atom    7 type  1   force =     0.00100119    0.00020797   -0.01342869
     atom    8 type  1   force =    -0.00010359    0.01533293    0.02823139
     atom    9 type  2   force =    -0.00007340   -0.00001236    0.00010810
     atom   10 type  2   force =    -0.00233989    0.00080732   -0.01056701
     atom   11 type  2   force =     0.00035682    0.00005752   -0.00000809
     atom   12 type  2   force =    -0.00044087   -0.00006463    0.00026250
     atom   13 type  1   force =     0.00015370   -0.00018359   -0.00007475
     atom   14 type  1   force =     0.00010860   -0.00021966    0.00002036
     atom   15 type  2   force =    -0.00005067    0.00021656   -0.00009941
     atom   16 type  2   force =    -0.00019934    0.00003900   -0.00018151
     atom   17 type  2   force =    -0.00011879    0.00007910   -0.00008045
     atom   18 type  2   force =    -0.00018487    0.00003541   -0.00016356
     atom   19 type  1   force =    -0.00029789    0.00024477    0.00007356
     atom   20 type  1   force =     0.00001295   -0.00062945    0.00012484
     atom   21 type  2   force =     0.00003766   -0.00008965    0.10301435
     atom   22 type  2   force =    -0.00002833    0.00043662    0.00035958
     atom   23 type  2   force =    -0.07178107   -0.00021080   -0.02778054
     atom   24 type  2   force =     0.07173982    0.00024450   -0.02784529
     atom   25 type  1   force =     0.00003703   -0.00025580    0.09640487
     atom   26 type  1   force =    -0.00001023   -0.00030016   -0.17491223
     atom   27 type  2   force =     0.00019371   -0.00025379   -0.02390974
     atom   28 type  2   force =     0.00005293   -0.00100633    0.05147735
     atom   29 type  2   force =    -0.01128915    0.00078525    0.00170621
     atom   30 type  2   force =     0.01298051    0.00111303    0.00210671
     atom   31 type  1   force =     0.00103735    0.00256331   -0.01544540
     atom   32 type  1   force =     0.00005500   -0.01663836    0.02911154
     atom   33 type  2   force =     0.00011601    0.00002771   -0.00010193
     atom   34 type  2   force =    -0.00271014    0.00093651   -0.01866910
     atom   35 type  2   force =     0.00017746   -0.00007345   -0.00008421
     atom   36 type  2   force =    -0.00038646   -0.00007202    0.00013819
     atom   37 type  1   force =    -0.00011729   -0.00019080    0.00012690
     atom   38 type  1   force =     0.00007987    0.00008370   -0.00007189
     atom   39 type  2   force =    -0.00002551    0.00045194    0.00000333
     atom   40 type  2   force =    -0.00037994    0.00014853   -0.00013325
     atom   41 type  2   force =     0.00011026   -0.00004295   -0.00013257
     atom   42 type  2   force =     0.00000172    0.00020180   -0.00000856
     atom   43 type  1   force =     0.00018385   -0.00001988   -0.00012711
     atom   44 type  1   force =    -0.00032417   -0.00021455   -0.00012640
     atom   45 type  2   force =     0.00005403   -0.00011002    0.10301898
     atom   46 type  2   force =    -0.07180780   -0.00016094   -0.02780095
     atom   47 type  2   force =     0.07174710    0.00022510   -0.02784359
     atom   48 type  3   force =    -0.00101937   -0.00001278    0.00111225
     atom   49 type  4   force =     0.00022073   -0.00040273   -0.00010497
     atom   50 type  5   force =    -0.00038098    0.00015796    0.00009647
     atom   51 type  5   force =    -0.00045027   -0.00006747   -0.00024273
     atom   52 type  5   force =     0.00078430   -0.00024453    0.00015415
     atom   53 type  3   force =     0.00206025    0.00723572    0.01008993
     atom   54 type  5   force =    -0.00064408   -0.00674913   -0.00949259
     atom   55 type  5   force =    -0.00025404   -0.00004848   -0.00163656

     Total force =     0.367611     Total SCF correction =     0.000330
  @ DRIVER MODE: Message from server: STATUS
  @ DRIVER MODE: Message from server: GETFORCE
  @ DRIVER MODE: Returning v,forces,stress,ensemble

     Writing output data file ./calc.save/
  @ DRIVER MODE: Message from server: EXIT
  @ DRIVE MODE: Exiting

     General routines

     Parallel routines

   This run was terminated on:  20:55: 7  16Jul2021

   JOB DONE.