     Program PWSCF v.6.7GPU starts on 23Aug2021 at 15:40:27

     R & G space division:  proc/nbgrp/npool/nimage =       6
     Reading input from /storage/home/hcoda1/3/ntian30/research/carbon/CH_vib/ads_slab/CH_a/out_0007/pw.inp
Warning: card &CELL ignored
Warning: card   CELL_DYNAMICS='IPI', ignored
Warning: card / ignored

     Current dimensions of program PWSCF are:
     Max number of different atomic species (ntypx) = 10
     Max number of k-points (npk) =  40000
     Max angular momentum in pseudopotentials (lmaxx) =  3
     Presently no symmetry can be used with electric field

     Message from routine cell_base_init:
     DEPRECATED: use true lattice parameter, not A to a.u. conversion factor

     IMPORTANT: XC functional enforced from input :
     Exchange-correlation= BEEF-VDW
                           (   1   4  43  14   2   0   0)
     Any further DFT definition will be discarded
     Please, verify this is what you really want

  @ DRIVER MODE: Connecting to
 qe_1139763_2632798.sched-torque.pace.gatech.edujxfp9atr_scratch
  using UNIX socket
  @ DRIVER MODE: Message from server: STATUS
  @ DRIVER MODE: Message from server: INIT
  @ DRIVER MODE: Receiving replica           0          -1
  @ DRIVER MODE: Receiving encoded integer          25
  @ DRIVER MODE:  SCF:  T  FORCE:  T  STRESS:  F  VC:  F  ENSEMBLE:  F
  @ DRIVER MODE:  SCF:  T  FORCE:  T  STRESS:  F  VC:  F  ENSEMBLE:  F

     Using Slab Decomposition

     bravais-lattice index     =            0
     lattice parameter (alat)  =       1.8897  a.u.
     unit-cell volume          =    6658.9804 (a.u.)^3
     number of atoms/cell      =           49
     number of atomic types    =            4
     number of electrons       =       383.00
     number of Kohn-Sham states=          201
     kinetic-energy cutoff     =      29.3995  Ry
     charge density cutoff     =     293.9946  Ry
     scf convergence threshold =      7.3E-08
     mixing beta               =       0.0500
     number of iterations used =            8  plain     mixing
     Exchange-correlation= BEEF-VDW
                           (   1   4  43  14   2   0   0)

     celldm(1)=   1.889726  celldm(2)=   0.000000  celldm(3)=   0.000000
     celldm(4)=   0.000000  celldm(5)=   0.000000  celldm(6)=   0.000000

     crystal axes: (cart. coord. in units of alat)
               a(1) = (   6.579727   0.000000   0.000000 )
               a(2) = (  -0.000775   5.961596   0.000000 )
               a(3) = (   0.000000   0.000000  25.155947 )

     reciprocal axes: (cart. coord. in units 2 pi/alat)
               b(1) = (  0.151982  0.000020  0.000000 )
               b(2) = (  0.000000  0.167740  0.000000 )
               b(3) = (  0.000000  0.000000  0.039752 )

     PseudoPot. # 1 for Ti read from file:
     /storage/coda1/p-amedford6/0/shared/rich_project_chbe-medford/medford-share/data/pseudos_module/espresso/nninc/pbe/van/Ti.UPF
     MD5 check sum: 8e4df49b7f0d34bbd5052bf3f5ea0213
     Pseudo is Ultrasoft, Zval = 12.0
     Generated by new atomic code, or converted to UPF format
     Using radial grid of  851 points,  6 beta functions with:
                l(1) =   0
                l(2) =   0
                l(3) =   1
                l(4) =   1
                l(5) =   2
                l(6) =   2
     Q(r) pseudized with  8 coefficients,  rinner =    1.000   1.000   1.000
                                                       1.000   1.000

     PseudoPot. # 2 for O  read from file:
     /storage/coda1/p-amedford6/0/shared/rich_project_chbe-medford/medford-share/data/pseudos_module/espresso/nninc/pbe/van/O.UPF
     MD5 check sum: 78c19812648e8988a0fe644b0f25305e
     Pseudo is Ultrasoft, Zval =  6.0
     Generated by new atomic code, or converted to UPF format
     Using radial grid of  737 points,  4 beta functions with:
                l(1) =   0
                l(2) =   0
                l(3) =   1
                l(4) =   1
     Q(r) pseudized with  8 coefficients,  rinner =    0.800   0.800   0.800

     PseudoPot. # 3 for C  read from file:
     /storage/coda1/p-amedford6/0/shared/rich_project_chbe-medford/medford-share/data/pseudos_module/espresso/nninc/pbe/van/C.UPF
     MD5 check sum: 1a69bf6b8db32088f5b2163dbdb77a27
     Pseudo is Ultrasoft, Zval =  4.0
     Generated by new atomic code, or converted to UPF format
     Using radial grid of  721 points,  4 beta functions with:
                l(1) =   0
                l(2) =   0
                l(3) =   1
                l(4) =   1
     Q(r) pseudized with  8 coefficients,  rinner =    0.800   0.800   0.800

     PseudoPot. # 4 for H  read from file:
     /storage/coda1/p-amedford6/0/shared/rich_project_chbe-medford/medford-share/data/pseudos_module/espresso/nninc/pbe/van/H.UPF
     MD5 check sum: b5ee9d7bfd3a09ee7748110bda690ff7
     Pseudo is Ultrasoft, Zval =  1.0
     Generated by new atomic code, or converted to UPF format
     Using radial grid of  615 points,  1 beta functions with:
                l(1) =   0
     Q(r) pseudized with  8 coefficients,  rinner =    0.800

     atomic species   valence    mass     pseudopotential
        Ti1           12.00    47.86700     Ti( 1.00)
        O1             6.00    15.99900     O ( 1.00)
        C1             4.00    12.01100     C ( 1.00)
        H1             1.00     1.00800     H ( 1.00)

     No symmetry found

   Cartesian axes

     site n.     atom                  positions (alat units)
         1           Ti1 tau(   1) = (   0.0004258   2.9801865   6.0000000  )
         2           Ti1 tau(   2) = (   3.2906075   1.4906267   6.0002472  )
         3           O1  tau(   3) = (   0.0006271   0.0005054   7.9858123  )
         4           O1  tau(   4) = (   3.2906025   0.0005020   7.3038282  )
         5           O1  tau(   5) = (   4.5942328   1.4918067   9.2879030  )
         6           O1  tau(   6) = (   1.9868534   1.4903216   9.2879459  )
         7           Ti1 tau(   7) = (   3.2921849   2.8658251   9.1648892  )
         8           Ti1 tau(   8) = (   0.0073351   1.4983988   9.3831490  )
         9           O1  tau(   9) = (   3.2842540   0.0070318  11.3521760  )
        10           O1  tau(  10) = (   0.0010487   0.0043113  10.5580200  )
        11           O1  tau(  11) = (   1.2736759   1.5124129  12.6486185  )
        12           O1  tau(  12) = (   5.2630300   1.5084811  12.6300625  )
        13           Ti1 tau(  13) = (   0.0799159   2.9885021  12.8537609  )
        14           Ti1 tau(  14) = (   3.3962166   1.4899997  12.4930974  )
        15           O1  tau(  15) = (   6.5670857   5.9608082  14.6055349  )
        16           O1  tau(  16) = (   3.2779887   0.0262294  13.9455360  )
        17           O1  tau(  17) = (   4.5047259   1.5524619  16.1062024  )
        18           O1  tau(  18) = (   2.0328015   1.5482461  16.0993997  )
        19           Ti1 tau(  19) = (   3.2588990   3.0258902  15.7259251  )
        20           Ti1 tau(  20) = (   6.5443225   1.5921241  16.1654916  )
        21           O1  tau(  21) = (   3.2904802   0.0005063   4.7018136  )
        22           O1  tau(  22) = (   6.5577444   0.0567680  17.2452940  )
        23           O1  tau(  23) = (   1.3043587   1.4918075   6.0039043  )
        24           O1  tau(  24) = (   5.2767064   1.4903225   6.0039473  )
        25           Ti1 tau(  25) = (   0.0000382   5.9609847   6.0000000  )
        26           Ti1 tau(  26) = (   3.2902200   4.4714249   6.0002472  )
        27           O1  tau(  27) = (   0.0002396   2.9813036   7.9858123  )
        28           O1  tau(  28) = (   3.2902150   2.9813002   7.3038282  )
        29           O1  tau(  29) = (   4.5938453   4.4726049   9.2879030  )
        30           O1  tau(  30) = (   1.9864658   4.4711199   9.2879459  )
        31           Ti1 tau(  31) = (   3.2960881   5.8478476   9.1648656  )
        32           Ti1 tau(  32) = (   0.0086818   4.4758218   9.3788328  )
        33           O1  tau(  33) = (   3.2854246   2.9850844  11.3450670  )
        34           O1  tau(  34) = (   0.0004502   2.9836692  10.5560002  )
        35           O1  tau(  35) = (   1.2751814   4.4662498  12.6462591  )
        36           O1  tau(  36) = (   5.2612828   4.4711168  12.6263095  )
        37           Ti1 tau(  37) = (   0.0650160   0.0072273  12.8037121  )
        38           Ti1 tau(  38) = (   3.3952379   4.4681493  12.4860303  )
        39           O1  tau(  39) = (   6.5700874   2.9943110  14.6990684  )
        40           O1  tau(  40) = (   3.2774739   3.0059374  13.9302241  )
        41           O1  tau(  41) = (   4.5038310   4.5165569  16.1051355  )
        42           O1  tau(  42) = (   2.0336826   4.5180826  16.0999700  )
        43           Ti1 tau(  43) = (   3.2582433   0.0441072  15.7465997  )
        44           Ti1 tau(  44) = (   6.5393581   4.6163053  16.1595090  )
        45           O1  tau(  45) = (   3.2900926   2.9813045   4.7018136  )
        46           O1  tau(  46) = (   1.3039711   4.4726057   6.0039043  )
        47           O1  tau(  47) = (   5.2763189   4.4711207   6.0039473  )
        48           C1  tau(  48) = (   6.5669965   3.0274956  17.5143990  )
        49           H1  tau(  49) = (   6.5733866   3.1884539  18.5931066  )

     number of k points=    10  Fermi-Dirac smearing, width (Ry)=  0.0073
                       cart. coord. in units 2pi/alat
        k(    1) = (   0.0000000   0.0000000   0.0000000), wk =   0.1250000
        k(    2) = (   0.0000000   0.0419351   0.0000000), wk =   0.2500000
        k(    3) = (   0.0000000  -0.0838702   0.0000000), wk =   0.1250000
        k(    4) = (   0.0379955   0.0000049   0.0000000), wk =   0.2500000
        k(    5) = (   0.0379955   0.0419400   0.0000000), wk =   0.2500000
        k(    6) = (   0.0379955  -0.0838652   0.0000000), wk =   0.2500000
        k(    7) = (   0.0379955  -0.0419301   0.0000000), wk =   0.2500000
        k(    8) = (  -0.0759910  -0.0000099   0.0000000), wk =   0.1250000
        k(    9) = (  -0.0759910   0.0419252   0.0000000), wk =   0.2500000
        k(   10) = (  -0.0759910  -0.0838800   0.0000000), wk =   0.1250000

     Initial potential from superposition of free atoms

     starting charge  366.99920, renormalised to  383.00000

     negative rho (up, down):  2.156E-02 0.000E+00

     %%%%%%%%%%%%%%%%%%%%%%%%%%%%%%%%%%%%%%%%%%%%%%%%%%%%%%%%%%%%%%%%%%%%%%%%
     %                                                                      %
     % You are using vdW-DF, which was implemented by the Thonhauser group. %
     % Please cite the following two papers that made this development      %
     % possible and the two reviews that describe the various versions:     %
     %                                                                      %
     %   T. Thonhauser et al., PRL 115, 136402 (2015).                      %
     %   T. Thonhauser et al., PRB 76, 125112 (2007).                       %
     %   K. Berland et al., Rep. Prog. Phys. 78, 066501 (2015).             %
     %   D.C. Langreth et al., J. Phys.: Condens. Matter 21, 084203 (2009). %
     %                                                                      %
     %                                                                      %
     % If you are calculating the stress with vdW-DF, please also cite:     %
     %                                                                      %
     %   R. Sabatini et al., J. Phys.: Condens. Matter 24, 424209 (2012).   %
     %                                                                      %
     %%%%%%%%%%%%%%%%%%%%%%%%%%%%%%%%%%%%%%%%%%%%%%%%%%%%%%%%%%%%%%%%%%%%%%%%

     Adding external electric field

     Computed dipole along edir(3) :
        Dipole                0.0501 Ry au,          0.1273 Debye
        Dipole field          0.0001 Ry au,

        Potential amp.       -0.0088 Ry
        Total length         46.3494 bohr

     Starting wfcs are  289 atomic wfcs
  @ DRIVER MODE: Message from server: STATUS
  @ DRIVER MODE: Message from server: POSDATA
  @ DRIVER MODE: Reading and sharing cell
  @ DRIVER MODE: Reading and sharing positions
  @ DRIVER MODE: Received positions

     Self-consistent Calculation

     iteration #  1     ecut=    29.40 Ry     beta= 0.05
     Davidson diagonalization with overlap
     c_bands:  1 eigenvalues not converged
     c_bands:  1 eigenvalues not converged
     c_bands:  1 eigenvalues not converged
     c_bands:  1 eigenvalues not converged
     c_bands:  1 eigenvalues not converged
     c_bands:  1 eigenvalues not converged
     ethr =  1.00E-05,  avg # of iterations = 19.5

[...]

     total energy              =   -2897.80967316 Ry
     estimated scf accuracy    <      11.75378321 Ry

     iteration #  2     ecut=    29.40 Ry     beta= 0.05
     Davidson diagonalization with overlap
     ethr =  3.07E-03,  avg # of iterations =  1.0

[...]

     iteration # 52     ecut=    29.40 Ry     beta= 0.05
     Davidson diagonalization with overlap
     c_bands:  2 eigenvalues not converged
     ethr =  2.60E-08,  avg # of iterations =  7.5

[...]

     total energy              =   -2896.37512875 Ry
     estimated scf accuracy    <       0.00000011 Ry

     iteration # 70     ecut=    29.40 Ry     beta= 0.05
     Davidson diagonalization with overlap
     ethr =  2.75E-11,  avg # of iterations =  5.0

     negative rho (up, down):  2.070E-02 0.000E+00

     Adding external electric field

     Computed dipole along edir(3) :
        Dipole                0.3684 Ry au,          0.9364 Debye
        Dipole field          0.0007 Ry au,

        Potential amp.       -0.0644 Ry
        Total length         46.3494 bohr

     End of self-consistent calculation

          k = 0.0000 0.0000 0.0000 ( 18029 PWs)   bands (ev):

   -56.6405 -56.6066 -56.3429 -56.3060 -56.2270 -56.1661 -56.0431 -56.0402
   -56.0059 -55.9453 -55.9358 -55.9090 -55.4376 -55.4036 -55.3538 -55.2685
   -33.0689 -32.8869 -32.8862 -32.8584 -32.8325 -32.7412 -32.6956 -32.6800
   -32.6496 -32.5573 -32.5448 -32.5377 -32.5234 -32.5199 -32.5128 -32.4960
   -32.4730 -32.4551 -32.4449 -32.3493 -32.3120 -32.2888 -32.2865 -32.2764
   -32.2626 -32.2594 -32.1974 -32.1938 -32.1679 -32.1618 -32.1546 -32.1304
   -32.1224 -32.1127 -32.0991 -32.0415 -31.8964 -31.8380 -31.7629 -31.7391
   -31.6564 -31.6258 -31.5873 -31.5715 -31.5610 -31.4853 -31.4594 -31.3419
   -16.9975 -16.8093 -16.5771 -16.4420 -16.3520 -16.2790 -16.0121 -16.0100
   -15.9639 -15.8915 -15.8637 -15.8009 -15.7978 -15.7714 -15.7606 -15.7511
   -15.7326 -15.6844 -15.6681 -15.6404 -15.6071 -15.5660 -15.4438 -15.4244
   -15.4081 -15.2939 -15.2443 -15.2061 -15.0228 -13.9306 -13.8165  -7.7778
    -4.4000  -4.3414  -4.1872  -4.1628  -4.0708  -3.8267  -3.6995  -3.4770
    -3.4359  -3.4052  -3.3903  -3.3241  -3.2649  -3.1577  -3.1413  -3.1199
    -3.0797  -3.0713  -3.0492  -3.0354  -3.0106  -2.9701  -2.8873  -2.8486
    -2.8293  -2.7501  -2.7226  -2.6454  -2.6190  -2.5747  -2.5494  -2.4902
    -2.4837  -2.4200  -2.3490  -2.2910  -2.1395  -2.0990  -2.0906  -2.0835
    -2.0128  -1.9039  -1.7626  -1.7283  -1.6618  -1.6601  -1.6424  -1.6056
    -1.5132  -1.4955  -1.4107  -1.3046  -1.2952  -1.2434  -1.1910  -1.1502
    -1.1334  -1.1328  -1.0757  -1.0433  -1.0073  -0.8803  -0.8529  -0.7337
    -0.7164  -0.6814  -0.6442  -0.6392  -0.5886  -0.5304  -0.4772  -0.4467
    -0.4254  -0.3783  -0.3680  -0.3328  -0.3102  -0.2554  -0.1405  -0.1167
    -0.1061  -0.0414   0.1437   0.1691   0.2121   0.3013   0.3497   0.5116
     0.5324   0.5911   0.7991   0.8356   1.1814   1.2615   1.5397   2.2806
     2.6273   2.8221   3.0827   3.1190   3.1361   3.1678   3.3426   3.3770
     3.3956

[...]

          k = 0.0380-0.0419 0.0000 ( 17876 PWs)   bands (ev):

[...]

          k =-0.0760-0.0000 0.0000 ( 17886 PWs)   bands (ev):

[...]

          k =-0.0760-0.0839 0.0000 ( 17948 PWs)   bands (ev):

   -56.6256 -56.6213 -56.3288 -56.3200 -56.2216 -56.1715 -56.0402 -56.0254
   -56.0204 -55.9387 -55.9316 -55.9226 -55.4205 -55.4205 -55.3501 -55.2720
   -32.8880 -32.8844 -32.8750 -32.8696 -32.7869 -32.7832 -32.6939 -32.6871
   -32.6050 -32.5942 -32.5370 -32.5269 -32.5249 -32.5168 -32.4913 -32.4642
   -32.4275 -32.3734 -32.3606 -32.3530 -32.3492 -32.2848 -32.2758 -32.2700
   -32.2677 -32.2590 -32.2518 -32.2433 -32.2315 -32.2261 -32.1836 -32.1750
   -32.1429 -32.1417 -32.1345 -32.1335 -31.7941 -31.7520 -31.7520 -31.6522
   -31.6521 -31.6352 -31.6241 -31.6141 -31.6140 -31.5642 -31.5058 -31.3820
   -16.4533 -16.4345 -16.2207 -16.2114 -16.1128 -16.1124 -16.1115 -16.1091
   -16.0089 -16.0061 -15.9341 -15.9198 -15.8639 -15.8561 -15.8207 -15.8188
   -15.7976 -15.7943 -15.7525 -15.7458 -15.6172 -15.6151 -15.5092 -15.5055
   -15.4665 -15.4259 -15.3862 -15.3758 -15.1591 -13.9189 -13.9185  -7.7801
    -3.7512  -3.7204  -3.4360  -3.4322  -3.2497  -3.2472  -3.2458  -3.2265
    -3.1826  -3.1526  -3.1430  -3.1174  -3.0861  -3.0435  -3.0326  -3.0129
    -3.0082  -3.0024  -2.9897  -2.9885  -2.9655  -2.9565  -2.9041  -2.8828
    -2.8723  -2.8627  -2.8134  -2.8121  -2.7089  -2.5861  -2.5381  -2.5339
    -2.4847  -2.4507  -2.3670  -2.3643  -2.3356  -2.3194  -2.2729  -2.1694
    -2.0377  -2.0351  -1.9896  -1.9595  -1.8932  -1.8182  -1.7165  -1.6502
    -1.6187  -1.5891  -1.5229  -1.4652  -1.4574  -1.4383  -1.4277  -1.4195
    -1.4057  -1.3094  -1.2971  -1.2256  -1.1885  -1.1783  -1.1685  -1.1361
    -1.1096  -1.0463  -0.9510  -0.9482  -0.9360  -0.9083  -0.8036  -0.7596
    -0.7027  -0.6517  -0.6056  -0.3577  -0.3552  -0.2014  -0.0925  -0.0303
     0.0347   0.0588   0.1015   0.1668   0.2287   0.2339   0.2609   0.2634
     0.3592   0.3616   0.9772   0.9777   1.0361   1.0372   1.7713   2.2233
     3.1075   3.1506   3.1680   3.1733   3.1984   3.2262   3.2446   3.2549
     3.5832

     the Fermi energy is     2.1457 ev

!    total energy              =   -2896.37514423 Ry
     estimated scf accuracy    <       0.00000006 Ry
     smearing contrib. (-TS)   =      -0.01052716 Ry
     internal energy E=F+TS    =   -2896.36461707 Ry

     The total energy is F=E-TS. E is the sum of the following terms:
     one-electron contribution =  -24783.62777924 Ry
     hartree contribution      =   12469.84767108 Ry
     xc contribution           =    -472.98124573 Ry
     ewald contribution        =    9890.39648068 Ry
     electric field correction =       0.00025614 Ry

     convergence has been achieved in  70 iterations

     Forces acting on atoms (cartesian axes, Ry/au):

     atom    1 type  1   force =     0.00019130   -0.00055532    0.14917628
     atom    2 type  1   force =    -0.00002454   -0.00030793   -0.17024531
     atom    3 type  2   force =     0.00005879    0.00012057   -0.06125066
     atom    4 type  2   force =     0.00010863   -0.00167213    0.04074672
     atom    5 type  2   force =    -0.02326096    0.00030209    0.00409987
     atom    6 type  2   force =     0.02298017    0.00151054    0.00330575
     atom    7 type  1   force =    -0.00054939    0.00074283    0.00016624
     atom    8 type  1   force =     0.00020484    0.00084457   -0.00021948
     atom    9 type  2   force =    -0.00006431    0.00009827   -0.00050889
     atom   10 type  2   force =    -0.00003221   -0.00050976    0.00034755
     atom   11 type  2   force =    -0.00022197    0.00047124    0.00028758
     atom   12 type  2   force =     0.00034374    0.00011813    0.00023752
     atom   13 type  1   force =     0.00033039    0.00065437   -0.00097860
     atom   14 type  1   force =    -0.00045740    0.00096915   -0.00029715
     atom   15 type  2   force =     0.00011042   -0.00005882   -0.00018197
     atom   16 type  2   force =     0.00013658   -0.00026341   -0.00006992
     atom   17 type  2   force =     0.00078654    0.00019444    0.00015854
     atom   18 type  2   force =    -0.00062585    0.00024563    0.00005634
     atom   19 type  1   force =    -0.00004271   -0.00106454    0.00059616
     atom   20 type  1   force =     0.00028029   -0.00056130    0.00077195
     atom   21 type  2   force =     0.00008126   -0.00018295    0.10245947
     atom   22 type  2   force =    -0.00010069    0.00042682   -0.00030638
     atom   23 type  2   force =    -0.07445314    0.00019669   -0.03478017
     atom   24 type  2   force =     0.07440886    0.00062573   -0.03482982
     atom   25 type  1   force =    -0.00003896   -0.00050721    0.15021588
     atom   26 type  1   force =    -0.00002175   -0.00070344   -0.17019538
     atom   27 type  2   force =     0.00007195    0.00063777   -0.06045995
     atom   28 type  2   force =     0.00002824   -0.00161745    0.04019246
     atom   29 type  2   force =    -0.02283852    0.00143784    0.00427526
     atom   30 type  2   force =     0.02310955    0.00223392    0.00347402
     atom   31 type  1   force =    -0.00054663    0.00012872   -0.00080600
     atom   32 type  1   force =     0.00023013   -0.00110709    0.00049897
     atom   33 type  2   force =     0.00025383   -0.00007971    0.00118548
     atom   34 type  2   force =    -0.00004433    0.00059210   -0.00021713
     atom   35 type  2   force =    -0.00096127   -0.00042205    0.00003741
     atom   36 type  2   force =     0.00100763   -0.00022588    0.00011033
     atom   37 type  1   force =    -0.00004667   -0.00007360   -0.00025202
     atom   38 type  1   force =    -0.00070143   -0.00076589    0.00032471
     atom   39 type  2   force =    -0.00002931   -0.00017746   -0.00010653
     atom   40 type  2   force =     0.00009338   -0.00016127   -0.00077982
     atom   41 type  2   force =     0.00078089   -0.00038194    0.00052335
     atom   42 type  2   force =    -0.00070461   -0.00042909    0.00047309
     atom   43 type  1   force =    -0.00006568    0.00081881   -0.00088968
     atom   44 type  1   force =     0.00031462   -0.00036441    0.00066846
     atom   45 type  2   force =     0.00007244   -0.00018338    0.10244773
     atom   46 type  2   force =    -0.07444295   -0.00013617   -0.03478610
     atom   47 type  2   force =     0.07439488    0.00030873   -0.03483895
     atom   48 type  3   force =    -0.00067660   -0.00087095    0.00086150
     atom   49 type  4   force =     0.00057255   -0.00029581   -0.00069869

     Total force =     0.404565     Total SCF correction =     0.000588
  @ DRIVER MODE: Message from server: STATUS
  @ DRIVER MODE: Message from server: GETFORCE
  @ DRIVER MODE: Returning v,forces,stress,ensemble

     Writing output data file ./calc.save/
  @ DRIVER MODE: Message from server: EXIT
  @ DRIVE MODE: Exiting

     General routines

     Parallel routines

   This run was terminated on:  16: 7:27  23Aug2021

   JOB DONE.