     Program PWSCF v.6.7GPU starts on  8Sep2021 at 23: 6: 7

     R & G space division:  proc/nbgrp/npool/nimage =      10
     Reading input from /storage/home/hcoda1/3/ntian30/research/carbon/CxH_vib/CH2_calc/ads_slab/CH2O_a/out_0004/pw.inp
Warning: card &CELL ignored
Warning: card   CELL_DYNAMICS='IPI', ignored
Warning: card / ignored

     Current dimensions of program PWSCF are:
     Max number of different atomic species (ntypx) = 10
     Max number of k-points (npk) =  40000
     Max angular momentum in pseudopotentials (lmaxx) =  3
     Presently no symmetry can be used with electric field

     Message from routine cell_base_init:
     DEPRECATED: use true lattice parameter, not A to a.u. conversion factor

     IMPORTANT: XC functional enforced from input :
     Exchange-correlation= BEEF-VDW
                           (   1   4  43  14   2   0   0)
     Any further DFT definition will be discarded
     Please, verify this is what you really want

  @ DRIVER MODE: Connecting to
 qe_1139763_2767394.sched-torque.pace.gatech.eduqp2m04lp_scratch
  using UNIX socket
  @ DRIVER MODE: Message from server: STATUS
  @ DRIVER MODE: Message from server: INIT
  @ DRIVER MODE: Receiving replica           0          -1
  @ DRIVER MODE: Receiving encoded integer          25
  @ DRIVER MODE:  SCF:  T  FORCE:  T  STRESS:  F  VC:  F  ENSEMBLE:  F
  @ DRIVER MODE:  SCF:  T  FORCE:  T  STRESS:  F  VC:  F  ENSEMBLE:  F

     Using Slab Decomposition

     bravais-lattice index     =            0
     lattice parameter (alat)  =       1.8897  a.u.
     unit-cell volume          =    6658.9804 (a.u.)^3
     number of atoms/cell      =           51
     number of atomic types    =            4
     number of electrons       =       390.00
     number of Kohn-Sham states=          205
     kinetic-energy cutoff     =      29.3995  Ry
     charge density cutoff     =     293.9946  Ry
     scf convergence threshold =      7.3E-08
     mixing beta               =       0.0500
     number of iterations used =            8  plain     mixing
     Exchange-correlation= BEEF-VDW
                           (   1   4  43  14   2   0   0)

     celldm(1)=   1.889726  celldm(2)=   0.000000  celldm(3)=   0.000000
     celldm(4)=   0.000000  celldm(5)=   0.000000  celldm(6)=   0.000000

     crystal axes: (cart. coord. in units of alat)
               a(1) = (   6.579727   0.000000   0.000000 )
               a(2) = (  -0.000775   5.961596   0.000000 )
               a(3) = (   0.000000   0.000000  25.155947 )

     reciprocal axes: (cart. coord. in units 2 pi/alat)
               b(1) = (  0.151982  0.000020  0.000000 )
               b(2) = (  0.000000  0.167740  0.000000 )
               b(3) = (  0.000000  0.000000  0.039752 )

     PseudoPot. # 1 for O  read from file:
     /storage/coda1/p-amedford6/0/shared/rich_project_chbe-medford/medford-share/data/pseudos_module/espresso/nninc/pbe/van/O.UPF
     MD5 check sum: 78c19812648e8988a0fe644b0f25305e
     Pseudo is Ultrasoft, Zval =  6.0
     Generated by new atomic code, or converted to UPF format
     Using radial grid of  737 points,  4 beta functions with:
                l(1) =   0
                l(2) =   0
                l(3) =   1
                l(4) =   1
     Q(r) pseudized with  8 coefficients,  rinner =    0.800   0.800   0.800

     PseudoPot. # 2 for Ti read from file:
     /storage/coda1/p-amedford6/0/shared/rich_project_chbe-medford/medford-share/data/pseudos_module/espresso/nninc/pbe/van/Ti.UPF
     MD5 check sum: 8e4df49b7f0d34bbd5052bf3f5ea0213
     Pseudo is Ultrasoft, Zval = 12.0
     Generated by new atomic code, or converted to UPF format
     Using radial grid of  851 points,  6 beta functions with:
                l(1) =   0
                l(2) =   0
                l(3) =   1
                l(4) =   1
                l(5) =   2
                l(6) =   2
     Q(r) pseudized with  8 coefficients,  rinner =    1.000   1.000   1.000
                                                       1.000   1.000

     PseudoPot. # 3 for C  read from file:
     /storage/coda1/p-amedford6/0/shared/rich_project_chbe-medford/medford-share/data/pseudos_module/espresso/nninc/pbe/van/C.UPF
     MD5 check sum: 1a69bf6b8db32088f5b2163dbdb77a27
     Pseudo is Ultrasoft, Zval =  4.0
     Generated by new atomic code, or converted to UPF format
     Using radial grid of  721 points,  4 beta functions with:
                l(1) =   0
                l(2) =   0
                l(3) =   1
                l(4) =   1
     Q(r) pseudized with  8 coefficients,  rinner =    0.800   0.800   0.800

     PseudoPot. # 4 for H  read from file:
     /storage/coda1/p-amedford6/0/shared/rich_project_chbe-medford/medford-share/data/pseudos_module/espresso/nninc/pbe/van/H.UPF
     MD5 check sum: b5ee9d7bfd3a09ee7748110bda690ff7
     Pseudo is Ultrasoft, Zval =  1.0
     Generated by new atomic code, or converted to UPF format
     Using radial grid of  615 points,  1 beta functions with:
                l(1) =   0
     Q(r) pseudized with  8 coefficients,  rinner =    0.800

     atomic species   valence    mass     pseudopotential
        O1             6.00    15.99900     O ( 1.00)
        Ti1           12.00    47.86700     Ti( 1.00)
        C1             4.00    12.01100     C ( 1.00)
        H1             1.00     1.00800     H ( 1.00)

     No symmetry found

   Cartesian axes

     site n.     atom                  positions (alat units)
         1           O1  tau(   1) = (   3.2904802   0.0005063   4.7018136  )
         2           O1  tau(   2) = (   3.2900926   2.9813045   4.7018136  )
         3           Ti1 tau(   3) = (   0.0004258   2.9801865   6.0000000  )
         4           Ti1 tau(   4) = (   0.0000382   5.9609847   6.0000000  )
         5           Ti1 tau(   5) = (   3.2906075   1.4906267   6.0002472  )
         6           Ti1 tau(   6) = (   3.2902200   4.4714249   6.0002472  )
         7           O1  tau(   7) = (   1.3043587   1.4918075   6.0039043  )
         8           O1  tau(   8) = (   1.3039711   4.4726057   6.0039043  )
         9           O1  tau(   9) = (   5.2767064   1.4903225   6.0039473  )
        10           O1  tau(  10) = (   5.2763189   4.4711207   6.0039473  )
        11           O1  tau(  11) = (   3.2906025   0.0005020   7.3038282  )
        12           O1  tau(  12) = (   3.2902150   2.9813002   7.3038282  )
        13           O1  tau(  13) = (   0.0006271   0.0005054   7.9858123  )
        14           O1  tau(  14) = (   0.0002396   2.9813036   7.9858123  )
        15           Ti1 tau(  15) = (   3.3042095   0.0533388   9.1528587  )
        16           Ti1 tau(  16) = (   3.3174724   3.0316863   9.1560957  )
        17           Ti1 tau(  17) = (   0.0293802   4.5322946   9.2552644  )
        18           Ti1 tau(  18) = (   0.0259946   1.6073196   9.3627105  )
        19           O1  tau(  19) = (   4.5942328   1.4918067   9.2879030  )
        20           O1  tau(  20) = (   4.5938453   4.4726049   9.2879030  )
        21           O1  tau(  21) = (   1.9868534   1.4903216   9.2879459  )
        22           O1  tau(  22) = (   1.9864658   4.4711199   9.2879459  )
        23           O1  tau(  23) = (   0.0064038   0.0081980  10.6024552  )
        24           O1  tau(  24) = (   0.0073862   2.9894728  10.5866593  )
        25           O1  tau(  25) = (   3.3023414   2.9953748  11.3432802  )
        26           O1  tau(  26) = (   3.3032852   0.0099373  11.3464837  )
        27           Ti1 tau(  27) = (   0.0309755   0.0166663  12.4994564  )
        28           Ti1 tau(  28) = (   3.3310982   4.4887825  12.4897803  )
        29           Ti1 tau(  29) = (   3.3310371   1.5113328  12.4846922  )
        30           Ti1 tau(  30) = (   0.0327574   2.9992265  12.7695683  )
        31           O1  tau(  31) = (   1.3002707   4.4821552  12.6388042  )
        32           O1  tau(  32) = (   1.3007223   1.5002113  12.6333963  )
        33           O1  tau(  33) = (   5.2991570   4.4805309  12.6421864  )
        34           O1  tau(  34) = (   5.3000174   1.5011411  12.6364809  )
        35           O1  tau(  35) = (   3.3018339   2.9879062  13.9210104  )
        36           O1  tau(  36) = (   3.3040464   0.0111531  13.9455706  )
        37           O1  tau(  37) = (   0.0204374   0.0165334  14.6791819  )
        38           O1  tau(  38) = (   0.0263865   2.9938028  14.7196832  )
        39           Ti1 tau(  39) = (   3.3100843   2.9899001  15.7147585  )
        40           Ti1 tau(  40) = (   3.3190225   0.0114617  15.7368552  )
        41           Ti1 tau(  41) = (   0.0307220   4.5758675  15.9389875  )
        42           Ti1 tau(  42) = (   0.0306600   1.3860070  15.9976826  )
        43           O1  tau(  43) = (   4.5579467   4.4706051  16.0879179  )
        44           O1  tau(  44) = (   4.5582295   1.5117582  16.0998906  )
        45           O1  tau(  45) = (   2.0559277   1.5139458  16.1062704  )
        46           O1  tau(  46) = (   2.0563840   4.4680477  16.0963298  )
        47           O1  tau(  47) = (   0.0152972   0.0023678  17.1988758  )
        48           O1  tau(  48) = (   6.5645367   3.0120129  17.4248639  )
        49           C1  tau(  49) = (   6.3846989   3.0744571  18.6868163  )
        50           H1  tau(  50) = (   6.3100824   4.0552778  19.1474226  )
        51           H1  tau(  51) = (   6.3122094   2.1591535  19.2648898  )

     number of k points=    10  Fermi-Dirac smearing, width (Ry)=  0.0073
                       cart. coord. in units 2pi/alat
        k(    1) = (   0.0000000   0.0000000   0.0000000), wk =   0.1250000
        k(    2) = (   0.0000000   0.0419351   0.0000000), wk =   0.2500000
        k(    3) = (   0.0000000  -0.0838702   0.0000000), wk =   0.1250000
        k(    4) = (   0.0379955   0.0000049   0.0000000), wk =   0.2500000
        k(    5) = (   0.0379955   0.0419400   0.0000000), wk =   0.2500000
        k(    6) = (   0.0379955  -0.0838652   0.0000000), wk =   0.2500000
        k(    7) = (   0.0379955  -0.0419301   0.0000000), wk =   0.2500000
        k(    8) = (  -0.0759910  -0.0000099   0.0000000), wk =   0.1250000
        k(    9) = (  -0.0759910   0.0419252   0.0000000), wk =   0.2500000
        k(   10) = (  -0.0759910  -0.0838800   0.0000000), wk =   0.1250000

     Initial potential from superposition of free atoms

     starting charge  373.99919, renormalised to  390.00000

     negative rho (up, down):  1.842E-02 0.000E+00

     %%%%%%%%%%%%%%%%%%%%%%%%%%%%%%%%%%%%%%%%%%%%%%%%%%%%%%%%%%%%%%%%%%%%%%%%
     %                                                                      %
     % You are using vdW-DF, which was implemented by the Thonhauser group. %
     % Please cite the following two papers that made this development      %
     % possible and the two reviews that describe the various versions:     %
     %                                                                      %
     %   T. Thonhauser et al., PRL 115, 136402 (2015).                      %
     %   T. Thonhauser et al., PRB 76, 125112 (2007).                       %
     %   K. Berland et al., Rep. Prog. Phys. 78, 066501 (2015).             %
     %   D.C. Langreth et al., J. Phys.: Condens. Matter 21, 084203 (2009). %
     %                                                                      %
     %                                                                      %
     % If you are calculating the stress with vdW-DF, please also cite:     %
     %                                                                      %
     %   R. Sabatini et al., J. Phys.: Condens. Matter 24, 424209 (2012).   %
     %                                                                      %
     %%%%%%%%%%%%%%%%%%%%%%%%%%%%%%%%%%%%%%%%%%%%%%%%%%%%%%%%%%%%%%%%%%%%%%%%

     Adding external electric field

     Computed dipole along edir(3) :
        Dipole               -5.1853 Ry au,        -13.1796 Debye
        Dipole field         -0.0098 Ry au,

        Potential amp.        0.9071 Ry
        Total length         46.3494 bohr

     Starting wfcs are  294 atomic wfcs
  @ DRIVER MODE: Message from server: STATUS
  @ DRIVER MODE: Message from server: POSDATA
  @ DRIVER MODE: Reading and sharing cell
  @ DRIVER MODE: Reading and sharing positions
  @ DRIVER MODE: Received positions

     Self-consistent Calculation

     iteration #  1     ecut=    29.40 Ry     beta= 0.05
     Davidson diagonalization with overlap
     c_bands:  3 eigenvalues not converged
     c_bands:  3 eigenvalues not converged
     c_bands:  2 eigenvalues not converged
     c_bands:  1 eigenvalues not converged
     c_bands:  2 eigenvalues not converged
     c_bands:  2 eigenvalues not converged
     c_bands:  3 eigenvalues not converged
     c_bands:  1 eigenvalues not converged
     ethr =  1.00E-05,  avg # of iterations = 21.8

[...]

     total energy              =   -2822.14566876 Ry
     estimated scf accuracy    <    1191.19133187 Ry

     iteration #  2     ecut=    29.40 Ry     beta= 0.05
     Davidson diagonalization with overlap
     ethr =  1.00E-02,  avg # of iterations = 16.9

[...]

     iteration # 71     ecut=    29.40 Ry     beta= 0.05
     Davidson diagonalization with overlap
     c_bands:  1 eigenvalues not converged
     ethr =  3.36E-11,  avg # of iterations = 10.6

[...]

     total energy              =   -2930.16721686 Ry
     estimated scf accuracy    <       0.00000009 Ry

     iteration # 72     ecut=    29.40 Ry     beta= 0.05
     Davidson diagonalization with overlap
     ethr =  2.41E-11,  avg # of iterations =  6.5

     negative rho (up, down):  1.726E-02 0.000E+00

     Adding external electric field

     Computed dipole along edir(3) :
        Dipole                0.9328 Ry au,          2.3710 Debye
        Dipole field          0.0018 Ry au,

        Potential amp.       -0.1632 Ry
        Total length         46.3494 bohr

     End of self-consistent calculation

          k = 0.0000 0.0000 0.0000 ( 18029 PWs)   bands (ev):

   -55.8206 -55.8091 -55.7845 -55.7728 -55.7110 -55.6978 -55.6721 -55.6053
   -55.6013 -55.5899 -55.5749 -55.5566 -55.5191 -55.5017 -54.8489 -54.8148
   -32.3780 -32.2936 -32.1886 -32.1629 -32.1266 -32.1244 -32.1157 -32.0985
   -32.0695 -32.0538 -32.0499 -32.0239 -31.9949 -31.9902 -31.9794 -31.9571
   -31.9418 -31.9388 -31.9322 -31.9154 -31.8890 -31.8866 -31.8840 -31.8737
   -31.8592 -31.8449 -31.8437 -31.8201 -31.8163 -31.8147 -31.7920 -31.7636
   -31.7518 -31.7344 -31.7331 -31.7295 -31.7188 -31.7039 -31.6967 -31.6886
   -31.6819 -31.6727 -31.2589 -31.1611 -31.1389 -31.0758 -30.9897 -30.8783
   -19.8609 -16.5916 -16.2976 -16.1488 -16.0197 -15.9689 -15.8507 -15.6953
   -15.6192 -15.5409 -15.4907 -15.4423 -15.4041 -15.4029 -15.3743 -15.3586
   -15.3548 -15.3500 -15.2752 -15.2707 -15.2366 -15.2195 -15.2086 -15.1204
   -15.0564 -14.9975 -14.9517 -14.8963 -14.8408 -14.8127 -13.3493 -13.2308
    -9.3036  -5.5623  -5.5225  -3.9414  -3.7658  -3.7248  -3.7067  -3.6545
    -3.5421  -3.4310  -3.3957  -3.1124  -3.0219  -2.9886  -2.9791  -2.9661
    -2.8255  -2.7797  -2.6665  -2.6606  -2.6522  -2.6463  -2.6266  -2.5921
    -2.5801  -2.5379  -2.5116  -2.4023  -2.3676  -2.2554  -2.2391  -2.2166
    -2.1587  -2.1317  -2.1025  -2.0895  -2.0600  -2.0573  -2.0525  -2.0067
    -1.9091  -1.8157  -1.7543  -1.6677  -1.6311  -1.5415  -1.3789  -1.3120
    -1.2723  -1.2344  -1.1841  -1.1677  -1.1363  -1.1101  -1.0946  -1.0780
    -0.9824  -0.8665  -0.8634  -0.7622  -0.7002  -0.6745  -0.6614  -0.5783
    -0.5597  -0.5501  -0.4516  -0.3126  -0.3059  -0.3001  -0.1820  -0.1509
    -0.1277  -0.0802  -0.0596  -0.0212   0.0090   0.0667   0.1077   0.1199
     0.1642   0.1838   0.2051   0.3121   0.3673   0.3773   0.4273   0.4654
     0.6539   0.6714   0.8060   0.8741   1.0781   1.1761   1.2330   1.3440
     1.7639   1.8222   3.3433   3.3763   3.4000   3.4540   3.4917   3.5402
     3.5873   3.7898   3.8032   3.8132   3.8345

[...]

          k = 0.0380-0.0419 0.0000 ( 17876 PWs)   bands (ev):

[...]

          k =-0.0760-0.0000 0.0000 ( 17886 PWs)   bands (ev):

[...]

          k =-0.0760-0.0839 0.0000 ( 17948 PWs)   bands (ev):

   -55.8086 -55.7963 -55.7913 -55.7904 -55.7021 -55.6944 -55.6810 -55.6084
   -55.5976 -55.5749 -55.5720 -55.5689 -55.5251 -55.5047 -54.8323 -54.8312
   -32.1799 -32.1789 -32.1167 -32.1034 -32.1014 -32.0965 -32.0820 -32.0676
   -32.0621 -32.0346 -32.0235 -32.0104 -31.9949 -31.9583 -31.9457 -31.9383
   -31.9358 -31.9331 -31.9253 -31.9221 -31.9052 -31.9004 -31.8984 -31.8977
   -31.8950 -31.8918 -31.8762 -31.8529 -31.8345 -31.8298 -31.8286 -31.8078
   -31.8014 -31.7842 -31.7795 -31.7718 -31.7714 -31.7660 -31.7391 -31.7282
   -31.7045 -31.6988 -31.1523 -31.1508 -31.0723 -31.0714 -31.0333 -31.0323
   -19.8531 -16.0200 -15.9932 -15.8816 -15.7611 -15.7512 -15.7070 -15.6676
   -15.6103 -15.5583 -15.5554 -15.5059 -15.4870 -15.4849 -15.4377 -15.4062
   -15.3601 -15.3522 -15.3432 -15.3391 -15.2872 -15.2822 -15.2396 -15.2171
   -15.2071 -15.1715 -15.1664 -15.0980 -15.0391 -15.0182 -13.3331 -13.3309
    -9.3047  -5.5407  -5.5042  -3.5701  -3.3089  -3.2783  -3.1159  -2.9818
    -2.9717  -2.9141  -2.8294  -2.7941  -2.7490  -2.6975  -2.6934  -2.6731
    -2.6605  -2.6489  -2.6399  -2.6335  -2.5856  -2.5691  -2.5270  -2.4792
    -2.4746  -2.4626  -2.4552  -2.4159  -2.4000  -2.3882  -2.3815  -2.3744
    -2.3043  -2.2271  -2.1541  -2.0748  -2.0237  -2.0019  -1.9804  -1.9426
    -1.9099  -1.8904  -1.8736  -1.7485  -1.7262  -1.5762  -1.5608  -1.5402
    -1.5272  -1.4771  -1.4646  -1.3420  -1.2758  -1.2685  -1.1952  -1.1730
    -1.1508  -1.0954  -1.0758  -0.9963  -0.9540  -0.9124  -0.8576  -0.7959
    -0.7857  -0.7195  -0.7102  -0.6221  -0.6067  -0.5862  -0.5825  -0.5138
    -0.4807  -0.3947  -0.3872  -0.3645  -0.2536  -0.1934  -0.1845   0.0021
     0.1755   0.1802   0.2027   0.3015   0.3318   0.3740   0.4390   0.4459
     0.5342   0.5837   0.6746   0.6950   0.7048   0.7857   1.5348   1.5358
     1.6272   1.6374   3.2978   3.5644   3.6016   3.6035   3.6647   3.8175
     3.8205   3.8372   3.8474   3.9748   3.9817

     the Fermi energy is     3.3289 ev

!    total energy              =   -2930.16723017 Ry
     estimated scf accuracy    <       0.00000004 Ry
     smearing contrib. (-TS)   =      -0.03343156 Ry
     internal energy E=F+TS    =   -2930.13379861 Ry

     The total energy is F=E-TS. E is the sum of the following terms:
     one-electron contribution =  -24703.43660609 Ry
     hartree contribution      =   12437.17045199 Ry
     xc contribution           =    -481.27453283 Ry
     ewald contribution        =    9817.40524625 Ry
     electric field correction =       0.00164207 Ry

     convergence has been achieved in  72 iterations

     Forces acting on atoms (cartesian axes, Ry/au):

     atom    1 type  1   force =    -0.00009732    0.00004077    0.10429771
     atom    2 type  1   force =    -0.00009020    0.00004984    0.10435562
     atom    3 type  2   force =    -0.00026461   -0.00201677    0.10309363
     atom    4 type  2   force =    -0.00014091    0.00162713    0.11356265
     atom    5 type  2   force =    -0.00035521    0.00049581   -0.18056837
     atom    6 type  2   force =    -0.00019014   -0.00002134   -0.18094997
     atom    7 type  1   force =    -0.06891666    0.00060354   -0.02906576
     atom    8 type  1   force =    -0.06843779   -0.00116499   -0.02910092
     atom    9 type  1   force =     0.06855347    0.00109462   -0.02913967
     atom   10 type  1   force =     0.06816794   -0.00076062   -0.02918039
     atom   11 type  1   force =     0.00041394    0.00044083    0.04541875
     atom   12 type  1   force =     0.00057415    0.00075908    0.04653488
     atom   13 type  1   force =     0.00030247   -0.00542592   -0.03233592
     atom   14 type  1   force =     0.00034058    0.00325506   -0.02502308
     atom   15 type  2   force =     0.00002520    0.00033060    0.00052786
     atom   16 type  2   force =     0.00008016   -0.00033442    0.00080439
     atom   17 type  2   force =    -0.00020880   -0.00110348    0.00028175
     atom   18 type  2   force =    -0.00023127    0.00074424   -0.00050652
     atom   19 type  1   force =    -0.01759944    0.00012646    0.00384329
     atom   20 type  1   force =    -0.01643367    0.00134140    0.00292134
     atom   21 type  1   force =     0.01896476   -0.00112641    0.00432398
     atom   22 type  1   force =     0.01762322    0.00110185    0.00323478
     atom   23 type  1   force =     0.00009544    0.00019595   -0.00066058
     atom   24 type  1   force =    -0.00008393   -0.00015857   -0.00044886
     atom   25 type  1   force =     0.00003713   -0.00060543    0.00023430
     atom   26 type  1   force =    -0.00018874    0.00041208    0.00009146
     atom   27 type  2   force =     0.00000613    0.00076637    0.00029849
     atom   28 type  2   force =    -0.00000670   -0.00020296   -0.00021440
     atom   29 type  2   force =     0.00006515   -0.00017810    0.00015182
     atom   30 type  2   force =    -0.00021025   -0.00025550    0.00033915
     atom   31 type  1   force =    -0.00013777   -0.00018301    0.00007532
     atom   32 type  1   force =     0.00029222    0.00035659    0.00020213
     atom   33 type  1   force =     0.00015113   -0.00012533    0.00009006
     atom   34 type  1   force =    -0.00055900    0.00023550    0.00020158
     atom   35 type  1   force =    -0.00004844   -0.00014407   -0.00015432
     atom   36 type  1   force =    -0.00000220    0.00027957   -0.00035240
     atom   37 type  1   force =    -0.00014450    0.00064044   -0.00027914
     atom   38 type  1   force =    -0.00014930    0.00049871   -0.00028034
     atom   39 type  2   force =    -0.00034909    0.00109408   -0.00011831
     atom   40 type  2   force =    -0.00036764   -0.00075582    0.00001655
     atom   41 type  2   force =     0.00002497   -0.00018165    0.00011806
     atom   42 type  2   force =    -0.00002829   -0.00019587   -0.00036847
     atom   43 type  1   force =     0.00025400    0.00011692    0.00029069
     atom   44 type  1   force =     0.00023105    0.00041624    0.00038263
     atom   45 type  1   force =    -0.00031953    0.00033081    0.00054234
     atom   46 type  1   force =    -0.00062323    0.00013057    0.00035067
     atom   47 type  1   force =    -0.00039156    0.00092150    0.00091816
     atom   48 type  1   force =    -0.00018760   -0.00445744   -0.00010682
     atom   49 type  3   force =     0.00067410    0.00437940    0.00052088
     atom   50 type  4   force =    -0.00020536   -0.00117727    0.00187517
     atom   51 type  4   force =     0.00009195   -0.00221097   -0.00104584

     Total force =     0.374347     Total SCF correction =     0.000484
  @ DRIVER MODE: Message from server: STATUS
  @ DRIVER MODE: Message from server: GETFORCE
  @ DRIVER MODE: Returning v,forces,stress,ensemble

     Writing output data file ./calc.save/
  @ DRIVER MODE: Message from server: EXIT
  @ DRIVE MODE: Exiting

     General routines

     Parallel routines

   This run was terminated on:  23:23:52   8Sep2021

   JOB DONE.