     Program PWSCF v.6.7GPU starts on  3Aug2021 at 11:17:15

     R & G space division:  proc/nbgrp/npool/nimage =      16
     Reading input from /storage/home/hcoda1/3/ntian30/research/carbon/02Aug_vib_paired/ads_slab/CH3NN_b/out_0007/pw.inp
Warning: card &CELL ignored
Warning: card   CELL_DYNAMICS='IPI', ignored
Warning: card / ignored

     Current dimensions of program PWSCF are:
     Max number of different atomic species (ntypx) = 10
     Max number of k-points (npk) =  40000
     Max angular momentum in pseudopotentials (lmaxx) =  3
     Presently no symmetry can be used with electric field

     Message from routine cell_base_init:
     DEPRECATED: use true lattice parameter, not A to a.u. conversion factor

     IMPORTANT: XC functional enforced from input :
     Exchange-correlation= BEEF-VDW
                           (   1   4  43  14   2   0   0)
     Any further DFT definition will be discarded
     Please, verify this is what you really want

  @ DRIVER MODE: Connecting to
 qe_1139763_2490222.sched-torque.pace.gatech.edu2urcwdne_scratch
  using UNIX socket
  @ DRIVER MODE: Message from server: STATUS
  @ DRIVER MODE: Message from server: INIT
  @ DRIVER MODE: Receiving replica           0          -1
  @ DRIVER MODE: Receiving encoded integer          25
  @ DRIVER MODE:  SCF:  T  FORCE:  T  STRESS:  F  VC:  F  ENSEMBLE:  F
  @ DRIVER MODE:  SCF:  T  FORCE:  T  STRESS:  F  VC:  F  ENSEMBLE:  F

     Using Slab Decomposition

     bravais-lattice index     =            0
     lattice parameter (alat)  =       1.8897  a.u.
     unit-cell volume          =    6658.9804 (a.u.)^3
     number of atoms/cell      =           53
     number of atomic types    =            5
     number of electrons       =       395.00
     number of Kohn-Sham states=          207
     kinetic-energy cutoff     =      29.3995  Ry
     charge density cutoff     =     293.9946  Ry
     scf convergence threshold =      7.3E-08
     mixing beta               =       0.0500
     number of iterations used =            8  plain     mixing
     Exchange-correlation= BEEF-VDW
                           (   1   4  43  14   2   0   0)

     celldm(1)=   1.889726  celldm(2)=   0.000000  celldm(3)=   0.000000
     celldm(4)=   0.000000  celldm(5)=   0.000000  celldm(6)=   0.000000

     crystal axes: (cart. coord. in units of alat)
               a(1) = (   6.579727   0.000000   0.000000 )
               a(2) = (  -0.000775   5.961596   0.000000 )
               a(3) = (   0.000000   0.000000  25.155947 )

     reciprocal axes: (cart. coord. in units 2 pi/alat)
               b(1) = (  0.151982  0.000020  0.000000 )
               b(2) = (  0.000000  0.167740  0.000000 )
               b(3) = (  0.000000  0.000000  0.039752 )

     PseudoPot. # 1 for Ti read from file:
     /storage/coda1/p-amedford6/0/shared/rich_project_chbe-medford/medford-share/data/pseudos_module/espresso/nninc/pbe/van/Ti.UPF
     MD5 check sum: 8e4df49b7f0d34bbd5052bf3f5ea0213
     Pseudo is Ultrasoft, Zval = 12.0
     Generated by new atomic code, or converted to UPF format
     Using radial grid of  851 points,  6 beta functions with:
                l(1) =   0
                l(2) =   0
                l(3) =   1
                l(4) =   1
                l(5) =   2
                l(6) =   2
     Q(r) pseudized with  8 coefficients,  rinner =    1.000   1.000   1.000
                                                       1.000   1.000

     PseudoPot. # 2 for O  read from file:
     /storage/coda1/p-amedford6/0/shared/rich_project_chbe-medford/medford-share/data/pseudos_module/espresso/nninc/pbe/van/O.UPF
     MD5 check sum: 78c19812648e8988a0fe644b0f25305e
     Pseudo is Ultrasoft, Zval =  6.0
     Generated by new atomic code, or converted to UPF format
     Using radial grid of  737 points,  4 beta functions with:
                l(1) =   0
                l(2) =   0
                l(3) =   1
                l(4) =   1
     Q(r) pseudized with  8 coefficients,  rinner =    0.800   0.800   0.800

     PseudoPot. # 3 for N  read from file:
     /storage/coda1/p-amedford6/0/shared/rich_project_chbe-medford/medford-share/data/pseudos_module/espresso/nninc/pbe/van/N.UPF
     MD5 check sum: 90d10febe142ad51ac9d5be1deb811c4
     Pseudo is Ultrasoft, Zval =  5.0
     Generated by new atomic code, or converted to UPF format
     Using radial grid of  729 points,  4 beta functions with:
                l(1) =   0
                l(2) =   0
                l(3) =   1
                l(4) =   1
     Q(r) pseudized with  8 coefficients,  rinner =    0.800   0.800   0.800

     PseudoPot. # 4 for C  read from file:
     /storage/coda1/p-amedford6/0/shared/rich_project_chbe-medford/medford-share/data/pseudos_module/espresso/nninc/pbe/van/C.UPF
     MD5 check sum: 1a69bf6b8db32088f5b2163dbdb77a27
     Pseudo is Ultrasoft, Zval =  4.0
     Generated by new atomic code, or converted to UPF format
     Using radial grid of  721 points,  4 beta functions with:
                l(1) =   0
                l(2) =   0
                l(3) =   1
                l(4) =   1
     Q(r) pseudized with  8 coefficients,  rinner =    0.800   0.800   0.800

     PseudoPot. # 5 for H  read from file:
     /storage/coda1/p-amedford6/0/shared/rich_project_chbe-medford/medford-share/data/pseudos_module/espresso/nninc/pbe/van/H.UPF
     MD5 check sum: b5ee9d7bfd3a09ee7748110bda690ff7
     Pseudo is Ultrasoft, Zval =  1.0
     Generated by new atomic code, or converted to UPF format
     Using radial grid of  615 points,  1 beta functions with:
                l(1) =   0
     Q(r) pseudized with  8 coefficients,  rinner =    0.800

     atomic species   valence    mass     pseudopotential
        Ti1           12.00    47.86700     Ti( 1.00)
        O1             6.00    15.99900     O ( 1.00)
        N1             5.00    14.00700     N ( 1.00)
        C1             4.00    12.01100     C ( 1.00)
        H1             1.00     1.00800     H ( 1.00)

     No symmetry found

   Cartesian axes

     site n.     atom                  positions (alat units)
         1           Ti1 tau(   1) = (   0.0004258   2.9801865   6.0000000  )
         2           Ti1 tau(   2) = (   3.2906075   1.4906267   6.0002472  )
         3           O1  tau(   3) = (   0.0006271   0.0005054   7.9858123  )
         4           O1  tau(   4) = (   3.2906025   0.0005020   7.3038282  )
         5           O1  tau(   5) = (   4.5942328   1.4918067   9.2879030  )
         6           O1  tau(   6) = (   1.9868534   1.4903216   9.2879459  )
         7           Ti1 tau(   7) = (   3.2907910   2.8959150   9.1758416  )
         8           Ti1 tau(   8) = (   0.0015273   1.4827037   9.2680791  )
         9           O1  tau(   9) = (   3.2846693   5.9452209  11.3340492  )
        10           O1  tau(  10) = (   0.0116148   5.9584955  10.6183126  )
        11           O1  tau(  11) = (   1.2834543   1.4847615  12.6293855  )
        12           O1  tau(  12) = (   5.2674731   1.4768263  12.6150299  )
        13           Ti1 tau(  13) = (   0.0515077   3.0114797  12.6524288  )
        14           Ti1 tau(  14) = (   3.3730355   1.4714245  12.4820590  )
        15           O1  tau(  15) = (   6.5599962   0.0037305  14.6029173  )
        16           O1  tau(  16) = (   3.2800597   5.9387738  13.9271036  )
        17           O1  tau(  17) = (   4.5186125   1.4654914  16.0451899  )
        18           O1  tau(  18) = (   2.0258539   1.4687252  16.0523685  )
        19           Ti1 tau(  19) = (   3.2649076   2.9492218  15.6988400  )
        20           Ti1 tau(  20) = (   6.5508048   1.3556675  15.8025096  )
        21           O1  tau(  21) = (   3.2904802   0.0005063   4.7018136  )
        22           O1  tau(  22) = (   6.5741700   5.9536011  17.1303138  )
        23           O1  tau(  23) = (   1.3043587   1.4918075   6.0039043  )
        24           O1  tau(  24) = (   5.2767064   1.4903225   6.0039473  )
        25           Ti1 tau(  25) = (   0.0000382   5.9609847   6.0000000  )
        26           Ti1 tau(  26) = (   3.2902200   4.4714249   6.0002472  )
        27           O1  tau(  27) = (   0.0002396   2.9813036   7.9858123  )
        28           O1  tau(  28) = (   3.2902150   2.9813002   7.3038282  )
        29           O1  tau(  29) = (   4.5938453   4.4726049   9.2879030  )
        30           O1  tau(  30) = (   1.9864658   4.4711199   9.2879459  )
        31           Ti1 tau(  31) = (   3.2891106   5.8743827   9.1763621  )
        32           Ti1 tau(  32) = (   0.0006254   4.4649316   9.2693709  )
        33           O1  tau(  33) = (   3.2861826   2.9668924  11.3320306  )
        34           O1  tau(  34) = (   0.0092240   2.9805883  10.6323155  )
        35           O1  tau(  35) = (   1.2809698   4.4658153  12.6346578  )
        36           O1  tau(  36) = (   5.2715881   4.4563464  12.6201172  )
        37           Ti1 tau(  37) = (   0.0635592   0.0233401  12.5351680  )
        38           Ti1 tau(  38) = (   3.3726470   4.4512063  12.4842852  )
        39           O1  tau(  39) = (   6.5700678   2.9603531  14.7052597  )
        40           O1  tau(  40) = (   3.2800127   2.9650284  13.9044324  )
        41           O1  tau(  41) = (   4.5221929   4.4260918  16.0817388  )
        42           O1  tau(  42) = (   2.0277389   4.4301665  16.0727494  )
        43           Ti1 tau(  43) = (   3.2617617   5.9330256  15.7261539  )
        44           Ti1 tau(  44) = (   6.5423007   4.4542687  16.1498850  )
        45           O1  tau(  45) = (   3.2900926   2.9813045   4.7018136  )
        46           O1  tau(  46) = (   1.3039711   4.4726057   6.0039043  )
        47           O1  tau(  47) = (   5.2763189   4.4711207   6.0039473  )
        48           N1  tau(  48) = (   2.8794700   5.9070534  18.9683957  )
        49           C1  tau(  49) = (   6.5402552   3.0456858  17.8350167  )
        50           H1  tau(  50) = (   5.8927902   3.7356694  18.3776660  )
        51           H1  tau(  51) = (   6.1439290   2.0579341  18.0513002  )
        52           H1  tau(  52) = (   0.9604482   3.1013269  18.2919552  )
        53           N1  tau(  53) = (   2.0963344   5.7764004  19.7355773  )

     number of k points=    10  Fermi-Dirac smearing, width (Ry)=  0.0073
                       cart. coord. in units 2pi/alat
        k(    1) = (   0.0000000   0.0000000   0.0000000), wk =   0.1250000
        k(    2) = (   0.0000000   0.0419351   0.0000000), wk =   0.2500000
        k(    3) = (   0.0000000  -0.0838702   0.0000000), wk =   0.1250000
        k(    4) = (   0.0379955   0.0000049   0.0000000), wk =   0.2500000
        k(    5) = (   0.0379955   0.0419400   0.0000000), wk =   0.2500000
        k(    6) = (   0.0379955  -0.0838652   0.0000000), wk =   0.2500000
        k(    7) = (   0.0379955  -0.0419301   0.0000000), wk =   0.2500000
        k(    8) = (  -0.0759910  -0.0000099   0.0000000), wk =   0.1250000
        k(    9) = (  -0.0759910   0.0419252   0.0000000), wk =   0.2500000
        k(   10) = (  -0.0759910  -0.0838800   0.0000000), wk =   0.1250000

     Initial potential from superposition of free atoms

[...]
     MD5 check sum: 90d10febe142ad51ac9d5be1deb811c4
     Pseudo is Ultrasoft, Zval =  5.0
     Generated by new atomic code, or converted to UPF format
     Using radial grid of  729 points,  4 beta functions with:
                l(1) =   0
                l(2) =   0
                l(3) =   1
                l(4) =   1
     Q(r) pseudized with  8 coefficients,  rinner =    0.800   0.800   0.800

     PseudoPot. # 4 for C  read from file:
     /storage/coda1/p-amedford6/0/shared/rich_project_chbe-medford/medford-share/data/pseudos_module/espresso/nninc/pbe/van/C.UPF
     MD5 check sum: 1a69bf6b8db32088f5b2163dbdb77a27
     Pseudo is Ultrasoft, Zval =  4.0
     Generated by new atomic code, or converted to UPF format
     Using radial grid of  721 points,  4 beta functions with:
                l(1) =   0
                l(2) =   0
                l(3) =   1
                l(4) =   1
     Q(r) pseudized with  8 coefficients,  rinner =    0.800   0.800   0.800

     PseudoPot. # 5 for H  read from file:
     /storage/coda1/p-amedford6/0/shared/rich_project_chbe-medford/medford-share/data/pseudos_module/espresso/nninc/pbe/van/H.UPF
     MD5 check sum: b5ee9d7bfd3a09ee7748110bda690ff7
     Pseudo is Ultrasoft, Zval =  1.0
     Generated by new atomic code, or converted to UPF format
     Using radial grid of  615 points,  1 beta functions with:
                l(1) =   0
     Q(r) pseudized with  8 coefficients,  rinner =    0.800

     atomic species   valence    mass     pseudopotential
        Ti1           12.00    47.86700     Ti( 1.00)
        O1             6.00    15.99900     O ( 1.00)
        N1             5.00    14.00700     N ( 1.00)
        C1             4.00    12.01100     C ( 1.00)
        H1             1.00     1.00800     H ( 1.00)

     No symmetry found

   Cartesian axes

     site n.     atom                  positions (alat units)
         1           Ti1 tau(   1) = (   0.0004258   2.9801865   6.0000000  )
         2           Ti1 tau(   2) = (   3.2906075   1.4906267   6.0002472  )
         3           O1  tau(   3) = (   0.0006271   0.0005054   7.9858123  )
         4           O1  tau(   4) = (   3.2906025   0.0005020   7.3038282  )
         5           O1  tau(   5) = (   4.5942328   1.4918067   9.2879030  )
         6           O1  tau(   6) = (   1.9868534   1.4903216   9.2879459  )
         7           Ti1 tau(   7) = (   3.2907910   2.8959150   9.1758416  )
         8           Ti1 tau(   8) = (   0.0015273   1.4827037   9.2680791  )
         9           O1  tau(   9) = (   3.2846693   5.9452209  11.3340492  )
        10           O1  tau(  10) = (   0.0116148   5.9584955  10.6183126  )
        11           O1  tau(  11) = (   1.2834543   1.4847615  12.6293855  )
        12           O1  tau(  12) = (   5.2674731   1.4768263  12.6150299  )
        13           Ti1 tau(  13) = (   0.0515077   3.0114797  12.6524288  )
        14           Ti1 tau(  14) = (   3.3730355   1.4714245  12.4820590  )
        15           O1  tau(  15) = (   6.5599962   0.0037305  14.6029173  )
        16           O1  tau(  16) = (   3.2800597   5.9387738  13.9271036  )
        17           O1  tau(  17) = (   4.5186125   1.4654914  16.0451899  )
        18           O1  tau(  18) = (   2.0258539   1.4687252  16.0523685  )
        19           Ti1 tau(  19) = (   3.2649076   2.9492218  15.6988400  )
        20           Ti1 tau(  20) = (   6.5508048   1.3556675  15.8025096  )
        21           O1  tau(  21) = (   3.2904802   0.0005063   4.7018136  )
        22           O1  tau(  22) = (   6.5741700   5.9536011  17.1303138  )
        23           O1  tau(  23) = (   1.3043587   1.4918075   6.0039043  )
        24           O1  tau(  24) = (   5.2767064   1.4903225   6.0039473  )
        25           Ti1 tau(  25) = (   0.0000382   5.9609847   6.0000000  )
        26           Ti1 tau(  26) = (   3.2902200   4.4714249   6.0002472  )
        27           O1  tau(  27) = (   0.0002396   2.9813036   7.9858123  )
        28           O1  tau(  28) = (   3.2902150   2.9813002   7.3038282  )
        29           O1  tau(  29) = (   4.5938453   4.4726049   9.2879030  )
        30           O1  tau(  30) = (   1.9864658   4.4711199   9.2879459  )
        31           Ti1 tau(  31) = (   3.2891106   5.8743827   9.1763621  )
        32           Ti1 tau(  32) = (   0.0006254   4.4649316   9.2693709  )
        33           O1  tau(  33) = (   3.2861826   2.9668924  11.3320306  )
        34           O1  tau(  34) = (   0.0092240   2.9805883  10.6323155  )
        35           O1  tau(  35) = (   1.2809698   4.4658153  12.6346578  )
        36           O1  tau(  36) = (   5.2715881   4.4563464  12.6201172  )
        37           Ti1 tau(  37) = (   0.0635592   0.0233401  12.5351680  )
        38           Ti1 tau(  38) = (   3.3726470   4.4512063  12.4842852  )
        39           O1  tau(  39) = (   6.5700678   2.9603531  14.7052597  )
        40           O1  tau(  40) = (   3.2800127   2.9650284  13.9044324  )
        41           O1  tau(  41) = (   4.5221929   4.4260918  16.0817388  )
        42           O1  tau(  42) = (   2.0277389   4.4301665  16.0727494  )
        43           Ti1 tau(  43) = (   3.2617617   5.9330256  15.7261539  )
        44           Ti1 tau(  44) = (   6.5423007   4.4542687  16.1498850  )
        45           O1  tau(  45) = (   3.2900926   2.9813045   4.7018136  )
        46           O1  tau(  46) = (   1.3039711   4.4726057   6.0039043  )
        47           O1  tau(  47) = (   5.2763189   4.4711207   6.0039473  )
        48           N1  tau(  48) = (   2.8794700   5.9070534  18.9683957  )
        49           C1  tau(  49) = (   6.5502552   3.0456858  17.8350167  )
        50           H1  tau(  50) = (   5.8927902   3.7356694  18.3676660  )
        51           H1  tau(  51) = (   6.1439290   2.0579341  18.0513002  )
        52           H1  tau(  52) = (   0.9604482   3.1013269  18.2919552  )
        53           N1  tau(  53) = (   2.0963344   5.7764004  19.7355773  )

     number of k points=    10  Fermi-Dirac smearing, width (Ry)=  0.0073
                       cart. coord. in units 2pi/alat
        k(    1) = (   0.0000000   0.0000000   0.0000000), wk =   0.1250000
        k(    2) = (   0.0000000   0.0419351   0.0000000), wk =   0.2500000
        k(    3) = (   0.0000000  -0.0838702   0.0000000), wk =   0.1250000
        k(    4) = (   0.0379955   0.0000049   0.0000000), wk =   0.2500000
        k(    5) = (   0.0379955   0.0419400   0.0000000), wk =   0.2500000
        k(    6) = (   0.0379955  -0.0838652   0.0000000), wk =   0.2500000
        k(    7) = (   0.0379955  -0.0419301   0.0000000), wk =   0.2500000
        k(    8) = (  -0.0759910  -0.0000099   0.0000000), wk =   0.1250000
        k(    9) = (  -0.0759910   0.0419252   0.0000000), wk =   0.2500000
        k(   10) = (  -0.0759910  -0.0838800   0.0000000), wk =   0.1250000

     Initial potential from superposition of free atoms

     starting charge  378.99916, renormalised to  395.00000

[...]

     %%%%%%%%%%%%%%%%%%%%%%%%%%%%%%%%%%%%%%%%%%%%%%%%%%%%%%%%%%%%%%%%%%%%%%%%
     %                                                                      %
     % You are using vdW-DF, which was implemented by the Thonhauser group. %
     % Please cite the following two papers that made this development      %
     % possible and the two reviews that describe the various versions:     %
     %                                                                      %
     %   T. Thonhauser et al., PRL 115, 136402 (2015).                      %
     %   T. Thonhauser et al., PRB 76, 125112 (2007).                       %
     %   K. Berland et al., Rep. Prog. Phys. 78, 066501 (2015).             %
     %   D.C. Langreth et al., J. Phys.: Condens. Matter 21, 084203 (2009). %
     %                                                                      %
     %                                                                      %
     % If you are calculating the stress with vdW-DF, please also cite:     %
     %                                                                      %
     %   R. Sabatini et al., J. Phys.: Condens. Matter 24, 424209 (2012).   %
     %                                                                      %
     %%%%%%%%%%%%%%%%%%%%%%%%%%%%%%%%%%%%%%%%%%%%%%%%%%%%%%%%%%%%%%%%%%%%%%%%

[...]

     Starting wfcs are  299 atomic wfcs
  @ DRIVER MODE: Message from server: STATUS
  @ DRIVER MODE: Message from server: POSDATA
  @ DRIVER MODE: Reading and sharing cell
  @ DRIVER MODE: Reading and sharing positions
  @ DRIVER MODE: Received positions

     Self-consistent Calculation

[...]

     iteration # 72     ecut=    29.40 Ry     beta= 0.05
     Davidson diagonalization with overlap
     c_bands:  1 eigenvalues not converged
     ethr =  3.10E-11,  avg # of iterations = 15.0

[...]

     total energy              =   -2939.21026924 Ry
     estimated scf accuracy    <       0.00000009 Ry

     iteration # 74     ecut=    29.40 Ry     beta= 0.05
     Davidson diagonalization with overlap
     ethr =  2.22E-11,  avg # of iterations =  7.2

     negative rho (up, down):  1.664E-02 0.000E+00

     Adding external electric field

     Computed dipole along edir(3) :
        Dipole                0.4580 Ry au,          1.1641 Debye
        Dipole field          0.0009 Ry au,

        Potential amp.       -0.0801 Ry
        Total length         46.3494 bohr

     End of self-consistent calculation

[...]

          k = 0.0380-0.0419 0.0000 ( 17876 PWs)   bands (ev):

[...]

          k =-0.0760-0.0839 0.0000 ( 17948 PWs)   bands (ev):

   -56.0213 -56.0198 -56.0127 -56.0067 -55.9231 -55.8867 -55.8786 -55.8587
   -55.8283 -55.8254 -55.7954 -55.7924 -55.6035 -55.4889 -54.9980 -54.9978
   -32.3891 -32.3832 -32.3356 -32.3347 -32.3164 -32.3153 -32.3037 -32.2917
   -32.2467 -32.2304 -32.2283 -32.2260 -32.1922 -32.1700 -32.1677 -32.1563
   -32.1494 -32.1409 -32.1398 -32.1392 -32.1335 -32.1302 -32.1208 -32.1049
   -32.0765 -32.0756 -32.0730 -32.0467 -32.0283 -32.0270 -32.0256 -32.0240
   -32.0095 -32.0082 -32.0055 -31.9992 -31.9703 -31.8763 -31.8197 -31.7697
   -31.7419 -31.6450 -31.3241 -31.3239 -31.2349 -31.2347 -31.1956 -31.1955
   -20.9818 -16.2227 -16.1913 -15.9995 -15.9524 -15.9470 -15.9360 -15.8460
   -15.7382 -15.7327 -15.7315 -15.6614 -15.6392 -15.6308 -15.5782 -15.5755
   -15.5650 -15.5539 -15.5489 -15.5001 -15.4923 -15.4757 -15.4663 -15.4095
   -15.3540 -15.3497 -15.3408 -15.1427 -15.0277 -14.9637 -13.5030 -13.5027
    -9.1786  -6.2314  -4.1476  -4.1237  -3.5156  -3.4757  -3.2638  -3.1985
    -3.1844  -3.1120  -2.9802  -2.9658  -2.9368  -2.9305  -2.9160  -2.8848
    -2.8707  -2.8521  -2.8450  -2.8290  -2.8140  -2.7887  -2.7528  -2.7447
    -2.7416  -2.7071  -2.6900  -2.6668  -2.6605  -2.6395  -2.6326  -2.5979
    -2.5737  -2.5533  -2.5480  -2.4258  -2.2807  -2.2360  -2.1857  -2.1683
    -2.1650  -2.1307  -2.0999  -2.0896  -2.0664  -2.0213  -1.8690  -1.7662
    -1.7406  -1.7120  -1.6680  -1.6276  -1.5729  -1.4381  -1.4243  -1.3967
    -1.3406  -1.3270  -1.2789  -1.2643  -1.2488  -1.1684  -1.1362  -1.0823
    -1.0102  -0.9988  -0.9920  -0.9366  -0.8825  -0.8073  -0.7984  -0.7588
    -0.7173  -0.6783  -0.6456  -0.6180  -0.5500  -0.5143  -0.3989  -0.3454
    -0.1144  -0.0739   0.0101   0.0543   0.1075   0.1514   0.1616   0.2800
     0.2825   0.3025   0.3874   0.3973   0.4898   0.5086   0.5197   0.7194
     1.2245   1.3708   1.3716   1.4434   1.4440   3.3834   3.3966   3.4222
     3.4679   3.6022   3.6109   3.6297   3.6317   3.7575   3.7776

     the Fermi energy is     3.0974 ev

!    total energy              =   -2939.21028672 Ry
     estimated scf accuracy    <       0.00000006 Ry
     smearing contrib. (-TS)   =      -0.02183901 Ry
     internal energy E=F+TS    =   -2939.18844771 Ry

     The total energy is F=E-TS. E is the sum of the following terms:
     one-electron contribution =  -24057.21692861 Ry
     hartree contribution      =   12114.16259878 Ry
     xc contribution           =    -484.94406261 Ry
     ewald contribution        =    9488.80954890 Ry
     electric field correction =       0.00039583 Ry

     convergence has been achieved in  74 iterations

     Forces acting on atoms (cartesian axes, Ry/au):

     atom    1 type  1   force =     0.00024306   -0.00019761    0.09665498
     atom    2 type  1   force =    -0.00017449   -0.00056024   -0.17531310
     atom    3 type  2   force =    -0.00000913   -0.00005022   -0.02513065
     atom    4 type  2   force =     0.00006816   -0.00152340    0.05290291
     atom    5 type  2   force =    -0.01234555   -0.00155943    0.00379830
     atom    6 type  2   force =     0.01382458   -0.00083241    0.00222428
     atom    7 type  1   force =    -0.00114026    0.00042581   -0.01136687
     atom    8 type  1   force =     0.00079340    0.01677377    0.02865266
     atom    9 type  2   force =     0.00010944   -0.00021084   -0.00001175
     atom   10 type  2   force =    -0.00174137    0.00057200   -0.01858775
     atom   11 type  2   force =    -0.00018400   -0.00005452   -0.00014287
     atom   12 type  2   force =    -0.00001087   -0.00001049   -0.00001621
     atom   13 type  1   force =     0.00012916   -0.00027641   -0.00020047
     atom   14 type  1   force =    -0.00010025    0.00032748    0.00026575
     atom   15 type  2   force =    -0.00020875   -0.00018033   -0.00107284
     atom   16 type  2   force =     0.00000397   -0.00023258   -0.00030294
     atom   17 type  2   force =     0.00037920    0.00032989    0.00035630
     atom   18 type  2   force =    -0.00043702   -0.00002774   -0.00008484
     atom   19 type  1   force =    -0.00049545   -0.00014126   -0.00013552
     atom   20 type  1   force =    -0.00000178    0.00114030    0.00025341
     atom   21 type  2   force =     0.00013354    0.00001191    0.10323124
     atom   22 type  2   force =     0.00008065   -0.00048916   -0.00001570
     atom   23 type  2   force =    -0.07146830   -0.00011925   -0.02774375
     atom   24 type  2   force =     0.07146244    0.00030492   -0.02772558
     atom   25 type  1   force =     0.00011752   -0.00017088    0.09645178
     atom   26 type  1   force =    -0.00007842   -0.00019921   -0.17539291
     atom   27 type  2   force =     0.00008692   -0.00016304   -0.02391835
     atom   28 type  2   force =     0.00008873   -0.00126312    0.05297110
     atom   29 type  2   force =    -0.01253461    0.00044570    0.00364052
     atom   30 type  2   force =     0.01396664    0.00085198    0.00204906
     atom   31 type  1   force =    -0.00128823    0.00339226   -0.01273132
     atom   32 type  1   force =     0.00074405   -0.01754154    0.02977000
     atom   33 type  2   force =     0.00017372    0.00017345   -0.00007352
     atom   34 type  2   force =    -0.00105425    0.00009151   -0.02246250
     atom   35 type  2   force =     0.00010994    0.00022189    0.00005573
     atom   36 type  2   force =     0.00007937    0.00010244    0.00019943
     atom   37 type  1   force =    -0.00012767    0.00037638   -0.00019668
     atom   38 type  1   force =    -0.00018047    0.00027083    0.00030103
     atom   39 type  2   force =     0.00005490    0.00021868    0.00038087
     atom   40 type  2   force =    -0.00002945   -0.00000226    0.00003176
     atom   41 type  2   force =     0.00037491   -0.00024800    0.00012848
     atom   42 type  2   force =     0.00019031   -0.00017866    0.00014975
     atom   43 type  1   force =    -0.00010044   -0.00021393    0.00014224
     atom   44 type  1   force =     0.00019028   -0.00020905   -0.00005654
     atom   45 type  2   force =     0.00011143   -0.00001331    0.10324429
     atom   46 type  2   force =    -0.07146051   -0.00011516   -0.02770977
     atom   47 type  2   force =     0.07146992    0.00036862   -0.02773444
     atom   48 type  3   force =    -0.00138556    0.00015413   -0.00083023
     atom   49 type  4   force =     0.00303500   -0.00426767   -0.00386050
     atom   50 type  5   force =    -0.00344640    0.00353295    0.00401490
     atom   51 type  5   force =    -0.00025227   -0.00007625    0.00023180
     atom   52 type  5   force =     0.00036667    0.00049296    0.00007383
     atom   53 type  3   force =     0.00186761    0.00054810    0.00064119

     Total force =     0.368872     Total SCF correction =     0.000573
  @ DRIVER MODE: Message from server: STATUS
  @ DRIVER MODE: Message from server: GETFORCE
  @ DRIVER MODE: Returning v,forces,stress,ensemble

     Writing output data file ./calc.save/
  @ DRIVER MODE: Message from server: EXIT
  @ DRIVE MODE: Exiting

     General routines

     Parallel routines

   This run was terminated on:   2:43:37   4Aug2021

   JOB DONE.