     Program PWSCF v.6.7GPU starts on 16Sep2021 at 13: 3: 2

     R & G space division:  proc/nbgrp/npool/nimage =      10
     Reading input from /storage/home/hcoda1/3/ntian30/research/carbon/CxH_vib/H2O_calc/ads_slab/CH3NH2NHH2O_c/out_0060/pw.inp
Warning: card &CELL ignored
Warning: card   CELL_DYNAMICS='IPI', ignored
Warning: card / ignored

     Current dimensions of program PWSCF are:
     Max number of different atomic species (ntypx) = 10
     Max number of k-points (npk) =  40000
     Max angular momentum in pseudopotentials (lmaxx) =  3
     Presently no symmetry can be used with electric field

     Message from routine cell_base_init:
     DEPRECATED: use true lattice parameter, not A to a.u. conversion factor

     IMPORTANT: XC functional enforced from input :
     Exchange-correlation= BEEF-VDW
                           (   1   4  43  14   2   0   0)
     Any further DFT definition will be discarded
     Please, verify this is what you really want

  @ DRIVER MODE: Connecting to
 qe_1139763_2852614.sched-torque.pace.gatech.eduul6l3fpx_scratch
  using UNIX socket
  @ DRIVER MODE: Message from server: STATUS
  @ DRIVER MODE: Message from server: INIT
  @ DRIVER MODE: Receiving replica           0          -1
  @ DRIVER MODE: Receiving encoded integer          25
  @ DRIVER MODE:  SCF:  T  FORCE:  T  STRESS:  F  VC:  F  ENSEMBLE:  F
  @ DRIVER MODE:  SCF:  T  FORCE:  T  STRESS:  F  VC:  F  ENSEMBLE:  F

     Using Slab Decomposition

     bravais-lattice index     =            0
     lattice parameter (alat)  =       1.8897  a.u.
     unit-cell volume          =    6658.9804 (a.u.)^3
     number of atoms/cell      =           59
     number of atomic types    =            5
     number of electrons       =       406.00
     number of Kohn-Sham states=          213
     kinetic-energy cutoff     =      29.3995  Ry
     charge density cutoff     =     293.9946  Ry
     scf convergence threshold =      7.3E-08
     mixing beta               =       0.0500
     number of iterations used =            8  plain     mixing
     Exchange-correlation= BEEF-VDW
                           (   1   4  43  14   2   0   0)

     celldm(1)=   1.889726  celldm(2)=   0.000000  celldm(3)=   0.000000
     celldm(4)=   0.000000  celldm(5)=   0.000000  celldm(6)=   0.000000

     crystal axes: (cart. coord. in units of alat)
               a(1) = (   6.579727   0.000000   0.000000 )
               a(2) = (  -0.000775   5.961596   0.000000 )
               a(3) = (   0.000000   0.000000  25.155947 )

     reciprocal axes: (cart. coord. in units 2 pi/alat)
               b(1) = (  0.151982  0.000020  0.000000 )
               b(2) = (  0.000000  0.167740  0.000000 )
               b(3) = (  0.000000  0.000000  0.039752 )

     PseudoPot. # 1 for Ti read from file:
     /storage/coda1/p-amedford6/0/shared/rich_project_chbe-medford/medford-share/data/pseudos_module/espresso/nninc/pbe/van/Ti.UPF
     MD5 check sum: 8e4df49b7f0d34bbd5052bf3f5ea0213
     Pseudo is Ultrasoft, Zval = 12.0
     Generated by new atomic code, or converted to UPF format
     Using radial grid of  851 points,  6 beta functions with:
                l(1) =   0
                l(2) =   0
                l(3) =   1
                l(4) =   1
                l(5) =   2
                l(6) =   2
     Q(r) pseudized with  8 coefficients,  rinner =    1.000   1.000   1.000
                                                       1.000   1.000

     PseudoPot. # 2 for O  read from file:
     /storage/coda1/p-amedford6/0/shared/rich_project_chbe-medford/medford-share/data/pseudos_module/espresso/nninc/pbe/van/O.UPF
     MD5 check sum: 78c19812648e8988a0fe644b0f25305e
     Pseudo is Ultrasoft, Zval =  6.0
     Generated by new atomic code, or converted to UPF format
     Using radial grid of  737 points,  4 beta functions with:
                l(1) =   0
                l(2) =   0
                l(3) =   1
                l(4) =   1
     Q(r) pseudized with  8 coefficients,  rinner =    0.800   0.800   0.800

     PseudoPot. # 3 for N  read from file:
     /storage/coda1/p-amedford6/0/shared/rich_project_chbe-medford/medford-share/data/pseudos_module/espresso/nninc/pbe/van/N.UPF
     MD5 check sum: 90d10febe142ad51ac9d5be1deb811c4
     Pseudo is Ultrasoft, Zval =  5.0
     Generated by new atomic code, or converted to UPF format
     Using radial grid of  729 points,  4 beta functions with:
                l(1) =   0
                l(2) =   0
                l(3) =   1
                l(4) =   1
     Q(r) pseudized with  8 coefficients,  rinner =    0.800   0.800   0.800

     PseudoPot. # 4 for C  read from file:
     /storage/coda1/p-amedford6/0/shared/rich_project_chbe-medford/medford-share/data/pseudos_module/espresso/nninc/pbe/van/C.UPF
     MD5 check sum: 1a69bf6b8db32088f5b2163dbdb77a27
     Pseudo is Ultrasoft, Zval =  4.0
     Generated by new atomic code, or converted to UPF format
     Using radial grid of  721 points,  4 beta functions with:
                l(1) =   0
                l(2) =   0
                l(3) =   1
                l(4) =   1
     Q(r) pseudized with  8 coefficients,  rinner =    0.800   0.800   0.800

     PseudoPot. # 5 for H  read from file:
     /storage/coda1/p-amedford6/0/shared/rich_project_chbe-medford/medford-share/data/pseudos_module/espresso/nninc/pbe/van/H.UPF
     MD5 check sum: b5ee9d7bfd3a09ee7748110bda690ff7
     Pseudo is Ultrasoft, Zval =  1.0
     Generated by new atomic code, or converted to UPF format
     Using radial grid of  615 points,  1 beta functions with:
                l(1) =   0
     Q(r) pseudized with  8 coefficients,  rinner =    0.800

     atomic species   valence    mass     pseudopotential
        Ti1           12.00    47.86700     Ti( 1.00)
        O1             6.00    15.99900     O ( 1.00)
        N1             5.00    14.00700     N ( 1.00)
        C1             4.00    12.01100     C ( 1.00)
        H1             1.00     1.00800     H ( 1.00)

     No symmetry found

   Cartesian axes

     site n.     atom                  positions (alat units)
         1           Ti1 tau(   1) = (   0.0004258   2.9801865   6.0000000  )
         2           Ti1 tau(   2) = (   3.2906075   1.4906267   6.0002472  )
         3           O1  tau(   3) = (   0.0006271   0.0005054   7.9858123  )
         4           O1  tau(   4) = (   3.2906025   0.0005020   7.3038282  )
         5           O1  tau(   5) = (   4.5942328   1.4918067   9.2879030  )
         6           O1  tau(   6) = (   1.9868534   1.4903216   9.2879459  )
         7           Ti1 tau(   7) = (   3.2907910   2.8959150   9.1758416  )
         8           Ti1 tau(   8) = (   0.0015273   1.4827037   9.2680791  )
         9           O1  tau(   9) = (   3.2795193   0.0050042  11.3600746  )
        10           O1  tau(  10) = (   0.0116148   5.9584955  10.6183126  )
        11           O1  tau(  11) = (   1.2764768   1.4833402  12.6625751  )
        12           O1  tau(  12) = (   5.2691860   1.4824858  12.6730715  )
        13           Ti1 tau(  13) = (   6.5785005   2.9712200  12.5432933  )
        14           Ti1 tau(  14) = (   3.2815129   1.4861921  12.5133659  )
        15           O1  tau(  15) = (   0.0084525   5.9333602  14.7514412  )
        16           O1  tau(  16) = (   3.2474592   5.9449689  14.0025778  )
        17           O1  tau(  17) = (   4.5272503   1.5270814  16.0535473  )
        18           O1  tau(  18) = (   2.0088677   1.5398698  16.1918835  )
        19           Ti1 tau(  19) = (   3.2695027   3.0127370  15.7044713  )
        20           Ti1 tau(  20) = (   6.4897317   1.5391078  15.7731133  )
        21           O1  tau(  21) = (   3.2904802   0.0005063   4.7018136  )
        22           O1  tau(  22) = (   6.4943121   0.0104379  17.3746616  )
        23           O1  tau(  23) = (   1.3043587   1.4918075   6.0039043  )
        24           O1  tau(  24) = (   5.2767064   1.4903225   6.0039473  )
        25           Ti1 tau(  25) = (   0.0000382   5.9609847   6.0000000  )
        26           Ti1 tau(  26) = (   3.2902200   4.4714249   6.0002472  )
        27           O1  tau(  27) = (   0.0002396   2.9813036   7.9858123  )
        28           O1  tau(  28) = (   3.2902150   2.9813002   7.3038282  )
        29           O1  tau(  29) = (   4.5938453   4.4726049   9.2879030  )
        30           O1  tau(  30) = (   1.9864658   4.4711199   9.2879459  )
        31           Ti1 tau(  31) = (   3.2891106   5.8743827   9.1763621  )
        32           Ti1 tau(  32) = (   0.0006254   4.4649316   9.2693709  )
        33           O1  tau(  33) = (   3.2806081   2.9711243  11.3509633  )
        34           O1  tau(  34) = (   0.0092240   2.9805883  10.6323155  )
        35           O1  tau(  35) = (   1.2760424   4.4718827  12.6381679  )
        36           O1  tau(  36) = (   5.2690016   4.4731519  12.6446470  )
        37           Ti1 tau(  37) = (   6.5708669   5.9382087  12.5160675  )
        38           Ti1 tau(  38) = (   3.2845625   4.4656782  12.4980923  )
        39           O1  tau(  39) = (   6.5779858   3.0049062  14.7590937  )
        40           O1  tau(  40) = (   3.2501146   3.0001303  13.9242794  )
        41           O1  tau(  41) = (   4.5300198   4.4412671  16.1793791  )
        42           O1  tau(  42) = (   2.0030354   4.4482434  16.2507355  )
        43           Ti1 tau(  43) = (   3.2558399   0.0045369  15.7947069  )
        44           Ti1 tau(  44) = (   0.0024851   4.6597080  16.1671864  )
        45           O1  tau(  45) = (   3.2900926   2.9813045   4.7018136  )
        46           O1  tau(  46) = (   1.3039711   4.4726057   6.0039043  )
        47           O1  tau(  47) = (   5.2763189   4.4711207   6.0039473  )
        48           N1  tau(  48) = (   0.8610865   2.3037131  18.4629187  )
        49           N1  tau(  49) = (   6.4642385   2.8627238  17.5618644  )
        50           C1  tau(  50) = (   1.1134797   3.0572184  19.7121060  )
        51           H1  tau(  51) = (   0.2160447   3.0254214  20.3281890  )
        52           H1  tau(  52) = (   1.9467850   2.5864873  20.2353232  )
        53           H1  tau(  53) = (   1.3463996   4.0866186  19.4485780  )
        54           H1  tau(  54) = (   0.5832711   1.3114681  18.6183785  )
        55           H1  tau(  55) = (   5.5643591   2.7461405  18.0238738  )
        56           H1  tau(  56) = (   1.7079168   2.1891883  17.8702682  )
        57           O1  tau(  57) = (   4.0734316   0.3075885  18.7865601  )
        58           H1  tau(  58) = (   4.9241673   0.1787741  18.2816895  )
        59           H1  tau(  59) = (   3.8734322   5.3936830  19.1372508  )

     number of k points=    10  Fermi-Dirac smearing, width (Ry)=  0.0073
                       cart. coord. in units 2pi/alat
        k(    1) = (   0.0000000   0.0000000   0.0000000), wk =   0.1250000
        k(    2) = (   0.0000000   0.0419351   0.0000000), wk =   0.2500000
        k(    3) = (   0.0000000  -0.0838702   0.0000000), wk =   0.1250000
        k(    4) = (   0.0379955   0.0000049   0.0000000), wk =   0.2500000
        k(    5) = (   0.0379955   0.0419400   0.0000000), wk =   0.2500000
        k(    6) = (   0.0379955  -0.0838652   0.0000000), wk =   0.2500000
        k(    7) = (   0.0379955  -0.0419301   0.0000000), wk =   0.2500000
        k(    8) = (  -0.0759910  -0.0000099   0.0000000), wk =   0.1250000
        k(    9) = (  -0.0759910   0.0419252   0.0000000), wk =   0.2500000
        k(   10) = (  -0.0759910  -0.0838800   0.0000000), wk =   0.1250000

     Initial potential from superposition of free atoms

     starting charge  389.99912, renormalised to  406.00000

     negative rho (up, down):  1.392E-02 0.000E+00

     %%%%%%%%%%%%%%%%%%%%%%%%%%%%%%%%%%%%%%%%%%%%%%%%%%%%%%%%%%%%%%%%%%%%%%%%
     %                                                                      %
     % You are using vdW-DF, which was implemented by the Thonhauser group. %
     % Please cite the following two papers that made this development      %
     % possible and the two reviews that describe the various versions:     %
     %                                                                      %
     %   T. Thonhauser et al., PRL 115, 136402 (2015).                      %
     %   T. Thonhauser et al., PRB 76, 125112 (2007).                       %
     %   K. Berland et al., Rep. Prog. Phys. 78, 066501 (2015).             %
     %   D.C. Langreth et al., J. Phys.: Condens. Matter 21, 084203 (2009). %
     %                                                                      %
     %                                                                      %
     % If you are calculating the stress with vdW-DF, please also cite:     %
     %                                                                      %
     %   R. Sabatini et al., J. Phys.: Condens. Matter 24, 424209 (2012).   %
     %                                                                      %
     %%%%%%%%%%%%%%%%%%%%%%%%%%%%%%%%%%%%%%%%%%%%%%%%%%%%%%%%%%%%%%%%%%%%%%%%

     Adding external electric field

     Computed dipole along edir(3) :
        Dipole              -15.6855 Ry au,        -39.8686 Debye
        Dipole field         -0.0296 Ry au,

        Potential amp.        2.7439 Ry
        Total length         46.3494 bohr

     Starting wfcs are  308 atomic wfcs
  @ DRIVER MODE: Message from server: STATUS
  @ DRIVER MODE: Message from server: POSDATA
  @ DRIVER MODE: Reading and sharing cell
  @ DRIVER MODE: Reading and sharing positions
  @ DRIVER MODE: Received positions

     Self-consistent Calculation

     iteration #  1     ecut=    29.40 Ry     beta= 0.05
     Davidson diagonalization with overlap
     c_bands:  2 eigenvalues not converged
     c_bands:  5 eigenvalues not converged
     c_bands:  2 eigenvalues not converged
     c_bands:  4 eigenvalues not converged
     c_bands:  4 eigenvalues not converged
     c_bands:  5 eigenvalues not converged
     c_bands:  5 eigenvalues not converged
     c_bands:  1 eigenvalues not converged
     ethr =  1.00E-05,  avg # of iterations = 22.5

[...]

     total energy              =   -2140.13114153 Ry
     estimated scf accuracy    <    9575.79189407 Ry

     iteration #  2     ecut=    29.40 Ry     beta= 0.05
     Davidson diagonalization with overlap
     ethr =  1.00E-02,  avg # of iterations = 31.5

[...]

     iteration # 66     ecut=    29.40 Ry     beta= 0.05
     Davidson diagonalization with overlap
     c_bands:  1 eigenvalues not converged
     ethr =  3.39E-11,  avg # of iterations = 13.2

[...]

     total energy              =   -2977.68487541 Ry
     estimated scf accuracy    <       0.00000062 Ry

     iteration # 67     ecut=    29.40 Ry     beta= 0.05
     Davidson diagonalization with overlap
     ethr =  3.39E-11,  avg # of iterations =  7.0

     negative rho (up, down):  1.254E-02 0.000E+00

     Adding external electric field

     Computed dipole along edir(3) :
        Dipole                1.6071 Ry au,          4.0849 Debye
        Dipole field          0.0030 Ry au,

        Potential amp.       -0.2811 Ry
        Total length         46.3494 bohr

     End of self-consistent calculation

          k = 0.0000 0.0000 0.0000 ( 18029 PWs)   bands (ev):

   -54.9545 -54.9177 -54.9152 -54.8836 -54.8443 -54.8343 -54.7942 -54.7625
   -54.7590 -54.7473 -54.7274 -54.7222 -54.7141 -54.6608 -53.9331 -53.8991
   -31.5265 -31.4078 -31.3209 -31.2825 -31.2662 -31.2520 -31.2495 -31.2442
   -31.2101 -31.2076 -31.1633 -31.1628 -31.1575 -31.1272 -31.1086 -31.0886
   -31.0783 -31.0725 -31.0708 -31.0637 -31.0293 -31.0255 -31.0193 -31.0128
   -30.9929 -30.9747 -30.9644 -30.9634 -30.9566 -30.9560 -30.9455 -30.9370
   -30.9212 -30.9205 -30.9119 -30.9110 -30.8853 -30.8781 -30.8762 -30.8759
   -30.8566 -30.8562 -30.3419 -30.2493 -30.2272 -30.1583 -30.0716 -29.9607
   -18.9627 -18.2010 -15.7901 -15.5226 -15.3973 -15.1968 -15.1433 -15.0389
   -14.8788 -14.8184 -14.7533 -14.7295 -14.7233 -14.6956 -14.6231 -14.5674
   -14.5395 -14.4858 -14.4851 -14.4493 -14.4420 -14.4386 -14.3827 -14.3786
   -14.3420 -14.3284 -14.3209 -14.1778 -14.0991 -14.0533 -14.0403 -13.1988
   -12.4357 -12.3185 -10.9844  -7.5871  -6.3976  -5.9568  -5.7596  -4.0104
    -3.8459  -3.1338  -2.9634  -2.9514  -2.8732  -2.8493  -2.6789  -2.6180
    -2.5101  -2.3943  -2.3187  -2.2210  -2.1775  -2.1592  -2.1454  -2.0331
    -1.9464  -1.9094  -1.8699  -1.8311  -1.8139  -1.7683  -1.7473  -1.7373
    -1.7046  -1.6793  -1.5260  -1.4520  -1.4153  -1.3814  -1.3408  -1.2836
    -1.2624  -1.2457  -1.2400  -1.2321  -1.2161  -1.1925  -1.1563  -1.1238
    -1.0563  -0.9703  -0.9625  -0.8513  -0.7678  -0.6323  -0.5808  -0.5233
    -0.4928  -0.4264  -0.3849  -0.3366  -0.3017  -0.2950  -0.2490  -0.1604
    -0.1486  -0.0906  -0.0724   0.0128   0.0582   0.0643   0.0758   0.2521
     0.2626   0.2807   0.3824   0.4638   0.5030   0.5193   0.5768   0.6397
     0.6419   0.6800   0.7020   0.7323   0.8159   0.9194   0.9443   0.9828
     0.9973   1.0227   1.0398   1.0656   1.1056   1.1872   1.1932   1.2700
     1.3621   1.3732   1.6367   1.6693   2.0001   2.0268   2.0895   2.2752
     2.6640   2.7114   4.1475   4.2094   4.2552   4.2803   4.2985   4.3818
     4.4047   4.6152   4.6414   4.6427   4.6518

[...]

          k = 0.0380-0.0419 0.0000 ( 17876 PWs)   bands (ev):

[...]

          k =-0.0760-0.0000 0.0000 ( 17886 PWs)   bands (ev):

[...]

          k =-0.0760-0.0839 0.0000 ( 17948 PWs)   bands (ev):

   -54.9426 -54.9268 -54.9006 -54.9006 -54.8418 -54.8247 -54.8038 -54.7565
   -54.7472 -54.7417 -54.7325 -54.7295 -54.7245 -54.6632 -53.9162 -53.9159
   -31.3352 -31.3239 -31.2585 -31.2229 -31.2228 -31.2169 -31.1931 -31.1930
   -31.1690 -31.1658 -31.1567 -31.1529 -31.1450 -31.0949 -31.0813 -31.0806
   -31.0764 -31.0751 -31.0721 -31.0692 -31.0428 -31.0321 -31.0297 -31.0233
   -31.0223 -31.0200 -31.0200 -31.0194 -30.9983 -30.9807 -30.9746 -30.9686
   -30.9615 -30.9559 -30.9544 -30.9507 -30.9502 -30.9233 -30.9160 -30.9128
   -30.9082 -30.8984 -30.2399 -30.2397 -30.1545 -30.1543 -30.1151 -30.1150
   -18.9577 -18.2015 -15.2808 -15.1540 -15.0554 -14.9997 -14.9527 -14.9367
   -14.9193 -14.8664 -14.8363 -14.7765 -14.7530 -14.7044 -14.6595 -14.6556
   -14.6284 -14.5485 -14.5332 -14.5208 -14.5134 -14.4623 -14.4483 -14.4255
   -14.4028 -14.3988 -14.3805 -14.3087 -14.2981 -14.2939 -14.2574 -13.2081
   -12.4202 -12.4200 -10.9850  -7.5982  -6.3880  -5.9562  -5.7445  -3.9885
    -3.8403  -2.5609  -2.5399  -2.4056  -2.3923  -2.2803  -2.1880  -2.1376
    -2.1320  -1.9933  -1.9603  -1.9449  -1.9290  -1.9167  -1.8681  -1.8449
    -1.8095  -1.7916  -1.7816  -1.7720  -1.7563  -1.7357  -1.6841  -1.6801
    -1.6689  -1.6546  -1.6104  -1.5948  -1.5638  -1.5534  -1.5246  -1.5021
    -1.4358  -1.3409  -1.2931  -1.2503  -1.1961  -1.1428  -1.1368  -1.0585
    -1.0404  -1.0086  -0.9777  -0.9530  -0.8556  -0.7838  -0.6894  -0.6870
    -0.6830  -0.5641  -0.5236  -0.5068  -0.4925  -0.4636  -0.3791  -0.3681
    -0.3091  -0.2342  -0.2083  -0.2035  -0.1778  -0.0591  -0.0331   0.0272
     0.0570   0.0904   0.0925   0.1712   0.1845   0.2436   0.2584   0.2719
     0.3167   0.3344   0.4324   0.5224   0.5575   0.6608   0.7537   0.7831
     0.8778   0.9357   1.0399   1.0593   1.0848   1.1814   1.1895   1.2248
     1.3540   1.3609   1.4767   1.5165   1.5264   1.5291   2.4476   2.4490
     2.5315   2.5316   4.2734   4.3965   4.4121   4.4583   4.5123   4.6541
     4.6776   4.7251   4.7267   4.8009   4.8093

     the Fermi energy is     4.1997 ev

!    total energy              =   -2977.68491228 Ry
     estimated scf accuracy    <       0.00000003 Ry
     smearing contrib. (-TS)   =      -0.03699390 Ry
     internal energy E=F+TS    =   -2977.64791838 Ry

     The total energy is F=E-TS. E is the sum of the following terms:
     one-electron contribution =  -23302.88516916 Ry
     hartree contribution      =   11752.43584476 Ry
     xc contribution           =    -496.60835094 Ry
     ewald contribution        =    9069.40488287 Ry
     electric field correction =       0.00487409 Ry

     convergence has been achieved in  67 iterations

     Forces acting on atoms (cartesian axes, Ry/au):

     atom    1 type  1   force =     0.00008172   -0.00025472    0.09413592
     atom    2 type  1   force =    -0.00008156   -0.00045568   -0.17746797
     atom    3 type  2   force =     0.00006307   -0.00032889   -0.02123242
     atom    4 type  2   force =     0.00003754   -0.00179288    0.05730516
     atom    5 type  2   force =    -0.01080142   -0.00101814    0.00667652
     atom    6 type  2   force =     0.01200038   -0.00033328    0.00502894
     atom    7 type  1   force =    -0.00060680    0.00106071   -0.01462685
     atom    8 type  1   force =     0.00086313    0.00330951    0.00459193
     atom    9 type  2   force =     0.00001060   -0.00005555    0.00013185
     atom   10 type  2   force =    -0.00368770    0.00210925   -0.00164573
     atom   11 type  2   force =    -0.00017650    0.00061903   -0.00008732
     atom   12 type  2   force =     0.00019607    0.00028567   -0.00020193
     atom   13 type  1   force =    -0.00019546   -0.00026743    0.00006249
     atom   14 type  1   force =     0.00025133   -0.00019730   -0.00040569
     atom   15 type  2   force =     0.00020127    0.00034542   -0.00007989
     atom   16 type  2   force =    -0.00011996    0.00024944   -0.00013532
     atom   17 type  2   force =    -0.00012066   -0.00040087    0.00054304
     atom   18 type  2   force =     0.00017109    0.00000868    0.00005773
     atom   19 type  1   force =    -0.00005841    0.00020560   -0.00047838
     atom   20 type  1   force =     0.00045520    0.00000516   -0.00008424
     atom   21 type  2   force =     0.00011962   -0.00008244    0.10378590
     atom   22 type  2   force =     0.00012282   -0.00015541   -0.00038239
     atom   23 type  2   force =    -0.07067644   -0.00015257   -0.02715021
     atom   24 type  2   force =     0.07064658    0.00031764   -0.02715795
     atom   25 type  1   force =     0.00009957   -0.00017354    0.09374037
     atom   26 type  1   force =    -0.00006232   -0.00052963   -0.17770103
     atom   27 type  2   force =     0.00006780   -0.00005298   -0.02033487
     atom   28 type  2   force =     0.00006646   -0.00146181    0.05630673
     atom   29 type  2   force =    -0.01130707   -0.00040175    0.00735720
     atom   30 type  2   force =     0.01242210   -0.00000371    0.00574868
     atom   31 type  1   force =    -0.00074392    0.00573975   -0.01565404
     atom   32 type  1   force =     0.00082183   -0.00458963    0.00434787
     atom   33 type  2   force =     0.00002118    0.00015435    0.00027936
     atom   34 type  2   force =    -0.00321178   -0.00103168   -0.00519455
     atom   35 type  2   force =    -0.00011927   -0.00039776    0.00008978
     atom   36 type  2   force =     0.00021635   -0.00006806   -0.00008531
     atom   37 type  1   force =    -0.00012745    0.00044058   -0.00013271
     atom   38 type  1   force =     0.00008567    0.00013576   -0.00018029
     atom   39 type  2   force =    -0.00046735   -0.00029371   -0.00012530
     atom   40 type  2   force =     0.00013362   -0.00008206    0.00029848
     atom   41 type  2   force =    -0.00003108    0.00033399    0.00003397
     atom   42 type  2   force =     0.00042589    0.00011025   -0.00020472
     atom   43 type  1   force =    -0.00028202   -0.00001970   -0.00052985
     atom   44 type  1   force =     0.00039783    0.00021951    0.00018156
     atom   45 type  2   force =     0.00010522   -0.00006604    0.10376709
     atom   46 type  2   force =    -0.07067422   -0.00007086   -0.02712955
     atom   47 type  2   force =     0.07064728    0.00033870   -0.02715023
     atom   48 type  3   force =     0.00054944   -0.00073977    0.00110977
     atom   49 type  3   force =    -0.00021574   -0.00042883    0.00048247
     atom   50 type  4   force =     0.00034647    0.00039152   -0.00020407
     atom   51 type  5   force =     0.00064124    0.00079203   -0.00031094
     atom   52 type  5   force =    -0.00009551    0.00032486    0.00019361
     atom   53 type  5   force =     0.00013438   -0.00053793   -0.00049942
     atom   54 type  5   force =     0.00042429   -0.00009595    0.00021399
     atom   55 type  5   force =     0.00035025   -0.00058040   -0.00012220
     atom   56 type  5   force =     0.00018676   -0.00015291    0.00041197
     atom   57 type  2   force =     0.00768829    0.00631261   -0.00568175
     atom   58 type  5   force =    -0.00584558    0.00056989    0.00298932
     atom   59 type  5   force =    -0.00134413   -0.00710602    0.00250540

     Total force =     0.366164     Total SCF correction =     0.000549
  @ DRIVER MODE: Message from server: STATUS
  @ DRIVER MODE: Message from server: GETFORCE
  @ DRIVER MODE: Returning v,forces,stress,ensemble

     Writing output data file ./calc.save/
  @ DRIVER MODE: Message from server: EXIT
  @ DRIVE MODE: Exiting

     General routines

     Parallel routines

   This run was terminated on:  13:22:45  16Sep2021

   JOB DONE.