     Program PWSCF v.6.7GPU starts on 23Sep2021 at 16:12:33

     R & G space division:  proc/nbgrp/npool/nimage =       8
     Reading input from /storage/home/hcoda1/3/ntian30/research/carbon/CxH_vib/H2O_calc/ads_slab/CH2N2HO_b/out_0014/pw.inp
Warning: card &CELL ignored
Warning: card   CELL_DYNAMICS='IPI', ignored
Warning: card / ignored

     Current dimensions of program PWSCF are:
     Max number of different atomic species (ntypx) = 10
     Max number of k-points (npk) =  40000
     Max angular momentum in pseudopotentials (lmaxx) =  3
     Presently no symmetry can be used with electric field

     Message from routine cell_base_init:
     DEPRECATED: use true lattice parameter, not A to a.u. conversion factor

     IMPORTANT: XC functional enforced from input :
     Exchange-correlation= BEEF-VDW
                           (   1   4  43  14   2   0   0)
     Any further DFT definition will be discarded
     Please, verify this is what you really want

  @ DRIVER MODE: Connecting to
 qe_1139763_2947312.sched-torque.pace.gatech.edu2ttgzibn_scratch
  using UNIX socket
  @ DRIVER MODE: Message from server: STATUS
  @ DRIVER MODE: Message from server: INIT
  @ DRIVER MODE: Receiving replica           0          -1
  @ DRIVER MODE: Receiving encoded integer          25
  @ DRIVER MODE:  SCF:  T  FORCE:  T  STRESS:  F  VC:  F  ENSEMBLE:  F
  @ DRIVER MODE:  SCF:  T  FORCE:  T  STRESS:  F  VC:  F  ENSEMBLE:  F

     Using Slab Decomposition

     bravais-lattice index     =            0
     lattice parameter (alat)  =       1.8897  a.u.
     unit-cell volume          =    6658.9804 (a.u.)^3
     number of atoms/cell      =           54
     number of atomic types    =            5
     number of electrons       =       401.00
     number of Kohn-Sham states=          210
     kinetic-energy cutoff     =      29.3995  Ry
     charge density cutoff     =     293.9946  Ry
     scf convergence threshold =      7.3E-08
     mixing beta               =       0.0500
     number of iterations used =            8  plain     mixing
     Exchange-correlation= BEEF-VDW
                           (   1   4  43  14   2   0   0)

     celldm(1)=   1.889726  celldm(2)=   0.000000  celldm(3)=   0.000000
     celldm(4)=   0.000000  celldm(5)=   0.000000  celldm(6)=   0.000000

     crystal axes: (cart. coord. in units of alat)
               a(1) = (   6.579727   0.000000   0.000000 )
               a(2) = (  -0.000775   5.961596   0.000000 )
               a(3) = (   0.000000   0.000000  25.155947 )

     reciprocal axes: (cart. coord. in units 2 pi/alat)
               b(1) = (  0.151982  0.000020  0.000000 )
               b(2) = (  0.000000  0.167740  0.000000 )
               b(3) = (  0.000000  0.000000  0.039752 )

     PseudoPot. # 1 for Ti read from file:
     /storage/coda1/p-amedford6/0/shared/rich_project_chbe-medford/medford-share/data/pseudos_module/espresso/nninc/pbe/van/Ti.UPF
     MD5 check sum: 8e4df49b7f0d34bbd5052bf3f5ea0213
     Pseudo is Ultrasoft, Zval = 12.0
     Generated by new atomic code, or converted to UPF format
     Using radial grid of  851 points,  6 beta functions with:
                l(1) =   0
                l(2) =   0
                l(3) =   1
                l(4) =   1
                l(5) =   2
                l(6) =   2
     Q(r) pseudized with  8 coefficients,  rinner =    1.000   1.000   1.000
                                                       1.000   1.000

     PseudoPot. # 2 for O  read from file:
     /storage/coda1/p-amedford6/0/shared/rich_project_chbe-medford/medford-share/data/pseudos_module/espresso/nninc/pbe/van/O.UPF
     MD5 check sum: 78c19812648e8988a0fe644b0f25305e
     Pseudo is Ultrasoft, Zval =  6.0
     Generated by new atomic code, or converted to UPF format
     Using radial grid of  737 points,  4 beta functions with:
                l(1) =   0
                l(2) =   0
                l(3) =   1
                l(4) =   1
     Q(r) pseudized with  8 coefficients,  rinner =    0.800   0.800   0.800

     PseudoPot. # 3 for N  read from file:
     /storage/coda1/p-amedford6/0/shared/rich_project_chbe-medford/medford-share/data/pseudos_module/espresso/nninc/pbe/van/N.UPF
     MD5 check sum: 90d10febe142ad51ac9d5be1deb811c4
     Pseudo is Ultrasoft, Zval =  5.0
     Generated by new atomic code, or converted to UPF format
     Using radial grid of  729 points,  4 beta functions with:
                l(1) =   0
                l(2) =   0
                l(3) =   1
                l(4) =   1
     Q(r) pseudized with  8 coefficients,  rinner =    0.800   0.800   0.800

     PseudoPot. # 4 for C  read from file:
     /storage/coda1/p-amedford6/0/shared/rich_project_chbe-medford/medford-share/data/pseudos_module/espresso/nninc/pbe/van/C.UPF
     MD5 check sum: 1a69bf6b8db32088f5b2163dbdb77a27
     Pseudo is Ultrasoft, Zval =  4.0
     Generated by new atomic code, or converted to UPF format
     Using radial grid of  721 points,  4 beta functions with:
                l(1) =   0
                l(2) =   0
                l(3) =   1
                l(4) =   1
     Q(r) pseudized with  8 coefficients,  rinner =    0.800   0.800   0.800

     PseudoPot. # 5 for H  read from file:
     /storage/coda1/p-amedford6/0/shared/rich_project_chbe-medford/medford-share/data/pseudos_module/espresso/nninc/pbe/van/H.UPF
     MD5 check sum: b5ee9d7bfd3a09ee7748110bda690ff7
     Pseudo is Ultrasoft, Zval =  1.0
     Generated by new atomic code, or converted to UPF format
     Using radial grid of  615 points,  1 beta functions with:
                l(1) =   0
     Q(r) pseudized with  8 coefficients,  rinner =    0.800

     atomic species   valence    mass     pseudopotential
        Ti1           12.00    47.86700     Ti( 1.00)
        O1             6.00    15.99900     O ( 1.00)
        N1             5.00    14.00700     N ( 1.00)
        C1             4.00    12.01100     C ( 1.00)
        H1             1.00     1.00800     H ( 1.00)

     No symmetry found

   Cartesian axes

     site n.     atom                  positions (alat units)
         1           Ti1 tau(   1) = (   0.0004258   2.9801865   6.0000000  )
         2           Ti1 tau(   2) = (   3.2906075   1.4906267   6.0002472  )
         3           O1  tau(   3) = (   0.0006271   0.0005054   7.9858123  )
         4           O1  tau(   4) = (   3.2906025   0.0005020   7.3038282  )
         5           O1  tau(   5) = (   4.5942328   1.4918067   9.2879030  )
         6           O1  tau(   6) = (   1.9868534   1.4903216   9.2879459  )
         7           Ti1 tau(   7) = (   3.2907910   2.8959150   9.1758416  )
         8           Ti1 tau(   8) = (   0.0015273   1.4827037   9.2680791  )
         9           O1  tau(   9) = (   3.2935892   5.9488104  11.3374186  )
        10           O1  tau(  10) = (   0.0116148   5.9584955  10.6183126  )
        11           O1  tau(  11) = (   1.2908913   1.5070562  12.6495475  )
        12           O1  tau(  12) = (   5.3136790   1.4931969  12.6373367  )
        13           Ti1 tau(  13) = (   0.0127878   2.8868139  12.6015941  )
        14           Ti1 tau(  14) = (   3.2987545   1.3040885  12.7026746  )
        15           O1  tau(  15) = (   0.0175227   0.0240941  14.6538407  )
        16           O1  tau(  16) = (   3.3064676   0.0741613  13.9771881  )
        17           O1  tau(  17) = (   4.5827780   1.5498142  16.1449436  )
        18           O1  tau(  18) = (   2.0366442   1.5898792  16.0867183  )
        19           Ti1 tau(  19) = (   3.3102262   3.0030951  15.6784192  )
        20           Ti1 tau(  20) = (   0.0574396   1.3488835  16.0050117  )
        21           O1  tau(  21) = (   3.2904802   0.0005063   4.7018136  )
        22           O1  tau(  22) = (   0.0721820   0.0083530  17.1768217  )
        23           O1  tau(  23) = (   1.3043587   1.4918075   6.0039043  )
        24           O1  tau(  24) = (   5.2767064   1.4903225   6.0039473  )
        25           Ti1 tau(  25) = (   0.0000382   5.9609847   6.0000000  )
        26           Ti1 tau(  26) = (   3.2902200   4.4714249   6.0002472  )
        27           O1  tau(  27) = (   0.0002396   2.9813036   7.9858123  )
        28           O1  tau(  28) = (   3.2902150   2.9813002   7.3038282  )
        29           O1  tau(  29) = (   4.5938453   4.4726049   9.2879030  )
        30           O1  tau(  30) = (   1.9864658   4.4711199   9.2879459  )
        31           Ti1 tau(  31) = (   3.2891106   5.8743827   9.1763621  )
        32           Ti1 tau(  32) = (   0.0006254   4.4649316   9.2693709  )
        33           O1  tau(  33) = (   3.2934580   3.0155445  11.2926531  )
        34           O1  tau(  34) = (   0.0092240   2.9805883  10.6323155  )
        35           O1  tau(  35) = (   1.2931599   4.4792858  12.6478595  )
        36           O1  tau(  36) = (   5.3056662   4.4876152  12.6363886  )
        37           Ti1 tau(  37) = (   6.5746511   5.8741161  12.5153022  )
        38           Ti1 tau(  38) = (   3.2863760   4.3878630  12.4273393  )
        39           O1  tau(  39) = (   6.5684735   3.0099032  14.7382625  )
        40           O1  tau(  40) = (   3.3273571   2.9915841  13.8999870  )
        41           O1  tau(  41) = (   4.5754576   4.4629145  16.1269992  )
        42           O1  tau(  42) = (   2.0375947   4.4358961  16.0236521  )
        43           Ti1 tau(  43) = (   3.3857405   0.0156461  16.2930207  )
        44           Ti1 tau(  44) = (   0.0840152   4.5257857  15.8004899  )
        45           O1  tau(  45) = (   3.2900926   2.9813045   4.7018136  )
        46           O1  tau(  46) = (   1.3039711   4.4726057   6.0039043  )
        47           O1  tau(  47) = (   5.2763189   4.4711207   6.0039473  )
        48           N1  tau(  48) = (   6.4876325   3.2951735  18.6921505  )
        49           N1  tau(  49) = (   0.0139976   3.0420413  17.5569154  )
        50           C1  tau(  50) = (   6.3159459   3.6199554  19.9036174  )
        51           H1  tau(  51) = (   5.2963100   3.8231348  20.2372398  )
        52           H1  tau(  52) = (   0.5840524   3.7151184  20.5547593  )
        53           O1  tau(  53) = (   3.1058724   5.9363815  18.1230642  )
        54           H1  tau(  54) = (   2.1709728   0.0855973  18.3648350  )

     number of k points=    10  Fermi-Dirac smearing, width (Ry)=  0.0073
                       cart. coord. in units 2pi/alat
        k(    1) = (   0.0000000   0.0000000   0.0000000), wk =   0.1250000
        k(    2) = (   0.0000000   0.0419351   0.0000000), wk =   0.2500000
        k(    3) = (   0.0000000  -0.0838702   0.0000000), wk =   0.1250000
        k(    4) = (   0.0379955   0.0000049   0.0000000), wk =   0.2500000
        k(    5) = (   0.0379955   0.0419400   0.0000000), wk =   0.2500000
        k(    6) = (   0.0379955  -0.0838652   0.0000000), wk =   0.2500000
        k(    7) = (   0.0379955  -0.0419301   0.0000000), wk =   0.2500000
        k(    8) = (  -0.0759910  -0.0000099   0.0000000), wk =   0.1250000
        k(    9) = (  -0.0759910   0.0419252   0.0000000), wk =   0.2500000
        k(   10) = (  -0.0759910  -0.0838800   0.0000000), wk =   0.1250000

     Initial potential from superposition of free atoms

     starting charge  384.99916, renormalised to  401.00000

     negative rho (up, down):  1.407E-02 0.000E+00

     %%%%%%%%%%%%%%%%%%%%%%%%%%%%%%%%%%%%%%%%%%%%%%%%%%%%%%%%%%%%%%%%%%%%%%%%
     %                                                                      %
     % You are using vdW-DF, which was implemented by the Thonhauser group. %
     % Please cite the following two papers that made this development      %
     % possible and the two reviews that describe the various versions:     %
     %                                                                      %
     %   T. Thonhauser et al., PRL 115, 136402 (2015).                      %
     %   T. Thonhauser et al., PRB 76, 125112 (2007).                       %
     %   K. Berland et al., Rep. Prog. Phys. 78, 066501 (2015).             %
     %   D.C. Langreth et al., J. Phys.: Condens. Matter 21, 084203 (2009). %
     %                                                                      %
     %                                                                      %
     % If you are calculating the stress with vdW-DF, please also cite:     %
     %                                                                      %
     %   R. Sabatini et al., J. Phys.: Condens. Matter 24, 424209 (2012).   %
     %                                                                      %
     %%%%%%%%%%%%%%%%%%%%%%%%%%%%%%%%%%%%%%%%%%%%%%%%%%%%%%%%%%%%%%%%%%%%%%%%

     Adding external electric field

     Computed dipole along edir(3) :
        Dipole              -11.8206 Ry au,        -30.0448 Debye
        Dipole field         -0.0223 Ry au,

        Potential amp.        2.0678 Ry
        Total length         46.3494 bohr

     Starting wfcs are  303 atomic wfcs
  @ DRIVER MODE: Message from server: STATUS
  @ DRIVER MODE: Message from server: POSDATA
  @ DRIVER MODE: Reading and sharing cell
  @ DRIVER MODE: Reading and sharing positions
  @ DRIVER MODE: Received positions

     Self-consistent Calculation

     iteration #  1     ecut=    29.40 Ry     beta= 0.05
     Davidson diagonalization with overlap
     c_bands:  3 eigenvalues not converged
     c_bands:  4 eigenvalues not converged
     c_bands:  1 eigenvalues not converged
     c_bands:  4 eigenvalues not converged
     c_bands:  4 eigenvalues not converged
     c_bands:  1 eigenvalues not converged
     c_bands:  2 eigenvalues not converged
     ethr =  1.00E-05,  avg # of iterations = 22.9

[...]

     total energy              =   -2411.66124092 Ry
     estimated scf accuracy    <    6295.61941480 Ry

     iteration #  2     ecut=    29.40 Ry     beta= 0.05
     Davidson diagonalization with overlap
     ethr =  1.00E-02,  avg # of iterations = 23.1

[...]

     iteration # 56     ecut=    29.40 Ry     beta= 0.05
     Davidson diagonalization with overlap
     c_bands:  1 eigenvalues not converged
     ethr =  4.31E-07,  avg # of iterations =  7.7

[...]

     total energy              =   -2971.49138608 Ry
     estimated scf accuracy    <       0.00000012 Ry

     iteration # 76     ecut=    29.40 Ry     beta= 0.05
     Davidson diagonalization with overlap
     ethr =  3.02E-11,  avg # of iterations =  2.2

     negative rho (up, down):  1.460E-02 0.000E+00

     Adding external electric field

     Computed dipole along edir(3) :
        Dipole                1.0680 Ry au,          2.7147 Debye
        Dipole field          0.0020 Ry au,

        Potential amp.       -0.1868 Ry
        Total length         46.3494 bohr

     End of self-consistent calculation

          k = 0.0000 0.0000 0.0000 ( 18029 PWs)   bands (ev):

   -55.6906 -55.6566 -55.4753 -55.4732 -55.4414 -55.3327 -55.3149 -55.2809
   -55.2796 -55.2240 -55.1789 -55.0940 -55.0849 -54.9789 -54.5984 -54.5644
   -32.1646 -31.9859 -31.9839 -31.9278 -31.8433 -31.8160 -31.8101 -31.7910
   -31.7872 -31.7548 -31.7491 -31.7467 -31.7121 -31.6945 -31.6814 -31.6492
   -31.6460 -31.6099 -31.5829 -31.5770 -31.5740 -31.5504 -31.5411 -31.5375
   -31.4931 -31.4854 -31.4803 -31.4691 -31.4569 -31.4425 -31.4393 -31.4234
   -31.4228 -31.3674 -31.3629 -31.3592 -31.2931 -31.2801 -31.2573 -31.2283
   -31.2030 -31.1898 -31.0013 -30.9227 -30.8998 -30.8193 -30.7334 -30.6215
   -20.7459 -16.2527 -16.1704 -15.9653 -15.7879 -15.6365 -15.5839 -15.4439
   -15.3727 -15.2731 -15.1926 -15.0933 -15.0730 -15.0326 -14.9966 -14.9947
   -14.9663 -14.9341 -14.9339 -14.9112 -14.8938 -14.8461 -14.7865 -14.7689
   -14.7244 -14.6968 -14.6576 -14.6443 -14.6167 -14.5140 -14.2460 -14.2317
   -13.0962 -12.9812  -7.4088  -6.0975  -5.6734  -5.0501  -3.7618  -3.5786
    -3.5039  -3.3548  -3.2760  -3.2001  -3.0670  -2.9844  -2.9069  -2.7466
    -2.6610  -2.6343  -2.5829  -2.5268  -2.4615  -2.4351  -2.3941  -2.3713
    -2.2924  -2.2512  -2.2286  -2.2069  -2.1530  -2.1239  -2.0886  -2.0032
    -1.9746  -1.9398  -1.8656  -1.8566  -1.8319  -1.8232  -1.7813  -1.7627
    -1.7496  -1.7306  -1.5946  -1.5864  -1.5083  -1.4695  -1.3230  -1.1994
    -1.1343  -1.0650  -1.0500  -0.9680  -0.9319  -0.8521  -0.8330  -0.8033
    -0.7656  -0.6988  -0.6344  -0.6119  -0.5668  -0.5302  -0.3946  -0.3724
    -0.3251  -0.3204  -0.2977  -0.2330  -0.1635  -0.0826  -0.0701  -0.0042
     0.0161   0.0982   0.1803   0.1874   0.2370   0.2606   0.3148   0.3378
     0.3564   0.3897   0.4196   0.4888   0.5518   0.5992   0.6046   0.6378
     0.7050   0.7725   0.8127   0.8459   0.9956   1.0242   1.0380   1.1296
     1.1404   1.2485   1.4065   1.4279   1.6319   1.6337   1.9879   2.0303
     3.4559   3.5859   3.6198   3.6935   3.7791   3.9074   3.9159   4.0434
     4.1630   4.1683

[...]

          k = 0.0380-0.0419 0.0000 ( 17876 PWs)   bands (ev):

[...]

          k =-0.0760-0.0000 0.0000 ( 17886 PWs)   bands (ev):

[...]

          k =-0.0760-0.0839 0.0000 ( 17948 PWs)   bands (ev):

   -55.6741 -55.6730 -55.4724 -55.4595 -55.4570 -55.3264 -55.3012 -55.2931
   -55.2871 -55.2246 -55.1754 -55.0975 -55.0823 -54.9814 -54.5819 -54.5807
   -31.9804 -31.9798 -31.9701 -31.9692 -31.7947 -31.7934 -31.7809 -31.7753
   -31.7408 -31.7204 -31.6942 -31.6865 -31.6838 -31.6680 -31.6526 -31.6481
   -31.6300 -31.6163 -31.6155 -31.6099 -31.5924 -31.5508 -31.5459 -31.5234
   -31.5223 -31.5166 -31.5124 -31.5118 -31.5036 -31.4854 -31.4633 -31.4553
   -31.4278 -31.3876 -31.3739 -31.3514 -31.3394 -31.3244 -31.2965 -31.2842
   -31.2347 -31.1933 -30.9130 -30.9122 -30.8153 -30.8140 -30.7768 -30.7760
   -20.7448 -16.2269 -15.6160 -15.5484 -15.5276 -15.5185 -15.4042 -15.3715
   -15.2395 -15.2383 -15.2154 -15.1565 -15.1462 -15.1152 -15.1068 -15.0818
   -15.0491 -15.0241 -15.0013 -14.9712 -14.9606 -14.9169 -14.8903 -14.8866
   -14.8731 -14.8240 -14.7372 -14.6574 -14.6506 -14.5742 -14.4922 -14.3650
   -13.0837 -13.0831  -7.4094  -6.1010  -5.6763  -5.0278  -3.7351  -3.1019
    -2.8951  -2.7472  -2.7209  -2.5928  -2.5739  -2.4798  -2.4718  -2.4285
    -2.4150  -2.3753  -2.3481  -2.3309  -2.2885  -2.2710  -2.2558  -2.2515
    -2.2333  -2.2027  -2.1943  -2.1901  -2.1812  -2.1511  -2.1235  -2.1093
    -2.0930  -2.0465  -2.0196  -1.9191  -1.8156  -1.7905  -1.7171  -1.7123
    -1.7101  -1.6977  -1.6752  -1.6514  -1.5666  -1.4766  -1.4391  -1.3827
    -1.2082  -1.1943  -1.1716  -1.1497  -1.0930  -1.0447  -1.0162  -0.9645
    -0.9525  -0.9284  -0.8552  -0.7925  -0.7198  -0.6993  -0.6308  -0.5820
    -0.5647  -0.4740  -0.4607  -0.4278  -0.3872  -0.3729  -0.3438  -0.2902
    -0.2751  -0.2562  -0.2273  -0.1891  -0.1537   0.0155   0.1491   0.2121
     0.2304   0.2670   0.3211   0.3869   0.4108   0.5943   0.6070   0.6115
     0.6504   0.7095   0.7352   0.7521   0.8429   0.9585   0.9854   1.0218
     1.0493   1.0686   1.1493   1.2088   1.7988   1.8070   1.8499   1.8506
     3.4575   3.9928   4.0118   4.0132   4.0142   4.1094   4.1335   4.1418
     4.2064   4.2692

     the Fermi energy is     3.4502 ev

!    total energy              =   -2971.49140116 Ry
     estimated scf accuracy    <       0.00000006 Ry
     smearing contrib. (-TS)   =      -0.01885997 Ry
     internal energy E=F+TS    =   -2971.47254119 Ry

     The total energy is F=E-TS. E is the sum of the following terms:
     one-electron contribution =  -23618.29317784 Ry
     hartree contribution      =   11903.01049169 Ry
     xc contribution           =    -492.36840327 Ry
     ewald contribution        =    9236.17639555 Ry
     electric field correction =       0.00215267 Ry

     convergence has been achieved in  76 iterations

     Forces acting on atoms (cartesian axes, Ry/au):

     atom    1 type  1   force =     0.00001815   -0.00040532    0.09768020
     atom    2 type  1   force =    -0.00003876    0.00022470   -0.17213322
     atom    3 type  2   force =     0.00004979   -0.00005033   -0.02537471
     atom    4 type  2   force =     0.00001551   -0.00144492    0.04759513
     atom    5 type  2   force =    -0.00616531   -0.00240076   -0.00085444
     atom    6 type  2   force =     0.00778706   -0.00181837   -0.00151854
     atom    7 type  1   force =    -0.00008394   -0.00484746    0.01888906
     atom    8 type  1   force =     0.00022494    0.01221466    0.02701846
     atom    9 type  2   force =    -0.00010482   -0.00016829   -0.00011537
     atom   10 type  2   force =    -0.00111926    0.00132203   -0.02502423
     atom   11 type  2   force =     0.00014608   -0.00003445    0.00007768
     atom   12 type  2   force =     0.00005775   -0.00003805    0.00000541
     atom   13 type  1   force =     0.00034469   -0.00022030   -0.00017616
     atom   14 type  1   force =     0.00005250   -0.00014250   -0.00016219
     atom   15 type  2   force =    -0.00028797   -0.00018865   -0.00026443
     atom   16 type  2   force =    -0.00003360   -0.00009494   -0.00051008
     atom   17 type  2   force =    -0.00015736   -0.00007442   -0.00005700
     atom   18 type  2   force =     0.00000776   -0.00016218   -0.00004117
     atom   19 type  1   force =    -0.00013257   -0.00000799   -0.00041534
     atom   20 type  1   force =    -0.00023860   -0.00015508    0.00016661
     atom   21 type  2   force =     0.00005374    0.00008559    0.10224019
     atom   22 type  2   force =     0.00010483    0.00005669   -0.00021178
     atom   23 type  2   force =    -0.07352843   -0.00015986   -0.02809925
     atom   24 type  2   force =     0.07344743    0.00028190   -0.02817466
     atom   25 type  1   force =     0.00013870   -0.00033391    0.09747753
     atom   26 type  1   force =    -0.00003770   -0.00130830   -0.17227072
     atom   27 type  2   force =     0.00009395   -0.00030625   -0.02400838
     atom   28 type  2   force =     0.00004204    0.00030977    0.04322026
     atom   29 type  2   force =    -0.00505687    0.00403282   -0.00277681
     atom   30 type  2   force =     0.00656628    0.00442227   -0.00333316
     atom   31 type  1   force =     0.00001594    0.00580291    0.00692183
     atom   32 type  1   force =     0.00029193   -0.01518740    0.02659661
     atom   33 type  2   force =     0.00038286   -0.00004837    0.00009400
     atom   34 type  2   force =    -0.00138606    0.00099729   -0.02676130
     atom   35 type  2   force =     0.00038116    0.00005375    0.00004805
     atom   36 type  2   force =    -0.00029023   -0.00006080   -0.00007154
     atom   37 type  1   force =     0.00009930   -0.00052711   -0.00011603
     atom   38 type  1   force =     0.00024715    0.00013426    0.00011234
     atom   39 type  2   force =    -0.00012414   -0.00015845   -0.00006760
     atom   40 type  2   force =     0.00005493    0.00003053   -0.00012597
     atom   41 type  2   force =    -0.00018480    0.00009684   -0.00020029
     atom   42 type  2   force =    -0.00029314   -0.00011796    0.00003094
     atom   43 type  1   force =    -0.00007522    0.00021055   -0.00069356
     atom   44 type  1   force =    -0.00030243    0.00034528    0.00015696
     atom   45 type  2   force =     0.00004887   -0.00008182    0.10203700
     atom   46 type  2   force =    -0.07356777   -0.00007746   -0.02813616
     atom   47 type  2   force =     0.07347248    0.00036043   -0.02818418
     atom   48 type  3   force =     0.00277414   -0.00043841   -0.00198620
     atom   49 type  3   force =    -0.00041311   -0.00036286   -0.00044205
     atom   50 type  4   force =    -0.02316544    0.00173823   -0.00041994
     atom   51 type  5   force =     0.01080644   -0.00189902   -0.00230169
     atom   52 type  5   force =     0.00885238    0.00056616    0.00510211
     atom   53 type  2   force =     0.00034543    0.00069294   -0.00021252
     atom   54 type  5   force =    -0.00013667   -0.00065761   -0.00022971

     Total force =     0.366063     Total SCF correction =     0.000781
  @ DRIVER MODE: Message from server: STATUS
  @ DRIVER MODE: Message from server: GETFORCE
  @ DRIVER MODE: Returning v,forces,stress,ensemble

     Writing output data file ./calc.save/
  @ DRIVER MODE: Message from server: EXIT
  @ DRIVE MODE: Exiting

     General routines

     Parallel routines

   This run was terminated on:  16:35:27  23Sep2021

   JOB DONE.