     Program PWSCF v.6.7GPU starts on 23Sep2021 at 23:17:56

     R & G space division:  proc/nbgrp/npool/nimage =       8
     Reading input from /storage/home/hcoda1/3/ntian30/research/carbon/CxH_vib/H2O_calc/ads_slab/CH3NHNH2HO_a/out_0027/pw.inp
Warning: card &CELL ignored
Warning: card   CELL_DYNAMICS='IPI', ignored
Warning: card / ignored

     Current dimensions of program PWSCF are:
     Max number of different atomic species (ntypx) = 10
     Max number of k-points (npk) =  40000
     Max angular momentum in pseudopotentials (lmaxx) =  3
     Presently no symmetry can be used with electric field

     Message from routine cell_base_init:
     DEPRECATED: use true lattice parameter, not A to a.u. conversion factor

     IMPORTANT: XC functional enforced from input :
     Exchange-correlation= BEEF-VDW
                           (   1   4  43  14   2   0   0)
     Any further DFT definition will be discarded
     Please, verify this is what you really want

  @ DRIVER MODE: Connecting to
 qe_1139763_2947307.sched-torque.pace.gatech.eduszop6hfp_scratch
  using UNIX socket
  @ DRIVER MODE: Message from server: STATUS
  @ DRIVER MODE: Message from server: INIT
  @ DRIVER MODE: Receiving replica           0          -1
  @ DRIVER MODE: Receiving encoded integer          25
  @ DRIVER MODE:  SCF:  T  FORCE:  T  STRESS:  F  VC:  F  ENSEMBLE:  F
  @ DRIVER MODE:  SCF:  T  FORCE:  T  STRESS:  F  VC:  F  ENSEMBLE:  F

     Using Slab Decomposition

     bravais-lattice index     =            0
     lattice parameter (alat)  =       1.8897  a.u.
     unit-cell volume          =    6658.9804 (a.u.)^3
     number of atoms/cell      =           58
     number of atomic types    =            5
     number of electrons       =       405.00
     number of Kohn-Sham states=          212
     kinetic-energy cutoff     =      29.3995  Ry
     charge density cutoff     =     293.9946  Ry
     scf convergence threshold =      7.3E-08
     mixing beta               =       0.0500
     number of iterations used =            8  plain     mixing
     Exchange-correlation= BEEF-VDW
                           (   1   4  43  14   2   0   0)

     celldm(1)=   1.889726  celldm(2)=   0.000000  celldm(3)=   0.000000
     celldm(4)=   0.000000  celldm(5)=   0.000000  celldm(6)=   0.000000

     crystal axes: (cart. coord. in units of alat)
               a(1) = (   6.579727   0.000000   0.000000 )
               a(2) = (  -0.000775   5.961596   0.000000 )
               a(3) = (   0.000000   0.000000  25.155947 )

     reciprocal axes: (cart. coord. in units 2 pi/alat)
               b(1) = (  0.151982  0.000020  0.000000 )
               b(2) = (  0.000000  0.167740  0.000000 )
               b(3) = (  0.000000  0.000000  0.039752 )

     PseudoPot. # 1 for Ti read from file:
     /storage/coda1/p-amedford6/0/shared/rich_project_chbe-medford/medford-share/data/pseudos_module/espresso/nninc/pbe/van/Ti.UPF
     MD5 check sum: 8e4df49b7f0d34bbd5052bf3f5ea0213
     Pseudo is Ultrasoft, Zval = 12.0
     Generated by new atomic code, or converted to UPF format
     Using radial grid of  851 points,  6 beta functions with:
                l(1) =   0
                l(2) =   0
                l(3) =   1
                l(4) =   1
                l(5) =   2
                l(6) =   2
     Q(r) pseudized with  8 coefficients,  rinner =    1.000   1.000   1.000
                                                       1.000   1.000

     PseudoPot. # 2 for O  read from file:
     /storage/coda1/p-amedford6/0/shared/rich_project_chbe-medford/medford-share/data/pseudos_module/espresso/nninc/pbe/van/O.UPF
     MD5 check sum: 78c19812648e8988a0fe644b0f25305e
     Pseudo is Ultrasoft, Zval =  6.0
     Generated by new atomic code, or converted to UPF format
     Using radial grid of  737 points,  4 beta functions with:
                l(1) =   0
                l(2) =   0
                l(3) =   1
                l(4) =   1
     Q(r) pseudized with  8 coefficients,  rinner =    0.800   0.800   0.800

     PseudoPot. # 3 for N  read from file:
     /storage/coda1/p-amedford6/0/shared/rich_project_chbe-medford/medford-share/data/pseudos_module/espresso/nninc/pbe/van/N.UPF
     MD5 check sum: 90d10febe142ad51ac9d5be1deb811c4
     Pseudo is Ultrasoft, Zval =  5.0
     Generated by new atomic code, or converted to UPF format
     Using radial grid of  729 points,  4 beta functions with:
                l(1) =   0
                l(2) =   0
                l(3) =   1
                l(4) =   1
     Q(r) pseudized with  8 coefficients,  rinner =    0.800   0.800   0.800

     PseudoPot. # 4 for C  read from file:
     /storage/coda1/p-amedford6/0/shared/rich_project_chbe-medford/medford-share/data/pseudos_module/espresso/nninc/pbe/van/C.UPF
     MD5 check sum: 1a69bf6b8db32088f5b2163dbdb77a27
     Pseudo is Ultrasoft, Zval =  4.0
     Generated by new atomic code, or converted to UPF format
     Using radial grid of  721 points,  4 beta functions with:
                l(1) =   0
                l(2) =   0
                l(3) =   1
                l(4) =   1
     Q(r) pseudized with  8 coefficients,  rinner =    0.800   0.800   0.800

     PseudoPot. # 5 for H  read from file:
     /storage/coda1/p-amedford6/0/shared/rich_project_chbe-medford/medford-share/data/pseudos_module/espresso/nninc/pbe/van/H.UPF
     MD5 check sum: b5ee9d7bfd3a09ee7748110bda690ff7
     Pseudo is Ultrasoft, Zval =  1.0
     Generated by new atomic code, or converted to UPF format
     Using radial grid of  615 points,  1 beta functions with:
                l(1) =   0
     Q(r) pseudized with  8 coefficients,  rinner =    0.800

     atomic species   valence    mass     pseudopotential
        Ti1           12.00    47.86700     Ti( 1.00)
        O1             6.00    15.99900     O ( 1.00)
        N1             5.00    14.00700     N ( 1.00)
        C1             4.00    12.01100     C ( 1.00)
        H1             1.00     1.00800     H ( 1.00)

     No symmetry found

   Cartesian axes

     site n.     atom                  positions (alat units)
         1           Ti1 tau(   1) = (   0.0004258   2.9801865   6.0000000  )
         2           Ti1 tau(   2) = (   3.2906075   1.4906267   6.0002472  )
         3           O1  tau(   3) = (   0.0006271   0.0005054   7.9858123  )
         4           O1  tau(   4) = (   3.2906025   0.0005020   7.3038282  )
         5           O1  tau(   5) = (   4.5942328   1.4918067   9.2879030  )
         6           O1  tau(   6) = (   1.9868534   1.4903216   9.2879459  )
         7           Ti1 tau(   7) = (   3.2907910   2.8959150   9.1758416  )
         8           Ti1 tau(   8) = (   0.0015273   1.4827037   9.2680791  )
         9           O1  tau(   9) = (   3.3003128   0.0493987  11.3625472  )
        10           O1  tau(  10) = (   0.0116148   5.9584955  10.6183126  )
        11           O1  tau(  11) = (   1.2863924   1.5188706  12.6959087  )
        12           O1  tau(  12) = (   5.3173592   1.5183023  12.6957539  )
        13           Ti1 tau(  13) = (   0.0130489   2.9571150  12.5182267  )
        14           Ti1 tau(  14) = (   3.3124343   1.5987737  12.4587140  )
        15           O1  tau(  15) = (   0.0455642   5.8537743  14.6515032  )
        16           O1  tau(  16) = (   3.3135256   5.8999501  14.0036581  )
        17           O1  tau(  17) = (   4.5824137   1.5787328  16.0473457  )
        18           O1  tau(  18) = (   2.0456054   1.5356268  16.0652349  )
        19           Ti1 tau(  19) = (   3.2855744   2.9948502  15.7047272  )
        20           Ti1 tau(  20) = (   0.0729980   1.3194477  15.7501807  )
        21           O1  tau(  21) = (   3.2904802   0.0005063   4.7018136  )
        22           O1  tau(  22) = (   6.5643345   0.1786488  17.1561759  )
        23           O1  tau(  23) = (   1.3043587   1.4918075   6.0039043  )
        24           O1  tau(  24) = (   5.2767064   1.4903225   6.0039473  )
        25           Ti1 tau(  25) = (   0.0000382   5.9609847   6.0000000  )
        26           Ti1 tau(  26) = (   3.2902200   4.4714249   6.0002472  )
        27           O1  tau(  27) = (   0.0002396   2.9813036   7.9858123  )
        28           O1  tau(  28) = (   3.2902150   2.9813002   7.3038282  )
        29           O1  tau(  29) = (   4.5938453   4.4726049   9.2879030  )
        30           O1  tau(  30) = (   1.9864658   4.4711199   9.2879459  )
        31           Ti1 tau(  31) = (   3.2891106   5.8743827   9.1763621  )
        32           Ti1 tau(  32) = (   0.0006254   4.4649316   9.2693709  )
        33           O1  tau(  33) = (   3.3044115   2.9646987  11.3227374  )
        34           O1  tau(  34) = (   0.0092240   2.9805883  10.6323155  )
        35           O1  tau(  35) = (   1.2889249   4.4812606  12.6373974  )
        36           O1  tau(  36) = (   5.3198440   4.4849614  12.6453916  )
        37           Ti1 tau(  37) = (   0.0274371   5.9167426  12.5032498  )
        38           Ti1 tau(  38) = (   3.3124303   4.6827448  12.7121475  )
        39           O1  tau(  39) = (   0.0064664   3.0605765  14.9143048  )
        40           O1  tau(  40) = (   3.2921723   3.0190953  13.9337278  )
        41           O1  tau(  41) = (   4.5343043   4.4484976  16.2223827  )
        42           O1  tau(  42) = (   2.0055671   4.4324605  16.2273083  )
        43           Ti1 tau(  43) = (   3.3963104   0.0511244  16.3072024  )
        44           Ti1 tau(  44) = (   0.1011521   4.5293608  16.0606835  )
        45           O1  tau(  45) = (   3.2900926   2.9813045   4.7018136  )
        46           O1  tau(  46) = (   1.3039711   4.4726057   6.0039043  )
        47           O1  tau(  47) = (   5.2763189   4.4711207   6.0039473  )
        48           N1  tau(  48) = (   0.7799224   3.1460235  19.0808133  )
        49           N1  tau(  49) = (   6.3029119   3.3142126  18.0946246  )
        50           C1  tau(  50) = (   0.9829876   4.3811599  19.8296872  )
        51           H1  tau(  51) = (   0.0599524   4.7630682  20.2995108  )
        52           H1  tau(  52) = (   1.7087173   4.1628717  20.6153690  )
        53           H1  tau(  53) = (   1.3778604   5.1510331  19.1745456  )
        54           H1  tau(  54) = (   0.4845774   2.4057476  19.7140978  )
        55           H1  tau(  55) = (   5.5451363   3.8924421  18.4761980  )
        56           H1  tau(  56) = (   5.8791802   2.3931312  17.9634808  )
        57           O1  tau(  57) = (   3.3895457   0.1916509  18.1699706  )
        58           H1  tau(  58) = (   3.8128180   5.4341384  18.6581559  )

     number of k points=    10  Fermi-Dirac smearing, width (Ry)=  0.0073
                       cart. coord. in units 2pi/alat
        k(    1) = (   0.0000000   0.0000000   0.0000000), wk =   0.1250000
        k(    2) = (   0.0000000   0.0419351   0.0000000), wk =   0.2500000
        k(    3) = (   0.0000000  -0.0838702   0.0000000), wk =   0.1250000
        k(    4) = (   0.0379955   0.0000049   0.0000000), wk =   0.2500000
        k(    5) = (   0.0379955   0.0419400   0.0000000), wk =   0.2500000
        k(    6) = (   0.0379955  -0.0838652   0.0000000), wk =   0.2500000
        k(    7) = (   0.0379955  -0.0419301   0.0000000), wk =   0.2500000
        k(    8) = (  -0.0759910  -0.0000099   0.0000000), wk =   0.1250000
        k(    9) = (  -0.0759910   0.0419252   0.0000000), wk =   0.2500000
        k(   10) = (  -0.0759910  -0.0838800   0.0000000), wk =   0.1250000

     Initial potential from superposition of free atoms

     starting charge  388.99913, renormalised to  405.00000

     negative rho (up, down):  1.368E-02 0.000E+00

     %%%%%%%%%%%%%%%%%%%%%%%%%%%%%%%%%%%%%%%%%%%%%%%%%%%%%%%%%%%%%%%%%%%%%%%%
     %                                                                      %
     % You are using vdW-DF, which was implemented by the Thonhauser group. %
     % Please cite the following two papers that made this development      %
     % possible and the two reviews that describe the various versions:     %
     %                                                                      %
     %   T. Thonhauser et al., PRL 115, 136402 (2015).                      %
     %   T. Thonhauser et al., PRB 76, 125112 (2007).                       %
     %   K. Berland et al., Rep. Prog. Phys. 78, 066501 (2015).             %
     %   D.C. Langreth et al., J. Phys.: Condens. Matter 21, 084203 (2009). %
     %                                                                      %
     %                                                                      %
     % If you are calculating the stress with vdW-DF, please also cite:     %
     %                                                                      %
     %   R. Sabatini et al., J. Phys.: Condens. Matter 24, 424209 (2012).   %
     %                                                                      %
     %%%%%%%%%%%%%%%%%%%%%%%%%%%%%%%%%%%%%%%%%%%%%%%%%%%%%%%%%%%%%%%%%%%%%%%%

     Adding external electric field

     Computed dipole along edir(3) :
        Dipole              -14.8124 Ry au,        -37.6493 Debye
        Dipole field         -0.0280 Ry au,

        Potential amp.        2.5912 Ry
        Total length         46.3494 bohr

     Starting wfcs are  307 atomic wfcs
  @ DRIVER MODE: Message from server: STATUS
  @ DRIVER MODE: Message from server: POSDATA
  @ DRIVER MODE: Reading and sharing cell
  @ DRIVER MODE: Reading and sharing positions
  @ DRIVER MODE: Received positions

     Self-consistent Calculation

     iteration #  1     ecut=    29.40 Ry     beta= 0.05
     Davidson diagonalization with overlap
     c_bands:  4 eigenvalues not converged
     c_bands:  4 eigenvalues not converged
     c_bands:  5 eigenvalues not converged
     c_bands:  2 eigenvalues not converged
     c_bands:  3 eigenvalues not converged
     c_bands:  4 eigenvalues not converged
     c_bands:  2 eigenvalues not converged
     ethr =  1.00E-05,  avg # of iterations = 22.9

[...]

     total energy              =   -2202.98712316 Ry
     estimated scf accuracy    <    8803.89215559 Ry

     iteration #  2     ecut=    29.40 Ry     beta= 0.05
     Davidson diagonalization with overlap
     ethr =  1.00E-02,  avg # of iterations = 31.3

[...]

     iteration # 53     ecut=    29.40 Ry     beta= 0.05
     Davidson diagonalization with overlap
     c_bands:  1 eigenvalues not converged
     c_bands:  1 eigenvalues not converged
     c_bands:  2 eigenvalues not converged
     ethr =  2.31E-06,  avg # of iterations = 18.2

[...]

     total energy              =   -2976.46402870 Ry
     estimated scf accuracy    <       0.00000022 Ry

     iteration # 77     ecut=    29.40 Ry     beta= 0.05
     Davidson diagonalization with overlap
     ethr =  4.24E-11,  avg # of iterations =  8.0

     negative rho (up, down):  1.441E-02 0.000E+00

     Adding external electric field

     Computed dipole along edir(3) :
        Dipole                1.2251 Ry au,          3.1138 Debye
        Dipole field          0.0023 Ry au,

        Potential amp.       -0.2143 Ry
        Total length         46.3494 bohr

     End of self-consistent calculation

          k = 0.0000 0.0000 0.0000 ( 18029 PWs)   bands (ev):

   -55.4449 -55.3569 -55.3228 -55.2186 -55.2153 -55.1876 -55.1856 -55.1779
   -55.1535 -55.1303 -55.0871 -54.9854 -54.9374 -54.8941 -54.3316 -54.2975
   -31.8420 -31.7913 -31.7223 -31.7046 -31.6903 -31.6755 -31.6548 -31.6477
   -31.6163 -31.6031 -31.5971 -31.5094 -31.4945 -31.4874 -31.4673 -31.4639
   -31.4601 -31.4511 -31.4506 -31.4207 -31.4143 -31.3927 -31.3856 -31.3758
   -31.3710 -31.3546 -31.3540 -31.3218 -31.3217 -31.3151 -31.3144 -31.3083
   -31.3002 -31.2819 -31.2582 -31.2396 -31.1745 -31.1531 -31.1414 -31.1331
   -31.1122 -31.1033 -30.7376 -30.6512 -30.6287 -30.5551 -30.4687 -30.3569
   -17.7428 -16.3678 -16.0111 -15.8473 -15.6326 -15.5398 -15.5127 -15.3138
   -15.2189 -15.1606 -14.9596 -14.9324 -14.8946 -14.8820 -14.8728 -14.8517
   -14.8483 -14.7965 -14.7811 -14.7712 -14.7677 -14.7374 -14.7103 -14.6712
   -14.6118 -14.5977 -14.4952 -14.4398 -14.3999 -14.1588 -14.1389 -13.1779
   -12.8303 -12.7139  -9.4345  -6.4447  -5.7400  -4.2742  -3.9344  -3.3690
    -3.2677  -3.2560  -3.1998  -3.1321  -2.9676  -2.8843  -2.7841  -2.7437
    -2.6174  -2.5979  -2.4924  -2.4437  -2.3707  -2.3244  -2.2832  -2.2488
    -2.2207  -2.1648  -2.1424  -2.1167  -2.1054  -2.0325  -2.0141  -1.9247
    -1.8916  -1.8782  -1.7607  -1.7259  -1.6912  -1.6779  -1.6688  -1.6624
    -1.6188  -1.6085  -1.5978  -1.5558  -1.4554  -1.4475  -1.4298  -1.3391
    -1.2419  -0.9917  -0.9603  -0.9100  -0.8985  -0.8203  -0.7816  -0.7500
    -0.7174  -0.6476  -0.6366  -0.6105  -0.5492  -0.4735  -0.4192  -0.3715
    -0.3376  -0.2256  -0.1756  -0.1317  -0.0989  -0.0621   0.0008   0.0401
     0.0645   0.1076   0.1951   0.2584   0.2860   0.3027   0.3530   0.3948
     0.4328   0.4732   0.5451   0.5677   0.5778   0.6171   0.6255   0.6466
     0.7420   0.7605   0.8199   0.8470   0.9351   0.9661   1.0102   1.1796
     1.2490   1.3079   1.3859   1.4771   1.6402   1.6947   1.7196   1.8887
     2.2620   2.3074   3.7269   3.8744   3.8907   3.9682   3.9853   4.0494
     4.2158   4.2749   4.4126   4.4234

[...]

          k = 0.0380-0.0419 0.0000 ( 17876 PWs)   bands (ev):

[...]

          k =-0.0760-0.0000 0.0000 ( 17886 PWs)   bands (ev):

[...]

          k =-0.0760-0.0839 0.0000 ( 17948 PWs)   bands (ev):

   -55.4441 -55.3398 -55.3397 -55.2173 -55.2036 -55.1895 -55.1862 -55.1718
   -55.1689 -55.1222 -55.0952 -54.9823 -54.9384 -54.8971 -54.3145 -54.3144
   -31.7299 -31.6696 -31.6573 -31.6572 -31.6562 -31.6423 -31.6333 -31.6331
   -31.5760 -31.5311 -31.5097 -31.4988 -31.4935 -31.4883 -31.4653 -31.4597
   -31.4593 -31.4564 -31.4495 -31.4374 -31.4308 -31.4280 -31.4161 -31.3903
   -31.3856 -31.3836 -31.3760 -31.3681 -31.3499 -31.3445 -31.3408 -31.3404
   -31.3380 -31.3173 -31.3159 -31.2515 -31.2346 -31.2071 -31.1787 -31.1554
   -31.1493 -31.1081 -30.6415 -30.6414 -30.5506 -30.5503 -30.5120 -30.5118
   -17.7387 -16.3577 -15.5919 -15.4469 -15.3383 -15.3279 -15.2040 -15.1369
   -15.1271 -15.0936 -15.0707 -15.0490 -15.0305 -15.0152 -14.9606 -14.9205
   -14.8893 -14.8619 -14.8572 -14.8143 -14.8046 -14.7933 -14.7752 -14.7636
   -14.7085 -14.6722 -14.6625 -14.6044 -14.4650 -14.4453 -14.2890 -13.1793
   -12.8158 -12.8156  -9.4536  -6.4294  -5.7459  -4.2599  -3.9232  -2.9526
    -2.8015  -2.6583  -2.6138  -2.5628  -2.4495  -2.4260  -2.3671  -2.3168
    -2.2926  -2.2710  -2.2191  -2.2089  -2.1630  -2.1468  -2.1229  -2.1078
    -2.0914  -2.0849  -2.0569  -2.0411  -2.0307  -2.0181  -1.9908  -1.9798
    -1.9615  -1.9328  -1.9125  -1.9035  -1.8702  -1.8278  -1.7666  -1.6562
    -1.5819  -1.5711  -1.5274  -1.5021  -1.4859  -1.4450  -1.4325  -1.3914
    -1.3741  -1.3079  -1.1502  -1.1251  -1.1105  -0.9678  -0.9606  -0.9318
    -0.8576  -0.8158  -0.7941  -0.7362  -0.7065  -0.6664  -0.5892  -0.5459
    -0.4917  -0.4256  -0.3255  -0.3181  -0.3019  -0.2820  -0.2658  -0.2579
    -0.2248  -0.1876  -0.1146  -0.0680  -0.0592  -0.0532  -0.0022   0.0775
     0.1286   0.2428   0.3890   0.3937   0.4604   0.4615   0.6610   0.6698
     0.7465   0.7820   0.8166   0.8437   0.9375   0.9555   0.9931   1.0755
     1.1395   1.1691   1.1900   1.1947   1.2480   1.4597   2.0570   2.0649
     2.1277   2.1278   3.9678   4.2009   4.2413   4.2545   4.2727   4.2993
     4.3130   4.3272   4.3939   4.4176

     the Fermi energy is     3.7642 ev

!    total energy              =   -2976.46405189 Ry
     estimated scf accuracy    <       0.00000004 Ry
     smearing contrib. (-TS)   =      -0.01955623 Ry
     internal energy E=F+TS    =   -2976.44449566 Ry

     The total energy is F=E-TS. E is the sum of the following terms:
     one-electron contribution =  -23037.24910409 Ry
     hartree contribution      =   11616.33917265 Ry
     xc contribution           =    -495.72444063 Ry
     ewald contribution        =    8940.18704419 Ry
     electric field correction =       0.00283221 Ry

     convergence has been achieved in  77 iterations

     Forces acting on atoms (cartesian axes, Ry/au):

     atom    1 type  1   force =     0.00016135   -0.00023147    0.09416042
     atom    2 type  1   force =    -0.00009753    0.00018160   -0.17537747
     atom    3 type  2   force =     0.00005449   -0.00049445   -0.02102208
     atom    4 type  2   force =    -0.00002406   -0.00093914    0.05425951
     atom    5 type  2   force =    -0.00488363   -0.00216003    0.00107723
     atom    6 type  2   force =     0.00670761   -0.00138628    0.00109214
     atom    7 type  1   force =     0.00006042    0.00330735    0.00865762
     atom    8 type  1   force =    -0.00010358    0.00119678    0.00271982
     atom    9 type  2   force =    -0.00021913   -0.00030346   -0.00057831
     atom   10 type  2   force =    -0.00111900    0.00429129   -0.01024116
     atom   11 type  2   force =    -0.00007821   -0.00055525   -0.00011328
     atom   12 type  2   force =     0.00062126   -0.00032008   -0.00027620
     atom   13 type  1   force =    -0.00143377    0.00018627   -0.00058698
     atom   14 type  1   force =     0.00070875    0.00018992   -0.00049302
     atom   15 type  2   force =     0.00013530   -0.00000757    0.00003703
     atom   16 type  2   force =    -0.00009575   -0.00069475   -0.00030940
     atom   17 type  2   force =    -0.00042250    0.00069159    0.00006699
     atom   18 type  2   force =    -0.00077687    0.00031603   -0.00022065
     atom   19 type  1   force =     0.00042277   -0.00093181    0.00059468
     atom   20 type  1   force =    -0.00069802   -0.00003522    0.00050027
     atom   21 type  2   force =     0.00003728   -0.00001052    0.10320846
     atom   22 type  2   force =    -0.00010092    0.00000779    0.00051725
     atom   23 type  2   force =    -0.07198914   -0.00020574   -0.02726123
     atom   24 type  2   force =     0.07186578    0.00025190   -0.02733125
     atom   25 type  1   force =     0.00007457   -0.00016537    0.09389168
     atom   26 type  1   force =    -0.00012216   -0.00136875   -0.17551879
     atom   27 type  2   force =     0.00011109   -0.00005523   -0.01982939
     atom   28 type  2   force =     0.00006475   -0.00105164    0.04980666
     atom   29 type  2   force =    -0.00746453    0.00209907    0.00339800
     atom   30 type  2   force =     0.00906911    0.00223938    0.00331650
     atom   31 type  1   force =     0.00019483    0.00151371    0.00004274
     atom   32 type  1   force =    -0.00008732   -0.00227043    0.00302706
     atom   33 type  2   force =    -0.00017566   -0.00032139   -0.00001607
     atom   34 type  2   force =    -0.00117098   -0.00218677   -0.00963737
     atom   35 type  2   force =     0.00062673    0.00006071   -0.00023192
     atom   36 type  2   force =     0.00038847    0.00012052   -0.00035967
     atom   37 type  1   force =    -0.00096710    0.00025511    0.00034480
     atom   38 type  1   force =     0.00096590   -0.00024143    0.00018362
     atom   39 type  2   force =    -0.00016475   -0.00053347    0.00009312
     atom   40 type  2   force =    -0.00020108   -0.00019802   -0.00017829
     atom   41 type  2   force =     0.00025899   -0.00031916   -0.00009912
     atom   42 type  2   force =    -0.00067038    0.00005715   -0.00009870
     atom   43 type  1   force =     0.00022824    0.00092468    0.00047820
     atom   44 type  1   force =    -0.00040019    0.00080494    0.00005887
     atom   45 type  2   force =     0.00002468    0.00003338    0.10302513
     atom   46 type  2   force =    -0.07194132   -0.00007656   -0.02721556
     atom   47 type  2   force =     0.07183119    0.00035487   -0.02729938
     atom   48 type  3   force =    -0.00070993   -0.00079141   -0.00169998
     atom   49 type  3   force =    -0.00041971   -0.00042408   -0.00062231
     atom   50 type  4   force =     0.00158986   -0.00240831    0.00185231
     atom   51 type  5   force =    -0.00085009   -0.00025468    0.00076043
     atom   52 type  5   force =    -0.00085102    0.00232346   -0.00098995
     atom   53 type  5   force =     0.00039699    0.00055141    0.00004086
     atom   54 type  5   force =     0.00062750   -0.00020967    0.00006464
     atom   55 type  5   force =     0.00052555   -0.00060220    0.00006549
     atom   56 type  5   force =     0.00059903   -0.00000891   -0.00010897
     atom   57 type  2   force =     0.00070789   -0.00114810    0.00013890
     atom   58 type  5   force =    -0.00082206    0.00095240    0.00023607

     Total force =     0.362027     Total SCF correction =     0.000578
  @ DRIVER MODE: Message from server: STATUS
  @ DRIVER MODE: Message from server: GETFORCE
  @ DRIVER MODE: Returning v,forces,stress,ensemble

     Writing output data file ./calc.save/
  @ DRIVER MODE: Message from server: EXIT
  @ DRIVE MODE: Exiting

     General routines

     Parallel routines

   This run was terminated on:  23:51:19  23Sep2021

   JOB DONE.