     Program PWSCF v.6.7GPU starts on  8Sep2021 at 22:16:23

     R & G space division:  proc/nbgrp/npool/nimage =      10
     Reading input from /storage/home/hcoda1/3/ntian30/research/carbon/CxH_vib/CH_calc/ads_slab/CHOH_a/out_0001/pw.inp
Warning: card &CELL ignored
Warning: card   CELL_DYNAMICS='IPI', ignored
Warning: card / ignored

     Current dimensions of program PWSCF are:
     Max number of different atomic species (ntypx) = 10
     Max number of k-points (npk) =  40000
     Max angular momentum in pseudopotentials (lmaxx) =  3
     Presently no symmetry can be used with electric field

     Message from routine cell_base_init:
     DEPRECATED: use true lattice parameter, not A to a.u. conversion factor

     IMPORTANT: XC functional enforced from input :
     Exchange-correlation= BEEF-VDW
                           (   1   4  43  14   2   0   0)
     Any further DFT definition will be discarded
     Please, verify this is what you really want

  @ DRIVER MODE: Connecting to
 qe_1139763_2767384.sched-torque.pace.gatech.edun_ymfy2r_scratch
  using UNIX socket
  @ DRIVER MODE: Message from server: STATUS
  @ DRIVER MODE: Message from server: INIT
  @ DRIVER MODE: Receiving replica           0          -1
  @ DRIVER MODE: Receiving encoded integer          25
  @ DRIVER MODE:  SCF:  T  FORCE:  T  STRESS:  F  VC:  F  ENSEMBLE:  F
  @ DRIVER MODE:  SCF:  T  FORCE:  T  STRESS:  F  VC:  F  ENSEMBLE:  F

     Using Slab Decomposition

     bravais-lattice index     =            0
     lattice parameter (alat)  =       1.8897  a.u.
     unit-cell volume          =    6658.9804 (a.u.)^3
     number of atoms/cell      =           51
     number of atomic types    =            4
     number of electrons       =       390.00
     number of Kohn-Sham states=          205
     kinetic-energy cutoff     =      29.3995  Ry
     charge density cutoff     =     293.9946  Ry
     scf convergence threshold =      7.3E-08
     mixing beta               =       0.0500
     number of iterations used =            8  plain     mixing
     Exchange-correlation= BEEF-VDW
                           (   1   4  43  14   2   0   0)

     celldm(1)=   1.889726  celldm(2)=   0.000000  celldm(3)=   0.000000
     celldm(4)=   0.000000  celldm(5)=   0.000000  celldm(6)=   0.000000

     crystal axes: (cart. coord. in units of alat)
               a(1) = (   6.579727   0.000000   0.000000 )
               a(2) = (  -0.000775   5.961596   0.000000 )
               a(3) = (   0.000000   0.000000  25.155947 )

     reciprocal axes: (cart. coord. in units 2 pi/alat)
               b(1) = (  0.151982  0.000020  0.000000 )
               b(2) = (  0.000000  0.167740  0.000000 )
               b(3) = (  0.000000  0.000000  0.039752 )

     PseudoPot. # 1 for Ti read from file:
     /storage/coda1/p-amedford6/0/shared/rich_project_chbe-medford/medford-share/data/pseudos_module/espresso/nninc/pbe/van/Ti.UPF
     MD5 check sum: 8e4df49b7f0d34bbd5052bf3f5ea0213
     Pseudo is Ultrasoft, Zval = 12.0
     Generated by new atomic code, or converted to UPF format
     Using radial grid of  851 points,  6 beta functions with:
                l(1) =   0
                l(2) =   0
                l(3) =   1
                l(4) =   1
                l(5) =   2
                l(6) =   2
     Q(r) pseudized with  8 coefficients,  rinner =    1.000   1.000   1.000
                                                       1.000   1.000

     PseudoPot. # 2 for O  read from file:
     /storage/coda1/p-amedford6/0/shared/rich_project_chbe-medford/medford-share/data/pseudos_module/espresso/nninc/pbe/van/O.UPF
     MD5 check sum: 78c19812648e8988a0fe644b0f25305e
     Pseudo is Ultrasoft, Zval =  6.0
     Generated by new atomic code, or converted to UPF format
     Using radial grid of  737 points,  4 beta functions with:
                l(1) =   0
                l(2) =   0
                l(3) =   1
                l(4) =   1
     Q(r) pseudized with  8 coefficients,  rinner =    0.800   0.800   0.800

     PseudoPot. # 3 for C  read from file:
     /storage/coda1/p-amedford6/0/shared/rich_project_chbe-medford/medford-share/data/pseudos_module/espresso/nninc/pbe/van/C.UPF
     MD5 check sum: 1a69bf6b8db32088f5b2163dbdb77a27
     Pseudo is Ultrasoft, Zval =  4.0
     Generated by new atomic code, or converted to UPF format
     Using radial grid of  721 points,  4 beta functions with:
                l(1) =   0
                l(2) =   0
                l(3) =   1
                l(4) =   1
     Q(r) pseudized with  8 coefficients,  rinner =    0.800   0.800   0.800

     PseudoPot. # 4 for H  read from file:
     /storage/coda1/p-amedford6/0/shared/rich_project_chbe-medford/medford-share/data/pseudos_module/espresso/nninc/pbe/van/H.UPF
     MD5 check sum: b5ee9d7bfd3a09ee7748110bda690ff7
     Pseudo is Ultrasoft, Zval =  1.0
     Generated by new atomic code, or converted to UPF format
     Using radial grid of  615 points,  1 beta functions with:
                l(1) =   0
     Q(r) pseudized with  8 coefficients,  rinner =    0.800

     atomic species   valence    mass     pseudopotential
        Ti1           12.00    47.86700     Ti( 1.00)
        O1             6.00    15.99900     O ( 1.00)
        C1             4.00    12.01100     C ( 1.00)
        H1             1.00     1.00800     H ( 1.00)

     No symmetry found

   Cartesian axes

     site n.     atom                  positions (alat units)
         1           Ti1 tau(   1) = (   0.0004258   2.9801865   6.0000000  )
         2           Ti1 tau(   2) = (   3.2906075   1.4906267   6.0002472  )
         3           O1  tau(   3) = (   0.0006271   0.0005054   7.9858123  )
         4           O1  tau(   4) = (   3.2906025   0.0005020   7.3038282  )
         5           O1  tau(   5) = (   4.5942328   1.4918067   9.2879030  )
         6           O1  tau(   6) = (   1.9868534   1.4903216   9.2879459  )
         7           Ti1 tau(   7) = (   3.3189338   3.0017716   9.1565052  )
         8           Ti1 tau(   8) = (   0.0346667   1.4969860   9.2640968  )
         9           O1  tau(   9) = (   3.3073125   0.0088267  11.3792119  )
        10           O1  tau(  10) = (   0.0062670   0.0029933  10.6068016  )
        11           O1  tau(  11) = (   1.3062705   1.5014067  12.6543524  )
        12           O1  tau(  12) = (   5.3087205   1.4988994  12.6673500  )
        13           Ti1 tau(  13) = (   0.0213988   2.9921491  12.5260324  )
        14           Ti1 tau(  14) = (   3.3097092   1.5009918  12.5223738  )
        15           O1  tau(  15) = (   0.0424616   0.0075488  14.6717754  )
        16           O1  tau(  16) = (   3.3005110   0.0073529  14.0105724  )
        17           O1  tau(  17) = (   4.5952227   1.5195780  16.1612446  )
        18           O1  tau(  18) = (   2.0693493   1.5297702  16.1935428  )
        19           Ti1 tau(  19) = (   3.3356741   2.9939547  15.7500326  )
        20           Ti1 tau(  20) = (   0.0335386   1.3679084  15.9371528  )
        21           O1  tau(  21) = (   3.2904802   0.0005063   4.7018136  )
        22           O1  tau(  22) = (   0.0353059   0.0153350  17.1923242  )
        23           O1  tau(  23) = (   1.3043587   1.4918075   6.0039043  )
        24           O1  tau(  24) = (   5.2767064   1.4903225   6.0039473  )
        25           Ti1 tau(  25) = (   0.0000382   5.9609847   6.0000000  )
        26           Ti1 tau(  26) = (   3.2902200   4.4714249   6.0002472  )
        27           O1  tau(  27) = (   0.0002396   2.9813036   7.9858123  )
        28           O1  tau(  28) = (   3.2902150   2.9813002   7.3038282  )
        29           O1  tau(  29) = (   4.5938453   4.4726049   9.2879030  )
        30           O1  tau(  30) = (   1.9864658   4.4711199   9.2879459  )
        31           Ti1 tau(  31) = (   3.3154861   0.0215470   9.1550440  )
        32           Ti1 tau(  32) = (   0.0344056   4.4691587   9.2644328  )
        33           O1  tau(  33) = (   3.3078462   2.9871797  11.3713074  )
        34           O1  tau(  34) = (   0.0058747   2.9832696  10.6292865  )
        35           O1  tau(  35) = (   1.3058732   4.4754499  12.6504552  )
        36           O1  tau(  36) = (   5.3084772   4.4777640  12.6640448  )
        37           Ti1 tau(  37) = (   0.0171148   0.0128214  12.4806662  )
        38           Ti1 tau(  38) = (   3.3088916   4.4784539  12.5193958  )
        39           O1  tau(  39) = (   0.0434956   2.9958159  14.9132474  )
        40           O1  tau(  40) = (   3.3089563   2.9921379  13.9620076  )
        41           O1  tau(  41) = (   4.5951427   4.4669482  16.1652122  )
        42           O1  tau(  42) = (   2.0688924   4.4538916  16.2081353  )
        43           Ti1 tau(  43) = (   3.3160161   0.0142155  15.8078792  )
        44           Ti1 tau(  44) = (   0.0219142   4.6036306  15.9252304  )
        45           O1  tau(  45) = (   3.2900926   2.9813045   4.7018136  )
        46           O1  tau(  46) = (   1.3039711   4.4726057   6.0039043  )
        47           O1  tau(  47) = (   5.2763189   4.4711207   6.0039473  )
        48           C1  tau(  48) = (   6.0423360   2.9466228  19.1488008  )
        49           O1  tau(  49) = (   0.1918362   3.0047394  18.0201065  )
        50           H1  tau(  50) = (   5.0152694   2.8496317  18.7632286  )
        51           H1  tau(  51) = (   1.1393832   3.0938607  18.2382470  )

     number of k points=    10  Fermi-Dirac smearing, width (Ry)=  0.0073
                       cart. coord. in units 2pi/alat
        k(    1) = (   0.0000000   0.0000000   0.0000000), wk =   0.1250000
        k(    2) = (   0.0000000   0.0419351   0.0000000), wk =   0.2500000
        k(    3) = (   0.0000000  -0.0838702   0.0000000), wk =   0.1250000
        k(    4) = (   0.0379955   0.0000049   0.0000000), wk =   0.2500000
        k(    5) = (   0.0379955   0.0419400   0.0000000), wk =   0.2500000
        k(    6) = (   0.0379955  -0.0838652   0.0000000), wk =   0.2500000
        k(    7) = (   0.0379955  -0.0419301   0.0000000), wk =   0.2500000
        k(    8) = (  -0.0759910  -0.0000099   0.0000000), wk =   0.1250000
        k(    9) = (  -0.0759910   0.0419252   0.0000000), wk =   0.2500000
        k(   10) = (  -0.0759910  -0.0838800   0.0000000), wk =   0.1250000

     Initial potential from superposition of free atoms

     starting charge  373.99919, renormalised to  390.00000

     negative rho (up, down):  1.784E-02 0.000E+00

     %%%%%%%%%%%%%%%%%%%%%%%%%%%%%%%%%%%%%%%%%%%%%%%%%%%%%%%%%%%%%%%%%%%%%%%%
     %                                                                      %
     % You are using vdW-DF, which was implemented by the Thonhauser group. %
     % Please cite the following two papers that made this development      %
     % possible and the two reviews that describe the various versions:     %
     %                                                                      %
     %   T. Thonhauser et al., PRL 115, 136402 (2015).                      %
     %   T. Thonhauser et al., PRB 76, 125112 (2007).                       %
     %   K. Berland et al., Rep. Prog. Phys. 78, 066501 (2015).             %
     %   D.C. Langreth et al., J. Phys.: Condens. Matter 21, 084203 (2009). %
     %                                                                      %
     %                                                                      %
     % If you are calculating the stress with vdW-DF, please also cite:     %
     %                                                                      %
     %   R. Sabatini et al., J. Phys.: Condens. Matter 24, 424209 (2012).   %
     %                                                                      %
     %%%%%%%%%%%%%%%%%%%%%%%%%%%%%%%%%%%%%%%%%%%%%%%%%%%%%%%%%%%%%%%%%%%%%%%%

     Adding external electric field

     Computed dipole along edir(3) :
        Dipole               -6.1554 Ry au,        -15.6454 Debye
        Dipole field         -0.0116 Ry au,

        Potential amp.        1.0768 Ry
        Total length         46.3494 bohr

     Starting wfcs are  294 atomic wfcs
  @ DRIVER MODE: Message from server: STATUS
  @ DRIVER MODE: Message from server: POSDATA
  @ DRIVER MODE: Reading and sharing cell
  @ DRIVER MODE: Reading and sharing positions
  @ DRIVER MODE: Received positions

     Self-consistent Calculation

     iteration #  1     ecut=    29.40 Ry     beta= 0.05
     Davidson diagonalization with overlap
     c_bands:  1 eigenvalues not converged
     c_bands:  1 eigenvalues not converged
     c_bands:  1 eigenvalues not converged
     ethr =  1.00E-05,  avg # of iterations = 16.7

[...]

     total energy              =   -2756.81171240 Ry
     estimated scf accuracy    <    1910.49658862 Ry

     iteration #  2     ecut=    29.40 Ry     beta= 0.05
     Davidson diagonalization with overlap
     ethr =  1.00E-02,  avg # of iterations = 18.9

[...]

     iteration # 65     ecut=    29.40 Ry     beta= 0.05
     Davidson diagonalization with overlap
     c_bands:  1 eigenvalues not converged
     c_bands:  1 eigenvalues not converged
     ethr =  1.53E-09,  avg # of iterations = 15.8

[...]

     total energy              =   -2929.94090505 Ry
     estimated scf accuracy    <       0.00000012 Ry

     iteration # 74     ecut=    29.40 Ry     beta= 0.05
     Davidson diagonalization with overlap
     ethr =  3.09E-11,  avg # of iterations = 10.9

     negative rho (up, down):  1.676E-02 0.000E+00

     Adding external electric field

     Computed dipole along edir(3) :
        Dipole                0.3804 Ry au,          0.9668 Debye
        Dipole field          0.0007 Ry au,

        Potential amp.       -0.0665 Ry
        Total length         46.3494 bohr

     End of self-consistent calculation

          k = 0.0000 0.0000 0.0000 ( 18029 PWs)   bands (ev):

   -56.0202 -55.9841 -55.9829 -55.9487 -55.9115 -55.9009 -55.8657 -55.8598
   -55.8571 -55.8227 -55.8082 -55.8081 -55.8021 -55.7682 -55.0800 -55.0459
   -32.5893 -32.5162 -32.4805 -32.3859 -32.3361 -32.3328 -32.3221 -32.3130
   -32.2722 -32.2659 -32.2287 -32.2269 -32.2184 -32.1948 -32.1880 -32.1734
   -32.1560 -32.1553 -32.1470 -32.1377 -32.1337 -32.1257 -32.1138 -32.1096
   -32.1012 -32.0854 -32.0781 -32.0394 -32.0339 -32.0265 -32.0224 -32.0105
   -32.0060 -32.0011 -31.9970 -31.9877 -31.9738 -31.9565 -31.9389 -31.9363
   -31.9148 -31.8847 -31.4924 -31.3893 -31.3678 -31.3087 -31.2223 -31.1112
   -21.5340 -16.8521 -16.6009 -16.4637 -16.3591 -16.2414 -16.1243 -16.0623
   -15.9640 -15.8587 -15.7446 -15.6958 -15.6731 -15.6712 -15.6509 -15.6422
   -15.6346 -15.5759 -15.5486 -15.5264 -15.5123 -15.5103 -15.4647 -15.4444
   -15.4114 -15.3758 -15.2517 -15.1814 -15.1235 -14.7880 -13.5807 -13.4612
   -10.7230  -5.9405  -5.0985  -4.2864  -4.1803  -4.0305  -3.9548  -3.9450
    -3.8976  -3.7812  -3.6058  -3.4493  -3.4427  -3.3161  -3.2729  -3.2268
    -3.1840  -3.0544  -3.0007  -2.9883  -2.9137  -2.9098  -2.8951  -2.8849
    -2.7975  -2.7861  -2.7683  -2.7570  -2.6475  -2.6080  -2.4883  -2.4557
    -2.4087  -2.3688  -2.3605  -2.3461  -2.3414  -2.2972  -2.2854  -2.2617
    -2.2065  -2.1495  -2.0550  -1.9247  -1.9155  -1.7982  -1.7639  -1.5989
    -1.5836  -1.5464  -1.5202  -1.4707  -1.4268  -1.4195  -1.3766  -1.2717
    -1.1920  -1.1406  -1.0639  -1.0287  -0.9603  -0.9195  -0.8437  -0.8133
    -0.8092  -0.7800  -0.6819  -0.6130  -0.5523  -0.5122  -0.4947  -0.4709
    -0.3858  -0.3603  -0.2644  -0.2514  -0.2110  -0.2028  -0.0910  -0.0823
    -0.0755  -0.0582  -0.0505   0.0373   0.1124   0.1253   0.1532   0.3082
     0.5261   0.5364   0.5772   0.8325   0.9205   0.9460   1.1051   1.2893
     1.5321   1.5865   3.0762   3.1438   3.1818   3.2036   3.2271   3.2845
     3.5660   3.5813   3.5876   3.6046   3.6315

[...]

          k = 0.0380-0.0419 0.0000 ( 17876 PWs)   bands (ev):

[...]

          k =-0.0760-0.0000 0.0000 ( 17886 PWs)   bands (ev):

[...]

          k =-0.0760-0.0839 0.0000 ( 17948 PWs)   bands (ev):

   -56.0032 -56.0009 -55.9670 -55.9644 -55.9084 -55.8916 -55.8691 -55.8590
   -55.8417 -55.8378 -55.8148 -55.8109 -55.7857 -55.7846 -55.0629 -55.0629
   -32.4411 -32.3939 -32.3911 -32.3090 -32.2965 -32.2942 -32.2755 -32.2600
   -32.2550 -32.2304 -32.2213 -32.2184 -32.2109 -32.1691 -32.1587 -32.1575
   -32.1562 -32.1510 -32.1470 -32.1447 -32.1396 -32.1315 -32.1128 -32.1017
   -32.1015 -32.0996 -32.0954 -32.0918 -32.0876 -32.0856 -32.0840 -32.0604
   -32.0400 -32.0392 -32.0383 -32.0209 -32.0129 -32.0118 -32.0018 -31.9790
   -31.9711 -31.9702 -31.3803 -31.3803 -31.3050 -31.3049 -31.2655 -31.2655
   -21.5331 -16.4714 -16.2571 -16.1946 -16.0402 -16.0354 -16.0049 -15.9771
   -15.8476 -15.8248 -15.8113 -15.7912 -15.7670 -15.7494 -15.7422 -15.7264
   -15.6219 -15.6148 -15.6040 -15.5980 -15.5388 -15.5352 -15.5252 -15.5121
   -15.4795 -15.4768 -15.4496 -15.4462 -15.2975 -15.1589 -13.5624 -13.5619
   -10.7263  -5.9429  -5.0760  -4.2342  -3.5337  -3.5314  -3.4535  -3.2594
    -3.2214  -3.1871  -3.1755  -3.0996  -3.0245  -3.0164  -3.0099  -2.9278
    -2.9213  -2.9181  -2.9161  -2.8535  -2.8473  -2.8101  -2.8055  -2.7555
    -2.7254  -2.7203  -2.7106  -2.6879  -2.6850  -2.6693  -2.6511  -2.6310
    -2.6184  -2.5344  -2.4899  -2.3904  -2.3586  -2.3266  -2.2516  -2.2427
    -2.1587  -2.1291  -2.1085  -2.0706  -2.0254  -2.0085  -1.8493  -1.8170
    -1.8122  -1.7491  -1.6771  -1.6542  -1.6240  -1.5685  -1.5051  -1.4956
    -1.4070  -1.3514  -1.3477  -1.2232  -1.2131  -1.1609  -1.0548  -1.0226
    -1.0141  -1.0104  -1.0016  -0.9388  -0.9279  -0.8631  -0.8133  -0.7656
    -0.7479  -0.7351  -0.5392  -0.4983  -0.4438  -0.3434  -0.3018  -0.1114
    -0.0965  -0.0827   0.0004   0.0384   0.0532   0.1266   0.2461   0.2508
     0.3038   0.3588   0.4011   0.4082   0.4254   1.2969   1.2975   1.2982
     1.4020   1.4039   3.2365   3.2929   3.3212   3.3988   3.4701   3.4977
     3.5849   3.6032   3.6311   3.6360   3.7132

     the Fermi energy is     3.1354 ev

!    total energy              =   -2929.94092248 Ry
     estimated scf accuracy    <       0.00000005 Ry
     smearing contrib. (-TS)   =      -0.03726801 Ry
     internal energy E=F+TS    =   -2929.90365448 Ry

     The total energy is F=E-TS. E is the sum of the following terms:
     one-electron contribution =  -24334.51311182 Ry
     hartree contribution      =   12249.85228274 Ry
     xc contribution           =    -481.17997266 Ry
     ewald contribution        =    9635.93687422 Ry
     electric field correction =       0.00027304 Ry

     convergence has been achieved in  74 iterations

     Forces acting on atoms (cartesian axes, Ry/au):

     atom    1 type  1   force =    -0.00041310   -0.00002365    0.09183395
     atom    2 type  1   force =    -0.00028576    0.00032493   -0.18374156
     atom    3 type  2   force =     0.00040918    0.00008533   -0.02348043
     atom    4 type  2   force =     0.00072502    0.00037674    0.05120934
     atom    5 type  2   force =    -0.01350192    0.00019013    0.00468914
     atom    6 type  2   force =     0.01514864   -0.00002679    0.00541519
     atom    7 type  1   force =    -0.00053923    0.00015642   -0.00021350
     atom    8 type  1   force =     0.00026753    0.00020914    0.00007154
     atom    9 type  2   force =     0.00004250   -0.00004172   -0.00016603
     atom   10 type  2   force =    -0.00021087    0.00005010    0.00039354
     atom   11 type  2   force =     0.00003482   -0.00014280   -0.00014363
     atom   12 type  2   force =     0.00011799   -0.00001545   -0.00008913
     atom   13 type  1   force =    -0.00023575    0.00083404   -0.00040714
     atom   14 type  1   force =     0.00016620    0.00000204    0.00017159
     atom   15 type  2   force =     0.00001409    0.00033574    0.00028711
     atom   16 type  2   force =     0.00000017    0.00009056    0.00055634
     atom   17 type  2   force =    -0.00036306   -0.00027256    0.00014395
     atom   18 type  2   force =    -0.00017066   -0.00040373    0.00024675
     atom   19 type  1   force =    -0.00015821    0.00011428    0.00019167
     atom   20 type  1   force =    -0.00029061    0.00056150    0.00061176
     atom   21 type  2   force =    -0.00007945    0.00001392    0.10508687
     atom   22 type  2   force =    -0.00010459   -0.00035274   -0.00022353
     atom   23 type  2   force =    -0.06789780   -0.00014668   -0.02655349
     atom   24 type  2   force =     0.06761450    0.00029521   -0.02663501
     atom   25 type  1   force =    -0.00035346   -0.00000021    0.09418117
     atom   26 type  1   force =    -0.00029482   -0.00041987   -0.18375601
     atom   27 type  2   force =     0.00036081    0.00013756   -0.02227145
     atom   28 type  2   force =     0.00077715    0.00030667    0.05092478
     atom   29 type  2   force =    -0.01349062    0.00044617    0.00481298
     atom   30 type  2   force =     0.01515718    0.00023552    0.00552058
     atom   31 type  1   force =    -0.00060953   -0.00030294   -0.00029674
     atom   32 type  1   force =     0.00027366   -0.00009380    0.00004389
     atom   33 type  2   force =     0.00000661    0.00002958   -0.00005610
     atom   34 type  2   force =    -0.00007672   -0.00005699    0.00009683
     atom   35 type  2   force =     0.00007882    0.00007968    0.00009921
     atom   36 type  2   force =     0.00006953   -0.00005599    0.00013220
     atom   37 type  1   force =    -0.00025124   -0.00076005   -0.00018252
     atom   38 type  1   force =     0.00021680    0.00008035    0.00071202
     atom   39 type  2   force =    -0.00008149   -0.00064355    0.00033781
     atom   40 type  2   force =    -0.00037303   -0.00017668   -0.00014983
     atom   41 type  2   force =    -0.00025230    0.00011968   -0.00012588
     atom   42 type  2   force =    -0.00021718    0.00006152    0.00009580
     atom   43 type  1   force =     0.00006689   -0.00019583   -0.00040468
     atom   44 type  1   force =    -0.00035709   -0.00038601    0.00045085
     atom   45 type  2   force =    -0.00004663    0.00002332    0.10507346
     atom   46 type  2   force =    -0.06790357   -0.00050288   -0.02657122
     atom   47 type  2   force =     0.06762724   -0.00006068   -0.02665101
     atom   48 type  3   force =     0.01543728    0.00129975   -0.00021816
     atom   49 type  2   force =    -0.00682679   -0.00061778    0.00235927
     atom   50 type  4   force =    -0.00901920   -0.00077831   -0.00558157
     atom   51 type  4   force =    -0.00020792    0.00001778    0.00216902

     Total force =     0.368407     Total SCF correction =     0.000752
  @ DRIVER MODE: Message from server: STATUS
  @ DRIVER MODE: Message from server: GETFORCE
  @ DRIVER MODE: Returning v,forces,stress,ensemble

     Writing output data file ./calc.save/
  @ DRIVER MODE: Message from server: EXIT
  @ DRIVE MODE: Exiting

     General routines

     Parallel routines

   This run was terminated on:  22:37: 3   8Sep2021

   JOB DONE.