     Program PWSCF v.6.7GPU starts on 23Sep2021 at  9:48:25

     R & G space division:  proc/nbgrp/npool/nimage =       8
     Reading input from /storage/home/hcoda1/3/ntian30/research/carbon/CxH_vib/H2O_calc/ads_slab/CH3NHNHHO_a/out_0029/pw.inp
Warning: card &CELL ignored
Warning: card   CELL_DYNAMICS='IPI', ignored
Warning: card / ignored

     Current dimensions of program PWSCF are:
     Max number of different atomic species (ntypx) = 10
     Max number of k-points (npk) =  40000
     Max angular momentum in pseudopotentials (lmaxx) =  3
     Presently no symmetry can be used with electric field

     Message from routine cell_base_init:
     DEPRECATED: use true lattice parameter, not A to a.u. conversion factor

     IMPORTANT: XC functional enforced from input :
     Exchange-correlation= BEEF-VDW
                           (   1   4  43  14   2   0   0)
     Any further DFT definition will be discarded
     Please, verify this is what you really want

  @ DRIVER MODE: Connecting to
 qe_1139763_2941006.sched-torque.pace.gatech.edubcs0s4gi_scratch
  using UNIX socket
  @ DRIVER MODE: Message from server: STATUS
  @ DRIVER MODE: Message from server: INIT
  @ DRIVER MODE: Receiving replica           0          -1
  @ DRIVER MODE: Receiving encoded integer          25
  @ DRIVER MODE:  SCF:  T  FORCE:  T  STRESS:  F  VC:  F  ENSEMBLE:  F
  @ DRIVER MODE:  SCF:  T  FORCE:  T  STRESS:  F  VC:  F  ENSEMBLE:  F

     Using Slab Decomposition

     bravais-lattice index     =            0
     lattice parameter (alat)  =       1.8897  a.u.
     unit-cell volume          =    6658.9804 (a.u.)^3
     number of atoms/cell      =           57
     number of atomic types    =            5
     number of electrons       =       404.00
     number of Kohn-Sham states=          212
     kinetic-energy cutoff     =      29.3995  Ry
     charge density cutoff     =     293.9946  Ry
     scf convergence threshold =      7.3E-08
     mixing beta               =       0.0500
     number of iterations used =            8  plain     mixing
     Exchange-correlation= BEEF-VDW
                           (   1   4  43  14   2   0   0)

     celldm(1)=   1.889726  celldm(2)=   0.000000  celldm(3)=   0.000000
     celldm(4)=   0.000000  celldm(5)=   0.000000  celldm(6)=   0.000000

     crystal axes: (cart. coord. in units of alat)
               a(1) = (   6.579727   0.000000   0.000000 )
               a(2) = (  -0.000775   5.961596   0.000000 )
               a(3) = (   0.000000   0.000000  25.155947 )

     reciprocal axes: (cart. coord. in units 2 pi/alat)
               b(1) = (  0.151982  0.000020  0.000000 )
               b(2) = (  0.000000  0.167740  0.000000 )
               b(3) = (  0.000000  0.000000  0.039752 )

     PseudoPot. # 1 for Ti read from file:
     /storage/coda1/p-amedford6/0/shared/rich_project_chbe-medford/medford-share/data/pseudos_module/espresso/nninc/pbe/van/Ti.UPF
     MD5 check sum: 8e4df49b7f0d34bbd5052bf3f5ea0213
     Pseudo is Ultrasoft, Zval = 12.0
     Generated by new atomic code, or converted to UPF format
     Using radial grid of  851 points,  6 beta functions with:
                l(1) =   0
                l(2) =   0
                l(3) =   1
                l(4) =   1
                l(5) =   2
                l(6) =   2
     Q(r) pseudized with  8 coefficients,  rinner =    1.000   1.000   1.000
                                                       1.000   1.000

     PseudoPot. # 2 for O  read from file:
     /storage/coda1/p-amedford6/0/shared/rich_project_chbe-medford/medford-share/data/pseudos_module/espresso/nninc/pbe/van/O.UPF
     MD5 check sum: 78c19812648e8988a0fe644b0f25305e
     Pseudo is Ultrasoft, Zval =  6.0
     Generated by new atomic code, or converted to UPF format
     Using radial grid of  737 points,  4 beta functions with:
                l(1) =   0
                l(2) =   0
                l(3) =   1
                l(4) =   1
     Q(r) pseudized with  8 coefficients,  rinner =    0.800   0.800   0.800

     PseudoPot. # 3 for N  read from file:
     /storage/coda1/p-amedford6/0/shared/rich_project_chbe-medford/medford-share/data/pseudos_module/espresso/nninc/pbe/van/N.UPF
     MD5 check sum: 90d10febe142ad51ac9d5be1deb811c4
     Pseudo is Ultrasoft, Zval =  5.0
     Generated by new atomic code, or converted to UPF format
     Using radial grid of  729 points,  4 beta functions with:
                l(1) =   0
                l(2) =   0
                l(3) =   1
                l(4) =   1
     Q(r) pseudized with  8 coefficients,  rinner =    0.800   0.800   0.800

     PseudoPot. # 4 for C  read from file:
     /storage/coda1/p-amedford6/0/shared/rich_project_chbe-medford/medford-share/data/pseudos_module/espresso/nninc/pbe/van/C.UPF
     MD5 check sum: 1a69bf6b8db32088f5b2163dbdb77a27
     Pseudo is Ultrasoft, Zval =  4.0
     Generated by new atomic code, or converted to UPF format
     Using radial grid of  721 points,  4 beta functions with:
                l(1) =   0
                l(2) =   0
                l(3) =   1
                l(4) =   1
     Q(r) pseudized with  8 coefficients,  rinner =    0.800   0.800   0.800

     PseudoPot. # 5 for H  read from file:
     /storage/coda1/p-amedford6/0/shared/rich_project_chbe-medford/medford-share/data/pseudos_module/espresso/nninc/pbe/van/H.UPF
     MD5 check sum: b5ee9d7bfd3a09ee7748110bda690ff7
     Pseudo is Ultrasoft, Zval =  1.0
     Generated by new atomic code, or converted to UPF format
     Using radial grid of  615 points,  1 beta functions with:
                l(1) =   0
     Q(r) pseudized with  8 coefficients,  rinner =    0.800

     atomic species   valence    mass     pseudopotential
        Ti1           12.00    47.86700     Ti( 1.00)
        O1             6.00    15.99900     O ( 1.00)
        N1             5.00    14.00700     N ( 1.00)
        C1             4.00    12.01100     C ( 1.00)
        H1             1.00     1.00800     H ( 1.00)

     No symmetry found

   Cartesian axes

     site n.     atom                  positions (alat units)
         1           Ti1 tau(   1) = (   0.0004258   2.9801865   6.0000000  )
         2           Ti1 tau(   2) = (   3.2906075   1.4906267   6.0002472  )
         3           O1  tau(   3) = (   0.0006271   0.0005054   7.9858123  )
         4           O1  tau(   4) = (   3.2906025   0.0005020   7.3038282  )
         5           O1  tau(   5) = (   4.5942328   1.4918067   9.2879030  )
         6           O1  tau(   6) = (   1.9868534   1.4903216   9.2879459  )
         7           Ti1 tau(   7) = (   3.2907910   2.8959150   9.1758416  )
         8           Ti1 tau(   8) = (   0.0015273   1.4827037   9.2680791  )
         9           O1  tau(   9) = (   3.2953096   5.9421394  11.2884464  )
        10           O1  tau(  10) = (   0.0116148   5.9584955  10.6183126  )
        11           O1  tau(  11) = (   1.3041449   1.4755329  12.6321863  )
        12           O1  tau(  12) = (   5.3089623   1.4871430  12.6059879  )
        13           Ti1 tau(  13) = (   6.5683417   3.1096339  12.6902584  )
        14           Ti1 tau(  14) = (   3.3171551   1.3050273  12.6602886  )
        15           O1  tau(  15) = (   6.5441980   0.0188234  14.6400653  )
        16           O1  tau(  16) = (   3.3305379   0.0354930  13.9003223  )
        17           O1  tau(  17) = (   4.5569828   1.5958521  16.0354584  )
        18           O1  tau(  18) = (   2.0254723   1.5302355  15.9749146  )
        19           Ti1 tau(  19) = (   3.2479256   3.0467527  15.6517507  )
        20           Ti1 tau(  20) = (   6.4631478   1.5268535  15.8454044  )
        21           O1  tau(  21) = (   3.2904802   0.0005063   4.7018136  )
        22           O1  tau(  22) = (   6.5640117   0.0389496  17.1838934  )
        23           O1  tau(  23) = (   1.3043587   1.4918075   6.0039043  )
        24           O1  tau(  24) = (   5.2767064   1.4903225   6.0039473  )
        25           Ti1 tau(  25) = (   0.0000382   5.9609847   6.0000000  )
        26           Ti1 tau(  26) = (   3.2902200   4.4714249   6.0002472  )
        27           O1  tau(  27) = (   0.0002396   2.9813036   7.9858123  )
        28           O1  tau(  28) = (   3.2902150   2.9813002   7.3038282  )
        29           O1  tau(  29) = (   4.5938453   4.4726049   9.2879030  )
        30           O1  tau(  30) = (   1.9864658   4.4711199   9.2879459  )
        31           Ti1 tau(  31) = (   3.2891106   5.8743827   9.1763621  )
        32           Ti1 tau(  32) = (   0.0006254   4.4649316   9.2693709  )
        33           O1  tau(  33) = (   3.2909858   3.0116154  11.2527998  )
        34           O1  tau(  34) = (   0.0092240   2.9805883  10.6323155  )
        35           O1  tau(  35) = (   1.2990260   4.4726261  12.6330189  )
        36           O1  tau(  36) = (   5.2946483   4.4606482  12.6134978  )
        37           Ti1 tau(  37) = (   0.0333947   0.1262769  12.6104238  )
        38           Ti1 tau(  38) = (   3.2900473   4.3917186  12.4086616  )
        39           O1  tau(  39) = (   6.5591047   2.9728048  14.6463482  )
        40           O1  tau(  40) = (   3.3071982   2.9909887  13.8663713  )
        41           O1  tau(  41) = (   4.5374868   4.4330245  16.1128471  )
        42           O1  tau(  42) = (   2.0037144   4.4952966  15.9584979  )
        43           Ti1 tau(  43) = (   3.1911318   0.0573200  16.2061952  )
        44           Ti1 tau(  44) = (   6.5299348   4.6473693  16.0672121  )
        45           O1  tau(  45) = (   3.2900926   2.9813045   4.7018136  )
        46           O1  tau(  46) = (   1.3039711   4.4726057   6.0039043  )
        47           O1  tau(  47) = (   5.2763189   4.4711207   6.0039473  )
        48           N1  tau(  48) = (   1.2509970   2.8552009  18.3001485  )
        49           N1  tau(  49) = (   0.1090600   2.9410495  17.4585617  )
        50           C1  tau(  50) = (   1.1117997   3.5424446  19.5707766  )
        51           H1  tau(  51) = (   0.2696121   3.1616043  20.1716506  )
        52           H1  tau(  52) = (   2.0314425   3.4001925  20.1292599  )
        53           H1  tau(  53) = (   0.9679189   4.6079482  19.3970517  )
        54           H1  tau(  54) = (   1.5306055   1.8840965  18.4148701  )
        55           H1  tau(  55) = (   5.8389999   2.9001924  18.0325661  )
        56           O1  tau(  56) = (   3.2424369   0.1001929  18.0579484  )
        57           H1  tau(  57) = (   3.9792659   5.6040190  18.4897823  )

     number of k points=    10  Fermi-Dirac smearing, width (Ry)=  0.0073
                       cart. coord. in units 2pi/alat
        k(    1) = (   0.0000000   0.0000000   0.0000000), wk =   0.1250000
        k(    2) = (   0.0000000   0.0419351   0.0000000), wk =   0.2500000
        k(    3) = (   0.0000000  -0.0838702   0.0000000), wk =   0.1250000
        k(    4) = (   0.0379955   0.0000049   0.0000000), wk =   0.2500000
        k(    5) = (   0.0379955   0.0419400   0.0000000), wk =   0.2500000
        k(    6) = (   0.0379955  -0.0838652   0.0000000), wk =   0.2500000
        k(    7) = (   0.0379955  -0.0419301   0.0000000), wk =   0.2500000
        k(    8) = (  -0.0759910  -0.0000099   0.0000000), wk =   0.1250000
        k(    9) = (  -0.0759910   0.0419252   0.0000000), wk =   0.2500000
        k(   10) = (  -0.0759910  -0.0838800   0.0000000), wk =   0.1250000

     Initial potential from superposition of free atoms

     starting charge  387.99913, renormalised to  404.00000

     negative rho (up, down):  1.468E-02 0.000E+00

     %%%%%%%%%%%%%%%%%%%%%%%%%%%%%%%%%%%%%%%%%%%%%%%%%%%%%%%%%%%%%%%%%%%%%%%%
     %                                                                      %
     % You are using vdW-DF, which was implemented by the Thonhauser group. %
     % Please cite the following two papers that made this development      %
     % possible and the two reviews that describe the various versions:     %
     %                                                                      %
     %   T. Thonhauser et al., PRL 115, 136402 (2015).                      %
     %   T. Thonhauser et al., PRB 76, 125112 (2007).                       %
     %   K. Berland et al., Rep. Prog. Phys. 78, 066501 (2015).             %
     %   D.C. Langreth et al., J. Phys.: Condens. Matter 21, 084203 (2009). %
     %                                                                      %
     %                                                                      %
     % If you are calculating the stress with vdW-DF, please also cite:     %
     %                                                                      %
     %   R. Sabatini et al., J. Phys.: Condens. Matter 24, 424209 (2012).   %
     %                                                                      %
     %%%%%%%%%%%%%%%%%%%%%%%%%%%%%%%%%%%%%%%%%%%%%%%%%%%%%%%%%%%%%%%%%%%%%%%%

     Adding external electric field

     Computed dipole along edir(3) :
        Dipole              -12.7307 Ry au,        -32.3582 Debye
        Dipole field         -0.0240 Ry au,

        Potential amp.        2.2270 Ry
        Total length         46.3494 bohr

     Starting wfcs are  306 atomic wfcs
  @ DRIVER MODE: Message from server: STATUS
  @ DRIVER MODE: Message from server: POSDATA
  @ DRIVER MODE: Reading and sharing cell
  @ DRIVER MODE: Reading and sharing positions
  @ DRIVER MODE: Received positions

     Self-consistent Calculation

     iteration #  1     ecut=    29.40 Ry     beta= 0.05
     Davidson diagonalization with overlap
     c_bands:  4 eigenvalues not converged
     c_bands:  5 eigenvalues not converged
     c_bands:  5 eigenvalues not converged
     c_bands:  5 eigenvalues not converged
     c_bands:  1 eigenvalues not converged
     c_bands:  3 eigenvalues not converged
     c_bands:  4 eigenvalues not converged
     c_bands:  4 eigenvalues not converged
     ethr =  1.00E-05,  avg # of iterations = 24.4

[...]

     total energy              =   -2345.45605434 Ry
     estimated scf accuracy    <    7121.29836283 Ry

     iteration #  2     ecut=    29.40 Ry     beta= 0.05
     Davidson diagonalization with overlap
     ethr =  1.00E-02,  avg # of iterations = 24.8

[...]

     iteration # 38     ecut=    29.40 Ry     beta= 0.05
     Davidson diagonalization with overlap
     c_bands:  1 eigenvalues not converged
     ethr =  5.07E-07,  avg # of iterations =  9.1

[...]

     total energy              =   -2975.25033369 Ry
     estimated scf accuracy    <       0.00000008 Ry

     iteration # 71     ecut=    29.40 Ry     beta= 0.05
     Davidson diagonalization with overlap
     ethr =  1.89E-11,  avg # of iterations =  2.5

     negative rho (up, down):  1.543E-02 0.000E+00

     Adding external electric field

     Computed dipole along edir(3) :
        Dipole                0.5382 Ry au,          1.3679 Debye
        Dipole field          0.0010 Ry au,

        Potential amp.       -0.0941 Ry
        Total length         46.3494 bohr

     End of self-consistent calculation

          k = 0.0000 0.0000 0.0000 ( 18029 PWs)   bands (ev):

   -56.4272 -56.3935 -55.7711 -55.7363 -55.5396 -55.4785 -55.3663 -55.2107
   -55.2071 -55.1385 -55.1033 -55.0898 -55.0559 -55.0498 -54.9841 -54.8649
   -32.8603 -32.7115 -32.6835 -32.5948 -32.5034 -32.4858 -32.2513 -32.0177
   -31.9906 -31.9678 -31.9149 -31.9093 -31.8798 -31.7677 -31.7557 -31.7460
   -31.7046 -31.6957 -31.6808 -31.6405 -31.6342 -31.6239 -31.5753 -31.5544
   -31.5135 -31.4824 -31.4802 -31.4297 -31.4170 -31.4104 -31.4056 -31.3859
   -31.3663 -31.3659 -31.3290 -31.3109 -31.3051 -31.3001 -31.2817 -31.2368
   -31.2339 -31.2172 -31.2044 -31.1840 -31.1132 -31.1090 -31.1055 -31.0580
   -16.6169 -16.5689 -16.1900 -16.1726 -15.8654 -15.8010 -15.7758 -15.7408
   -15.6792 -15.5560 -15.4380 -15.3926 -15.3845 -15.3362 -15.1769 -15.0797
   -14.9846 -14.9130 -14.9055 -14.8583 -14.8502 -14.8208 -14.8093 -14.8012
   -14.7353 -14.7005 -14.5923 -14.5476 -14.4514 -14.2568 -14.1779 -13.5877
   -13.4778 -11.5416  -8.6645  -5.0363  -4.2520  -4.1677  -3.7817  -3.6929
    -3.5257  -3.4510  -3.2930  -3.2621  -3.1787  -3.0730  -3.0112  -2.9540
    -2.9430  -2.8379  -2.6894  -2.6376  -2.6328  -2.6098  -2.6035  -2.5145
    -2.4442  -2.4107  -2.3435  -2.2732  -2.2418  -2.1564  -2.1512  -2.1248
    -2.1037  -2.0748  -2.0288  -1.9799  -1.9544  -1.9363  -1.8237  -1.7821
    -1.7553  -1.7101  -1.6780  -1.6037  -1.5681  -1.5215  -1.4440  -1.3831
    -1.2600  -1.2338  -1.1679  -1.1537  -1.1242  -1.0012  -0.9614  -0.9271
    -0.8658  -0.8324  -0.7669  -0.7435  -0.7114  -0.6736  -0.6650  -0.6249
    -0.5182  -0.4888  -0.3622  -0.3448  -0.2922  -0.2221  -0.2121  -0.1576
    -0.1360  -0.0997  -0.0544  -0.0186   0.0242   0.0931   0.1310   0.2183
     0.2615   0.3246   0.4205   0.4497   0.4714   0.5341   0.5519   0.5852
     0.6307   0.7245   0.7334   0.7943   0.8701   0.9151   0.9330   0.9940
     1.0537   1.0729   1.1717   1.1994   1.2104   1.2656   1.4731   1.5134
     1.6908   2.4473   2.8373   2.9840   3.2698   3.3014   3.5616   3.7965
     3.8264   3.8285   3.9114   4.0129

[...]

          k = 0.0380-0.0419 0.0000 ( 17876 PWs)   bands (ev):

[...]

          k =-0.0760-0.0000 0.0000 ( 17886 PWs)   bands (ev):

[...]

          k =-0.0760-0.0839 0.0000 ( 17948 PWs)   bands (ev):

   -56.4105 -56.4100 -55.7584 -55.7488 -55.5345 -55.4836 -55.3649 -55.2119
   -55.2024 -55.1429 -55.1011 -55.0733 -55.0722 -55.0483 -54.9864 -54.8663
   -32.6973 -32.6969 -32.6772 -32.6765 -32.5476 -32.5474 -32.0763 -32.0679
   -31.9525 -31.9451 -31.9413 -31.9389 -31.8376 -31.7988 -31.7618 -31.7535
   -31.7091 -31.7038 -31.6643 -31.6152 -31.5828 -31.5638 -31.5397 -31.4993
   -31.4869 -31.4841 -31.4338 -31.4318 -31.4190 -31.4182 -31.4163 -31.3958
   -31.3822 -31.3563 -31.3346 -31.3224 -31.3091 -31.2979 -31.2966 -31.2964
   -31.2594 -31.2585 -31.2410 -31.2341 -31.1910 -31.1753 -31.1144 -31.0895
   -16.5439 -16.1765 -15.9977 -15.9937 -15.9143 -15.9116 -15.7035 -15.6978
   -15.5271 -15.4979 -15.4233 -15.3051 -15.2535 -15.1971 -15.1890 -15.1467
   -15.0923 -15.0731 -15.0303 -15.0134 -14.9505 -14.9069 -14.8582 -14.8125
   -14.7936 -14.7546 -14.6337 -14.5847 -14.5778 -14.3912 -14.3587 -13.5818
   -13.5811 -11.5482  -8.6712  -5.0445  -4.2496  -3.7532  -3.4160  -3.0997
    -3.0816  -3.0361  -3.0270  -2.8114  -2.7908  -2.7652  -2.6921  -2.6793
    -2.6295  -2.6221  -2.5302  -2.4896  -2.4474  -2.4329  -2.4186  -2.3634
    -2.3364  -2.2918  -2.2884  -2.2529  -2.2180  -2.1849  -2.1595  -2.1179
    -2.0934  -2.0799  -2.0415  -2.0107  -1.9825  -1.9329  -1.9120  -1.8818
    -1.8704  -1.8494  -1.6917  -1.6376  -1.5816  -1.5407  -1.5095  -1.4428
    -1.4324  -1.3771  -1.3180  -1.2846  -1.2562  -1.2381  -1.1516  -1.1201
    -1.1036  -1.0681  -1.0260  -0.9654  -0.9070  -0.8588  -0.7816  -0.6875
    -0.6585  -0.6412  -0.6139  -0.6064  -0.5659  -0.5134  -0.4249  -0.3729
    -0.3207  -0.3038  -0.2603  -0.2546  -0.2238  -0.1871  -0.1174   0.0051
     0.0706   0.1066   0.1619   0.2179   0.2742   0.3387   0.3810   0.4627
     0.5418   0.5633   0.6489   0.6825   0.8067   0.8493   0.9651   1.0061
     1.0436   1.0885   1.1577   1.2551   1.2800   1.3242   1.3259   1.3427
     1.3572   2.4728   3.4041   3.4070   3.4575   3.4649   3.7394   3.7476
     3.8811   3.8829   4.0075   4.0202

     the Fermi energy is     2.7186 ev

!    total energy              =   -2975.25035222 Ry
     estimated scf accuracy    <       0.00000005 Ry
     smearing contrib. (-TS)   =      -0.00754976 Ry
     internal energy E=F+TS    =   -2975.24280246 Ry

     The total energy is F=E-TS. E is the sum of the following terms:
     one-electron contribution =  -23774.02545521 Ry
     hartree contribution      =   11982.65057948 Ry
     xc contribution           =    -494.81332841 Ry
     ewald contribution        =    9310.94485515 Ry
     electric field correction =       0.00054654 Ry

     convergence has been achieved in  71 iterations

     Forces acting on atoms (cartesian axes, Ry/au):

     atom    1 type  1   force =     0.00001937   -0.00035175    0.11622132
     atom    2 type  1   force =    -0.00014383    0.00031772   -0.16021364
     atom    3 type  2   force =     0.00004579    0.00032721   -0.05317395
     atom    4 type  2   force =     0.00007134   -0.00041538    0.02650896
     atom    5 type  2   force =    -0.00501478   -0.00225859   -0.01002183
     atom    6 type  2   force =     0.00669808   -0.00183180   -0.01075421
     atom    7 type  1   force =    -0.00038646   -0.00640047    0.04568510
     atom    8 type  1   force =     0.00057071    0.01079541    0.08182624
     atom    9 type  2   force =    -0.00001722    0.00036390   -0.00014829
     atom   10 type  2   force =    -0.00140019    0.00155052   -0.05455830
     atom   11 type  2   force =     0.00074986    0.00029152   -0.00023788
     atom   12 type  2   force =    -0.00116889    0.00021713    0.00018203
     atom   13 type  1   force =    -0.00022270   -0.00093033    0.00039050
     atom   14 type  1   force =     0.00047012    0.00125737   -0.00028307
     atom   15 type  2   force =     0.00000672   -0.00053858    0.00039073
     atom   16 type  2   force =    -0.00030324    0.00059625    0.00095999
     atom   17 type  2   force =    -0.00074901   -0.00045172    0.00020082
     atom   18 type  2   force =     0.00073995   -0.00020251    0.00022705
     atom   19 type  1   force =    -0.00059266   -0.00056289   -0.00046030
     atom   20 type  1   force =     0.00038100   -0.00033770   -0.00026970
     atom   21 type  2   force =     0.00007595    0.00015152    0.09915653
     atom   22 type  2   force =     0.00029431   -0.00042609    0.00081257
     atom   23 type  2   force =    -0.07949466   -0.00002160   -0.03161895
     atom   24 type  2   force =     0.07941471    0.00040808   -0.03165372
     atom   25 type  1   force =     0.00017599   -0.00036576    0.11647723
     atom   26 type  1   force =    -0.00009198   -0.00142117   -0.16035095
     atom   27 type  2   force =     0.00013501   -0.00011810   -0.05155874
     atom   28 type  2   force =     0.00003098    0.00129573    0.02170090
     atom   29 type  2   force =    -0.00383064    0.00422528   -0.01242224
     atom   30 type  2   force =     0.00541472    0.00483729   -0.01301518
     atom   31 type  1   force =    -0.00015227    0.00313837    0.03065679
     atom   32 type  1   force =     0.00051512   -0.01302351    0.08269396
     atom   33 type  2   force =     0.00017903   -0.00051933    0.00024885
     atom   34 type  2   force =    -0.00049692    0.00168163   -0.06791310
     atom   35 type  2   force =    -0.00042921   -0.00064614   -0.00010298
     atom   36 type  2   force =     0.00005386   -0.00002741   -0.00002270
     atom   37 type  1   force =    -0.00012554   -0.00121450   -0.00016380
     atom   38 type  1   force =     0.00047746   -0.00033405    0.00014053
     atom   39 type  2   force =     0.00015838    0.00033908   -0.00004259
     atom   40 type  2   force =    -0.00012910   -0.00024288    0.00022283
     atom   41 type  2   force =     0.00112216   -0.00003144    0.00020835
     atom   42 type  2   force =    -0.00103861   -0.00037650    0.00024475
     atom   43 type  1   force =     0.00010411   -0.00078357   -0.00001884
     atom   44 type  1   force =     0.00042298    0.00059902   -0.00043205
     atom   45 type  2   force =     0.00007447   -0.00002837    0.09898683
     atom   46 type  2   force =    -0.07950892   -0.00001491   -0.03163385
     atom   47 type  2   force =     0.07944730    0.00043012   -0.03165576
     atom   48 type  3   force =    -0.00177745    0.00061073   -0.00140737
     atom   49 type  3   force =    -0.00104189    0.00007243   -0.00033663
     atom   50 type  4   force =    -0.00452308    0.00138457   -0.00419060
     atom   51 type  5   force =    -0.00059917    0.00011289    0.00014294
     atom   52 type  5   force =     0.00462414   -0.00103484    0.00498787
     atom   53 type  5   force =     0.00037701    0.00023985   -0.00067174
     atom   54 type  5   force =    -0.00011352   -0.00164603    0.00013416
     atom   55 type  5   force =    -0.00049462    0.00011885    0.00031631
     atom   56 type  2   force =     0.00113592   -0.00024084    0.00006746
     atom   57 type  5   force =    -0.00013999    0.00143630   -0.00045866

     Total force =     0.399164     Total SCF correction =     0.000681
  @ DRIVER MODE: Message from server: STATUS
  @ DRIVER MODE: Message from server: GETFORCE
  @ DRIVER MODE: Returning v,forces,stress,ensemble

     Writing output data file ./calc.save/
  @ DRIVER MODE: Message from server: EXIT
  @ DRIVE MODE: Exiting

     General routines

     Parallel routines

   This run was terminated on:  10:11:14  23Sep2021

   JOB DONE.