     Program PWSCF v.6.7GPU starts on 16Jul2021 at  8:33:49

     R & G space division:  proc/nbgrp/npool/nimage =      16
     Reading input from /storage/home/hcoda1/3/ntian30/research/carbon/15Jul_vib/ads_slab/CH3N2H_a/out_0022/pw.inp
Warning: card &CELL ignored
Warning: card   CELL_DYNAMICS='IPI', ignored
Warning: card / ignored

     Current dimensions of program PWSCF are:
     Max number of different atomic species (ntypx) = 10
     Max number of k-points (npk) =  40000
     Max angular momentum in pseudopotentials (lmaxx) =  3
     Presently no symmetry can be used with electric field

     Message from routine cell_base_init:
     DEPRECATED: use true lattice parameter, not A to a.u. conversion factor

     IMPORTANT: XC functional enforced from input :
     Exchange-correlation= BEEF-VDW
                           (   1   4  43  14   2   0   0)
     Any further DFT definition will be discarded
     Please, verify this is what you really want

  @ DRIVER MODE: Connecting to
 qe_1139763_2351646.sched-torque.pace.gatech.edu7qxv907y_scratch
  using UNIX socket
  @ DRIVER MODE: Message from server: STATUS
  @ DRIVER MODE: Message from server: INIT
  @ DRIVER MODE: Receiving replica           0          -1
  @ DRIVER MODE: Receiving encoded integer          25
  @ DRIVER MODE:  SCF:  T  FORCE:  T  STRESS:  F  VC:  F  ENSEMBLE:  F
  @ DRIVER MODE:  SCF:  T  FORCE:  T  STRESS:  F  VC:  F  ENSEMBLE:  F

     Using Slab Decomposition

     bravais-lattice index     =            0
     lattice parameter (alat)  =       1.8897  a.u.
     unit-cell volume          =    6658.9804 (a.u.)^3
     number of atoms/cell      =           54
     number of atomic types    =            5
     number of electrons       =       396.00
     number of Kohn-Sham states=          208
     kinetic-energy cutoff     =      29.3995  Ry
     charge density cutoff     =     293.9946  Ry
     scf convergence threshold =      7.3E-08
     mixing beta               =       0.0500
     number of iterations used =            8  plain     mixing
     Exchange-correlation= BEEF-VDW
                           (   1   4  43  14   2   0   0)

     celldm(1)=   1.889726  celldm(2)=   0.000000  celldm(3)=   0.000000
     celldm(4)=   0.000000  celldm(5)=   0.000000  celldm(6)=   0.000000

     crystal axes: (cart. coord. in units of alat)
               a(1) = (   6.579727   0.000000   0.000000 )
               a(2) = (  -0.000775   5.961596   0.000000 )
               a(3) = (   0.000000   0.000000  25.155947 )

     reciprocal axes: (cart. coord. in units 2 pi/alat)
               b(1) = (  0.151982  0.000020  0.000000 )
               b(2) = (  0.000000  0.167740  0.000000 )
               b(3) = (  0.000000  0.000000  0.039752 )

     PseudoPot. # 1 for Ti read from file:
     /storage/coda1/p-amedford6/0/shared/rich_project_chbe-medford/medford-share/data/pseudos_module/espresso/nninc/pbe/van/Ti.UPF
     MD5 check sum: 8e4df49b7f0d34bbd5052bf3f5ea0213
     Pseudo is Ultrasoft, Zval = 12.0
     Generated by new atomic code, or converted to UPF format
     Using radial grid of  851 points,  6 beta functions with:
                l(1) =   0
                l(2) =   0
                l(3) =   1
                l(4) =   1
                l(5) =   2
                l(6) =   2
     Q(r) pseudized with  8 coefficients,  rinner =    1.000   1.000   1.000
                                                       1.000   1.000

     PseudoPot. # 2 for O  read from file:
     /storage/coda1/p-amedford6/0/shared/rich_project_chbe-medford/medford-share/data/pseudos_module/espresso/nninc/pbe/van/O.UPF
     MD5 check sum: 78c19812648e8988a0fe644b0f25305e
     Pseudo is Ultrasoft, Zval =  6.0
     Generated by new atomic code, or converted to UPF format
     Using radial grid of  737 points,  4 beta functions with:
                l(1) =   0
                l(2) =   0
                l(3) =   1
                l(4) =   1
     Q(r) pseudized with  8 coefficients,  rinner =    0.800   0.800   0.800

     PseudoPot. # 3 for N  read from file:
     /storage/coda1/p-amedford6/0/shared/rich_project_chbe-medford/medford-share/data/pseudos_module/espresso/nninc/pbe/van/N.UPF
     MD5 check sum: 90d10febe142ad51ac9d5be1deb811c4
     Pseudo is Ultrasoft, Zval =  5.0
     Generated by new atomic code, or converted to UPF format
     Using radial grid of  729 points,  4 beta functions with:
                l(1) =   0
                l(2) =   0
                l(3) =   1
                l(4) =   1
     Q(r) pseudized with  8 coefficients,  rinner =    0.800   0.800   0.800

     PseudoPot. # 4 for C  read from file:
     /storage/coda1/p-amedford6/0/shared/rich_project_chbe-medford/medford-share/data/pseudos_module/espresso/nninc/pbe/van/C.UPF
     MD5 check sum: 1a69bf6b8db32088f5b2163dbdb77a27
     Pseudo is Ultrasoft, Zval =  4.0
     Generated by new atomic code, or converted to UPF format
     Using radial grid of  721 points,  4 beta functions with:
                l(1) =   0
                l(2) =   0
                l(3) =   1
                l(4) =   1
     Q(r) pseudized with  8 coefficients,  rinner =    0.800   0.800   0.800

     PseudoPot. # 5 for H  read from file:
     /storage/coda1/p-amedford6/0/shared/rich_project_chbe-medford/medford-share/data/pseudos_module/espresso/nninc/pbe/van/H.UPF
     MD5 check sum: b5ee9d7bfd3a09ee7748110bda690ff7
     Pseudo is Ultrasoft, Zval =  1.0
     Generated by new atomic code, or converted to UPF format
     Using radial grid of  615 points,  1 beta functions with:
                l(1) =   0
     Q(r) pseudized with  8 coefficients,  rinner =    0.800

     atomic species   valence    mass     pseudopotential
        Ti1           12.00    47.86700     Ti( 1.00)
        O1             6.00    15.99900     O ( 1.00)
        N1             5.00    14.00700     N ( 1.00)
        C1             4.00    12.01100     C ( 1.00)
        H1             1.00     1.00800     H ( 1.00)

     Starting magnetic structure
     atomic species   magnetization
        Ti1          0.000
        O1           0.000
        N1           0.000
        C1           0.025
        H1           0.000

     No symmetry found

   Cartesian axes

     site n.     atom                  positions (alat units)
         1           Ti1 tau(   1) = (   0.0004258   2.9801865   6.0000000  )
         2           Ti1 tau(   2) = (   3.2906075   1.4906267   6.0002472  )
         3           O1  tau(   3) = (   0.0006271   0.0005054   7.9858123  )
         4           O1  tau(   4) = (   3.2906025   0.0005020   7.3038282  )
         5           O1  tau(   5) = (   4.5942328   1.4918067   9.2879030  )
         6           O1  tau(   6) = (   1.9868534   1.4903216   9.2879459  )
         7           Ti1 tau(   7) = (   3.2907910   2.8959150   9.1758416  )
         8           Ti1 tau(   8) = (   0.0015273   1.4827037   9.2680791  )
         9           O1  tau(   9) = (   3.3106937   0.0084137  11.2927479  )
        10           O1  tau(  10) = (   0.0116148   5.9584955  10.6183126  )
        11           O1  tau(  11) = (   1.3255326   1.5151957  12.5859258  )
        12           O1  tau(  12) = (   5.3246634   1.4871208  12.6441624  )
        13           Ti1 tau(  13) = (   6.5358624   2.9940264  12.7507449  )
        14           Ti1 tau(  14) = (   3.1828407   1.5032771  12.4528579  )
        15           O1  tau(  15) = (   0.1336207   0.0073438  14.6266748  )
        16           O1  tau(  16) = (   3.2550344   0.0288700  13.8306396  )
        17           O1  tau(  17) = (   4.6334483   1.5013943  15.9792279  )
        18           O1  tau(  18) = (   2.1409664   1.5470880  15.9954950  )
        19           Ti1 tau(  19) = (   3.4798582   3.0305884  15.6593850  )
        20           Ti1 tau(  20) = (   0.1386493   1.3724552  15.8613965  )
        21           O1  tau(  21) = (   3.2904802   0.0005063   4.7018136  )
        22           O1  tau(  22) = (   0.1429122   0.0333940  17.1908172  )
        23           O1  tau(  23) = (   1.3043587   1.4918075   6.0039043  )
        24           O1  tau(  24) = (   5.2767064   1.4903225   6.0039473  )
        25           Ti1 tau(  25) = (   0.0000382   5.9609847   6.0000000  )
        26           Ti1 tau(  26) = (   3.2902200   4.4714249   6.0002472  )
        27           O1  tau(  27) = (   0.0002396   2.9813036   7.9858123  )
        28           O1  tau(  28) = (   3.2902150   2.9813002   7.3038282  )
        29           O1  tau(  29) = (   4.5938453   4.4726049   9.2879030  )
        30           O1  tau(  30) = (   1.9864658   4.4711199   9.2879459  )
        31           Ti1 tau(  31) = (   3.2891106   5.8743827   9.1763621  )
        32           Ti1 tau(  32) = (   0.0006254   4.4649316   9.2693709  )
        33           O1  tau(  33) = (   3.3137399   2.9960163  11.2943833  )
        34           O1  tau(  34) = (   0.0092240   2.9805883  10.6323155  )
        35           O1  tau(  35) = (   1.3234708   4.4688006  12.5930975  )
        36           O1  tau(  36) = (   5.3222282   4.4932535  12.6449723  )
        37           Ti1 tau(  37) = (   6.5041614   0.0053836  12.5833808  )
        38           Ti1 tau(  38) = (   3.1843229   4.4812189  12.4522442  )
        39           O1  tau(  39) = (   0.0584892   2.9792810  14.6723703  )
        40           O1  tau(  40) = (   3.3232524   2.9928384  13.8523860  )
        41           O1  tau(  41) = (   4.6237859   4.5837569  15.7472905  )
        42           O1  tau(  42) = (   2.1882403   4.4693611  16.1038286  )
        43           Ti1 tau(  43) = (   3.3015484   0.0242660  15.6383815  )
        44           Ti1 tau(  44) = (   0.0181797   4.4930750  16.1931172  )
        45           O1  tau(  45) = (   3.2900926   2.9813045   4.7018136  )
        46           O1  tau(  46) = (   1.3039711   4.4726057   6.0039043  )
        47           O1  tau(  47) = (   5.2763189   4.4711207   6.0039473  )
        48           N1  tau(  48) = (   0.2677213   2.8760844  17.5655548  )
        49           C1  tau(  49) = (   1.2271684   2.7639891  18.6598760  )
        50           H1  tau(  50) = (   1.2930054   3.7106696  19.2072709  )
        51           H1  tau(  51) = (   0.8976878   1.9830418  19.3402421  )
        52           H1  tau(  52) = (   2.2102292   2.4972526  18.2850250  )
        53           N1  tau(  53) = (   5.6732178   3.4927010  17.8452151  )
        54           H1  tau(  54) = (   5.7345573   4.0058295  18.7343860  )

     number of k points=    10  Fermi-Dirac smearing, width (Ry)=  0.0073
                       cart. coord. in units 2pi/alat
        k(    1) = (   0.0000000   0.0000000   0.0000000), wk =   0.0625000
        k(    2) = (   0.0000000   0.0419351   0.0000000), wk =   0.1250000
        k(    3) = (   0.0000000  -0.0838702   0.0000000), wk =   0.0625000
        k(    4) = (   0.0379955   0.0000049   0.0000000), wk =   0.1250000
        k(    5) = (   0.0379955   0.0419400   0.0000000), wk =   0.1250000
        k(    6) = (   0.0379955  -0.0838652   0.0000000), wk =   0.1250000
        k(    7) = (   0.0379955  -0.0419301   0.0000000), wk =   0.1250000
[...]
     %                                                                      %
     % You are using vdW-DF, which was implemented by the Thonhauser group. %
     % Please cite the following two papers that made this development      %
     % possible and the two reviews that describe the various versions:     %
     %                                                                      %
     %   T. Thonhauser et al., PRL 115, 136402 (2015).                      %
     %   T. Thonhauser et al., PRB 76, 125112 (2007).                       %
     %   K. Berland et al., Rep. Prog. Phys. 78, 066501 (2015).             %
     %   D.C. Langreth et al., J. Phys.: Condens. Matter 21, 084203 (2009). %
     %                                                                      %
     %                                                                      %
     % If you are calculating the stress with vdW-DF, please also cite:     %
     %                                                                      %
     %   R. Sabatini et al., J. Phys.: Condens. Matter 24, 424209 (2012).   %
     %                                                                      %
     %%%%%%%%%%%%%%%%%%%%%%%%%%%%%%%%%%%%%%%%%%%%%%%%%%%%%%%%%%%%%%%%%%%%%%%%

     Adding external electric field

     Computed dipole along edir(3) :
        Dipole               -8.2222 Ry au,        -20.8988 Debye
        Dipole field         -0.0155 Ry au,

        Potential amp.        1.4384 Ry
        Total length         46.3494 bohr

[...]

     Starting wfcs are  300 atomic wfcs
  @ DRIVER MODE: Message from server: STATUS
  @ DRIVER MODE: Message from server: POSDATA
  @ DRIVER MODE: Reading and sharing cell
  @ DRIVER MODE: Reading and sharing positions
  @ DRIVER MODE: Received positions

     Self-consistent Calculation

     iteration #  1     ecut=    29.40 Ry     beta= 0.05
     Davidson diagonalization with overlap
     c_bands:  1 eigenvalues not converged
     c_bands:  1 eigenvalues not converged
     c_bands:  1 eigenvalues not converged
     c_bands:  1 eigenvalues not converged
     c_bands:  4 eigenvalues not converged
     c_bands:  1 eigenvalues not converged
     c_bands:  4 eigenvalues not converged
     c_bands:  2 eigenvalues not converged
     c_bands:  1 eigenvalues not converged
     c_bands:  1 eigenvalues not converged
     c_bands:  1 eigenvalues not converged
     c_bands:  1 eigenvalues not converged
     c_bands:  1 eigenvalues not converged
     c_bands:  1 eigenvalues not converged
     c_bands:  4 eigenvalues not converged
     c_bands:  1 eigenvalues not converged
     c_bands:  4 eigenvalues not converged
     c_bands:  2 eigenvalues not converged
     c_bands:  1 eigenvalues not converged
     c_bands:  1 eigenvalues not converged
     ethr =  1.00E-05,  avg # of iterations = 20.0

[...]

     total energy              =   -2607.57760497 Ry
     estimated scf accuracy    <    3675.27201036 Ry

     total magnetization       =     0.00 Bohr mag/cell
     absolute magnetization    =     0.03 Bohr mag/cell

[...]

     iteration #  3     ecut=    29.40 Ry     beta= 0.05
     Davidson diagonalization with overlap
     ethr =  1.00E-02,  avg # of iterations = 14.1

[...]

     iteration #136     ecut=    29.40 Ry     beta= 0.05
     Davidson diagonalization with overlap
     c_bands:  2 eigenvalues not converged
     c_bands:  2 eigenvalues not converged
     ethr =  3.55E-11,  avg # of iterations = 15.1

[...]

     total energy              =   -2940.35268680 Ry
     estimated scf accuracy    <       0.00000012 Ry

[...]

     iteration #143     ecut=    29.40 Ry     beta= 0.05
     Davidson diagonalization with overlap
     ethr =  1.90E-11,  avg # of iterations = 10.5

     negative rho (up, down):  8.762E-03 8.763E-03

[...]

     Adding external electric field

     Computed dipole along edir(3) :
        Dipole                0.7401 Ry au,          1.8812 Debye
        Dipole field          0.0014 Ry au,

        Potential amp.       -0.1295 Ry
        Total length         46.3494 bohr

     Magnetic moment per site  (integrated on atomic sphere of radius R)
     atom   1 (R=0.746)  charge=  8.1023  magn=  0.0081
     atom   2 (R=0.746)  charge=  8.0881  magn=  0.0004
     atom   3 (R=0.746)  charge=  5.0689  magn= -0.0006
     atom   4 (R=0.746)  charge=  5.1050  magn= -0.0001
     atom   5 (R=0.746)  charge=  5.0706  magn= -0.0001
     atom   6 (R=0.746)  charge=  5.0718  magn= -0.0001
     atom   7 (R=0.746)  charge=  8.0835  magn=  0.0002
     atom   8 (R=0.746)  charge=  8.0700  magn=  0.0014
     atom   9 (R=0.746)  charge=  5.0893  magn= -0.0000
     atom  10 (R=0.746)  charge=  5.0576  magn= -0.0002
     atom  11 (R=0.746)  charge=  5.0764  magn= -0.0001
     atom  12 (R=0.746)  charge=  5.0717  magn= -0.0001
     atom  13 (R=0.746)  charge=  8.0706  magn=  0.0002
     atom  14 (R=0.746)  charge=  8.0890  magn=  0.0001
     atom  15 (R=0.746)  charge=  5.0553  magn= -0.0000
     atom  16 (R=0.746)  charge=  5.0986  magn= -0.0000
     atom  17 (R=0.746)  charge=  5.0495  magn=  0.0000
     atom  18 (R=0.746)  charge=  5.0673  magn= -0.0000
     atom  19 (R=0.746)  charge=  8.1078  magn=  0.0000
     atom  20 (R=0.746)  charge=  8.0960  magn=  0.0000
     atom  21 (R=0.746)  charge=  4.9490  magn= -0.0004
     atom  22 (R=0.746)  charge=  5.0409  magn= -0.0001
     atom  23 (R=0.746)  charge=  5.0611  magn= -0.0010
     atom  24 (R=0.746)  charge=  5.0612  magn= -0.0010
     atom  25 (R=0.746)  charge=  8.1022  magn=  0.0081
     atom  26 (R=0.746)  charge=  8.0882  magn=  0.0004
     atom  27 (R=0.746)  charge=  5.0670  magn= -0.0006
     atom  28 (R=0.746)  charge=  5.1051  magn= -0.0001
     atom  29 (R=0.746)  charge=  5.0714  magn= -0.0001
     atom  30 (R=0.746)  charge=  5.0726  magn= -0.0001
     atom  31 (R=0.746)  charge=  8.0843  magn=  0.0002
     atom  32 (R=0.746)  charge=  8.0704  magn=  0.0013
     atom  33 (R=0.746)  charge=  5.0889  magn= -0.0000
     atom  34 (R=0.746)  charge=  5.0200  magn= -0.0002
     atom  35 (R=0.746)  charge=  5.0760  magn= -0.0000
     atom  36 (R=0.746)  charge=  5.0724  magn= -0.0001
     atom  37 (R=0.746)  charge=  8.0776  magn=  0.0002
     atom  38 (R=0.746)  charge=  8.0890  magn=  0.0001
     atom  39 (R=0.746)  charge=  5.0527  magn= -0.0000
     atom  40 (R=0.746)  charge=  5.0891  magn= -0.0000
     atom  41 (R=0.746)  charge=  5.0851  magn= -0.0000
     atom  42 (R=0.746)  charge=  5.0438  magn= -0.0000
     atom  43 (R=0.746)  charge=  8.1144  magn=  0.0000
     atom  44 (R=0.746)  charge=  8.1352  magn=  0.0000
     atom  45 (R=0.746)  charge=  4.9491  magn= -0.0004
     atom  46 (R=0.746)  charge=  5.0611  magn= -0.0010
     atom  47 (R=0.746)  charge=  5.0612  magn= -0.0010
     atom  48 (R=0.424)  charge=  1.3499  magn=  0.0000
     atom  49 (R=0.448)  charge=  0.8435  magn= -0.0000
     atom  50 (R=0.424)  charge=  0.4507  magn=  0.0000
     atom  51 (R=0.424)  charge=  0.4537  magn=  0.0000
     atom  52 (R=0.424)  charge=  0.4558  magn=  0.0000
     atom  53 (R=0.424)  charge=  1.3504  magn=  0.0000
     atom  54 (R=0.424)  charge=  0.4593  magn= -0.0000

     End of self-consistent calculation

 ------ SPIN UP ------------

          k = 0.0000 0.0000 0.0000 ( 18029 PWs)   bands (ev):

   -56.0290 -55.9950 -55.8030 -55.7641 -55.7249 -55.6904 -55.6625 -55.6379
   -55.6283 -55.6032 -55.5745 -55.4948 -55.2400 -54.9181 -54.8841 -54.7876
   -32.4911 -32.3450 -32.3238 -32.2999 -32.1923 -32.1853 -32.1650 -32.1273
   -32.1140 -32.0977 -32.0915 -32.0439 -32.0203 -31.9806 -31.9749 -31.9718
   -31.9412 -31.9296 -31.9187 -31.8958 -31.8858 -31.8679 -31.8634 -31.8578
   -31.8381 -31.8363 -31.8282 -31.8238 -31.8191 -31.8005 -31.7930 -31.7920
   -31.7749 -31.7505 -31.6910 -31.6638 -31.6154 -31.4665 -31.4633 -31.3212
   -31.2423 -31.2193 -31.2050 -31.1386 -31.0526 -30.9919 -30.9412 -30.9118
   -17.3089 -16.5576 -16.3664 -16.0765 -15.9259 -15.9066 -15.7871 -15.6897
   -15.6117 -15.5116 -15.4596 -15.4046 -15.3919 -15.3674 -15.3088 -15.2865
   -15.2454 -15.2277 -15.1853 -15.1746 -15.1290 -15.1056 -15.0840 -15.0503
   -14.9850 -14.9147 -14.9019 -14.7460 -14.6061 -14.4536 -13.4181 -13.3033
   -11.5577  -8.3448  -5.0203  -4.0213  -3.9443  -3.8746  -3.8394  -3.7727
    -3.6914  -3.4413  -3.4186  -3.3570  -3.0692  -3.0219  -2.9979  -2.9934
    -2.8955  -2.7563  -2.7251  -2.6654  -2.6596  -2.6386  -2.6194  -2.6021
    -2.5450  -2.4903  -2.4731  -2.4310  -2.2969  -2.2703  -2.2662  -2.2441
    -2.1745  -2.1648  -2.1005  -2.0827  -2.0603  -2.0415  -2.0049  -1.8717
    -1.8383  -1.7739  -1.6918  -1.6029  -1.5228  -1.4871  -1.3992  -1.3851
    -1.3413  -1.2594  -1.2553  -1.1770  -1.1443  -1.0687  -1.0434  -1.0055
    -0.8968  -0.8696  -0.8119  -0.7539  -0.7086  -0.6960  -0.6544  -0.6301
    -0.6245  -0.6098  -0.5971  -0.4031  -0.3721  -0.2298  -0.1840  -0.1596
    -0.1188  -0.0959  -0.0376  -0.0141  -0.0089   0.0315   0.0493   0.0917
     0.1477   0.1623   0.1884   0.2819   0.3142   0.3690   0.4953   0.5092
     0.5969   0.6640   0.7701   0.7830   0.8343   0.9654   1.0617   1.0832
     1.1050   1.3104   1.4149   1.6694   1.7115   3.0264   3.1675   3.2572
     3.3744   3.4958   3.5714   3.6051   3.7847   3.8222   3.8629   3.9192

[...]

          k =-0.0760-0.0000 0.0000 ( 17886 PWs)   bands (ev):

[...]

 ------ SPIN DOWN ----------

[...]

          k = 0.0380-0.0419 0.0000 ( 17876 PWs)   bands (ev):

[...]

          k =-0.0760-0.0839 0.0000 ( 17948 PWs)   bands (ev):

   -55.9976 -55.9956 -55.7907 -55.7759 -55.7084 -55.7010 -55.6465 -55.6433
   -55.6241 -55.6161 -55.5706 -55.4986 -55.2394 -54.9002 -54.9001 -54.7880
   -32.3007 -32.2997 -32.2926 -32.2908 -32.1524 -32.1402 -32.1187 -32.1167
   -32.0487 -32.0360 -32.0258 -32.0205 -32.0141 -32.0117 -31.9685 -31.9630
   -31.9542 -31.9421 -31.9117 -31.8998 -31.8876 -31.8833 -31.8795 -31.8778
   -31.8742 -31.8700 -31.8536 -31.8482 -31.8426 -31.8386 -31.8336 -31.8151
   -31.7961 -31.7928 -31.7635 -31.7049 -31.6057 -31.4689 -31.4628 -31.2549
   -31.2311 -31.2310 -31.1339 -31.1338 -31.0948 -31.0948 -31.0038 -30.9157
   -17.2897 -15.9749 -15.9465 -15.8395 -15.8201 -15.7313 -15.7181 -15.6035
   -15.5957 -15.5827 -15.5164 -15.4710 -15.4604 -15.3777 -15.3509 -15.3395
   -15.3150 -15.3052 -15.2987 -15.2878 -15.2754 -15.1955 -15.1903 -15.1881
   -15.1129 -15.0902 -14.9041 -14.8608 -14.6630 -14.6173 -13.4067 -13.4063
   -11.5612  -8.3249  -5.0267  -3.9244  -3.8322  -3.2770  -3.2409  -3.0250
    -2.9992  -2.9788  -2.9493  -2.7647  -2.7508  -2.7444  -2.7271  -2.7143
    -2.6771  -2.6581  -2.6455  -2.5794  -2.5698  -2.5491  -2.5442  -2.5343
    -2.5155  -2.5003  -2.4925  -2.4729  -2.4584  -2.4141  -2.3595  -2.3367
    -2.2869  -2.1924  -2.0893  -2.0420  -2.0281  -2.0201  -1.9970  -1.9879
    -1.9474  -1.9348  -1.8489  -1.6648  -1.6171  -1.5558  -1.5498  -1.5422
    -1.4842  -1.4271  -1.3877  -1.3103  -1.2434  -1.1906  -1.1616  -1.1377
    -1.1023  -1.0359  -0.9700  -0.9504  -0.9377  -0.9088  -0.9054  -0.8874
    -0.8088  -0.7256  -0.6848  -0.6542  -0.6314  -0.6178  -0.6021  -0.5791
    -0.4727  -0.4039  -0.3561  -0.3109  -0.2691  -0.2263  -0.1078  -0.0928
     0.1018   0.1677   0.1929   0.2715   0.3683   0.3934   0.4037   0.4687
     0.5439   0.6066   0.6413   0.6959   0.7111   0.7324   0.7993   1.0145
     1.0699   1.4786   1.4802   1.5291   1.5301   2.9905   3.6747   3.6842
     3.6873   3.6984   3.7166   3.7389   3.7927   3.8263   3.9282   3.9488

     the Fermi energy is     3.1366 ev

!    total energy              =   -2940.35268695 Ry
     estimated scf accuracy    <       0.00000007 Ry
     smearing contrib. (-TS)   =      -0.01868193 Ry
     internal energy E=F+TS    =   -2940.33400502 Ry

     The total energy is F=E-TS. E is the sum of the following terms:
     one-electron contribution =  -24661.76537291 Ry
     hartree contribution      =   12420.02917606 Ry
     xc contribution           =    -486.05616988 Ry
     ewald contribution        =    9787.45732796 Ry
     electric field correction =       0.00103376 Ry

     total magnetization       =     0.02 Bohr mag/cell
     absolute magnetization    =     0.04 Bohr mag/cell

     convergence has been achieved in 143 iterations

     Forces acting on atoms (cartesian axes, Ry/au):

     atom    1 type  1   force =     0.00023561   -0.00036460    0.10151827
     atom    2 type  1   force =     0.00001227   -0.00086141   -0.17141110
     atom    3 type  2   force =     0.00029150    0.00021822   -0.03324413
     atom    4 type  2   force =     0.00003256   -0.00078773    0.04483724
     atom    5 type  2   force =    -0.01195003   -0.00021361   -0.00232037
     atom    6 type  2   force =     0.01438321    0.00038030   -0.00111996
     atom    7 type  1   force =     0.00140353   -0.00131335   -0.00430146
     atom    8 type  1   force =    -0.00077143    0.02219629    0.05619441
     atom    9 type  2   force =     0.00002821   -0.00032692    0.00046605
     atom   10 type  2   force =    -0.00266501    0.00207151   -0.02593026
     atom   11 type  2   force =     0.00004010    0.00024637   -0.00005807
     atom   12 type  2   force =     0.00008244    0.00073566    0.00001789
     atom   13 type  1   force =    -0.00003946    0.00014528    0.00023739
     atom   14 type  1   force =     0.00029093    0.00030186   -0.00000472
     atom   15 type  2   force =     0.00019621   -0.00022546   -0.00000235
     atom   16 type  2   force =    -0.00002399   -0.00013477    0.00077409
     atom   17 type  2   force =    -0.00011158   -0.00078075    0.00001968
     atom   18 type  2   force =     0.00051348   -0.00070858    0.00028281
     atom   19 type  1   force =    -0.00011477   -0.00048658    0.00017416
     atom   20 type  1   force =     0.00000222    0.00012034   -0.00018467
     atom   21 type  2   force =     0.00006411   -0.00001031    0.10210452
     atom   22 type  2   force =    -0.00000536   -0.00029433    0.00034152
     atom   23 type  2   force =    -0.07329100   -0.00015765   -0.02887489
     atom   24 type  2   force =     0.07324242    0.00033637   -0.02892205
     atom   25 type  1   force =    -0.00026890   -0.00029692    0.10195030
     atom   26 type  1   force =     0.00003234   -0.00020462   -0.17140748
     atom   27 type  2   force =     0.00036483   -0.00023031   -0.03196109
     atom   28 type  2   force =     0.00009282   -0.00057549    0.04545439
     atom   29 type  2   force =    -0.01209688    0.00212939   -0.00287651
     atom   30 type  2   force =     0.01440906    0.00229060   -0.00161788
     atom   31 type  1   force =     0.00158652    0.00092841   -0.00560740
     atom   32 type  1   force =    -0.00059647   -0.02475885    0.05722510
     atom   33 type  2   force =     0.00015162    0.00035969    0.00062669
     atom   34 type  2   force =    -0.00420719    0.00211942   -0.04831154
     atom   35 type  2   force =     0.00063008   -0.00058427    0.00001143
     atom   36 type  2   force =    -0.00041051   -0.00074756    0.00013755
     atom   37 type  1   force =     0.00005767    0.00061835   -0.00004009
     atom   38 type  1   force =     0.00004539   -0.00011626   -0.00013718
     atom   39 type  2   force =     0.00018543   -0.00002757   -0.00067434
     atom   40 type  2   force =    -0.00008277   -0.00003305   -0.00033280
     atom   41 type  2   force =     0.00005951    0.00048017   -0.00007276
     atom   42 type  2   force =     0.00002001    0.00036016    0.00069736
     atom   43 type  1   force =    -0.00024599   -0.00011231    0.00014257
     atom   44 type  1   force =     0.00001601    0.00009345    0.00024890
     atom   45 type  2   force =     0.00004665   -0.00004899    0.10216601
     atom   46 type  2   force =    -0.07329781   -0.00009483   -0.02884409
     atom   47 type  2   force =     0.07325094    0.00027928   -0.02888262
     atom   48 type  3   force =    -0.00054153    0.00061346    0.00038769
     atom   49 type  4   force =     0.00197483    0.00618643   -0.00419947
     atom   50 type  5   force =     0.00031121    0.00051152   -0.00072419
     atom   51 type  5   force =    -0.00292827   -0.00762046    0.00523960
     atom   52 type  5   force =    -0.00030620   -0.00068082    0.00038966
     atom   53 type  3   force =    -0.00007958   -0.00056633    0.00082256
     atom   54 type  5   force =    -0.00001899   -0.00035788   -0.00040430

     Total force =     0.377988     Total SCF correction =     0.000479
  @ DRIVER MODE: Message from server: STATUS
  @ DRIVER MODE: Message from server: GETFORCE
  @ DRIVER MODE: Returning v,forces,stress,ensemble

     Writing output data file ./calc.save/
  @ DRIVER MODE: Message from server: EXIT
  @ DRIVE MODE: Exiting

     General routines

     Parallel routines

   This run was terminated on:   9:29:59  16Jul2021

   JOB DONE.