     Program PWSCF v.6.7GPU starts on  2Aug2021 at 14:13:58

     R & G space division:  proc/nbgrp/npool/nimage =      16
     Reading input from /storage/home/hcoda1/3/ntian30/research/carbon/02Aug_vib_paired/ads_slab/CH3N2_b/out_0006/pw.inp
Warning: card &CELL ignored
Warning: card   CELL_DYNAMICS='IPI', ignored
Warning: card / ignored

     Current dimensions of program PWSCF are:
     Max number of different atomic species (ntypx) = 10
     Max number of k-points (npk) =  40000
     Max angular momentum in pseudopotentials (lmaxx) =  3
     Presently no symmetry can be used with electric field

     Message from routine cell_base_init:
     DEPRECATED: use true lattice parameter, not A to a.u. conversion factor

     IMPORTANT: XC functional enforced from input :
     Exchange-correlation= BEEF-VDW
                           (   1   4  43  14   2   0   0)
     Any further DFT definition will be discarded
     Please, verify this is what you really want

  @ DRIVER MODE: Connecting to
 qe_1139763_2482536.sched-torque.pace.gatech.edu7lsgg0ca_scratch
  using UNIX socket
  @ DRIVER MODE: Message from server: STATUS
  @ DRIVER MODE: Message from server: INIT
  @ DRIVER MODE: Receiving replica           0          -1
  @ DRIVER MODE: Receiving encoded integer          25
  @ DRIVER MODE:  SCF:  T  FORCE:  T  STRESS:  F  VC:  F  ENSEMBLE:  F
  @ DRIVER MODE:  SCF:  T  FORCE:  T  STRESS:  F  VC:  F  ENSEMBLE:  F

     Using Slab Decomposition

     bravais-lattice index     =            0
     lattice parameter (alat)  =       1.8897  a.u.
     unit-cell volume          =    6658.9804 (a.u.)^3
     number of atoms/cell      =           53
     number of atomic types    =            5
     number of electrons       =       395.00
     number of Kohn-Sham states=          207
     kinetic-energy cutoff     =      29.3995  Ry
     charge density cutoff     =     293.9946  Ry
     scf convergence threshold =      7.3E-08
     mixing beta               =       0.0500
     number of iterations used =            8  plain     mixing
     Exchange-correlation= BEEF-VDW
                           (   1   4  43  14   2   0   0)

     celldm(1)=   1.889726  celldm(2)=   0.000000  celldm(3)=   0.000000
     celldm(4)=   0.000000  celldm(5)=   0.000000  celldm(6)=   0.000000

     crystal axes: (cart. coord. in units of alat)
               a(1) = (   6.579727   0.000000   0.000000 )
               a(2) = (  -0.000775   5.961596   0.000000 )
               a(3) = (   0.000000   0.000000  25.155947 )

     reciprocal axes: (cart. coord. in units 2 pi/alat)
               b(1) = (  0.151982  0.000020  0.000000 )
               b(2) = (  0.000000  0.167740  0.000000 )
               b(3) = (  0.000000  0.000000  0.039752 )

     PseudoPot. # 1 for Ti read from file:
     /storage/coda1/p-amedford6/0/shared/rich_project_chbe-medford/medford-share/data/pseudos_module/espresso/nninc/pbe/van/Ti.UPF
     MD5 check sum: 8e4df49b7f0d34bbd5052bf3f5ea0213
     Pseudo is Ultrasoft, Zval = 12.0
     Generated by new atomic code, or converted to UPF format
     Using radial grid of  851 points,  6 beta functions with:
                l(1) =   0
                l(2) =   0
                l(3) =   1
                l(4) =   1
                l(5) =   2
                l(6) =   2
     Q(r) pseudized with  8 coefficients,  rinner =    1.000   1.000   1.000
                                                       1.000   1.000

     PseudoPot. # 2 for O  read from file:
     /storage/coda1/p-amedford6/0/shared/rich_project_chbe-medford/medford-share/data/pseudos_module/espresso/nninc/pbe/van/O.UPF
     MD5 check sum: 78c19812648e8988a0fe644b0f25305e
     Pseudo is Ultrasoft, Zval =  6.0
     Generated by new atomic code, or converted to UPF format
     Using radial grid of  737 points,  4 beta functions with:
                l(1) =   0
                l(2) =   0
                l(3) =   1
                l(4) =   1
     Q(r) pseudized with  8 coefficients,  rinner =    0.800   0.800   0.800

     PseudoPot. # 3 for N  read from file:
     /storage/coda1/p-amedford6/0/shared/rich_project_chbe-medford/medford-share/data/pseudos_module/espresso/nninc/pbe/van/N.UPF
     MD5 check sum: 90d10febe142ad51ac9d5be1deb811c4
     Pseudo is Ultrasoft, Zval =  5.0
     Generated by new atomic code, or converted to UPF format
     Using radial grid of  729 points,  4 beta functions with:
                l(1) =   0
                l(2) =   0
                l(3) =   1
                l(4) =   1
     Q(r) pseudized with  8 coefficients,  rinner =    0.800   0.800   0.800

     PseudoPot. # 4 for C  read from file:
     /storage/coda1/p-amedford6/0/shared/rich_project_chbe-medford/medford-share/data/pseudos_module/espresso/nninc/pbe/van/C.UPF
     MD5 check sum: 1a69bf6b8db32088f5b2163dbdb77a27
     Pseudo is Ultrasoft, Zval =  4.0
     Generated by new atomic code, or converted to UPF format
     Using radial grid of  721 points,  4 beta functions with:
                l(1) =   0
                l(2) =   0
                l(3) =   1
                l(4) =   1
     Q(r) pseudized with  8 coefficients,  rinner =    0.800   0.800   0.800

     PseudoPot. # 5 for H  read from file:
     /storage/coda1/p-amedford6/0/shared/rich_project_chbe-medford/medford-share/data/pseudos_module/espresso/nninc/pbe/van/H.UPF
     MD5 check sum: b5ee9d7bfd3a09ee7748110bda690ff7
     Pseudo is Ultrasoft, Zval =  1.0
     Generated by new atomic code, or converted to UPF format
     Using radial grid of  615 points,  1 beta functions with:
                l(1) =   0
     Q(r) pseudized with  8 coefficients,  rinner =    0.800

     atomic species   valence    mass     pseudopotential
        Ti1           12.00    47.86700     Ti( 1.00)
        O1             6.00    15.99900     O ( 1.00)
        N1             5.00    14.00700     N ( 1.00)
        C1             4.00    12.01100     C ( 1.00)
        H1             1.00     1.00800     H ( 1.00)

     No symmetry found

   Cartesian axes

     site n.     atom                  positions (alat units)
         1           Ti1 tau(   1) = (   0.0004258   2.9801865   6.0000000  )
         2           Ti1 tau(   2) = (   3.2906075   1.4906267   6.0002472  )
         3           O1  tau(   3) = (   0.0006271   0.0005054   7.9858123  )
         4           O1  tau(   4) = (   3.2906025   0.0005020   7.3038282  )
         5           O1  tau(   5) = (   4.5942328   1.4918067   9.2879030  )
         6           O1  tau(   6) = (   1.9868534   1.4903216   9.2879459  )
         7           Ti1 tau(   7) = (   3.2907910   2.8959150   9.1758416  )
         8           Ti1 tau(   8) = (   0.0015273   1.4827037   9.2680791  )
         9           O1  tau(   9) = (   3.3037365   0.0094216  11.3222111  )
        10           O1  tau(  10) = (   0.0116148   5.9584955  10.6183126  )
        11           O1  tau(  11) = (   1.3152514   1.5075076  12.6320051  )
        12           O1  tau(  12) = (   5.3186361   1.4995162  12.6508707  )
        13           Ti1 tau(  13) = (   6.5540705   2.9956815  12.5884341  )
        14           Ti1 tau(  14) = (   3.2234832   1.4927074  12.4921739  )
        15           O1  tau(  15) = (   0.0610261   5.9052480  14.6017706  )
        16           O1  tau(  16) = (   3.2936532   0.0132264  13.8830087  )
        17           O1  tau(  17) = (   4.5722397   1.5061520  16.0138922  )
        18           O1  tau(  18) = (   2.0767725   1.5295127  16.0808449  )
        19           Ti1 tau(  19) = (   3.3650854   3.0251465  15.6907462  )
        20           Ti1 tau(  20) = (   0.0387768   1.3037779  15.7216176  )
        21           O1  tau(  21) = (   3.2904802   0.0005063   4.7018136  )
        22           O1  tau(  22) = (   0.0189486   0.1070799  17.1824039  )
        23           O1  tau(  23) = (   1.3043587   1.4918075   6.0039043  )
        24           O1  tau(  24) = (   5.2767064   1.4903225   6.0039473  )
        25           Ti1 tau(  25) = (   0.0000382   5.9609847   6.0000000  )
        26           Ti1 tau(  26) = (   3.2902200   4.4714249   6.0002472  )
        27           O1  tau(  27) = (   0.0002396   2.9813036   7.9858123  )
        28           O1  tau(  28) = (   3.2902150   2.9813002   7.3038282  )
        29           O1  tau(  29) = (   4.5938453   4.4726049   9.2879030  )
        30           O1  tau(  30) = (   1.9864658   4.4711199   9.2879459  )
        31           Ti1 tau(  31) = (   3.2891106   5.8743827   9.1763621  )
        32           Ti1 tau(  32) = (   0.0006254   4.4649316   9.2693709  )
        33           O1  tau(  33) = (   3.3043114   2.9829305  11.3227053  )
        34           O1  tau(  34) = (   0.0092240   2.9805883  10.6323155  )
        35           O1  tau(  35) = (   1.3131995   4.4620516  12.6081187  )
        36           O1  tau(  36) = (   5.3117129   4.4692194  12.6284301  )
        37           Ti1 tau(  37) = (   6.5303063   5.9583428  12.5400172  )
        38           Ti1 tau(  38) = (   3.2255477   4.4746212  12.4748647  )
        39           O1  tau(  39) = (   0.0377805   3.0059521  14.8845374  )
        40           O1  tau(  40) = (   3.3120027   2.9986483  13.8863452  )
        41           O1  tau(  41) = (   4.5434534   4.5277214  16.0148975  )
        42           O1  tau(  42) = (   2.1165747   4.4940517  16.0783766  )
        43           Ti1 tau(  43) = (   3.3042555   0.0241951  15.7004812  )
        44           Ti1 tau(  44) = (   0.0495666   4.4505358  16.3362958  )
        45           O1  tau(  45) = (   3.2900926   2.9813045   4.7018136  )
        46           O1  tau(  46) = (   1.3039711   4.4726057   6.0039043  )
        47           O1  tau(  47) = (   5.2763189   4.4711207   6.0039473  )
        48           N1  tau(  48) = (   0.5348212   3.4288502  18.0789430  )
        49           C1  tau(  49) = (   1.3556880   3.0079929  19.2215664  )
        50           H1  tau(  50) = (   1.4862090   3.8900195  19.8496782  )
        51           H1  tau(  51) = (   0.8469181   2.2141957  19.7647163  )
        52           H1  tau(  52) = (   2.3296892   2.6851793  18.8624704  )
        53           N1  tau(  53) = (   5.9145885   3.2636146  17.9655992  )

     number of k points=    10  Fermi-Dirac smearing, width (Ry)=  0.0073
                       cart. coord. in units 2pi/alat
        k(    1) = (   0.0000000   0.0000000   0.0000000), wk =   0.1250000
        k(    2) = (   0.0000000   0.0419351   0.0000000), wk =   0.2500000
        k(    3) = (   0.0000000  -0.0838702   0.0000000), wk =   0.1250000
        k(    4) = (   0.0379955   0.0000049   0.0000000), wk =   0.2500000
        k(    5) = (   0.0379955   0.0419400   0.0000000), wk =   0.2500000
        k(    6) = (   0.0379955  -0.0838652   0.0000000), wk =   0.2500000
        k(    7) = (   0.0379955  -0.0419301   0.0000000), wk =   0.2500000
        k(    8) = (  -0.0759910  -0.0000099   0.0000000), wk =   0.1250000
        k(    9) = (  -0.0759910   0.0419252   0.0000000), wk =   0.2500000
        k(   10) = (  -0.0759910  -0.0838800   0.0000000), wk =   0.1250000

     Initial potential from superposition of free atoms

     starting charge  378.99916, renormalised to  395.00000

     negative rho (up, down):  1.611E-02 0.000E+00

     %%%%%%%%%%%%%%%%%%%%%%%%%%%%%%%%%%%%%%%%%%%%%%%%%%%%%%%%%%%%%%%%%%%%%%%%
     %                                                                      %
     % You are using vdW-DF, which was implemented by the Thonhauser group. %
     % Please cite the following two papers that made this development      %
     % possible and the two reviews that describe the various versions:     %
     %                                                                      %
     %   T. Thonhauser et al., PRL 115, 136402 (2015).                      %
     %   T. Thonhauser et al., PRB 76, 125112 (2007).                       %
     %   K. Berland et al., Rep. Prog. Phys. 78, 066501 (2015).             %
     %   D.C. Langreth et al., J. Phys.: Condens. Matter 21, 084203 (2009). %
     %                                                                      %
     %                                                                      %
     % If you are calculating the stress with vdW-DF, please also cite:     %
     %                                                                      %
     %   R. Sabatini et al., J. Phys.: Condens. Matter 24, 424209 (2012).   %
     %                                                                      %
     %%%%%%%%%%%%%%%%%%%%%%%%%%%%%%%%%%%%%%%%%%%%%%%%%%%%%%%%%%%%%%%%%%%%%%%%

     Adding external electric field

     Computed dipole along edir(3) :
        Dipole               -8.5826 Ry au,        -21.8148 Debye
        Dipole field         -0.0162 Ry au,

        Potential amp.        1.5014 Ry
        Total length         46.3494 bohr

     Starting wfcs are  299 atomic wfcs
  @ DRIVER MODE: Message from server: STATUS
  @ DRIVER MODE: Message from server: POSDATA
  @ DRIVER MODE: Reading and sharing cell
  @ DRIVER MODE: Reading and sharing positions
  @ DRIVER MODE: Received positions

     Self-consistent Calculation

     iteration #  1     ecut=    29.40 Ry     beta= 0.05
     Davidson diagonalization with overlap
     c_bands:  1 eigenvalues not converged
     c_bands:  2 eigenvalues not converged
     c_bands:  1 eigenvalues not converged
     c_bands:  3 eigenvalues not converged
     c_bands:  1 eigenvalues not converged
     c_bands:  2 eigenvalues not converged
     c_bands:  2 eigenvalues not converged
     c_bands:  2 eigenvalues not converged
     ethr =  1.00E-05,  avg # of iterations = 19.2

[...]

     total energy              =   -2599.41526207 Ry
     estimated scf accuracy    <    3763.20646472 Ry

     iteration #  2     ecut=    29.40 Ry     beta= 0.05
     Davidson diagonalization with overlap
     ethr =  1.00E-02,  avg # of iterations = 22.6

[...]

     iteration # 66     ecut=    29.40 Ry     beta= 0.05
     Davidson diagonalization with overlap
     c_bands:  1 eigenvalues not converged
     ethr =  6.28E-09,  avg # of iterations = 16.0

[...]

     total energy              =   -2939.12535960 Ry
     estimated scf accuracy    <       0.00000007 Ry

     iteration # 79     ecut=    29.40 Ry     beta= 0.05
     Davidson diagonalization with overlap
     ethr =  1.88E-11,  avg # of iterations = 12.9

     negative rho (up, down):  1.616E-02 0.000E+00

     Adding external electric field

     Computed dipole along edir(3) :
        Dipole                0.9134 Ry au,          2.3217 Debye
        Dipole field          0.0017 Ry au,

        Potential amp.       -0.1598 Ry
        Total length         46.3494 bohr

     End of self-consistent calculation

          k = 0.0000 0.0000 0.0000 ( 18029 PWs)   bands (ev):

   -55.7751 -55.7691 -55.7410 -55.7331 -55.6826 -55.6342 -55.5956 -55.5616
   -55.5546 -55.5209 -55.5183 -55.4456 -54.9555 -54.8065 -54.7550 -54.7210
   -32.3179 -32.2591 -32.1739 -32.0951 -32.0673 -32.0556 -32.0465 -32.0203
   -32.0050 -31.9692 -31.9394 -31.9273 -31.9210 -31.9041 -31.8820 -31.8809
   -31.8778 -31.8771 -31.8644 -31.8343 -31.8322 -31.8208 -31.7995 -31.7910
   -31.7880 -31.7815 -31.7803 -31.7546 -31.7399 -31.7354 -31.7248 -31.7097
   -31.7059 -31.6684 -31.6352 -31.5628 -31.4918 -31.3375 -31.1668 -31.1619
   -31.1025 -31.0740 -31.0643 -31.0516 -30.9790 -30.9124 -30.8925 -30.7811
   -19.4274 -16.5165 -16.2516 -15.9662 -15.9146 -15.8401 -15.7469 -15.6238
   -15.5281 -15.4096 -15.3709 -15.3145 -15.3073 -15.2629 -15.2359 -15.2319
   -15.2058 -15.1973 -15.1332 -15.1258 -15.0752 -15.0636 -15.0157 -14.9805
   -14.9692 -14.9139 -14.8451 -14.8037 -14.6847 -14.1589 -13.2565 -13.1400
   -12.3675  -7.2632  -4.9476  -4.8012  -3.8988  -3.7564  -3.7061  -3.6842
    -3.6398  -3.4392  -3.3504  -3.2831  -3.0433  -2.9519  -2.9275  -2.9167
    -2.8677  -2.7103  -2.6595  -2.6038  -2.5876  -2.5614  -2.5394  -2.5313
    -2.4958  -2.4858  -2.4532  -2.4214  -2.3253  -2.2123  -2.1828  -2.1057
    -2.0897  -2.0735  -2.0435  -2.0340  -2.0242  -2.0144  -1.9955  -1.9587
    -1.8924  -1.8510  -1.7852  -1.7017  -1.5599  -1.5372  -1.4601  -1.3843
    -1.3049  -1.2621  -1.2403  -1.2118  -1.1720  -1.0919  -1.0663  -0.9201
    -0.8236  -0.7899  -0.7733  -0.7305  -0.6946  -0.5922  -0.5705  -0.5415
    -0.5323  -0.5046  -0.4292  -0.3746  -0.2426  -0.2119  -0.2079  -0.1703
    -0.0995  -0.0457   0.0079   0.0570   0.0647   0.1006   0.1607   0.1859
     0.1907   0.2334   0.2756   0.3515   0.3770   0.4508   0.4549   0.5189
     0.5628   0.6449   0.7522   0.8743   1.0186   1.1550   1.1992   1.2682
     1.3636   1.4601   1.8385   1.8841   2.1593   3.3384   3.4457   3.4691
     3.4813   3.5880   3.7966   3.8191   3.8686   3.8889   3.8972

[...]

          k = 0.0380-0.0419 0.0000 ( 17876 PWs)   bands (ev):

[...]

          k =-0.0760-0.0000 0.0000 ( 17886 PWs)   bands (ev):

[...]

          k =-0.0760-0.0839 0.0000 ( 17948 PWs)   bands (ev):

   -55.7581 -55.7578 -55.7517 -55.7502 -55.6754 -55.6414 -55.5786 -55.5783
   -55.5380 -55.5376 -55.5138 -55.4499 -54.9542 -54.8077 -54.7380 -54.7378
   -32.1215 -32.1180 -32.0745 -32.0742 -32.0529 -32.0525 -32.0189 -32.0041
   -31.9979 -31.9891 -31.9203 -31.9151 -31.9043 -31.8979 -31.8813 -31.8791
   -31.8785 -31.8772 -31.8768 -31.8712 -31.8532 -31.8506 -31.8493 -31.8126
   -31.7832 -31.7817 -31.7800 -31.7675 -31.7673 -31.7580 -31.7571 -31.7552
   -31.7539 -31.7354 -31.7106 -31.6600 -31.4390 -31.3196 -31.1687 -31.1585
   -31.0794 -31.0643 -31.0642 -30.9748 -30.9746 -30.9358 -30.9357 -30.9154
   -19.4252 -15.9169 -15.9108 -15.7493 -15.7148 -15.6491 -15.6403 -15.5726
   -15.5055 -15.4606 -15.4556 -15.3406 -15.3384 -15.3239 -15.3023 -15.2480
   -15.2317 -15.2303 -15.2269 -15.2191 -15.2071 -15.1800 -15.1494 -15.0986
   -15.0935 -15.0728 -15.0627 -14.9412 -14.5305 -14.4695 -13.2419 -13.2418
   -12.3701  -7.2498  -4.9497  -4.7994  -3.6326  -3.2061  -3.1898  -3.0021
    -2.9186  -2.9073  -2.8920  -2.7385  -2.7261  -2.7105  -2.6525  -2.6413
    -2.6355  -2.5996  -2.5834  -2.5596  -2.5188  -2.5141  -2.4656  -2.4625
    -2.4479  -2.4224  -2.4074  -2.4011  -2.3886  -2.3728  -2.3364  -2.2794
    -2.2419  -2.2148  -2.1860  -2.0896  -2.0293  -1.9934  -1.9263  -1.9177
    -1.8667  -1.8420  -1.8276  -1.7627  -1.6911  -1.6607  -1.5767  -1.4851
    -1.4670  -1.4515  -1.3330  -1.3190  -1.2440  -1.2205  -1.1367  -1.1195
    -1.0800  -0.9690  -0.9459  -0.9144  -0.8800  -0.8361  -0.7725  -0.7356
    -0.7336  -0.6846  -0.6409  -0.5847  -0.5234  -0.5115  -0.4962  -0.4874
    -0.4239  -0.3888  -0.3674  -0.2861  -0.2706  -0.1890  -0.0452  -0.0126
     0.1450   0.1941   0.3032   0.3307   0.4216   0.4432   0.5373   0.5405
     0.5734   0.7023   0.7213   0.7390   0.7549   0.7749   0.7988   0.9376
     1.6325   1.6326   1.7042   1.7042   2.0969   3.6714   3.7085   3.7589
     3.7806   3.8847   3.8897   3.8925   3.9000   4.0214   4.0259

     the Fermi energy is     3.3520 ev

!    total energy              =   -2939.12536653 Ry
     estimated scf accuracy    <       0.00000005 Ry
     smearing contrib. (-TS)   =      -0.02052274 Ry
     internal energy E=F+TS    =   -2939.10484378 Ry

     The total energy is F=E-TS. E is the sum of the following terms:
     one-electron contribution =  -24210.88644879 Ry
     hartree contribution      =   12194.19478569 Ry
     xc contribution           =    -485.20042897 Ry
     ewald contribution        =    9562.78567381 Ry
     electric field correction =       0.00157448 Ry

     convergence has been achieved in  79 iterations

     Forces acting on atoms (cartesian axes, Ry/au):

     atom    1 type  1   force =     0.00010800   -0.00019367    0.09586226
     atom    2 type  1   force =     0.00006262   -0.00060937   -0.17549034
     atom    3 type  2   force =     0.00017614   -0.00019347   -0.02306553
     atom    4 type  2   force =     0.00004054   -0.00128593    0.05261901
     atom    5 type  2   force =    -0.00977304   -0.00031626    0.00253050
     atom    6 type  2   force =     0.01165690    0.00022393    0.00290855
     atom    7 type  1   force =     0.00088776    0.00000790   -0.00992653
     atom    8 type  1   force =    -0.00000519    0.00530828    0.01816294
     atom    9 type  2   force =    -0.00001384   -0.00028941   -0.00011669
     atom   10 type  2   force =    -0.00253736    0.00216550   -0.01347532
     atom   11 type  2   force =    -0.00098507    0.00010397    0.00018665
     atom   12 type  2   force =     0.00038893   -0.00025511    0.00049552
     atom   13 type  1   force =     0.00010322   -0.00008554    0.00051787
     atom   14 type  1   force =    -0.00003311   -0.00016385   -0.00015599
     atom   15 type  2   force =    -0.00065397    0.00014377    0.00046822
     atom   16 type  2   force =    -0.00043886    0.00007366    0.00019338
     atom   17 type  2   force =    -0.00018421   -0.00009583   -0.00036682
     atom   18 type  2   force =     0.00025624    0.00025044    0.00012515
     atom   19 type  1   force =    -0.00058758   -0.00059191    0.00071926
     atom   20 type  1   force =    -0.00032896    0.00029079   -0.00063395
     atom   21 type  2   force =     0.00007081   -0.00006102    0.10322482
     atom   22 type  2   force =     0.00002412    0.00000148   -0.00056427
     atom   23 type  2   force =    -0.07154285   -0.00019554   -0.02753047
     atom   24 type  2   force =     0.07152014    0.00030690   -0.02758706
     atom   25 type  1   force =     0.00013785   -0.00028146    0.09517510
     atom   26 type  1   force =     0.00009364   -0.00046849   -0.17563361
     atom   27 type  2   force =     0.00015784   -0.00012027   -0.02180292
     atom   28 type  2   force =     0.00008283   -0.00105965    0.05249155
     atom   29 type  2   force =    -0.01015320    0.00023435    0.00290385
     atom   30 type  2   force =     0.01197166    0.00051943    0.00328094
     atom   31 type  1   force =     0.00089081    0.00415117   -0.01179489
     atom   32 type  1   force =     0.00012035   -0.00633293    0.01829973
     atom   33 type  2   force =     0.00016338    0.00042048   -0.00011445
     atom   34 type  2   force =    -0.00308257   -0.00010278   -0.00865760
     atom   35 type  2   force =    -0.00021754    0.00006934    0.00002349
     atom   36 type  2   force =    -0.00003277    0.00028200   -0.00005026
     atom   37 type  1   force =     0.00044913   -0.00095135    0.00020421
     atom   38 type  1   force =    -0.00032051    0.00007934    0.00033759
     atom   39 type  2   force =     0.00013531   -0.00024447    0.00061034
     atom   40 type  2   force =    -0.00008605    0.00027462    0.00014108
     atom   41 type  2   force =     0.00012666   -0.00021957   -0.00009632
     atom   42 type  2   force =    -0.00059653   -0.00000958   -0.00031764
     atom   43 type  1   force =     0.00024399    0.00051817    0.00011556
     atom   44 type  1   force =     0.00087597   -0.00172090    0.00177169
     atom   45 type  2   force =     0.00007753   -0.00006264    0.10316997
     atom   46 type  2   force =    -0.07155679   -0.00009582   -0.02752085
     atom   47 type  2   force =     0.07154279    0.00025602   -0.02758415
     atom   48 type  3   force =    -0.00300120    0.00305528   -0.01053539
     atom   49 type  4   force =     0.00019466   -0.00131166    0.00411836
     atom   50 type  5   force =     0.00096172    0.00003216    0.00067731
     atom   51 type  5   force =    -0.00025472   -0.00064394    0.00095838
     atom   52 type  5   force =     0.00014387   -0.00062743   -0.00102850
     atom   53 type  3   force =     0.00272051   -0.00017916    0.00175627

     Total force =     0.364957     Total SCF correction =     0.000601
  @ DRIVER MODE: Message from server: STATUS
  @ DRIVER MODE: Message from server: GETFORCE
  @ DRIVER MODE: Returning v,forces,stress,ensemble

     Writing output data file ./calc.save/
  @ DRIVER MODE: Message from server: EXIT
  @ DRIVE MODE: Exiting

     General routines

     Parallel routines

   This run was terminated on:  14:34:53   2Aug2021

   JOB DONE.