     Program PWSCF v.6.7GPU starts on 22Sep2021 at 20: 4: 0

     R & G space division:  proc/nbgrp/npool/nimage =      10
     Reading input from /storage/home/hcoda1/3/ntian30/research/carbon/CxH_vib/H2O_calc/ads_slab/CHNHHO_a/out_0013/pw.inp
Warning: card &CELL ignored
Warning: card   CELL_DYNAMICS='IPI', ignored
Warning: card / ignored

     Current dimensions of program PWSCF are:
     Max number of different atomic species (ntypx) = 10
     Max number of k-points (npk) =  40000
     Max angular momentum in pseudopotentials (lmaxx) =  3
     Presently no symmetry can be used with electric field

     Message from routine cell_base_init:
     DEPRECATED: use true lattice parameter, not A to a.u. conversion factor

     IMPORTANT: XC functional enforced from input :
     Exchange-correlation= BEEF-VDW
                           (   1   4  43  14   2   0   0)
     Any further DFT definition will be discarded
     Please, verify this is what you really want

  @ DRIVER MODE: Connecting to
 qe_1139763_2937314.sched-torque.pace.gatech.edulf1n1ghn_scratch
  using UNIX socket
  @ DRIVER MODE: Message from server: STATUS
  @ DRIVER MODE: Message from server: INIT
  @ DRIVER MODE: Receiving replica           0          -1
  @ DRIVER MODE: Receiving encoded integer          25
  @ DRIVER MODE:  SCF:  T  FORCE:  T  STRESS:  F  VC:  F  ENSEMBLE:  F
  @ DRIVER MODE:  SCF:  T  FORCE:  T  STRESS:  F  VC:  F  ENSEMBLE:  F

     Using Slab Decomposition

     bravais-lattice index     =            0
     lattice parameter (alat)  =       1.8897  a.u.
     unit-cell volume          =    6658.9804 (a.u.)^3
     number of atoms/cell      =           53
     number of atomic types    =            5
     number of electrons       =       396.00
     number of Kohn-Sham states=          208
     kinetic-energy cutoff     =      29.3995  Ry
     charge density cutoff     =     293.9946  Ry
     scf convergence threshold =      7.3E-08
     mixing beta               =       0.0500
     number of iterations used =            8  plain     mixing
     Exchange-correlation= BEEF-VDW
                           (   1   4  43  14   2   0   0)

     celldm(1)=   1.889726  celldm(2)=   0.000000  celldm(3)=   0.000000
     celldm(4)=   0.000000  celldm(5)=   0.000000  celldm(6)=   0.000000

     crystal axes: (cart. coord. in units of alat)
               a(1) = (   6.579727   0.000000   0.000000 )
               a(2) = (  -0.000775   5.961596   0.000000 )
               a(3) = (   0.000000   0.000000  25.155947 )

     reciprocal axes: (cart. coord. in units 2 pi/alat)
               b(1) = (  0.151982  0.000020  0.000000 )
               b(2) = (  0.000000  0.167740  0.000000 )
               b(3) = (  0.000000  0.000000  0.039752 )

     PseudoPot. # 1 for Ti read from file:
     /storage/coda1/p-amedford6/0/shared/rich_project_chbe-medford/medford-share/data/pseudos_module/espresso/nninc/pbe/van/Ti.UPF
     MD5 check sum: 8e4df49b7f0d34bbd5052bf3f5ea0213
     Pseudo is Ultrasoft, Zval = 12.0
     Generated by new atomic code, or converted to UPF format
     Using radial grid of  851 points,  6 beta functions with:
                l(1) =   0
                l(2) =   0
                l(3) =   1
                l(4) =   1
                l(5) =   2
                l(6) =   2
     Q(r) pseudized with  8 coefficients,  rinner =    1.000   1.000   1.000
                                                       1.000   1.000

     PseudoPot. # 2 for O  read from file:
     /storage/coda1/p-amedford6/0/shared/rich_project_chbe-medford/medford-share/data/pseudos_module/espresso/nninc/pbe/van/O.UPF
     MD5 check sum: 78c19812648e8988a0fe644b0f25305e
     Pseudo is Ultrasoft, Zval =  6.0
     Generated by new atomic code, or converted to UPF format
     Using radial grid of  737 points,  4 beta functions with:
                l(1) =   0
                l(2) =   0
                l(3) =   1
                l(4) =   1
     Q(r) pseudized with  8 coefficients,  rinner =    0.800   0.800   0.800

     PseudoPot. # 3 for N  read from file:
     /storage/coda1/p-amedford6/0/shared/rich_project_chbe-medford/medford-share/data/pseudos_module/espresso/nninc/pbe/van/N.UPF
     MD5 check sum: 90d10febe142ad51ac9d5be1deb811c4
     Pseudo is Ultrasoft, Zval =  5.0
     Generated by new atomic code, or converted to UPF format
     Using radial grid of  729 points,  4 beta functions with:
                l(1) =   0
                l(2) =   0
                l(3) =   1
                l(4) =   1
     Q(r) pseudized with  8 coefficients,  rinner =    0.800   0.800   0.800

     PseudoPot. # 4 for C  read from file:
     /storage/coda1/p-amedford6/0/shared/rich_project_chbe-medford/medford-share/data/pseudos_module/espresso/nninc/pbe/van/C.UPF
     MD5 check sum: 1a69bf6b8db32088f5b2163dbdb77a27
     Pseudo is Ultrasoft, Zval =  4.0
     Generated by new atomic code, or converted to UPF format
     Using radial grid of  721 points,  4 beta functions with:
                l(1) =   0
                l(2) =   0
                l(3) =   1
                l(4) =   1
     Q(r) pseudized with  8 coefficients,  rinner =    0.800   0.800   0.800

     PseudoPot. # 5 for H  read from file:
     /storage/coda1/p-amedford6/0/shared/rich_project_chbe-medford/medford-share/data/pseudos_module/espresso/nninc/pbe/van/H.UPF
     MD5 check sum: b5ee9d7bfd3a09ee7748110bda690ff7
     Pseudo is Ultrasoft, Zval =  1.0
     Generated by new atomic code, or converted to UPF format
     Using radial grid of  615 points,  1 beta functions with:
                l(1) =   0
     Q(r) pseudized with  8 coefficients,  rinner =    0.800

     atomic species   valence    mass     pseudopotential
        Ti1           12.00    47.86700     Ti( 1.00)
        O1             6.00    15.99900     O ( 1.00)
        N1             5.00    14.00700     N ( 1.00)
        C1             4.00    12.01100     C ( 1.00)
        H1             1.00     1.00800     H ( 1.00)

     No symmetry found

   Cartesian axes

     site n.     atom                  positions (alat units)
         1           Ti1 tau(   1) = (   0.0004258   2.9801865   6.0000000  )
         2           Ti1 tau(   2) = (   3.2906075   1.4906267   6.0002472  )
         3           O1  tau(   3) = (   0.0006271   0.0005054   7.9858123  )
         4           O1  tau(   4) = (   3.2906025   0.0005020   7.3038282  )
         5           O1  tau(   5) = (   4.5942328   1.4918067   9.2879030  )
         6           O1  tau(   6) = (   1.9868534   1.4903216   9.2879459  )
         7           Ti1 tau(   7) = (   3.2907910   2.8959150   9.1758416  )
         8           Ti1 tau(   8) = (   0.0015273   1.4827037   9.2680791  )
         9           O1  tau(   9) = (   3.2817170   5.9459930  11.3074998  )
        10           O1  tau(  10) = (   0.0116148   5.9584955  10.6183126  )
        11           O1  tau(  11) = (   1.2737360   1.4926482  12.6406718  )
        12           O1  tau(  12) = (   5.2902952   1.4950437  12.6299455  )
        13           Ti1 tau(  13) = (   6.5743562   2.8588748  12.6391164  )
        14           Ti1 tau(  14) = (   3.2840152   1.3010445  12.6757008  )
        15           O1  tau(  15) = (   6.5722207   0.0022838  14.6395268  )
        16           O1  tau(  16) = (   3.2882888   0.0547267  13.9272720  )
        17           O1  tau(  17) = (   4.5277618   1.5549090  16.0796657  )
        18           O1  tau(  18) = (   1.9889223   1.5445724  16.0964948  )
        19           Ti1 tau(  19) = (   3.2710169   3.0098750  15.6493427  )
        20           Ti1 tau(  20) = (   0.0212523   1.3583160  16.0154628  )
        21           O1  tau(  21) = (   3.2904802   0.0005063   4.7018136  )
        22           O1  tau(  22) = (   6.5278121   5.9442159  17.1408904  )
        23           O1  tau(  23) = (   1.3043587   1.4918075   6.0039043  )
        24           O1  tau(  24) = (   5.2767064   1.4903225   6.0039473  )
        25           Ti1 tau(  25) = (   0.0000382   5.9609847   6.0000000  )
        26           Ti1 tau(  26) = (   3.2902200   4.4714249   6.0002472  )
        27           O1  tau(  27) = (   0.0002396   2.9813036   7.9858123  )
        28           O1  tau(  28) = (   3.2902150   2.9813002   7.3038282  )
        29           O1  tau(  29) = (   4.5938453   4.4726049   9.2879030  )
        30           O1  tau(  30) = (   1.9864658   4.4711199   9.2879459  )
        31           Ti1 tau(  31) = (   3.2891106   5.8743827   9.1763621  )
        32           Ti1 tau(  32) = (   0.0006254   4.4649316   9.2693709  )
        33           O1  tau(  33) = (   3.2809651   3.0158959  11.2742024  )
        34           O1  tau(  34) = (   0.0092240   2.9805883  10.6323155  )
        35           O1  tau(  35) = (   1.2801966   4.4796301  12.6363892  )
        36           O1  tau(  36) = (   5.2833020   4.4787161  12.6245292  )
        37           Ti1 tau(  37) = (   6.5725262   5.8449372  12.5269696  )
        38           Ti1 tau(  38) = (   3.2830651   4.3950422  12.4122791  )
        39           O1  tau(  39) = (   6.5612936   2.9998473  14.7091997  )
        40           O1  tau(  40) = (   3.2734765   2.9867355  13.8776313  )
        41           O1  tau(  41) = (   4.5260587   4.4294304  16.0527172  )
        42           O1  tau(  42) = (   1.9919704   4.4458081  16.0639873  )
        43           Ti1 tau(  43) = (   3.3135318   0.0270965  16.3071496  )
        44           Ti1 tau(  44) = (   0.0294795   4.5257316  15.8201724  )
        45           O1  tau(  45) = (   3.2900926   2.9813045   4.7018136  )
        46           O1  tau(  46) = (   1.3039711   4.4726057   6.0039043  )
        47           O1  tau(  47) = (   5.2763189   4.4711207   6.0039473  )
        48           N1  tau(  48) = (   6.4282372   2.9740631  17.7102171  )
        49           C1  tau(  49) = (   0.6535733   3.0176064  18.7020832  )
        50           H1  tau(  50) = (   1.7191544   2.9413089  18.4820742  )
        51           H1  tau(  51) = (   5.4410488   3.0579230  17.9716058  )
        52           O1  tau(  52) = (   3.3635319   0.0010587  18.1193045  )
        53           H1  tau(  53) = (   4.1580425   0.0400832  18.6733683  )

     number of k points=    10  Fermi-Dirac smearing, width (Ry)=  0.0073
                       cart. coord. in units 2pi/alat
        k(    1) = (   0.0000000   0.0000000   0.0000000), wk =   0.1250000
        k(    2) = (   0.0000000   0.0419351   0.0000000), wk =   0.2500000
        k(    3) = (   0.0000000  -0.0838702   0.0000000), wk =   0.1250000
        k(    4) = (   0.0379955   0.0000049   0.0000000), wk =   0.2500000
        k(    5) = (   0.0379955   0.0419400   0.0000000), wk =   0.2500000
        k(    6) = (   0.0379955  -0.0838652   0.0000000), wk =   0.2500000
        k(    7) = (   0.0379955  -0.0419301   0.0000000), wk =   0.2500000
        k(    8) = (  -0.0759910  -0.0000099   0.0000000), wk =   0.1250000
        k(    9) = (  -0.0759910   0.0419252   0.0000000), wk =   0.2500000
        k(   10) = (  -0.0759910  -0.0838800   0.0000000), wk =   0.1250000

     Initial potential from superposition of free atoms

     starting charge  379.99917, renormalised to  396.00000

     negative rho (up, down):  1.778E-02 0.000E+00

     %%%%%%%%%%%%%%%%%%%%%%%%%%%%%%%%%%%%%%%%%%%%%%%%%%%%%%%%%%%%%%%%%%%%%%%%
     %                                                                      %
     % You are using vdW-DF, which was implemented by the Thonhauser group. %
     % Please cite the following two papers that made this development      %
     % possible and the two reviews that describe the various versions:     %
     %                                                                      %
     %   T. Thonhauser et al., PRL 115, 136402 (2015).                      %
     %   T. Thonhauser et al., PRB 76, 125112 (2007).                       %
     %   K. Berland et al., Rep. Prog. Phys. 78, 066501 (2015).             %
     %   D.C. Langreth et al., J. Phys.: Condens. Matter 21, 084203 (2009). %
     %                                                                      %
     %                                                                      %
     % If you are calculating the stress with vdW-DF, please also cite:     %
     %                                                                      %
     %   R. Sabatini et al., J. Phys.: Condens. Matter 24, 424209 (2012).   %
     %                                                                      %
     %%%%%%%%%%%%%%%%%%%%%%%%%%%%%%%%%%%%%%%%%%%%%%%%%%%%%%%%%%%%%%%%%%%%%%%%

     Adding external electric field

     Computed dipole along edir(3) :
        Dipole               -8.0653 Ry au,        -20.5000 Debye
        Dipole field         -0.0152 Ry au,

        Potential amp.        1.4109 Ry
        Total length         46.3494 bohr

     Starting wfcs are  299 atomic wfcs
  @ DRIVER MODE: Message from server: STATUS
  @ DRIVER MODE: Message from server: POSDATA
  @ DRIVER MODE: Reading and sharing cell
  @ DRIVER MODE: Reading and sharing positions
  @ DRIVER MODE: Received positions

     Self-consistent Calculation

     iteration #  1     ecut=    29.40 Ry     beta= 0.05
     Davidson diagonalization with overlap
     c_bands:  2 eigenvalues not converged
     c_bands:  1 eigenvalues not converged
     c_bands:  3 eigenvalues not converged
     c_bands:  1 eigenvalues not converged
     c_bands:  2 eigenvalues not converged
     c_bands:  1 eigenvalues not converged
     c_bands:  1 eigenvalues not converged
     ethr =  1.00E-05,  avg # of iterations = 18.9

[...]

     total energy              =   -2618.22461592 Ry
     estimated scf accuracy    <    3681.27632326 Ry

     iteration #  2     ecut=    29.40 Ry     beta= 0.05
     Davidson diagonalization with overlap
     ethr =  1.00E-02,  avg # of iterations = 21.9

[...]

     iteration # 69     ecut=    29.40 Ry     beta= 0.05
     Davidson diagonalization with overlap
     c_bands:  2 eigenvalues not converged
     ethr =  7.72E-07,  avg # of iterations = 11.6

[...]

     total energy              =   -2951.37638024 Ry
     estimated scf accuracy    <       0.00000011 Ry

     iteration # 92     ecut=    29.40 Ry     beta= 0.05
     Davidson diagonalization with overlap
     ethr =  2.85E-11,  avg # of iterations =  6.4

     negative rho (up, down):  1.666E-02 0.000E+00

     Adding external electric field

     Computed dipole along edir(3) :
        Dipole                0.1811 Ry au,          0.4604 Debye
        Dipole field          0.0003 Ry au,

        Potential amp.       -0.0317 Ry
        Total length         46.3494 bohr

     End of self-consistent calculation

          k = 0.0000 0.0000 0.0000 ( 18029 PWs)   bands (ev):

   -56.4282 -56.3943 -56.1533 -56.1504 -56.1166 -55.9506 -55.8975 -55.8635
   -55.8584 -55.8519 -55.8167 -55.7245 -55.6738 -55.5329 -55.2792 -55.2452
   -32.8926 -32.7223 -32.7021 -32.6234 -32.5825 -32.5158 -32.4890 -32.4470
   -32.4344 -32.4233 -32.3729 -32.3682 -32.3662 -32.3626 -32.3532 -32.3109
   -32.2891 -32.2657 -32.2555 -32.1798 -32.1671 -32.1586 -32.1452 -32.1225
   -32.1072 -32.1016 -32.0987 -32.0671 -32.0648 -32.0576 -32.0369 -32.0168
   -31.9998 -31.9774 -31.9683 -31.9580 -31.9434 -31.8701 -31.8690 -31.7923
   -31.7635 -31.7448 -31.6795 -31.6074 -31.5842 -31.4979 -31.4124 -31.3004
   -16.9182 -16.8250 -16.5937 -16.4406 -16.2736 -16.1826 -16.0535 -16.0295
   -15.9204 -15.9015 -15.8143 -15.7811 -15.7421 -15.6673 -15.6104 -15.5877
   -15.5550 -15.5249 -15.5162 -15.5115 -15.5020 -15.4942 -15.4559 -15.3379
   -15.2971 -15.2468 -15.2340 -15.2197 -15.0882 -14.8303 -14.7861 -13.7769
   -13.6630  -8.2325  -4.6863  -4.2804  -4.2368  -4.1237  -3.9469  -3.8886
    -3.8338  -3.6016  -3.5544  -3.5522  -3.3583  -3.2982  -3.2041  -3.1615
    -3.1465  -3.1013  -3.0293  -3.0183  -2.9869  -2.8992  -2.8582  -2.8510
    -2.8245  -2.7795  -2.7695  -2.6890  -2.6453  -2.6228  -2.5539  -2.5052
    -2.4735  -2.4590  -2.4349  -2.4245  -2.3831  -2.3697  -2.3487  -2.2009
    -2.1843  -2.1621  -2.0849  -2.0102  -1.8552  -1.7738  -1.7629  -1.6643
    -1.5865  -1.5727  -1.5234  -1.4743  -1.3879  -1.3737  -1.3673  -1.3286
    -1.2438  -1.2234  -1.1797  -1.1278  -1.0534  -0.9644  -0.9588  -0.9087
    -0.8745  -0.8099  -0.7221  -0.6879  -0.6286  -0.5870  -0.5561  -0.4833
    -0.4337  -0.4072  -0.3841  -0.3733  -0.3126  -0.2515  -0.2047  -0.1784
    -0.1085  -0.0965  -0.0535   0.0116   0.0334   0.0409   0.1597   0.2022
     0.2152   0.2653   0.3776   0.4351   0.5210   0.5815   0.6524   0.7465
     0.7531   0.9607   1.0690   1.3008   1.3412   2.5798   2.7608   2.8824
     2.9514   3.1527   3.1996   3.2352   3.5081   3.5253   3.5339   3.6144

[...]

          k = 0.0380-0.0419 0.0000 ( 17876 PWs)   bands (ev):

[...]

          k =-0.0760-0.0000 0.0000 ( 17886 PWs)   bands (ev):

[...]

          k =-0.0760-0.0839 0.0000 ( 17948 PWs)   bands (ev):

   -56.4117 -56.4106 -56.1526 -56.1352 -56.1316 -55.9445 -55.9035 -55.8608
   -55.8594 -55.8387 -55.8298 -55.7265 -55.6718 -55.5348 -55.2628 -55.2616
   -32.7091 -32.7089 -32.7072 -32.7067 -32.5344 -32.5331 -32.4552 -32.4505
   -32.4248 -32.3820 -32.3703 -32.3432 -32.3384 -32.3272 -32.3208 -32.2854
   -32.2472 -32.2427 -32.2176 -32.1714 -32.1696 -32.1681 -32.1652 -32.1537
   -32.1294 -32.1220 -32.1206 -32.0730 -32.0699 -32.0637 -32.0617 -32.0600
   -32.0452 -32.0102 -31.9871 -31.9622 -31.9494 -31.9353 -31.8818 -31.8746
   -31.7949 -31.7484 -31.5975 -31.5967 -31.4940 -31.4926 -31.4557 -31.4548
   -16.9031 -16.2448 -16.2197 -16.1259 -16.0956 -16.0742 -16.0522 -16.0281
   -15.8939 -15.8845 -15.8709 -15.8026 -15.7518 -15.7324 -15.6978 -15.6924
   -15.6374 -15.6235 -15.6106 -15.5581 -15.5497 -15.5298 -15.5156 -15.4802
   -15.4494 -15.4215 -15.2562 -15.2017 -15.1465 -15.1197 -14.9189 -13.7658
   -13.7652  -8.2439  -4.6781  -4.1364  -3.5229  -3.4899  -3.3696  -3.3574
    -3.2312  -3.2262  -3.1482  -3.0746  -3.0741  -2.9989  -2.9849  -2.9769
    -2.9375  -2.9203  -2.9126  -2.9119  -2.8706  -2.8612  -2.8403  -2.8230
    -2.8201  -2.8043  -2.7656  -2.7250  -2.7035  -2.6905  -2.6364  -2.6230
    -2.5006  -2.4369  -2.4115  -2.4110  -2.3877  -2.3507  -2.3206  -2.3039
    -2.2747  -2.2353  -2.1583  -2.0374  -2.0168  -1.8208  -1.8029  -1.7715
    -1.7505  -1.7060  -1.7003  -1.6344  -1.5841  -1.5693  -1.5522  -1.5277
    -1.4267  -1.3756  -1.3255  -1.3226  -1.2712  -1.2514  -1.2028  -1.1012
    -1.0520  -1.0223  -0.9960  -0.9830  -0.9452  -0.9193  -0.8662  -0.8257
    -0.8212  -0.7940  -0.7511  -0.5820  -0.4116  -0.3684  -0.3470  -0.2757
    -0.2604  -0.2110  -0.0774  -0.0318  -0.0213   0.0151   0.0549   0.0847
     0.0984   0.1608   0.3439   0.3585   0.4269   0.4744   0.4805   0.5681
     0.6642   1.1253   1.1330   1.1600   1.1608   2.6075   3.3056   3.3076
     3.3094   3.3258   3.4057   3.4668   3.4757   3.5131   3.5917   3.6310

     the Fermi energy is     2.7243 ev

!    total energy              =   -2951.37638493 Ry
     estimated scf accuracy    <       0.00000006 Ry
     smearing contrib. (-TS)   =      -0.01731416 Ry
     internal energy E=F+TS    =   -2951.35907077 Ry

     The total energy is F=E-TS. E is the sum of the following terms:
     one-electron contribution =  -24273.37735295 Ry
     hartree contribution      =   12222.72201205 Ry
     xc contribution           =    -487.05219504 Ry
     ewald contribution        =    9586.34840325 Ry
     electric field correction =       0.00006192 Ry

     convergence has been achieved in  92 iterations

     Forces acting on atoms (cartesian axes, Ry/au):

     atom    1 type  1   force =     0.00006655   -0.00028370    0.10081177
     atom    2 type  1   force =    -0.00005659    0.00024380   -0.16922467
     atom    3 type  2   force =     0.00000524   -0.00004247   -0.02994213
     atom    4 type  2   force =     0.00000225   -0.00099117    0.04190588
     atom    5 type  2   force =    -0.00519513   -0.00241920   -0.00304037
     atom    6 type  2   force =     0.00634646   -0.00183607   -0.00464888
     atom    7 type  1   force =    -0.00065902   -0.00537616    0.02533409
     atom    8 type  1   force =     0.00077731    0.01605298    0.04135042
     atom    9 type  2   force =    -0.00021572    0.00023549    0.00014052
     atom   10 type  2   force =    -0.00258060    0.00083563   -0.03439799
     atom   11 type  2   force =     0.00011452    0.00002566    0.00007048
     atom   12 type  2   force =     0.00022090   -0.00035995    0.00004863
     atom   13 type  1   force =    -0.00070716   -0.00010821   -0.00012056
     atom   14 type  1   force =     0.00018252    0.00009872    0.00027690
     atom   15 type  2   force =     0.00021817    0.00008458    0.00007748
     atom   16 type  2   force =     0.00004177   -0.00015293   -0.00011781
     atom   17 type  2   force =    -0.00010590    0.00008488    0.00012751
     atom   18 type  2   force =     0.00018258   -0.00003726    0.00014591
     atom   19 type  1   force =     0.00009244    0.00021074    0.00015826
     atom   20 type  1   force =    -0.00003525    0.00031039    0.00055963
     atom   21 type  2   force =     0.00007142    0.00015484    0.10146318
     atom   22 type  2   force =    -0.00000217    0.00020664    0.00022915
     atom   23 type  2   force =    -0.07486994   -0.00008681   -0.02881270
     atom   24 type  2   force =     0.07480179    0.00036584   -0.02884275
     atom   25 type  1   force =     0.00018798   -0.00035564    0.10067583
     atom   26 type  1   force =     0.00001172   -0.00114353   -0.16943912
     atom   27 type  2   force =     0.00004534   -0.00040031   -0.02842804
     atom   28 type  2   force =     0.00000926    0.00074630    0.03788581
     atom   29 type  2   force =    -0.00388586    0.00436142   -0.00526977
     atom   30 type  2   force =     0.00496402    0.00488486   -0.00693971
     atom   31 type  1   force =    -0.00064408    0.00466586    0.01116518
     atom   32 type  1   force =     0.00089036   -0.01904980    0.04071388
     atom   33 type  2   force =     0.00044137   -0.00001745    0.00022431
     atom   34 type  2   force =    -0.00214264    0.00071042   -0.03963926
     atom   35 type  2   force =     0.00013036   -0.00048835   -0.00013849
     atom   36 type  2   force =     0.00014277   -0.00022194    0.00010393
     atom   37 type  1   force =    -0.00004837   -0.00010954    0.00010046
     atom   38 type  1   force =     0.00001540    0.00006647    0.00015586
     atom   39 type  2   force =    -0.00003717    0.00035041   -0.00023756
     atom   40 type  2   force =     0.00032420   -0.00006085    0.00022251
     atom   41 type  2   force =     0.00003041    0.00011840    0.00026060
     atom   42 type  2   force =    -0.00008940    0.00008212    0.00031578
     atom   43 type  1   force =     0.00021887   -0.00004387    0.00060430
     atom   44 type  1   force =    -0.00022095    0.00006126   -0.00055062
     atom   45 type  2   force =     0.00006736   -0.00000280    0.10125512
     atom   46 type  2   force =    -0.07491992   -0.00001363   -0.02884245
     atom   47 type  2   force =     0.07483303    0.00041484   -0.02886941
     atom   48 type  3   force =    -0.00140470   -0.00001377    0.00145763
     atom   49 type  4   force =    -0.01056103    0.00070486    0.00079862
     atom   50 type  5   force =     0.01087813   -0.00119167   -0.00154044
     atom   51 type  5   force =     0.00168480   -0.00071318   -0.00025798
     atom   52 type  2   force =    -0.00022252   -0.00018269    0.00154710
     atom   53 type  5   force =     0.00060482   -0.00037443   -0.00088603

     Total force =     0.370032     Total SCF correction =     0.000482
  @ DRIVER MODE: Message from server: STATUS
  @ DRIVER MODE: Message from server: GETFORCE
  @ DRIVER MODE: Returning v,forces,stress,ensemble

     Writing output data file ./calc.save/
  @ DRIVER MODE: Message from server: EXIT
  @ DRIVE MODE: Exiting

     General routines

     Parallel routines

   This run was terminated on:  20:27: 4  22Sep2021

   JOB DONE.