     Program PWSCF v.6.7GPU starts on  2Aug2021 at 17:54:30

     R & G space division:  proc/nbgrp/npool/nimage =      16
     Reading input from /storage/home/hcoda1/3/ntian30/research/carbon/02Aug_vib_paired/ads_slab/CH3N2_b/out_0018/pw.inp
Warning: card &CELL ignored
Warning: card   CELL_DYNAMICS='IPI', ignored
Warning: card / ignored

     Current dimensions of program PWSCF are:
     Max number of different atomic species (ntypx) = 10
     Max number of k-points (npk) =  40000
     Max angular momentum in pseudopotentials (lmaxx) =  3
     Presently no symmetry can be used with electric field

     Message from routine cell_base_init:
     DEPRECATED: use true lattice parameter, not A to a.u. conversion factor

     IMPORTANT: XC functional enforced from input :
     Exchange-correlation= BEEF-VDW
                           (   1   4  43  14   2   0   0)
     Any further DFT definition will be discarded
     Please, verify this is what you really want

  @ DRIVER MODE: Connecting to
 qe_1139763_2482536.sched-torque.pace.gatech.eduhlcgxqu8_scratch
  using UNIX socket
  @ DRIVER MODE: Message from server: STATUS
  @ DRIVER MODE: Message from server: INIT
  @ DRIVER MODE: Receiving replica           0          -1
  @ DRIVER MODE: Receiving encoded integer          25
  @ DRIVER MODE:  SCF:  T  FORCE:  T  STRESS:  F  VC:  F  ENSEMBLE:  F
  @ DRIVER MODE:  SCF:  T  FORCE:  T  STRESS:  F  VC:  F  ENSEMBLE:  F

     Using Slab Decomposition

     bravais-lattice index     =            0
     lattice parameter (alat)  =       1.8897  a.u.
     unit-cell volume          =    6658.9804 (a.u.)^3
     number of atoms/cell      =           53
     number of atomic types    =            5
     number of electrons       =       395.00
     number of Kohn-Sham states=          207
     kinetic-energy cutoff     =      29.3995  Ry
     charge density cutoff     =     293.9946  Ry
     scf convergence threshold =      7.3E-08
     mixing beta               =       0.0500
     number of iterations used =            8  plain     mixing
     Exchange-correlation= BEEF-VDW
                           (   1   4  43  14   2   0   0)

     celldm(1)=   1.889726  celldm(2)=   0.000000  celldm(3)=   0.000000
     celldm(4)=   0.000000  celldm(5)=   0.000000  celldm(6)=   0.000000

     crystal axes: (cart. coord. in units of alat)
               a(1) = (   6.579727   0.000000   0.000000 )
               a(2) = (  -0.000775   5.961596   0.000000 )
               a(3) = (   0.000000   0.000000  25.155947 )

     reciprocal axes: (cart. coord. in units 2 pi/alat)
               b(1) = (  0.151982  0.000020  0.000000 )
               b(2) = (  0.000000  0.167740  0.000000 )
               b(3) = (  0.000000  0.000000  0.039752 )

     PseudoPot. # 1 for Ti read from file:
     /storage/coda1/p-amedford6/0/shared/rich_project_chbe-medford/medford-share/data/pseudos_module/espresso/nninc/pbe/van/Ti.UPF
     MD5 check sum: 8e4df49b7f0d34bbd5052bf3f5ea0213
     Pseudo is Ultrasoft, Zval = 12.0
     Generated by new atomic code, or converted to UPF format
     Using radial grid of  851 points,  6 beta functions with:
                l(1) =   0
                l(2) =   0
                l(3) =   1
                l(4) =   1
                l(5) =   2
                l(6) =   2
     Q(r) pseudized with  8 coefficients,  rinner =    1.000   1.000   1.000
                                                       1.000   1.000

     PseudoPot. # 2 for O  read from file:
     /storage/coda1/p-amedford6/0/shared/rich_project_chbe-medford/medford-share/data/pseudos_module/espresso/nninc/pbe/van/O.UPF
     MD5 check sum: 78c19812648e8988a0fe644b0f25305e
     Pseudo is Ultrasoft, Zval =  6.0
     Generated by new atomic code, or converted to UPF format
     Using radial grid of  737 points,  4 beta functions with:
                l(1) =   0
                l(2) =   0
                l(3) =   1
                l(4) =   1
     Q(r) pseudized with  8 coefficients,  rinner =    0.800   0.800   0.800

     PseudoPot. # 3 for N  read from file:
     /storage/coda1/p-amedford6/0/shared/rich_project_chbe-medford/medford-share/data/pseudos_module/espresso/nninc/pbe/van/N.UPF
     MD5 check sum: 90d10febe142ad51ac9d5be1deb811c4
     Pseudo is Ultrasoft, Zval =  5.0
     Generated by new atomic code, or converted to UPF format
     Using radial grid of  729 points,  4 beta functions with:
                l(1) =   0
                l(2) =   0
                l(3) =   1
                l(4) =   1
     Q(r) pseudized with  8 coefficients,  rinner =    0.800   0.800   0.800

     PseudoPot. # 4 for C  read from file:
     /storage/coda1/p-amedford6/0/shared/rich_project_chbe-medford/medford-share/data/pseudos_module/espresso/nninc/pbe/van/C.UPF
     MD5 check sum: 1a69bf6b8db32088f5b2163dbdb77a27
     Pseudo is Ultrasoft, Zval =  4.0
     Generated by new atomic code, or converted to UPF format
     Using radial grid of  721 points,  4 beta functions with:
                l(1) =   0
                l(2) =   0
                l(3) =   1
                l(4) =   1
     Q(r) pseudized with  8 coefficients,  rinner =    0.800   0.800   0.800

     PseudoPot. # 5 for H  read from file:
     /storage/coda1/p-amedford6/0/shared/rich_project_chbe-medford/medford-share/data/pseudos_module/espresso/nninc/pbe/van/H.UPF
     MD5 check sum: b5ee9d7bfd3a09ee7748110bda690ff7
     Pseudo is Ultrasoft, Zval =  1.0
     Generated by new atomic code, or converted to UPF format
     Using radial grid of  615 points,  1 beta functions with:
                l(1) =   0
     Q(r) pseudized with  8 coefficients,  rinner =    0.800

     atomic species   valence    mass     pseudopotential
        Ti1           12.00    47.86700     Ti( 1.00)
        O1             6.00    15.99900     O ( 1.00)
        N1             5.00    14.00700     N ( 1.00)
        C1             4.00    12.01100     C ( 1.00)
        H1             1.00     1.00800     H ( 1.00)

     No symmetry found

   Cartesian axes

     site n.     atom                  positions (alat units)
         1           Ti1 tau(   1) = (   0.0004258   2.9801865   6.0000000  )
         2           Ti1 tau(   2) = (   3.2906075   1.4906267   6.0002472  )
         3           O1  tau(   3) = (   0.0006271   0.0005054   7.9858123  )
         4           O1  tau(   4) = (   3.2906025   0.0005020   7.3038282  )
         5           O1  tau(   5) = (   4.5942328   1.4918067   9.2879030  )
         6           O1  tau(   6) = (   1.9868534   1.4903216   9.2879459  )
         7           Ti1 tau(   7) = (   3.2907910   2.8959150   9.1758416  )
         8           Ti1 tau(   8) = (   0.0015273   1.4827037   9.2680791  )
         9           O1  tau(   9) = (   3.3037365   0.0094216  11.3222111  )
        10           O1  tau(  10) = (   0.0116148   5.9584955  10.6183126  )
        11           O1  tau(  11) = (   1.3152514   1.5075076  12.6320051  )
        12           O1  tau(  12) = (   5.3186361   1.4995162  12.6508707  )
        13           Ti1 tau(  13) = (   6.5540705   2.9956815  12.5884341  )
        14           Ti1 tau(  14) = (   3.2234832   1.4927074  12.4921739  )
        15           O1  tau(  15) = (   0.0610261   5.9052480  14.6017706  )
        16           O1  tau(  16) = (   3.2936532   0.0132264  13.8830087  )
        17           O1  tau(  17) = (   4.5722397   1.5061520  16.0138922  )
        18           O1  tau(  18) = (   2.0767725   1.5295127  16.0808449  )
        19           Ti1 tau(  19) = (   3.3650854   3.0251465  15.6907462  )
        20           Ti1 tau(  20) = (   0.0387768   1.3037779  15.7216176  )
        21           O1  tau(  21) = (   3.2904802   0.0005063   4.7018136  )
        22           O1  tau(  22) = (   0.0189486   0.1070799  17.1824039  )
        23           O1  tau(  23) = (   1.3043587   1.4918075   6.0039043  )
        24           O1  tau(  24) = (   5.2767064   1.4903225   6.0039473  )
        25           Ti1 tau(  25) = (   0.0000382   5.9609847   6.0000000  )
        26           Ti1 tau(  26) = (   3.2902200   4.4714249   6.0002472  )
        27           O1  tau(  27) = (   0.0002396   2.9813036   7.9858123  )
        28           O1  tau(  28) = (   3.2902150   2.9813002   7.3038282  )
        29           O1  tau(  29) = (   4.5938453   4.4726049   9.2879030  )
        30           O1  tau(  30) = (   1.9864658   4.4711199   9.2879459  )
        31           Ti1 tau(  31) = (   3.2891106   5.8743827   9.1763621  )
        32           Ti1 tau(  32) = (   0.0006254   4.4649316   9.2693709  )
        33           O1  tau(  33) = (   3.3043114   2.9829305  11.3227053  )
        34           O1  tau(  34) = (   0.0092240   2.9805883  10.6323155  )
        35           O1  tau(  35) = (   1.3131995   4.4620516  12.6081187  )
        36           O1  tau(  36) = (   5.3117129   4.4692194  12.6284301  )
        37           Ti1 tau(  37) = (   6.5303063   5.9583428  12.5400172  )
        38           Ti1 tau(  38) = (   3.2255477   4.4746212  12.4748647  )
        39           O1  tau(  39) = (   0.0377805   3.0059521  14.8845374  )
        40           O1  tau(  40) = (   3.3120027   2.9986483  13.8863452  )
        41           O1  tau(  41) = (   4.5434534   4.5277214  16.0148975  )
        42           O1  tau(  42) = (   2.1165747   4.4940517  16.0783766  )
        43           Ti1 tau(  43) = (   3.3042555   0.0241951  15.7004812  )
        44           Ti1 tau(  44) = (   0.0495666   4.4505358  16.3362958  )
        45           O1  tau(  45) = (   3.2900926   2.9813045   4.7018136  )
        46           O1  tau(  46) = (   1.3039711   4.4726057   6.0039043  )
        47           O1  tau(  47) = (   5.2763189   4.4711207   6.0039473  )
        48           N1  tau(  48) = (   0.5348212   3.4288502  18.0689430  )
        49           C1  tau(  49) = (   1.3556880   3.0079929  19.2215664  )
        50           H1  tau(  50) = (   1.4862090   3.8900195  19.8596782  )
        51           H1  tau(  51) = (   0.8469181   2.2141957  19.7647163  )
        52           H1  tau(  52) = (   2.3296892   2.6851793  18.8624704  )
        53           N1  tau(  53) = (   5.9145885   3.2636146  17.9655992  )

     number of k points=    10  Fermi-Dirac smearing, width (Ry)=  0.0073
                       cart. coord. in units 2pi/alat
        k(    1) = (   0.0000000   0.0000000   0.0000000), wk =   0.1250000
        k(    2) = (   0.0000000   0.0419351   0.0000000), wk =   0.2500000
        k(    3) = (   0.0000000  -0.0838702   0.0000000), wk =   0.1250000
        k(    4) = (   0.0379955   0.0000049   0.0000000), wk =   0.2500000
        k(    5) = (   0.0379955   0.0419400   0.0000000), wk =   0.2500000
        k(    6) = (   0.0379955  -0.0838652   0.0000000), wk =   0.2500000
        k(    7) = (   0.0379955  -0.0419301   0.0000000), wk =   0.2500000
        k(    8) = (  -0.0759910  -0.0000099   0.0000000), wk =   0.1250000
        k(    9) = (  -0.0759910   0.0419252   0.0000000), wk =   0.2500000
        k(   10) = (  -0.0759910  -0.0838800   0.0000000), wk =   0.1250000

     Initial potential from superposition of free atoms

     starting charge  378.99916, renormalised to  395.00000

     negative rho (up, down):  1.609E-02 0.000E+00

     %%%%%%%%%%%%%%%%%%%%%%%%%%%%%%%%%%%%%%%%%%%%%%%%%%%%%%%%%%%%%%%%%%%%%%%%
     %                                                                      %
     % You are using vdW-DF, which was implemented by the Thonhauser group. %
     % Please cite the following two papers that made this development      %
     % possible and the two reviews that describe the various versions:     %
     %                                                                      %
     %   T. Thonhauser et al., PRL 115, 136402 (2015).                      %
     %   T. Thonhauser et al., PRB 76, 125112 (2007).                       %
     %   K. Berland et al., Rep. Prog. Phys. 78, 066501 (2015).             %
     %   D.C. Langreth et al., J. Phys.: Condens. Matter 21, 084203 (2009). %
     %                                                                      %
     %                                                                      %
     % If you are calculating the stress with vdW-DF, please also cite:     %
     %                                                                      %
     %   R. Sabatini et al., J. Phys.: Condens. Matter 24, 424209 (2012).   %
     %                                                                      %
     %%%%%%%%%%%%%%%%%%%%%%%%%%%%%%%%%%%%%%%%%%%%%%%%%%%%%%%%%%%%%%%%%%%%%%%%

     Adding external electric field

     Computed dipole along edir(3) :
        Dipole               -8.5794 Ry au,        -21.8067 Debye
        Dipole field         -0.0162 Ry au,

        Potential amp.        1.5008 Ry
        Total length         46.3494 bohr

     Starting wfcs are  299 atomic wfcs
  @ DRIVER MODE: Message from server: STATUS
  @ DRIVER MODE: Message from server: POSDATA
  @ DRIVER MODE: Reading and sharing cell
  @ DRIVER MODE: Reading and sharing positions
  @ DRIVER MODE: Received positions

     Self-consistent Calculation

     iteration #  1     ecut=    29.40 Ry     beta= 0.05
     Davidson diagonalization with overlap
     c_bands:  1 eigenvalues not converged
     c_bands:  2 eigenvalues not converged
     c_bands:  1 eigenvalues not converged
     c_bands:  3 eigenvalues not converged
     c_bands:  1 eigenvalues not converged
     c_bands:  2 eigenvalues not converged
     c_bands:  2 eigenvalues not converged
     c_bands:  2 eigenvalues not converged
     ethr =  1.00E-05,  avg # of iterations = 19.2

[...]

     total energy              =   -2599.36708022 Ry
     estimated scf accuracy    <    3763.65020445 Ry

     iteration #  2     ecut=    29.40 Ry     beta= 0.05
     Davidson diagonalization with overlap
     ethr =  1.00E-02,  avg # of iterations = 22.8

[...]

     iteration # 61     ecut=    29.40 Ry     beta= 0.05
     Davidson diagonalization with overlap
     c_bands:  1 eigenvalues not converged
     ethr =  5.09E-11,  avg # of iterations = 16.8

[...]

     total energy              =   -2939.12536631 Ry
     estimated scf accuracy    <       0.00000009 Ry

     iteration # 63     ecut=    29.40 Ry     beta= 0.05
     Davidson diagonalization with overlap
     ethr =  2.20E-11,  avg # of iterations =  9.6

     negative rho (up, down):  1.616E-02 0.000E+00

     Adding external electric field

     Computed dipole along edir(3) :
        Dipole                0.9121 Ry au,          2.3184 Debye
        Dipole field          0.0017 Ry au,

        Potential amp.       -0.1596 Ry
        Total length         46.3494 bohr

     End of self-consistent calculation

          k = 0.0000 0.0000 0.0000 ( 18029 PWs)   bands (ev):

   -55.7756 -55.7696 -55.7416 -55.7336 -55.6831 -55.6349 -55.5963 -55.5623
   -55.5552 -55.5215 -55.5193 -55.4462 -54.9561 -54.8074 -54.7557 -54.7216
   -32.3184 -32.2596 -32.1745 -32.0957 -32.0678 -32.0560 -32.0471 -32.0209
   -32.0055 -31.9699 -31.9399 -31.9278 -31.9215 -31.9046 -31.8826 -31.8815
   -31.8785 -31.8780 -31.8649 -31.8349 -31.8327 -31.8214 -31.8001 -31.7917
   -31.7886 -31.7821 -31.7809 -31.7552 -31.7408 -31.7360 -31.7254 -31.7103
   -31.7066 -31.6690 -31.6359 -31.5636 -31.4924 -31.3380 -31.1673 -31.1626
   -31.1054 -31.0746 -31.0663 -31.0522 -30.9796 -30.9135 -30.8931 -30.7818
   -19.4386 -16.5170 -16.2522 -15.9669 -15.9152 -15.8408 -15.7475 -15.6244
   -15.5289 -15.4102 -15.3715 -15.3152 -15.3078 -15.2635 -15.2365 -15.2325
   -15.2063 -15.1980 -15.1338 -15.1264 -15.0758 -15.0642 -15.0163 -14.9812
   -14.9698 -14.9146 -14.8457 -14.8045 -14.6854 -14.1598 -13.2571 -13.1406
   -12.2977  -7.2605  -4.9352  -4.7669  -3.8994  -3.7569  -3.7042  -3.6849
    -3.6404  -3.4399  -3.3524  -3.2837  -3.0439  -2.9525  -2.9280  -2.9173
    -2.8682  -2.7105  -2.6617  -2.6041  -2.5884  -2.5620  -2.5400  -2.5318
    -2.4964  -2.4863  -2.4561  -2.4238  -2.3260  -2.2128  -2.1835  -2.1057
    -2.0902  -2.0745  -2.0443  -2.0345  -2.0248  -2.0150  -1.9963  -1.9590
    -1.8944  -1.8516  -1.7865  -1.7022  -1.5606  -1.5387  -1.4606  -1.3848
    -1.3051  -1.2626  -1.2408  -1.2123  -1.1726  -1.0927  -1.0668  -0.9207
    -0.8237  -0.7906  -0.7735  -0.7311  -0.6950  -0.5928  -0.5711  -0.5420
    -0.5330  -0.5053  -0.4314  -0.3751  -0.2432  -0.2125  -0.2085  -0.1708
    -0.1001  -0.0463   0.0073   0.0564   0.0642   0.1000   0.1601   0.1853
     0.1901   0.2329   0.2751   0.3502   0.3762   0.4502   0.4543   0.5184
     0.5622   0.6440   0.7515   0.8737   1.0171   1.1542   1.1986   1.2677
     1.3631   1.4595   1.8378   1.8834   2.1430   3.3377   3.4449   3.4685
     3.4806   3.5874   3.7959   3.8185   3.8675   3.8879   3.8964

[...]

          k = 0.0380-0.0419 0.0000 ( 17876 PWs)   bands (ev):

[...]

          k =-0.0760-0.0000 0.0000 ( 17886 PWs)   bands (ev):

[...]

          k =-0.0760-0.0839 0.0000 ( 17948 PWs)   bands (ev):

   -55.7586 -55.7585 -55.7522 -55.7507 -55.6759 -55.6421 -55.5792 -55.5789
   -55.5386 -55.5382 -55.5149 -55.4505 -54.9547 -54.8086 -54.7386 -54.7386
   -32.1220 -32.1184 -32.0750 -32.0749 -32.0533 -32.0531 -32.0194 -32.0046
   -31.9983 -31.9897 -31.9208 -31.9156 -31.9049 -31.8985 -31.8819 -31.8796
   -31.8791 -31.8777 -31.8774 -31.8721 -31.8539 -31.8512 -31.8499 -31.8134
   -31.7840 -31.7823 -31.7807 -31.7681 -31.7678 -31.7586 -31.7578 -31.7558
   -31.7545 -31.7361 -31.7116 -31.6605 -31.4396 -31.3203 -31.1692 -31.1590
   -31.0838 -31.0649 -31.0649 -30.9754 -30.9753 -30.9364 -30.9364 -30.9164
   -19.4365 -15.9175 -15.9113 -15.7500 -15.7155 -15.6496 -15.6408 -15.5732
   -15.5061 -15.4613 -15.4562 -15.3412 -15.3391 -15.3245 -15.3029 -15.2486
   -15.2324 -15.2310 -15.2276 -15.2198 -15.2080 -15.1805 -15.1499 -15.0992
   -15.0941 -15.0734 -15.0632 -14.9417 -14.5317 -14.4700 -13.2425 -13.2423
   -12.3003  -7.2473  -4.9371  -4.7640  -3.6290  -3.2067  -3.1903  -3.0026
    -2.9191  -2.9079  -2.8926  -2.7405  -2.7286  -2.7111  -2.6536  -2.6464
    -2.6368  -2.6002  -2.5841  -2.5602  -2.5194  -2.5145  -2.4662  -2.4632
    -2.4485  -2.4254  -2.4081  -2.4022  -2.3893  -2.3738  -2.3370  -2.2803
    -2.2424  -2.2153  -2.1870  -2.0905  -2.0299  -1.9941  -1.9269  -1.9183
    -1.8674  -1.8426  -1.8281  -1.7614  -1.6913  -1.6617  -1.5776  -1.4860
    -1.4676  -1.4522  -1.3336  -1.3196  -1.2449  -1.2211  -1.1373  -1.1202
    -1.0806  -0.9699  -0.9466  -0.9153  -0.8807  -0.8367  -0.7731  -0.7362
    -0.7342  -0.6855  -0.6414  -0.5853  -0.5240  -0.5121  -0.4968  -0.4880
    -0.4244  -0.3907  -0.3688  -0.2865  -0.2713  -0.1896  -0.0458  -0.0129
     0.1446   0.1937   0.3026   0.3301   0.4210   0.4427   0.5367   0.5398
     0.5729   0.7019   0.7207   0.7383   0.7544   0.7743   0.7982   0.9372
     1.6320   1.6321   1.7035   1.7035   2.0808   3.6709   3.7079   3.7581
     3.7799   3.8839   3.8889   3.8916   3.8993   4.0205   4.0251

     the Fermi energy is     3.3513 ev

!    total energy              =   -2939.12540787 Ry
     estimated scf accuracy    <       0.00000005 Ry
     smearing contrib. (-TS)   =      -0.02052397 Ry
     internal energy E=F+TS    =   -2939.10488390 Ry

     The total energy is F=E-TS. E is the sum of the following terms:
     one-electron contribution =  -24212.92420259 Ry
     hartree contribution      =   12195.19796631 Ry
     xc contribution           =    -485.19488717 Ry
     ewald contribution        =    9563.81466954 Ry
     electric field correction =       0.00157000 Ry

     convergence has been achieved in  63 iterations

     Forces acting on atoms (cartesian axes, Ry/au):

     atom    1 type  1   force =     0.00011388   -0.00020048    0.09589065
     atom    2 type  1   force =     0.00006310   -0.00061324   -0.17547891
     atom    3 type  2   force =     0.00017746   -0.00019294   -0.02304580
     atom    4 type  2   force =     0.00004035   -0.00128265    0.05261409
     atom    5 type  2   force =    -0.00977727   -0.00031394    0.00253572
     atom    6 type  2   force =     0.01166268    0.00022714    0.00291575
     atom    7 type  1   force =     0.00088468    0.00001921   -0.00991248
     atom    8 type  1   force =    -0.00000148    0.00531593    0.01819151
     atom    9 type  2   force =    -0.00001542   -0.00028975   -0.00010542
     atom   10 type  2   force =    -0.00253759    0.00216477   -0.01349168
     atom   11 type  2   force =    -0.00098486    0.00011562    0.00017231
     atom   12 type  2   force =     0.00040149   -0.00024775    0.00048680
     atom   13 type  1   force =     0.00011505   -0.00008639    0.00051751
     atom   14 type  1   force =    -0.00004756   -0.00016191   -0.00017160
     atom   15 type  2   force =    -0.00059460    0.00023776    0.00044411
     atom   16 type  2   force =    -0.00043426    0.00007675    0.00019776
     atom   17 type  2   force =    -0.00016387   -0.00008912   -0.00034064
     atom   18 type  2   force =     0.00029599    0.00022365    0.00005569
     atom   19 type  1   force =    -0.00061750   -0.00057756    0.00070139
     atom   20 type  1   force =    -0.00028219    0.00038786   -0.00073815
     atom   21 type  2   force =     0.00007315   -0.00006200    0.10322750
     atom   22 type  2   force =     0.00007577   -0.00008586   -0.00044930
     atom   23 type  2   force =    -0.07154489   -0.00019085   -0.02753224
     atom   24 type  2   force =     0.07152002    0.00030828   -0.02758897
     atom   25 type  1   force =     0.00013256   -0.00028876    0.09521193
     atom   26 type  1   force =     0.00008751   -0.00046963   -0.17562820
     atom   27 type  2   force =     0.00015909   -0.00012052   -0.02178803
     atom   28 type  2   force =     0.00008154   -0.00106398    0.05248865
     atom   29 type  2   force =    -0.01015729    0.00023436    0.00291400
     atom   30 type  2   force =     0.01197551    0.00051996    0.00328874
     atom   31 type  1   force =     0.00088556    0.00415706   -0.01179053
     atom   32 type  1   force =     0.00011938   -0.00633775    0.01832321
     atom   33 type  2   force =     0.00016374    0.00041874   -0.00010302
     atom   34 type  2   force =    -0.00308303   -0.00010322   -0.00866932
     atom   35 type  2   force =    -0.00021876    0.00005984    0.00000531
     atom   36 type  2   force =    -0.00002682    0.00027519   -0.00006669
     atom   37 type  1   force =     0.00046617   -0.00093915    0.00017740
     atom   38 type  1   force =    -0.00032937    0.00007508    0.00031719
     atom   39 type  2   force =     0.00011429   -0.00026890    0.00053102
     atom   40 type  2   force =    -0.00008403    0.00026730    0.00016167
     atom   41 type  2   force =     0.00004337   -0.00014795   -0.00018351
     atom   42 type  2   force =    -0.00045368    0.00014037   -0.00043284
     atom   43 type  1   force =     0.00022081    0.00050348    0.00010566
     atom   44 type  1   force =    -0.00013505   -0.00085855   -0.00096617
     atom   45 type  2   force =     0.00007855   -0.00006261    0.10317333
     atom   46 type  2   force =    -0.07155364   -0.00009826   -0.02752191
     atom   47 type  2   force =     0.07153721    0.00025551   -0.02758688
     atom   48 type  3   force =     0.00097189    0.00001595    0.00143835
     atom   49 type  4   force =     0.00086880    0.00459653    0.00411634
     atom   50 type  5   force =    -0.00047625   -0.00462278   -0.00534710
     atom   51 type  5   force =    -0.00090017   -0.00074587   -0.00050574
     atom   52 type  5   force =     0.00027007   -0.00050318   -0.00044151
     atom   53 type  3   force =     0.00081992    0.00042919   -0.00031696

     Total force =     0.364867     Total SCF correction =     0.000436
  @ DRIVER MODE: Message from server: STATUS
  @ DRIVER MODE: Message from server: GETFORCE
  @ DRIVER MODE: Returning v,forces,stress,ensemble

     Writing output data file ./calc.save/
  @ DRIVER MODE: Message from server: EXIT
  @ DRIVE MODE: Exiting

     General routines

     Parallel routines

   This run was terminated on:  18:10:18   2Aug2021

   JOB DONE.