     Program PWSCF v.6.7GPU starts on 28Sep2021 at  1: 6:52

     R & G space division:  proc/nbgrp/npool/nimage =       8
     Reading input from /storage/home/hcoda1/3/ntian30/research/carbon/CxH_vib/H2O_calc/ads_slab/CHNHO_a/out_0008/pw.inp
Warning: card &CELL ignored
Warning: card   CELL_DYNAMICS='IPI', ignored
Warning: card / ignored

     Current dimensions of program PWSCF are:
     Max number of different atomic species (ntypx) = 10
     Max number of k-points (npk) =  40000
     Max angular momentum in pseudopotentials (lmaxx) =  3
     Presently no symmetry can be used with electric field

     Message from routine cell_base_init:
     DEPRECATED: use true lattice parameter, not A to a.u. conversion factor

     IMPORTANT: XC functional enforced from input :
     Exchange-correlation= BEEF-VDW
                           (   1   4  43  14   2   0   0)
     Any further DFT definition will be discarded
     Please, verify this is what you really want

  @ DRIVER MODE: Connecting to
 qe_1139763_3003541.sched-torque.pace.gatech.eduvb4g2gyo_scratch
  using UNIX socket
  @ DRIVER MODE: Message from server: STATUS
  @ DRIVER MODE: Message from server: INIT
  @ DRIVER MODE: Receiving replica           0          -1
  @ DRIVER MODE: Receiving encoded integer          25
  @ DRIVER MODE:  SCF:  T  FORCE:  T  STRESS:  F  VC:  F  ENSEMBLE:  F
  @ DRIVER MODE:  SCF:  T  FORCE:  T  STRESS:  F  VC:  F  ENSEMBLE:  F

     Using Slab Decomposition

     bravais-lattice index     =            0
     lattice parameter (alat)  =       1.8897  a.u.
     unit-cell volume          =    6658.9804 (a.u.)^3
     number of atoms/cell      =           52
     number of atomic types    =            5
     number of electrons       =       395.00
     number of Kohn-Sham states=          207
     kinetic-energy cutoff     =      29.3995  Ry
     charge density cutoff     =     293.9946  Ry
     scf convergence threshold =      7.3E-08
     mixing beta               =       0.0500
     number of iterations used =            8  plain     mixing
     Exchange-correlation= BEEF-VDW
                           (   1   4  43  14   2   0   0)

     celldm(1)=   1.889726  celldm(2)=   0.000000  celldm(3)=   0.000000
     celldm(4)=   0.000000  celldm(5)=   0.000000  celldm(6)=   0.000000

     crystal axes: (cart. coord. in units of alat)
               a(1) = (   6.579727   0.000000   0.000000 )
               a(2) = (  -0.000775   5.961596   0.000000 )
               a(3) = (   0.000000   0.000000  25.155947 )

     reciprocal axes: (cart. coord. in units 2 pi/alat)
               b(1) = (  0.151982  0.000020  0.000000 )
               b(2) = (  0.000000  0.167740  0.000000 )
               b(3) = (  0.000000  0.000000  0.039752 )

     PseudoPot. # 1 for Ti read from file:
     /storage/coda1/p-amedford6/0/shared/rich_project_chbe-medford/medford-share/data/pseudos_module/espresso/nninc/pbe/van/Ti.UPF
     MD5 check sum: 8e4df49b7f0d34bbd5052bf3f5ea0213
     Pseudo is Ultrasoft, Zval = 12.0
     Generated by new atomic code, or converted to UPF format
     Using radial grid of  851 points,  6 beta functions with:
                l(1) =   0
                l(2) =   0
                l(3) =   1
                l(4) =   1
                l(5) =   2
                l(6) =   2
     Q(r) pseudized with  8 coefficients,  rinner =    1.000   1.000   1.000
                                                       1.000   1.000

     PseudoPot. # 2 for O  read from file:
     /storage/coda1/p-amedford6/0/shared/rich_project_chbe-medford/medford-share/data/pseudos_module/espresso/nninc/pbe/van/O.UPF
     MD5 check sum: 78c19812648e8988a0fe644b0f25305e
     Pseudo is Ultrasoft, Zval =  6.0
     Generated by new atomic code, or converted to UPF format
     Using radial grid of  737 points,  4 beta functions with:
                l(1) =   0
                l(2) =   0
                l(3) =   1
                l(4) =   1
     Q(r) pseudized with  8 coefficients,  rinner =    0.800   0.800   0.800

     PseudoPot. # 3 for N  read from file:
     /storage/coda1/p-amedford6/0/shared/rich_project_chbe-medford/medford-share/data/pseudos_module/espresso/nninc/pbe/van/N.UPF
     MD5 check sum: 90d10febe142ad51ac9d5be1deb811c4
     Pseudo is Ultrasoft, Zval =  5.0
     Generated by new atomic code, or converted to UPF format
     Using radial grid of  729 points,  4 beta functions with:
                l(1) =   0
                l(2) =   0
                l(3) =   1
                l(4) =   1
     Q(r) pseudized with  8 coefficients,  rinner =    0.800   0.800   0.800

     PseudoPot. # 4 for C  read from file:
     /storage/coda1/p-amedford6/0/shared/rich_project_chbe-medford/medford-share/data/pseudos_module/espresso/nninc/pbe/van/C.UPF
     MD5 check sum: 1a69bf6b8db32088f5b2163dbdb77a27
     Pseudo is Ultrasoft, Zval =  4.0
     Generated by new atomic code, or converted to UPF format
     Using radial grid of  721 points,  4 beta functions with:
                l(1) =   0
                l(2) =   0
                l(3) =   1
                l(4) =   1
     Q(r) pseudized with  8 coefficients,  rinner =    0.800   0.800   0.800

     PseudoPot. # 5 for H  read from file:
     /storage/coda1/p-amedford6/0/shared/rich_project_chbe-medford/medford-share/data/pseudos_module/espresso/nninc/pbe/van/H.UPF
     MD5 check sum: b5ee9d7bfd3a09ee7748110bda690ff7
     Pseudo is Ultrasoft, Zval =  1.0
     Generated by new atomic code, or converted to UPF format
     Using radial grid of  615 points,  1 beta functions with:
                l(1) =   0
     Q(r) pseudized with  8 coefficients,  rinner =    0.800

     atomic species   valence    mass     pseudopotential
        Ti1           12.00    47.86700     Ti( 1.00)
        O1             6.00    15.99900     O ( 1.00)
        N1             5.00    14.00700     N ( 1.00)
        C1             4.00    12.01100     C ( 1.00)
        H1             1.00     1.00800     H ( 1.00)

     No symmetry found

   Cartesian axes

     site n.     atom                  positions (alat units)
         1           Ti1 tau(   1) = (   0.0004258   2.9801865   6.0000000  )
         2           Ti1 tau(   2) = (   3.2906075   1.4906267   6.0002472  )
         3           O1  tau(   3) = (   0.0006271   0.0005054   7.9858123  )
         4           O1  tau(   4) = (   3.2906025   0.0005020   7.3038282  )
         5           O1  tau(   5) = (   4.5942328   1.4918067   9.2879030  )
         6           O1  tau(   6) = (   1.9868534   1.4903216   9.2879459  )
         7           Ti1 tau(   7) = (   3.2907910   2.8959150   9.1758416  )
         8           Ti1 tau(   8) = (   0.0015273   1.4827037   9.2680791  )
         9           O1  tau(   9) = (   3.2959632   0.0395795  11.3506057  )
        10           O1  tau(  10) = (   0.0116148   5.9584955  10.6183126  )
        11           O1  tau(  11) = (   1.2788542   1.5152540  12.6826201  )
        12           O1  tau(  12) = (   5.3118026   1.5181145  12.6771052  )
        13           Ti1 tau(  13) = (   6.5565567   2.9614743  12.5245697  )
        14           Ti1 tau(  14) = (   3.2956814   1.5864178  12.4516600  )
        15           O1  tau(  15) = (   0.0252471   5.9065102  14.6673769  )
        16           O1  tau(  16) = (   3.3061784   5.9134112  13.9760755  )
        17           O1  tau(  17) = (   4.5493393   1.5513651  16.1111979  )
        18           O1  tau(  18) = (   2.0154464   1.5530992  16.0877549  )
        19           Ti1 tau(  19) = (   3.2773477   2.9896638  15.7021987  )
        20           Ti1 tau(  20) = (   0.0480268   1.3694702  15.7882682  )
        21           O1  tau(  21) = (   3.2904802   0.0005063   4.7018136  )
        22           O1  tau(  22) = (   6.5727385   0.1062933  17.1740559  )
        23           O1  tau(  23) = (   1.3043587   1.4918075   6.0039043  )
        24           O1  tau(  24) = (   5.2767064   1.4903225   6.0039473  )
        25           Ti1 tau(  25) = (   0.0000382   5.9609847   6.0000000  )
        26           Ti1 tau(  26) = (   3.2902200   4.4714249   6.0002472  )
        27           O1  tau(  27) = (   0.0002396   2.9813036   7.9858123  )
        28           O1  tau(  28) = (   3.2902150   2.9813002   7.3038282  )
        29           O1  tau(  29) = (   4.5938453   4.4726049   9.2879030  )
        30           O1  tau(  30) = (   1.9864658   4.4711199   9.2879459  )
        31           Ti1 tau(  31) = (   3.2891106   5.8743827   9.1763621  )
        32           Ti1 tau(  32) = (   0.0006254   4.4649316   9.2693709  )
        33           O1  tau(  33) = (   3.2965180   2.9598593  11.3174316  )
        34           O1  tau(  34) = (   0.0092240   2.9805883  10.6323155  )
        35           O1  tau(  35) = (   1.2824442   4.4846720  12.6503842  )
        36           O1  tau(  36) = (   5.3188658   4.4853930  12.6478368  )
        37           Ti1 tau(  37) = (   0.0485215   5.9261111  12.5025588  )
        38           Ti1 tau(  38) = (   3.3111372   4.6778342  12.7091208  )
        39           O1  tau(  39) = (   6.5585416   3.0335453  14.9077256  )
        40           O1  tau(  40) = (   3.2962521   3.0064119  13.9315977  )
        41           O1  tau(  41) = (   4.5433468   4.4479239  16.1972702  )
        42           O1  tau(  42) = (   2.0131479   4.4365031  16.1967174  )
        43           Ti1 tau(  43) = (   3.3705753   0.0290894  16.3529554  )
        44           Ti1 tau(  44) = (   0.0540424   4.5922997  16.0496824  )
        45           O1  tau(  45) = (   3.2900926   2.9813045   4.7018136  )
        46           O1  tau(  46) = (   1.3039711   4.4726057   6.0039043  )
        47           O1  tau(  47) = (   5.2763189   4.4711207   6.0039473  )
        48           N1  tau(  48) = (   6.5754701   3.2032128  17.9785674  )
        49           C1  tau(  49) = (   6.5568619   2.3444050  18.7439128  )
        50           H1  tau(  50) = (   6.5191205   1.5204410  19.4189644  )
        51           O1  tau(  51) = (   3.3183073   0.1146119  18.2142577  )
        52           H1  tau(  52) = (   3.2686675   5.2273609  18.6755658  )

     number of k points=    10  Fermi-Dirac smearing, width (Ry)=  0.0073
                       cart. coord. in units 2pi/alat
        k(    1) = (   0.0000000   0.0000000   0.0000000), wk =   0.1250000
        k(    2) = (   0.0000000   0.0419351   0.0000000), wk =   0.2500000
        k(    3) = (   0.0000000  -0.0838702   0.0000000), wk =   0.1250000
        k(    4) = (   0.0379955   0.0000049   0.0000000), wk =   0.2500000
        k(    5) = (   0.0379955   0.0419400   0.0000000), wk =   0.2500000
        k(    6) = (   0.0379955  -0.0838652   0.0000000), wk =   0.2500000
        k(    7) = (   0.0379955  -0.0419301   0.0000000), wk =   0.2500000
        k(    8) = (  -0.0759910  -0.0000099   0.0000000), wk =   0.1250000
        k(    9) = (  -0.0759910   0.0419252   0.0000000), wk =   0.2500000
        k(   10) = (  -0.0759910  -0.0838800   0.0000000), wk =   0.1250000

     Initial potential from superposition of free atoms

     starting charge  378.99918, renormalised to  395.00000

     negative rho (up, down):  1.718E-02 0.000E+00

     %%%%%%%%%%%%%%%%%%%%%%%%%%%%%%%%%%%%%%%%%%%%%%%%%%%%%%%%%%%%%%%%%%%%%%%%
     %                                                                      %
     % You are using vdW-DF, which was implemented by the Thonhauser group. %
     % Please cite the following two papers that made this development      %
     % possible and the two reviews that describe the various versions:     %
     %                                                                      %
     %   T. Thonhauser et al., PRL 115, 136402 (2015).                      %
     %   T. Thonhauser et al., PRB 76, 125112 (2007).                       %
     %   K. Berland et al., Rep. Prog. Phys. 78, 066501 (2015).             %
     %   D.C. Langreth et al., J. Phys.: Condens. Matter 21, 084203 (2009). %
     %                                                                      %
     %                                                                      %
     % If you are calculating the stress with vdW-DF, please also cite:     %
     %                                                                      %
     %   R. Sabatini et al., J. Phys.: Condens. Matter 24, 424209 (2012).   %
     %                                                                      %
     %%%%%%%%%%%%%%%%%%%%%%%%%%%%%%%%%%%%%%%%%%%%%%%%%%%%%%%%%%%%%%%%%%%%%%%%

     Adding external electric field

     Computed dipole along edir(3) :
        Dipole               -8.1496 Ry au,        -20.7143 Debye
        Dipole field         -0.0154 Ry au,

        Potential amp.        1.4257 Ry
        Total length         46.3494 bohr

     Starting wfcs are  298 atomic wfcs
  @ DRIVER MODE: Message from server: STATUS
  @ DRIVER MODE: Message from server: POSDATA
  @ DRIVER MODE: Reading and sharing cell
  @ DRIVER MODE: Reading and sharing positions
  @ DRIVER MODE: Received positions

     Self-consistent Calculation

     iteration #  1     ecut=    29.40 Ry     beta= 0.05
     Davidson diagonalization with overlap
     c_bands:  1 eigenvalues not converged
     c_bands:  2 eigenvalues not converged
     c_bands:  2 eigenvalues not converged
     c_bands:  3 eigenvalues not converged
     c_bands:  3 eigenvalues not converged
     c_bands:  1 eigenvalues not converged
     c_bands:  1 eigenvalues not converged
     ethr =  1.00E-05,  avg # of iterations = 19.3

[...]

     total energy              =   -2615.12063701 Ry
     estimated scf accuracy    <    3704.54141248 Ry

[...]

     iteration #  3     ecut=    29.40 Ry     beta= 0.05
     Davidson diagonalization with overlap
     ethr =  1.00E-02,  avg # of iterations = 14.2

[...]

     iteration # 44     ecut=    29.40 Ry     beta= 0.05
     Davidson diagonalization with overlap
     c_bands:  1 eigenvalues not converged
     c_bands:  1 eigenvalues not converged
     ethr =  1.85E-06,  avg # of iterations = 17.3

[...]

     total energy              =   -2950.24121265 Ry
     estimated scf accuracy    <       0.00000011 Ry

     iteration # 82     ecut=    29.40 Ry     beta= 0.05
     Davidson diagonalization with overlap
     ethr =  2.69E-11,  avg # of iterations =  8.4

     negative rho (up, down):  1.737E-02 0.000E+00

     Adding external electric field

     Computed dipole along edir(3) :
        Dipole                1.2364 Ry au,          3.1425 Debye
        Dipole field          0.0023 Ry au,

        Potential amp.       -0.2163 Ry
        Total length         46.3494 bohr

     End of self-consistent calculation

          k = 0.0000 0.0000 0.0000 ( 18029 PWs)   bands (ev):

   -55.6682 -55.6172 -55.5831 -55.4460 -55.4419 -55.4411 -55.4093 -55.4088
   -55.4087 -55.3687 -55.3254 -55.2878 -55.2060 -55.0973 -54.5804 -54.5464
   -32.1008 -32.0167 -32.0127 -31.9458 -31.9334 -31.9083 -31.8909 -31.8812
   -31.8630 -31.8554 -31.8192 -31.7697 -31.7293 -31.7228 -31.7147 -31.7081
   -31.6975 -31.6911 -31.6748 -31.6535 -31.6495 -31.6407 -31.6381 -31.6211
   -31.6180 -31.5907 -31.5902 -31.5866 -31.5701 -31.5657 -31.5580 -31.5433
   -31.5414 -31.5216 -31.4898 -31.4790 -31.4758 -31.4192 -31.3995 -31.3488
   -31.3167 -31.3078 -30.9857 -30.9010 -30.8785 -30.8035 -30.7172 -30.6052
   -17.2638 -16.5948 -16.2427 -16.0793 -15.8603 -15.7800 -15.7484 -15.5621
   -15.4504 -15.4020 -15.1912 -15.1486 -15.1315 -15.1143 -15.0906 -15.0863
   -15.0714 -15.0320 -15.0320 -15.0149 -14.9956 -14.9612 -14.9445 -14.8955
   -14.8162 -14.8090 -14.7468 -14.6724 -14.6262 -14.3543 -14.3327 -13.0786
   -12.9625  -8.7356  -4.4749  -4.1509  -3.5981  -3.5148  -3.4865  -3.4409
    -3.3678  -3.2706  -3.0989  -3.0916  -2.9785  -2.9215  -2.8146  -2.7157
    -2.6452  -2.5990  -2.5413  -2.5083  -2.4712  -2.4280  -2.3916  -2.3515
    -2.3250  -2.3159  -2.2570  -2.2283  -2.1307  -2.1240  -2.0862  -1.9935
    -1.9758  -1.9289  -1.9213  -1.9177  -1.8638  -1.8488  -1.8324  -1.7978
    -1.6774  -1.6531  -1.6470  -1.5880  -1.5238  -1.2130  -1.2033  -1.1440
    -1.0679  -1.0366  -1.0103  -0.9923  -0.9312  -0.8930  -0.8788  -0.8609
    -0.7875  -0.6929  -0.6603  -0.6120  -0.4588  -0.4520  -0.3978  -0.3785
    -0.3516  -0.3125  -0.2599  -0.1909  -0.1637  -0.1405  -0.0096   0.0117
     0.0592   0.0732   0.1179   0.1664   0.2008   0.2673   0.3179   0.3393
     0.3568   0.3679   0.4004   0.4203   0.5122   0.5448   0.5944   0.6598
     0.7187   0.7358   0.7887   0.9466   1.0421   1.0699   1.1804   1.3993
     1.4462   1.4986   1.6423   2.0119   2.0568   3.4718   3.6211   3.6381
     3.7276   3.7389   3.8246   3.9593   4.0529   4.1737   4.2188

[...]

          k = 0.0380-0.0419 0.0000 ( 17876 PWs)   bands (ev):

[...]

          k =-0.0760-0.0000 0.0000 ( 17886 PWs)   bands (ev):

[...]

          k =-0.0760-0.0839 0.0000 ( 17948 PWs)   bands (ev):

   -55.6674 -55.6002 -55.5999 -55.4394 -55.4310 -55.4267 -55.4250 -55.4224
   -55.4094 -55.3606 -55.3335 -55.2898 -55.2034 -55.0998 -54.5634 -54.5633
   -31.9557 -31.9435 -31.9162 -31.9161 -31.8939 -31.8936 -31.8932 -31.8694
   -31.7993 -31.7571 -31.7554 -31.7480 -31.7349 -31.7202 -31.7198 -31.7080
   -31.7022 -31.6995 -31.6940 -31.6710 -31.6707 -31.6574 -31.6431 -31.6280
   -31.6265 -31.6239 -31.6155 -31.6062 -31.6048 -31.5982 -31.5953 -31.5803
   -31.5735 -31.5567 -31.5497 -31.5065 -31.4941 -31.4684 -31.4372 -31.4034
   -31.3547 -31.3123 -30.8912 -30.8912 -30.7989 -30.7985 -30.7605 -30.7603
   -17.2566 -16.5861 -15.8702 -15.6500 -15.5804 -15.5752 -15.4402 -15.3701
   -15.3475 -15.3182 -15.3020 -15.2657 -15.2412 -15.2254 -15.1822 -15.1591
   -15.1255 -15.1073 -15.0925 -15.0535 -15.0429 -15.0175 -15.0083 -14.9920
   -14.9349 -14.9131 -14.9040 -14.7711 -14.7363 -14.6643 -14.4729 -13.0645
   -13.0643  -8.7334  -4.4554  -4.1637  -3.3027  -3.1078  -3.0214  -2.8621
    -2.7958  -2.6737  -2.6492  -2.6131  -2.5462  -2.5297  -2.4991  -2.4542
    -2.3941  -2.3725  -2.3671  -2.3424  -2.3322  -2.3014  -2.2858  -2.2759
    -2.2709  -2.2448  -2.2299  -2.2175  -2.1921  -2.1620  -2.1594  -2.1429
    -2.1266  -2.0532  -1.9889  -1.9406  -1.8163  -1.7619  -1.7509  -1.7369
    -1.7219  -1.6840  -1.6774  -1.6388  -1.6133  -1.5016  -1.4215  -1.3782
    -1.3070  -1.1970  -1.1774  -1.1688  -1.1058  -1.0737  -1.0397  -1.0379
    -0.9325  -0.9021  -0.8166  -0.7626  -0.7276  -0.6622  -0.5711  -0.5560
    -0.5463  -0.5236  -0.5036  -0.4880  -0.4616  -0.4240  -0.3424  -0.3052
    -0.3003  -0.2995  -0.2481  -0.1738  -0.1102   0.0762   0.1641   0.1718
     0.2198   0.2575   0.4510   0.4859   0.5143   0.5293   0.5765   0.6287
     0.6927   0.7089   0.7568   0.8222   0.9122   0.9381   0.9709   0.9819
     1.0284   1.8105   1.8181   1.8771   1.8772   3.6417   3.9484   3.9869
     4.0051   4.0132   4.0517   4.0555   4.0750   4.1529   4.1628

     the Fermi energy is     3.5057 ev

!    total energy              =   -2950.24121878 Ry
     estimated scf accuracy    <       0.00000005 Ry
     smearing contrib. (-TS)   =      -0.01956805 Ry
     internal energy E=F+TS    =   -2950.22165073 Ry

     The total energy is F=E-TS. E is the sum of the following terms:
     one-electron contribution =  -23960.76910292 Ry
     hartree contribution      =   12071.36293101 Ry
     xc contribution           =    -486.32596609 Ry
     ewald contribution        =    9425.50760256 Ry
     electric field correction =       0.00288471 Ry

     convergence has been achieved in  82 iterations

     Forces acting on atoms (cartesian axes, Ry/au):

     atom    1 type  1   force =     0.00007207   -0.00023319    0.09443578
     atom    2 type  1   force =     0.00000519    0.00018201   -0.17484672
     atom    3 type  2   force =     0.00002886   -0.00043348   -0.02143389
     atom    4 type  2   force =     0.00004093   -0.00080169    0.05276012
     atom    5 type  2   force =    -0.00430796   -0.00229712    0.00043283
     atom    6 type  2   force =     0.00597577   -0.00164419    0.00006428
     atom    7 type  1   force =    -0.00012366    0.00325986    0.01148705
     atom    8 type  1   force =     0.00014130    0.00254505    0.00477063
     atom    9 type  2   force =    -0.00017555    0.00027133   -0.00023367
     atom   10 type  2   force =    -0.00077751    0.00345413   -0.01163150
     atom   11 type  2   force =     0.00053300   -0.00040161    0.00027337
     atom   12 type  2   force =    -0.00003174   -0.00024708    0.00011359
     atom   13 type  1   force =    -0.00102500   -0.00039084    0.00002336
     atom   14 type  1   force =     0.00081029    0.00051897   -0.00016331
     atom   15 type  2   force =     0.00021333   -0.00010000   -0.00064528
     atom   16 type  2   force =    -0.00032924   -0.00073941    0.00083787
     atom   17 type  2   force =     0.00076628    0.00010135   -0.00055960
     atom   18 type  2   force =    -0.00039121   -0.00017182    0.00017055
     atom   19 type  1   force =     0.00054588    0.00085227    0.00027143
     atom   20 type  1   force =     0.00009047   -0.00028422   -0.00022679
     atom   21 type  2   force =     0.00008827    0.00000900    0.10302227
     atom   22 type  2   force =     0.00007365    0.00083278   -0.00018143
     atom   23 type  2   force =    -0.07227369   -0.00016802   -0.02735283
     atom   24 type  2   force =     0.07224947    0.00024391   -0.02740055
     atom   25 type  1   force =     0.00014186   -0.00024253    0.09436285
     atom   26 type  1   force =    -0.00009010   -0.00124620   -0.17482163
     atom   27 type  2   force =     0.00020593   -0.00006344   -0.02022371
     atom   28 type  2   force =     0.00009516   -0.00096203    0.04855518
     atom   29 type  2   force =    -0.00684407    0.00193083    0.00269188
     atom   30 type  2   force =     0.00839873    0.00226849    0.00215409
     atom   31 type  1   force =     0.00004701    0.00103914    0.00136140
     atom   32 type  1   force =     0.00009832   -0.00336219    0.00512436
     atom   33 type  2   force =    -0.00015738   -0.00022161    0.00010787
     atom   34 type  2   force =    -0.00192576   -0.00084184   -0.01110482
     atom   35 type  2   force =     0.00067732   -0.00019541    0.00001343
     atom   36 type  2   force =    -0.00004979    0.00011309    0.00000980
     atom   37 type  1   force =    -0.00124365   -0.00011713   -0.00037194
     atom   38 type  1   force =     0.00067801    0.00014262    0.00067696
     atom   39 type  2   force =     0.00025311   -0.00079332    0.00004657
     atom   40 type  2   force =    -0.00035807   -0.00014540    0.00021033
     atom   41 type  2   force =    -0.00086044   -0.00048922    0.00020629
     atom   42 type  2   force =     0.00038801   -0.00053669   -0.00018728
     atom   43 type  1   force =     0.00027727   -0.00009263    0.00001858
     atom   44 type  1   force =    -0.00089861   -0.00036376    0.00003078
     atom   45 type  2   force =     0.00008164    0.00003498    0.10287571
     atom   46 type  2   force =    -0.07220810   -0.00009131   -0.02728484
     atom   47 type  2   force =     0.07220803    0.00037332   -0.02733864
     atom   48 type  3   force =     0.00114407    0.00108172   -0.00157860
     atom   49 type  4   force =    -0.00228431   -0.00172048    0.00148902
     atom   50 type  5   force =     0.00079712    0.00058541   -0.00024639
     atom   51 type  2   force =    -0.00026010    0.00076379   -0.00131692
     atom   52 type  5   force =    -0.00051043   -0.00120620    0.00055212

     Total force =     0.361598     Total SCF correction =     0.000564
  @ DRIVER MODE: Message from server: STATUS
  @ DRIVER MODE: Message from server: GETFORCE
  @ DRIVER MODE: Returning v,forces,stress,ensemble

     Writing output data file ./calc.save/
  @ DRIVER MODE: Message from server: EXIT
  @ DRIVE MODE: Exiting

     General routines

     Parallel routines

   This run was terminated on:   1:32:25  28Sep2021

   JOB DONE.