     Program PWSCF v.6.7GPU starts on 23Sep2021 at  4:13:54

     R & G space division:  proc/nbgrp/npool/nimage =      10
     Reading input from /storage/home/hcoda1/3/ntian30/research/carbon/CxH_vib/H2O_calc/ads_slab/CH2NHNHO_a/out_0037/pw.inp
Warning: card &CELL ignored
Warning: card   CELL_DYNAMICS='IPI', ignored
Warning: card / ignored

     Current dimensions of program PWSCF are:
     Max number of different atomic species (ntypx) = 10
     Max number of k-points (npk) =  40000
     Max angular momentum in pseudopotentials (lmaxx) =  3
     Presently no symmetry can be used with electric field

     Message from routine cell_base_init:
     DEPRECATED: use true lattice parameter, not A to a.u. conversion factor

     IMPORTANT: XC functional enforced from input :
     Exchange-correlation= BEEF-VDW
                           (   1   4  43  14   2   0   0)
     Any further DFT definition will be discarded
     Please, verify this is what you really want

  @ DRIVER MODE: Connecting to
 qe_1139763_2937322.sched-torque.pace.gatech.edu_21jgm3l_scratch
  using UNIX socket
  @ DRIVER MODE: Message from server: STATUS
  @ DRIVER MODE: Message from server: INIT
  @ DRIVER MODE: Receiving replica           0          -1
  @ DRIVER MODE: Receiving encoded integer          25
  @ DRIVER MODE:  SCF:  T  FORCE:  T  STRESS:  F  VC:  F  ENSEMBLE:  F
  @ DRIVER MODE:  SCF:  T  FORCE:  T  STRESS:  F  VC:  F  ENSEMBLE:  F

     Using Slab Decomposition

     bravais-lattice index     =            0
     lattice parameter (alat)  =       1.8897  a.u.
     unit-cell volume          =    6658.9804 (a.u.)^3
     number of atoms/cell      =           55
     number of atomic types    =            5
     number of electrons       =       402.00
     number of Kohn-Sham states=          211
     kinetic-energy cutoff     =      29.3995  Ry
     charge density cutoff     =     293.9946  Ry
     scf convergence threshold =      7.3E-08
     mixing beta               =       0.0500
     number of iterations used =            8  plain     mixing
     Exchange-correlation= BEEF-VDW
                           (   1   4  43  14   2   0   0)

     celldm(1)=   1.889726  celldm(2)=   0.000000  celldm(3)=   0.000000
     celldm(4)=   0.000000  celldm(5)=   0.000000  celldm(6)=   0.000000

     crystal axes: (cart. coord. in units of alat)
               a(1) = (   6.579727   0.000000   0.000000 )
               a(2) = (  -0.000775   5.961596   0.000000 )
               a(3) = (   0.000000   0.000000  25.155947 )

     reciprocal axes: (cart. coord. in units 2 pi/alat)
               b(1) = (  0.151982  0.000020  0.000000 )
               b(2) = (  0.000000  0.167740  0.000000 )
               b(3) = (  0.000000  0.000000  0.039752 )

     PseudoPot. # 1 for Ti read from file:
     /storage/coda1/p-amedford6/0/shared/rich_project_chbe-medford/medford-share/data/pseudos_module/espresso/nninc/pbe/van/Ti.UPF
     MD5 check sum: 8e4df49b7f0d34bbd5052bf3f5ea0213
     Pseudo is Ultrasoft, Zval = 12.0
     Generated by new atomic code, or converted to UPF format
     Using radial grid of  851 points,  6 beta functions with:
                l(1) =   0
                l(2) =   0
                l(3) =   1
                l(4) =   1
                l(5) =   2
                l(6) =   2
     Q(r) pseudized with  8 coefficients,  rinner =    1.000   1.000   1.000
                                                       1.000   1.000

     PseudoPot. # 2 for O  read from file:
     /storage/coda1/p-amedford6/0/shared/rich_project_chbe-medford/medford-share/data/pseudos_module/espresso/nninc/pbe/van/O.UPF
     MD5 check sum: 78c19812648e8988a0fe644b0f25305e
     Pseudo is Ultrasoft, Zval =  6.0
     Generated by new atomic code, or converted to UPF format
     Using radial grid of  737 points,  4 beta functions with:
                l(1) =   0
                l(2) =   0
                l(3) =   1
                l(4) =   1
     Q(r) pseudized with  8 coefficients,  rinner =    0.800   0.800   0.800

     PseudoPot. # 3 for N  read from file:
     /storage/coda1/p-amedford6/0/shared/rich_project_chbe-medford/medford-share/data/pseudos_module/espresso/nninc/pbe/van/N.UPF
     MD5 check sum: 90d10febe142ad51ac9d5be1deb811c4
     Pseudo is Ultrasoft, Zval =  5.0
     Generated by new atomic code, or converted to UPF format
     Using radial grid of  729 points,  4 beta functions with:
                l(1) =   0
                l(2) =   0
                l(3) =   1
                l(4) =   1
     Q(r) pseudized with  8 coefficients,  rinner =    0.800   0.800   0.800

     PseudoPot. # 4 for C  read from file:
     /storage/coda1/p-amedford6/0/shared/rich_project_chbe-medford/medford-share/data/pseudos_module/espresso/nninc/pbe/van/C.UPF
     MD5 check sum: 1a69bf6b8db32088f5b2163dbdb77a27
     Pseudo is Ultrasoft, Zval =  4.0
     Generated by new atomic code, or converted to UPF format
     Using radial grid of  721 points,  4 beta functions with:
                l(1) =   0
                l(2) =   0
                l(3) =   1
                l(4) =   1
     Q(r) pseudized with  8 coefficients,  rinner =    0.800   0.800   0.800

     PseudoPot. # 5 for H  read from file:
     /storage/coda1/p-amedford6/0/shared/rich_project_chbe-medford/medford-share/data/pseudos_module/espresso/nninc/pbe/van/H.UPF
     MD5 check sum: b5ee9d7bfd3a09ee7748110bda690ff7
     Pseudo is Ultrasoft, Zval =  1.0
     Generated by new atomic code, or converted to UPF format
     Using radial grid of  615 points,  1 beta functions with:
                l(1) =   0
     Q(r) pseudized with  8 coefficients,  rinner =    0.800

     atomic species   valence    mass     pseudopotential
        Ti1           12.00    47.86700     Ti( 1.00)
        O1             6.00    15.99900     O ( 1.00)
        N1             5.00    14.00700     N ( 1.00)
        C1             4.00    12.01100     C ( 1.00)
        H1             1.00     1.00800     H ( 1.00)

     No symmetry found

   Cartesian axes

     site n.     atom                  positions (alat units)
         1           Ti1 tau(   1) = (   0.0004258   2.9801865   6.0000000  )
         2           Ti1 tau(   2) = (   3.2906075   1.4906267   6.0002472  )
         3           O1  tau(   3) = (   0.0006271   0.0005054   7.9858123  )
         4           O1  tau(   4) = (   3.2906025   0.0005020   7.3038282  )
         5           O1  tau(   5) = (   4.5942328   1.4918067   9.2879030  )
         6           O1  tau(   6) = (   1.9868534   1.4903216   9.2879459  )
         7           Ti1 tau(   7) = (   3.2907910   2.8959150   9.1758416  )
         8           Ti1 tau(   8) = (   0.0015273   1.4827037   9.2680791  )
         9           O1  tau(   9) = (   3.2865774   0.0244666  11.2672233  )
        10           O1  tau(  10) = (   0.0116148   5.9584955  10.6183126  )
        11           O1  tau(  11) = (   1.2851059   1.4881214  12.6284388  )
        12           O1  tau(  12) = (   5.2821296   1.4859116  12.6239949  )
        13           Ti1 tau(  13) = (   6.5757640   3.1226837  12.6583379  )
        14           Ti1 tau(  14) = (   3.2808560   1.5553189  12.4169499  )
        15           O1  tau(  15) = (   6.5631415   0.0020138  14.6662933  )
        16           O1  tau(  16) = (   3.2768600   5.9282172  13.8639556  )
        17           O1  tau(  17) = (   4.5247100   1.5609280  15.9911388  )
        18           O1  tau(  18) = (   2.0319249   1.5505618  16.0334288  )
        19           Ti1 tau(  19) = (   3.2655126   3.0139642  15.6417618  )
        20           Ti1 tau(  20) = (   6.4701730   1.5779936  15.7979382  )
        21           O1  tau(  21) = (   3.2904802   0.0005063   4.7018136  )
        22           O1  tau(  22) = (   6.5470303   0.0764028  17.2486596  )
        23           O1  tau(  23) = (   1.3043587   1.4918075   6.0039043  )
        24           O1  tau(  24) = (   5.2767064   1.4903225   6.0039473  )
        25           Ti1 tau(  25) = (   0.0000382   5.9609847   6.0000000  )
        26           Ti1 tau(  26) = (   3.2902200   4.4714249   6.0002472  )
        27           O1  tau(  27) = (   0.0002396   2.9813036   7.9858123  )
        28           O1  tau(  28) = (   3.2902150   2.9813002   7.3038282  )
        29           O1  tau(  29) = (   4.5938453   4.4726049   9.2879030  )
        30           O1  tau(  30) = (   1.9864658   4.4711199   9.2879459  )
        31           Ti1 tau(  31) = (   3.2891106   5.8743827   9.1763621  )
        32           Ti1 tau(  32) = (   0.0006254   4.4649316   9.2693709  )
        33           O1  tau(  33) = (   3.2856154   2.9374191  11.2445503  )
        34           O1  tau(  34) = (   0.0092240   2.9805883  10.6323155  )
        35           O1  tau(  35) = (   1.2776263   4.4762221  12.6158080  )
        36           O1  tau(  36) = (   5.2889682   4.4773653  12.6103441  )
        37           Ti1 tau(  37) = (   6.5721904   0.1276321  12.6579576  )
        38           Ti1 tau(  38) = (   3.2825792   4.6513186  12.6446142  )
        39           O1  tau(  39) = (   6.5601178   2.9984380  14.6401328  )
        40           O1  tau(  40) = (   3.2784952   3.0022753  13.8540846  )
        41           O1  tau(  41) = (   4.5130724   4.4679886  16.1105769  )
        42           O1  tau(  42) = (   2.0068779   4.4712703  16.0772645  )
        43           Ti1 tau(  43) = (   3.1879138   0.0422448  16.2953621  )
        44           Ti1 tau(  44) = (   6.5239028   4.6756254  16.1574449  )
        45           O1  tau(  45) = (   3.2900926   2.9813045   4.7018136  )
        46           O1  tau(  46) = (   1.3039711   4.4726057   6.0039043  )
        47           O1  tau(  47) = (   5.2763189   4.4711207   6.0039473  )
        48           N1  tau(  48) = (   0.1470516   2.5879757  18.5611170  )
        49           N1  tau(  49) = (   6.5778558   2.9357776  17.3215245  )
        50           C1  tau(  50) = (   0.2601206   3.3452726  19.6311682  )
        51           H1  tau(  51) = (   0.3627438   2.8498571  20.5812141  )
        52           H1  tau(  52) = (   0.2464683   4.4174571  19.5160682  )
        53           H1  tau(  53) = (   0.1772712   1.5612145  18.6921905  )
        54           O1  tau(  54) = (   3.2226362   0.0923429  18.1472848  )
        55           H1  tau(  55) = (   3.6209404   5.2806276  18.5811828  )

     number of k points=    10  Fermi-Dirac smearing, width (Ry)=  0.0073
                       cart. coord. in units 2pi/alat
        k(    1) = (   0.0000000   0.0000000   0.0000000), wk =   0.1250000
        k(    2) = (   0.0000000   0.0419351   0.0000000), wk =   0.2500000
        k(    3) = (   0.0000000  -0.0838702   0.0000000), wk =   0.1250000
        k(    4) = (   0.0379955   0.0000049   0.0000000), wk =   0.2500000
        k(    5) = (   0.0379955   0.0419400   0.0000000), wk =   0.2500000
        k(    6) = (   0.0379955  -0.0838652   0.0000000), wk =   0.2500000
        k(    7) = (   0.0379955  -0.0419301   0.0000000), wk =   0.2500000
        k(    8) = (  -0.0759910  -0.0000099   0.0000000), wk =   0.1250000
        k(    9) = (  -0.0759910   0.0419252   0.0000000), wk =   0.2500000
        k(   10) = (  -0.0759910  -0.0838800   0.0000000), wk =   0.1250000

     Initial potential from superposition of free atoms

     starting charge  385.99915, renormalised to  402.00000

     negative rho (up, down):  1.462E-02 0.000E+00

     %%%%%%%%%%%%%%%%%%%%%%%%%%%%%%%%%%%%%%%%%%%%%%%%%%%%%%%%%%%%%%%%%%%%%%%%
     %                                                                      %
     % You are using vdW-DF, which was implemented by the Thonhauser group. %
     % Please cite the following two papers that made this development      %
     % possible and the two reviews that describe the various versions:     %
     %                                                                      %
     %   T. Thonhauser et al., PRL 115, 136402 (2015).                      %
     %   T. Thonhauser et al., PRB 76, 125112 (2007).                       %
     %   K. Berland et al., Rep. Prog. Phys. 78, 066501 (2015).             %
     %   D.C. Langreth et al., J. Phys.: Condens. Matter 21, 084203 (2009). %
     %                                                                      %
     %                                                                      %
     % If you are calculating the stress with vdW-DF, please also cite:     %
     %                                                                      %
     %   R. Sabatini et al., J. Phys.: Condens. Matter 24, 424209 (2012).   %
     %                                                                      %
     %%%%%%%%%%%%%%%%%%%%%%%%%%%%%%%%%%%%%%%%%%%%%%%%%%%%%%%%%%%%%%%%%%%%%%%%

     Adding external electric field

     Computed dipole along edir(3) :
        Dipole              -11.6290 Ry au,        -29.5581 Debye
        Dipole field         -0.0219 Ry au,

        Potential amp.        2.0343 Ry
        Total length         46.3494 bohr

     Starting wfcs are  304 atomic wfcs
  @ DRIVER MODE: Message from server: STATUS
  @ DRIVER MODE: Message from server: POSDATA
  @ DRIVER MODE: Reading and sharing cell
  @ DRIVER MODE: Reading and sharing positions
  @ DRIVER MODE: Received positions

     Self-consistent Calculation

     iteration #  1     ecut=    29.40 Ry     beta= 0.05
     Davidson diagonalization with overlap
     c_bands:  3 eigenvalues not converged
     c_bands:  2 eigenvalues not converged
     c_bands:  3 eigenvalues not converged
     c_bands:  4 eigenvalues not converged
     c_bands:  1 eigenvalues not converged
     c_bands:  4 eigenvalues not converged
     c_bands:  5 eigenvalues not converged
     c_bands:  5 eigenvalues not converged
     c_bands:  5 eigenvalues not converged
     ethr =  1.00E-05,  avg # of iterations = 23.9

[...]

     total energy              =   -2412.16985349 Ry
     estimated scf accuracy    <    6293.19838149 Ry

     iteration #  2     ecut=    29.40 Ry     beta= 0.05
     Davidson diagonalization with overlap
     ethr =  1.00E-02,  avg # of iterations = 23.3

[...]

     iteration # 47     ecut=    29.40 Ry     beta= 0.05
     Davidson diagonalization with overlap
     c_bands:  1 eigenvalues not converged
     ethr =  2.87E-06,  avg # of iterations =  6.2

[...]

     total energy              =   -2972.74109693 Ry
     estimated scf accuracy    <       0.00000012 Ry

     iteration # 72     ecut=    29.40 Ry     beta= 0.05
     Davidson diagonalization with overlap
     ethr =  3.04E-11,  avg # of iterations =  5.2

     negative rho (up, down):  1.521E-02 0.000E+00

     Adding external electric field

     Computed dipole along edir(3) :
        Dipole                0.6664 Ry au,          1.6939 Debye
        Dipole field          0.0013 Ry au,

        Potential amp.       -0.1166 Ry
        Total length         46.3494 bohr

     End of self-consistent calculation

          k = 0.0000 0.0000 0.0000 ( 18029 PWs)   bands (ev):

   -56.4996 -56.4661 -55.7000 -55.6659 -55.4410 -55.3846 -55.1381 -55.1071
   -55.0880 -55.0541 -55.0336 -54.9826 -54.9792 -54.7861 -54.7539 -54.6415
   -32.9234 -32.7773 -32.7492 -32.6734 -32.5828 -32.5499 -32.1834 -31.9221
   -31.9212 -31.8913 -31.8400 -31.8355 -31.8158 -31.6702 -31.6622 -31.6149
   -31.5913 -31.5872 -31.5453 -31.5125 -31.4744 -31.4601 -31.4329 -31.4086
   -31.3724 -31.3708 -31.3677 -31.3568 -31.3050 -31.2948 -31.2722 -31.2490
   -31.2303 -31.2149 -31.2131 -31.2017 -31.1832 -31.1715 -31.1567 -31.1013
   -31.0460 -31.0254 -30.9964 -30.9851 -30.9696 -30.9184 -30.8565 -30.8319
   -18.6485 -16.6344 -16.1275 -16.0570 -15.8369 -15.7745 -15.7188 -15.7146
   -15.6690 -15.4281 -15.3903 -15.3571 -15.3134 -15.2168 -15.0865 -14.9898
   -14.7985 -14.7440 -14.7421 -14.7120 -14.6872 -14.6547 -14.6297 -14.5980
   -14.5938 -14.5608 -14.5055 -14.3336 -14.2688 -14.0591 -14.0438 -13.5856
   -13.4777 -12.4095  -8.5609  -6.0043  -4.5877  -4.2006  -3.6297  -3.6068
    -3.4297  -3.3416  -3.2489  -3.1670  -3.0693  -3.0411  -2.9617  -2.9219
    -2.9054  -2.8389  -2.8169  -2.6543  -2.6280  -2.6092  -2.5207  -2.4924
    -2.3300  -2.3058  -2.2236  -2.1505  -2.1308  -2.0735  -2.0605  -2.0004
    -1.9485  -1.9314  -1.8650  -1.8590  -1.8445  -1.7317  -1.7162  -1.6800
    -1.6324  -1.5712  -1.5613  -1.5069  -1.4222  -1.4083  -1.2756  -1.1920
    -1.1478  -1.1431  -1.1064  -1.0639  -1.0169  -0.8834  -0.8721  -0.7623
    -0.7427  -0.7408  -0.6733  -0.5767  -0.5552  -0.5227  -0.4473  -0.4107
    -0.3672  -0.3166  -0.2624  -0.1414  -0.1335  -0.1168  -0.0719  -0.0298
    -0.0145   0.0603   0.1512   0.1674   0.2722   0.2877   0.3372   0.4299
     0.5119   0.5220   0.5416   0.6017   0.6460   0.6794   0.7539   0.7726
     0.8139   0.8265   0.8750   0.9338   0.9613   1.0612   1.1092   1.1282
     1.1613   1.2099   1.2888   1.3709   1.4686   1.5103   1.5414   1.8117
     2.3280   2.7832   2.9458   3.2234   3.3348   3.6456   3.7703   3.7713
     3.7818   3.9854   4.1342

[...]

          k = 0.0380-0.0419 0.0000 ( 17876 PWs)   bands (ev):

[...]

          k =-0.0760-0.0000 0.0000 ( 17886 PWs)   bands (ev):

[...]

          k =-0.0760-0.0839 0.0000 ( 17948 PWs)   bands (ev):

   -56.4831 -56.4825 -55.6859 -55.6798 -55.4353 -55.3902 -55.1369 -55.1027
   -55.0712 -55.0708 -55.0378 -54.9819 -54.9795 -54.7874 -54.7517 -54.6436
   -32.7632 -32.7627 -32.7407 -32.7401 -32.6269 -32.6264 -32.0058 -32.0010
   -31.8807 -31.8752 -31.8702 -31.8603 -31.7426 -31.7077 -31.6635 -31.6567
   -31.6166 -31.6127 -31.4436 -31.4349 -31.4217 -31.4215 -31.3818 -31.3768
   -31.3617 -31.3532 -31.3401 -31.3213 -31.2999 -31.2928 -31.2920 -31.2741
   -31.2546 -31.2544 -31.2535 -31.2392 -31.2207 -31.1869 -31.1783 -31.1488
   -31.1335 -31.0498 -31.0061 -31.0005 -30.9863 -30.9482 -30.8710 -30.8586
   -18.6448 -16.0467 -16.0035 -16.0007 -15.9405 -15.9387 -15.7060 -15.7020
   -15.4661 -15.4379 -15.2799 -15.1866 -15.1687 -15.1068 -15.0687 -15.0168
   -14.9623 -14.9330 -14.8231 -14.7843 -14.7539 -14.7158 -14.6900 -14.6696
   -14.6090 -14.5725 -14.5493 -14.4502 -14.4258 -14.1907 -14.1834 -13.5819
   -13.5816 -12.4143  -8.5635  -5.9992  -4.5444  -3.6518  -3.3325  -3.0708
    -3.0665  -3.0610  -3.0560  -3.0125  -2.8167  -2.8131  -2.6599  -2.6264
    -2.6147  -2.5893  -2.5583  -2.4547  -2.3785  -2.3616  -2.3600  -2.3559
    -2.3067  -2.2986  -2.2474  -2.1694  -2.1062  -2.0977  -2.0635  -2.0018
    -1.9430  -1.8944  -1.8903  -1.8521  -1.8290  -1.7976  -1.7786  -1.7573
    -1.7123  -1.6283  -1.5046  -1.4288  -1.3973  -1.3802  -1.3423  -1.2955
    -1.2821  -1.2702  -1.2184  -1.2039  -1.1392  -1.1096  -1.0691  -0.9730
    -0.9132  -0.8821  -0.8572  -0.7527  -0.7139  -0.6390  -0.5937  -0.5593
    -0.5238  -0.5004  -0.4390  -0.4272  -0.3452  -0.2779  -0.2509  -0.1950
    -0.1812  -0.1690  -0.1513  -0.1075  -0.0011   0.0148   0.0483   0.1470
     0.2114   0.2824   0.3007   0.3924   0.4208   0.4921   0.6074   0.6448
     0.7151   0.7778   0.8517   0.9376   0.9865   1.0306   1.1361   1.2218
     1.2370   1.2841   1.3113   1.3165   1.3177   1.3705   1.3906   1.5173
     2.1648   3.3666   3.3683   3.4251   3.4298   3.7296   3.7349   3.8409
     3.8444   4.0944   4.1156

     the Fermi energy is     2.5944 ev

!    total energy              =   -2972.74111794 Ry
     estimated scf accuracy    <       0.00000007 Ry
     smearing contrib. (-TS)   =      -0.00419661 Ry
     internal energy E=F+TS    =   -2972.73692132 Ry

     The total energy is F=E-TS. E is the sum of the following terms:
     one-electron contribution =  -23699.99730458 Ry
     hartree contribution      =   11945.30581277 Ry
     xc contribution           =    -493.11882858 Ry
     ewald contribution        =    9275.07256090 Ry
     electric field correction =       0.00083818 Ry

     convergence has been achieved in  72 iterations

     Forces acting on atoms (cartesian axes, Ry/au):

     atom    1 type  1   force =     0.00016016   -0.00043439    0.12200448
     atom    2 type  1   force =    -0.00004226    0.00027675   -0.15638797
     atom    3 type  2   force =     0.00004813   -0.00048259   -0.06052832
     atom    4 type  2   force =     0.00005156    0.00071627    0.01973494
     atom    5 type  2   force =    -0.00083661   -0.00260119   -0.01519001
     atom    6 type  2   force =     0.00218992   -0.00198538   -0.01654863
     atom    7 type  1   force =    -0.00030257   -0.00090897    0.05416500
     atom    8 type  1   force =     0.00082395    0.00108065    0.09009262
     atom    9 type  2   force =    -0.00035830   -0.00027319    0.00005464
     atom   10 type  2   force =    -0.00296022    0.00316483   -0.05930405
     atom   11 type  2   force =    -0.00026004    0.00019407    0.00005159
     atom   12 type  2   force =    -0.00022465    0.00014444   -0.00037872
     atom   13 type  1   force =    -0.00051641    0.00039738    0.00033362
     atom   14 type  1   force =     0.00006328    0.00139718   -0.00109724
     atom   15 type  2   force =    -0.00002940   -0.00066357   -0.00144277
     atom   16 type  2   force =     0.00011687    0.00068368    0.00043354
     atom   17 type  2   force =    -0.00080073   -0.00053479    0.00007915
     atom   18 type  2   force =     0.00044996    0.00010170   -0.00047303
     atom   19 type  1   force =    -0.00017150    0.00127946   -0.00013674
     atom   20 type  1   force =     0.00017462    0.00048633    0.00030602
     atom   21 type  2   force =     0.00009198   -0.00002614    0.09827538
     atom   22 type  2   force =     0.00017329   -0.00046403    0.00024452
     atom   23 type  2   force =    -0.08163514   -0.00005050   -0.03247607
     atom   24 type  2   force =     0.08162035    0.00036739   -0.03250747
     atom   25 type  1   force =     0.00002742   -0.00029086    0.12168151
     atom   26 type  1   force =     0.00002906   -0.00154645   -0.15642158
     atom   27 type  2   force =     0.00012885    0.00020874   -0.05948997
     atom   28 type  2   force =     0.00005526    0.00039141    0.01459734
     atom   29 type  2   force =    -0.00454586    0.00217787   -0.01162260
     atom   30 type  2   force =     0.00587922    0.00262395   -0.01293027
     atom   31 type  1   force =    -0.00044150   -0.00214406    0.04016140
     atom   32 type  1   force =     0.00078578   -0.00224974    0.09111784
     atom   33 type  2   force =    -0.00012464    0.00037222    0.00007206
     atom   34 type  2   force =    -0.00234923    0.00049094   -0.06881613
     atom   35 type  2   force =    -0.00023281    0.00005076    0.00026416
     atom   36 type  2   force =     0.00060565   -0.00027456    0.00003200
     atom   37 type  1   force =    -0.00002775    0.00022089   -0.00072180
     atom   38 type  1   force =     0.00012640    0.00109362   -0.00043175
     atom   39 type  2   force =    -0.00051663   -0.00119356    0.00042188
     atom   40 type  2   force =    -0.00000117    0.00043792   -0.00011579
     atom   41 type  2   force =     0.00072605   -0.00019452    0.00024177
     atom   42 type  2   force =    -0.00070372   -0.00095973   -0.00102371
     atom   43 type  1   force =    -0.00069616   -0.00120820   -0.00024011
     atom   44 type  1   force =     0.00012159   -0.00068990    0.00049551
     atom   45 type  2   force =     0.00009502    0.00008417    0.09807765
     atom   46 type  2   force =    -0.08158885   -0.00002859   -0.03247178
     atom   47 type  2   force =     0.08157481    0.00041254   -0.03248986
     atom   48 type  3   force =     0.00019407    0.00013027    0.00033711
     atom   49 type  3   force =    -0.00024016   -0.00144299    0.00032789
     atom   50 type  4   force =     0.00031685    0.00003682   -0.00007021
     atom   51 type  5   force =     0.00071207    0.00033524   -0.00061457
     atom   52 type  5   force =     0.00058025   -0.00102499   -0.00010645
     atom   53 type  5   force =     0.00007804    0.00129892    0.00006544
     atom   54 type  2   force =     0.00346158   -0.00508591    0.00275021
     atom   55 type  5   force =    -0.00185573    0.00610241   -0.00238165

     Total force =     0.408446     Total SCF correction =     0.000541
  @ DRIVER MODE: Message from server: STATUS
  @ DRIVER MODE: Message from server: GETFORCE
  @ DRIVER MODE: Returning v,forces,stress,ensemble

     Writing output data file ./calc.save/
  @ DRIVER MODE: Message from server: EXIT
  @ DRIVE MODE: Exiting

     General routines

     Parallel routines

   This run was terminated on:   4:33:20  23Sep2021

   JOB DONE.