     Program PWSCF v.6.7GPU starts on 23Sep2021 at  6:49:43

     R & G space division:  proc/nbgrp/npool/nimage =      10
     Reading input from /storage/home/hcoda1/3/ntian30/research/carbon/CxH_vib/H2O_calc/ads_slab/CHNHNH2H2O_b/out_0041/pw.inp
Warning: card &CELL ignored
Warning: card   CELL_DYNAMICS='IPI', ignored
Warning: card / ignored

     Current dimensions of program PWSCF are:
     Max number of different atomic species (ntypx) = 10
     Max number of k-points (npk) =  40000
     Max angular momentum in pseudopotentials (lmaxx) =  3
     Presently no symmetry can be used with electric field

     Message from routine cell_base_init:
     DEPRECATED: use true lattice parameter, not A to a.u. conversion factor

     IMPORTANT: XC functional enforced from input :
     Exchange-correlation= BEEF-VDW
                           (   1   4  43  14   2   0   0)
     Any further DFT definition will be discarded
     Please, verify this is what you really want

  @ DRIVER MODE: Connecting to
 qe_1139763_2937312.sched-torque.pace.gatech.edubrt5cxmq_scratch
  using UNIX socket
  @ DRIVER MODE: Message from server: STATUS
  @ DRIVER MODE: Message from server: INIT
  @ DRIVER MODE: Receiving replica           0          -1
  @ DRIVER MODE: Receiving encoded integer          25
  @ DRIVER MODE:  SCF:  T  FORCE:  T  STRESS:  F  VC:  F  ENSEMBLE:  F
  @ DRIVER MODE:  SCF:  T  FORCE:  T  STRESS:  F  VC:  F  ENSEMBLE:  F

     Using Slab Decomposition

     bravais-lattice index     =            0
     lattice parameter (alat)  =       1.8897  a.u.
     unit-cell volume          =    6658.9804 (a.u.)^3
     number of atoms/cell      =           57
     number of atomic types    =            5
     number of electrons       =       404.00
     number of Kohn-Sham states=          212
     kinetic-energy cutoff     =      29.3995  Ry
     charge density cutoff     =     293.9946  Ry
     scf convergence threshold =      7.3E-08
     mixing beta               =       0.0500
     number of iterations used =            8  plain     mixing
     Exchange-correlation= BEEF-VDW
                           (   1   4  43  14   2   0   0)

     celldm(1)=   1.889726  celldm(2)=   0.000000  celldm(3)=   0.000000
     celldm(4)=   0.000000  celldm(5)=   0.000000  celldm(6)=   0.000000

     crystal axes: (cart. coord. in units of alat)
               a(1) = (   6.579727   0.000000   0.000000 )
               a(2) = (  -0.000775   5.961596   0.000000 )
               a(3) = (   0.000000   0.000000  25.155947 )

     reciprocal axes: (cart. coord. in units 2 pi/alat)
               b(1) = (  0.151982  0.000020  0.000000 )
               b(2) = (  0.000000  0.167740  0.000000 )
               b(3) = (  0.000000  0.000000  0.039752 )

     PseudoPot. # 1 for Ti read from file:
     /storage/coda1/p-amedford6/0/shared/rich_project_chbe-medford/medford-share/data/pseudos_module/espresso/nninc/pbe/van/Ti.UPF
     MD5 check sum: 8e4df49b7f0d34bbd5052bf3f5ea0213
     Pseudo is Ultrasoft, Zval = 12.0
     Generated by new atomic code, or converted to UPF format
     Using radial grid of  851 points,  6 beta functions with:
                l(1) =   0
                l(2) =   0
                l(3) =   1
                l(4) =   1
                l(5) =   2
                l(6) =   2
     Q(r) pseudized with  8 coefficients,  rinner =    1.000   1.000   1.000
                                                       1.000   1.000

     PseudoPot. # 2 for O  read from file:
     /storage/coda1/p-amedford6/0/shared/rich_project_chbe-medford/medford-share/data/pseudos_module/espresso/nninc/pbe/van/O.UPF
     MD5 check sum: 78c19812648e8988a0fe644b0f25305e
     Pseudo is Ultrasoft, Zval =  6.0
     Generated by new atomic code, or converted to UPF format
     Using radial grid of  737 points,  4 beta functions with:
                l(1) =   0
                l(2) =   0
                l(3) =   1
                l(4) =   1
     Q(r) pseudized with  8 coefficients,  rinner =    0.800   0.800   0.800

     PseudoPot. # 3 for N  read from file:
     /storage/coda1/p-amedford6/0/shared/rich_project_chbe-medford/medford-share/data/pseudos_module/espresso/nninc/pbe/van/N.UPF
     MD5 check sum: 90d10febe142ad51ac9d5be1deb811c4
     Pseudo is Ultrasoft, Zval =  5.0
     Generated by new atomic code, or converted to UPF format
     Using radial grid of  729 points,  4 beta functions with:
                l(1) =   0
                l(2) =   0
                l(3) =   1
                l(4) =   1
     Q(r) pseudized with  8 coefficients,  rinner =    0.800   0.800   0.800

     PseudoPot. # 4 for C  read from file:
     /storage/coda1/p-amedford6/0/shared/rich_project_chbe-medford/medford-share/data/pseudos_module/espresso/nninc/pbe/van/C.UPF
     MD5 check sum: 1a69bf6b8db32088f5b2163dbdb77a27
     Pseudo is Ultrasoft, Zval =  4.0
     Generated by new atomic code, or converted to UPF format
     Using radial grid of  721 points,  4 beta functions with:
                l(1) =   0
                l(2) =   0
                l(3) =   1
                l(4) =   1
     Q(r) pseudized with  8 coefficients,  rinner =    0.800   0.800   0.800

     PseudoPot. # 5 for H  read from file:
     /storage/coda1/p-amedford6/0/shared/rich_project_chbe-medford/medford-share/data/pseudos_module/espresso/nninc/pbe/van/H.UPF
     MD5 check sum: b5ee9d7bfd3a09ee7748110bda690ff7
     Pseudo is Ultrasoft, Zval =  1.0
     Generated by new atomic code, or converted to UPF format
     Using radial grid of  615 points,  1 beta functions with:
                l(1) =   0
     Q(r) pseudized with  8 coefficients,  rinner =    0.800

     atomic species   valence    mass     pseudopotential
        Ti1           12.00    47.86700     Ti( 1.00)
        O1             6.00    15.99900     O ( 1.00)
        N1             5.00    14.00700     N ( 1.00)
        C1             4.00    12.01100     C ( 1.00)
        H1             1.00     1.00800     H ( 1.00)

     No symmetry found

   Cartesian axes

     site n.     atom                  positions (alat units)
         1           Ti1 tau(   1) = (   0.0004258   2.9801865   6.0000000  )
         2           Ti1 tau(   2) = (   3.2906075   1.4906267   6.0002472  )
         3           O1  tau(   3) = (   0.0006271   0.0005054   7.9858123  )
         4           O1  tau(   4) = (   3.2906025   0.0005020   7.3038282  )
         5           O1  tau(   5) = (   4.5942328   1.4918067   9.2879030  )
         6           O1  tau(   6) = (   1.9868534   1.4903216   9.2879459  )
         7           Ti1 tau(   7) = (   3.2907910   2.8959150   9.1758416  )
         8           Ti1 tau(   8) = (   0.0015273   1.4827037   9.2680791  )
         9           O1  tau(   9) = (   3.3066417   5.9496923  11.3845403  )
        10           O1  tau(  10) = (   0.0116148   5.9584955  10.6183126  )
        11           O1  tau(  11) = (   1.3010148   1.4986442  12.6442229  )
        12           O1  tau(  12) = (   5.3085967   1.5001388  12.6592367  )
        13           Ti1 tau(  13) = (   0.0282779   2.9853959  12.5065338  )
        14           Ti1 tau(  14) = (   3.3279724   1.4707331  12.5413945  )
        15           O1  tau(  15) = (   0.0378505   0.0859181  14.6860672  )
        16           O1  tau(  16) = (   3.3018867   0.0259462  14.0338077  )
        17           O1  tau(  17) = (   4.5998927   1.5484098  16.1661054  )
        18           O1  tau(  18) = (   2.0454451   1.5021798  16.2221046  )
        19           Ti1 tau(  19) = (   3.3206312   2.9825829  15.7321521  )
        20           Ti1 tau(  20) = (   0.0140791   1.4435866  15.9983415  )
        21           O1  tau(  21) = (   3.2904802   0.0005063   4.7018136  )
        22           O1  tau(  22) = (   6.5273045   5.8164216  17.2577718  )
        23           O1  tau(  23) = (   1.3043587   1.4918075   6.0039043  )
        24           O1  tau(  24) = (   5.2767064   1.4903225   6.0039473  )
        25           Ti1 tau(  25) = (   0.0000382   5.9609847   6.0000000  )
        26           Ti1 tau(  26) = (   3.2902200   4.4714249   6.0002472  )
        27           O1  tau(  27) = (   0.0002396   2.9813036   7.9858123  )
        28           O1  tau(  28) = (   3.2902150   2.9813002   7.3038282  )
        29           O1  tau(  29) = (   4.5938453   4.4726049   9.2879030  )
        30           O1  tau(  30) = (   1.9864658   4.4711199   9.2879459  )
        31           Ti1 tau(  31) = (   3.2891106   5.8743827   9.1763621  )
        32           Ti1 tau(  32) = (   0.0006254   4.4649316   9.2693709  )
        33           O1  tau(  33) = (   3.3068470   2.9864458  11.3814114  )
        34           O1  tau(  34) = (   0.0092240   2.9805883  10.6323155  )
        35           O1  tau(  35) = (   1.2982948   4.4740332  12.6840172  )
        36           O1  tau(  36) = (   5.3097620   4.4704985  12.6972095  )
        37           Ti1 tau(  37) = (   0.0348817   0.0130325  12.4954113  )
        38           Ti1 tau(  38) = (   3.3270268   4.4633798  12.5435021  )
        39           O1  tau(  39) = (   0.0563025   2.9439880  14.9425960  )
        40           O1  tau(  40) = (   3.2900316   2.9661073  13.9503945  )
        41           O1  tau(  41) = (   4.5967999   4.4093095  16.0633277  )
        42           O1  tau(  42) = (   2.0412097   4.4536800  16.1303113  )
        43           Ti1 tau(  43) = (   3.2964201   5.9600488  15.8742613  )
        44           Ti1 tau(  44) = (   0.0241369   4.6516137  15.8518307  )
        45           O1  tau(  45) = (   3.2900926   2.9813045   4.7018136  )
        46           O1  tau(  46) = (   1.3039711   4.4726057   6.0039043  )
        47           O1  tau(  47) = (   5.2763189   4.4711207   6.0039473  )
        48           N1  tau(  48) = (   1.4509408   2.7109095  18.7602185  )
        49           N1  tau(  49) = (   0.0917387   2.5303350  18.2207845  )
        50           C1  tau(  50) = (   1.9503960   3.7723240  19.2784661  )
        51           H1  tau(  51) = (   1.1612915   4.5273475  19.4152495  )
        52           H1  tau(  52) = (   2.0208952   1.9183395  18.4664618  )
        53           H1  tau(  53) = (   6.1377449   3.3539424  18.4987646  )
        54           H1  tau(  54) = (   6.2616785   1.7135167  18.6667212  )
        55           O1  tau(  55) = (   3.7012217   5.9496235  18.2853534  )
        56           H1  tau(  56) = (   4.6684668   5.8470116  18.1670174  )
        57           H1  tau(  57) = (   3.3852657   5.1278045  18.7338684  )

     number of k points=    10  Fermi-Dirac smearing, width (Ry)=  0.0073
                       cart. coord. in units 2pi/alat
        k(    1) = (   0.0000000   0.0000000   0.0000000), wk =   0.1250000
        k(    2) = (   0.0000000   0.0419351   0.0000000), wk =   0.2500000
        k(    3) = (   0.0000000  -0.0838702   0.0000000), wk =   0.1250000
        k(    4) = (   0.0379955   0.0000049   0.0000000), wk =   0.2500000
        k(    5) = (   0.0379955   0.0419400   0.0000000), wk =   0.2500000
        k(    6) = (   0.0379955  -0.0838652   0.0000000), wk =   0.2500000
        k(    7) = (   0.0379955  -0.0419301   0.0000000), wk =   0.2500000
        k(    8) = (  -0.0759910  -0.0000099   0.0000000), wk =   0.1250000
        k(    9) = (  -0.0759910   0.0419252   0.0000000), wk =   0.2500000
        k(   10) = (  -0.0759910  -0.0838800   0.0000000), wk =   0.1250000

     Initial potential from superposition of free atoms

     starting charge  387.99913, renormalised to  404.00000

     negative rho (up, down):  1.598E-02 0.000E+00

     %%%%%%%%%%%%%%%%%%%%%%%%%%%%%%%%%%%%%%%%%%%%%%%%%%%%%%%%%%%%%%%%%%%%%%%%
     %                                                                      %
     % You are using vdW-DF, which was implemented by the Thonhauser group. %
     % Please cite the following two papers that made this development      %
     % possible and the two reviews that describe the various versions:     %
     %                                                                      %
     %   T. Thonhauser et al., PRL 115, 136402 (2015).                      %
     %   T. Thonhauser et al., PRB 76, 125112 (2007).                       %
     %   K. Berland et al., Rep. Prog. Phys. 78, 066501 (2015).             %
     %   D.C. Langreth et al., J. Phys.: Condens. Matter 21, 084203 (2009). %
     %                                                                      %
     %                                                                      %
     % If you are calculating the stress with vdW-DF, please also cite:     %
     %                                                                      %
     %   R. Sabatini et al., J. Phys.: Condens. Matter 24, 424209 (2012).   %
     %                                                                      %
     %%%%%%%%%%%%%%%%%%%%%%%%%%%%%%%%%%%%%%%%%%%%%%%%%%%%%%%%%%%%%%%%%%%%%%%%

     Adding external electric field

     Computed dipole along edir(3) :
        Dipole              -14.3577 Ry au,        -36.4937 Debye
        Dipole field         -0.0271 Ry au,

        Potential amp.        2.5117 Ry
        Total length         46.3494 bohr

     Starting wfcs are  306 atomic wfcs
  @ DRIVER MODE: Message from server: STATUS
  @ DRIVER MODE: Message from server: POSDATA
  @ DRIVER MODE: Reading and sharing cell
  @ DRIVER MODE: Reading and sharing positions
  @ DRIVER MODE: Received positions

     Self-consistent Calculation

     iteration #  1     ecut=    29.40 Ry     beta= 0.05
     Davidson diagonalization with overlap
     c_bands:  3 eigenvalues not converged
     c_bands:  4 eigenvalues not converged
     c_bands:  4 eigenvalues not converged
     c_bands:  4 eigenvalues not converged
     c_bands:  5 eigenvalues not converged
     c_bands:  3 eigenvalues not converged
     c_bands:  2 eigenvalues not converged
     c_bands:  4 eigenvalues not converged
     ethr =  1.00E-05,  avg # of iterations = 21.9

[...]

     total energy              =   -2220.92914653 Ry
     estimated scf accuracy    <    8587.29885214 Ry

     iteration #  2     ecut=    29.40 Ry     beta= 0.05
     Davidson diagonalization with overlap
     ethr =  1.00E-02,  avg # of iterations = 28.0

[...]

     iteration # 85     ecut=    29.40 Ry     beta= 0.05
     Davidson diagonalization with overlap
     c_bands:  1 eigenvalues not converged
     ethr =  3.13E-11,  avg # of iterations =  6.8

[...]

     total energy              =   -2975.10526645 Ry
     estimated scf accuracy    <       0.00000008 Ry

     iteration # 90     ecut=    29.40 Ry     beta= 0.05
     Davidson diagonalization with overlap
     ethr =  1.96E-11,  avg # of iterations =  2.0

     negative rho (up, down):  1.579E-02 0.000E+00

     Adding external electric field

     Computed dipole along edir(3) :
        Dipole                1.0220 Ry au,          2.5977 Debye
        Dipole field          0.0019 Ry au,

        Potential amp.       -0.1788 Ry
        Total length         46.3494 bohr

     End of self-consistent calculation

          k = 0.0000 0.0000 0.0000 ( 18029 PWs)   bands (ev):

   -55.3867 -55.3509 -55.3469 -55.3128 -55.3094 -55.3038 -55.2686 -55.2333
   -55.2181 -55.1833 -55.1765 -55.1611 -55.1428 -55.1141 -54.3779 -54.3438
   -31.9457 -31.8817 -31.8397 -31.7583 -31.7093 -31.7067 -31.6824 -31.6795
   -31.6356 -31.5997 -31.5925 -31.5914 -31.5846 -31.5806 -31.5626 -31.5607
   -31.5360 -31.5280 -31.5251 -31.5136 -31.4995 -31.4929 -31.4739 -31.4694
   -31.4610 -31.4477 -31.4472 -31.4183 -31.4041 -31.4003 -31.3971 -31.3749
   -31.3712 -31.3669 -31.3635 -31.3423 -31.3313 -31.3191 -31.3045 -31.3042
   -31.2943 -31.2875 -30.7873 -30.6929 -30.6708 -30.6037 -30.5169 -30.4060
   -18.8813 -18.4555 -16.2213 -15.9740 -15.8379 -15.7334 -15.5961 -15.4980
   -15.3887 -15.2756 -15.2525 -15.1590 -15.0843 -15.0802 -15.0433 -15.0176
   -14.9549 -14.9336 -14.9098 -14.9039 -14.8893 -14.8791 -14.8426 -14.8316
   -14.7999 -14.7877 -14.7705 -14.6566 -14.6282 -14.5531 -14.4826 -14.3464
   -12.8801 -12.7627  -9.8347  -7.0265  -6.3783  -6.0892  -4.4253  -3.7338
    -3.5450  -3.4116  -3.3331  -3.3043  -3.2869  -3.1554  -3.0616  -2.9031
    -2.8644  -2.8081  -2.6749  -2.5991  -2.5927  -2.5048  -2.4323  -2.4089
    -2.3760  -2.2668  -2.2605  -2.2107  -2.1934  -2.1702  -2.1610  -2.1143
    -2.0687  -2.0413  -1.9561  -1.8547  -1.8107  -1.7911  -1.7546  -1.7320
    -1.7272  -1.6836  -1.6776  -1.6536  -1.6150  -1.5906  -1.5451  -1.4331
    -1.3911  -1.2327  -1.1953  -1.0411  -1.0207  -0.9815  -0.9611  -0.9199
    -0.8945  -0.8782  -0.8594  -0.7736  -0.7151  -0.6490  -0.5849  -0.4939
    -0.4835  -0.4099  -0.3839  -0.3188  -0.2312  -0.1868  -0.1773  -0.1523
    -0.1489  -0.0350   0.0097   0.0700   0.0886   0.1461   0.1620   0.1841
     0.2541   0.3075   0.3771   0.4077   0.4869   0.5051   0.5402   0.5494
     0.5817   0.5921   0.6683   0.6832   0.7114   0.8141   0.9117   1.0046
     1.2150   1.2172   1.2524   1.5497   1.5519   1.6452   1.8286   2.2215
     2.2699   3.7032   3.7816   3.8312   3.8487   3.8533   3.9382   4.1928
     4.2070   4.2197   4.2260   4.2665

[...]

          k = 0.0380-0.0419 0.0000 ( 17876 PWs)   bands (ev):

[...]

          k =-0.0760-0.0000 0.0000 ( 17886 PWs)   bands (ev):

[...]

          k =-0.0760-0.0839 0.0000 ( 17948 PWs)   bands (ev):

   -55.3698 -55.3675 -55.3298 -55.3298 -55.3064 -55.3029 -55.2549 -55.2470
   -55.2037 -55.1973 -55.1630 -55.1605 -55.1589 -55.1158 -54.3608 -54.3608
   -31.7963 -31.7581 -31.7440 -31.6548 -31.6547 -31.6399 -31.6279 -31.6209
   -31.6208 -31.5999 -31.5947 -31.5917 -31.5687 -31.5612 -31.5490 -31.5351
   -31.5320 -31.5295 -31.5256 -31.5174 -31.5127 -31.5107 -31.5096 -31.5021
   -31.4699 -31.4686 -31.4496 -31.4495 -31.4490 -31.4439 -31.4414 -31.4366
   -31.4274 -31.4158 -31.4103 -31.3934 -31.3917 -31.3822 -31.3404 -31.3394
   -31.3389 -31.3204 -30.6835 -30.6834 -30.5999 -30.5997 -30.5603 -30.5603
   -18.8755 -18.4579 -15.8409 -15.6541 -15.5028 -15.4310 -15.4107 -15.3275
   -15.2720 -15.2688 -15.1958 -15.1778 -15.1653 -15.1437 -15.1342 -15.0867
   -15.0496 -15.0130 -14.9943 -14.9716 -14.9284 -14.9058 -14.9041 -14.8973
   -14.8896 -14.8492 -14.8441 -14.8408 -14.7490 -14.7471 -14.7158 -14.5639
   -12.8641 -12.8641  -9.8440  -7.0148  -6.3538  -6.0654  -4.4388  -3.6615
    -3.0233  -2.9123  -2.9017  -2.6726  -2.6544  -2.5934  -2.5809  -2.4929
    -2.4773  -2.4167  -2.3931  -2.3430  -2.3200  -2.2820  -2.2683  -2.2465
    -2.2256  -2.2119  -2.1853  -2.1692  -2.1522  -2.1328  -2.1215  -2.1102
    -2.0548  -2.0495  -2.0404  -2.0151  -1.9920  -1.9559  -1.9460  -1.9296
    -1.7743  -1.7584  -1.7370  -1.6016  -1.5973  -1.5625  -1.5231  -1.4955
    -1.4375  -1.4291  -1.4008  -1.3420  -1.1472  -1.1372  -1.1256  -1.1078
    -1.0374  -0.9809  -0.9672  -0.9493  -0.8957  -0.8176  -0.7814  -0.7308
    -0.6393  -0.5903  -0.5805  -0.5548  -0.4335  -0.4108  -0.3682  -0.3502
    -0.3340  -0.2996  -0.2981  -0.2401  -0.1878  -0.1525  -0.1296  -0.1153
    -0.0783   0.0766   0.1283   0.1449   0.2588   0.2885   0.4665   0.5094
     0.5310   0.6361   0.7195   0.7475   0.7620   0.8872   0.9094   0.9119
     0.9802   1.0024   1.0625   1.0683   1.2093   2.0013   2.0026   2.0897
     2.0900   3.8283   3.9511   3.9955   4.0313   4.1072   4.1600   4.2170
     4.2761   4.2878   4.2912   4.3586

     the Fermi energy is     3.7653 ev

!    total energy              =   -2975.10527312 Ry
     estimated scf accuracy    <       0.00000007 Ry
     smearing contrib. (-TS)   =      -0.03671213 Ry
     internal energy E=F+TS    =   -2975.06856098 Ry

     The total energy is F=E-TS. E is the sum of the following terms:
     one-electron contribution =  -23505.93085487 Ry
     hartree contribution      =   11848.96658351 Ry
     xc contribution           =    -494.92133775 Ry
     ewald contribution        =    9176.81507697 Ry
     electric field correction =       0.00197116 Ry

     convergence has been achieved in  90 iterations

     Forces acting on atoms (cartesian axes, Ry/au):

     atom    1 type  1   force =     0.00002932   -0.00025327    0.09310906
     atom    2 type  1   force =    -0.00018975   -0.00032778   -0.17839147
     atom    3 type  2   force =     0.00006324   -0.00016551   -0.02024500
     atom    4 type  2   force =     0.00001610   -0.00203583    0.05925440
     atom    5 type  2   force =    -0.01032203   -0.00110612    0.00809389
     atom    6 type  2   force =     0.01216804   -0.00054775    0.00817408
     atom    7 type  1   force =     0.00014991    0.00329066   -0.01112469
     atom    8 type  1   force =    -0.00030257    0.00053314   -0.00561185
     atom    9 type  2   force =     0.00004119    0.00017793   -0.00013511
     atom   10 type  2   force =    -0.00146389   -0.00003268   -0.00170733
     atom   11 type  2   force =     0.00037724   -0.00003484   -0.00006037
     atom   12 type  2   force =    -0.00009665    0.00010648   -0.00008781
     atom   13 type  1   force =    -0.00009444   -0.00017246   -0.00024356
     atom   14 type  1   force =    -0.00021591   -0.00036170    0.00034995
     atom   15 type  2   force =     0.00006452   -0.00049285    0.00008728
     atom   16 type  2   force =     0.00022221    0.00009683    0.00024751
     atom   17 type  2   force =     0.00040627   -0.00016582    0.00022807
     atom   18 type  2   force =    -0.00004426   -0.00016083   -0.00015027
     atom   19 type  1   force =    -0.00032850   -0.00041598    0.00002231
     atom   20 type  1   force =     0.00023739    0.00039871    0.00018611
     atom   21 type  2   force =    -0.00000532   -0.00007537    0.10403183
     atom   22 type  2   force =    -0.00012952    0.00016804   -0.00002437
     atom   23 type  2   force =    -0.07034186   -0.00015943   -0.02683140
     atom   24 type  2   force =     0.07020584    0.00029077   -0.02691072
     atom   25 type  1   force =     0.00002000   -0.00016176    0.09277218
     atom   26 type  1   force =    -0.00016032   -0.00039097   -0.17834032
     atom   27 type  2   force =     0.00011159   -0.00031042   -0.01919160
     atom   28 type  2   force =     0.00004562   -0.00163194    0.05840681
     atom   29 type  2   force =    -0.01028032   -0.00064335    0.00729901
     atom   30 type  2   force =     0.01201141   -0.00031047    0.00743463
     atom   31 type  1   force =     0.00008111    0.00514801   -0.01466713
     atom   32 type  1   force =    -0.00014227   -0.00052021   -0.00595617
     atom   33 type  2   force =     0.00012753   -0.00039292   -0.00022089
     atom   34 type  2   force =    -0.00078386    0.00260453   -0.00102928
     atom   35 type  2   force =    -0.00007246   -0.00011413   -0.00012221
     atom   36 type  2   force =     0.00023536    0.00000489   -0.00014896
     atom   37 type  1   force =    -0.00043393    0.00008647    0.00002287
     atom   38 type  1   force =    -0.00003015   -0.00024201   -0.00024107
     atom   39 type  2   force =    -0.00031060   -0.00020241   -0.00020400
     atom   40 type  2   force =    -0.00013407   -0.00006156   -0.00003944
     atom   41 type  2   force =    -0.00014605   -0.00014328    0.00035041
     atom   42 type  2   force =    -0.00004848   -0.00023097    0.00010284
     atom   43 type  1   force =    -0.00002301   -0.00033446    0.00013486
     atom   44 type  1   force =     0.00002586   -0.00018608    0.00021993
     atom   45 type  2   force =     0.00000921   -0.00010634    0.10398722
     atom   46 type  2   force =    -0.07036157   -0.00012090   -0.02685434
     atom   47 type  2   force =     0.07021479    0.00031768   -0.02691346
     atom   48 type  3   force =    -0.00025386    0.00023357    0.00047412
     atom   49 type  3   force =     0.00199201    0.00553555   -0.00371106
     atom   50 type  4   force =     0.00022700    0.00111848    0.00053713
     atom   51 type  5   force =     0.00000460   -0.00065102   -0.00039326
     atom   52 type  5   force =    -0.00004344   -0.00099860   -0.00024867
     atom   53 type  5   force =    -0.00021888   -0.00043117    0.00006767
     atom   54 type  5   force =    -0.00201734   -0.00474592    0.00395917
     atom   55 type  2   force =     0.00014706   -0.00014545    0.00051524
     atom   56 type  5   force =     0.00020385   -0.00039205   -0.00039542
     atom   57 type  5   force =    -0.00044299   -0.00013515    0.00013270

     Total force =     0.366333     Total SCF correction =     0.000586
  @ DRIVER MODE: Message from server: STATUS
  @ DRIVER MODE: Message from server: GETFORCE
  @ DRIVER MODE: Returning v,forces,stress,ensemble

     Writing output data file ./calc.save/
  @ DRIVER MODE: Message from server: EXIT
  @ DRIVE MODE: Exiting

     General routines

     Parallel routines

   This run was terminated on:   7:15: 0  23Sep2021

   JOB DONE.