     Program PWSCF v.6.7GPU starts on 23Sep2021 at  6:29: 2

     R & G space division:  proc/nbgrp/npool/nimage =      10
     Reading input from /storage/home/hcoda1/3/ntian30/research/carbon/CxH_vib/H2O_calc/ads_slab/CH2NHNHO_a/out_0044/pw.inp
Warning: card &CELL ignored
Warning: card   CELL_DYNAMICS='IPI', ignored
Warning: card / ignored

     Current dimensions of program PWSCF are:
     Max number of different atomic species (ntypx) = 10
     Max number of k-points (npk) =  40000
     Max angular momentum in pseudopotentials (lmaxx) =  3
     Presently no symmetry can be used with electric field

     Message from routine cell_base_init:
     DEPRECATED: use true lattice parameter, not A to a.u. conversion factor

     IMPORTANT: XC functional enforced from input :
     Exchange-correlation= BEEF-VDW
                           (   1   4  43  14   2   0   0)
     Any further DFT definition will be discarded
     Please, verify this is what you really want

  @ DRIVER MODE: Connecting to
 qe_1139763_2937322.sched-torque.pace.gatech.edu5wd6ag01_scratch
  using UNIX socket
  @ DRIVER MODE: Message from server: STATUS
  @ DRIVER MODE: Message from server: INIT
  @ DRIVER MODE: Receiving replica           0          -1
  @ DRIVER MODE: Receiving encoded integer          25
  @ DRIVER MODE:  SCF:  T  FORCE:  T  STRESS:  F  VC:  F  ENSEMBLE:  F
  @ DRIVER MODE:  SCF:  T  FORCE:  T  STRESS:  F  VC:  F  ENSEMBLE:  F

     Using Slab Decomposition

     bravais-lattice index     =            0
     lattice parameter (alat)  =       1.8897  a.u.
     unit-cell volume          =    6658.9804 (a.u.)^3
     number of atoms/cell      =           55
     number of atomic types    =            5
     number of electrons       =       402.00
     number of Kohn-Sham states=          211
     kinetic-energy cutoff     =      29.3995  Ry
     charge density cutoff     =     293.9946  Ry
     scf convergence threshold =      7.3E-08
     mixing beta               =       0.0500
     number of iterations used =            8  plain     mixing
     Exchange-correlation= BEEF-VDW
                           (   1   4  43  14   2   0   0)

     celldm(1)=   1.889726  celldm(2)=   0.000000  celldm(3)=   0.000000
     celldm(4)=   0.000000  celldm(5)=   0.000000  celldm(6)=   0.000000

     crystal axes: (cart. coord. in units of alat)
               a(1) = (   6.579727   0.000000   0.000000 )
               a(2) = (  -0.000775   5.961596   0.000000 )
               a(3) = (   0.000000   0.000000  25.155947 )

     reciprocal axes: (cart. coord. in units 2 pi/alat)
               b(1) = (  0.151982  0.000020  0.000000 )
               b(2) = (  0.000000  0.167740  0.000000 )
               b(3) = (  0.000000  0.000000  0.039752 )

     PseudoPot. # 1 for Ti read from file:
     /storage/coda1/p-amedford6/0/shared/rich_project_chbe-medford/medford-share/data/pseudos_module/espresso/nninc/pbe/van/Ti.UPF
     MD5 check sum: 8e4df49b7f0d34bbd5052bf3f5ea0213
     Pseudo is Ultrasoft, Zval = 12.0
     Generated by new atomic code, or converted to UPF format
     Using radial grid of  851 points,  6 beta functions with:
                l(1) =   0
                l(2) =   0
                l(3) =   1
                l(4) =   1
                l(5) =   2
                l(6) =   2
     Q(r) pseudized with  8 coefficients,  rinner =    1.000   1.000   1.000
                                                       1.000   1.000

     PseudoPot. # 2 for O  read from file:
     /storage/coda1/p-amedford6/0/shared/rich_project_chbe-medford/medford-share/data/pseudos_module/espresso/nninc/pbe/van/O.UPF
     MD5 check sum: 78c19812648e8988a0fe644b0f25305e
     Pseudo is Ultrasoft, Zval =  6.0
     Generated by new atomic code, or converted to UPF format
     Using radial grid of  737 points,  4 beta functions with:
                l(1) =   0
                l(2) =   0
                l(3) =   1
                l(4) =   1
     Q(r) pseudized with  8 coefficients,  rinner =    0.800   0.800   0.800

     PseudoPot. # 3 for N  read from file:
     /storage/coda1/p-amedford6/0/shared/rich_project_chbe-medford/medford-share/data/pseudos_module/espresso/nninc/pbe/van/N.UPF
     MD5 check sum: 90d10febe142ad51ac9d5be1deb811c4
     Pseudo is Ultrasoft, Zval =  5.0
     Generated by new atomic code, or converted to UPF format
     Using radial grid of  729 points,  4 beta functions with:
                l(1) =   0
                l(2) =   0
                l(3) =   1
                l(4) =   1
     Q(r) pseudized with  8 coefficients,  rinner =    0.800   0.800   0.800

     PseudoPot. # 4 for C  read from file:
     /storage/coda1/p-amedford6/0/shared/rich_project_chbe-medford/medford-share/data/pseudos_module/espresso/nninc/pbe/van/C.UPF
     MD5 check sum: 1a69bf6b8db32088f5b2163dbdb77a27
     Pseudo is Ultrasoft, Zval =  4.0
     Generated by new atomic code, or converted to UPF format
     Using radial grid of  721 points,  4 beta functions with:
                l(1) =   0
                l(2) =   0
                l(3) =   1
                l(4) =   1
     Q(r) pseudized with  8 coefficients,  rinner =    0.800   0.800   0.800

     PseudoPot. # 5 for H  read from file:
     /storage/coda1/p-amedford6/0/shared/rich_project_chbe-medford/medford-share/data/pseudos_module/espresso/nninc/pbe/van/H.UPF
     MD5 check sum: b5ee9d7bfd3a09ee7748110bda690ff7
     Pseudo is Ultrasoft, Zval =  1.0
     Generated by new atomic code, or converted to UPF format
     Using radial grid of  615 points,  1 beta functions with:
                l(1) =   0
     Q(r) pseudized with  8 coefficients,  rinner =    0.800

     atomic species   valence    mass     pseudopotential
        Ti1           12.00    47.86700     Ti( 1.00)
        O1             6.00    15.99900     O ( 1.00)
        N1             5.00    14.00700     N ( 1.00)
        C1             4.00    12.01100     C ( 1.00)
        H1             1.00     1.00800     H ( 1.00)

     No symmetry found

   Cartesian axes

     site n.     atom                  positions (alat units)
         1           Ti1 tau(   1) = (   0.0004258   2.9801865   6.0000000  )
         2           Ti1 tau(   2) = (   3.2906075   1.4906267   6.0002472  )
         3           O1  tau(   3) = (   0.0006271   0.0005054   7.9858123  )
         4           O1  tau(   4) = (   3.2906025   0.0005020   7.3038282  )
         5           O1  tau(   5) = (   4.5942328   1.4918067   9.2879030  )
         6           O1  tau(   6) = (   1.9868534   1.4903216   9.2879459  )
         7           Ti1 tau(   7) = (   3.2907910   2.8959150   9.1758416  )
         8           Ti1 tau(   8) = (   0.0015273   1.4827037   9.2680791  )
         9           O1  tau(   9) = (   3.2865774   0.0244666  11.2672233  )
        10           O1  tau(  10) = (   0.0116148   5.9584955  10.6183126  )
        11           O1  tau(  11) = (   1.2851059   1.4881214  12.6284388  )
        12           O1  tau(  12) = (   5.2821296   1.4859116  12.6239949  )
        13           Ti1 tau(  13) = (   6.5757640   3.1226837  12.6583379  )
        14           Ti1 tau(  14) = (   3.2808560   1.5553189  12.4169499  )
        15           O1  tau(  15) = (   6.5631415   0.0020138  14.6662933  )
        16           O1  tau(  16) = (   3.2768600   5.9282172  13.8639556  )
        17           O1  tau(  17) = (   4.5247100   1.5609280  15.9911388  )
        18           O1  tau(  18) = (   2.0319249   1.5505618  16.0334288  )
        19           Ti1 tau(  19) = (   3.2655126   3.0139642  15.6417618  )
        20           Ti1 tau(  20) = (   6.4701730   1.5779936  15.7979382  )
        21           O1  tau(  21) = (   3.2904802   0.0005063   4.7018136  )
        22           O1  tau(  22) = (   6.5470303   0.0764028  17.2486596  )
        23           O1  tau(  23) = (   1.3043587   1.4918075   6.0039043  )
        24           O1  tau(  24) = (   5.2767064   1.4903225   6.0039473  )
        25           Ti1 tau(  25) = (   0.0000382   5.9609847   6.0000000  )
        26           Ti1 tau(  26) = (   3.2902200   4.4714249   6.0002472  )
        27           O1  tau(  27) = (   0.0002396   2.9813036   7.9858123  )
        28           O1  tau(  28) = (   3.2902150   2.9813002   7.3038282  )
        29           O1  tau(  29) = (   4.5938453   4.4726049   9.2879030  )
        30           O1  tau(  30) = (   1.9864658   4.4711199   9.2879459  )
        31           Ti1 tau(  31) = (   3.2891106   5.8743827   9.1763621  )
        32           Ti1 tau(  32) = (   0.0006254   4.4649316   9.2693709  )
        33           O1  tau(  33) = (   3.2856154   2.9374191  11.2445503  )
        34           O1  tau(  34) = (   0.0092240   2.9805883  10.6323155  )
        35           O1  tau(  35) = (   1.2776263   4.4762221  12.6158080  )
        36           O1  tau(  36) = (   5.2889682   4.4773653  12.6103441  )
        37           Ti1 tau(  37) = (   6.5721904   0.1276321  12.6579576  )
        38           Ti1 tau(  38) = (   3.2825792   4.6513186  12.6446142  )
        39           O1  tau(  39) = (   6.5601178   2.9984380  14.6401328  )
        40           O1  tau(  40) = (   3.2784952   3.0022753  13.8540846  )
        41           O1  tau(  41) = (   4.5130724   4.4679886  16.1105769  )
        42           O1  tau(  42) = (   2.0068779   4.4712703  16.0772645  )
        43           Ti1 tau(  43) = (   3.1879138   0.0422448  16.2953621  )
        44           Ti1 tau(  44) = (   6.5239028   4.6756254  16.1574449  )
        45           O1  tau(  45) = (   3.2900926   2.9813045   4.7018136  )
        46           O1  tau(  46) = (   1.3039711   4.4726057   6.0039043  )
        47           O1  tau(  47) = (   5.2763189   4.4711207   6.0039473  )
        48           N1  tau(  48) = (   0.1470516   2.5879757  18.5611170  )
        49           N1  tau(  49) = (   6.5778558   2.9357776  17.3215245  )
        50           C1  tau(  50) = (   0.2601206   3.3452726  19.6311682  )
        51           H1  tau(  51) = (   0.3627438   2.8498571  20.5812141  )
        52           H1  tau(  52) = (   0.2464683   4.4174571  19.5160682  )
        53           H1  tau(  53) = (   0.1772712   1.5612145  18.6921905  )
        54           O1  tau(  54) = (   3.2326362   0.0923429  18.1472848  )
        55           H1  tau(  55) = (   3.6309404   5.2806276  18.5811828  )

     number of k points=    10  Fermi-Dirac smearing, width (Ry)=  0.0073
                       cart. coord. in units 2pi/alat
        k(    1) = (   0.0000000   0.0000000   0.0000000), wk =   0.1250000
        k(    2) = (   0.0000000   0.0419351   0.0000000), wk =   0.2500000
        k(    3) = (   0.0000000  -0.0838702   0.0000000), wk =   0.1250000
        k(    4) = (   0.0379955   0.0000049   0.0000000), wk =   0.2500000
        k(    5) = (   0.0379955   0.0419400   0.0000000), wk =   0.2500000
        k(    6) = (   0.0379955  -0.0838652   0.0000000), wk =   0.2500000
        k(    7) = (   0.0379955  -0.0419301   0.0000000), wk =   0.2500000
        k(    8) = (  -0.0759910  -0.0000099   0.0000000), wk =   0.1250000
        k(    9) = (  -0.0759910   0.0419252   0.0000000), wk =   0.2500000
        k(   10) = (  -0.0759910  -0.0838800   0.0000000), wk =   0.1250000

     Initial potential from superposition of free atoms

     starting charge  385.99915, renormalised to  402.00000

     negative rho (up, down):  1.462E-02 0.000E+00

     %%%%%%%%%%%%%%%%%%%%%%%%%%%%%%%%%%%%%%%%%%%%%%%%%%%%%%%%%%%%%%%%%%%%%%%%
     %                                                                      %
     % You are using vdW-DF, which was implemented by the Thonhauser group. %
     % Please cite the following two papers that made this development      %
     % possible and the two reviews that describe the various versions:     %
     %                                                                      %
     %   T. Thonhauser et al., PRL 115, 136402 (2015).                      %
     %   T. Thonhauser et al., PRB 76, 125112 (2007).                       %
     %   K. Berland et al., Rep. Prog. Phys. 78, 066501 (2015).             %
     %   D.C. Langreth et al., J. Phys.: Condens. Matter 21, 084203 (2009). %
     %                                                                      %
     %                                                                      %
     % If you are calculating the stress with vdW-DF, please also cite:     %
     %                                                                      %
     %   R. Sabatini et al., J. Phys.: Condens. Matter 24, 424209 (2012).   %
     %                                                                      %
     %%%%%%%%%%%%%%%%%%%%%%%%%%%%%%%%%%%%%%%%%%%%%%%%%%%%%%%%%%%%%%%%%%%%%%%%

     Adding external electric field

     Computed dipole along edir(3) :
        Dipole              -11.6290 Ry au,        -29.5581 Debye
        Dipole field         -0.0219 Ry au,

        Potential amp.        2.0343 Ry
        Total length         46.3494 bohr

     Starting wfcs are  304 atomic wfcs
  @ DRIVER MODE: Message from server: STATUS
  @ DRIVER MODE: Message from server: POSDATA
  @ DRIVER MODE: Reading and sharing cell
  @ DRIVER MODE: Reading and sharing positions
  @ DRIVER MODE: Received positions

     Self-consistent Calculation

     iteration #  1     ecut=    29.40 Ry     beta= 0.05
     Davidson diagonalization with overlap
     c_bands:  3 eigenvalues not converged
     c_bands:  2 eigenvalues not converged
     c_bands:  3 eigenvalues not converged
     c_bands:  4 eigenvalues not converged
     c_bands:  1 eigenvalues not converged
     c_bands:  4 eigenvalues not converged
     c_bands:  5 eigenvalues not converged
     c_bands:  5 eigenvalues not converged
     c_bands:  5 eigenvalues not converged
     ethr =  1.00E-05,  avg # of iterations = 23.9

[...]

     total energy              =   -2412.16970900 Ry
     estimated scf accuracy    <    6293.19878518 Ry

     iteration #  2     ecut=    29.40 Ry     beta= 0.05
     Davidson diagonalization with overlap
     ethr =  1.00E-02,  avg # of iterations = 23.6

[...]

     iteration # 38     ecut=    29.40 Ry     beta= 0.05
     Davidson diagonalization with overlap
     c_bands:  1 eigenvalues not converged
     c_bands:  2 eigenvalues not converged
     ethr =  5.08E-07,  avg # of iterations = 12.1

[...]

     total energy              =   -2972.74109479 Ry
     estimated scf accuracy    <       0.00000015 Ry

     iteration # 60     ecut=    29.40 Ry     beta= 0.05
     Davidson diagonalization with overlap
     ethr =  3.67E-11,  avg # of iterations =  6.0

     negative rho (up, down):  1.521E-02 0.000E+00

     Adding external electric field

     Computed dipole along edir(3) :
        Dipole                0.6664 Ry au,          1.6939 Debye
        Dipole field          0.0013 Ry au,

        Potential amp.       -0.1166 Ry
        Total length         46.3494 bohr

     End of self-consistent calculation

          k = 0.0000 0.0000 0.0000 ( 18029 PWs)   bands (ev):

   -56.4999 -56.4663 -55.7005 -55.6664 -55.4415 -55.3852 -55.1381 -55.1075
   -55.0885 -55.0547 -55.0341 -54.9829 -54.9791 -54.7865 -54.7542 -54.6422
   -32.9236 -32.7776 -32.7495 -32.6737 -32.5831 -32.5501 -32.1838 -31.9226
   -31.9217 -31.8918 -31.8405 -31.8360 -31.8163 -31.6707 -31.6626 -31.6155
   -31.5918 -31.5877 -31.5458 -31.5125 -31.4750 -31.4605 -31.4334 -31.4091
   -31.3729 -31.3707 -31.3674 -31.3568 -31.3054 -31.2953 -31.2727 -31.2494
   -31.2308 -31.2153 -31.2136 -31.2022 -31.1831 -31.1719 -31.1566 -31.1019
   -31.0464 -31.0259 -30.9968 -30.9852 -30.9699 -30.9190 -30.8572 -30.8326
   -18.6490 -16.6346 -16.1278 -16.0543 -15.8370 -15.7749 -15.7191 -15.7147
   -15.6693 -15.4282 -15.3907 -15.3572 -15.3139 -15.2171 -15.0869 -14.9902
   -14.7987 -14.7444 -14.7424 -14.7125 -14.6876 -14.6551 -14.6299 -14.5984
   -14.5939 -14.5610 -14.5058 -14.3340 -14.2687 -14.0595 -14.0445 -13.5860
   -13.4781 -12.4099  -8.5615  -6.0046  -4.5882  -4.2007  -3.6297  -3.6072
    -3.4300  -3.3421  -3.2492  -3.1674  -3.0696  -3.0413  -2.9621  -2.9222
    -2.9057  -2.8391  -2.8172  -2.6545  -2.6283  -2.6095  -2.5210  -2.4928
    -2.3303  -2.3061  -2.2240  -2.1508  -2.1310  -2.0738  -2.0608  -2.0007
    -1.9488  -1.9317  -1.8654  -1.8594  -1.8447  -1.7318  -1.7163  -1.6802
    -1.6325  -1.5717  -1.5612  -1.5072  -1.4225  -1.4089  -1.2759  -1.1921
    -1.1481  -1.1433  -1.1067  -1.0643  -1.0172  -0.8834  -0.8726  -0.7626
    -0.7430  -0.7411  -0.6735  -0.5769  -0.5555  -0.5229  -0.4467  -0.4110
    -0.3673  -0.3165  -0.2628  -0.1411  -0.1335  -0.1169  -0.0722  -0.0301
    -0.0149   0.0600   0.1509   0.1670   0.2724   0.2882   0.3371   0.4299
     0.5115   0.5216   0.5419   0.6019   0.6455   0.6793   0.7539   0.7727
     0.8135   0.8264   0.8746   0.9334   0.9608   1.0611   1.1087   1.1277
     1.1615   1.2094   1.2884   1.3713   1.4683   1.5100   1.5409   1.8115
     2.3277   2.7829   2.9455   3.2232   3.3344   3.6452   3.7701   3.7710
     3.7817   3.9849   4.1338

[...]

          k = 0.0380-0.0419 0.0000 ( 17876 PWs)   bands (ev):

[...]

          k =-0.0760-0.0000 0.0000 ( 17886 PWs)   bands (ev):

[...]

          k =-0.0760-0.0839 0.0000 ( 17948 PWs)   bands (ev):

   -56.4833 -56.4828 -55.6864 -55.6804 -55.4358 -55.3908 -55.1369 -55.1032
   -55.0717 -55.0713 -55.0383 -54.9820 -54.9796 -54.7879 -54.7519 -54.6443
   -32.7635 -32.7630 -32.7409 -32.7403 -32.6272 -32.6267 -32.0063 -32.0015
   -31.8812 -31.8757 -31.8707 -31.8608 -31.7430 -31.7082 -31.6640 -31.6572
   -31.6171 -31.6133 -31.4436 -31.4354 -31.4222 -31.4220 -31.3817 -31.3774
   -31.3615 -31.3534 -31.3403 -31.3217 -31.3002 -31.2933 -31.2926 -31.2746
   -31.2549 -31.2548 -31.2537 -31.2396 -31.2211 -31.1868 -31.1787 -31.1492
   -31.1339 -31.0503 -31.0067 -31.0009 -30.9864 -30.9485 -30.8717 -30.8593
   -18.6453 -16.0439 -16.0037 -16.0009 -15.9406 -15.9389 -15.7062 -15.7023
   -15.4666 -15.4384 -15.2801 -15.1870 -15.1691 -15.1073 -15.0692 -15.0171
   -14.9626 -14.9335 -14.8228 -14.7851 -14.7541 -14.7163 -14.6898 -14.6697
   -14.6094 -14.5729 -14.5492 -14.4502 -14.4263 -14.1916 -14.1836 -13.5823
   -13.5820 -12.4148  -8.5640  -5.9995  -4.5449  -3.6516  -3.3331  -3.0710
    -3.0668  -3.0611  -3.0561  -3.0129  -2.8169  -2.8133  -2.6603  -2.6268
    -2.6150  -2.5896  -2.5587  -2.4550  -2.3788  -2.3620  -2.3604  -2.3562
    -2.3070  -2.2989  -2.2478  -2.1696  -2.1065  -2.0980  -2.0638  -2.0022
    -1.9432  -1.8947  -1.8903  -1.8524  -1.8292  -1.7980  -1.7788  -1.7573
    -1.7124  -1.6288  -1.5049  -1.4291  -1.3977  -1.3805  -1.3425  -1.2956
    -1.2824  -1.2705  -1.2187  -1.2040  -1.1394  -1.1098  -1.0693  -0.9733
    -0.9132  -0.8821  -0.8576  -0.7530  -0.7140  -0.6393  -0.5941  -0.5595
    -0.5241  -0.5006  -0.4393  -0.4277  -0.3457  -0.2779  -0.2503  -0.1951
    -0.1814  -0.1693  -0.1516  -0.1073  -0.0012   0.0144   0.0482   0.1466
     0.2112   0.2824   0.3009   0.3920   0.4210   0.4917   0.6070   0.6452
     0.7147   0.7784   0.8518   0.9372   0.9856   1.0309   1.1360   1.2213
     1.2366   1.2839   1.3110   1.3161   1.3174   1.3701   1.3902   1.5173
     2.1646   3.3664   3.3681   3.4248   3.4295   3.7293   3.7345   3.8406
     3.8441   4.0939   4.1151

     the Fermi energy is     2.5941 ev

!    total energy              =   -2972.74114038 Ry
     estimated scf accuracy    <       0.00000006 Ry
     smearing contrib. (-TS)   =      -0.00419711 Ry
     internal energy E=F+TS    =   -2972.73694326 Ry

     The total energy is F=E-TS. E is the sum of the following terms:
     one-electron contribution =  -23699.97791176 Ry
     hartree contribution      =   11945.29762176 Ry
     xc contribution           =    -493.11871412 Ry
     ewald contribution        =    9275.06122270 Ry
     electric field correction =       0.00083815 Ry

     convergence has been achieved in  60 iterations

     Forces acting on atoms (cartesian axes, Ry/au):

     atom    1 type  1   force =     0.00016707   -0.00043103    0.12200301
     atom    2 type  1   force =    -0.00003864    0.00028238   -0.15639775
     atom    3 type  2   force =     0.00004750   -0.00048166   -0.06052754
     atom    4 type  2   force =     0.00005105    0.00071606    0.01972889
     atom    5 type  2   force =    -0.00084983   -0.00259699   -0.01518304
     atom    6 type  2   force =     0.00220170   -0.00198081   -0.01654226
     atom    7 type  1   force =    -0.00030157   -0.00090509    0.05416129
     atom    8 type  1   force =     0.00082122    0.00108079    0.09008026
     atom    9 type  2   force =    -0.00035908   -0.00027474    0.00007965
     atom   10 type  2   force =    -0.00296217    0.00316696   -0.05930283
     atom   11 type  2   force =    -0.00025677    0.00018903    0.00005192
     atom   12 type  2   force =    -0.00022633    0.00013994   -0.00038013
     atom   13 type  1   force =    -0.00052290    0.00040253    0.00033888
     atom   14 type  1   force =     0.00006805    0.00142433   -0.00109749
     atom   15 type  2   force =    -0.00002099   -0.00065461   -0.00144507
     atom   16 type  2   force =     0.00012509    0.00068414    0.00048123
     atom   17 type  2   force =    -0.00077761   -0.00039809   -0.00014621
     atom   18 type  2   force =     0.00044595    0.00003117   -0.00025341
     atom   19 type  1   force =     0.00001690    0.00128139   -0.00006967
     atom   20 type  1   force =     0.00004503    0.00047644    0.00030951
     atom   21 type  2   force =     0.00009114   -0.00002724    0.09826750
     atom   22 type  2   force =     0.00032242   -0.00047406    0.00028034
     atom   23 type  2   force =    -0.08164163   -0.00004864   -0.03248936
     atom   24 type  2   force =     0.08162644    0.00036823   -0.03252071
     atom   25 type  1   force =     0.00002589   -0.00029475    0.12168794
     atom   26 type  1   force =     0.00003262   -0.00154837   -0.15642988
     atom   27 type  2   force =     0.00012941    0.00020955   -0.05949237
     atom   28 type  2   force =     0.00005385    0.00039147    0.01459643
     atom   29 type  2   force =    -0.00455927    0.00218326   -0.01161554
     atom   30 type  2   force =     0.00589033    0.00262944   -0.01292342
     atom   31 type  1   force =    -0.00044071   -0.00213582    0.04016228
     atom   32 type  1   force =     0.00078695   -0.00225630    0.09110317
     atom   33 type  2   force =    -0.00012472    0.00037112    0.00009580
     atom   34 type  2   force =    -0.00235084    0.00049333   -0.06881370
     atom   35 type  2   force =    -0.00022184    0.00005389    0.00026711
     atom   36 type  2   force =     0.00059720   -0.00027243    0.00003321
     atom   37 type  1   force =    -0.00002908    0.00021708   -0.00071585
     atom   38 type  1   force =     0.00012986    0.00103578   -0.00046656
     atom   39 type  2   force =    -0.00049378   -0.00121683    0.00040225
     atom   40 type  2   force =    -0.00001311    0.00044278   -0.00014282
     atom   41 type  2   force =     0.00079633   -0.00038021    0.00001718
     atom   42 type  2   force =    -0.00064342   -0.00077360   -0.00079165
     atom   43 type  1   force =    -0.00019626   -0.00131465    0.00010024
     atom   44 type  1   force =    -0.00002732   -0.00069543    0.00047953
     atom   45 type  2   force =     0.00009527    0.00008559    0.09806818
     atom   46 type  2   force =    -0.08159431   -0.00002667   -0.03248160
     atom   47 type  2   force =     0.08158129    0.00041310   -0.03249965
     atom   48 type  3   force =     0.00020498    0.00011794    0.00033314
     atom   49 type  3   force =    -0.00022841   -0.00144012    0.00032977
     atom   50 type  4   force =     0.00030647    0.00002219   -0.00008010
     atom   51 type  5   force =     0.00071350    0.00033315   -0.00060414
     atom   52 type  5   force =     0.00058392   -0.00101305   -0.00011129
     atom   53 type  5   force =     0.00004403    0.00130523    0.00006054
     atom   54 type  2   force =     0.00273781   -0.00509848    0.00259708
     atom   55 type  5   force =    -0.00185871    0.00619138   -0.00259230

     Total force =     0.408446     Total SCF correction =     0.000541
  @ DRIVER MODE: Message from server: STATUS
  @ DRIVER MODE: Message from server: GETFORCE
  @ DRIVER MODE: Returning v,forces,stress,ensemble

     Writing output data file ./calc.save/
  @ DRIVER MODE: Message from server: EXIT
  @ DRIVE MODE: Exiting

     General routines

     Parallel routines

   This run was terminated on:   6:46: 5  23Sep2021

   JOB DONE.