     Program PWSCF v.6.7GPU starts on 15Sep2021 at 19:58: 5

     R & G space division:  proc/nbgrp/npool/nimage =      10
     Reading input from /storage/home/hcoda1/3/ntian30/research/carbon/CxH_vib/H2O_calc/ads_slab/CHOH2O_a/out_0014/pw.inp
Warning: card &CELL ignored
Warning: card   CELL_DYNAMICS='IPI', ignored
Warning: card / ignored

     Current dimensions of program PWSCF are:
     Max number of different atomic species (ntypx) = 10
     Max number of k-points (npk) =  40000
     Max angular momentum in pseudopotentials (lmaxx) =  3
     Presently no symmetry can be used with electric field

     Message from routine cell_base_init:
     DEPRECATED: use true lattice parameter, not A to a.u. conversion factor

     IMPORTANT: XC functional enforced from input :
     Exchange-correlation= BEEF-VDW
                           (   1   4  43  14   2   0   0)
     Any further DFT definition will be discarded
     Please, verify this is what you really want

  @ DRIVER MODE: Connecting to
 qe_1139763_2852631.sched-torque.pace.gatech.edu2ytxpxf4_scratch
  using UNIX socket
  @ DRIVER MODE: Message from server: STATUS
  @ DRIVER MODE: Message from server: INIT
  @ DRIVER MODE: Receiving replica           0          -1
  @ DRIVER MODE: Receiving encoded integer          25
  @ DRIVER MODE:  SCF:  T  FORCE:  T  STRESS:  F  VC:  F  ENSEMBLE:  F
  @ DRIVER MODE:  SCF:  T  FORCE:  T  STRESS:  F  VC:  F  ENSEMBLE:  F

     Using Slab Decomposition

     bravais-lattice index     =            0
     lattice parameter (alat)  =       1.8897  a.u.
     unit-cell volume          =    6658.9804 (a.u.)^3
     number of atoms/cell      =           53
     number of atomic types    =            4
     number of electrons       =       397.00
     number of Kohn-Sham states=          208
     kinetic-energy cutoff     =      29.3995  Ry
     charge density cutoff     =     293.9946  Ry
     scf convergence threshold =      7.3E-08
     mixing beta               =       0.0500
     number of iterations used =            8  plain     mixing
     Exchange-correlation= BEEF-VDW
                           (   1   4  43  14   2   0   0)

     celldm(1)=   1.889726  celldm(2)=   0.000000  celldm(3)=   0.000000
     celldm(4)=   0.000000  celldm(5)=   0.000000  celldm(6)=   0.000000

     crystal axes: (cart. coord. in units of alat)
               a(1) = (   6.579727   0.000000   0.000000 )
               a(2) = (  -0.000775   5.961596   0.000000 )
               a(3) = (   0.000000   0.000000  25.155947 )

     reciprocal axes: (cart. coord. in units 2 pi/alat)
               b(1) = (  0.151982  0.000020  0.000000 )
               b(2) = (  0.000000  0.167740  0.000000 )
               b(3) = (  0.000000  0.000000  0.039752 )

     PseudoPot. # 1 for O  read from file:
     /storage/coda1/p-amedford6/0/shared/rich_project_chbe-medford/medford-share/data/pseudos_module/espresso/nninc/pbe/van/O.UPF
     MD5 check sum: 78c19812648e8988a0fe644b0f25305e
     Pseudo is Ultrasoft, Zval =  6.0
     Generated by new atomic code, or converted to UPF format
     Using radial grid of  737 points,  4 beta functions with:
                l(1) =   0
                l(2) =   0
                l(3) =   1
                l(4) =   1
     Q(r) pseudized with  8 coefficients,  rinner =    0.800   0.800   0.800

     PseudoPot. # 2 for Ti read from file:
     /storage/coda1/p-amedford6/0/shared/rich_project_chbe-medford/medford-share/data/pseudos_module/espresso/nninc/pbe/van/Ti.UPF
     MD5 check sum: 8e4df49b7f0d34bbd5052bf3f5ea0213
     Pseudo is Ultrasoft, Zval = 12.0
     Generated by new atomic code, or converted to UPF format
     Using radial grid of  851 points,  6 beta functions with:
                l(1) =   0
                l(2) =   0
                l(3) =   1
                l(4) =   1
                l(5) =   2
                l(6) =   2
     Q(r) pseudized with  8 coefficients,  rinner =    1.000   1.000   1.000
                                                       1.000   1.000

     PseudoPot. # 3 for C  read from file:
     /storage/coda1/p-amedford6/0/shared/rich_project_chbe-medford/medford-share/data/pseudos_module/espresso/nninc/pbe/van/C.UPF
     MD5 check sum: 1a69bf6b8db32088f5b2163dbdb77a27
     Pseudo is Ultrasoft, Zval =  4.0
     Generated by new atomic code, or converted to UPF format
     Using radial grid of  721 points,  4 beta functions with:
                l(1) =   0
                l(2) =   0
                l(3) =   1
                l(4) =   1
     Q(r) pseudized with  8 coefficients,  rinner =    0.800   0.800   0.800

     PseudoPot. # 4 for H  read from file:
     /storage/coda1/p-amedford6/0/shared/rich_project_chbe-medford/medford-share/data/pseudos_module/espresso/nninc/pbe/van/H.UPF
     MD5 check sum: b5ee9d7bfd3a09ee7748110bda690ff7
     Pseudo is Ultrasoft, Zval =  1.0
     Generated by new atomic code, or converted to UPF format
     Using radial grid of  615 points,  1 beta functions with:
                l(1) =   0
     Q(r) pseudized with  8 coefficients,  rinner =    0.800

     atomic species   valence    mass     pseudopotential
        O1             6.00    15.99900     O ( 1.00)
        Ti1           12.00    47.86700     Ti( 1.00)
        C1             4.00    12.01100     C ( 1.00)
        H1             1.00     1.00800     H ( 1.00)

     No symmetry found

   Cartesian axes

     site n.     atom                  positions (alat units)
         1           O1  tau(   1) = (   3.2904802   0.0005063   4.7018136  )
         2           O1  tau(   2) = (   3.2900926   2.9813045   4.7018136  )
         3           Ti1 tau(   3) = (   0.0004258   2.9801865   6.0000000  )
         4           Ti1 tau(   4) = (   0.0000382   5.9609847   6.0000000  )
         5           Ti1 tau(   5) = (   3.2906075   1.4906267   6.0002472  )
         6           Ti1 tau(   6) = (   3.2902200   4.4714249   6.0002472  )
         7           O1  tau(   7) = (   1.3043587   1.4918075   6.0039043  )
         8           O1  tau(   8) = (   1.3039711   4.4726057   6.0039043  )
         9           O1  tau(   9) = (   5.2767064   1.4903225   6.0039473  )
        10           O1  tau(  10) = (   5.2763189   4.4711207   6.0039473  )
        11           O1  tau(  11) = (   3.2906025   0.0005020   7.3038282  )
        12           O1  tau(  12) = (   3.2902150   2.9813002   7.3038282  )
        13           O1  tau(  13) = (   0.0006271   0.0005054   7.9858123  )
        14           O1  tau(  14) = (   0.0002396   2.9813036   7.9858123  )
        15           Ti1 tau(  15) = (   3.2898052   0.0549011   9.1556235  )
        16           Ti1 tau(  16) = (   3.3203827   3.0319468   9.1649589  )
        17           Ti1 tau(  17) = (   0.0233352   4.5284096   9.2575609  )
        18           Ti1 tau(  18) = (   0.0173867   1.6076536   9.3607995  )
        19           O1  tau(  19) = (   4.5942328   1.4918067   9.2879030  )
        20           O1  tau(  20) = (   4.5938453   4.4726049   9.2879030  )
        21           O1  tau(  21) = (   1.9868534   1.4903216   9.2879459  )
        22           O1  tau(  22) = (   1.9864658   4.4711199   9.2879459  )
        23           O1  tau(  23) = (   0.0034721   0.0125384  10.6021848  )
        24           O1  tau(  24) = (   0.0020335   2.9928551  10.5785608  )
        25           O1  tau(  25) = (   3.2937812   2.9995440  11.3622203  )
        26           O1  tau(  26) = (   3.2898347   0.0201518  11.3605052  )
        27           Ti1 tau(  27) = (   0.0300534   0.0302837  12.4945235  )
        28           Ti1 tau(  28) = (   3.3347356   4.5017157  12.5123549  )
        29           Ti1 tau(  29) = (   3.3349302   1.5071924  12.5110355  )
        30           Ti1 tau(  30) = (   0.0295963   3.0145660  12.7881340  )
        31           O1  tau(  31) = (   1.2797855   4.4923438  12.6426172  )
        32           O1  tau(  32) = (   1.2799313   1.5104473  12.6443552  )
        33           O1  tau(  33) = (   5.2866386   4.4922094  12.6434695  )
        34           O1  tau(  34) = (   5.2866683   1.5083124  12.6439979  )
        35           O1  tau(  35) = (   3.2814828   3.0070543  13.9178409  )
        36           O1  tau(  36) = (   3.2867003   0.0227894  13.9786966  )
        37           O1  tau(  37) = (   0.0021618   0.0175046  14.6784646  )
        38           O1  tau(  38) = (   0.0002945   3.0143855  14.7103493  )
        39           Ti1 tau(  39) = (   3.2869621   3.0144872  15.7052805  )
        40           Ti1 tau(  40) = (   3.3044863   0.0423327  15.8215216  )
        41           Ti1 tau(  41) = (   0.0135451   4.5796903  15.9522020  )
        42           Ti1 tau(  42) = (   0.0105102   1.3838334  15.9764479  )
        43           O1  tau(  43) = (   4.5519026   4.4709862  16.0573678  )
        44           O1  tau(  44) = (   4.5564327   1.5473262  16.0430495  )
        45           O1  tau(  45) = (   2.0152543   1.5518810  16.0555283  )
        46           O1  tau(  46) = (   2.0123771   4.4621050  16.0713562  )
        47           O1  tau(  47) = (   0.0008539   0.0298781  17.1953024  )
        48           O1  tau(  48) = (   6.5358978   3.0350243  17.4695059  )
        49           C1  tau(  49) = (   6.3916590   3.0774531  18.7359330  )
        50           H1  tau(  50) = (   6.4432689   2.0249999  19.1325638  )
        51           O1  tau(  51) = (   3.2941481   0.0813851  18.1811625  )
        52           H1  tau(  52) = (   4.0521942   5.5777154  18.5714528  )
        53           H1  tau(  53) = (   2.4879692   5.6555715  18.5615442  )

     number of k points=    10  Fermi-Dirac smearing, width (Ry)=  0.0073
                       cart. coord. in units 2pi/alat
        k(    1) = (   0.0000000   0.0000000   0.0000000), wk =   0.1250000
        k(    2) = (   0.0000000   0.0419351   0.0000000), wk =   0.2500000
        k(    3) = (   0.0000000  -0.0838702   0.0000000), wk =   0.1250000
        k(    4) = (   0.0379955   0.0000049   0.0000000), wk =   0.2500000
        k(    5) = (   0.0379955   0.0419400   0.0000000), wk =   0.2500000
        k(    6) = (   0.0379955  -0.0838652   0.0000000), wk =   0.2500000
        k(    7) = (   0.0379955  -0.0419301   0.0000000), wk =   0.2500000
        k(    8) = (  -0.0759910  -0.0000099   0.0000000), wk =   0.1250000
        k(    9) = (  -0.0759910   0.0419252   0.0000000), wk =   0.2500000
        k(   10) = (  -0.0759910  -0.0838800   0.0000000), wk =   0.1250000

     Initial potential from superposition of free atoms

     starting charge  380.99918, renormalised to  397.00000

     negative rho (up, down):  1.751E-02 0.000E+00

     %%%%%%%%%%%%%%%%%%%%%%%%%%%%%%%%%%%%%%%%%%%%%%%%%%%%%%%%%%%%%%%%%%%%%%%%
     %                                                                      %
     % You are using vdW-DF, which was implemented by the Thonhauser group. %
     % Please cite the following two papers that made this development      %
     % possible and the two reviews that describe the various versions:     %
     %                                                                      %
     %   T. Thonhauser et al., PRL 115, 136402 (2015).                      %
     %   T. Thonhauser et al., PRB 76, 125112 (2007).                       %
     %   K. Berland et al., Rep. Prog. Phys. 78, 066501 (2015).             %
     %   D.C. Langreth et al., J. Phys.: Condens. Matter 21, 084203 (2009). %
     %                                                                      %
     %                                                                      %
     % If you are calculating the stress with vdW-DF, please also cite:     %
     %                                                                      %
     %   R. Sabatini et al., J. Phys.: Condens. Matter 24, 424209 (2012).   %
     %                                                                      %
     %%%%%%%%%%%%%%%%%%%%%%%%%%%%%%%%%%%%%%%%%%%%%%%%%%%%%%%%%%%%%%%%%%%%%%%%

     Adding external electric field

     Computed dipole along edir(3) :
        Dipole               -8.9490 Ry au,        -22.7462 Debye
        Dipole field         -0.0169 Ry au,

        Potential amp.        1.5655 Ry
        Total length         46.3494 bohr

     Starting wfcs are  299 atomic wfcs
  @ DRIVER MODE: Message from server: STATUS
  @ DRIVER MODE: Message from server: POSDATA
  @ DRIVER MODE: Reading and sharing cell
  @ DRIVER MODE: Reading and sharing positions
  @ DRIVER MODE: Received positions

     Self-consistent Calculation

     iteration #  1     ecut=    29.40 Ry     beta= 0.05
     Davidson diagonalization with overlap
     c_bands:  1 eigenvalues not converged
     c_bands:  1 eigenvalues not converged
     c_bands:  1 eigenvalues not converged
     c_bands:  1 eigenvalues not converged
     c_bands:  2 eigenvalues not converged
     ethr =  1.00E-05,  avg # of iterations = 19.3

[...]

     total energy              =   -2583.15818995 Ry
     estimated scf accuracy    <    4233.84171950 Ry

     iteration #  2     ecut=    29.40 Ry     beta= 0.05
     Davidson diagonalization with overlap
     ethr =  1.00E-02,  avg # of iterations = 23.7

[...]

     iteration # 79     ecut=    29.40 Ry     beta= 0.05
     Davidson diagonalization with overlap
     ethr =  4.24E-11,  avg # of iterations =  2.8

[...]

     total energy              =   -2963.67534165 Ry
     estimated scf accuracy    <       0.00000012 Ry

     iteration # 80     ecut=    29.40 Ry     beta= 0.05
     Davidson diagonalization with overlap
     c_bands:  1 eigenvalues not converged
     c_bands:  1 eigenvalues not converged
     ethr =  3.09E-11,  avg # of iterations = 15.7

     negative rho (up, down):  1.624E-02 0.000E+00

     Adding external electric field

     Computed dipole along edir(3) :
        Dipole                0.4640 Ry au,          1.1793 Debye
        Dipole field          0.0009 Ry au,

        Potential amp.       -0.0812 Ry
        Total length         46.3494 bohr

     End of self-consistent calculation

          k = 0.0000 0.0000 0.0000 ( 18029 PWs)   bands (ev):

   -56.0141 -55.9772 -55.9772 -55.9557 -55.9411 -55.8969 -55.8630 -55.8282
   -55.7966 -55.7918 -55.7809 -55.7547 -55.7473 -55.6872 -55.0230 -54.9889
   -32.5303 -32.4847 -32.4064 -32.3738 -32.3645 -32.3099 -32.2903 -32.2790
   -32.2593 -32.2466 -32.2080 -32.2012 -32.1911 -32.1724 -32.1711 -32.1595
   -32.1330 -32.1195 -32.1067 -32.1056 -32.0854 -32.0771 -32.0717 -32.0652
   -32.0511 -32.0423 -32.0400 -32.0283 -32.0121 -32.0023 -31.9985 -31.9852
   -31.9656 -31.9593 -31.9564 -31.9538 -31.9254 -31.9076 -31.8973 -31.8864
   -31.8737 -31.8697 -31.4324 -31.3366 -31.3142 -31.2489 -31.1627 -31.0517
   -19.4383 -19.1161 -16.7345 -16.4735 -16.3136 -16.1949 -16.1464 -15.9298
   -15.8459 -15.7958 -15.7080 -15.6322 -15.6035 -15.5865 -15.5534 -15.5390
   -15.5325 -15.5112 -15.4593 -15.4425 -15.4206 -15.4153 -15.4036 -15.3843
   -15.3031 -15.2300 -15.1676 -15.1355 -15.0630 -15.0235 -14.9856 -13.5240
   -13.4061  -7.8963  -6.9227  -4.6569  -4.0927  -3.9499  -3.9304  -3.9018
    -3.8312  -3.6575  -3.6164  -3.4712  -3.3173  -3.3042  -3.1856  -3.1488
    -3.1243  -3.0562  -3.0381  -2.9777  -2.8493  -2.8359  -2.8251  -2.8070
    -2.7966  -2.7528  -2.7312  -2.6947  -2.6538  -2.5875  -2.5175  -2.4888
    -2.4164  -2.4102  -2.3730  -2.3176  -2.3118  -2.2871  -2.2730  -2.2471
    -2.1964  -2.1820  -2.1707  -2.0674  -1.9799  -1.8680  -1.7070  -1.6808
    -1.6777  -1.5548  -1.5061  -1.4489  -1.4194  -1.4175  -1.3678  -1.3191
    -1.2728  -1.2541  -1.1494  -1.0359  -1.0036  -0.9435  -0.9163  -0.7916
    -0.7413  -0.7356  -0.7263  -0.7178  -0.6950  -0.6245  -0.5105  -0.4378
    -0.4289  -0.3375  -0.3153  -0.3025  -0.2440  -0.2346  -0.2135  -0.1589
    -0.1137  -0.0667  -0.0498  -0.0200   0.0173   0.0222   0.1525   0.2021
     0.2306   0.2515   0.2893   0.4582   0.5025   0.6325   0.7381   0.9086
     1.0009   1.0658   1.1754   1.5864   1.6437   2.8408   3.1635   3.2079
     3.2213   3.2358   3.2984   3.4008   3.5462   3.6165   3.6312   3.6663

[...]

          k = 0.0380-0.0419 0.0000 ( 17876 PWs)   bands (ev):

[...]

          k =-0.0760-0.0000 0.0000 ( 17886 PWs)   bands (ev):

[...]

          k =-0.0760-0.0839 0.0000 ( 17948 PWs)   bands (ev):

   -56.0027 -55.9883 -55.9603 -55.9580 -55.9537 -55.8847 -55.8752 -55.8238
   -55.7936 -55.7934 -55.7660 -55.7625 -55.7589 -55.6899 -55.0064 -55.0053
   -32.3452 -32.3246 -32.3189 -32.3089 -32.2964 -32.2931 -32.2733 -32.2463
   -32.2377 -32.2266 -32.2168 -32.2102 -32.1687 -32.1583 -32.1505 -32.1400
   -32.1270 -32.1227 -32.1178 -32.1161 -32.1123 -32.1105 -32.0930 -32.0887
   -32.0884 -32.0819 -32.0760 -32.0483 -32.0313 -32.0259 -32.0178 -32.0160
   -32.0079 -31.9950 -31.9837 -31.9773 -31.9745 -31.9720 -31.9615 -31.9478
   -31.9142 -31.8835 -31.3276 -31.3262 -31.2458 -31.2448 -31.2063 -31.2053
   -19.4298 -19.1155 -16.1868 -16.0797 -16.0707 -15.8959 -15.8819 -15.8595
   -15.8172 -15.8072 -15.7144 -15.7118 -15.6681 -15.6549 -15.6288 -15.5945
   -15.5896 -15.5286 -15.5277 -15.5233 -15.4682 -15.4625 -15.4406 -15.4255
   -15.4036 -15.3938 -15.3484 -15.3370 -15.2738 -15.2043 -15.1922 -13.5085
   -13.5063  -7.8972  -6.9160  -4.6018  -3.7242  -3.4689  -3.3219  -3.2895
    -3.2299  -3.1321  -3.1056  -3.0678  -3.0195  -2.9792  -2.9299  -2.8701
    -2.8466  -2.8431  -2.8322  -2.8265  -2.8073  -2.8007  -2.7614  -2.7366
    -2.7049  -2.6764  -2.6577  -2.6348  -2.6292  -2.6105  -2.5862  -2.5754
    -2.5626  -2.5533  -2.4845  -2.4552  -2.3315  -2.3226  -2.2437  -2.2114
    -2.1500  -2.1432  -2.1205  -2.0781  -2.0694  -2.0543  -1.8795  -1.8553
    -1.7466  -1.7393  -1.7181  -1.6887  -1.5989  -1.5309  -1.4940  -1.4764
    -1.4241  -1.4063  -1.3323  -1.2696  -1.2092  -1.1732  -1.1050  -1.0736
    -1.0578  -0.9799  -0.9704  -0.9345  -0.9093  -0.8913  -0.7722  -0.7654
    -0.7300  -0.6941  -0.6634  -0.6104  -0.5625  -0.5456  -0.5089  -0.4563
    -0.3837  -0.3599  -0.1704   0.0112   0.0179   0.0474   0.1382   0.1772
     0.2956   0.3283   0.3335   0.3685   0.4092   0.5030   0.5256   0.5331
     0.6066   1.3612   1.3621   1.4486   1.4596   2.7079   3.3533   3.4126
     3.4766   3.5126   3.6172   3.6347   3.6492   3.6607   3.6971   3.8076

     the Fermi energy is     3.1368 ev

!    total energy              =   -2963.67534824 Ry
     estimated scf accuracy    <       0.00000006 Ry
     smearing contrib. (-TS)   =      -0.02581703 Ry
     internal energy E=F+TS    =   -2963.64953121 Ry

     The total energy is F=E-TS. E is the sum of the following terms:
     one-electron contribution =  -24422.92520244 Ry
     hartree contribution      =   12298.87693676 Ry
     xc contribution           =    -489.18933536 Ry
     ewald contribution        =    9649.58766361 Ry
     electric field correction =       0.00040622 Ry

     convergence has been achieved in  80 iterations

     Forces acting on atoms (cartesian axes, Ry/au):

     atom    1 type  1   force =    -0.00006439    0.00006782    0.10401680
     atom    2 type  1   force =    -0.00005650    0.00005499    0.10403493
     atom    3 type  2   force =    -0.00018216   -0.00195645    0.10273032
     atom    4 type  2   force =    -0.00008055    0.00160693    0.11462575
     atom    5 type  2   force =    -0.00026286    0.00155674   -0.17904759
     atom    6 type  2   force =    -0.00014143   -0.00104299   -0.17941620
     atom    7 type  1   force =    -0.06953290    0.00065877   -0.02929728
     atom    8 type  1   force =    -0.06907939   -0.00122069   -0.02934227
     atom    9 type  1   force =     0.06920937    0.00118702   -0.02935473
     atom   10 type  1   force =     0.06883872   -0.00085459   -0.02942541
     atom   11 type  1   force =     0.00005916    0.00064139    0.04736481
     atom   12 type  1   force =     0.00063803    0.00090406    0.04973619
     atom   13 type  1   force =     0.00021865   -0.00563424   -0.03307838
     atom   14 type  1   force =     0.00028296    0.00398472   -0.02648220
     atom   15 type  2   force =    -0.00015774   -0.00003971   -0.00072784
     atom   16 type  2   force =    -0.00019860   -0.00005573   -0.00078057
     atom   17 type  2   force =     0.00009219   -0.00093682   -0.00007915
     atom   18 type  2   force =     0.00011711    0.00111239   -0.00010222
     atom   19 type  1   force =    -0.01880783   -0.00005884    0.00453119
     atom   20 type  1   force =    -0.01690318    0.00164718    0.00398275
     atom   21 type  1   force =     0.01838694   -0.00109616    0.00451393
     atom   22 type  1   force =     0.01749552    0.00197611    0.00384087
     atom   23 type  1   force =     0.00018264    0.00005506   -0.00074109
     atom   24 type  1   force =     0.00011248   -0.00022541   -0.00027448
     atom   25 type  1   force =    -0.00031591    0.00016297   -0.00068371
     atom   26 type  1   force =    -0.00019410   -0.00004329   -0.00084693
     atom   27 type  2   force =    -0.00020861    0.00045574    0.00035915
     atom   28 type  2   force =     0.00026791    0.00065138    0.00082068
     atom   29 type  2   force =     0.00028649   -0.00011784    0.00099982
     atom   30 type  2   force =    -0.00019686   -0.00023581    0.00019412
     atom   31 type  1   force =     0.00025522   -0.00007748   -0.00036079
     atom   32 type  1   force =     0.00003398    0.00012118   -0.00008625
     atom   33 type  1   force =    -0.00010199   -0.00017105   -0.00071840
     atom   34 type  1   force =     0.00003797    0.00012491   -0.00042335
     atom   35 type  1   force =     0.00010403   -0.00003623   -0.00116900
     atom   36 type  1   force =     0.00012852   -0.00053437    0.00033775
     atom   37 type  1   force =    -0.00019586    0.00017568    0.00005846
     atom   38 type  1   force =     0.00014484   -0.00003501   -0.00065183
     atom   39 type  2   force =    -0.00007698   -0.00047172    0.00079056
     atom   40 type  2   force =     0.00004077   -0.00076961    0.00001110
     atom   41 type  2   force =     0.00022656   -0.00084774   -0.00002100
     atom   42 type  2   force =    -0.00001940    0.00047882    0.00022376
     atom   43 type  1   force =    -0.00089289   -0.00044605    0.00010085
     atom   44 type  1   force =    -0.00016873   -0.00017290    0.00009074
     atom   45 type  1   force =     0.00017542   -0.00033484    0.00018330
     atom   46 type  1   force =     0.00077286   -0.00014663    0.00008452
     atom   47 type  1   force =    -0.00028181    0.00036867    0.00010559
     atom   48 type  1   force =     0.00009271    0.00077715   -0.00029366
     atom   49 type  3   force =     0.00020903   -0.00072426   -0.00036130
     atom   50 type  4   force =    -0.00083278    0.00117536   -0.00063029
     atom   51 type  1   force =    -0.00017968   -0.00008460   -0.00105099
     atom   52 type  4   force =     0.00093999   -0.00120344    0.00119004
     atom   53 type  4   force =    -0.00021691   -0.00037053    0.00051893

     Total force =     0.374340     Total SCF correction =     0.000506
  @ DRIVER MODE: Message from server: STATUS
  @ DRIVER MODE: Message from server: GETFORCE
  @ DRIVER MODE: Returning v,forces,stress,ensemble

     Writing output data file ./calc.save/
  @ DRIVER MODE: Message from server: EXIT
  @ DRIVE MODE: Exiting

     General routines

     Parallel routines

   This run was terminated on:  20:19:38  15Sep2021

   JOB DONE.