     Program PWSCF v.6.7GPU starts on 23Sep2021 at  4:49:58

     R & G space division:  proc/nbgrp/npool/nimage =      10
     Reading input from /storage/home/hcoda1/3/ntian30/research/carbon/CxH_vib/H2O_calc/ads_slab/CHNHHHO_a/out_0041/pw.inp
Warning: card &CELL ignored
Warning: card   CELL_DYNAMICS='IPI', ignored
Warning: card / ignored

     Current dimensions of program PWSCF are:
     Max number of different atomic species (ntypx) = 10
     Max number of k-points (npk) =  40000
     Max angular momentum in pseudopotentials (lmaxx) =  3
     Presently no symmetry can be used with electric field

     Message from routine cell_base_init:
     DEPRECATED: use true lattice parameter, not A to a.u. conversion factor

     IMPORTANT: XC functional enforced from input :
     Exchange-correlation= BEEF-VDW
                           (   1   4  43  14   2   0   0)
     Any further DFT definition will be discarded
     Please, verify this is what you really want

  @ DRIVER MODE: Connecting to
 qe_1139763_2937313.sched-torque.pace.gatech.edu8ad7ovb0_scratch
  using UNIX socket
  @ DRIVER MODE: Message from server: STATUS
  @ DRIVER MODE: Message from server: INIT
  @ DRIVER MODE: Receiving replica           0          -1
  @ DRIVER MODE: Receiving encoded integer          25
  @ DRIVER MODE:  SCF:  T  FORCE:  T  STRESS:  F  VC:  F  ENSEMBLE:  F
  @ DRIVER MODE:  SCF:  T  FORCE:  T  STRESS:  F  VC:  F  ENSEMBLE:  F

     Using Slab Decomposition

     bravais-lattice index     =            0
     lattice parameter (alat)  =       1.8897  a.u.
     unit-cell volume          =    6658.9804 (a.u.)^3
     number of atoms/cell      =           54
     number of atomic types    =            5
     number of electrons       =       397.00
     number of Kohn-Sham states=          208
     kinetic-energy cutoff     =      29.3995  Ry
     charge density cutoff     =     293.9946  Ry
     scf convergence threshold =      7.3E-08
     mixing beta               =       0.0500
     number of iterations used =            8  plain     mixing
     Exchange-correlation= BEEF-VDW
                           (   1   4  43  14   2   0   0)

     celldm(1)=   1.889726  celldm(2)=   0.000000  celldm(3)=   0.000000
     celldm(4)=   0.000000  celldm(5)=   0.000000  celldm(6)=   0.000000

     crystal axes: (cart. coord. in units of alat)
               a(1) = (   6.579727   0.000000   0.000000 )
               a(2) = (  -0.000775   5.961596   0.000000 )
               a(3) = (   0.000000   0.000000  25.155947 )

     reciprocal axes: (cart. coord. in units 2 pi/alat)
               b(1) = (  0.151982  0.000020  0.000000 )
               b(2) = (  0.000000  0.167740  0.000000 )
               b(3) = (  0.000000  0.000000  0.039752 )

     PseudoPot. # 1 for Ti read from file:
     /storage/coda1/p-amedford6/0/shared/rich_project_chbe-medford/medford-share/data/pseudos_module/espresso/nninc/pbe/van/Ti.UPF
     MD5 check sum: 8e4df49b7f0d34bbd5052bf3f5ea0213
     Pseudo is Ultrasoft, Zval = 12.0
     Generated by new atomic code, or converted to UPF format
     Using radial grid of  851 points,  6 beta functions with:
                l(1) =   0
                l(2) =   0
                l(3) =   1
                l(4) =   1
                l(5) =   2
                l(6) =   2
     Q(r) pseudized with  8 coefficients,  rinner =    1.000   1.000   1.000
                                                       1.000   1.000

     PseudoPot. # 2 for O  read from file:
     /storage/coda1/p-amedford6/0/shared/rich_project_chbe-medford/medford-share/data/pseudos_module/espresso/nninc/pbe/van/O.UPF
     MD5 check sum: 78c19812648e8988a0fe644b0f25305e
     Pseudo is Ultrasoft, Zval =  6.0
     Generated by new atomic code, or converted to UPF format
     Using radial grid of  737 points,  4 beta functions with:
                l(1) =   0
                l(2) =   0
                l(3) =   1
                l(4) =   1
     Q(r) pseudized with  8 coefficients,  rinner =    0.800   0.800   0.800

     PseudoPot. # 3 for N  read from file:
     /storage/coda1/p-amedford6/0/shared/rich_project_chbe-medford/medford-share/data/pseudos_module/espresso/nninc/pbe/van/N.UPF
     MD5 check sum: 90d10febe142ad51ac9d5be1deb811c4
     Pseudo is Ultrasoft, Zval =  5.0
     Generated by new atomic code, or converted to UPF format
     Using radial grid of  729 points,  4 beta functions with:
                l(1) =   0
                l(2) =   0
                l(3) =   1
                l(4) =   1
     Q(r) pseudized with  8 coefficients,  rinner =    0.800   0.800   0.800

     PseudoPot. # 4 for C  read from file:
     /storage/coda1/p-amedford6/0/shared/rich_project_chbe-medford/medford-share/data/pseudos_module/espresso/nninc/pbe/van/C.UPF
     MD5 check sum: 1a69bf6b8db32088f5b2163dbdb77a27
     Pseudo is Ultrasoft, Zval =  4.0
     Generated by new atomic code, or converted to UPF format
     Using radial grid of  721 points,  4 beta functions with:
                l(1) =   0
                l(2) =   0
                l(3) =   1
                l(4) =   1
     Q(r) pseudized with  8 coefficients,  rinner =    0.800   0.800   0.800

     PseudoPot. # 5 for H  read from file:
     /storage/coda1/p-amedford6/0/shared/rich_project_chbe-medford/medford-share/data/pseudos_module/espresso/nninc/pbe/van/H.UPF
     MD5 check sum: b5ee9d7bfd3a09ee7748110bda690ff7
     Pseudo is Ultrasoft, Zval =  1.0
     Generated by new atomic code, or converted to UPF format
     Using radial grid of  615 points,  1 beta functions with:
                l(1) =   0
     Q(r) pseudized with  8 coefficients,  rinner =    0.800

     atomic species   valence    mass     pseudopotential
        Ti1           12.00    47.86700     Ti( 1.00)
        O1             6.00    15.99900     O ( 1.00)
        N1             5.00    14.00700     N ( 1.00)
        C1             4.00    12.01100     C ( 1.00)
        H1             1.00     1.00800     H ( 1.00)

     No symmetry found

   Cartesian axes

     site n.     atom                  positions (alat units)
         1           Ti1 tau(   1) = (   0.0004258   2.9801865   6.0000000  )
         2           Ti1 tau(   2) = (   3.2906075   1.4906267   6.0002472  )
         3           O1  tau(   3) = (   0.0006271   0.0005054   7.9858123  )
         4           O1  tau(   4) = (   3.2906025   0.0005020   7.3038282  )
         5           O1  tau(   5) = (   4.5942328   1.4918067   9.2879030  )
         6           O1  tau(   6) = (   1.9868534   1.4903216   9.2879459  )
         7           Ti1 tau(   7) = (   3.2907910   2.8959150   9.1758416  )
         8           Ti1 tau(   8) = (   0.0015273   1.4827037   9.2680791  )
         9           O1  tau(   9) = (   3.2973591   5.9237820  11.3497511  )
        10           O1  tau(  10) = (   0.0116148   5.9584955  10.6183126  )
        11           O1  tau(  11) = (   1.2811460   1.4768824  12.6391447  )
        12           O1  tau(  12) = (   5.3079631   1.4871840  12.6405626  )
        13           Ti1 tau(  13) = (   6.5754896   2.9244875  12.5445406  )
        14           Ti1 tau(  14) = (   3.3102182   1.2813077  12.7057081  )
        15           O1  tau(  15) = (   6.5763362   0.0566486  14.6337039  )
        16           O1  tau(  16) = (   3.2990834   0.0566264  13.9960278  )
        17           O1  tau(  17) = (   4.5749688   1.5338778  16.1314031  )
        18           O1  tau(  18) = (   2.0677763   1.5208417  16.2171153  )
        19           Ti1 tau(  19) = (   3.2830944   2.9922577  15.6820260  )
        20           Ti1 tau(  20) = (   6.5002293   1.4748383  16.0237708  )
        21           O1  tau(  21) = (   3.2904802   0.0005063   4.7018136  )
        22           O1  tau(  22) = (   0.0234767   5.8639946  17.1540191  )
        23           O1  tau(  23) = (   1.3043587   1.4918075   6.0039043  )
        24           O1  tau(  24) = (   5.2767064   1.4903225   6.0039473  )
        25           Ti1 tau(  25) = (   0.0000382   5.9609847   6.0000000  )
        26           Ti1 tau(  26) = (   3.2902200   4.4714249   6.0002472  )
        27           O1  tau(  27) = (   0.0002396   2.9813036   7.9858123  )
        28           O1  tau(  28) = (   3.2902150   2.9813002   7.3038282  )
        29           O1  tau(  29) = (   4.5938453   4.4726049   9.2879030  )
        30           O1  tau(  30) = (   1.9864658   4.4711199   9.2879459  )
        31           Ti1 tau(  31) = (   3.2891106   5.8743827   9.1763621  )
        32           Ti1 tau(  32) = (   0.0006254   4.4649316   9.2693709  )
        33           O1  tau(  33) = (   3.2952530   2.9960894  11.3054589  )
        34           O1  tau(  34) = (   0.0092240   2.9805883  10.6323155  )
        35           O1  tau(  35) = (   1.2848436   4.4566134  12.6628561  )
        36           O1  tau(  36) = (   5.3073415   4.4462911  12.6631571  )
        37           Ti1 tau(  37) = (   0.0411484   5.9123939  12.5136797  )
        38           Ti1 tau(  38) = (   3.3147701   4.3652790  12.4361622  )
        39           O1  tau(  39) = (   0.0290229   2.9306538  14.8412286  )
        40           O1  tau(  40) = (   3.2875986   2.9640914  13.9120161  )
        41           O1  tau(  41) = (   4.5659564   4.3862643  16.1232528  )
        42           O1  tau(  42) = (   2.0245242   4.4195217  16.0560026  )
        43           Ti1 tau(  43) = (   3.2475481   5.9608109  16.2864591  )
        44           Ti1 tau(  44) = (   0.0132903   4.6514137  15.7972829  )
        45           O1  tau(  45) = (   3.2900926   2.9813045   4.7018136  )
        46           O1  tau(  46) = (   1.3039711   4.4726057   6.0039043  )
        47           O1  tau(  47) = (   5.2763189   4.4711207   6.0039473  )
        48           N1  tau(  48) = (   5.7184149   3.3872802  18.6644769  )
        49           C1  tau(  49) = (   6.5536674   2.6142045  18.0347456  )
        50           H1  tau(  50) = (   0.7520291   2.2354638  18.7052436  )
        51           H1  tau(  51) = (   4.9873861   3.8928837  18.1615307  )
        52           H1  tau(  52) = (   5.8197376   3.6397576  19.6419508  )
        53           O1  tau(  53) = (   3.3578172   5.8156178  18.1613732  )
        54           H1  tau(  54) = (   2.9124532   0.5526369  18.6499525  )

     number of k points=    10  Fermi-Dirac smearing, width (Ry)=  0.0073
                       cart. coord. in units 2pi/alat
        k(    1) = (   0.0000000   0.0000000   0.0000000), wk =   0.1250000
        k(    2) = (   0.0000000   0.0419351   0.0000000), wk =   0.2500000
        k(    3) = (   0.0000000  -0.0838702   0.0000000), wk =   0.1250000
        k(    4) = (   0.0379955   0.0000049   0.0000000), wk =   0.2500000
        k(    5) = (   0.0379955   0.0419400   0.0000000), wk =   0.2500000
        k(    6) = (   0.0379955  -0.0838652   0.0000000), wk =   0.2500000
        k(    7) = (   0.0379955  -0.0419301   0.0000000), wk =   0.2500000
        k(    8) = (  -0.0759910  -0.0000099   0.0000000), wk =   0.1250000
        k(    9) = (  -0.0759910   0.0419252   0.0000000), wk =   0.2500000
        k(   10) = (  -0.0759910  -0.0838800   0.0000000), wk =   0.1250000

     Initial potential from superposition of free atoms

     starting charge  380.99916, renormalised to  397.00000

     negative rho (up, down):  1.675E-02 0.000E+00

     %%%%%%%%%%%%%%%%%%%%%%%%%%%%%%%%%%%%%%%%%%%%%%%%%%%%%%%%%%%%%%%%%%%%%%%%
     %                                                                      %
     % You are using vdW-DF, which was implemented by the Thonhauser group. %
     % Please cite the following two papers that made this development      %
     % possible and the two reviews that describe the various versions:     %
     %                                                                      %
     %   T. Thonhauser et al., PRL 115, 136402 (2015).                      %
     %   T. Thonhauser et al., PRB 76, 125112 (2007).                       %
     %   K. Berland et al., Rep. Prog. Phys. 78, 066501 (2015).             %
     %   D.C. Langreth et al., J. Phys.: Condens. Matter 21, 084203 (2009). %
     %                                                                      %
     %                                                                      %
     % If you are calculating the stress with vdW-DF, please also cite:     %
     %                                                                      %
     %   R. Sabatini et al., J. Phys.: Condens. Matter 24, 424209 (2012).   %
     %                                                                      %
     %%%%%%%%%%%%%%%%%%%%%%%%%%%%%%%%%%%%%%%%%%%%%%%%%%%%%%%%%%%%%%%%%%%%%%%%

     Adding external electric field

     Computed dipole along edir(3) :
        Dipole               -9.3081 Ry au,        -23.6588 Debye
        Dipole field         -0.0176 Ry au,

        Potential amp.        1.6283 Ry
        Total length         46.3494 bohr

     Starting wfcs are  300 atomic wfcs
  @ DRIVER MODE: Message from server: STATUS
  @ DRIVER MODE: Message from server: POSDATA
  @ DRIVER MODE: Reading and sharing cell
  @ DRIVER MODE: Reading and sharing positions
  @ DRIVER MODE: Received positions

     Self-consistent Calculation

     iteration #  1     ecut=    29.40 Ry     beta= 0.05
     Davidson diagonalization with overlap
     c_bands:  1 eigenvalues not converged
     c_bands:  2 eigenvalues not converged
     c_bands:  1 eigenvalues not converged
     c_bands:  1 eigenvalues not converged
     c_bands:  2 eigenvalues not converged
     c_bands:  1 eigenvalues not converged
     c_bands:  1 eigenvalues not converged
     c_bands:  2 eigenvalues not converged
     ethr =  1.00E-05,  avg # of iterations = 19.6

[...]

     total energy              =   -2539.06747668 Ry
     estimated scf accuracy    <    4593.60779861 Ry

     iteration #  2     ecut=    29.40 Ry     beta= 0.05
     Davidson diagonalization with overlap
     ethr =  1.00E-02,  avg # of iterations = 24.3

[...]

     iteration # 49     ecut=    29.40 Ry     beta= 0.05
     Davidson diagonalization with overlap
     c_bands:  1 eigenvalues not converged
     ethr =  7.16E-07,  avg # of iterations = 14.5

[...]

     total energy              =   -2952.67093478 Ry
     estimated scf accuracy    <       0.00000032 Ry

     iteration # 78     ecut=    29.40 Ry     beta= 0.05
     Davidson diagonalization with overlap
     ethr =  7.99E-11,  avg # of iterations = 11.2

     negative rho (up, down):  1.683E-02 0.000E+00

     Adding external electric field

     Computed dipole along edir(3) :
        Dipole                1.3021 Ry au,          3.3096 Debye
        Dipole field          0.0025 Ry au,

        Potential amp.       -0.2278 Ry
        Total length         46.3494 bohr

     End of self-consistent calculation

          k = 0.0000 0.0000 0.0000 ( 18029 PWs)   bands (ev):

   -55.6269 -55.5481 -55.5141 -55.3652 -55.3407 -55.3312 -55.3053 -55.2981
   -55.2812 -55.2307 -55.1435 -55.1080 -55.0312 -55.0063 -54.4996 -54.4656
   -32.0296 -31.9593 -31.8673 -31.8501 -31.8398 -31.8270 -31.8259 -31.7929
   -31.7648 -31.7208 -31.7005 -31.6719 -31.6517 -31.6286 -31.6226 -31.6111
   -31.6058 -31.5880 -31.5547 -31.5392 -31.5237 -31.5193 -31.5053 -31.5045
   -31.4932 -31.4822 -31.4782 -31.4778 -31.4492 -31.4374 -31.4281 -31.4054
   -31.3883 -31.3875 -31.3854 -31.3090 -31.2982 -31.2772 -31.2449 -31.2359
   -31.2255 -31.1548 -30.9043 -30.8209 -30.7983 -30.7222 -30.6360 -30.5239
   -17.3054 -16.5199 -16.1333 -15.9692 -15.7721 -15.6671 -15.5976 -15.4088
   -15.3245 -15.2676 -15.0767 -15.0729 -15.0425 -15.0236 -14.9973 -14.9685
   -14.9604 -14.9549 -14.9277 -14.8944 -14.8775 -14.8493 -14.8319 -14.7738
   -14.7468 -14.7293 -14.6695 -14.5734 -14.5098 -14.2969 -14.1493 -12.9976
   -12.8816  -9.6363  -7.3147  -4.7794  -4.0721  -3.5022  -3.4351  -3.3738
    -3.3253  -3.2495  -3.0180  -2.8704  -2.7654  -2.7376  -2.6512  -2.6189
    -2.5724  -2.4938  -2.4265  -2.4031  -2.3575  -2.3199  -2.2888  -2.2669
    -2.2412  -2.2194  -2.1641  -2.1252  -2.0483  -1.9998  -1.9309  -1.9085
    -1.8513  -1.8128  -1.8102  -1.7954  -1.7588  -1.7534  -1.7449  -1.7249
    -1.6182  -1.5866  -1.5366  -1.4939  -1.3295  -1.1421  -1.1217  -1.0268
    -0.9905  -0.9524  -0.9250  -0.9097  -0.8847  -0.8627  -0.7664  -0.7478
    -0.6654  -0.6036  -0.5588  -0.5091  -0.4088  -0.3415  -0.3149  -0.2682
    -0.2634  -0.2317  -0.2158  -0.1274  -0.0502  -0.0036   0.0092   0.0608
     0.1457   0.1642   0.2198   0.2495   0.2918   0.3254   0.3988   0.4251
     0.4471   0.4585   0.4764   0.5332   0.5725   0.6056   0.6749   0.7770
     0.7847   0.8593   0.8608   0.8710   1.0715   1.1605   1.1795   1.2621
     1.4861   1.5272   1.6188   1.7233   2.0916   2.1359   3.5550   3.6985
     3.7162   3.7812   3.8294   3.9419   3.9541   4.0398   4.1682   4.2544

[...]

          k = 0.0380-0.0419 0.0000 ( 17876 PWs)   bands (ev):

[...]

          k =-0.0760-0.0000 0.0000 ( 17886 PWs)   bands (ev):

[...]

          k =-0.0760-0.0839 0.0000 ( 17948 PWs)   bands (ev):

   -55.6262 -55.5312 -55.5309 -55.3483 -55.3479 -55.3271 -55.3186 -55.2986
   -55.2747 -55.2371 -55.1413 -55.1044 -55.0348 -55.0084 -54.4829 -54.4822
   -31.9048 -31.8450 -31.8449 -31.8389 -31.8286 -31.8254 -31.8251 -31.7017
   -31.6734 -31.6671 -31.6511 -31.6506 -31.6444 -31.6356 -31.6230 -31.6041
   -31.5974 -31.5948 -31.5602 -31.5597 -31.5416 -31.5405 -31.5263 -31.5234
   -31.5168 -31.5123 -31.5042 -31.5026 -31.4928 -31.4866 -31.4607 -31.4546
   -31.4092 -31.3909 -31.3822 -31.3652 -31.3129 -31.3018 -31.2847 -31.2463
   -31.2398 -31.2277 -30.8113 -30.8108 -30.7179 -30.7168 -30.6794 -30.6788
   -17.3011 -16.5112 -15.5952 -15.5851 -15.4744 -15.4577 -15.3554 -15.2884
   -15.2554 -15.2310 -15.2111 -15.1795 -15.1743 -15.1282 -15.0819 -15.0665
   -15.0354 -15.0097 -14.9923 -14.9551 -14.9247 -14.9082 -14.8842 -14.8465
   -14.8400 -14.8251 -14.8118 -14.6431 -14.5954 -14.4509 -14.4235 -12.9839
   -12.9833  -9.6380  -7.3142  -4.7742  -4.0689  -2.8601  -2.8009  -2.6842
    -2.6466  -2.5871  -2.5124  -2.4793  -2.4658  -2.3790  -2.3681  -2.3639
    -2.3255  -2.3006  -2.2823  -2.2540  -2.2504  -2.2411  -2.2063  -2.1994
    -2.1818  -2.1609  -2.1446  -2.1294  -2.1147  -2.1059  -2.0828  -2.0599
    -2.0338  -1.9904  -1.8335  -1.7950  -1.7683  -1.6512  -1.6418  -1.6238
    -1.6128  -1.5996  -1.5679  -1.5018  -1.4834  -1.4777  -1.3181  -1.2334
    -1.1925  -1.1271  -1.1063  -1.0782  -0.9887  -0.9759  -0.9471  -0.9101
    -0.8627  -0.7903  -0.6910  -0.6835  -0.6417  -0.5329  -0.4818  -0.4691
    -0.4663  -0.4163  -0.4058  -0.3896  -0.3484  -0.2765  -0.2604  -0.2348
    -0.2026  -0.1879  -0.1459  -0.0781   0.0250   0.1066   0.2118   0.2482
     0.3297   0.3560   0.3701   0.5217   0.5858   0.6247   0.6732   0.6810
     0.7833   0.7942   0.8085   0.8890   0.9870   1.0069   1.0678   1.0849
     1.1045   1.1422   1.8925   1.9005   1.9561   1.9564   3.7432   4.0298
     4.0819   4.0922   4.1134   4.1276   4.1335   4.1632   4.2190   4.2487

     the Fermi energy is     3.5799 ev

!    total energy              =   -2952.67095056 Ry
     estimated scf accuracy    <       0.00000007 Ry
     smearing contrib. (-TS)   =      -0.02000950 Ry
     internal energy E=F+TS    =   -2952.65094107 Ry

     The total energy is F=E-TS. E is the sum of the following terms:
     one-electron contribution =  -23943.87118324 Ry
     hartree contribution      =   12064.85440020 Ry
     xc contribution           =    -487.98264651 Ry
     ewald contribution        =    9414.34528892 Ry
     electric field correction =       0.00319957 Ry

     convergence has been achieved in  78 iterations

     Forces acting on atoms (cartesian axes, Ry/au):

     atom    1 type  1   force =     0.00003535   -0.00030651    0.09545603
     atom    2 type  1   force =    -0.00013595    0.00031122   -0.17422274
     atom    3 type  2   force =    -0.00002104   -0.00015673   -0.02262213
     atom    4 type  2   force =     0.00003842   -0.00184825    0.05172323
     atom    5 type  2   force =    -0.00666974   -0.00270233    0.00167077
     atom    6 type  2   force =     0.00822060   -0.00219489    0.00115157
     atom    7 type  1   force =    -0.00012610   -0.00382380    0.01181808
     atom    8 type  1   force =     0.00015685    0.00375740    0.01275151
     atom    9 type  2   force =     0.00021057    0.00038066    0.00083233
     atom   10 type  2   force =    -0.00197496   -0.00130786   -0.01614659
     atom   11 type  2   force =     0.00117680   -0.00021564   -0.00028789
     atom   12 type  2   force =    -0.00061684    0.00012342   -0.00024589
     atom   13 type  1   force =    -0.00022739   -0.00145140    0.00053894
     atom   14 type  1   force =     0.00009072   -0.00044487   -0.00006825
     atom   15 type  2   force =     0.00010307    0.00036582   -0.00090572
     atom   16 type  2   force =     0.00005791    0.00105715   -0.00052824
     atom   17 type  2   force =    -0.00020483    0.00019991    0.00015458
     atom   18 type  2   force =     0.00010477    0.00018552    0.00001242
     atom   19 type  1   force =    -0.00020355    0.00009232    0.00015832
     atom   20 type  1   force =     0.00014908    0.00022706   -0.00042282
     atom   21 type  2   force =     0.00006195    0.00010810    0.10288269
     atom   22 type  2   force =    -0.00029389    0.00049845    0.00049090
     atom   23 type  2   force =    -0.07251986   -0.00013309   -0.02755854
     atom   24 type  2   force =     0.07242398    0.00027640   -0.02758857
     atom   25 type  1   force =     0.00008728   -0.00014814    0.09507021
     atom   26 type  1   force =    -0.00010775   -0.00128510   -0.17424174
     atom   27 type  2   force =     0.00015708   -0.00025655   -0.02137671
     atom   28 type  2   force =     0.00004961   -0.00014970    0.04733177
     atom   29 type  2   force =    -0.00544238    0.00230548   -0.00006128
     atom   30 type  2   force =     0.00701516    0.00274027   -0.00056914
     atom   31 type  1   force =    -0.00016464    0.00658627    0.00051077
     atom   32 type  1   force =     0.00008068   -0.00556044    0.01181181
     atom   33 type  2   force =    -0.00014437   -0.00039782    0.00012194
     atom   34 type  2   force =    -0.00121633    0.00017073   -0.01568417
     atom   35 type  2   force =    -0.00037312    0.00043667    0.00015154
     atom   36 type  2   force =     0.00102632    0.00059394    0.00041620
     atom   37 type  1   force =    -0.00024286    0.00176889    0.00019792
     atom   38 type  1   force =    -0.00005927    0.00026775    0.00038862
     atom   39 type  2   force =    -0.00009659    0.00007869   -0.00022590
     atom   40 type  2   force =     0.00037462   -0.00032851   -0.00017614
     atom   41 type  2   force =    -0.00051033    0.00037740    0.00029209
     atom   42 type  2   force =     0.00066521    0.00017633    0.00026648
     atom   43 type  1   force =     0.00043718   -0.00018139   -0.00009279
     atom   44 type  1   force =     0.00030868    0.00014329    0.00081402
     atom   45 type  2   force =     0.00006185   -0.00009125    0.10267595
     atom   46 type  2   force =    -0.07256924   -0.00005113   -0.02758539
     atom   47 type  2   force =     0.07249807    0.00040386   -0.02760805
     atom   48 type  3   force =     0.00020861   -0.00048326   -0.00051385
     atom   49 type  4   force =    -0.00009507   -0.00002749   -0.00065250
     atom   50 type  5   force =    -0.00058278   -0.00036507   -0.00012143
     atom   51 type  5   force =     0.00038861    0.00015719    0.00000793
     atom   52 type  5   force =    -0.00025818    0.00056593    0.00034874
     atom   53 type  2   force =     0.00452610   -0.00717915   -0.00637972
     atom   54 type  5   force =    -0.00585806    0.00673427    0.00583888

     Total force =     0.362597     Total SCF correction =     0.000892
  @ DRIVER MODE: Message from server: STATUS
  @ DRIVER MODE: Message from server: GETFORCE
  @ DRIVER MODE: Returning v,forces,stress,ensemble

     Writing output data file ./calc.save/
  @ DRIVER MODE: Message from server: EXIT
  @ DRIVE MODE: Exiting

     General routines

     Parallel routines

   This run was terminated on:   5:10:12  23Sep2021

   JOB DONE.