     Program PWSCF v.6.7GPU starts on 24Sep2021 at  6: 3:49

     R & G space division:  proc/nbgrp/npool/nimage =       8
     Reading input from /storage/home/hcoda1/3/ntian30/research/carbon/CxH_vib/H2O_calc/ads_slab/CH3NNHHHHO_a/out_0047/pw.inp
Warning: card &CELL ignored
Warning: card   CELL_DYNAMICS='IPI', ignored
Warning: card / ignored

     Current dimensions of program PWSCF are:
     Max number of different atomic species (ntypx) = 10
     Max number of k-points (npk) =  40000
     Max angular momentum in pseudopotentials (lmaxx) =  3
     Presently no symmetry can be used with electric field

     Message from routine cell_base_init:
     DEPRECATED: use true lattice parameter, not A to a.u. conversion factor

     IMPORTANT: XC functional enforced from input :
     Exchange-correlation= BEEF-VDW
                           (   1   4  43  14   2   0   0)
     Any further DFT definition will be discarded
     Please, verify this is what you really want

  @ DRIVER MODE: Connecting to
 qe_1139763_2947308.sched-torque.pace.gatech.edusqob4sz5_scratch
  using UNIX socket
  @ DRIVER MODE: Message from server: STATUS
  @ DRIVER MODE: Message from server: INIT
  @ DRIVER MODE: Receiving replica           0          -1
  @ DRIVER MODE: Receiving encoded integer          25
  @ DRIVER MODE:  SCF:  T  FORCE:  T  STRESS:  F  VC:  F  ENSEMBLE:  F
  @ DRIVER MODE:  SCF:  T  FORCE:  T  STRESS:  F  VC:  F  ENSEMBLE:  F

     Using Slab Decomposition

     bravais-lattice index     =            0
     lattice parameter (alat)  =       1.8897  a.u.
     unit-cell volume          =    6658.9804 (a.u.)^3
     number of atoms/cell      =           58
     number of atomic types    =            5
     number of electrons       =       405.00
     number of Kohn-Sham states=          212
     kinetic-energy cutoff     =      29.3995  Ry
     charge density cutoff     =     293.9946  Ry
     scf convergence threshold =      7.3E-08
     mixing beta               =       0.0500
     number of iterations used =            8  plain     mixing
     Exchange-correlation= BEEF-VDW
                           (   1   4  43  14   2   0   0)

     celldm(1)=   1.889726  celldm(2)=   0.000000  celldm(3)=   0.000000
     celldm(4)=   0.000000  celldm(5)=   0.000000  celldm(6)=   0.000000

     crystal axes: (cart. coord. in units of alat)
               a(1) = (   6.579727   0.000000   0.000000 )
               a(2) = (  -0.000775   5.961596   0.000000 )
               a(3) = (   0.000000   0.000000  25.155947 )

     reciprocal axes: (cart. coord. in units 2 pi/alat)
               b(1) = (  0.151982  0.000020  0.000000 )
               b(2) = (  0.000000  0.167740  0.000000 )
               b(3) = (  0.000000  0.000000  0.039752 )

     PseudoPot. # 1 for Ti read from file:
     /storage/coda1/p-amedford6/0/shared/rich_project_chbe-medford/medford-share/data/pseudos_module/espresso/nninc/pbe/van/Ti.UPF
     MD5 check sum: 8e4df49b7f0d34bbd5052bf3f5ea0213
     Pseudo is Ultrasoft, Zval = 12.0
     Generated by new atomic code, or converted to UPF format
     Using radial grid of  851 points,  6 beta functions with:
                l(1) =   0
                l(2) =   0
                l(3) =   1
                l(4) =   1
                l(5) =   2
                l(6) =   2
     Q(r) pseudized with  8 coefficients,  rinner =    1.000   1.000   1.000
                                                       1.000   1.000

     PseudoPot. # 2 for O  read from file:
     /storage/coda1/p-amedford6/0/shared/rich_project_chbe-medford/medford-share/data/pseudos_module/espresso/nninc/pbe/van/O.UPF
     MD5 check sum: 78c19812648e8988a0fe644b0f25305e
     Pseudo is Ultrasoft, Zval =  6.0
     Generated by new atomic code, or converted to UPF format
     Using radial grid of  737 points,  4 beta functions with:
                l(1) =   0
                l(2) =   0
                l(3) =   1
                l(4) =   1
     Q(r) pseudized with  8 coefficients,  rinner =    0.800   0.800   0.800

     PseudoPot. # 3 for N  read from file:
     /storage/coda1/p-amedford6/0/shared/rich_project_chbe-medford/medford-share/data/pseudos_module/espresso/nninc/pbe/van/N.UPF
     MD5 check sum: 90d10febe142ad51ac9d5be1deb811c4
     Pseudo is Ultrasoft, Zval =  5.0
     Generated by new atomic code, or converted to UPF format
     Using radial grid of  729 points,  4 beta functions with:
                l(1) =   0
                l(2) =   0
                l(3) =   1
                l(4) =   1
     Q(r) pseudized with  8 coefficients,  rinner =    0.800   0.800   0.800

     PseudoPot. # 4 for C  read from file:
     /storage/coda1/p-amedford6/0/shared/rich_project_chbe-medford/medford-share/data/pseudos_module/espresso/nninc/pbe/van/C.UPF
     MD5 check sum: 1a69bf6b8db32088f5b2163dbdb77a27
     Pseudo is Ultrasoft, Zval =  4.0
     Generated by new atomic code, or converted to UPF format
     Using radial grid of  721 points,  4 beta functions with:
                l(1) =   0
                l(2) =   0
                l(3) =   1
                l(4) =   1
     Q(r) pseudized with  8 coefficients,  rinner =    0.800   0.800   0.800

     PseudoPot. # 5 for H  read from file:
     /storage/coda1/p-amedford6/0/shared/rich_project_chbe-medford/medford-share/data/pseudos_module/espresso/nninc/pbe/van/H.UPF
     MD5 check sum: b5ee9d7bfd3a09ee7748110bda690ff7
     Pseudo is Ultrasoft, Zval =  1.0
     Generated by new atomic code, or converted to UPF format
     Using radial grid of  615 points,  1 beta functions with:
                l(1) =   0
     Q(r) pseudized with  8 coefficients,  rinner =    0.800

     atomic species   valence    mass     pseudopotential
        Ti1           12.00    47.86700     Ti( 1.00)
        O1             6.00    15.99900     O ( 1.00)
        N1             5.00    14.00700     N ( 1.00)
        C1             4.00    12.01100     C ( 1.00)
        H1             1.00     1.00800     H ( 1.00)

     No symmetry found

   Cartesian axes

     site n.     atom                  positions (alat units)
         1           Ti1 tau(   1) = (   0.0004258   2.9801865   6.0000000  )
         2           Ti1 tau(   2) = (   3.2906075   1.4906267   6.0002472  )
         3           O1  tau(   3) = (   0.0006271   0.0005054   7.9858123  )
         4           O1  tau(   4) = (   3.2906025   0.0005020   7.3038282  )
         5           O1  tau(   5) = (   4.5942328   1.4918067   9.2879030  )
         6           O1  tau(   6) = (   1.9868534   1.4903216   9.2879459  )
         7           Ti1 tau(   7) = (   3.2907910   2.8959150   9.1758416  )
         8           Ti1 tau(   8) = (   0.0015273   1.4827037   9.2680791  )
         9           O1  tau(   9) = (   3.3066316   0.0080679  11.3583267  )
        10           O1  tau(  10) = (   0.0116148   5.9584955  10.6183126  )
        11           O1  tau(  11) = (   1.3000076   1.5005770  12.6434233  )
        12           O1  tau(  12) = (   5.3281586   1.4930334  12.6431679  )
        13           Ti1 tau(  13) = (   0.0126194   3.0144704  12.5166071  )
        14           Ti1 tau(  14) = (   3.3185830   1.5708444  12.4374219  )
        15           O1  tau(  15) = (   0.0449490   0.0685618  14.6579901  )
        16           O1  tau(  16) = (   3.3164028   5.8986079  13.9921319  )
        17           O1  tau(  17) = (   4.5763498   1.4919541  16.1892649  )
        18           O1  tau(  18) = (   2.0390356   1.5007807  16.1677599  )
        19           Ti1 tau(  19) = (   3.3152479   2.9236451  15.6986563  )
        20           Ti1 tau(  20) = (   0.0808212   1.4292116  16.0039943  )
        21           O1  tau(  21) = (   3.2904802   0.0005063   4.7018136  )
        22           O1  tau(  22) = (   0.0303022   5.8046116  17.1736243  )
        23           O1  tau(  23) = (   1.3043587   1.4918075   6.0039043  )
        24           O1  tau(  24) = (   5.2767064   1.4903225   6.0039473  )
        25           Ti1 tau(  25) = (   0.0000382   5.9609847   6.0000000  )
        26           Ti1 tau(  26) = (   3.2902200   4.4714249   6.0002472  )
        27           O1  tau(  27) = (   0.0002396   2.9813036   7.9858123  )
        28           O1  tau(  28) = (   3.2902150   2.9813002   7.3038282  )
        29           O1  tau(  29) = (   4.5938453   4.4726049   9.2879030  )
        30           O1  tau(  30) = (   1.9864658   4.4711199   9.2879459  )
        31           Ti1 tau(  31) = (   3.2891106   5.8743827   9.1763621  )
        32           Ti1 tau(  32) = (   0.0006254   4.4649316   9.2693709  )
        33           O1  tau(  33) = (   3.3101163   2.9547251  11.3177968  )
        34           O1  tau(  34) = (   0.0092240   2.9805883  10.6323155  )
        35           O1  tau(  35) = (   1.2917786   4.4638488  12.6831265  )
        36           O1  tau(  36) = (   5.3332004   4.4701953  12.6833355  )
        37           Ti1 tau(  37) = (   0.0360484   0.0435164  12.5022323  )
        38           Ti1 tau(  38) = (   3.3166134   4.6596848  12.7231989  )
        39           O1  tau(  39) = (   6.5734590   2.9070644  14.8960501  )
        40           O1  tau(  40) = (   3.3256711   2.9499323  13.9293234  )
        41           O1  tau(  41) = (   4.5718193   4.3849529  16.1598725  )
        42           O1  tau(  42) = (   2.0293811   4.3548050  16.0908550  )
        43           Ti1 tau(  43) = (   3.3839698   5.9011270  16.3477160  )
        44           Ti1 tau(  44) = (   0.0762916   4.6312412  15.8077656  )
        45           O1  tau(  45) = (   3.2900926   2.9813045   4.7018136  )
        46           O1  tau(  46) = (   1.3039711   4.4726057   6.0039043  )
        47           O1  tau(  47) = (   5.2763189   4.4711207   6.0039473  )
        48           N1  tau(  48) = (   1.0338470   3.0145746  18.8549854  )
        49           N1  tau(  49) = (   6.4614719   2.5758313  18.0922931  )
        50           C1  tau(  50) = (   0.6385090   3.7489381  20.0602371  )
        51           H1  tau(  51) = (   6.5128770   4.5633600  19.8465500  )
        52           H1  tau(  52) = (   0.1876125   3.0656416  20.7809517  )
        53           H1  tau(  53) = (   1.5398112   4.1767214  20.4987412  )
        54           H1  tau(  54) = (   5.7034478   3.2665398  18.1448723  )
        55           H1  tau(  55) = (   6.1095767   1.7263867  18.5241855  )
        56           H1  tau(  56) = (   1.5400177   3.6533120  18.2466354  )
        57           O1  tau(  57) = (   3.2295176   5.8880611  18.1942677  )
        58           H1  tau(  58) = (   2.6769533   0.6239085  18.5854980  )

     number of k points=    10  Fermi-Dirac smearing, width (Ry)=  0.0073
                       cart. coord. in units 2pi/alat
        k(    1) = (   0.0000000   0.0000000   0.0000000), wk =   0.1250000
        k(    2) = (   0.0000000   0.0419351   0.0000000), wk =   0.2500000
        k(    3) = (   0.0000000  -0.0838702   0.0000000), wk =   0.1250000
        k(    4) = (   0.0379955   0.0000049   0.0000000), wk =   0.2500000
        k(    5) = (   0.0379955   0.0419400   0.0000000), wk =   0.2500000
        k(    6) = (   0.0379955  -0.0838652   0.0000000), wk =   0.2500000
        k(    7) = (   0.0379955  -0.0419301   0.0000000), wk =   0.2500000
        k(    8) = (  -0.0759910  -0.0000099   0.0000000), wk =   0.1250000
        k(    9) = (  -0.0759910   0.0419252   0.0000000), wk =   0.2500000
        k(   10) = (  -0.0759910  -0.0838800   0.0000000), wk =   0.1250000

     Initial potential from superposition of free atoms

     starting charge  388.99913, renormalised to  405.00000

     negative rho (up, down):  1.325E-02 0.000E+00

     %%%%%%%%%%%%%%%%%%%%%%%%%%%%%%%%%%%%%%%%%%%%%%%%%%%%%%%%%%%%%%%%%%%%%%%%
     %                                                                      %
     % You are using vdW-DF, which was implemented by the Thonhauser group. %
     % Please cite the following two papers that made this development      %
     % possible and the two reviews that describe the various versions:     %
     %                                                                      %
     %   T. Thonhauser et al., PRL 115, 136402 (2015).                      %
     %   T. Thonhauser et al., PRB 76, 125112 (2007).                       %
     %   K. Berland et al., Rep. Prog. Phys. 78, 066501 (2015).             %
     %   D.C. Langreth et al., J. Phys.: Condens. Matter 21, 084203 (2009). %
     %                                                                      %
     %                                                                      %
     % If you are calculating the stress with vdW-DF, please also cite:     %
     %                                                                      %
     %   R. Sabatini et al., J. Phys.: Condens. Matter 24, 424209 (2012).   %
     %                                                                      %
     %%%%%%%%%%%%%%%%%%%%%%%%%%%%%%%%%%%%%%%%%%%%%%%%%%%%%%%%%%%%%%%%%%%%%%%%

     Adding external electric field

     Computed dipole along edir(3) :
        Dipole              -14.7644 Ry au,        -37.5273 Debye
        Dipole field         -0.0279 Ry au,

        Potential amp.        2.5828 Ry
        Total length         46.3494 bohr

     Starting wfcs are  307 atomic wfcs
  @ DRIVER MODE: Message from server: STATUS
  @ DRIVER MODE: Message from server: POSDATA
  @ DRIVER MODE: Reading and sharing cell
  @ DRIVER MODE: Reading and sharing positions
  @ DRIVER MODE: Received positions

     Self-consistent Calculation

     iteration #  1     ecut=    29.40 Ry     beta= 0.05
     Davidson diagonalization with overlap
     c_bands:  3 eigenvalues not converged
     c_bands:  4 eigenvalues not converged
     c_bands:  2 eigenvalues not converged
     c_bands:  3 eigenvalues not converged
     c_bands:  3 eigenvalues not converged
     c_bands:  3 eigenvalues not converged
     ethr =  1.00E-05,  avg # of iterations = 23.2

[...]

     total energy              =   -2204.22335378 Ry
     estimated scf accuracy    <    8785.83150316 Ry

[...]

     iteration #  3     ecut=    29.40 Ry     beta= 0.05
     Davidson diagonalization with overlap
     ethr =  1.00E-02,  avg # of iterations = 16.5

[...]

     iteration # 61     ecut=    29.40 Ry     beta= 0.05
     Davidson diagonalization with overlap
     c_bands:  1 eigenvalues not converged
     ethr =  2.48E-07,  avg # of iterations = 11.1

[...]

     total energy              =   -2976.49823492 Ry
     estimated scf accuracy    <       0.00000015 Ry

     iteration # 89     ecut=    29.40 Ry     beta= 0.05
     Davidson diagonalization with overlap
     ethr =  3.23E-11,  avg # of iterations =  5.6

     negative rho (up, down):  1.443E-02 0.000E+00

     Adding external electric field

     Computed dipole along edir(3) :
        Dipole                0.9914 Ry au,          2.5199 Debye
        Dipole field          0.0019 Ry au,

        Potential amp.       -0.1734 Ry
        Total length         46.3494 bohr

     End of self-consistent calculation

          k = 0.0000 0.0000 0.0000 ( 18029 PWs)   bands (ev):

   -55.5833 -55.5001 -55.4660 -55.3651 -55.3439 -55.3280 -55.3140 -55.3074
   -55.2942 -55.2646 -55.2209 -55.0986 -55.0881 -55.0110 -54.4693 -54.4353
   -31.9845 -31.9199 -31.8789 -31.8316 -31.8299 -31.8107 -31.8002 -31.7910
   -31.7511 -31.7460 -31.7279 -31.6526 -31.6291 -31.6085 -31.6065 -31.6047
   -31.5990 -31.5869 -31.5844 -31.5576 -31.5514 -31.5262 -31.5255 -31.5138
   -31.4986 -31.4875 -31.4797 -31.4627 -31.4582 -31.4553 -31.4456 -31.4397
   -31.4359 -31.4166 -31.3747 -31.3728 -31.3026 -31.2952 -31.2813 -31.2607
   -31.2237 -31.2165 -30.8750 -30.7894 -30.7670 -30.6926 -30.6063 -30.4944
   -17.5834 -16.4014 -16.1409 -15.9784 -15.7626 -15.6771 -15.6487 -15.4560
   -15.3507 -15.2978 -15.1116 -15.0657 -15.0349 -15.0236 -15.0084 -14.9857
   -14.9658 -14.9276 -14.9193 -14.9089 -14.9033 -14.8648 -14.8423 -14.7918
   -14.7694 -14.7065 -14.6344 -14.5666 -14.5192 -14.2587 -14.2405 -12.9795
   -12.9677 -12.8515  -9.4626  -6.1560  -5.2259  -4.6346  -3.9629  -3.5054
    -3.4047  -3.3887  -3.3332  -3.2701  -3.1679  -2.9972  -2.8884  -2.8344
    -2.7339  -2.6266  -2.5717  -2.5081  -2.4796  -2.4316  -2.3988  -2.3868
    -2.3801  -2.2841  -2.2754  -2.2484  -2.2130  -2.1569  -2.1413  -2.0636
    -2.0271  -2.0187  -1.8943  -1.8815  -1.8157  -1.8115  -1.8052  -1.7715
    -1.7505  -1.7357  -1.7065  -1.6228  -1.5698  -1.4992  -1.4762  -1.4468
    -1.1869  -1.0956  -1.0579  -1.0301  -0.9324  -0.9147  -0.9012  -0.8991
    -0.8852  -0.8357  -0.7885  -0.7049  -0.5952  -0.5729  -0.5664  -0.5215
    -0.4558  -0.3742  -0.3011  -0.2716  -0.2344  -0.2210  -0.1548  -0.0776
    -0.0615  -0.0493   0.0596   0.0740   0.1562   0.2149   0.2289   0.2736
     0.3146   0.3479   0.4040   0.4405   0.4709   0.4766   0.5100   0.5545
     0.6103   0.6408   0.6686   0.7508   0.8064   0.8518   0.8795   1.0507
     1.0810   1.1386   1.1771   1.2644   1.5070   1.5572   1.5967   1.7516
     2.1235   2.1687   3.5846   3.7357   3.7508   3.8205   3.8455   3.9366
     4.0740   4.1417   4.2734   4.2825

[...]

          k = 0.0380-0.0419 0.0000 ( 17876 PWs)   bands (ev):

[...]

          k =-0.0760-0.0000 0.0000 ( 17886 PWs)   bands (ev):

[...]

          k =-0.0760-0.0839 0.0000 ( 17948 PWs)   bands (ev):

   -55.5826 -55.4831 -55.4828 -55.3638 -55.3308 -55.3204 -55.3146 -55.3111
   -55.3107 -55.2567 -55.2289 -55.0954 -55.0892 -55.0141 -54.4524 -54.4521
   -31.8671 -31.8092 -31.8044 -31.8000 -31.7998 -31.7852 -31.7766 -31.7762
   -31.7074 -31.6513 -31.6434 -31.6359 -31.6311 -31.6178 -31.6031 -31.6030
   -31.6008 -31.6006 -31.5862 -31.5758 -31.5681 -31.5596 -31.5387 -31.5204
   -31.5177 -31.5138 -31.5065 -31.5035 -31.4912 -31.4838 -31.4813 -31.4756
   -31.4704 -31.4518 -31.4460 -31.3688 -31.3573 -31.3429 -31.3045 -31.2992
   -31.2659 -31.2199 -30.7798 -30.7796 -30.6881 -30.6877 -30.6497 -30.6493
   -17.5774 -16.3872 -15.7490 -15.5711 -15.4747 -15.4683 -15.3376 -15.2717
   -15.2630 -15.2284 -15.2098 -15.1950 -15.1620 -15.1447 -15.1050 -15.0521
   -15.0188 -14.9961 -14.9845 -14.9474 -14.9349 -14.9130 -14.9056 -14.8969
   -14.8387 -14.8066 -14.7975 -14.7664 -14.5713 -14.5503 -14.3731 -12.9809
   -12.9534 -12.9533  -9.4601  -6.1409  -5.2276  -4.6446  -3.9591  -3.1680
    -2.9233  -2.7800  -2.7037  -2.5696  -2.5599  -2.5020  -2.4914  -2.4492
    -2.4407  -2.3996  -2.3457  -2.3296  -2.2866  -2.2815  -2.2509  -2.2383
    -2.2277  -2.2186  -2.1934  -2.1739  -2.1650  -2.1243  -2.1197  -2.1040
    -2.0841  -2.0678  -2.0403  -2.0292  -1.9890  -1.9495  -1.8841  -1.8106
    -1.7248  -1.6420  -1.6315  -1.6207  -1.5744  -1.5679  -1.5212  -1.5092
    -1.4621  -1.4101  -1.2968  -1.1733  -1.1341  -1.1077  -1.0756  -1.0434
    -0.9888  -0.9660  -0.9310  -0.8829  -0.8507  -0.7273  -0.7160  -0.6505
    -0.5638  -0.5319  -0.4570  -0.4438  -0.4288  -0.4128  -0.3913  -0.3745
    -0.3446  -0.3279  -0.2246  -0.2006  -0.1975  -0.1745  -0.1234  -0.0211
     0.0531   0.1357   0.2385   0.2882   0.3160   0.3496   0.4497   0.5677
     0.5926   0.6559   0.6879   0.7309   0.7980   0.8187   0.8667   0.9511
     1.0050   1.0375   1.0638   1.0688   1.1234   1.1547   1.9202   1.9287
     1.9889   1.9892   3.7983   4.0746   4.1003   4.1161   4.1533   4.1575
     4.1798   4.1941   4.2591   4.2759

     the Fermi energy is     3.6216 ev

!    total energy              =   -2976.49823909 Ry
     estimated scf accuracy    <       0.00000005 Ry
     smearing contrib. (-TS)   =      -0.01952735 Ry
     internal energy E=F+TS    =   -2976.47871174 Ry

     The total energy is F=E-TS. E is the sum of the following terms:
     one-electron contribution =  -23034.96859193 Ry
     hartree contribution      =   11613.82425662 Ry
     xc contribution           =    -495.71283771 Ry
     ewald contribution        =    8940.37660647 Ry
     electric field correction =       0.00185481 Ry

     convergence has been achieved in  89 iterations

     Forces acting on atoms (cartesian axes, Ry/au):

     atom    1 type  1   force =     0.00000617   -0.00022176    0.09406262
     atom    2 type  1   force =    -0.00015961    0.00025653   -0.17513682
     atom    3 type  2   force =     0.00007319   -0.00015944   -0.02116180
     atom    4 type  2   force =     0.00000246   -0.00104083    0.05356076
     atom    5 type  2   force =    -0.00454800   -0.00322332    0.00115641
     atom    6 type  2   force =     0.00660402   -0.00242195    0.00161870
     atom    7 type  1   force =     0.00037405    0.00456258    0.01036662
     atom    8 type  1   force =    -0.00056291    0.00199254    0.00312501
     atom    9 type  2   force =     0.00010358   -0.00050490   -0.00048248
     atom   10 type  2   force =    -0.00031047   -0.00004205   -0.01129063
     atom   11 type  2   force =    -0.00023506    0.00046183    0.00003818
     atom   12 type  2   force =    -0.00027001    0.00067662    0.00007501
     atom   13 type  1   force =     0.00061324   -0.00064507    0.00025209
     atom   14 type  1   force =    -0.00035609    0.00015780    0.00020439
     atom   15 type  2   force =    -0.00017684    0.00010276    0.00049291
     atom   16 type  2   force =     0.00004904   -0.00000221    0.00043856
     atom   17 type  2   force =    -0.00030032    0.00025033    0.00012823
     atom   18 type  2   force =     0.00003567    0.00008323    0.00022009
     atom   19 type  1   force =    -0.00012716    0.00058314   -0.00029845
     atom   20 type  1   force =     0.00013258   -0.00000757   -0.00055543
     atom   21 type  2   force =     0.00002767   -0.00001126    0.10310709
     atom   22 type  2   force =    -0.00010772    0.00002539   -0.00029193
     atom   23 type  2   force =    -0.07214178   -0.00021012   -0.02723637
     atom   24 type  2   force =     0.07204529    0.00023200   -0.02731396
     atom   25 type  1   force =     0.00006944   -0.00034917    0.09404290
     atom   26 type  1   force =    -0.00000437   -0.00128184   -0.17517127
     atom   27 type  2   force =     0.00015162   -0.00021224   -0.01994121
     atom   28 type  2   force =     0.00008519   -0.00110892    0.04908345
     atom   29 type  2   force =    -0.00668446    0.00152593    0.00213343
     atom   30 type  2   force =     0.00855093    0.00170520    0.00250215
     atom   31 type  1   force =     0.00050060   -0.00020328    0.00052700
     atom   32 type  1   force =    -0.00020137   -0.00145167    0.00351565
     atom   33 type  2   force =    -0.00007888   -0.00000610   -0.00002060
     atom   34 type  2   force =    -0.00088923    0.00246464   -0.01149961
     atom   35 type  2   force =     0.00003126   -0.00043059    0.00048238
     atom   36 type  2   force =    -0.00052997   -0.00040838    0.00033764
     atom   37 type  1   force =     0.00037771    0.00029714    0.00004061
     atom   38 type  1   force =    -0.00038463    0.00022778    0.00031350
     atom   39 type  2   force =    -0.00051251    0.00043791    0.00039974
     atom   40 type  2   force =    -0.00002007   -0.00008102   -0.00005152
     atom   41 type  2   force =    -0.00039642   -0.00026519    0.00023599
     atom   42 type  2   force =    -0.00021167   -0.00024128   -0.00027470
     atom   43 type  1   force =    -0.00007233   -0.00043484    0.00075247
     atom   44 type  1   force =    -0.00016416   -0.00003258    0.00018013
     atom   45 type  2   force =     0.00002159   -0.00001755    0.10295761
     atom   46 type  2   force =    -0.07215065   -0.00008296   -0.02723180
     atom   47 type  2   force =     0.07200158    0.00035348   -0.02727590
     atom   48 type  3   force =     0.00001087   -0.00140932   -0.00009266
     atom   49 type  3   force =     0.00132939    0.00650938   -0.00401386
     atom   50 type  4   force =     0.00026175   -0.00035676    0.00028194
     atom   51 type  5   force =    -0.00028693    0.00023662    0.00002675
     atom   52 type  5   force =    -0.00007813   -0.00076612   -0.00001216
     atom   53 type  5   force =     0.00020594   -0.00052229    0.00000096
     atom   54 type  5   force =     0.00025582   -0.00002224   -0.00057582
     atom   55 type  5   force =    -0.00172031   -0.00500997    0.00465026
     atom   56 type  5   force =     0.00021296    0.00013326   -0.00042281
     atom   57 type  2   force =    -0.00020655    0.00051823   -0.00079317
     atom   58 type  5   force =    -0.00024495   -0.00060954   -0.00016622

     Total force =     0.361846     Total SCF correction =     0.000769
  @ DRIVER MODE: Message from server: STATUS
  @ DRIVER MODE: Message from server: GETFORCE
  @ DRIVER MODE: Returning v,forces,stress,ensemble

     Writing output data file ./calc.save/
  @ DRIVER MODE: Message from server: EXIT
  @ DRIVE MODE: Exiting

     General routines

     Parallel routines

   This run was terminated on:   6:32:33  24Sep2021

   JOB DONE.