     Program PWSCF v.6.7GPU starts on  9Sep2021 at  3:57:10

     R & G space division:  proc/nbgrp/npool/nimage =      10
     Reading input from /storage/home/hcoda1/3/ntian30/research/carbon/CxH_vib/CH3_calc/ads_slab/CH3N_a/out_0024/pw.inp
Warning: card &CELL ignored
Warning: card   CELL_DYNAMICS='IPI', ignored
Warning: card / ignored

     Current dimensions of program PWSCF are:
     Max number of different atomic species (ntypx) = 10
     Max number of k-points (npk) =  40000
     Max angular momentum in pseudopotentials (lmaxx) =  3
     Presently no symmetry can be used with electric field

     Message from routine cell_base_init:
     DEPRECATED: use true lattice parameter, not A to a.u. conversion factor

     IMPORTANT: XC functional enforced from input :
     Exchange-correlation= BEEF-VDW
                           (   1   4  43  14   2   0   0)
     Any further DFT definition will be discarded
     Please, verify this is what you really want

  @ DRIVER MODE: Connecting to
 qe_1139763_2767403.sched-torque.pace.gatech.eduptuc33o1_scratch
  using UNIX socket
  @ DRIVER MODE: Message from server: STATUS
  @ DRIVER MODE: Message from server: INIT
  @ DRIVER MODE: Receiving replica           0          -1
  @ DRIVER MODE: Receiving encoded integer          25
  @ DRIVER MODE:  SCF:  T  FORCE:  T  STRESS:  F  VC:  F  ENSEMBLE:  F
  @ DRIVER MODE:  SCF:  T  FORCE:  T  STRESS:  F  VC:  F  ENSEMBLE:  F

     Using Slab Decomposition

     bravais-lattice index     =            0
     lattice parameter (alat)  =       1.8897  a.u.
     unit-cell volume          =    6658.9804 (a.u.)^3
     number of atoms/cell      =           52
     number of atomic types    =            5
     number of electrons       =       390.00
     number of Kohn-Sham states=          205
     kinetic-energy cutoff     =      29.3995  Ry
     charge density cutoff     =     293.9946  Ry
     scf convergence threshold =      7.3E-08
     mixing beta               =       0.0500
     number of iterations used =            8  plain     mixing
     Exchange-correlation= BEEF-VDW
                           (   1   4  43  14   2   0   0)

     celldm(1)=   1.889726  celldm(2)=   0.000000  celldm(3)=   0.000000
     celldm(4)=   0.000000  celldm(5)=   0.000000  celldm(6)=   0.000000

     crystal axes: (cart. coord. in units of alat)
               a(1) = (   6.579727   0.000000   0.000000 )
               a(2) = (  -0.000775   5.961596   0.000000 )
               a(3) = (   0.000000   0.000000  25.155947 )

     reciprocal axes: (cart. coord. in units 2 pi/alat)
               b(1) = (  0.151982  0.000020  0.000000 )
               b(2) = (  0.000000  0.167740  0.000000 )
               b(3) = (  0.000000  0.000000  0.039752 )

     PseudoPot. # 1 for Ti read from file:
     /storage/coda1/p-amedford6/0/shared/rich_project_chbe-medford/medford-share/data/pseudos_module/espresso/nninc/pbe/van/Ti.UPF
     MD5 check sum: 8e4df49b7f0d34bbd5052bf3f5ea0213
     Pseudo is Ultrasoft, Zval = 12.0
     Generated by new atomic code, or converted to UPF format
     Using radial grid of  851 points,  6 beta functions with:
                l(1) =   0
                l(2) =   0
                l(3) =   1
                l(4) =   1
                l(5) =   2
                l(6) =   2
     Q(r) pseudized with  8 coefficients,  rinner =    1.000   1.000   1.000
                                                       1.000   1.000

     PseudoPot. # 2 for O  read from file:
     /storage/coda1/p-amedford6/0/shared/rich_project_chbe-medford/medford-share/data/pseudos_module/espresso/nninc/pbe/van/O.UPF
     MD5 check sum: 78c19812648e8988a0fe644b0f25305e
     Pseudo is Ultrasoft, Zval =  6.0
     Generated by new atomic code, or converted to UPF format
     Using radial grid of  737 points,  4 beta functions with:
                l(1) =   0
                l(2) =   0
                l(3) =   1
                l(4) =   1
     Q(r) pseudized with  8 coefficients,  rinner =    0.800   0.800   0.800

     PseudoPot. # 3 for N  read from file:
     /storage/coda1/p-amedford6/0/shared/rich_project_chbe-medford/medford-share/data/pseudos_module/espresso/nninc/pbe/van/N.UPF
     MD5 check sum: 90d10febe142ad51ac9d5be1deb811c4
     Pseudo is Ultrasoft, Zval =  5.0
     Generated by new atomic code, or converted to UPF format
     Using radial grid of  729 points,  4 beta functions with:
                l(1) =   0
                l(2) =   0
                l(3) =   1
                l(4) =   1
     Q(r) pseudized with  8 coefficients,  rinner =    0.800   0.800   0.800

     PseudoPot. # 4 for C  read from file:
     /storage/coda1/p-amedford6/0/shared/rich_project_chbe-medford/medford-share/data/pseudos_module/espresso/nninc/pbe/van/C.UPF
     MD5 check sum: 1a69bf6b8db32088f5b2163dbdb77a27
     Pseudo is Ultrasoft, Zval =  4.0
     Generated by new atomic code, or converted to UPF format
     Using radial grid of  721 points,  4 beta functions with:
                l(1) =   0
                l(2) =   0
                l(3) =   1
                l(4) =   1
     Q(r) pseudized with  8 coefficients,  rinner =    0.800   0.800   0.800

     PseudoPot. # 5 for H  read from file:
     /storage/coda1/p-amedford6/0/shared/rich_project_chbe-medford/medford-share/data/pseudos_module/espresso/nninc/pbe/van/H.UPF
     MD5 check sum: b5ee9d7bfd3a09ee7748110bda690ff7
     Pseudo is Ultrasoft, Zval =  1.0
     Generated by new atomic code, or converted to UPF format
     Using radial grid of  615 points,  1 beta functions with:
                l(1) =   0
     Q(r) pseudized with  8 coefficients,  rinner =    0.800

     atomic species   valence    mass     pseudopotential
        Ti1           12.00    47.86700     Ti( 1.00)
        O1             6.00    15.99900     O ( 1.00)
        N1             5.00    14.00700     N ( 1.00)
        C1             4.00    12.01100     C ( 1.00)
        H1             1.00     1.00800     H ( 1.00)

     No symmetry found

   Cartesian axes

     site n.     atom                  positions (alat units)
         1           Ti1 tau(   1) = (   0.0004258   2.9801865   6.0000000  )
         2           Ti1 tau(   2) = (   3.2906075   1.4906267   6.0002472  )
         3           O1  tau(   3) = (   0.0006271   0.0005054   7.9858123  )
         4           O1  tau(   4) = (   3.2906025   0.0005020   7.3038282  )
         5           O1  tau(   5) = (   4.5942328   1.4918067   9.2879030  )
         6           O1  tau(   6) = (   1.9868534   1.4903216   9.2879459  )
         7           Ti1 tau(   7) = (   3.2907910   2.8959150   9.1758416  )
         8           Ti1 tau(   8) = (   0.0015273   1.4827037   9.2680791  )
         9           O1  tau(   9) = (   3.3018735   5.9614316  11.2970789  )
        10           O1  tau(  10) = (   0.0116148   5.9584955  10.6183126  )
        11           O1  tau(  11) = (   1.3353665   1.4968727  12.6140821  )
        12           O1  tau(  12) = (   5.3123320   1.5002621  12.6324210  )
        13           Ti1 tau(  13) = (   6.4913169   2.9877414  12.7576577  )
        14           Ti1 tau(  14) = (   3.1819880   1.4874128  12.4666476  )
        15           O1  tau(  15) = (   0.0325390   5.9514364  14.5942808  )
        16           O1  tau(  16) = (   3.3157460   0.0104736  13.8786857  )
        17           O1  tau(  17) = (   4.5538541   1.5308062  16.0536203  )
        18           O1  tau(  18) = (   2.1012647   1.5271178  16.0466835  )
        19           Ti1 tau(  19) = (   3.3239613   3.0121693  15.6870930  )
        20           Ti1 tau(  20) = (   0.0188375   1.6096557  16.0875739  )
        21           O1  tau(  21) = (   3.2904802   0.0005063   4.7018136  )
        22           O1  tau(  22) = (   0.0443345   0.0604659  17.2041813  )
        23           O1  tau(  23) = (   1.3043587   1.4918075   6.0039043  )
        24           O1  tau(  24) = (   5.2767064   1.4903225   6.0039473  )
        25           Ti1 tau(  25) = (   0.0000382   5.9609847   6.0000000  )
        26           Ti1 tau(  26) = (   3.2902200   4.4714249   6.0002472  )
        27           O1  tau(  27) = (   0.0002396   2.9813036   7.9858123  )
        28           O1  tau(  28) = (   3.2902150   2.9813002   7.3038282  )
        29           O1  tau(  29) = (   4.5938453   4.4726049   9.2879030  )
        30           O1  tau(  30) = (   1.9864658   4.4711199   9.2879459  )
        31           Ti1 tau(  31) = (   3.2891106   5.8743827   9.1763621  )
        32           Ti1 tau(  32) = (   0.0006254   4.4649316   9.2693709  )
        33           O1  tau(  33) = (   3.3028429   2.9834257  11.2952420  )
        34           O1  tau(  34) = (   0.0092240   2.9805883  10.6323155  )
        35           O1  tau(  35) = (   1.3370139   4.4664586  12.6123119  )
        36           O1  tau(  36) = (   5.3107101   4.4655690  12.6333123  )
        37           Ti1 tau(  37) = (   6.5188704   0.0058144  12.7695920  )
        38           Ti1 tau(  38) = (   3.1805296   4.4670443  12.4671176  )
        39           O1  tau(  39) = (   0.0099197   2.9765079  14.6559069  )
        40           O1  tau(  40) = (   3.3143426   2.9928857  13.8797190  )
        41           O1  tau(  41) = (   4.5573730   4.5089470  16.0521860  )
        42           O1  tau(  42) = (   2.1018054   4.5121927  16.0508938  )
        43           Ti1 tau(  43) = (   3.3145791   0.0316975  15.6896801  )
        44           Ti1 tau(  44) = (   0.0207397   4.5876961  16.1385408  )
        45           O1  tau(  45) = (   3.2900926   2.9813045   4.7018136  )
        46           O1  tau(  46) = (   1.3039711   4.4726057   6.0039043  )
        47           O1  tau(  47) = (   5.2763189   4.4711207   6.0039473  )
        48           N1  tau(  48) = (   0.0936308   3.0233000  17.3257847  )
        49           C1  tau(  49) = (   0.4281149   3.0137428  18.7308649  )
        50           H1  tau(  50) = (   0.7292188   4.0033843  19.0862330  )
        51           H1  tau(  51) = (   6.1445545   2.6862439  19.3332575  )
        52           H1  tau(  52) = (   1.2401080   2.3040860  18.9332505  )

     number of k points=    10  Fermi-Dirac smearing, width (Ry)=  0.0073
                       cart. coord. in units 2pi/alat
        k(    1) = (   0.0000000   0.0000000   0.0000000), wk =   0.1250000
        k(    2) = (   0.0000000   0.0419351   0.0000000), wk =   0.2500000
        k(    3) = (   0.0000000  -0.0838702   0.0000000), wk =   0.1250000
        k(    4) = (   0.0379955   0.0000049   0.0000000), wk =   0.2500000
        k(    5) = (   0.0379955   0.0419400   0.0000000), wk =   0.2500000
        k(    6) = (   0.0379955  -0.0838652   0.0000000), wk =   0.2500000
        k(    7) = (   0.0379955  -0.0419301   0.0000000), wk =   0.2500000
        k(    8) = (  -0.0759910  -0.0000099   0.0000000), wk =   0.1250000
        k(    9) = (  -0.0759910   0.0419252   0.0000000), wk =   0.2500000
        k(   10) = (  -0.0759910  -0.0838800   0.0000000), wk =   0.1250000

     Initial potential from superposition of free atoms

     starting charge  373.99917, renormalised to  390.00000

     negative rho (up, down):  1.729E-02 0.000E+00

     %%%%%%%%%%%%%%%%%%%%%%%%%%%%%%%%%%%%%%%%%%%%%%%%%%%%%%%%%%%%%%%%%%%%%%%%
     %                                                                      %
     % You are using vdW-DF, which was implemented by the Thonhauser group. %
     % Please cite the following two papers that made this development      %
     % possible and the two reviews that describe the various versions:     %
     %                                                                      %
     %   T. Thonhauser et al., PRL 115, 136402 (2015).                      %
     %   T. Thonhauser et al., PRB 76, 125112 (2007).                       %
     %   K. Berland et al., Rep. Prog. Phys. 78, 066501 (2015).             %
     %   D.C. Langreth et al., J. Phys.: Condens. Matter 21, 084203 (2009). %
     %                                                                      %
     %                                                                      %
     % If you are calculating the stress with vdW-DF, please also cite:     %
     %                                                                      %
     %   R. Sabatini et al., J. Phys.: Condens. Matter 24, 424209 (2012).   %
     %                                                                      %
     %%%%%%%%%%%%%%%%%%%%%%%%%%%%%%%%%%%%%%%%%%%%%%%%%%%%%%%%%%%%%%%%%%%%%%%%

     Adding external electric field

     Computed dipole along edir(3) :
        Dipole               -4.6280 Ry au,        -11.7632 Debye
        Dipole field         -0.0087 Ry au,

        Potential amp.        0.8096 Ry
        Total length         46.3494 bohr

     Starting wfcs are  295 atomic wfcs
  @ DRIVER MODE: Message from server: STATUS
  @ DRIVER MODE: Message from server: POSDATA
  @ DRIVER MODE: Reading and sharing cell
  @ DRIVER MODE: Reading and sharing positions
  @ DRIVER MODE: Received positions

     Self-consistent Calculation

     iteration #  1     ecut=    29.40 Ry     beta= 0.05
     Davidson diagonalization with overlap
     c_bands:  4 eigenvalues not converged
     c_bands:  2 eigenvalues not converged
     c_bands:  3 eigenvalues not converged
     c_bands:  4 eigenvalues not converged
     c_bands:  2 eigenvalues not converged
     c_bands:  4 eigenvalues not converged
     c_bands:  2 eigenvalues not converged
     c_bands:  2 eigenvalues not converged
     c_bands:  2 eigenvalues not converged
     ethr =  1.00E-05,  avg # of iterations = 19.9

[...]

     total energy              =   -2877.42281764 Ry
     estimated scf accuracy    <     481.27730486 Ry

     iteration #  2     ecut=    29.40 Ry     beta= 0.05
     Davidson diagonalization with overlap
     ethr =  1.00E-02,  avg # of iterations = 13.9

[...]

     iteration # 33     ecut=    29.40 Ry     beta= 0.05
     Davidson diagonalization with overlap
     c_bands:  2 eigenvalues not converged
     ethr =  2.18E-07,  avg # of iterations =  8.9

[...]

     total energy              =   -2919.13180904 Ry
     estimated scf accuracy    <       0.00000012 Ry

     iteration # 58     ecut=    29.40 Ry     beta= 0.05
     Davidson diagonalization with overlap
     ethr =  2.00E-11,  avg # of iterations =  5.0

     negative rho (up, down):  1.785E-02 0.000E+00

     Adding external electric field

     Computed dipole along edir(3) :
        Dipole                0.2583 Ry au,          0.6566 Debye
        Dipole field          0.0005 Ry au,

        Potential amp.       -0.0452 Ry
        Total length         46.3494 bohr

     End of self-consistent calculation

          k = 0.0000 0.0000 0.0000 ( 18029 PWs)   bands (ev):

   -56.8886 -56.8550 -56.0106 -55.9988 -55.9757 -55.9659 -55.8634 -55.8247
   -55.6469 -55.6115 -55.5527 -55.5496 -55.5188 -55.4402 -54.9692 -54.9224
   -33.3165 -33.1633 -33.1352 -33.0646 -32.9736 -32.9425 -32.4814 -32.4752
   -32.4040 -32.2947 -32.2482 -32.2244 -32.2059 -32.1846 -32.1510 -32.1466
   -32.1425 -32.1398 -32.1141 -32.1112 -32.1001 -32.0705 -32.0442 -32.0305
   -32.0174 -31.9976 -31.9905 -31.9669 -31.9450 -31.8913 -31.8782 -31.8672
   -31.7910 -31.7856 -31.7637 -31.7247 -31.7134 -31.6802 -31.6695 -31.6446
   -31.6259 -31.5693 -31.4993 -31.2199 -31.1942 -31.1734 -31.1433 -31.0282
   -17.0529 -16.6174 -16.3869 -16.2512 -16.1839 -16.1294 -16.0855 -15.9607
   -15.8881 -15.8835 -15.8432 -15.8107 -15.7399 -15.6018 -15.5032 -15.4457
   -15.4021 -15.2831 -15.2245 -15.1906 -15.1845 -15.1460 -15.1306 -14.9340
   -14.9076 -14.8196 -14.7993 -14.6729 -14.4406 -14.0514 -13.9413 -13.0761
    -7.8063  -4.6184  -4.1138  -3.8725  -3.7898  -3.6814  -3.6689  -3.5878
    -3.4695  -3.4225  -3.3760  -3.2600  -3.2563  -3.1101  -3.0999  -3.0643
    -3.0617  -3.0243  -2.9553  -2.9431  -2.8967  -2.8942  -2.8861  -2.7310
    -2.6335  -2.5663  -2.5396  -2.5265  -2.4961  -2.4238  -2.3942  -2.3852
    -2.3814  -2.2755  -2.1310  -2.1278  -2.0972  -2.0553  -2.0530  -2.0119
    -2.0014  -1.8778  -1.7863  -1.6777  -1.6676  -1.6303  -1.5687  -1.5620
    -1.4658  -1.3899  -1.3198  -1.3019  -1.1925  -1.1488  -1.1252  -1.0351
    -0.9740  -0.9366  -0.9132  -0.8972  -0.7930  -0.7781  -0.7703  -0.6770
    -0.6649  -0.6215  -0.5284  -0.5052  -0.4993  -0.4174  -0.4104  -0.3049
    -0.2771  -0.2322  -0.1994  -0.0943  -0.0738   0.0241   0.0610   0.0801
     0.2013   0.2187   0.2791   0.3515   0.4167   0.4334   0.4689   0.4995
     0.5157   0.5938   0.7061   0.7131   0.8173   0.8500   1.0214   1.0602
     1.3453   1.3535   2.0448   2.3860   2.5456   2.8440   3.0332   3.1465
     3.3609   3.3764   3.3816   3.5538   3.6058

[...]

          k = 0.0380-0.0419 0.0000 ( 17876 PWs)   bands (ev):

[...]

          k =-0.0760-0.0000 0.0000 ( 17886 PWs)   bands (ev):

[...]

          k =-0.0760-0.0839 0.0000 ( 17948 PWs)   bands (ev):

   -56.8719 -56.8716 -55.9954 -55.9897 -55.9831 -55.9825 -55.8519 -55.8360
   -55.6321 -55.6262 -55.5468 -55.5357 -55.5356 -55.4430 -54.9612 -54.9302
   -33.1492 -33.1489 -33.1334 -33.1333 -33.0177 -33.0174 -32.3113 -32.3090
   -32.2997 -32.2932 -32.2399 -32.2366 -32.1980 -32.1941 -32.1929 -32.1887
   -32.1850 -32.1821 -32.1799 -32.1783 -32.1022 -32.0897 -32.0511 -32.0388
   -31.9826 -31.9740 -31.9144 -31.9085 -31.8802 -31.8801 -31.8748 -31.8307
   -31.8290 -31.7997 -31.7628 -31.7613 -31.7612 -31.7222 -31.7222 -31.7204
   -31.6858 -31.6463 -31.3640 -31.2865 -31.1909 -31.1638 -31.1519 -31.1104
   -16.4015 -16.3995 -16.3668 -16.3665 -16.0976 -16.0940 -16.0476 -16.0442
   -15.8727 -15.8655 -15.6608 -15.6519 -15.6447 -15.6419 -15.5142 -15.5085
   -15.4452 -15.4310 -15.3426 -15.3402 -15.2776 -15.2715 -15.2327 -15.2129
   -14.9033 -14.8856 -14.7737 -14.7482 -14.5841 -14.0448 -14.0448 -13.0925
    -7.7971  -3.5000  -3.4992  -3.4357  -3.4347  -3.3100  -3.3042  -3.2312
    -3.2305  -3.1288  -3.1251  -3.0759  -2.9944  -2.9857  -2.9827  -2.9720
    -2.9403  -2.8308  -2.8288  -2.8177  -2.8017  -2.7457  -2.7435  -2.7317
    -2.6541  -2.6392  -2.6052  -2.5669  -2.4579  -2.4445  -2.4313  -2.3996
    -2.3447  -2.3298  -2.3171  -2.2755  -2.2487  -2.1644  -2.1088  -2.0559
    -1.9402  -1.9370  -1.9286  -1.9130  -1.7619  -1.7201  -1.6923  -1.6853
    -1.6770  -1.6330  -1.5352  -1.5284  -1.3938  -1.3933  -1.3132  -1.2343
    -1.2165  -1.1867  -1.0567  -1.0160  -0.9798  -0.9716  -0.9441  -0.9244
    -0.9007  -0.8635  -0.7221  -0.7089  -0.6720  -0.6369  -0.6320  -0.5756
    -0.5187  -0.4388  -0.3623  -0.3614  -0.3068  -0.2342  -0.1740  -0.0927
    -0.0792  -0.0746   0.2057   0.2852   0.3777   0.4541   0.5226   0.5759
     0.6108   0.6758   0.7143   0.8472   0.8518   0.8695   0.8698   0.9320
     0.9336   1.3364   1.9342   2.9589   2.9593   3.0262   3.0266   3.3501
     3.3560   3.4642   3.4737   3.5850   3.5873

     the Fermi energy is     2.2248 ev

!    total energy              =   -2919.13185612 Ry
     estimated scf accuracy    <       0.00000004 Ry
     smearing contrib. (-TS)   =      -0.00481300 Ry
     internal energy E=F+TS    =   -2919.12704313 Ry

     The total energy is F=E-TS. E is the sum of the following terms:
     one-electron contribution =  -24568.88597322 Ry
     hartree contribution      =   12368.65803218 Ry
     xc contribution           =    -479.89611663 Ry
     ewald contribution        =    9760.99688859 Ry
     electric field correction =       0.00012595 Ry

     convergence has been achieved in  58 iterations

     Forces acting on atoms (cartesian axes, Ry/au):

     atom    1 type  1   force =     0.00005919   -0.00050861    0.12427807
     atom    2 type  1   force =    -0.00008975   -0.00055166   -0.16064428
     atom    3 type  2   force =     0.00022111   -0.00024125   -0.06810158
     atom    4 type  2   force =    -0.00000196   -0.00032186    0.02757577
     atom    5 type  2   force =    -0.01621958    0.00174823   -0.00936980
     atom    6 type  2   force =     0.01827282    0.00228616   -0.00892397
     atom    7 type  1   force =     0.00112265   -0.00381895    0.02203343
     atom    8 type  1   force =    -0.00061708   -0.00325238    0.11123512
     atom    9 type  2   force =    -0.00010616    0.00138873   -0.00035647
     atom   10 type  2   force =    -0.00191012    0.00178515   -0.07347870
     atom   11 type  2   force =     0.00080786    0.00006192    0.00004559
     atom   12 type  2   force =    -0.00064234    0.00020456    0.00014660
     atom   13 type  1   force =     0.00004895    0.00022359   -0.00041406
     atom   14 type  1   force =    -0.00101069   -0.00024384   -0.00046329
     atom   15 type  2   force =    -0.00000289   -0.00029570    0.00009156
     atom   16 type  2   force =    -0.00005982    0.00106694    0.00073144
     atom   17 type  2   force =     0.00010806    0.00013270   -0.00047587
     atom   18 type  2   force =     0.00003130    0.00020548   -0.00007719
     atom   19 type  1   force =     0.00014785    0.00002869   -0.00066685
     atom   20 type  1   force =     0.00030498   -0.00111018    0.00014577
     atom   21 type  2   force =     0.00003988   -0.00006669    0.09973904
     atom   22 type  2   force =     0.00015621   -0.00054647   -0.00013678
     atom   23 type  2   force =    -0.07920504   -0.00005211   -0.03244782
     atom   24 type  2   force =     0.07906996    0.00038355   -0.03247130
     atom   25 type  1   force =     0.00004530   -0.00050093    0.12372703
     atom   26 type  1   force =    -0.00009737   -0.00050573   -0.16066114
     atom   27 type  2   force =     0.00032638   -0.00048050   -0.06715571
     atom   28 type  2   force =     0.00002604   -0.00014381    0.02726150
     atom   29 type  2   force =    -0.01661876    0.00134983   -0.00957230
     atom   30 type  2   force =     0.01855959    0.00165646   -0.00914192
     atom   31 type  1   force =     0.00110205   -0.00129422    0.02158928
     atom   32 type  1   force =    -0.00052062    0.00069322    0.11188318
     atom   33 type  2   force =    -0.00034040   -0.00115373    0.00014589
     atom   34 type  2   force =    -0.00156706    0.00135616   -0.07241155
     atom   35 type  2   force =    -0.00179485   -0.00019949    0.00026340
     atom   36 type  2   force =     0.00070242   -0.00042344   -0.00005433
     atom   37 type  1   force =     0.00072112   -0.00033272    0.00071008
     atom   38 type  1   force =    -0.00016110    0.00052254    0.00021892
     atom   39 type  2   force =     0.00019903   -0.00031806   -0.00031938
     atom   40 type  2   force =     0.00010574   -0.00017253    0.00031919
     atom   41 type  2   force =     0.00003999    0.00045694   -0.00014744
     atom   42 type  2   force =     0.00024494    0.00053762   -0.00005456
     atom   43 type  1   force =     0.00038270    0.00016903   -0.00031435
     atom   44 type  1   force =    -0.00022145    0.00020815    0.00011692
     atom   45 type  2   force =     0.00002431   -0.00007159    0.09977047
     atom   46 type  2   force =    -0.07921423   -0.00000647   -0.03244763
     atom   47 type  2   force =     0.07908208    0.00042163   -0.03247103
     atom   48 type  3   force =    -0.00072033   -0.00121092    0.00070561
     atom   49 type  4   force =    -0.00423115   -0.00143133    0.00453763
     atom   50 type  5   force =    -0.00046110    0.00012452   -0.00006379
     atom   51 type  5   force =     0.00418840    0.00169620   -0.00446467
     atom   52 type  5   force =    -0.00032704    0.00054715    0.00003628

     Total force =     0.424732     Total SCF correction =     0.000705
  @ DRIVER MODE: Message from server: STATUS
  @ DRIVER MODE: Message from server: GETFORCE
  @ DRIVER MODE: Returning v,forces,stress,ensemble

     Writing output data file ./calc.save/
  @ DRIVER MODE: Message from server: EXIT
  @ DRIVE MODE: Exiting

     General routines

     Parallel routines

   This run was terminated on:   4:11:23   9Sep2021

   JOB DONE.