     Program PWSCF v.6.7GPU starts on 24Aug2021 at 13:23:27

     R & G space division:  proc/nbgrp/npool/nimage =      72
     Reading input from /storage/home/hcoda1/3/ntian30/research/carbon/CH2_vib/ads_slab/CH2NNH3_a/out_0010/pw.inp
Warning: card &CELL ignored
Warning: card   CELL_DYNAMICS='IPI', ignored
Warning: card / ignored

     Current dimensions of program PWSCF are:
     Max number of different atomic species (ntypx) = 10
     Max number of k-points (npk) =  40000
     Max angular momentum in pseudopotentials (lmaxx) =  3
     Presently no symmetry can be used with electric field

     Message from routine cell_base_init:
     DEPRECATED: use true lattice parameter, not A to a.u. conversion factor

     IMPORTANT: XC functional enforced from input :
     Exchange-correlation= BEEF-VDW
                           (   1   4  43  14   2   0   0)
     Any further DFT definition will be discarded
     Please, verify this is what you really want

  @ DRIVER MODE: Connecting to
 qe_1139763_2641442.sched-torque.pace.gatech.edurha54try_scratch
  using UNIX socket
  @ DRIVER MODE: Message from server: STATUS
  @ DRIVER MODE: Message from server: INIT
  @ DRIVER MODE: Receiving replica           0          -1
  @ DRIVER MODE: Receiving encoded integer          25
  @ DRIVER MODE:  SCF:  T  FORCE:  T  STRESS:  F  VC:  F  ENSEMBLE:  F
  @ DRIVER MODE:  SCF:  T  FORCE:  T  STRESS:  F  VC:  F  ENSEMBLE:  F

     Using Slab Decomposition

     bravais-lattice index     =            0
     lattice parameter (alat)  =       1.8897  a.u.
     unit-cell volume          =    6658.9804 (a.u.)^3
     number of atoms/cell      =           55
     number of atomic types    =            5
     number of electrons       =       397.00
     number of Kohn-Sham states=          208
     kinetic-energy cutoff     =      29.3995  Ry
     charge density cutoff     =     293.9946  Ry
     scf convergence threshold =      7.3E-08
     mixing beta               =       0.0500
     number of iterations used =            8  plain     mixing
     Exchange-correlation= BEEF-VDW
                           (   1   4  43  14   2   0   0)

     celldm(1)=   1.889726  celldm(2)=   0.000000  celldm(3)=   0.000000
     celldm(4)=   0.000000  celldm(5)=   0.000000  celldm(6)=   0.000000

     crystal axes: (cart. coord. in units of alat)
               a(1) = (   6.579727   0.000000   0.000000 )
               a(2) = (  -0.000775   5.961596   0.000000 )
               a(3) = (   0.000000   0.000000  25.155947 )

     reciprocal axes: (cart. coord. in units 2 pi/alat)
               b(1) = (  0.151982  0.000020  0.000000 )
               b(2) = (  0.000000  0.167740  0.000000 )
               b(3) = (  0.000000  0.000000  0.039752 )

     PseudoPot. # 1 for Ti read from file:
     /storage/coda1/p-amedford6/0/shared/rich_project_chbe-medford/medford-share/data/pseudos_module/espresso/nninc/pbe/van/Ti.UPF
     MD5 check sum: 8e4df49b7f0d34bbd5052bf3f5ea0213
     Pseudo is Ultrasoft, Zval = 12.0
     Generated by new atomic code, or converted to UPF format
     Using radial grid of  851 points,  6 beta functions with:
                l(1) =   0
                l(2) =   0
                l(3) =   1
                l(4) =   1
                l(5) =   2
                l(6) =   2
     Q(r) pseudized with  8 coefficients,  rinner =    1.000   1.000   1.000
                                                       1.000   1.000

     PseudoPot. # 2 for O  read from file:
     /storage/coda1/p-amedford6/0/shared/rich_project_chbe-medford/medford-share/data/pseudos_module/espresso/nninc/pbe/van/O.UPF
     MD5 check sum: 78c19812648e8988a0fe644b0f25305e
     Pseudo is Ultrasoft, Zval =  6.0
     Generated by new atomic code, or converted to UPF format
     Using radial grid of  737 points,  4 beta functions with:
                l(1) =   0
                l(2) =   0
                l(3) =   1
                l(4) =   1
     Q(r) pseudized with  8 coefficients,  rinner =    0.800   0.800   0.800

     PseudoPot. # 3 for N  read from file:
     /storage/coda1/p-amedford6/0/shared/rich_project_chbe-medford/medford-share/data/pseudos_module/espresso/nninc/pbe/van/N.UPF
     MD5 check sum: 90d10febe142ad51ac9d5be1deb811c4
     Pseudo is Ultrasoft, Zval =  5.0
     Generated by new atomic code, or converted to UPF format
     Using radial grid of  729 points,  4 beta functions with:
                l(1) =   0
                l(2) =   0
                l(3) =   1
                l(4) =   1
     Q(r) pseudized with  8 coefficients,  rinner =    0.800   0.800   0.800

     PseudoPot. # 4 for C  read from file:
     /storage/coda1/p-amedford6/0/shared/rich_project_chbe-medford/medford-share/data/pseudos_module/espresso/nninc/pbe/van/C.UPF
     MD5 check sum: 1a69bf6b8db32088f5b2163dbdb77a27
     Pseudo is Ultrasoft, Zval =  4.0
     Generated by new atomic code, or converted to UPF format
     Using radial grid of  721 points,  4 beta functions with:
                l(1) =   0
                l(2) =   0
                l(3) =   1
                l(4) =   1
     Q(r) pseudized with  8 coefficients,  rinner =    0.800   0.800   0.800

     PseudoPot. # 5 for H  read from file:
     /storage/coda1/p-amedford6/0/shared/rich_project_chbe-medford/medford-share/data/pseudos_module/espresso/nninc/pbe/van/H.UPF
     MD5 check sum: b5ee9d7bfd3a09ee7748110bda690ff7
     Pseudo is Ultrasoft, Zval =  1.0
     Generated by new atomic code, or converted to UPF format
     Using radial grid of  615 points,  1 beta functions with:
                l(1) =   0
     Q(r) pseudized with  8 coefficients,  rinner =    0.800

     atomic species   valence    mass     pseudopotential
        Ti1           12.00    47.86700     Ti( 1.00)
        O1             6.00    15.99900     O ( 1.00)
        N1             5.00    14.00700     N ( 1.00)
        C1             4.00    12.01100     C ( 1.00)
        H1             1.00     1.00800     H ( 1.00)

     No symmetry found

   Cartesian axes

     site n.     atom                  positions (alat units)
         1           Ti1 tau(   1) = (   0.0004258   2.9801865   6.0000000  )
         2           Ti1 tau(   2) = (   3.2906075   1.4906267   6.0002472  )
         3           O1  tau(   3) = (   0.0006271   0.0005054   7.9858123  )
         4           O1  tau(   4) = (   3.2906025   0.0005020   7.3038282  )
         5           O1  tau(   5) = (   4.5942328   1.4918067   9.2879030  )
         6           O1  tau(   6) = (   1.9868534   1.4903216   9.2879459  )
         7           Ti1 tau(   7) = (   3.2907910   2.8959150   9.1758416  )
         8           Ti1 tau(   8) = (   0.0015273   1.4827037   9.2680791  )
         9           O1  tau(   9) = (   3.2870044   0.0008392  11.3329265  )
        10           O1  tau(  10) = (   0.0116148   5.9584955  10.6183126  )
        11           O1  tau(  11) = (   1.3103063   1.4923116  12.6208530  )
        12           O1  tau(  12) = (   5.2933663   1.4849185  12.6124200  )
        13           Ti1 tau(  13) = (   6.5212574   2.9536302  12.6166858  )
        14           Ti1 tau(  14) = (   3.2058376   1.4897313  12.4816367  )
        15           O1  tau(  15) = (   6.5713238   0.0136578  14.6546308  )
        16           O1  tau(  16) = (   3.3039920   0.0133407  13.9274802  )
        17           O1  tau(  17) = (   4.5398155   1.5323753  16.0810081  )
        18           O1  tau(  18) = (   2.0543055   1.5218724  16.0470058  )
        19           Ti1 tau(  19) = (   3.2774803   3.0107093  15.7022328  )
        20           Ti1 tau(  20) = (   6.5342633   1.5374647  15.8423947  )
        21           O1  tau(  21) = (   3.2904802   0.0005063   4.7018136  )
        22           O1  tau(  22) = (   0.0034288   0.0322173  17.2228558  )
        23           O1  tau(  23) = (   1.3043587   1.4918075   6.0039043  )
        24           O1  tau(  24) = (   5.2767064   1.4903225   6.0039473  )
        25           Ti1 tau(  25) = (   0.0000382   5.9609847   6.0000000  )
        26           Ti1 tau(  26) = (   3.2902200   4.4714249   6.0002472  )
        27           O1  tau(  27) = (   0.0002396   2.9813036   7.9858123  )
        28           O1  tau(  28) = (   3.2902150   2.9813002   7.3038282  )
        29           O1  tau(  29) = (   4.5938453   4.4726049   9.2879030  )
        30           O1  tau(  30) = (   1.9864658   4.4711199   9.2879459  )
        31           Ti1 tau(  31) = (   3.2891106   5.8743827   9.1763621  )
        32           Ti1 tau(  32) = (   0.0006254   4.4649316   9.2693709  )
        33           O1  tau(  33) = (   3.2848367   2.9872869  11.3311783  )
        34           O1  tau(  34) = (   0.0092240   2.9805883  10.6323155  )
        35           O1  tau(  35) = (   1.3050274   4.4824158  12.6313026  )
        36           O1  tau(  36) = (   5.2955027   4.4751037  12.6224712  )
        37           Ti1 tau(  37) = (   6.5218534   5.9301143  12.5590122  )
        38           Ti1 tau(  38) = (   3.2037265   4.4702053  12.4865905  )
        39           O1  tau(  39) = (   6.5652647   2.9430126  14.6458727  )
        40           O1  tau(  40) = (   3.3006234   2.9978660  13.9063397  )
        41           O1  tau(  41) = (   4.5289998   4.4870283  16.1192093  )
        42           O1  tau(  42) = (   2.0463452   4.4937679  16.0531255  )
        43           Ti1 tau(  43) = (   3.2679282   0.0255942  15.7259849  )
        44           Ti1 tau(  44) = (   6.5624932   4.6695214  16.1100661  )
        45           O1  tau(  45) = (   3.2900926   2.9813045   4.7018136  )
        46           O1  tau(  46) = (   1.3039711   4.4726057   6.0039043  )
        47           O1  tau(  47) = (   5.2763189   4.4711207   6.0039473  )
        48           N1  tau(  48) = (   0.0665130   2.9625449  17.3937163  )
        49           C1  tau(  49) = (   0.2662726   2.8815582  18.6342609  )
        50           H1  tau(  50) = (   0.3859136   3.7587535  19.2661104  )
        51           H1  tau(  51) = (   0.3502417   1.8926937  19.1273272  )
        52           N1  tau(  52) = (   3.5829462   4.8819607  19.5834040  )
        53           H1  tau(  53) = (   4.1394342   5.6873527  19.8504637  )
        54           H1  tau(  54) = (   4.0752263   4.4438539  18.8113048  )
        55           H1  tau(  55) = (   3.6086599   4.2347498  20.3655469  )

     number of k points=    10  Fermi-Dirac smearing, width (Ry)=  0.0073
                       cart. coord. in units 2pi/alat
        k(    1) = (   0.0000000   0.0000000   0.0000000), wk =   0.1250000
        k(    2) = (   0.0000000   0.0419351   0.0000000), wk =   0.2500000
        k(    3) = (   0.0000000  -0.0838702   0.0000000), wk =   0.1250000
        k(    4) = (   0.0379955   0.0000049   0.0000000), wk =   0.2500000
        k(    5) = (   0.0379955   0.0419400   0.0000000), wk =   0.2500000
        k(    6) = (   0.0379955  -0.0838652   0.0000000), wk =   0.2500000
        k(    7) = (   0.0379955  -0.0419301   0.0000000), wk =   0.2500000
        k(    8) = (  -0.0759910  -0.0000099   0.0000000), wk =   0.1250000
        k(    9) = (  -0.0759910   0.0419252   0.0000000), wk =   0.2500000
        k(   10) = (  -0.0759910  -0.0838800   0.0000000), wk =   0.1250000

     Initial potential from superposition of free atoms

     starting charge  380.99914, renormalised to  397.00000

     negative rho (up, down):  1.455E-02 0.000E+00

     %%%%%%%%%%%%%%%%%%%%%%%%%%%%%%%%%%%%%%%%%%%%%%%%%%%%%%%%%%%%%%%%%%%%%%%%
     %                                                                      %
     % You are using vdW-DF, which was implemented by the Thonhauser group. %
     % Please cite the following two papers that made this development      %
     % possible and the two reviews that describe the various versions:     %
     %                                                                      %
     %   T. Thonhauser et al., PRL 115, 136402 (2015).                      %
     %   T. Thonhauser et al., PRB 76, 125112 (2007).                       %
     %   K. Berland et al., Rep. Prog. Phys. 78, 066501 (2015).             %
     %   D.C. Langreth et al., J. Phys.: Condens. Matter 21, 084203 (2009). %
     %                                                                      %
     %                                                                      %
     % If you are calculating the stress with vdW-DF, please also cite:     %
     %                                                                      %
     %   R. Sabatini et al., J. Phys.: Condens. Matter 24, 424209 (2012).   %
     %                                                                      %
     %%%%%%%%%%%%%%%%%%%%%%%%%%%%%%%%%%%%%%%%%%%%%%%%%%%%%%%%%%%%%%%%%%%%%%%%

     Adding external electric field

     Computed dipole along edir(3) :
        Dipole              -10.1102 Ry au,        -25.6976 Debye
        Dipole field         -0.0191 Ry au,

        Potential amp.        1.7686 Ry
        Total length         46.3494 bohr

     Starting wfcs are  301 atomic wfcs
  @ DRIVER MODE: Message from server: STATUS
  @ DRIVER MODE: Message from server: POSDATA
  @ DRIVER MODE: Reading and sharing cell
  @ DRIVER MODE: Reading and sharing positions
  @ DRIVER MODE: Received positions

     Self-consistent Calculation

     iteration #  1     ecut=    29.40 Ry     beta= 0.05
     Davidson diagonalization with overlap
     c_bands:  2 eigenvalues not converged
     c_bands:  1 eigenvalues not converged
     c_bands:  1 eigenvalues not converged
     c_bands:  1 eigenvalues not converged
     c_bands:  1 eigenvalues not converged
     c_bands:  1 eigenvalues not converged
     c_bands:  1 eigenvalues not converged
     c_bands:  2 eigenvalues not converged
     ethr =  1.00E-05,  avg # of iterations = 19.0

[...]

     total energy              =   -2537.38636990 Ry
     estimated scf accuracy    <    4509.55325082 Ry

     iteration #  2     ecut=    29.40 Ry     beta= 0.05
     Davidson diagonalization with overlap
     ethr =  1.00E-02,  avg # of iterations = 24.5

[...]

     iteration # 75     ecut=    29.40 Ry     beta= 0.05
     Davidson diagonalization with overlap
     c_bands:  1 eigenvalues not converged
     ethr =  3.42E-11,  avg # of iterations =  9.4

[...]

     total energy              =   -2941.70774121 Ry
     estimated scf accuracy    <       0.00000011 Ry

     iteration # 76     ecut=    29.40 Ry     beta= 0.05
     Davidson diagonalization with overlap
     ethr =  2.78E-11,  avg # of iterations =  8.3

     negative rho (up, down):  1.502E-02 0.000E+00

     Adding external electric field

     Computed dipole along edir(3) :
        Dipole                0.8872 Ry au,          2.2551 Debye
        Dipole field          0.0017 Ry au,

        Potential amp.       -0.1552 Ry
        Total length         46.3494 bohr

     End of self-consistent calculation

          k = 0.0000 0.0000 0.0000 ( 18029 PWs)   bands (ev):

   -55.7589 -55.7508 -55.7249 -55.7149 -55.6449 -55.6042 -55.5881 -55.5697
   -55.5675 -55.5336 -55.5314 -55.4978 -55.2801 -55.0244 -54.7362 -54.7022
   -32.3038 -32.2412 -32.1054 -32.0947 -32.0663 -32.0634 -32.0519 -32.0219
   -32.0015 -31.9778 -31.9712 -31.9507 -31.9305 -31.9111 -31.9029 -31.8900
   -31.8758 -31.8631 -31.8484 -31.8160 -31.8135 -31.8108 -31.7694 -31.7627
   -31.7619 -31.7603 -31.7554 -31.7463 -31.7334 -31.7191 -31.7114 -31.7067
   -31.7021 -31.6979 -31.6844 -31.6748 -31.6436 -31.5343 -31.4608 -31.3067
   -31.2785 -31.2323 -31.1433 -31.0550 -31.0326 -30.9600 -30.8735 -30.7625
   -16.4992 -16.2339 -16.0174 -15.9127 -15.8775 -15.7619 -15.5977 -15.4784
   -15.4261 -15.3280 -15.3142 -15.2948 -15.2611 -15.2450 -15.2245 -15.2054
   -15.2003 -15.1830 -15.1695 -15.1179 -15.0950 -15.0578 -14.9607 -14.9311
   -14.8936 -14.8771 -14.8188 -14.8137 -14.6872 -14.3302 -14.0451 -13.2389
   -13.1224  -7.2968  -4.1752  -4.1315  -4.0186  -3.8745  -3.7651  -3.7126
    -3.6642  -3.6039  -3.3976  -3.3077  -3.2825  -2.9863  -2.9404  -2.9254
    -2.9034  -2.8779  -2.6582  -2.6035  -2.5720  -2.5549  -2.5401  -2.5268
    -2.5192  -2.5000  -2.4657  -2.3681  -2.3148  -2.2995  -2.1764  -2.1479
    -2.0880  -2.0710  -2.0244  -2.0093  -1.9962  -1.9917  -1.9636  -1.9472
    -1.9223  -1.8433  -1.7279  -1.5754  -1.5568  -1.5235  -1.4048  -1.3658
    -1.3008  -1.2186  -1.2001  -1.1840  -1.1500  -1.1389  -1.0591  -0.9464
    -0.9061  -0.8974  -0.7943  -0.7542  -0.7339  -0.6298  -0.6061  -0.5377
    -0.5214  -0.5116  -0.4786  -0.3182  -0.2610  -0.2261  -0.1612  -0.1381
    -0.0796  -0.0610  -0.0307   0.0524   0.0998   0.1270   0.1291   0.1774
     0.2158   0.2327   0.2366   0.2515   0.2716   0.4386   0.5146   0.5284
     0.5981   0.6101   0.7721   0.8164   0.8985   1.0006   1.0401   1.2114
     1.2856   1.3754   1.4780   1.6802   1.8569   1.9025   3.3781   3.4615
     3.5100   3.5222   3.6206   3.6615   3.8310   3.8389   3.8494   3.9240

[...]

          k = 0.0380-0.0419 0.0000 ( 17876 PWs)   bands (ev):

[...]

          k =-0.0760-0.0000 0.0000 ( 17886 PWs)   bands (ev):

[...]

          k =-0.0760-0.0839 0.0000 ( 17948 PWs)   bands (ev):

   -55.7422 -55.7415 -55.7336 -55.7319 -55.6389 -55.5938 -55.5886 -55.5851
   -55.5512 -55.5495 -55.5153 -55.5141 -55.2791 -55.0253 -54.7192 -54.7191
   -32.1088 -32.1060 -32.0567 -32.0562 -32.0377 -32.0369 -32.0221 -32.0100
   -31.9574 -31.9534 -31.9488 -31.9447 -31.9100 -31.8833 -31.8818 -31.8786
   -31.8691 -31.8631 -31.8617 -31.8609 -31.8543 -31.8519 -31.8422 -31.8079
   -31.8017 -31.7947 -31.7822 -31.7695 -31.7500 -31.7496 -31.7466 -31.7455
   -31.7299 -31.7292 -31.7244 -31.7215 -31.6430 -31.5368 -31.4573 -31.3730
   -31.2801 -31.2542 -31.0453 -31.0452 -30.9561 -30.9560 -30.9168 -30.9168
   -15.9387 -15.9074 -15.7020 -15.6750 -15.6715 -15.6554 -15.5305 -15.4674
   -15.4542 -15.4518 -15.3881 -15.3676 -15.3309 -15.3036 -15.2893 -15.2792
   -15.2735 -15.2673 -15.2183 -15.2125 -15.1948 -15.1876 -15.0846 -15.0749
   -15.0711 -15.0163 -14.9356 -14.7940 -14.7041 -14.5036 -14.0448 -13.2243
   -13.2242  -7.2934  -4.1928  -4.0950  -4.0359  -3.4428  -3.2285  -3.1913
    -2.9316  -2.9137  -2.9001  -2.8449  -2.6721  -2.6547  -2.6333  -2.6154
    -2.5815  -2.5805  -2.5614  -2.5593  -2.5486  -2.5147  -2.5026  -2.4728
    -2.4356  -2.4249  -2.4131  -2.4120  -2.3818  -2.3720  -2.3333  -2.3039
    -2.2949  -2.2763  -2.2615  -2.0921  -1.9838  -1.9586  -1.8952  -1.8874
    -1.8586  -1.8226  -1.8152  -1.7945  -1.7436  -1.6580  -1.4905  -1.4582
    -1.4400  -1.3790  -1.3604  -1.3098  -1.2293  -1.1559  -1.1335  -1.1282
    -1.0784  -0.9690  -0.9463  -0.9378  -0.8684  -0.8227  -0.8148  -0.7806
    -0.7512  -0.7184  -0.7141  -0.6228  -0.5727  -0.5296  -0.5246  -0.4762
    -0.4089  -0.3976  -0.3692  -0.2599  -0.2372  -0.1816  -0.1455  -0.0354
     0.0299   0.2262   0.2799   0.3162   0.3736   0.4484   0.5314   0.5456
     0.5505   0.5610   0.6167   0.6705   0.7748   0.7837   0.8387   0.9457
     1.0073   1.6043   1.6494   1.6501   1.7223   1.7225   3.6606   3.6722
     3.7111   3.7317   3.8703   3.8855   3.9092   3.9101   3.9615   4.0472

     the Fermi energy is     3.3754 ev

!    total energy              =   -2941.70774899 Ry
     estimated scf accuracy    <       0.00000007 Ry
     smearing contrib. (-TS)   =      -0.02185976 Ry
     internal energy E=F+TS    =   -2941.68588924 Ry

     The total energy is F=E-TS. E is the sum of the following terms:
     one-electron contribution =  -23925.28784361 Ry
     hartree contribution      =   12052.27381240 Ry
     xc contribution           =    -486.76542462 Ry
     ewald contribution        =    9418.09208110 Ry
     electric field correction =       0.00148550 Ry

     convergence has been achieved in  76 iterations

     Forces acting on atoms (cartesian axes, Ry/au):

     atom    1 type  1   force =     0.00002957   -0.00025436    0.09662705
     atom    2 type  1   force =     0.00004163   -0.00057890   -0.17537268
     atom    3 type  2   force =     0.00011364   -0.00004384   -0.02486730
     atom    4 type  2   force =     0.00000029   -0.00141987    0.05293122
     atom    5 type  2   force =    -0.01227682   -0.00026393    0.00349004
     atom    6 type  2   force =     0.01362974    0.00026431    0.00256515
     atom    7 type  1   force =     0.00031490    0.00057788   -0.01138704
     atom    8 type  1   force =     0.00052280    0.00783912    0.02843930
     atom    9 type  2   force =     0.00020405    0.00041253    0.00052001
     atom   10 type  2   force =    -0.00292015    0.00138611   -0.01556047
     atom   11 type  2   force =     0.00067978   -0.00000644   -0.00002282
     atom   12 type  2   force =    -0.00009572   -0.00013791   -0.00014561
     atom   13 type  1   force =    -0.00018247   -0.00032316    0.00097176
     atom   14 type  1   force =     0.00018712   -0.00007299   -0.00022855
     atom   15 type  2   force =     0.00015896    0.00075692    0.00017511
     atom   16 type  2   force =    -0.00033315   -0.00035919   -0.00030150
     atom   17 type  2   force =    -0.00060977    0.00002979   -0.00044827
     atom   18 type  2   force =     0.00033635    0.00046488   -0.00003227
     atom   19 type  1   force =    -0.00050592   -0.00075255   -0.00022006
     atom   20 type  1   force =     0.00052277    0.00081011   -0.00084281
     atom   21 type  2   force =     0.00005324   -0.00006161    0.10317487
     atom   22 type  2   force =    -0.00078453    0.00006808    0.00062561
     atom   23 type  2   force =    -0.07150344   -0.00013856   -0.02770023
     atom   24 type  2   force =     0.07142848    0.00032107   -0.02777509
     atom   25 type  1   force =     0.00016479   -0.00024924    0.09627111
     atom   26 type  1   force =     0.00009059   -0.00023034   -0.17561308
     atom   27 type  2   force =     0.00017017   -0.00018843   -0.02391914
     atom   28 type  2   force =    -0.00000153   -0.00117621    0.05284353
     atom   29 type  2   force =    -0.01240696    0.00039549    0.00318404
     atom   30 type  2   force =     0.01366079    0.00085835    0.00223038
     atom   31 type  1   force =     0.00028685    0.00323859   -0.01197502
     atom   32 type  1   force =     0.00065503   -0.01006929    0.02884042
     atom   33 type  2   force =     0.00024108   -0.00024535    0.00065379
     atom   34 type  2   force =    -0.00237971    0.00102549   -0.02371321
     atom   35 type  2   force =     0.00059509   -0.00070540   -0.00008880
     atom   36 type  2   force =    -0.00016551   -0.00078817    0.00017585
     atom   37 type  1   force =    -0.00017602   -0.00014065    0.00045639
     atom   38 type  1   force =     0.00030984    0.00036871   -0.00067936
     atom   39 type  2   force =    -0.00008841   -0.00074266    0.00109996
     atom   40 type  2   force =     0.00026445   -0.00062264   -0.00013587
     atom   41 type  2   force =    -0.00030620   -0.00061754   -0.00001895
     atom   42 type  2   force =    -0.00030039   -0.00023665   -0.00001805
     atom   43 type  1   force =    -0.00049968    0.00068058    0.00006786
     atom   44 type  1   force =    -0.00020760    0.00023273   -0.00048686
     atom   45 type  2   force =     0.00007485   -0.00006773    0.10320704
     atom   46 type  2   force =    -0.07153662   -0.00009068   -0.02772520
     atom   47 type  2   force =     0.07144394    0.00033306   -0.02779022
     atom   48 type  3   force =    -0.00041375    0.00257525   -0.00259528
     atom   49 type  4   force =     0.00055089   -0.02207309    0.00089101
     atom   50 type  5   force =     0.00038439    0.00930933    0.00505203
     atom   51 type  5   force =    -0.00077336    0.00964654   -0.00322488
     atom   52 type  3   force =    -0.00156128    0.00023330   -0.00058777
     atom   53 type  5   force =     0.00135152    0.00078808   -0.00013327
     atom   54 type  5   force =     0.00135603   -0.00040501    0.00098609
     atom   55 type  5   force =     0.00020536    0.00044609   -0.00186996

     Total force =     0.369011     Total SCF correction =     0.001146
  @ DRIVER MODE: Message from server: STATUS
  @ DRIVER MODE: Message from server: GETFORCE
  @ DRIVER MODE: Returning v,forces,stress,ensemble

     Writing output data file ./calc.save/
  @ DRIVER MODE: Message from server: EXIT
  @ DRIVE MODE: Exiting

     General routines

     Parallel routines

   This run was terminated on:  13:47:15  24Aug2021

   JOB DONE.