     Program PWSCF v.6.7GPU starts on 22Sep2021 at 22: 1:25

     R & G space division:  proc/nbgrp/npool/nimage =      10
     Reading input from /storage/home/hcoda1/3/ntian30/research/carbon/CxH_vib/H2O_calc/ads_slab/CHNHHO_a/out_0019/pw.inp
Warning: card &CELL ignored
Warning: card   CELL_DYNAMICS='IPI', ignored
Warning: card / ignored

     Current dimensions of program PWSCF are:
     Max number of different atomic species (ntypx) = 10
     Max number of k-points (npk) =  40000
     Max angular momentum in pseudopotentials (lmaxx) =  3
     Presently no symmetry can be used with electric field

     Message from routine cell_base_init:
     DEPRECATED: use true lattice parameter, not A to a.u. conversion factor

     IMPORTANT: XC functional enforced from input :
     Exchange-correlation= BEEF-VDW
                           (   1   4  43  14   2   0   0)
     Any further DFT definition will be discarded
     Please, verify this is what you really want

  @ DRIVER MODE: Connecting to
 qe_1139763_2937314.sched-torque.pace.gatech.eduq9kl5tk3_scratch
  using UNIX socket
  @ DRIVER MODE: Message from server: STATUS
  @ DRIVER MODE: Message from server: INIT
  @ DRIVER MODE: Receiving replica           0          -1
  @ DRIVER MODE: Receiving encoded integer          25
  @ DRIVER MODE:  SCF:  T  FORCE:  T  STRESS:  F  VC:  F  ENSEMBLE:  F
  @ DRIVER MODE:  SCF:  T  FORCE:  T  STRESS:  F  VC:  F  ENSEMBLE:  F

     Using Slab Decomposition

     bravais-lattice index     =            0
     lattice parameter (alat)  =       1.8897  a.u.
     unit-cell volume          =    6658.9804 (a.u.)^3
     number of atoms/cell      =           53
     number of atomic types    =            5
     number of electrons       =       396.00
     number of Kohn-Sham states=          208
     kinetic-energy cutoff     =      29.3995  Ry
     charge density cutoff     =     293.9946  Ry
     scf convergence threshold =      7.3E-08
     mixing beta               =       0.0500
     number of iterations used =            8  plain     mixing
     Exchange-correlation= BEEF-VDW
                           (   1   4  43  14   2   0   0)

     celldm(1)=   1.889726  celldm(2)=   0.000000  celldm(3)=   0.000000
     celldm(4)=   0.000000  celldm(5)=   0.000000  celldm(6)=   0.000000

     crystal axes: (cart. coord. in units of alat)
               a(1) = (   6.579727   0.000000   0.000000 )
               a(2) = (  -0.000775   5.961596   0.000000 )
               a(3) = (   0.000000   0.000000  25.155947 )

     reciprocal axes: (cart. coord. in units 2 pi/alat)
               b(1) = (  0.151982  0.000020  0.000000 )
               b(2) = (  0.000000  0.167740  0.000000 )
               b(3) = (  0.000000  0.000000  0.039752 )

     PseudoPot. # 1 for Ti read from file:
     /storage/coda1/p-amedford6/0/shared/rich_project_chbe-medford/medford-share/data/pseudos_module/espresso/nninc/pbe/van/Ti.UPF
     MD5 check sum: 8e4df49b7f0d34bbd5052bf3f5ea0213
     Pseudo is Ultrasoft, Zval = 12.0
     Generated by new atomic code, or converted to UPF format
     Using radial grid of  851 points,  6 beta functions with:
                l(1) =   0
                l(2) =   0
                l(3) =   1
                l(4) =   1
                l(5) =   2
                l(6) =   2
     Q(r) pseudized with  8 coefficients,  rinner =    1.000   1.000   1.000
                                                       1.000   1.000

     PseudoPot. # 2 for O  read from file:
     /storage/coda1/p-amedford6/0/shared/rich_project_chbe-medford/medford-share/data/pseudos_module/espresso/nninc/pbe/van/O.UPF
     MD5 check sum: 78c19812648e8988a0fe644b0f25305e
     Pseudo is Ultrasoft, Zval =  6.0
     Generated by new atomic code, or converted to UPF format
     Using radial grid of  737 points,  4 beta functions with:
                l(1) =   0
                l(2) =   0
                l(3) =   1
                l(4) =   1
     Q(r) pseudized with  8 coefficients,  rinner =    0.800   0.800   0.800

     PseudoPot. # 3 for N  read from file:
     /storage/coda1/p-amedford6/0/shared/rich_project_chbe-medford/medford-share/data/pseudos_module/espresso/nninc/pbe/van/N.UPF
     MD5 check sum: 90d10febe142ad51ac9d5be1deb811c4
     Pseudo is Ultrasoft, Zval =  5.0
     Generated by new atomic code, or converted to UPF format
     Using radial grid of  729 points,  4 beta functions with:
                l(1) =   0
                l(2) =   0
                l(3) =   1
                l(4) =   1
     Q(r) pseudized with  8 coefficients,  rinner =    0.800   0.800   0.800

     PseudoPot. # 4 for C  read from file:
     /storage/coda1/p-amedford6/0/shared/rich_project_chbe-medford/medford-share/data/pseudos_module/espresso/nninc/pbe/van/C.UPF
     MD5 check sum: 1a69bf6b8db32088f5b2163dbdb77a27
     Pseudo is Ultrasoft, Zval =  4.0
     Generated by new atomic code, or converted to UPF format
     Using radial grid of  721 points,  4 beta functions with:
                l(1) =   0
                l(2) =   0
                l(3) =   1
                l(4) =   1
     Q(r) pseudized with  8 coefficients,  rinner =    0.800   0.800   0.800

     PseudoPot. # 5 for H  read from file:
     /storage/coda1/p-amedford6/0/shared/rich_project_chbe-medford/medford-share/data/pseudos_module/espresso/nninc/pbe/van/H.UPF
     MD5 check sum: b5ee9d7bfd3a09ee7748110bda690ff7
     Pseudo is Ultrasoft, Zval =  1.0
     Generated by new atomic code, or converted to UPF format
     Using radial grid of  615 points,  1 beta functions with:
                l(1) =   0
     Q(r) pseudized with  8 coefficients,  rinner =    0.800

     atomic species   valence    mass     pseudopotential
        Ti1           12.00    47.86700     Ti( 1.00)
        O1             6.00    15.99900     O ( 1.00)
        N1             5.00    14.00700     N ( 1.00)
        C1             4.00    12.01100     C ( 1.00)
        H1             1.00     1.00800     H ( 1.00)

     No symmetry found

   Cartesian axes

     site n.     atom                  positions (alat units)
         1           Ti1 tau(   1) = (   0.0004258   2.9801865   6.0000000  )
         2           Ti1 tau(   2) = (   3.2906075   1.4906267   6.0002472  )
         3           O1  tau(   3) = (   0.0006271   0.0005054   7.9858123  )
         4           O1  tau(   4) = (   3.2906025   0.0005020   7.3038282  )
         5           O1  tau(   5) = (   4.5942328   1.4918067   9.2879030  )
         6           O1  tau(   6) = (   1.9868534   1.4903216   9.2879459  )
         7           Ti1 tau(   7) = (   3.2907910   2.8959150   9.1758416  )
         8           Ti1 tau(   8) = (   0.0015273   1.4827037   9.2680791  )
         9           O1  tau(   9) = (   3.2817170   5.9459930  11.3074998  )
        10           O1  tau(  10) = (   0.0116148   5.9584955  10.6183126  )
        11           O1  tau(  11) = (   1.2737360   1.4926482  12.6406718  )
        12           O1  tau(  12) = (   5.2902952   1.4950437  12.6299455  )
        13           Ti1 tau(  13) = (   6.5743562   2.8588748  12.6391164  )
        14           Ti1 tau(  14) = (   3.2840152   1.3010445  12.6757008  )
        15           O1  tau(  15) = (   6.5722207   0.0022838  14.6395268  )
        16           O1  tau(  16) = (   3.2882888   0.0547267  13.9272720  )
        17           O1  tau(  17) = (   4.5277618   1.5549090  16.0796657  )
        18           O1  tau(  18) = (   1.9889223   1.5445724  16.0964948  )
        19           Ti1 tau(  19) = (   3.2710169   3.0098750  15.6493427  )
        20           Ti1 tau(  20) = (   0.0212523   1.3583160  16.0154628  )
        21           O1  tau(  21) = (   3.2904802   0.0005063   4.7018136  )
        22           O1  tau(  22) = (   6.5278121   5.9442159  17.1408904  )
        23           O1  tau(  23) = (   1.3043587   1.4918075   6.0039043  )
        24           O1  tau(  24) = (   5.2767064   1.4903225   6.0039473  )
        25           Ti1 tau(  25) = (   0.0000382   5.9609847   6.0000000  )
        26           Ti1 tau(  26) = (   3.2902200   4.4714249   6.0002472  )
        27           O1  tau(  27) = (   0.0002396   2.9813036   7.9858123  )
        28           O1  tau(  28) = (   3.2902150   2.9813002   7.3038282  )
        29           O1  tau(  29) = (   4.5938453   4.4726049   9.2879030  )
        30           O1  tau(  30) = (   1.9864658   4.4711199   9.2879459  )
        31           Ti1 tau(  31) = (   3.2891106   5.8743827   9.1763621  )
        32           Ti1 tau(  32) = (   0.0006254   4.4649316   9.2693709  )
        33           O1  tau(  33) = (   3.2809651   3.0158959  11.2742024  )
        34           O1  tau(  34) = (   0.0092240   2.9805883  10.6323155  )
        35           O1  tau(  35) = (   1.2801966   4.4796301  12.6363892  )
        36           O1  tau(  36) = (   5.2833020   4.4787161  12.6245292  )
        37           Ti1 tau(  37) = (   6.5725262   5.8449372  12.5269696  )
        38           Ti1 tau(  38) = (   3.2830651   4.3950422  12.4122791  )
        39           O1  tau(  39) = (   6.5612936   2.9998473  14.7091997  )
        40           O1  tau(  40) = (   3.2734765   2.9867355  13.8776313  )
        41           O1  tau(  41) = (   4.5260587   4.4294304  16.0527172  )
        42           O1  tau(  42) = (   1.9919704   4.4458081  16.0639873  )
        43           Ti1 tau(  43) = (   3.3135318   0.0270965  16.3071496  )
        44           Ti1 tau(  44) = (   0.0294795   4.5257316  15.8201724  )
        45           O1  tau(  45) = (   3.2900926   2.9813045   4.7018136  )
        46           O1  tau(  46) = (   1.3039711   4.4726057   6.0039043  )
        47           O1  tau(  47) = (   5.2763189   4.4711207   6.0039473  )
        48           N1  tau(  48) = (   6.4282372   2.9740631  17.7102171  )
        49           C1  tau(  49) = (   0.6535733   3.0176064  18.7020832  )
        50           H1  tau(  50) = (   1.7291544   2.9413089  18.4820742  )
        51           H1  tau(  51) = (   5.4310488   3.0579230  17.9716058  )
        52           O1  tau(  52) = (   3.3635319   0.0010587  18.1193045  )
        53           H1  tau(  53) = (   4.1580425   0.0400832  18.6733683  )

     number of k points=    10  Fermi-Dirac smearing, width (Ry)=  0.0073
                       cart. coord. in units 2pi/alat
        k(    1) = (   0.0000000   0.0000000   0.0000000), wk =   0.1250000
        k(    2) = (   0.0000000   0.0419351   0.0000000), wk =   0.2500000
        k(    3) = (   0.0000000  -0.0838702   0.0000000), wk =   0.1250000
        k(    4) = (   0.0379955   0.0000049   0.0000000), wk =   0.2500000
        k(    5) = (   0.0379955   0.0419400   0.0000000), wk =   0.2500000
        k(    6) = (   0.0379955  -0.0838652   0.0000000), wk =   0.2500000
        k(    7) = (   0.0379955  -0.0419301   0.0000000), wk =   0.2500000
        k(    8) = (  -0.0759910  -0.0000099   0.0000000), wk =   0.1250000
        k(    9) = (  -0.0759910   0.0419252   0.0000000), wk =   0.2500000
        k(   10) = (  -0.0759910  -0.0838800   0.0000000), wk =   0.1250000

     Initial potential from superposition of free atoms

     starting charge  379.99917, renormalised to  396.00000

     negative rho (up, down):  1.778E-02 0.000E+00

     %%%%%%%%%%%%%%%%%%%%%%%%%%%%%%%%%%%%%%%%%%%%%%%%%%%%%%%%%%%%%%%%%%%%%%%%
     %                                                                      %
     % You are using vdW-DF, which was implemented by the Thonhauser group. %
     % Please cite the following two papers that made this development      %
     % possible and the two reviews that describe the various versions:     %
     %                                                                      %
     %   T. Thonhauser et al., PRL 115, 136402 (2015).                      %
     %   T. Thonhauser et al., PRB 76, 125112 (2007).                       %
     %   K. Berland et al., Rep. Prog. Phys. 78, 066501 (2015).             %
     %   D.C. Langreth et al., J. Phys.: Condens. Matter 21, 084203 (2009). %
     %                                                                      %
     %                                                                      %
     % If you are calculating the stress with vdW-DF, please also cite:     %
     %                                                                      %
     %   R. Sabatini et al., J. Phys.: Condens. Matter 24, 424209 (2012).   %
     %                                                                      %
     %%%%%%%%%%%%%%%%%%%%%%%%%%%%%%%%%%%%%%%%%%%%%%%%%%%%%%%%%%%%%%%%%%%%%%%%

     Adding external electric field

     Computed dipole along edir(3) :
        Dipole               -8.0653 Ry au,        -20.5000 Debye
        Dipole field         -0.0152 Ry au,

        Potential amp.        1.4109 Ry
        Total length         46.3494 bohr

     Starting wfcs are  299 atomic wfcs
  @ DRIVER MODE: Message from server: STATUS
  @ DRIVER MODE: Message from server: POSDATA
  @ DRIVER MODE: Reading and sharing cell
  @ DRIVER MODE: Reading and sharing positions
  @ DRIVER MODE: Received positions

     Self-consistent Calculation

     iteration #  1     ecut=    29.40 Ry     beta= 0.05
     Davidson diagonalization with overlap
     c_bands:  1 eigenvalues not converged
     c_bands:  1 eigenvalues not converged
     c_bands:  2 eigenvalues not converged
     c_bands:  1 eigenvalues not converged
     c_bands:  1 eigenvalues not converged
     c_bands:  1 eigenvalues not converged
     ethr =  1.00E-05,  avg # of iterations = 18.5

[...]

     total energy              =   -2618.23238710 Ry
     estimated scf accuracy    <    3681.57815657 Ry

     iteration #  2     ecut=    29.40 Ry     beta= 0.05
     Davidson diagonalization with overlap
     ethr =  1.00E-02,  avg # of iterations = 21.5

[...]

     iteration # 60     ecut=    29.40 Ry     beta= 0.05
     Davidson diagonalization with overlap
     c_bands:  1 eigenvalues not converged
     ethr =  1.27E-06,  avg # of iterations =  9.9

[...]

     total energy              =   -2951.37631788 Ry
     estimated scf accuracy    <       0.00000008 Ry

     iteration # 96     ecut=    29.40 Ry     beta= 0.05
     Davidson diagonalization with overlap
     ethr =  2.01E-11,  avg # of iterations =  5.0

     negative rho (up, down):  1.666E-02 0.000E+00

     Adding external electric field

     Computed dipole along edir(3) :
        Dipole                0.1837 Ry au,          0.4669 Debye
        Dipole field          0.0003 Ry au,

        Potential amp.       -0.0321 Ry
        Total length         46.3494 bohr

     End of self-consistent calculation

          k = 0.0000 0.0000 0.0000 ( 18029 PWs)   bands (ev):

   -56.4267 -56.3927 -56.1532 -56.1489 -56.1151 -55.9495 -55.8964 -55.8638
   -55.8582 -55.8513 -55.8162 -55.7251 -55.6730 -55.5322 -55.2778 -55.2438
   -32.8911 -32.7209 -32.7006 -32.6219 -32.5809 -32.5143 -32.4874 -32.4469
   -32.4332 -32.4233 -32.3728 -32.3669 -32.3648 -32.3630 -32.3526 -32.3094
   -32.2877 -32.2653 -32.2541 -32.1788 -32.1659 -32.1577 -32.1455 -32.1219
   -32.1061 -32.1017 -32.0976 -32.0668 -32.0643 -32.0565 -32.0369 -32.0162
   -31.9994 -31.9779 -31.9677 -31.9584 -31.9426 -31.8706 -31.8682 -31.7916
   -31.7627 -31.7441 -31.6781 -31.6060 -31.5827 -31.4964 -31.4110 -31.2989
   -16.9182 -16.8236 -16.5926 -16.4389 -16.2709 -16.1816 -16.0517 -16.0280
   -15.9031 -15.8999 -15.8113 -15.7795 -15.7407 -15.6660 -15.6091 -15.5870
   -15.5546 -15.5243 -15.5159 -15.5103 -15.5013 -15.4926 -15.4550 -15.3372
   -15.2962 -15.2466 -15.2328 -15.2186 -15.0875 -14.8300 -14.7855 -13.7754
   -13.6615  -8.1703  -4.6863  -4.2785  -4.2189  -4.1203  -3.9427  -3.8875
    -3.8246  -3.6004  -3.5528  -3.5475  -3.3572  -3.2969  -3.2033  -3.1602
    -3.1450  -3.0999  -3.0283  -3.0172  -2.9855  -2.8983  -2.8566  -2.8502
    -2.8234  -2.7783  -2.7687  -2.6874  -2.6441  -2.6218  -2.5532  -2.5039
    -2.4724  -2.4579  -2.4342  -2.4238  -2.3822  -2.3689  -2.3476  -2.2001
    -2.1838  -2.1612  -2.0837  -2.0093  -1.8538  -1.7722  -1.7621  -1.6632
    -1.5851  -1.5718  -1.5226  -1.4733  -1.3870  -1.3732  -1.3667  -1.3276
    -1.2428  -1.2225  -1.1790  -1.1271  -1.0521  -0.9633  -0.9574  -0.9078
    -0.8742  -0.8092  -0.7213  -0.6868  -0.6277  -0.5864  -0.5550  -0.4822
    -0.4329  -0.4063  -0.3827  -0.3723  -0.3114  -0.2507  -0.2040  -0.1778
    -0.1079  -0.0958  -0.0524   0.0122   0.0341   0.0417   0.1606   0.2032
     0.2161   0.2662   0.3782   0.4357   0.5218   0.5822   0.6532   0.7479
     0.7545   0.9622   1.0699   1.3022   1.3426   2.5802   2.7622   2.8840
     2.9528   3.1540   3.2010   3.2354   3.5095   3.5260   3.5345   3.6156

[...]

          k = 0.0380-0.0419 0.0000 ( 17876 PWs)   bands (ev):

[...]

          k =-0.0760-0.0000 0.0000 ( 17886 PWs)   bands (ev):

[...]

          k =-0.0760-0.0839 0.0000 ( 17948 PWs)   bands (ev):

   -56.4102 -56.4091 -56.1526 -56.1337 -56.1301 -55.9433 -55.9024 -55.8611
   -55.8592 -55.8382 -55.8293 -55.7270 -55.6710 -55.5341 -55.2613 -55.2602
   -32.7076 -32.7074 -32.7057 -32.7052 -32.5328 -32.5315 -32.4537 -32.4490
   -32.4248 -32.3818 -32.3703 -32.3418 -32.3370 -32.3258 -32.3194 -32.2859
   -32.2460 -32.2423 -32.2164 -32.1708 -32.1684 -32.1675 -32.1640 -32.1535
   -32.1283 -32.1223 -32.1195 -32.0725 -32.0697 -32.0635 -32.0612 -32.0597
   -32.0445 -32.0099 -31.9877 -31.9626 -31.9496 -31.9345 -31.8810 -31.8738
   -31.7941 -31.7477 -31.5960 -31.5952 -31.4925 -31.4912 -31.4542 -31.4533
   -16.9032 -16.2434 -16.2183 -16.1253 -16.0954 -16.0727 -16.0507 -16.0068
   -15.8926 -15.8832 -15.8693 -15.8013 -15.7506 -15.7306 -15.6974 -15.6921
   -15.6355 -15.6226 -15.6100 -15.5569 -15.5485 -15.5285 -15.5143 -15.4793
   -15.4486 -15.4206 -15.2555 -15.2013 -15.1456 -15.1194 -14.9184 -13.7644
   -13.7637  -8.1821  -4.6782  -4.1082  -3.5138  -3.4852  -3.3682  -3.3564
    -3.2301  -3.2249  -3.1467  -3.0735  -3.0729  -2.9981  -2.9840  -2.9757
    -2.9365  -2.9190  -2.9114  -2.9106  -2.8697  -2.8601  -2.8390  -2.8220
    -2.8191  -2.8034  -2.7647  -2.7246  -2.7022  -2.6888  -2.6357  -2.6223
    -2.5004  -2.4362  -2.4099  -2.4095  -2.3874  -2.3502  -2.3193  -2.3027
    -2.2736  -2.2344  -2.1573  -2.0367  -2.0159  -1.8199  -1.8018  -1.7706
    -1.7496  -1.7050  -1.6994  -1.6338  -1.5831  -1.5683  -1.5515  -1.5271
    -1.4260  -1.3745  -1.3245  -1.3214  -1.2697  -1.2503  -1.2021  -1.1003
    -1.0513  -1.0213  -0.9948  -0.9821  -0.9442  -0.9185  -0.8650  -0.8248
    -0.8204  -0.7930  -0.7504  -0.5811  -0.4107  -0.3678  -0.3462  -0.2750
    -0.2598  -0.2103  -0.0762  -0.0306  -0.0210   0.0160   0.0562   0.0854
     0.0995   0.1616   0.3444   0.3595   0.4274   0.4754   0.4815   0.5688
     0.6650   1.1267   1.1344   1.1614   1.1622   2.6103   3.3071   3.3090
     3.3108   3.3273   3.4056   3.4680   3.4770   3.5140   3.5929   3.6318

     the Fermi energy is     2.7258 ev

!    total energy              =   -2951.37631942 Ry
     estimated scf accuracy    <       0.00000004 Ry
     smearing contrib. (-TS)   =      -0.01732126 Ry
     internal energy E=F+TS    =   -2951.35899816 Ry

     The total energy is F=E-TS. E is the sum of the following terms:
     one-electron contribution =  -24273.24116173 Ry
     hartree contribution      =   12222.66691392 Ry
     xc contribution           =    -487.03793189 Ry
     ewald contribution        =    9586.25311787 Ry
     electric field correction =       0.00006367 Ry

     convergence has been achieved in  96 iterations

     Forces acting on atoms (cartesian axes, Ry/au):

     atom    1 type  1   force =     0.00006698   -0.00028452    0.10082156
     atom    2 type  1   force =    -0.00005699    0.00024746   -0.16923031
     atom    3 type  2   force =     0.00000413   -0.00004413   -0.02992993
     atom    4 type  2   force =     0.00000113   -0.00099370    0.04189840
     atom    5 type  2   force =    -0.00520212   -0.00241877   -0.00303438
     atom    6 type  2   force =     0.00635107   -0.00183670   -0.00464377
     atom    7 type  1   force =    -0.00066087   -0.00537925    0.02530500
     atom    8 type  1   force =     0.00077687    0.01604928    0.04130456
     atom    9 type  2   force =    -0.00021562    0.00023538    0.00017341
     atom   10 type  2   force =    -0.00258169    0.00083226   -0.03435962
     atom   11 type  2   force =     0.00010561    0.00003135    0.00007395
     atom   12 type  2   force =     0.00022676   -0.00035446    0.00005141
     atom   13 type  1   force =    -0.00070687   -0.00011416   -0.00019541
     atom   14 type  1   force =     0.00018197    0.00010079    0.00022606
     atom   15 type  2   force =     0.00021737    0.00008556    0.00015489
     atom   16 type  2   force =     0.00004395   -0.00014843   -0.00011761
     atom   17 type  2   force =    -0.00012953    0.00008392    0.00014436
     atom   18 type  2   force =     0.00018209   -0.00007987    0.00011612
     atom   19 type  1   force =     0.00001961    0.00021153    0.00014164
     atom   20 type  1   force =    -0.00003846    0.00023155    0.00055260
     atom   21 type  2   force =     0.00007110    0.00015173    0.10147106
     atom   22 type  2   force =    -0.00000664    0.00022680    0.00019892
     atom   23 type  2   force =    -0.07485988   -0.00008603   -0.02880647
     atom   24 type  2   force =     0.07478901    0.00036571   -0.02883728
     atom   25 type  1   force =     0.00018574   -0.00035536    0.10068722
     atom   26 type  1   force =     0.00001172   -0.00115076   -0.16944465
     atom   27 type  2   force =     0.00004527   -0.00040058   -0.02841856
     atom   28 type  2   force =     0.00000828    0.00074526    0.03787937
     atom   29 type  2   force =    -0.00389272    0.00436448   -0.00526249
     atom   30 type  2   force =     0.00496886    0.00488836   -0.00693336
     atom   31 type  1   force =    -0.00064339    0.00466042    0.01113863
     atom   32 type  1   force =     0.00088919   -0.01904921    0.04066924
     atom   33 type  2   force =     0.00044111   -0.00001449    0.00024966
     atom   34 type  2   force =    -0.00214290    0.00070780   -0.03960597
     atom   35 type  2   force =     0.00012576   -0.00048384   -0.00013557
     atom   36 type  2   force =     0.00014519   -0.00021759    0.00010670
     atom   37 type  1   force =    -0.00004347   -0.00010839    0.00001333
     atom   38 type  1   force =     0.00001629    0.00006256    0.00010751
     atom   39 type  2   force =    -0.00004042    0.00035798   -0.00016884
     atom   40 type  2   force =     0.00032602   -0.00006358    0.00023332
     atom   41 type  2   force =    -0.00000106    0.00011987    0.00028064
     atom   42 type  2   force =    -0.00009472    0.00011235    0.00029343
     atom   43 type  1   force =     0.00017512   -0.00003320    0.00055242
     atom   44 type  1   force =    -0.00022117    0.00010449   -0.00053258
     atom   45 type  2   force =     0.00006571   -0.00000259    0.10125561
     atom   46 type  2   force =    -0.07490823   -0.00001558   -0.02883644
     atom   47 type  2   force =     0.07482018    0.00041192   -0.02886320
     atom   48 type  3   force =    -0.01261105    0.00092615    0.00459239
     atom   49 type  4   force =    -0.00136439    0.00004569   -0.00111066
     atom   50 type  5   force =    -0.00058490   -0.00044010    0.00000448
     atom   51 type  5   force =     0.01529118   -0.00173414   -0.00290595
     atom   52 type  2   force =    -0.00016053   -0.00017753    0.00156632
     atom   53 type  5   force =     0.00061435   -0.00037372   -0.00089117

     Total force =     0.370264     Total SCF correction =     0.000857
  @ DRIVER MODE: Message from server: STATUS
  @ DRIVER MODE: Message from server: GETFORCE
  @ DRIVER MODE: Returning v,forces,stress,ensemble

     Writing output data file ./calc.save/
  @ DRIVER MODE: Message from server: EXIT
  @ DRIVE MODE: Exiting

     General routines

     Parallel routines

   This run was terminated on:  22:24:40  22Sep2021

   JOB DONE.