     Program PWSCF v.6.7GPU starts on 26Sep2021 at 17:36:35

     R & G space division:  proc/nbgrp/npool/nimage =       8
     Reading input from /storage/home/hcoda1/3/ntian30/research/carbon/CxH_vib/H2O_calc/ads_slab/CH3OHN2HO_a/out_0046/pw.inp
Warning: card &CELL ignored
Warning: card   CELL_DYNAMICS='IPI', ignored
Warning: card / ignored

     Current dimensions of program PWSCF are:
     Max number of different atomic species (ntypx) = 10
     Max number of k-points (npk) =  40000
     Max angular momentum in pseudopotentials (lmaxx) =  3
     Presently no symmetry can be used with electric field

     Message from routine cell_base_init:
     DEPRECATED: use true lattice parameter, not A to a.u. conversion factor

     IMPORTANT: XC functional enforced from input :
     Exchange-correlation= BEEF-VDW
                           (   1   4  43  14   2   0   0)
     Any further DFT definition will be discarded
     Please, verify this is what you really want

  @ DRIVER MODE: Connecting to
 qe_1139763_2971668.sched-torque.pace.gatech.eduvp_i3r3o_scratch
  using UNIX socket
  @ DRIVER MODE: Message from server: STATUS
  @ DRIVER MODE: Message from server: INIT
  @ DRIVER MODE: Receiving replica           0          -1
  @ DRIVER MODE: Receiving encoded integer          25
  @ DRIVER MODE:  SCF:  T  FORCE:  T  STRESS:  F  VC:  F  ENSEMBLE:  F
  @ DRIVER MODE:  SCF:  T  FORCE:  T  STRESS:  F  VC:  F  ENSEMBLE:  F

     Using Slab Decomposition

     bravais-lattice index     =            0
     lattice parameter (alat)  =       1.8897  a.u.
     unit-cell volume          =    6658.9804 (a.u.)^3
     number of atoms/cell      =           57
     number of atomic types    =            5
     number of electrons       =       409.00
     number of Kohn-Sham states=          214
     kinetic-energy cutoff     =      29.3995  Ry
     charge density cutoff     =     293.9946  Ry
     scf convergence threshold =      7.3E-08
     mixing beta               =       0.0500
     number of iterations used =            8  plain     mixing
     Exchange-correlation= BEEF-VDW
                           (   1   4  43  14   2   0   0)

     celldm(1)=   1.889726  celldm(2)=   0.000000  celldm(3)=   0.000000
     celldm(4)=   0.000000  celldm(5)=   0.000000  celldm(6)=   0.000000

     crystal axes: (cart. coord. in units of alat)
               a(1) = (   6.579727   0.000000   0.000000 )
               a(2) = (  -0.000775   5.961596   0.000000 )
               a(3) = (   0.000000   0.000000  25.155947 )

     reciprocal axes: (cart. coord. in units 2 pi/alat)
               b(1) = (  0.151982  0.000020  0.000000 )
               b(2) = (  0.000000  0.167740  0.000000 )
               b(3) = (  0.000000  0.000000  0.039752 )

     PseudoPot. # 1 for Ti read from file:
     /storage/coda1/p-amedford6/0/shared/rich_project_chbe-medford/medford-share/data/pseudos_module/espresso/nninc/pbe/van/Ti.UPF
     MD5 check sum: 8e4df49b7f0d34bbd5052bf3f5ea0213
     Pseudo is Ultrasoft, Zval = 12.0
     Generated by new atomic code, or converted to UPF format
     Using radial grid of  851 points,  6 beta functions with:
                l(1) =   0
                l(2) =   0
                l(3) =   1
                l(4) =   1
                l(5) =   2
                l(6) =   2
     Q(r) pseudized with  8 coefficients,  rinner =    1.000   1.000   1.000
                                                       1.000   1.000

     PseudoPot. # 2 for O  read from file:
     /storage/coda1/p-amedford6/0/shared/rich_project_chbe-medford/medford-share/data/pseudos_module/espresso/nninc/pbe/van/O.UPF
     MD5 check sum: 78c19812648e8988a0fe644b0f25305e
     Pseudo is Ultrasoft, Zval =  6.0
     Generated by new atomic code, or converted to UPF format
     Using radial grid of  737 points,  4 beta functions with:
                l(1) =   0
                l(2) =   0
                l(3) =   1
                l(4) =   1
     Q(r) pseudized with  8 coefficients,  rinner =    0.800   0.800   0.800

     PseudoPot. # 3 for C  read from file:
     /storage/coda1/p-amedford6/0/shared/rich_project_chbe-medford/medford-share/data/pseudos_module/espresso/nninc/pbe/van/C.UPF
     MD5 check sum: 1a69bf6b8db32088f5b2163dbdb77a27
     Pseudo is Ultrasoft, Zval =  4.0
     Generated by new atomic code, or converted to UPF format
     Using radial grid of  721 points,  4 beta functions with:
                l(1) =   0
                l(2) =   0
                l(3) =   1
                l(4) =   1
     Q(r) pseudized with  8 coefficients,  rinner =    0.800   0.800   0.800

     PseudoPot. # 4 for H  read from file:
     /storage/coda1/p-amedford6/0/shared/rich_project_chbe-medford/medford-share/data/pseudos_module/espresso/nninc/pbe/van/H.UPF
     MD5 check sum: b5ee9d7bfd3a09ee7748110bda690ff7
     Pseudo is Ultrasoft, Zval =  1.0
     Generated by new atomic code, or converted to UPF format
     Using radial grid of  615 points,  1 beta functions with:
                l(1) =   0
     Q(r) pseudized with  8 coefficients,  rinner =    0.800

     PseudoPot. # 5 for N  read from file:
     /storage/coda1/p-amedford6/0/shared/rich_project_chbe-medford/medford-share/data/pseudos_module/espresso/nninc/pbe/van/N.UPF
     MD5 check sum: 90d10febe142ad51ac9d5be1deb811c4
     Pseudo is Ultrasoft, Zval =  5.0
     Generated by new atomic code, or converted to UPF format
     Using radial grid of  729 points,  4 beta functions with:
                l(1) =   0
                l(2) =   0
                l(3) =   1
                l(4) =   1
     Q(r) pseudized with  8 coefficients,  rinner =    0.800   0.800   0.800

     atomic species   valence    mass     pseudopotential
        Ti1           12.00    47.86700     Ti( 1.00)
        O1             6.00    15.99900     O ( 1.00)
        C1             4.00    12.01100     C ( 1.00)
        H1             1.00     1.00800     H ( 1.00)
        N1             5.00    14.00700     N ( 1.00)

     No symmetry found

   Cartesian axes

     site n.     atom                  positions (alat units)
         1           Ti1 tau(   1) = (   0.0004258   2.9801865   6.0000000  )
         2           Ti1 tau(   2) = (   3.2906075   1.4906267   6.0002472  )
         3           O1  tau(   3) = (   0.0006271   0.0005054   7.9858123  )
         4           O1  tau(   4) = (   3.2906025   0.0005020   7.3038282  )
         5           O1  tau(   5) = (   4.5942328   1.4918067   9.2879030  )
         6           O1  tau(   6) = (   1.9868534   1.4903216   9.2879459  )
         7           Ti1 tau(   7) = (   3.3371032   3.0268772   9.1887580  )
         8           Ti1 tau(   8) = (   0.0611061   1.5258697   9.2809523  )
         9           O1  tau(   9) = (   3.3143856   0.0188946  11.3581724  )
        10           O1  tau(  10) = (   0.0164151   0.0031400  10.5895864  )
        11           O1  tau(  11) = (   1.3088961   1.4994640  12.6347600  )
        12           O1  tau(  12) = (   5.3347766   1.4946156  12.6347356  )
        13           Ti1 tau(  13) = (   0.0202478   3.0292801  12.5720800  )
        14           Ti1 tau(  14) = (   3.3188568   1.5851219  12.4260843  )
        15           O1  tau(  15) = (   0.0445434   5.9450813  14.6510506  )
        16           O1  tau(  16) = (   3.3207065   5.8849141  14.0104376  )
        17           O1  tau(  17) = (   4.6249962   1.5116716  16.1313945  )
        18           O1  tau(  18) = (   2.0639035   1.5439872  16.0680944  )
        19           Ti1 tau(  19) = (   3.3360141   2.9454253  15.6763505  )
        20           Ti1 tau(  20) = (   0.0686920   1.3314864  15.9334539  )
        21           O1  tau(  21) = (   3.2904802   0.0005063   4.7018136  )
        22           O1  tau(  22) = (   0.0979609   0.0039778  17.1657837  )
        23           O1  tau(  23) = (   1.3043587   1.4918075   6.0039043  )
        24           O1  tau(  24) = (   5.2767064   1.4903225   6.0039473  )
        25           Ti1 tau(  25) = (   0.0000382   5.9609847   6.0000000  )
        26           Ti1 tau(  26) = (   3.2902200   4.4714249   6.0002472  )
        27           O1  tau(  27) = (   0.0002396   2.9813036   7.9858123  )
        28           O1  tau(  28) = (   3.2902150   2.9813002   7.3038282  )
        29           O1  tau(  29) = (   4.5938453   4.4726049   9.2879030  )
        30           O1  tau(  30) = (   1.9864658   4.4711199   9.2879459  )
        31           Ti1 tau(  31) = (   3.3368545   0.0404040   9.1664313  )
        32           Ti1 tau(  32) = (   0.0604674   4.4799263   9.2696248  )
        33           O1  tau(  33) = (   3.3137611   2.9662427  11.3084074  )
        34           O1  tau(  34) = (   0.0134136   2.9850836  10.6046154  )
        35           O1  tau(  35) = (   1.3054726   4.4719986  12.6384794  )
        36           O1  tau(  36) = (   5.3362180   4.4781181  12.6390536  )
        37           Ti1 tau(  37) = (   0.0365240   0.0487139  12.4702884  )
        38           Ti1 tau(  38) = (   3.3180881   4.6653017  12.7087268  )
        39           O1  tau(  39) = (   0.0228105   2.9918545  14.7761892  )
        40           O1  tau(  40) = (   3.3431522   2.9700269  13.9040455  )
        41           O1  tau(  41) = (   4.6265974   4.4152401  16.1544535  )
        42           O1  tau(  42) = (   2.0571238   4.3592187  16.1146037  )
        43           Ti1 tau(  43) = (   3.3848590   5.9294639  16.2700006  )
        44           Ti1 tau(  44) = (   0.0517009   4.5268197  15.8466567  )
        45           O1  tau(  45) = (   3.2900926   2.9813045   4.7018136  )
        46           O1  tau(  46) = (   1.3039711   4.4726057   6.0039043  )
        47           O1  tau(  47) = (   5.2763189   4.4711207   6.0039473  )
        48           C1  tau(  48) = (   5.9450987   3.0517216  18.8599509  )
        49           O1  tau(  49) = (   0.1802289   3.0084098  17.6484507  )
        50           H1  tau(  50) = (   4.9625852   2.6832861  18.5889656  )
        51           H1  tau(  51) = (   1.1163247   3.1442434  17.8758057  )
        52           H1  tau(  52) = (   6.3899442   2.3914015  19.6026461  )
        53           H1  tau(  53) = (   5.8846647   4.0795385  19.2151274  )
        54           N1  tau(  54) = (   5.7598779   3.1323611  22.9045362  )
        55           N1  tau(  55) = (   4.9845974   3.1950264  22.1203839  )
        56           O1  tau(  56) = (   3.1467188   0.0118795  18.1166202  )
        57           H1  tau(  57) = (   2.2164505   0.0865285  18.3868412  )

     number of k points=    10  Fermi-Dirac smearing, width (Ry)=  0.0073
                       cart. coord. in units 2pi/alat
        k(    1) = (   0.0000000   0.0000000   0.0000000), wk =   0.1250000
        k(    2) = (   0.0000000   0.0419351   0.0000000), wk =   0.2500000
        k(    3) = (   0.0000000  -0.0838702   0.0000000), wk =   0.1250000
        k(    4) = (   0.0379955   0.0000049   0.0000000), wk =   0.2500000
        k(    5) = (   0.0379955   0.0419400   0.0000000), wk =   0.2500000
        k(    6) = (   0.0379955  -0.0838652   0.0000000), wk =   0.2500000
        k(    7) = (   0.0379955  -0.0419301   0.0000000), wk =   0.2500000
        k(    8) = (  -0.0759910  -0.0000099   0.0000000), wk =   0.1250000
        k(    9) = (  -0.0759910   0.0419252   0.0000000), wk =   0.2500000
        k(   10) = (  -0.0759910  -0.0838800   0.0000000), wk =   0.1250000

     Initial potential from superposition of free atoms

     starting charge  392.99914, renormalised to  409.00000

     negative rho (up, down):  9.139E-03 0.000E+00

     %%%%%%%%%%%%%%%%%%%%%%%%%%%%%%%%%%%%%%%%%%%%%%%%%%%%%%%%%%%%%%%%%%%%%%%%
     %                                                                      %
     % You are using vdW-DF, which was implemented by the Thonhauser group. %
     % Please cite the following two papers that made this development      %
     % possible and the two reviews that describe the various versions:     %
     %                                                                      %
     %   T. Thonhauser et al., PRL 115, 136402 (2015).                      %
     %   T. Thonhauser et al., PRB 76, 125112 (2007).                       %
     %   K. Berland et al., Rep. Prog. Phys. 78, 066501 (2015).             %
     %   D.C. Langreth et al., J. Phys.: Condens. Matter 21, 084203 (2009). %
     %                                                                      %
     %                                                                      %
     % If you are calculating the stress with vdW-DF, please also cite:     %
     %                                                                      %
     %   R. Sabatini et al., J. Phys.: Condens. Matter 24, 424209 (2012).   %
     %                                                                      %
     %%%%%%%%%%%%%%%%%%%%%%%%%%%%%%%%%%%%%%%%%%%%%%%%%%%%%%%%%%%%%%%%%%%%%%%%

     Adding external electric field

     Computed dipole along edir(3) :
        Dipole              -18.8687 Ry au,        -47.9594 Debye
        Dipole field         -0.0356 Ry au,

        Potential amp.        3.3008 Ry
        Total length         46.3494 bohr

     Starting wfcs are  309 atomic wfcs
  @ DRIVER MODE: Message from server: STATUS
  @ DRIVER MODE: Message from server: POSDATA
  @ DRIVER MODE: Reading and sharing cell
  @ DRIVER MODE: Reading and sharing positions
  @ DRIVER MODE: Received positions

     Self-consistent Calculation

     iteration #  1     ecut=    29.40 Ry     beta= 0.05
     Davidson diagonalization with overlap
     c_bands:  5 eigenvalues not converged
     c_bands:  5 eigenvalues not converged
     c_bands:  1 eigenvalues not converged
     c_bands:  4 eigenvalues not converged
     c_bands:  1 eigenvalues not converged
     c_bands:  3 eigenvalues not converged
     ethr =  1.00E-05,  avg # of iterations = 27.3

[...]

     total energy              =   -2113.20122079 Ry
     estimated scf accuracy    <   10331.03764514 Ry

     iteration #  2     ecut=    29.40 Ry     beta= 0.05
     Davidson diagonalization with overlap
     ethr =  1.00E-02,  avg # of iterations = 29.1

[...]

     iteration # 95     ecut=    29.40 Ry     beta= 0.05
     Davidson diagonalization with overlap
     c_bands:  1 eigenvalues not converged
     ethr =  1.22E-10,  avg # of iterations = 11.2

[...]

     total energy              =   -3006.45834480 Ry
     estimated scf accuracy    <       0.00000019 Ry

     iteration #101     ecut=    29.40 Ry     beta= 0.05
     Davidson diagonalization with overlap
     ethr =  4.57E-11,  avg # of iterations =  7.9

     negative rho (up, down):  1.063E-02 0.000E+00

     Adding external electric field

     Computed dipole along edir(3) :
        Dipole                1.0500 Ry au,          2.6689 Debye
        Dipole field          0.0020 Ry au,

        Potential amp.       -0.1837 Ry
        Total length         46.3494 bohr

     End of self-consistent calculation

          k = 0.0000 0.0000 0.0000 ( 18029 PWs)   bands (ev):

   -55.3288 -55.2530 -55.2177 -55.1436 -55.1219 -55.0870 -55.0510 -55.0465
   -55.0447 -55.0256 -55.0155 -54.9856 -54.8987 -54.8228 -54.2128 -54.1787
   -31.7309 -31.7225 -31.6351 -31.6233 -31.5824 -31.5687 -31.5443 -31.5421
   -31.5076 -31.4958 -31.4848 -31.4199 -31.4068 -31.4066 -31.3799 -31.3617
   -31.3530 -31.3362 -31.3352 -31.3239 -31.3166 -31.3117 -31.2659 -31.2639
   -31.2619 -31.2553 -31.2524 -31.2394 -31.2330 -31.2145 -31.2077 -31.1971
   -31.1954 -31.1755 -31.1709 -31.1630 -31.1617 -31.1278 -31.0875 -31.0682
   -31.0370 -31.0267 -30.6189 -30.5326 -30.5101 -30.4359 -30.3496 -30.2379
   -21.4980 -19.7117 -16.1356 -15.9052 -15.7259 -15.5240 -15.4672 -15.4008
   -15.2135 -15.1400 -14.9841 -14.8590 -14.8444 -14.7875 -14.7866 -14.7763
   -14.7474 -14.7225 -14.6772 -14.6659 -14.6605 -14.6568 -14.5953 -14.5529
   -14.5504 -14.5230 -14.5024 -14.3752 -14.3283 -14.2738 -14.1036 -14.0819
   -12.7125 -12.5963 -10.5724  -6.6894  -6.4097  -4.6650  -4.6257  -4.5894
    -4.4084  -3.6518  -3.3697  -3.2544  -3.1540  -3.1353  -3.0707  -3.0198
    -2.8049  -2.6987  -2.6356  -2.5230  -2.3958  -2.3596  -2.3076  -2.2775
    -2.1856  -2.1676  -2.1357  -2.1059  -2.0506  -2.0224  -2.0149  -2.0022
    -1.9266  -1.9198  -1.7901  -1.7850  -1.7289  -1.6368  -1.6190  -1.5961
    -1.5889  -1.5544  -1.5521  -1.5098  -1.4861  -1.4622  -1.4337  -1.3585
    -1.3391  -1.2761  -1.2387  -1.0065  -0.8520  -0.8274  -0.7470  -0.7308
    -0.7000  -0.6709  -0.6507  -0.6399  -0.6029  -0.5875  -0.4838  -0.3803
    -0.3717  -0.3120  -0.2743  -0.2695  -0.1338  -0.0890  -0.0148   0.0080
     0.0403   0.0613   0.1456   0.1945   0.2161   0.2826   0.3141   0.4195
     0.4570   0.4763   0.5175   0.5729   0.6334   0.6671   0.7066   0.7101
     0.7428   0.7919   0.8214   0.8560   0.8783   0.9254   1.0282   1.0655
     1.0761   1.2166   1.2277   1.3099   1.4347   1.4866   1.7596   1.8121
     1.8589   2.0045   2.3810   2.4279   3.8708   3.9734   3.9944   4.0157
     4.0834   4.1653   4.3306   4.3539   4.4181   4.5189

[...]

          k = 0.0380-0.0419 0.0000 ( 17876 PWs)   bands (ev):

[...]

          k =-0.0760-0.0000 0.0000 ( 17886 PWs)   bands (ev):

[...]

          k =-0.0760-0.0839 0.0000 ( 17948 PWs)   bands (ev):

   -55.3281 -55.2399 -55.2307 -55.1377 -55.1175 -55.0927 -55.0503 -55.0457
   -55.0371 -55.0289 -55.0166 -54.9949 -54.8949 -54.8264 -54.1959 -54.1954
   -31.6421 -31.5785 -31.5688 -31.5509 -31.5420 -31.5419 -31.5360 -31.5201
   -31.4580 -31.4535 -31.4144 -31.3932 -31.3815 -31.3764 -31.3598 -31.3579
   -31.3540 -31.3524 -31.3456 -31.3396 -31.3346 -31.3327 -31.3173 -31.3152
   -31.2965 -31.2856 -31.2563 -31.2499 -31.2470 -31.2428 -31.2350 -31.2337
   -31.2270 -31.2223 -31.2184 -31.2140 -31.2116 -31.1732 -31.1545 -31.0915
   -31.0742 -31.0307 -30.5229 -30.5226 -30.4327 -30.4311 -30.3929 -30.3920
   -21.4979 -19.7079 -16.1120 -15.5352 -15.3786 -15.2075 -15.1938 -15.1144
   -15.0230 -15.0052 -14.9746 -14.9613 -14.9441 -14.9197 -14.9116 -14.8765
   -14.8134 -14.7715 -14.7484 -14.7401 -14.6932 -14.6879 -14.6844 -14.6217
   -14.6144 -14.5962 -14.5716 -14.5117 -14.5028 -14.4022 -14.3874 -14.2148
   -12.6986 -12.6978 -10.5744  -6.6897  -6.4115  -4.6601  -4.6326  -4.5775
    -4.4007  -3.6172  -3.3602  -2.6835  -2.5991  -2.5364  -2.4314  -2.3531
    -2.2994  -2.2497  -2.2287  -2.1837  -2.1626  -2.0931  -2.0585  -2.0496
    -2.0302  -2.0281  -1.9977  -1.9822  -1.9695  -1.9483  -1.9199  -1.9026
    -1.8920  -1.8711  -1.8512  -1.8254  -1.8132  -1.8033  -1.7884  -1.7725
    -1.6618  -1.6450  -1.6123  -1.4497  -1.4382  -1.3690  -1.3374  -1.3108
    -1.3072  -1.2769  -1.2618  -1.2199  -1.1146  -1.0865  -1.0372  -0.9963
    -0.9029  -0.8869  -0.8360  -0.7851  -0.7392  -0.7106  -0.6802  -0.6649
    -0.6112  -0.4729  -0.4521  -0.4070  -0.2878  -0.2146  -0.1989  -0.1863
    -0.1646  -0.1415  -0.0949  -0.0867  -0.0249  -0.0124   0.0585   0.0625
     0.0916   0.1131   0.2156   0.3377   0.4163   0.4601   0.5050   0.5545
     0.5881   0.6704   0.7468   0.8332   0.9092   0.9387   0.9525   1.0702
     1.1026   1.1551   1.2011   1.2214   1.2796   1.3154   1.3556   1.3887
     2.1732   2.1869   2.2432   2.2488   4.0515   4.3015   4.3615   4.3788
     4.3883   4.4206   4.4418   4.4935   4.5102   4.5335

     the Fermi energy is     3.8809 ev

!    total energy              =   -3006.45834944 Ry
     estimated scf accuracy    <       0.00000007 Ry
     smearing contrib. (-TS)   =      -0.02082754 Ry
     internal energy E=F+TS    =   -3006.43752190 Ry

     The total energy is F=E-TS. E is the sum of the following terms:
     one-electron contribution =  -22317.76952355 Ry
     hartree contribution      =   11258.40277130 Ry
     xc contribution           =    -501.14445974 Ry
     ewald contribution        =    8554.07160941 Ry
     electric field correction =       0.00208068 Ry

     convergence has been achieved in 101 iterations

     Forces acting on atoms (cartesian axes, Ry/au):

     atom    1 type  1   force =    -0.00037484   -0.00016427    0.09496319
     atom    2 type  1   force =    -0.00034972    0.00513019   -0.17481179
     atom    3 type  2   force =     0.00070734    0.00012815   -0.02672335
     atom    4 type  2   force =     0.00129117    0.00082936    0.05207370
     atom    5 type  2   force =    -0.01096195   -0.00256087    0.00077358
     atom    6 type  2   force =     0.01193312   -0.00380990    0.00178403
     atom    7 type  1   force =    -0.00021944    0.00039635    0.00066857
     atom    8 type  1   force =     0.00013306    0.00022041    0.00017046
     atom    9 type  2   force =     0.00025121    0.00076214   -0.00065918
     atom   10 type  2   force =    -0.00039074    0.00016100    0.00013104
     atom   11 type  2   force =     0.00043884   -0.00015280    0.00010146
     atom   12 type  2   force =    -0.00084391   -0.00015255    0.00035477
     atom   13 type  1   force =     0.00043884    0.00034347   -0.00023317
     atom   14 type  1   force =    -0.00034107   -0.00071990    0.00095122
     atom   15 type  2   force =    -0.00014334   -0.00053488   -0.00097845
     atom   16 type  2   force =    -0.00027872   -0.00000903   -0.00023994
     atom   17 type  2   force =    -0.00098019    0.00030594   -0.00000917
     atom   18 type  2   force =     0.00048552    0.00068529   -0.00008042
     atom   19 type  1   force =     0.00024188   -0.00081736    0.00015244
     atom   20 type  1   force =    -0.00024254    0.00009665    0.00039720
     atom   21 type  2   force =    -0.00000297    0.00007381    0.10302464
     atom   22 type  2   force =    -0.00002558   -0.00013757    0.00096548
     atom   23 type  2   force =    -0.07195211    0.00014043   -0.02801889
     atom   24 type  2   force =     0.07178789    0.00063771   -0.02812409
     atom   25 type  1   force =    -0.00036557    0.00024678    0.10242658
     atom   26 type  1   force =    -0.00010653   -0.00475158   -0.17503891
     atom   27 type  2   force =     0.00084851    0.00116928   -0.02484528
     atom   28 type  2   force =     0.00119623    0.00025607    0.05170068
     atom   29 type  2   force =    -0.01192261    0.00381351    0.00171625
     atom   30 type  2   force =     0.01376135    0.00146307    0.00244691
     atom   31 type  1   force =    -0.00029158   -0.00017106    0.00080777
     atom   32 type  1   force =     0.00028135    0.00029454    0.00059079
     atom   33 type  2   force =     0.00000675    0.00018452    0.00009654
     atom   34 type  2   force =    -0.00027110   -0.00032309   -0.00057677
     atom   35 type  2   force =    -0.00023866    0.00004636   -0.00047618
     atom   36 type  2   force =    -0.00036856    0.00009078   -0.00009632
     atom   37 type  1   force =    -0.00004319   -0.00034388    0.00002878
     atom   38 type  1   force =    -0.00057527    0.00028936    0.00001695
     atom   39 type  2   force =    -0.00025305   -0.00024671    0.00078748
     atom   40 type  2   force =    -0.00019847    0.00010691    0.00031863
     atom   41 type  2   force =    -0.00140230   -0.00026074   -0.00005285
     atom   42 type  2   force =     0.00108040   -0.00013402   -0.00049958
     atom   43 type  1   force =    -0.00019272    0.00054732    0.00017459
     atom   44 type  1   force =    -0.00007478    0.00012223    0.00008815
     atom   45 type  2   force =     0.00000322    0.00013827    0.10260930
     atom   46 type  2   force =    -0.07184366   -0.00063272   -0.02796609
     atom   47 type  2   force =     0.07170101   -0.00014311   -0.02804312
     atom   48 type  3   force =    -0.00033176   -0.00012724    0.00002720
     atom   49 type  2   force =    -0.00120641   -0.00079187    0.00020575
     atom   50 type  4   force =    -0.00007202   -0.00044661   -0.00020712
     atom   51 type  4   force =     0.00036246    0.00039550   -0.00067835
     atom   52 type  4   force =    -0.00020022    0.00008281   -0.00044570
     atom   53 type  4   force =    -0.00002082   -0.00040659   -0.00106282
     atom   54 type  5   force =    -0.00200470    0.00010505   -0.00181723
     atom   55 type  5   force =     0.00164219   -0.00005581    0.00185448
     atom   56 type  2   force =     0.00080312   -0.00056608    0.00047217
     atom   57 type  4   force =    -0.00030433   -0.00080301   -0.00119604

     Total force =     0.364807     Total SCF correction =     0.000497
  @ DRIVER MODE: Message from server: STATUS
  @ DRIVER MODE: Message from server: GETFORCE
  @ DRIVER MODE: Returning v,forces,stress,ensemble

     Writing output data file ./calc.save/
  @ DRIVER MODE: Message from server: EXIT
  @ DRIVE MODE: Exiting

     General routines

     Parallel routines

   This run was terminated on:  18:51:45  26Sep2021

   JOB DONE.