     Program PWSCF v.6.7GPU starts on 24Aug2021 at  1:33: 6

     R & G space division:  proc/nbgrp/npool/nimage =       6
     Reading input from /storage/home/hcoda1/3/ntian30/research/carbon/CH2_vib/ads_slab/CH2NNHHH_a/out_0024/pw.inp
Warning: card &CELL ignored
Warning: card   CELL_DYNAMICS='IPI', ignored
Warning: card / ignored

     Current dimensions of program PWSCF are:
     Max number of different atomic species (ntypx) = 10
     Max number of k-points (npk) =  40000
     Max angular momentum in pseudopotentials (lmaxx) =  3
     Presently no symmetry can be used with electric field

     Message from routine cell_base_init:
     DEPRECATED: use true lattice parameter, not A to a.u. conversion factor

     IMPORTANT: XC functional enforced from input :
     Exchange-correlation= BEEF-VDW
                           (   1   4  43  14   2   0   0)
     Any further DFT definition will be discarded
     Please, verify this is what you really want

  @ DRIVER MODE: Connecting to
 qe_1139763_2632806.sched-torque.pace.gatech.eduycxmcbdm_scratch
  using UNIX socket
  @ DRIVER MODE: Message from server: STATUS
  @ DRIVER MODE: Message from server: INIT
  @ DRIVER MODE: Receiving replica           0          -1
  @ DRIVER MODE: Receiving encoded integer          25
  @ DRIVER MODE:  SCF:  T  FORCE:  T  STRESS:  F  VC:  F  ENSEMBLE:  F
  @ DRIVER MODE:  SCF:  T  FORCE:  T  STRESS:  F  VC:  F  ENSEMBLE:  F

     Using Slab Decomposition

     bravais-lattice index     =            0
     lattice parameter (alat)  =       1.8897  a.u.
     unit-cell volume          =    6658.9804 (a.u.)^3
     number of atoms/cell      =           55
     number of atomic types    =            5
     number of electrons       =       397.00
     number of Kohn-Sham states=          208
     kinetic-energy cutoff     =      29.3995  Ry
     charge density cutoff     =     293.9946  Ry
     scf convergence threshold =      7.3E-08
     mixing beta               =       0.0500
     number of iterations used =            8  plain     mixing
     Exchange-correlation= BEEF-VDW
                           (   1   4  43  14   2   0   0)

     celldm(1)=   1.889726  celldm(2)=   0.000000  celldm(3)=   0.000000
     celldm(4)=   0.000000  celldm(5)=   0.000000  celldm(6)=   0.000000

     crystal axes: (cart. coord. in units of alat)
               a(1) = (   6.579727   0.000000   0.000000 )
               a(2) = (  -0.000775   5.961596   0.000000 )
               a(3) = (   0.000000   0.000000  25.155947 )

     reciprocal axes: (cart. coord. in units 2 pi/alat)
               b(1) = (  0.151982  0.000020  0.000000 )
               b(2) = (  0.000000  0.167740  0.000000 )
               b(3) = (  0.000000  0.000000  0.039752 )

     PseudoPot. # 1 for Ti read from file:
     /storage/coda1/p-amedford6/0/shared/rich_project_chbe-medford/medford-share/data/pseudos_module/espresso/nninc/pbe/van/Ti.UPF
     MD5 check sum: 8e4df49b7f0d34bbd5052bf3f5ea0213
     Pseudo is Ultrasoft, Zval = 12.0
     Generated by new atomic code, or converted to UPF format
     Using radial grid of  851 points,  6 beta functions with:
                l(1) =   0
                l(2) =   0
                l(3) =   1
                l(4) =   1
                l(5) =   2
                l(6) =   2
     Q(r) pseudized with  8 coefficients,  rinner =    1.000   1.000   1.000
                                                       1.000   1.000

     PseudoPot. # 2 for O  read from file:
     /storage/coda1/p-amedford6/0/shared/rich_project_chbe-medford/medford-share/data/pseudos_module/espresso/nninc/pbe/van/O.UPF
     MD5 check sum: 78c19812648e8988a0fe644b0f25305e
     Pseudo is Ultrasoft, Zval =  6.0
     Generated by new atomic code, or converted to UPF format
     Using radial grid of  737 points,  4 beta functions with:
                l(1) =   0
                l(2) =   0
                l(3) =   1
                l(4) =   1
     Q(r) pseudized with  8 coefficients,  rinner =    0.800   0.800   0.800

     PseudoPot. # 3 for N  read from file:
     /storage/coda1/p-amedford6/0/shared/rich_project_chbe-medford/medford-share/data/pseudos_module/espresso/nninc/pbe/van/N.UPF
     MD5 check sum: 90d10febe142ad51ac9d5be1deb811c4
     Pseudo is Ultrasoft, Zval =  5.0
     Generated by new atomic code, or converted to UPF format
     Using radial grid of  729 points,  4 beta functions with:
                l(1) =   0
                l(2) =   0
                l(3) =   1
                l(4) =   1
     Q(r) pseudized with  8 coefficients,  rinner =    0.800   0.800   0.800

     PseudoPot. # 4 for C  read from file:
     /storage/coda1/p-amedford6/0/shared/rich_project_chbe-medford/medford-share/data/pseudos_module/espresso/nninc/pbe/van/C.UPF
     MD5 check sum: 1a69bf6b8db32088f5b2163dbdb77a27
     Pseudo is Ultrasoft, Zval =  4.0
     Generated by new atomic code, or converted to UPF format
     Using radial grid of  721 points,  4 beta functions with:
                l(1) =   0
                l(2) =   0
                l(3) =   1
                l(4) =   1
     Q(r) pseudized with  8 coefficients,  rinner =    0.800   0.800   0.800

     PseudoPot. # 5 for H  read from file:
     /storage/coda1/p-amedford6/0/shared/rich_project_chbe-medford/medford-share/data/pseudos_module/espresso/nninc/pbe/van/H.UPF
     MD5 check sum: b5ee9d7bfd3a09ee7748110bda690ff7
     Pseudo is Ultrasoft, Zval =  1.0
     Generated by new atomic code, or converted to UPF format
     Using radial grid of  615 points,  1 beta functions with:
                l(1) =   0
     Q(r) pseudized with  8 coefficients,  rinner =    0.800

     atomic species   valence    mass     pseudopotential
        Ti1           12.00    47.86700     Ti( 1.00)
        O1             6.00    15.99900     O ( 1.00)
        N1             5.00    14.00700     N ( 1.00)
        C1             4.00    12.01100     C ( 1.00)
        H1             1.00     1.00800     H ( 1.00)

     No symmetry found

   Cartesian axes

     site n.     atom                  positions (alat units)
         1           Ti1 tau(   1) = (   0.0004258   2.9801865   6.0000000  )
         2           Ti1 tau(   2) = (   3.2906075   1.4906267   6.0002472  )
         3           O1  tau(   3) = (   0.0006271   0.0005054   7.9858123  )
         4           O1  tau(   4) = (   3.2906025   0.0005020   7.3038282  )
         5           O1  tau(   5) = (   4.5942328   1.4918067   9.2879030  )
         6           O1  tau(   6) = (   1.9868534   1.4903216   9.2879459  )
         7           Ti1 tau(   7) = (   3.2907910   2.8959150   9.1758416  )
         8           Ti1 tau(   8) = (   0.0015273   1.4827037   9.2680791  )
         9           O1  tau(   9) = (   3.2797308   5.9473376  11.3602069  )
        10           O1  tau(  10) = (   0.0116148   5.9584955  10.6183126  )
        11           O1  tau(  11) = (   1.2902197   1.4970218  12.6485984  )
        12           O1  tau(  12) = (   5.2825647   1.4998509  12.6204812  )
        13           Ti1 tau(  13) = (   6.5707130   2.9731531  12.5352273  )
        14           Ti1 tau(  14) = (   3.2824754   1.4851695  12.4964603  )
        15           O1  tau(  15) = (   6.5335774   0.0914421  14.6722524  )
        16           O1  tau(  16) = (   3.3157438   0.0180770  13.9903400  )
        17           O1  tau(  17) = (   4.5084513   1.5196572  16.2619966  )
        18           O1  tau(  18) = (   2.0062152   1.4815140  16.1839734  )
        19           Ti1 tau(  19) = (   3.2259906   2.9465836  15.7211513  )
        20           Ti1 tau(  20) = (   6.5090593   1.4075841  16.1508600  )
        21           O1  tau(  21) = (   3.2904802   0.0005063   4.7018136  )
        22           O1  tau(  22) = (   6.5630310   5.8123487  17.2302531  )
        23           O1  tau(  23) = (   1.3043587   1.4918075   6.0039043  )
        24           O1  tau(  24) = (   5.2767064   1.4903225   6.0039473  )
        25           Ti1 tau(  25) = (   0.0000382   5.9609847   6.0000000  )
        26           Ti1 tau(  26) = (   3.2902200   4.4714249   6.0002472  )
        27           O1  tau(  27) = (   0.0002396   2.9813036   7.9858123  )
        28           O1  tau(  28) = (   3.2902150   2.9813002   7.3038282  )
        29           O1  tau(  29) = (   4.5938453   4.4726049   9.2879030  )
        30           O1  tau(  30) = (   1.9864658   4.4711199   9.2879459  )
        31           Ti1 tau(  31) = (   3.2891106   5.8743827   9.1763621  )
        32           Ti1 tau(  32) = (   0.0006254   4.4649316   9.2693709  )
        33           O1  tau(  33) = (   3.2783824   2.9878764  11.3535400  )
        34           O1  tau(  34) = (   0.0092240   2.9805883  10.6323155  )
        35           O1  tau(  35) = (   1.2857266   4.4729298  12.7006550  )
        36           O1  tau(  36) = (   5.2845514   4.4687958  12.6640455  )
        37           Ti1 tau(  37) = (   6.5734551   0.0101047  12.5124135  )
        38           Ti1 tau(  38) = (   3.2852174   4.4611384  12.5175569  )
        39           O1  tau(  39) = (   6.5279837   2.9480221  14.9030702  )
        40           O1  tau(  40) = (   3.2956390   2.9588503  13.9390168  )
        41           O1  tau(  41) = (   4.4992944   4.4159585  16.2207858  )
        42           O1  tau(  42) = (   2.0104883   4.4624356  16.0673450  )
        43           Ti1 tau(  43) = (   3.2790961   0.0058003  15.7788240  )
        44           Ti1 tau(  44) = (   0.0606790   4.6093333  15.7554573  )
        45           O1  tau(  45) = (   3.2900926   2.9813045   4.7018136  )
        46           O1  tau(  46) = (   1.3039711   4.4726057   6.0039043  )
        47           O1  tau(  47) = (   5.2763189   4.4711207   6.0039473  )
        48           N1  tau(  48) = (   0.0403274   2.7191540  18.0026804  )
        49           C1  tau(  49) = (   0.9398849   2.4944932  18.9664025  )
        50           H1  tau(  50) = (   0.9073005   3.0183022  19.9142263  )
        51           H1  tau(  51) = (   1.7098349   1.7704235  18.7715287  )
        52           N1  tau(  52) = (   5.5765855   3.6054979  18.4816711  )
        53           H1  tau(  53) = (   5.9881759   4.5320851  18.7147717  )
        54           H1  tau(  54) = (   4.9344470   3.8465857  17.6610935  )
        55           H1  tau(  55) = (   5.0674124   3.1947177  19.2767304  )

     number of k points=    10  Fermi-Dirac smearing, width (Ry)=  0.0073
                       cart. coord. in units 2pi/alat
        k(    1) = (   0.0000000   0.0000000   0.0000000), wk =   0.1250000
        k(    2) = (   0.0000000   0.0419351   0.0000000), wk =   0.2500000
        k(    3) = (   0.0000000  -0.0838702   0.0000000), wk =   0.1250000
        k(    4) = (   0.0379955   0.0000049   0.0000000), wk =   0.2500000
        k(    5) = (   0.0379955   0.0419400   0.0000000), wk =   0.2500000
        k(    6) = (   0.0379955  -0.0838652   0.0000000), wk =   0.2500000
        k(    7) = (   0.0379955  -0.0419301   0.0000000), wk =   0.2500000
        k(    8) = (  -0.0759910  -0.0000099   0.0000000), wk =   0.1250000
        k(    9) = (  -0.0759910   0.0419252   0.0000000), wk =   0.2500000
        k(   10) = (  -0.0759910  -0.0838800   0.0000000), wk =   0.1250000

     Initial potential from superposition of free atoms

     starting charge  380.99914, renormalised to  397.00000

     negative rho (up, down):  1.588E-02 0.000E+00

     %%%%%%%%%%%%%%%%%%%%%%%%%%%%%%%%%%%%%%%%%%%%%%%%%%%%%%%%%%%%%%%%%%%%%%%%
     %                                                                      %
     % You are using vdW-DF, which was implemented by the Thonhauser group. %
     % Please cite the following two papers that made this development      %
     % possible and the two reviews that describe the various versions:     %
     %                                                                      %
     %   T. Thonhauser et al., PRL 115, 136402 (2015).                      %
     %   T. Thonhauser et al., PRB 76, 125112 (2007).                       %
     %   K. Berland et al., Rep. Prog. Phys. 78, 066501 (2015).             %
     %   D.C. Langreth et al., J. Phys.: Condens. Matter 21, 084203 (2009). %
     %                                                                      %
     %                                                                      %
     % If you are calculating the stress with vdW-DF, please also cite:     %
     %                                                                      %
     %   R. Sabatini et al., J. Phys.: Condens. Matter 24, 424209 (2012).   %
     %                                                                      %
     %%%%%%%%%%%%%%%%%%%%%%%%%%%%%%%%%%%%%%%%%%%%%%%%%%%%%%%%%%%%%%%%%%%%%%%%

     Adding external electric field

     Computed dipole along edir(3) :
        Dipole              -10.3130 Ry au,        -26.2131 Debye
        Dipole field         -0.0195 Ry au,

        Potential amp.        1.8041 Ry
        Total length         46.3494 bohr

     Starting wfcs are  301 atomic wfcs
  @ DRIVER MODE: Message from server: STATUS
  @ DRIVER MODE: Message from server: POSDATA
  @ DRIVER MODE: Reading and sharing cell
  @ DRIVER MODE: Reading and sharing positions
  @ DRIVER MODE: Received positions

     Self-consistent Calculation

     iteration #  1     ecut=    29.40 Ry     beta= 0.05
     Davidson diagonalization with overlap
     c_bands:  3 eigenvalues not converged
     c_bands:  2 eigenvalues not converged
     c_bands:  3 eigenvalues not converged
     c_bands:  2 eigenvalues not converged
     c_bands:  3 eigenvalues not converged
     c_bands:  2 eigenvalues not converged
     c_bands:  3 eigenvalues not converged
     c_bands:  2 eigenvalues not converged
     c_bands:  2 eigenvalues not converged
     c_bands:  3 eigenvalues not converged
     ethr =  1.00E-05,  avg # of iterations = 20.0

[...]

     total energy              =   -2480.06253264 Ry
     estimated scf accuracy    <    5159.18566236 Ry

     iteration #  2     ecut=    29.40 Ry     beta= 0.05
     Davidson diagonalization with overlap
     ethr =  1.00E-02,  avg # of iterations = 22.3

[...]

     iteration # 67     ecut=    29.40 Ry     beta= 0.05
     Davidson diagonalization with overlap
     c_bands:  2 eigenvalues not converged
     ethr =  4.13E-11,  avg # of iterations = 11.5

[...]

     total energy              =   -2941.49086097 Ry
     estimated scf accuracy    <       0.00000010 Ry

     iteration # 68     ecut=    29.40 Ry     beta= 0.05
     Davidson diagonalization with overlap
     ethr =  2.55E-11,  avg # of iterations =  9.9

     negative rho (up, down):  1.344E-02 0.000E+00

     Adding external electric field

     Computed dipole along edir(3) :
        Dipole                1.3619 Ry au,          3.4615 Debye
        Dipole field          0.0026 Ry au,

        Potential amp.       -0.2382 Ry
        Total length         46.3494 bohr

     End of self-consistent calculation

          k = 0.0000 0.0000 0.0000 ( 18029 PWs)   bands (ev):

   -55.2847 -55.2458 -55.2456 -55.2117 -55.1602 -55.1582 -55.1216 -55.0948
   -55.0778 -55.0764 -55.0601 -55.0432 -54.9575 -54.7913 -54.2639 -54.2299
   -31.8568 -31.7365 -31.6466 -31.6114 -31.5846 -31.5822 -31.5796 -31.5354
   -31.5325 -31.4925 -31.4909 -31.4902 -31.4579 -31.4551 -31.4410 -31.4195
   -31.4042 -31.3994 -31.3950 -31.3938 -31.3580 -31.3525 -31.3389 -31.3254
   -31.3027 -31.2974 -31.2911 -31.2870 -31.2747 -31.2715 -31.2616 -31.2516
   -31.2448 -31.2399 -31.2098 -31.2054 -31.1985 -31.1862 -31.1487 -31.1062
   -31.0621 -30.9329 -30.6727 -30.5800 -30.5578 -30.4892 -30.4025 -30.2915
   -19.2266 -16.1262 -15.8640 -15.7360 -15.5445 -15.4785 -15.3828 -15.2451
   -15.1937 -15.1322 -15.0833 -15.0423 -15.0298 -14.9642 -14.9070 -14.8187
   -14.8171 -14.7990 -14.7899 -14.7780 -14.7749 -14.7126 -14.7098 -14.6827
   -14.6681 -14.6579 -14.5170 -14.4332 -14.3717 -14.2765 -14.0257 -12.7665
   -12.6492  -9.1504  -7.8009  -7.0647  -6.0045  -3.8283  -3.4639  -3.2911
    -3.2440  -3.2041  -3.1794  -3.0108  -2.9290  -2.6617  -2.5932  -2.5540
    -2.5066  -2.4952  -2.4696  -2.2973  -2.2668  -2.2272  -2.1906  -2.1668
    -2.1273  -2.0995  -2.0834  -2.0542  -2.0410  -2.0389  -1.8564  -1.7853
    -1.7620  -1.7014  -1.6855  -1.6692  -1.6118  -1.5829  -1.5699  -1.5674
    -1.5442  -1.5273  -1.5043  -1.4619  -1.3752  -1.2832  -1.2387  -1.2169
    -1.1037  -1.0393  -0.9159  -0.8730  -0.8593  -0.8321  -0.7604  -0.6937
    -0.6664  -0.6305  -0.4902  -0.4855  -0.4011  -0.3912  -0.3184  -0.3014
    -0.2618  -0.2158  -0.1045  -0.0711  -0.0497   0.0024   0.0657   0.0876
     0.1693   0.2237   0.2803   0.2942   0.3738   0.4138   0.4517   0.4731
     0.5603   0.6018   0.6612   0.6676   0.7049   0.7080   0.7335   0.8200
     0.8331   0.8526   0.8936   1.0630   1.2640   1.3154   1.3359   1.6687
     1.6880   1.7588   1.9440   2.3335   2.3811   3.8166   3.8821   3.9525
     3.9670   3.9774   4.0489   4.0940   4.2839   4.3130   4.3160   4.3374

[...]

          k = 0.0380-0.0419 0.0000 ( 17876 PWs)   bands (ev):

[...]

          k =-0.0760-0.0000 0.0000 ( 17886 PWs)   bands (ev):

[...]

          k =-0.0760-0.0839 0.0000 ( 17948 PWs)   bands (ev):

   -55.2726 -55.2575 -55.2287 -55.2286 -55.1564 -55.1463 -55.1335 -55.0813
   -55.0785 -55.0756 -55.0603 -55.0598 -54.9560 -54.7928 -54.2469 -54.2468
   -31.6663 -31.6533 -31.5793 -31.5516 -31.5516 -31.5479 -31.5208 -31.5208
   -31.4931 -31.4848 -31.4802 -31.4764 -31.4220 -31.4131 -31.4130 -31.4095
   -31.4075 -31.4033 -31.3967 -31.3816 -31.3695 -31.3588 -31.3545 -31.3481
   -31.3479 -31.3458 -31.3444 -31.3287 -31.3119 -31.3089 -31.2926 -31.2899
   -31.2852 -31.2833 -31.2833 -31.2525 -31.2407 -31.2395 -31.1660 -31.0931
   -31.0630 -31.0105 -30.5705 -30.5705 -30.4853 -30.4851 -30.4459 -30.4459
   -19.2229 -15.5913 -15.5148 -15.4589 -15.3688 -15.2909 -15.2713 -15.2612
   -15.2278 -15.1609 -15.1375 -15.0722 -15.0372 -14.9921 -14.9893 -14.9739
   -14.8894 -14.8703 -14.8551 -14.8508 -14.7900 -14.7885 -14.7615 -14.7391
   -14.7326 -14.7288 -14.6290 -14.6280 -14.4634 -14.4315 -14.1975 -12.7508
   -12.7507  -9.1374  -7.8108  -7.0488  -6.0150  -3.8512  -2.8526  -2.7659
    -2.6762  -2.5199  -2.4827  -2.4728  -2.4170  -2.3267  -2.3006  -2.2877
    -2.2672  -2.2601  -2.1871  -2.1819  -2.1379  -2.1165  -2.1055  -2.0997
    -2.0657  -2.0523  -2.0385  -2.0023  -1.9938  -1.9774  -1.9431  -1.9237
    -1.8992  -1.8713  -1.8572  -1.8281  -1.7043  -1.6754  -1.6313  -1.5682
    -1.5441  -1.4775  -1.4723  -1.3685  -1.3580  -1.3468  -1.3059  -1.2919
    -1.2714  -1.1089  -1.0643  -1.0290  -1.0176  -1.0115  -0.8556  -0.8392
    -0.7710  -0.7553  -0.7405  -0.6639  -0.6226  -0.6059  -0.5264  -0.4867
    -0.4568  -0.4358  -0.2937  -0.2810  -0.2556  -0.2413  -0.2347  -0.1421
    -0.1216  -0.0857  -0.0516  -0.0136   0.0028   0.0622   0.2157   0.2420
     0.2790   0.4231   0.4383   0.5238   0.5715   0.6983   0.7630   0.7652
     0.8463   0.9164   1.0183   1.0306   1.0507   1.1360   1.1822   1.1871
     1.1883   2.1168   2.1177   2.2011   2.2013   3.6932   3.9560   4.0784
     4.0847   4.1270   4.2499   4.3333   4.3571   4.3947   4.3983   4.4716

     the Fermi energy is     3.8715 ev

!    total energy              =   -2941.49088929 Ry
     estimated scf accuracy    <       0.00000005 Ry
     smearing contrib. (-TS)   =      -0.04232369 Ry
     internal energy E=F+TS    =   -2941.44856560 Ry

     The total energy is F=E-TS. E is the sum of the following terms:
     one-electron contribution =  -23921.51255518 Ry
     hartree contribution      =   12053.92890720 Ry
     xc contribution           =    -486.86056624 Ry
     ewald contribution        =    9412.99214865 Ry
     electric field correction =       0.00349996 Ry

     convergence has been achieved in  68 iterations

     Forces acting on atoms (cartesian axes, Ry/au):

     atom    1 type  1   force =     0.00017243   -0.00017092    0.09402929
     atom    2 type  1   force =    -0.00005509   -0.00043271   -0.17754906
     atom    3 type  2   force =     0.00006532   -0.00005086   -0.02098699
     atom    4 type  2   force =     0.00001675   -0.00180455    0.05732710
     atom    5 type  2   force =    -0.01086554   -0.00090306    0.00783021
     atom    6 type  2   force =     0.01207695   -0.00033505    0.00622601
     atom    7 type  1   force =    -0.00065945    0.00290406   -0.01528516
     atom    8 type  1   force =     0.00059686    0.00232763    0.00236880
     atom    9 type  2   force =    -0.00010253    0.00013229    0.00092706
     atom   10 type  2   force =    -0.00165601   -0.00050148   -0.00379699
     atom   11 type  2   force =    -0.00006342   -0.00023399    0.00019666
     atom   12 type  2   force =    -0.00017597   -0.00039413    0.00026531
     atom   13 type  1   force =     0.00042492    0.00108897    0.00062115
     atom   14 type  1   force =     0.00020290   -0.00062136    0.00036875
     atom   15 type  2   force =    -0.00018593    0.00035352    0.00049954
     atom   16 type  2   force =    -0.00016344   -0.00024841   -0.00120259
     atom   17 type  2   force =     0.00010026   -0.00026675    0.00013621
     atom   18 type  2   force =    -0.00076987   -0.00032385    0.00004605
     atom   19 type  1   force =    -0.00060289    0.00105996   -0.00037866
     atom   20 type  1   force =    -0.00029675    0.00131379   -0.00105650
     atom   21 type  2   force =     0.00010924   -0.00004175    0.10377990
     atom   22 type  2   force =     0.00007142    0.00019548    0.00049119
     atom   23 type  2   force =    -0.07065296   -0.00018638   -0.02708008
     atom   24 type  2   force =     0.07059598    0.00028759   -0.02711969
     atom   25 type  1   force =     0.00015180   -0.00024350    0.09336423
     atom   26 type  1   force =    -0.00001134   -0.00037094   -0.17776306
     atom   27 type  2   force =     0.00010908   -0.00039650   -0.01999690
     atom   28 type  2   force =     0.00003406   -0.00146685    0.05680935
     atom   29 type  2   force =    -0.01076153   -0.00065869    0.00674493
     atom   30 type  2   force =     0.01187963   -0.00016629    0.00510199
     atom   31 type  1   force =    -0.00063408    0.00411245   -0.01558983
     atom   32 type  1   force =     0.00067397   -0.00278605    0.00214775
     atom   33 type  2   force =     0.00015851   -0.00021962   -0.00057962
     atom   34 type  2   force =    -0.00109320    0.00272744   -0.00201874
     atom   35 type  2   force =     0.00008008    0.00019570    0.00008138
     atom   36 type  2   force =    -0.00031856    0.00033553   -0.00008414
     atom   37 type  1   force =     0.00046356   -0.00008329    0.00031698
     atom   38 type  1   force =     0.00009031    0.00089400    0.00016019
     atom   39 type  2   force =    -0.00004220   -0.00096693    0.00041232
     atom   40 type  2   force =    -0.00023248   -0.00043266    0.00060548
     atom   41 type  2   force =    -0.00029085   -0.00006971   -0.00017818
     atom   42 type  2   force =     0.00015206    0.00001032    0.00021857
     atom   43 type  1   force =    -0.00003850   -0.00143629    0.00097327
     atom   44 type  1   force =    -0.00006089   -0.00087653   -0.00133323
     atom   45 type  2   force =     0.00009542   -0.00008288    0.10376974
     atom   46 type  2   force =    -0.07066601   -0.00008743   -0.02708806
     atom   47 type  2   force =     0.07061959    0.00029319   -0.02712656
     atom   48 type  3   force =    -0.00017474   -0.00098868   -0.00031954
     atom   49 type  4   force =    -0.00112726    0.00143969    0.00361057
     atom   50 type  5   force =     0.00022413    0.00057842   -0.00101117
     atom   51 type  5   force =     0.00096625   -0.00131050   -0.00232609
     atom   52 type  3   force =     0.00008767    0.00041553    0.00041477
     atom   53 type  5   force =     0.00034676   -0.00152704   -0.00066295
     atom   54 type  5   force =     0.00048849   -0.00024254    0.00100421
     atom   55 type  5   force =     0.00064710    0.00026263   -0.00031515

     Total force =     0.365758     Total SCF correction =     0.000628
  @ DRIVER MODE: Message from server: STATUS
  @ DRIVER MODE: Message from server: GETFORCE
  @ DRIVER MODE: Returning v,forces,stress,ensemble

     Writing output data file ./calc.save/
  @ DRIVER MODE: Message from server: EXIT
  @ DRIVE MODE: Exiting

     General routines

     Parallel routines

   This run was terminated on:   2: 1:42  24Aug2021

   JOB DONE.