     Program PWSCF v.6.7GPU starts on 15Sep2021 at 21: 4:20

     R & G space division:  proc/nbgrp/npool/nimage =      10
     Reading input from /storage/home/hcoda1/3/ntian30/research/carbon/CxH_vib/H2O_calc/ads_slab/CHH2O_a/out_0023/pw.inp
Warning: card &CELL ignored
Warning: card   CELL_DYNAMICS='IPI', ignored
Warning: card / ignored

     Current dimensions of program PWSCF are:
     Max number of different atomic species (ntypx) = 10
     Max number of k-points (npk) =  40000
     Max angular momentum in pseudopotentials (lmaxx) =  3
     Presently no symmetry can be used with electric field

     Message from routine cell_base_init:
     DEPRECATED: use true lattice parameter, not A to a.u. conversion factor

     IMPORTANT: XC functional enforced from input :
     Exchange-correlation= BEEF-VDW
                           (   1   4  43  14   2   0   0)
     Any further DFT definition will be discarded
     Please, verify this is what you really want

  @ DRIVER MODE: Connecting to
 qe_1139763_2852624.sched-torque.pace.gatech.edut49y1_mp_scratch
  using UNIX socket
  @ DRIVER MODE: Message from server: STATUS
  @ DRIVER MODE: Message from server: INIT
  @ DRIVER MODE: Receiving replica           0          -1
  @ DRIVER MODE: Receiving encoded integer          25
  @ DRIVER MODE:  SCF:  T  FORCE:  T  STRESS:  F  VC:  F  ENSEMBLE:  F
  @ DRIVER MODE:  SCF:  T  FORCE:  T  STRESS:  F  VC:  F  ENSEMBLE:  F

     Using Slab Decomposition

     bravais-lattice index     =            0
     lattice parameter (alat)  =       1.8897  a.u.
     unit-cell volume          =    6658.9804 (a.u.)^3
     number of atoms/cell      =           52
     number of atomic types    =            4
     number of electrons       =       391.00
     number of Kohn-Sham states=          205
     kinetic-energy cutoff     =      29.3995  Ry
     charge density cutoff     =     293.9946  Ry
     scf convergence threshold =      7.3E-08
     mixing beta               =       0.0500
     number of iterations used =            8  plain     mixing
     Exchange-correlation= BEEF-VDW
                           (   1   4  43  14   2   0   0)

     celldm(1)=   1.889726  celldm(2)=   0.000000  celldm(3)=   0.000000
     celldm(4)=   0.000000  celldm(5)=   0.000000  celldm(6)=   0.000000

     crystal axes: (cart. coord. in units of alat)
               a(1) = (   6.579727   0.000000   0.000000 )
               a(2) = (  -0.000775   5.961596   0.000000 )
               a(3) = (   0.000000   0.000000  25.155947 )

     reciprocal axes: (cart. coord. in units 2 pi/alat)
               b(1) = (  0.151982  0.000020  0.000000 )
               b(2) = (  0.000000  0.167740  0.000000 )
               b(3) = (  0.000000  0.000000  0.039752 )

     PseudoPot. # 1 for Ti read from file:
     /storage/coda1/p-amedford6/0/shared/rich_project_chbe-medford/medford-share/data/pseudos_module/espresso/nninc/pbe/van/Ti.UPF
     MD5 check sum: 8e4df49b7f0d34bbd5052bf3f5ea0213
     Pseudo is Ultrasoft, Zval = 12.0
     Generated by new atomic code, or converted to UPF format
     Using radial grid of  851 points,  6 beta functions with:
                l(1) =   0
                l(2) =   0
                l(3) =   1
                l(4) =   1
                l(5) =   2
                l(6) =   2
     Q(r) pseudized with  8 coefficients,  rinner =    1.000   1.000   1.000
                                                       1.000   1.000

     PseudoPot. # 2 for O  read from file:
     /storage/coda1/p-amedford6/0/shared/rich_project_chbe-medford/medford-share/data/pseudos_module/espresso/nninc/pbe/van/O.UPF
     MD5 check sum: 78c19812648e8988a0fe644b0f25305e
     Pseudo is Ultrasoft, Zval =  6.0
     Generated by new atomic code, or converted to UPF format
     Using radial grid of  737 points,  4 beta functions with:
                l(1) =   0
                l(2) =   0
                l(3) =   1
                l(4) =   1
     Q(r) pseudized with  8 coefficients,  rinner =    0.800   0.800   0.800

     PseudoPot. # 3 for C  read from file:
     /storage/coda1/p-amedford6/0/shared/rich_project_chbe-medford/medford-share/data/pseudos_module/espresso/nninc/pbe/van/C.UPF
     MD5 check sum: 1a69bf6b8db32088f5b2163dbdb77a27
     Pseudo is Ultrasoft, Zval =  4.0
     Generated by new atomic code, or converted to UPF format
     Using radial grid of  721 points,  4 beta functions with:
                l(1) =   0
                l(2) =   0
                l(3) =   1
                l(4) =   1
     Q(r) pseudized with  8 coefficients,  rinner =    0.800   0.800   0.800

     PseudoPot. # 4 for H  read from file:
     /storage/coda1/p-amedford6/0/shared/rich_project_chbe-medford/medford-share/data/pseudos_module/espresso/nninc/pbe/van/H.UPF
     MD5 check sum: b5ee9d7bfd3a09ee7748110bda690ff7
     Pseudo is Ultrasoft, Zval =  1.0
     Generated by new atomic code, or converted to UPF format
     Using radial grid of  615 points,  1 beta functions with:
                l(1) =   0
     Q(r) pseudized with  8 coefficients,  rinner =    0.800

     atomic species   valence    mass     pseudopotential
        Ti1           12.00    47.86700     Ti( 1.00)
        O1             6.00    15.99900     O ( 1.00)
        C1             4.00    12.01100     C ( 1.00)
        H1             1.00     1.00800     H ( 1.00)

     No symmetry found

   Cartesian axes

     site n.     atom                  positions (alat units)
         1           Ti1 tau(   1) = (   0.0004258   2.9801865   6.0000000  )
         2           Ti1 tau(   2) = (   3.2906075   1.4906267   6.0002472  )
         3           O1  tau(   3) = (   0.0006271   0.0005054   7.9858123  )
         4           O1  tau(   4) = (   3.2906025   0.0005020   7.3038282  )
         5           O1  tau(   5) = (   4.5942328   1.4918067   9.2879030  )
         6           O1  tau(   6) = (   1.9868534   1.4903216   9.2879459  )
         7           Ti1 tau(   7) = (   3.2871774   2.8648350   9.1721854  )
         8           Ti1 tau(   8) = (  -0.0000353   1.4301884   9.3769680  )
         9           O1  tau(   9) = (   3.2813214   0.0053726  11.3480220  )
        10           O1  tau(  10) = (  -0.0004909   5.9494466  10.5591019  )
        11           O1  tau(  11) = (   1.2709337   1.5062281  12.6398922  )
        12           O1  tau(  12) = (   5.2659652   1.5004022  12.6256763  )
        13           Ti1 tau(  13) = (   0.0747037   2.9811850  12.8215060  )
        14           Ti1 tau(  14) = (   3.3904977   1.4744036  12.5039750  )
        15           O1  tau(  15) = (   6.5763451   5.9564350  14.6046450  )
        16           O1  tau(  16) = (   3.2806839   0.0238217  13.9603601  )
        17           O1  tau(  17) = (   4.5226094   1.5694261  16.0518702  )
        18           O1  tau(  18) = (   2.0202940   1.5641231  16.0352509  )
        19           Ti1 tau(  19) = (   3.2640091   3.0260151  15.6942499  )
        20           Ti1 tau(  20) = (   6.5358820   1.5903963  16.1090211  )
        21           O1  tau(  21) = (   3.2904802   0.0005063   4.7018136  )
        22           O1  tau(  22) = (   6.5569505   0.0478586  17.2430089  )
        23           O1  tau(  23) = (   1.3043587   1.4918075   6.0039043  )
        24           O1  tau(  24) = (   5.2767064   1.4903225   6.0039473  )
        25           Ti1 tau(  25) = (   0.0000382   5.9609847   6.0000000  )
        26           Ti1 tau(  26) = (   3.2902200   4.4714249   6.0002472  )
        27           O1  tau(  27) = (   0.0002396   2.9813036   7.9858123  )
        28           O1  tau(  28) = (   3.2902150   2.9813002   7.3038282  )
        29           O1  tau(  29) = (   4.5938453   4.4726049   9.2879030  )
        30           O1  tau(  30) = (   1.9864658   4.4711199   9.2879459  )
        31           Ti1 tau(  31) = (   3.2859829   5.8469316   9.1661464  )
        32           Ti1 tau(  32) = (  -0.0001559   4.4089299   9.3799519  )
        33           O1  tau(  33) = (   3.2865236   2.9807090  11.3458169  )
        34           O1  tau(  34) = (   6.5781283   2.9667683  10.5610256  )
        35           O1  tau(  35) = (   1.2712900   4.4620179  12.6345536  )
        36           O1  tau(  36) = (   5.2651022   4.4720110  12.6184623  )
        37           Ti1 tau(  37) = (   0.0601624   5.9591143  12.7910897  )
        38           Ti1 tau(  38) = (   3.3902089   4.4660181  12.4873354  )
        39           O1  tau(  39) = (   6.5660314   2.9936061  14.6787526  )
        40           O1  tau(  40) = (   3.2777068   3.0094971  13.9036223  )
        41           O1  tau(  41) = (   4.5190982   4.4944638  16.0861991  )
        42           O1  tau(  42) = (   2.0255100   4.4980322  16.0740450  )
        43           Ti1 tau(  43) = (   3.2415938   0.0554625  15.8014791  )
        44           Ti1 tau(  44) = (   6.5310484   4.6110724  16.1360643  )
        45           O1  tau(  45) = (   3.2900926   2.9813045   4.7018136  )
        46           O1  tau(  46) = (   1.3039711   4.4726057   6.0039043  )
        47           O1  tau(  47) = (   5.2763189   4.4711207   6.0039473  )
        48           C1  tau(  48) = (   0.0160176   3.0093394  17.4896075  )
        49           H1  tau(  49) = (   0.0793418   3.1169436  18.5737113  )
        50           O1  tau(  50) = (   3.2580281   0.1500328  18.1801156  )
        51           H1  tau(  51) = (   4.0450954   5.6463884  18.4936456  )
        52           H1  tau(  52) = (   2.4770123   5.6427573  18.5175526  )

     number of k points=    10  Fermi-Dirac smearing, width (Ry)=  0.0073
                       cart. coord. in units 2pi/alat
        k(    1) = (   0.0000000   0.0000000   0.0000000), wk =   0.1250000
        k(    2) = (   0.0000000   0.0419351   0.0000000), wk =   0.2500000
        k(    3) = (   0.0000000  -0.0838702   0.0000000), wk =   0.1250000
        k(    4) = (   0.0379955   0.0000049   0.0000000), wk =   0.2500000
        k(    5) = (   0.0379955   0.0419400   0.0000000), wk =   0.2500000
        k(    6) = (   0.0379955  -0.0838652   0.0000000), wk =   0.2500000
        k(    7) = (   0.0379955  -0.0419301   0.0000000), wk =   0.2500000
        k(    8) = (  -0.0759910  -0.0000099   0.0000000), wk =   0.1250000
        k(    9) = (  -0.0759910   0.0419252   0.0000000), wk =   0.2500000
        k(   10) = (  -0.0759910  -0.0838800   0.0000000), wk =   0.1250000

     Initial potential from superposition of free atoms

     starting charge  374.99918, renormalised to  391.00000

     negative rho (up, down):  1.887E-02 0.000E+00

     %%%%%%%%%%%%%%%%%%%%%%%%%%%%%%%%%%%%%%%%%%%%%%%%%%%%%%%%%%%%%%%%%%%%%%%%
     %                                                                      %
     % You are using vdW-DF, which was implemented by the Thonhauser group. %
     % Please cite the following two papers that made this development      %
     % possible and the two reviews that describe the various versions:     %
     %                                                                      %
     %   T. Thonhauser et al., PRL 115, 136402 (2015).                      %
     %   T. Thonhauser et al., PRB 76, 125112 (2007).                       %
     %   K. Berland et al., Rep. Prog. Phys. 78, 066501 (2015).             %
     %   D.C. Langreth et al., J. Phys.: Condens. Matter 21, 084203 (2009). %
     %                                                                      %
     %                                                                      %
     % If you are calculating the stress with vdW-DF, please also cite:     %
     %                                                                      %
     %   R. Sabatini et al., J. Phys.: Condens. Matter 24, 424209 (2012).   %
     %                                                                      %
     %%%%%%%%%%%%%%%%%%%%%%%%%%%%%%%%%%%%%%%%%%%%%%%%%%%%%%%%%%%%%%%%%%%%%%%%

     Adding external electric field

     Computed dipole along edir(3) :
        Dipole               -4.6199 Ry au,        -11.7425 Debye
        Dipole field         -0.0087 Ry au,

        Potential amp.        0.8082 Ry
        Total length         46.3494 bohr

     Starting wfcs are  295 atomic wfcs
  @ DRIVER MODE: Message from server: STATUS
  @ DRIVER MODE: Message from server: POSDATA
  @ DRIVER MODE: Reading and sharing cell
  @ DRIVER MODE: Reading and sharing positions
  @ DRIVER MODE: Received positions

     Self-consistent Calculation

     iteration #  1     ecut=    29.40 Ry     beta= 0.05
     Davidson diagonalization with overlap
     c_bands:  4 eigenvalues not converged
     c_bands:  1 eigenvalues not converged
     c_bands:  1 eigenvalues not converged
     c_bands:  1 eigenvalues not converged
     c_bands:  2 eigenvalues not converged
     c_bands:  1 eigenvalues not converged
     c_bands:  3 eigenvalues not converged
     c_bands:  1 eigenvalues not converged
     ethr =  1.00E-05,  avg # of iterations = 19.4

[...]

     total energy              =   -2877.73115609 Ry
     estimated scf accuracy    <     610.07647557 Ry

     iteration #  2     ecut=    29.40 Ry     beta= 0.05
     Davidson diagonalization with overlap
     ethr =  1.00E-02,  avg # of iterations = 15.1

[...]

     iteration # 31     ecut=    29.40 Ry     beta= 0.05
     Davidson diagonalization with overlap
     c_bands:  1 eigenvalues not converged
     c_bands:  1 eigenvalues not converged
     c_bands:  1 eigenvalues not converged
     c_bands:  1 eigenvalues not converged
     ethr =  1.73E-06,  avg # of iterations = 15.5

[...]

     total energy              =   -2931.21618231 Ry
     estimated scf accuracy    <       0.00000012 Ry

     iteration # 49     ecut=    29.40 Ry     beta= 0.05
     Davidson diagonalization with overlap
     ethr =  3.19E-11,  avg # of iterations =  5.0

     negative rho (up, down):  1.827E-02 0.000E+00

     Adding external electric field

     Computed dipole along edir(3) :
        Dipole                0.7821 Ry au,          1.9878 Debye
        Dipole field          0.0015 Ry au,

        Potential amp.       -0.1368 Ry
        Total length         46.3494 bohr

     End of self-consistent calculation

          k = 0.0000 0.0000 0.0000 ( 18029 PWs)   bands (ev):

   -56.2795 -56.2458 -55.9096 -55.8901 -55.8710 -55.7108 -55.6592 -55.6521
   -55.6180 -55.5728 -55.5693 -55.5374 -55.0519 -55.0291 -55.0179 -54.9696
   -32.7064 -32.5276 -32.4995 -32.4706 -32.4455 -32.3795 -32.3333 -32.3025
   -32.2101 -32.1424 -32.1354 -32.1328 -32.1202 -32.1156 -32.0915 -32.0781
   -32.0746 -32.0664 -32.0312 -31.9267 -31.9059 -31.8954 -31.8895 -31.8842
   -31.8778 -31.8650 -31.8231 -31.8096 -31.7985 -31.7892 -31.7677 -31.7518
   -31.7477 -31.7366 -31.7306 -31.6765 -31.5649 -31.4513 -31.3791 -31.3553
   -31.2983 -31.2696 -31.2652 -31.2614 -31.1846 -31.1703 -31.0728 -31.0388
   -19.2505 -16.5806 -16.4303 -16.1922 -16.0566 -15.9621 -15.7866 -15.6439
   -15.6166 -15.5231 -15.5191 -15.4342 -15.4247 -15.3827 -15.3760 -15.3724
   -15.3562 -15.3258 -15.2863 -15.2770 -15.2698 -15.2385 -15.1772 -15.0848
   -15.0580 -15.0110 -14.9069 -14.8950 -14.8622 -14.6843 -13.5459 -13.4326
    -7.5502  -7.0899  -4.0241  -3.9403  -3.8229  -3.7814  -3.6919  -3.5788
    -3.3540  -3.3487  -3.0753  -3.0390  -2.9845  -2.9571  -2.9435  -2.8768
    -2.8030  -2.7597  -2.7214  -2.7024  -2.6837  -2.6604  -2.6556  -2.5900
    -2.5483  -2.4920  -2.4812  -2.4620  -2.3764  -2.3066  -2.2513  -2.2226
    -2.2156  -2.1759  -2.0984  -2.0807  -2.0675  -2.0152  -1.9003  -1.8185
    -1.7480  -1.7163  -1.6479  -1.6144  -1.5348  -1.4367  -1.3880  -1.3100
    -1.2921  -1.2872  -1.2248  -1.2072  -1.1312  -1.0415  -0.9816  -0.9295
    -0.8399  -0.8184  -0.7904  -0.7427  -0.7256  -0.6879  -0.6593  -0.6232
    -0.5693  -0.5580  -0.4737  -0.3257  -0.3087  -0.2836  -0.2677  -0.2261
    -0.1915  -0.1309  -0.1086  -0.0598  -0.0395   0.0039   0.0165   0.0553
     0.0841   0.1432   0.2601   0.2802   0.2989   0.3740   0.4882   0.5344
     0.5873   0.6895   0.7019   0.9032   0.9269   0.9755   1.1904   1.2316
     1.5606   1.6333   1.8878   2.6337   2.9924   3.1759   3.4650   3.4805
     3.5132   3.5860   3.7132   3.7473   3.8152

[...]

          k = 0.0380-0.0419 0.0000 ( 17876 PWs)   bands (ev):

[...]

          k =-0.0760-0.0000 0.0000 ( 17886 PWs)   bands (ev):

[...]

          k =-0.0760-0.0839 0.0000 ( 17948 PWs)   bands (ev):

   -56.2641 -56.2610 -55.8975 -55.8884 -55.8828 -55.7124 -55.6557 -55.6365
   -55.6334 -55.5728 -55.5573 -55.5527 -55.0348 -55.0348 -55.0237 -54.9748
   -32.5252 -32.5226 -32.5149 -32.5113 -32.4246 -32.4221 -32.2606 -32.2414
   -32.1793 -32.1698 -32.1544 -32.1060 -32.1053 -32.0982 -32.0862 -32.0614
   -32.0190 -31.9719 -31.9652 -31.9634 -31.9141 -31.9040 -31.8947 -31.8901
   -31.8841 -31.8737 -31.8718 -31.8637 -31.8468 -31.8440 -31.8137 -31.8064
   -31.7723 -31.7672 -31.7631 -31.7586 -31.4543 -31.3682 -31.3682 -31.3267
   -31.2947 -31.2675 -31.2657 -31.2654 -31.2272 -31.2271 -31.1855 -31.0783
   -19.2497 -16.0589 -15.9589 -15.8175 -15.7837 -15.7459 -15.7449 -15.6992
   -15.6653 -15.6362 -15.6318 -15.5439 -15.5140 -15.4892 -15.4849 -15.4185
   -15.4116 -15.4058 -15.4020 -15.3321 -15.3266 -15.2287 -15.2197 -15.1388
   -15.1315 -15.0964 -15.0778 -15.0344 -15.0320 -14.8303 -13.5351 -13.5349
    -7.5555  -7.0815  -3.6431  -3.3519  -3.1586  -3.0284  -2.9867  -2.8988
    -2.8733  -2.8640  -2.8635  -2.8005  -2.7565  -2.7457  -2.7053  -2.6792
    -2.6728  -2.6504  -2.6462  -2.6152  -2.6131  -2.6080  -2.6056  -2.5930
    -2.5570  -2.5086  -2.5056  -2.4936  -2.4864  -2.4382  -2.3689  -2.3322
    -2.2580  -2.1639  -2.1628  -2.0905  -2.0552  -1.9815  -1.9719  -1.9663
    -1.9475  -1.9217  -1.7831  -1.6758  -1.6523  -1.6357  -1.5853  -1.5761
    -1.5224  -1.3290  -1.3116  -1.2525  -1.1847  -1.1618  -1.1224  -1.1112
    -1.0502  -1.0460  -1.0258  -0.9902  -0.9816  -0.9365  -0.9087  -0.8214
    -0.7987  -0.7709  -0.7510  -0.6825  -0.6561  -0.6148  -0.5767  -0.5493
    -0.5311  -0.5075  -0.4359  -0.3932  -0.3278  -0.2838  -0.2187   0.0230
     0.0306   0.2200   0.2965   0.3864   0.4521   0.4725   0.4862   0.5487
     0.6177   0.6244   0.6402   0.6615   0.7359   0.7406   1.3616   1.3641
     1.4149   1.4153   2.1031   2.5269   3.5374   3.5421   3.5568   3.5777
     3.5856   3.6307   3.6464   3.6798   3.9475

     the Fermi energy is     2.4955 ev

!    total energy              =   -2931.21629602 Ry
     estimated scf accuracy    <       0.00000006 Ry
     smearing contrib. (-TS)   =      -0.01053968 Ry
     internal energy E=F+TS    =   -2931.20575634 Ry

     The total energy is F=E-TS. E is the sum of the following terms:
     one-electron contribution =  -24526.30196298 Ry
     hartree contribution      =   12349.60384388 Ry
     xc contribution           =    -481.85224074 Ry
     ewald contribution        =    9727.34344924 Ry
     electric field correction =       0.00115426 Ry

     convergence has been achieved in  49 iterations

     Forces acting on atoms (cartesian axes, Ry/au):

     atom    1 type  1   force =     0.00016843   -0.00009130    0.14782049
     atom    2 type  1   force =     0.00001357    0.00056126   -0.16849535
     atom    3 type  2   force =     0.00012286    0.00257761   -0.06042959
     atom    4 type  2   force =    -0.00023201   -0.00139875    0.04034369
     atom    5 type  2   force =    -0.02184785    0.00009282    0.00384094
     atom    6 type  2   force =     0.02069375   -0.00003782    0.00304966
     atom    7 type  1   force =     0.00105780    0.00044108    0.00002246
     atom    8 type  1   force =    -0.00060333    0.00110860   -0.00046782
     atom    9 type  2   force =    -0.00007436    0.00015463   -0.00039211
     atom   10 type  2   force =     0.00022754   -0.00015836    0.00047151
     atom   11 type  2   force =     0.00010322   -0.00022684    0.00009080
     atom   12 type  2   force =    -0.00027473   -0.00026977   -0.00007126
     atom   13 type  1   force =     0.00016273   -0.00045636   -0.00053722
     atom   14 type  1   force =     0.00022764   -0.00025635    0.00054996
     atom   15 type  2   force =     0.00004864   -0.00021567    0.00021356
     atom   16 type  2   force =    -0.00003086    0.00011041   -0.00004259
     atom   17 type  2   force =    -0.00016933    0.00011991   -0.00039571
     atom   18 type  2   force =    -0.00033821   -0.00007881   -0.00008544
     atom   19 type  1   force =     0.00044151    0.00078988   -0.00009966
     atom   20 type  1   force =    -0.00041132   -0.00067847    0.00117486
     atom   21 type  2   force =     0.00009139   -0.00010174    0.10204032
     atom   22 type  2   force =    -0.00005288    0.00035219   -0.00027074
     atom   23 type  2   force =    -0.07529520    0.00018242   -0.03470838
     atom   24 type  2   force =     0.07531983    0.00062047   -0.03479897
     atom   25 type  1   force =    -0.00003147   -0.00011802    0.14836942
     atom   26 type  1   force =     0.00006035   -0.00186709   -0.16841594
     atom   27 type  2   force =     0.00016138    0.00246427   -0.05953815
     atom   28 type  2   force =    -0.00017119   -0.00144694    0.04094897
     atom   29 type  2   force =    -0.02195377    0.00144621    0.00420226
     atom   30 type  2   force =     0.02065271    0.00072991    0.00338667
     atom   31 type  1   force =     0.00110265   -0.00045288    0.00004500
     atom   32 type  1   force =    -0.00066442   -0.00068263   -0.00042305
     atom   33 type  2   force =     0.00011269   -0.00014123   -0.00061682
     atom   34 type  2   force =     0.00021760    0.00062341   -0.00051950
     atom   35 type  2   force =    -0.00015029    0.00015265   -0.00016306
     atom   36 type  2   force =     0.00053287   -0.00031498   -0.00013066
     atom   37 type  1   force =     0.00007259    0.00047576    0.00010517
     atom   38 type  1   force =    -0.00006962    0.00035349    0.00043079
     atom   39 type  2   force =     0.00000341   -0.00058158    0.00048695
     atom   40 type  2   force =    -0.00005528   -0.00042881    0.00044916
     atom   41 type  2   force =    -0.00065589   -0.00083974   -0.00010689
     atom   42 type  2   force =     0.00045661   -0.00061132    0.00010265
     atom   43 type  1   force =     0.00064705   -0.00085741   -0.00022131
     atom   44 type  1   force =    -0.00048759   -0.00018830    0.00012589
     atom   45 type  2   force =     0.00008479   -0.00009102    0.10198079
     atom   46 type  2   force =    -0.07531169    0.00009929   -0.03471787
     atom   47 type  2   force =     0.07534370    0.00054071   -0.03481983
     atom   48 type  3   force =    -0.00000041   -0.00086954   -0.00043511
     atom   49 type  4   force =     0.00027617   -0.00014716    0.00024696
     atom   50 type  2   force =    -0.00557918    0.00371238   -0.00233282
     atom   51 type  4   force =     0.00500185   -0.00380616    0.00297661
     atom   52 type  4   force =     0.00105552   -0.00029427   -0.00023971

     Total force =     0.401829     Total SCF correction =     0.000622
  @ DRIVER MODE: Message from server: STATUS
  @ DRIVER MODE: Message from server: GETFORCE
  @ DRIVER MODE: Returning v,forces,stress,ensemble

     Writing output data file ./calc.save/
  @ DRIVER MODE: Message from server: EXIT
  @ DRIVE MODE: Exiting

     General routines

     Parallel routines

   This run was terminated on:  21:16:11  15Sep2021

   JOB DONE.