     Program PWSCF v.6.7GPU starts on 10Sep2021 at  1:17:32

     R & G space division:  proc/nbgrp/npool/nimage =      10
     Reading input from /storage/home/hcoda1/3/ntian30/research/carbon/CxH_vib/CH3_calc/ads_slab/CH3N2H2O_g/out_0015/pw.inp
Warning: card &CELL ignored
Warning: card   CELL_DYNAMICS='IPI', ignored
Warning: card / ignored

     Current dimensions of program PWSCF are:
     Max number of different atomic species (ntypx) = 10
     Max number of k-points (npk) =  40000
     Max angular momentum in pseudopotentials (lmaxx) =  3
     Presently no symmetry can be used with electric field

     Message from routine cell_base_init:
     DEPRECATED: use true lattice parameter, not A to a.u. conversion factor

     IMPORTANT: XC functional enforced from input :
     Exchange-correlation= BEEF-VDW
                           (   1   4  43  14   2   0   0)
     Any further DFT definition will be discarded
     Please, verify this is what you really want

  @ DRIVER MODE: Connecting to
 qe_1139763_2779714.sched-torque.pace.gatech.edummvz_r_g_scratch
  using UNIX socket
  @ DRIVER MODE: Message from server: STATUS
  @ DRIVER MODE: Message from server: INIT
  @ DRIVER MODE: Receiving replica           0          -1
  @ DRIVER MODE: Receiving encoded integer          25
  @ DRIVER MODE:  SCF:  T  FORCE:  T  STRESS:  F  VC:  F  ENSEMBLE:  F
  @ DRIVER MODE:  SCF:  T  FORCE:  T  STRESS:  F  VC:  F  ENSEMBLE:  F

     Using Slab Decomposition

     bravais-lattice index     =            0
     lattice parameter (alat)  =       1.8897  a.u.
     unit-cell volume          =    6658.9804 (a.u.)^3
     number of atoms/cell      =           56
     number of atomic types    =            5
     number of electrons       =       403.00
     number of Kohn-Sham states=          211
     kinetic-energy cutoff     =      29.3995  Ry
     charge density cutoff     =     293.9946  Ry
     scf convergence threshold =      7.3E-08
     mixing beta               =       0.0500
     number of iterations used =            8  plain     mixing
     Exchange-correlation= BEEF-VDW
                           (   1   4  43  14   2   0   0)

     celldm(1)=   1.889726  celldm(2)=   0.000000  celldm(3)=   0.000000
     celldm(4)=   0.000000  celldm(5)=   0.000000  celldm(6)=   0.000000

     crystal axes: (cart. coord. in units of alat)
               a(1) = (   6.579727   0.000000   0.000000 )
               a(2) = (  -0.000775   5.961596   0.000000 )
               a(3) = (   0.000000   0.000000  25.155947 )

     reciprocal axes: (cart. coord. in units 2 pi/alat)
               b(1) = (  0.151982  0.000020  0.000000 )
               b(2) = (  0.000000  0.167740  0.000000 )
               b(3) = (  0.000000  0.000000  0.039752 )

     PseudoPot. # 1 for Ti read from file:
     /storage/coda1/p-amedford6/0/shared/rich_project_chbe-medford/medford-share/data/pseudos_module/espresso/nninc/pbe/van/Ti.UPF
     MD5 check sum: 8e4df49b7f0d34bbd5052bf3f5ea0213
     Pseudo is Ultrasoft, Zval = 12.0
     Generated by new atomic code, or converted to UPF format
     Using radial grid of  851 points,  6 beta functions with:
                l(1) =   0
                l(2) =   0
                l(3) =   1
                l(4) =   1
                l(5) =   2
                l(6) =   2
     Q(r) pseudized with  8 coefficients,  rinner =    1.000   1.000   1.000
                                                       1.000   1.000

     PseudoPot. # 2 for O  read from file:
     /storage/coda1/p-amedford6/0/shared/rich_project_chbe-medford/medford-share/data/pseudos_module/espresso/nninc/pbe/van/O.UPF
     MD5 check sum: 78c19812648e8988a0fe644b0f25305e
     Pseudo is Ultrasoft, Zval =  6.0
     Generated by new atomic code, or converted to UPF format
     Using radial grid of  737 points,  4 beta functions with:
                l(1) =   0
                l(2) =   0
                l(3) =   1
                l(4) =   1
     Q(r) pseudized with  8 coefficients,  rinner =    0.800   0.800   0.800

     PseudoPot. # 3 for N  read from file:
     /storage/coda1/p-amedford6/0/shared/rich_project_chbe-medford/medford-share/data/pseudos_module/espresso/nninc/pbe/van/N.UPF
     MD5 check sum: 90d10febe142ad51ac9d5be1deb811c4
     Pseudo is Ultrasoft, Zval =  5.0
     Generated by new atomic code, or converted to UPF format
     Using radial grid of  729 points,  4 beta functions with:
                l(1) =   0
                l(2) =   0
                l(3) =   1
                l(4) =   1
     Q(r) pseudized with  8 coefficients,  rinner =    0.800   0.800   0.800

     PseudoPot. # 4 for C  read from file:
     /storage/coda1/p-amedford6/0/shared/rich_project_chbe-medford/medford-share/data/pseudos_module/espresso/nninc/pbe/van/C.UPF
     MD5 check sum: 1a69bf6b8db32088f5b2163dbdb77a27
     Pseudo is Ultrasoft, Zval =  4.0
     Generated by new atomic code, or converted to UPF format
     Using radial grid of  721 points,  4 beta functions with:
                l(1) =   0
                l(2) =   0
                l(3) =   1
                l(4) =   1
     Q(r) pseudized with  8 coefficients,  rinner =    0.800   0.800   0.800

     PseudoPot. # 5 for H  read from file:
     /storage/coda1/p-amedford6/0/shared/rich_project_chbe-medford/medford-share/data/pseudos_module/espresso/nninc/pbe/van/H.UPF
     MD5 check sum: b5ee9d7bfd3a09ee7748110bda690ff7
     Pseudo is Ultrasoft, Zval =  1.0
     Generated by new atomic code, or converted to UPF format
     Using radial grid of  615 points,  1 beta functions with:
                l(1) =   0
     Q(r) pseudized with  8 coefficients,  rinner =    0.800

     atomic species   valence    mass     pseudopotential
        Ti1           12.00    47.86700     Ti( 1.00)
        O1             6.00    15.99900     O ( 1.00)
        N1             5.00    14.00700     N ( 1.00)
        C1             4.00    12.01100     C ( 1.00)
        H1             1.00     1.00800     H ( 1.00)

     No symmetry found

   Cartesian axes

     site n.     atom                  positions (alat units)
         1           Ti1 tau(   1) = (   0.0004258   2.9801865   6.0000000  )
         2           Ti1 tau(   2) = (   3.2906075   1.4906267   6.0002472  )
         3           O1  tau(   3) = (   0.0006271   0.0005054   7.9858123  )
         4           O1  tau(   4) = (   3.2906025   0.0005020   7.3038282  )
         5           O1  tau(   5) = (   4.5942328   1.4918067   9.2879030  )
         6           O1  tau(   6) = (   1.9868534   1.4903216   9.2879459  )
         7           Ti1 tau(   7) = (   3.2907910   2.8959150   9.1758416  )
         8           Ti1 tau(   8) = (   0.0015273   1.4827037   9.2680791  )
         9           O1  tau(   9) = (   3.3002115   5.9463602  11.3460011  )
        10           O1  tau(  10) = (   0.0116148   5.9584955  10.6183126  )
        11           O1  tau(  11) = (   1.3192008   1.4768417  12.6238339  )
        12           O1  tau(  12) = (   5.3062067   1.4698383  12.6193417  )
        13           Ti1 tau(  13) = (   6.5330844   2.9444840  12.6148558  )
        14           Ti1 tau(  14) = (   3.2222230   1.4676475  12.5013840  )
        15           O1  tau(  15) = (   0.0064324   5.9471174  14.6352917  )
        16           O1  tau(  16) = (   3.3028336   5.9445487  13.9678148  )
        17           O1  tau(  17) = (   4.5628415   1.5226527  16.0793330  )
        18           O1  tau(  18) = (   2.0474444   1.5206590  16.0184434  )
        19           Ti1 tau(  19) = (   3.3141275   2.9607752  15.6908890  )
        20           Ti1 tau(  20) = (   6.5660065   1.5097775  15.7997320  )
        21           O1  tau(  21) = (   3.2904802   0.0005063   4.7018136  )
        22           O1  tau(  22) = (   0.0269361   0.0086655  17.1987262  )
        23           O1  tau(  23) = (   1.3043587   1.4918075   6.0039043  )
        24           O1  tau(  24) = (   5.2767064   1.4903225   6.0039473  )
        25           Ti1 tau(  25) = (   0.0000382   5.9609847   6.0000000  )
        26           Ti1 tau(  26) = (   3.2902200   4.4714249   6.0002472  )
        27           O1  tau(  27) = (   0.0002396   2.9813036   7.9858123  )
        28           O1  tau(  28) = (   3.2902150   2.9813002   7.3038282  )
        29           O1  tau(  29) = (   4.5938453   4.4726049   9.2879030  )
        30           O1  tau(  30) = (   1.9864658   4.4711199   9.2879459  )
        31           Ti1 tau(  31) = (   3.2891106   5.8743827   9.1763621  )
        32           Ti1 tau(  32) = (   0.0006254   4.4649316   9.2693709  )
        33           O1  tau(  33) = (   3.2944391   2.9688829  11.3444728  )
        34           O1  tau(  34) = (   0.0092240   2.9805883  10.6323155  )
        35           O1  tau(  35) = (   1.3142520   4.4635248  12.6275686  )
        36           O1  tau(  36) = (   5.3078217   4.4601700  12.6226734  )
        37           Ti1 tau(  37) = (   6.5374036   5.9186568  12.5467527  )
        38           Ti1 tau(  38) = (   3.2213306   4.4595164  12.5065882  )
        39           O1  tau(  39) = (   6.5756885   2.9534048  14.6511233  )
        40           O1  tau(  40) = (   3.3206316   2.9687378  13.8980937  )
        41           O1  tau(  41) = (   4.5543359   4.4428353  16.0905846  )
        42           O1  tau(  42) = (   2.0427057   4.4323087  16.0570365  )
        43           Ti1 tau(  43) = (   3.2570595   5.9269474  15.8069103  )
        44           Ti1 tau(  44) = (   6.5609319   4.6488967  16.0725391  )
        45           O1  tau(  45) = (   3.2900926   2.9813045   4.7018136  )
        46           O1  tau(  46) = (   1.3039711   4.4726057   6.0039043  )
        47           O1  tau(  47) = (   5.2763189   4.4711207   6.0039473  )
        48           N1  tau(  48) = (   0.2492319   2.6641403  18.6309932  )
        49           N1  tau(  49) = (   0.0782707   2.8835230  17.4382120  )
        50           C1  tau(  50) = (   0.2622466   3.8134900  19.5663878  )
        51           H1  tau(  51) = (   6.1755609   4.6233469  19.2444151  )
        52           H1  tau(  52) = (   6.5754044   3.4477461  20.5519103  )
        53           H1  tau(  53) = (   1.2857956   4.2073973  19.6006198  )
        54           O1  tau(  54) = (   3.1761146   0.0362278  18.2233714  )
        55           H1  tau(  55) = (   3.9097821   0.6076051  18.5038283  )
        56           H1  tau(  56) = (   2.3516031   0.5117379  18.4309238  )

     number of k points=    10  Fermi-Dirac smearing, width (Ry)=  0.0073
                       cart. coord. in units 2pi/alat
        k(    1) = (   0.0000000   0.0000000   0.0000000), wk =   0.1250000
        k(    2) = (   0.0000000   0.0419351   0.0000000), wk =   0.2500000
        k(    3) = (   0.0000000  -0.0838702   0.0000000), wk =   0.1250000
        k(    4) = (   0.0379955   0.0000049   0.0000000), wk =   0.2500000
        k(    5) = (   0.0379955   0.0419400   0.0000000), wk =   0.2500000
        k(    6) = (   0.0379955  -0.0838652   0.0000000), wk =   0.2500000
        k(    7) = (   0.0379955  -0.0419301   0.0000000), wk =   0.2500000
        k(    8) = (  -0.0759910  -0.0000099   0.0000000), wk =   0.1250000
        k(    9) = (  -0.0759910   0.0419252   0.0000000), wk =   0.2500000
        k(   10) = (  -0.0759910  -0.0838800   0.0000000), wk =   0.1250000

     Initial potential from superposition of free atoms

     starting charge  386.99914, renormalised to  403.00000

     negative rho (up, down):  1.449E-02 0.000E+00

     %%%%%%%%%%%%%%%%%%%%%%%%%%%%%%%%%%%%%%%%%%%%%%%%%%%%%%%%%%%%%%%%%%%%%%%%
     %                                                                      %
     % You are using vdW-DF, which was implemented by the Thonhauser group. %
     % Please cite the following two papers that made this development      %
     % possible and the two reviews that describe the various versions:     %
     %                                                                      %
     %   T. Thonhauser et al., PRL 115, 136402 (2015).                      %
     %   T. Thonhauser et al., PRB 76, 125112 (2007).                       %
     %   K. Berland et al., Rep. Prog. Phys. 78, 066501 (2015).             %
     %   D.C. Langreth et al., J. Phys.: Condens. Matter 21, 084203 (2009). %
     %                                                                      %
     %                                                                      %
     % If you are calculating the stress with vdW-DF, please also cite:     %
     %                                                                      %
     %   R. Sabatini et al., J. Phys.: Condens. Matter 24, 424209 (2012).   %
     %                                                                      %
     %%%%%%%%%%%%%%%%%%%%%%%%%%%%%%%%%%%%%%%%%%%%%%%%%%%%%%%%%%%%%%%%%%%%%%%%

     Adding external electric field

     Computed dipole along edir(3) :
        Dipole              -13.2089 Ry au,        -33.5737 Debye
        Dipole field         -0.0249 Ry au,

        Potential amp.        2.3107 Ry
        Total length         46.3494 bohr

     Starting wfcs are  305 atomic wfcs
  @ DRIVER MODE: Message from server: STATUS
  @ DRIVER MODE: Message from server: POSDATA
  @ DRIVER MODE: Reading and sharing cell
  @ DRIVER MODE: Reading and sharing positions
  @ DRIVER MODE: Received positions

     Self-consistent Calculation

     iteration #  1     ecut=    29.40 Ry     beta= 0.05
     Davidson diagonalization with overlap
     c_bands:  4 eigenvalues not converged
     c_bands:  2 eigenvalues not converged
     c_bands:  2 eigenvalues not converged
     c_bands:  5 eigenvalues not converged
     c_bands:  1 eigenvalues not converged
     c_bands:  1 eigenvalues not converged
     c_bands:  4 eigenvalues not converged
     c_bands:  1 eigenvalues not converged
     c_bands:  1 eigenvalues not converged
     ethr =  1.00E-05,  avg # of iterations = 28.0

[...]

     total energy              =   -2367.59331332 Ry
     estimated scf accuracy    <    6915.83037706 Ry

     iteration #  2     ecut=    29.40 Ry     beta= 0.05
     Davidson diagonalization with overlap
     ethr =  1.00E-02,  avg # of iterations = 22.9

[...]

     iteration # 57     ecut=    29.40 Ry     beta= 0.05
     Davidson diagonalization with overlap
     c_bands:  1 eigenvalues not converged
     ethr =  4.12E-11,  avg # of iterations = 11.0

[...]

     total energy              =   -2974.00253779 Ry
     estimated scf accuracy    <       0.00000012 Ry

     iteration # 58     ecut=    29.40 Ry     beta= 0.05
     Davidson diagonalization with overlap
     ethr =  3.09E-11,  avg # of iterations =  8.4

     negative rho (up, down):  1.478E-02 0.000E+00

     Adding external electric field

     Computed dipole along edir(3) :
        Dipole                0.8932 Ry au,          2.2704 Debye
        Dipole field          0.0017 Ry au,

        Potential amp.       -0.1563 Ry
        Total length         46.3494 bohr

     End of self-consistent calculation

          k = 0.0000 0.0000 0.0000 ( 18029 PWs)   bands (ev):

   -55.6174 -55.5833 -55.5754 -55.5581 -55.5387 -55.4454 -55.4273 -55.4063
   -55.3934 -55.3925 -55.3635 -55.3588 -55.0004 -54.8598 -54.5965 -54.5624
   -32.1175 -32.0999 -31.9596 -31.9429 -31.9261 -31.9103 -31.8820 -31.8760
   -31.8603 -31.8064 -31.8002 -31.7817 -31.7697 -31.7537 -31.7373 -31.7286
   -31.7218 -31.7087 -31.7028 -31.6746 -31.6657 -31.6482 -31.6198 -31.6155
   -31.5996 -31.5970 -31.5965 -31.5915 -31.5673 -31.5620 -31.5596 -31.5546
   -31.5451 -31.5399 -31.5340 -31.5062 -31.5042 -31.2704 -31.1960 -31.1202
   -31.1033 -31.0688 -31.0037 -30.9151 -30.8927 -30.8203 -30.7338 -30.6229
   -18.8626 -18.3190 -16.3090 -16.0807 -15.8506 -15.7633 -15.7145 -15.5150
   -15.4131 -15.3410 -15.2181 -15.1555 -15.1432 -15.1293 -15.1099 -15.1077
   -15.0560 -15.0489 -15.0445 -15.0371 -15.0037 -14.9636 -14.9486 -14.9378
   -14.8440 -14.7704 -14.7535 -14.7294 -14.6842 -14.6678 -14.1938 -13.0986
   -12.9821 -11.2883  -6.8791  -6.6369  -4.2166  -3.8472  -3.8109  -3.6818
    -3.5544  -3.5213  -3.4395  -3.3647  -3.2295  -3.1967  -3.0348  -2.8449
    -2.7840  -2.7580  -2.7049  -2.6383  -2.5246  -2.4656  -2.4210  -2.4137
    -2.3965  -2.3877  -2.3652  -2.3527  -2.2508  -2.2296  -2.1505  -2.1443
    -2.0950  -1.9784  -1.9638  -1.9295  -1.9155  -1.8931  -1.8705  -1.8502
    -1.8403  -1.8164  -1.7646  -1.6948  -1.6266  -1.5928  -1.5023  -1.4303
    -1.3928  -1.3470  -1.2274  -1.1333  -1.0991  -1.0583  -1.0501  -1.0364
    -1.0091  -0.9908  -0.8785  -0.7643  -0.7469  -0.6817  -0.6221  -0.5410
    -0.5140  -0.4346  -0.3808  -0.3623  -0.3590  -0.3130  -0.2818  -0.2239
    -0.0904  -0.0385  -0.0049   0.0046   0.0636   0.1067   0.1353   0.2229
     0.2295   0.2744   0.3122   0.3450   0.3580   0.3733   0.3917   0.4213
     0.4360   0.6276   0.6636   0.7031   0.7405   0.7835   0.9216   0.9464
     1.0438   1.1534   1.3522   1.4259   1.5311   1.6180   1.9974   2.0432
     2.7478   3.5178   3.6050   3.6499   3.6791   3.7626   3.7773   3.9726
     3.9886   4.0272   4.0969

[...]

          k = 0.0380-0.0419 0.0000 ( 17876 PWs)   bands (ev):

[...]

          k =-0.0760-0.0000 0.0000 ( 17886 PWs)   bands (ev):

[...]

          k =-0.0760-0.0839 0.0000 ( 17948 PWs)   bands (ev):

   -55.6007 -55.5999 -55.5612 -55.5566 -55.5526 -55.4351 -55.4168 -55.4110
   -55.4090 -55.3774 -55.3741 -55.3649 -54.9985 -54.8616 -54.5795 -54.5793
   -31.9311 -31.9154 -31.9149 -31.9149 -31.8961 -31.8953 -31.8451 -31.8391
   -31.8182 -31.7930 -31.7809 -31.7716 -31.7673 -31.7298 -31.7247 -31.7235
   -31.7203 -31.7194 -31.7167 -31.7142 -31.7118 -31.7058 -31.6691 -31.6523
   -31.6337 -31.6295 -31.6221 -31.6102 -31.6099 -31.6070 -31.6015 -31.5920
   -31.5885 -31.5776 -31.5767 -31.5678 -31.4174 -31.2723 -31.2119 -31.1594
   -31.1213 -31.0953 -30.9055 -30.9053 -30.8165 -30.8163 -30.7771 -30.7770
   -18.8615 -18.3154 -15.7673 -15.6571 -15.5667 -15.5326 -15.4748 -15.4055
   -15.3978 -15.3111 -15.2953 -15.2922 -15.2259 -15.2055 -15.1681 -15.1614
   -15.1387 -15.1229 -15.1165 -15.0671 -15.0550 -15.0523 -15.0455 -15.0405
   -14.9641 -14.9341 -14.9302 -14.9208 -14.7933 -14.6685 -14.3654 -13.0840
   -13.0838 -11.2861  -6.9058  -6.6144  -4.1433  -3.8738  -3.7800  -3.2137
    -3.0498  -2.8365  -2.8176  -2.7217  -2.7100  -2.6753  -2.5443  -2.5037
    -2.4624  -2.4462  -2.4276  -2.4262  -2.4088  -2.4031  -2.3811  -2.3538
    -2.3313  -2.3116  -2.2830  -2.2796  -2.2667  -2.2535  -2.2301  -2.2183
    -2.2015  -2.1710  -2.1453  -2.1292  -2.0613  -1.9884  -1.8299  -1.7914
    -1.7526  -1.7463  -1.7291  -1.6982  -1.6832  -1.6651  -1.6181  -1.5825
    -1.4876  -1.3528  -1.3354  -1.3107  -1.2873  -1.2781  -1.2079  -1.0999
    -1.0809  -1.0095  -1.0008  -0.8945  -0.8867  -0.8011  -0.7937  -0.7815
    -0.7080  -0.6812  -0.6658  -0.5777  -0.5754  -0.5503  -0.5020  -0.4733
    -0.4098  -0.3680  -0.3374  -0.3341  -0.2881  -0.2659  -0.2217  -0.1539
    -0.1016  -0.0656   0.0310   0.1352   0.2356   0.3511   0.4658   0.4802
     0.5625   0.5955   0.6805   0.6958   0.7042   0.7768   0.7817   0.8808
     0.9248   0.9394   0.9801   1.1026   1.7892   1.7906   1.8627   1.8630
     2.7720   3.7348   3.8555   3.8977   3.9154   3.9894   4.0322   4.0516
     4.0540   4.0880   4.1939

     the Fermi energy is     3.5166 ev

!    total energy              =   -2974.00259676 Ry
     estimated scf accuracy    <       0.00000007 Ry
     smearing contrib. (-TS)   =      -0.02182370 Ry
     internal energy E=F+TS    =   -2973.98077306 Ry

     The total energy is F=E-TS. E is the sum of the following terms:
     one-electron contribution =  -23848.10807651 Ry
     hartree contribution      =   12018.48963726 Ry
     xc contribution           =    -494.02899528 Ry
     ewald contribution        =    9349.66515575 Ry
     electric field correction =       0.00150572 Ry

     convergence has been achieved in  58 iterations

     Forces acting on atoms (cartesian axes, Ry/au):

     atom    1 type  1   force =     0.00004036   -0.00025158    0.09649758
     atom    2 type  1   force =     0.00005693   -0.00044685   -0.17544437
     atom    3 type  2   force =     0.00011551   -0.00009954   -0.02475602
     atom    4 type  2   force =     0.00004277   -0.00157639    0.05349773
     atom    5 type  2   force =    -0.01197641   -0.00100481    0.00308071
     atom    6 type  2   force =     0.01371794   -0.00064689    0.00291855
     atom    7 type  1   force =     0.00074844    0.00069554   -0.00680098
     atom    8 type  1   force =     0.00022091    0.00948611    0.02714367
     atom    9 type  2   force =    -0.00014575   -0.00006345   -0.00006939
     atom   10 type  2   force =    -0.00204870    0.00048393   -0.01822479
     atom   11 type  2   force =    -0.00057916    0.00033038    0.00011570
     atom   12 type  2   force =     0.00069265    0.00013121    0.00030316
     atom   13 type  1   force =    -0.00016858   -0.00009485   -0.00010927
     atom   14 type  1   force =    -0.00041117   -0.00014707    0.00028696
     atom   15 type  2   force =     0.00002941   -0.00058138    0.00061865
     atom   16 type  2   force =    -0.00026105   -0.00007256   -0.00040118
     atom   17 type  2   force =    -0.00024901    0.00018065   -0.00028746
     atom   18 type  2   force =     0.00003727    0.00018943   -0.00029736
     atom   19 type  1   force =    -0.00030901    0.00018930    0.00000216
     atom   20 type  1   force =    -0.00043694    0.00004944    0.00044011
     atom   21 type  2   force =     0.00008471    0.00001471    0.10325628
     atom   22 type  2   force =     0.00015983    0.00048781    0.00007105
     atom   23 type  2   force =    -0.07146960   -0.00009422   -0.02775262
     atom   24 type  2   force =     0.07142815    0.00035861   -0.02782443
     atom   25 type  1   force =     0.00017834   -0.00033741    0.09617295
     atom   26 type  1   force =     0.00000665   -0.00037309   -0.17577700
     atom   27 type  2   force =     0.00021057   -0.00020697   -0.02375141
     atom   28 type  2   force =     0.00002468   -0.00128212    0.05295949
     atom   29 type  2   force =    -0.01221552    0.00024078    0.00290951
     atom   30 type  2   force =     0.01387516    0.00081968    0.00272770
     atom   31 type  1   force =     0.00041839    0.00343617   -0.00983530
     atom   32 type  1   force =     0.00036446   -0.01130733    0.02755642
     atom   33 type  2   force =     0.00010317    0.00014543   -0.00001069
     atom   34 type  2   force =    -0.00188264   -0.00045141   -0.02416991
     atom   35 type  2   force =     0.00040692    0.00002766   -0.00027570
     atom   36 type  2   force =    -0.00028752   -0.00006696    0.00007190
     atom   37 type  1   force =    -0.00031288   -0.00013142    0.00013503
     atom   38 type  1   force =    -0.00080463    0.00013501   -0.00045716
     atom   39 type  2   force =     0.00009306   -0.00029667   -0.00026095
     atom   40 type  2   force =     0.00019903    0.00034086    0.00042968
     atom   41 type  2   force =     0.00019256    0.00010694   -0.00035338
     atom   42 type  2   force =    -0.00041723   -0.00008472   -0.00032392
     atom   43 type  1   force =     0.00034563    0.00078587    0.00030140
     atom   44 type  1   force =    -0.00011900    0.00105409   -0.00050398
     atom   45 type  2   force =     0.00008401   -0.00002785    0.10324374
     atom   46 type  2   force =    -0.07147682   -0.00002530   -0.02776255
     atom   47 type  2   force =     0.07143500    0.00040562   -0.02781848
     atom   48 type  3   force =    -0.00022798   -0.00486920   -0.00224902
     atom   49 type  3   force =    -0.00017047    0.00007816    0.00046561
     atom   50 type  4   force =    -0.00054213    0.01714324   -0.00364553
     atom   51 type  5   force =     0.00535908   -0.00720566    0.00188414
     atom   52 type  5   force =    -0.00081668   -0.00299141    0.00309891
     atom   53 type  5   force =    -0.00299528   -0.00333685    0.00011596
     atom   54 type  2   force =     0.00012099    0.00054906   -0.00075391
     atom   55 type  5   force =    -0.00006015   -0.00009845   -0.00004411
     atom   56 type  5   force =    -0.00040828    0.00030671   -0.00034389

     Total force =     0.368637     Total SCF correction =     0.000641
  @ DRIVER MODE: Message from server: STATUS
  @ DRIVER MODE: Message from server: GETFORCE
  @ DRIVER MODE: Returning v,forces,stress,ensemble

     Writing output data file ./calc.save/
  @ DRIVER MODE: Message from server: EXIT
  @ DRIVE MODE: Exiting

     General routines

     Parallel routines

   This run was terminated on:   1:33:49  10Sep2021

   JOB DONE.