     Program PWSCF v.6.7GPU starts on 24Aug2021 at  2:42:49

     R & G space division:  proc/nbgrp/npool/nimage =       6
     Reading input from /storage/home/hcoda1/3/ntian30/research/carbon/CH_vib/ads_slab/CHNHH_a/out_0028/pw.inp
Warning: card &CELL ignored
Warning: card   CELL_DYNAMICS='IPI', ignored
Warning: card / ignored

     Current dimensions of program PWSCF are:
     Max number of different atomic species (ntypx) = 10
     Max number of k-points (npk) =  40000
     Max angular momentum in pseudopotentials (lmaxx) =  3
     Presently no symmetry can be used with electric field

     Message from routine cell_base_init:
     DEPRECATED: use true lattice parameter, not A to a.u. conversion factor

     IMPORTANT: XC functional enforced from input :
     Exchange-correlation= BEEF-VDW
                           (   1   4  43  14   2   0   0)
     Any further DFT definition will be discarded
     Please, verify this is what you really want

  @ DRIVER MODE: Connecting to
 qe_1139763_2632797.sched-torque.pace.gatech.edu9znwca6a_scratch
  using UNIX socket
  @ DRIVER MODE: Message from server: STATUS
  @ DRIVER MODE: Message from server: INIT
  @ DRIVER MODE: Receiving replica           0          -1
  @ DRIVER MODE: Receiving encoded integer          25
  @ DRIVER MODE:  SCF:  T  FORCE:  T  STRESS:  F  VC:  F  ENSEMBLE:  F
  @ DRIVER MODE:  SCF:  T  FORCE:  T  STRESS:  F  VC:  F  ENSEMBLE:  F

     Using Slab Decomposition

     bravais-lattice index     =            0
     lattice parameter (alat)  =       1.8897  a.u.
     unit-cell volume          =    6658.9804 (a.u.)^3
     number of atoms/cell      =           52
     number of atomic types    =            5
     number of electrons       =       390.00
     number of Kohn-Sham states=          205
     kinetic-energy cutoff     =      29.3995  Ry
     charge density cutoff     =     293.9946  Ry
     scf convergence threshold =      7.3E-08
     mixing beta               =       0.0500
     number of iterations used =            8  plain     mixing
     Exchange-correlation= BEEF-VDW
                           (   1   4  43  14   2   0   0)

     celldm(1)=   1.889726  celldm(2)=   0.000000  celldm(3)=   0.000000
     celldm(4)=   0.000000  celldm(5)=   0.000000  celldm(6)=   0.000000

     crystal axes: (cart. coord. in units of alat)
               a(1) = (   6.579727   0.000000   0.000000 )
               a(2) = (  -0.000775   5.961596   0.000000 )
               a(3) = (   0.000000   0.000000  25.155947 )

     reciprocal axes: (cart. coord. in units 2 pi/alat)
               b(1) = (  0.151982  0.000020  0.000000 )
               b(2) = (  0.000000  0.167740  0.000000 )
               b(3) = (  0.000000  0.000000  0.039752 )

     PseudoPot. # 1 for Ti read from file:
     /storage/coda1/p-amedford6/0/shared/rich_project_chbe-medford/medford-share/data/pseudos_module/espresso/nninc/pbe/van/Ti.UPF
     MD5 check sum: 8e4df49b7f0d34bbd5052bf3f5ea0213
     Pseudo is Ultrasoft, Zval = 12.0
     Generated by new atomic code, or converted to UPF format
     Using radial grid of  851 points,  6 beta functions with:
                l(1) =   0
                l(2) =   0
                l(3) =   1
                l(4) =   1
                l(5) =   2
                l(6) =   2
     Q(r) pseudized with  8 coefficients,  rinner =    1.000   1.000   1.000
                                                       1.000   1.000

     PseudoPot. # 2 for O  read from file:
     /storage/coda1/p-amedford6/0/shared/rich_project_chbe-medford/medford-share/data/pseudos_module/espresso/nninc/pbe/van/O.UPF
     MD5 check sum: 78c19812648e8988a0fe644b0f25305e
     Pseudo is Ultrasoft, Zval =  6.0
     Generated by new atomic code, or converted to UPF format
     Using radial grid of  737 points,  4 beta functions with:
                l(1) =   0
                l(2) =   0
                l(3) =   1
                l(4) =   1
     Q(r) pseudized with  8 coefficients,  rinner =    0.800   0.800   0.800

     PseudoPot. # 3 for N  read from file:
     /storage/coda1/p-amedford6/0/shared/rich_project_chbe-medford/medford-share/data/pseudos_module/espresso/nninc/pbe/van/N.UPF
     MD5 check sum: 90d10febe142ad51ac9d5be1deb811c4
     Pseudo is Ultrasoft, Zval =  5.0
     Generated by new atomic code, or converted to UPF format
     Using radial grid of  729 points,  4 beta functions with:
                l(1) =   0
                l(2) =   0
                l(3) =   1
                l(4) =   1
     Q(r) pseudized with  8 coefficients,  rinner =    0.800   0.800   0.800

     PseudoPot. # 4 for C  read from file:
     /storage/coda1/p-amedford6/0/shared/rich_project_chbe-medford/medford-share/data/pseudos_module/espresso/nninc/pbe/van/C.UPF
     MD5 check sum: 1a69bf6b8db32088f5b2163dbdb77a27
     Pseudo is Ultrasoft, Zval =  4.0
     Generated by new atomic code, or converted to UPF format
     Using radial grid of  721 points,  4 beta functions with:
                l(1) =   0
                l(2) =   0
                l(3) =   1
                l(4) =   1
     Q(r) pseudized with  8 coefficients,  rinner =    0.800   0.800   0.800

     PseudoPot. # 5 for H  read from file:
     /storage/coda1/p-amedford6/0/shared/rich_project_chbe-medford/medford-share/data/pseudos_module/espresso/nninc/pbe/van/H.UPF
     MD5 check sum: b5ee9d7bfd3a09ee7748110bda690ff7
     Pseudo is Ultrasoft, Zval =  1.0
     Generated by new atomic code, or converted to UPF format
     Using radial grid of  615 points,  1 beta functions with:
                l(1) =   0
     Q(r) pseudized with  8 coefficients,  rinner =    0.800

     atomic species   valence    mass     pseudopotential
        Ti1           12.00    47.86700     Ti( 1.00)
        O1             6.00    15.99900     O ( 1.00)
        N1             5.00    14.00700     N ( 1.00)
        C1             4.00    12.01100     C ( 1.00)
        H1             1.00     1.00800     H ( 1.00)

     No symmetry found

   Cartesian axes

     site n.     atom                  positions (alat units)
         1           Ti1 tau(   1) = (   0.0004258   2.9801865   6.0000000  )
         2           Ti1 tau(   2) = (   3.2906075   1.4906267   6.0002472  )
         3           O1  tau(   3) = (   0.0006271   0.0005054   7.9858123  )
         4           O1  tau(   4) = (   3.2906025   0.0005020   7.3038282  )
         5           O1  tau(   5) = (   4.5942328   1.4918067   9.2879030  )
         6           O1  tau(   6) = (   1.9868534   1.4903216   9.2879459  )
         7           Ti1 tau(   7) = (   3.2907910   2.8959150   9.1758416  )
         8           Ti1 tau(   8) = (   0.0015273   1.4827037   9.2680791  )
         9           O1  tau(   9) = (   3.2768318   5.9518058  11.3501096  )
        10           O1  tau(  10) = (   0.0116148   5.9584955  10.6183126  )
        11           O1  tau(  11) = (   1.2820894   1.4890407  12.6429483  )
        12           O1  tau(  12) = (   5.2701592   1.4861355  12.6244956  )
        13           Ti1 tau(  13) = (   0.0263608   2.9732685  12.5725065  )
        14           Ti1 tau(  14) = (   3.3311081   1.4825583  12.4934812  )
        15           O1  tau(  15) = (   6.5448050   0.0382128  14.6485099  )
        16           O1  tau(  16) = (   3.2835306   5.9556129  13.9684075  )
        17           O1  tau(  17) = (   4.5065730   1.5084740  16.1486978  )
        18           O1  tau(  18) = (   2.0110176   1.4968469  16.1316129  )
        19           Ti1 tau(  19) = (   3.2365874   2.9692752  15.7101938  )
        20           Ti1 tau(  20) = (   6.5183500   1.5288441  15.9766389  )
        21           O1  tau(  21) = (   3.2904802   0.0005063   4.7018136  )
        22           O1  tau(  22) = (   6.5552815   5.8936090  17.2115513  )
        23           O1  tau(  23) = (   1.3043587   1.4918075   6.0039043  )
        24           O1  tau(  24) = (   5.2767064   1.4903225   6.0039473  )
        25           Ti1 tau(  25) = (   0.0000382   5.9609847   6.0000000  )
        26           Ti1 tau(  26) = (   3.2902200   4.4714249   6.0002472  )
        27           O1  tau(  27) = (   0.0002396   2.9813036   7.9858123  )
        28           O1  tau(  28) = (   3.2902150   2.9813002   7.3038282  )
        29           O1  tau(  29) = (   4.5938453   4.4726049   9.2879030  )
        30           O1  tau(  30) = (   1.9864658   4.4711199   9.2879459  )
        31           Ti1 tau(  31) = (   3.2891106   5.8743827   9.1763621  )
        32           Ti1 tau(  32) = (   0.0006254   4.4649316   9.2693709  )
        33           O1  tau(  33) = (   3.2825058   2.9767457  11.3441782  )
        34           O1  tau(  34) = (   0.0092240   2.9805883  10.6323155  )
        35           O1  tau(  35) = (   1.2778777   4.4660374  12.6604661  )
        36           O1  tau(  36) = (   5.2710664   4.4675109  12.6369154  )
        37           Ti1 tau(  37) = (   0.0243246   5.9574881  12.5203091  )
        38           Ti1 tau(  38) = (   3.3318591   4.4611298  12.5006215  )
        39           O1  tau(  39) = (   6.5359656   2.9584677  14.7835642  )
        40           O1  tau(  40) = (   3.2771955   2.9708399  13.9242642  )
        41           O1  tau(  41) = (   4.4981441   4.4410618  16.1740548  )
        42           O1  tau(  42) = (   2.0042129   4.4512231  16.1075086  )
        43           Ti1 tau(  43) = (   3.2538698   5.9555144  15.7617387  )
        44           Ti1 tau(  44) = (   6.5531130   4.6830099  15.9084494  )
        45           O1  tau(  45) = (   3.2900926   2.9813045   4.7018136  )
        46           O1  tau(  46) = (   1.3039711   4.4726057   6.0039043  )
        47           O1  tau(  47) = (   5.2763189   4.4711207   6.0039473  )
        48           N1  tau(  48) = (   5.6690603   3.2568973  18.6585782  )
        49           C1  tau(  49) = (   0.0091554   2.6844975  17.9068455  )
        50           H1  tau(  50) = (   0.8805123   2.3964943  18.5001670  )
        51           H1  tau(  51) = (   4.8619660   3.6873350  18.2178346  )
        52           H1  tau(  52) = (   5.8095507   3.4868026  19.6356901  )

     number of k points=    10  Fermi-Dirac smearing, width (Ry)=  0.0073
                       cart. coord. in units 2pi/alat
        k(    1) = (   0.0000000   0.0000000   0.0000000), wk =   0.1250000
        k(    2) = (   0.0000000   0.0419351   0.0000000), wk =   0.2500000
        k(    3) = (   0.0000000  -0.0838702   0.0000000), wk =   0.1250000
        k(    4) = (   0.0379955   0.0000049   0.0000000), wk =   0.2500000
        k(    5) = (   0.0379955   0.0419400   0.0000000), wk =   0.2500000
        k(    6) = (   0.0379955  -0.0838652   0.0000000), wk =   0.2500000
        k(    7) = (   0.0379955  -0.0419301   0.0000000), wk =   0.2500000
        k(    8) = (  -0.0759910  -0.0000099   0.0000000), wk =   0.1250000
        k(    9) = (  -0.0759910   0.0419252   0.0000000), wk =   0.2500000
        k(   10) = (  -0.0759910  -0.0838800   0.0000000), wk =   0.1250000

     Initial potential from superposition of free atoms

     starting charge  373.99917, renormalised to  390.00000

     negative rho (up, down):  1.782E-02 0.000E+00

     %%%%%%%%%%%%%%%%%%%%%%%%%%%%%%%%%%%%%%%%%%%%%%%%%%%%%%%%%%%%%%%%%%%%%%%%
     %                                                                      %
     % You are using vdW-DF, which was implemented by the Thonhauser group. %
     % Please cite the following two papers that made this development      %
     % possible and the two reviews that describe the various versions:     %
     %                                                                      %
     %   T. Thonhauser et al., PRL 115, 136402 (2015).                      %
     %   T. Thonhauser et al., PRB 76, 125112 (2007).                       %
     %   K. Berland et al., Rep. Prog. Phys. 78, 066501 (2015).             %
     %   D.C. Langreth et al., J. Phys.: Condens. Matter 21, 084203 (2009). %
     %                                                                      %
     %                                                                      %
     % If you are calculating the stress with vdW-DF, please also cite:     %
     %                                                                      %
     %   R. Sabatini et al., J. Phys.: Condens. Matter 24, 424209 (2012).   %
     %                                                                      %
     %%%%%%%%%%%%%%%%%%%%%%%%%%%%%%%%%%%%%%%%%%%%%%%%%%%%%%%%%%%%%%%%%%%%%%%%

     Adding external electric field

     Computed dipole along edir(3) :
        Dipole               -5.8555 Ry au,        -14.8831 Debye
        Dipole field         -0.0111 Ry au,

        Potential amp.        1.0243 Ry
        Total length         46.3494 bohr

     Starting wfcs are  295 atomic wfcs
  @ DRIVER MODE: Message from server: STATUS
  @ DRIVER MODE: Message from server: POSDATA
  @ DRIVER MODE: Reading and sharing cell
  @ DRIVER MODE: Reading and sharing positions
  @ DRIVER MODE: Received positions

     Self-consistent Calculation

     iteration #  1     ecut=    29.40 Ry     beta= 0.05
     Davidson diagonalization with overlap
     c_bands:  4 eigenvalues not converged
     c_bands:  1 eigenvalues not converged
     c_bands:  2 eigenvalues not converged
     c_bands:  2 eigenvalues not converged
     c_bands:  3 eigenvalues not converged
     c_bands:  3 eigenvalues not converged
     c_bands:  3 eigenvalues not converged
     c_bands:  3 eigenvalues not converged
     c_bands:  3 eigenvalues not converged
     c_bands:  5 eigenvalues not converged
     ethr =  1.00E-05,  avg # of iterations = 20.0

[...]

     total energy              =   -2777.20165337 Ry
     estimated scf accuracy    <    1561.91769224 Ry

     iteration #  2     ecut=    29.40 Ry     beta= 0.05
     Davidson diagonalization with overlap
     ethr =  1.00E-02,  avg # of iterations = 18.1

[...]

     iteration # 40     ecut=    29.40 Ry     beta= 0.05
     Davidson diagonalization with overlap
     c_bands:  1 eigenvalues not converged
     ethr =  9.87E-09,  avg # of iterations =  7.7

[...]

     total energy              =   -2919.04276103 Ry
     estimated scf accuracy    <       0.00000010 Ry

     iteration # 52     ecut=    29.40 Ry     beta= 0.05
     Davidson diagonalization with overlap
     ethr =  2.54E-11,  avg # of iterations =  8.0

     negative rho (up, down):  1.802E-02 0.000E+00

     Adding external electric field

     Computed dipole along edir(3) :
        Dipole                1.3790 Ry au,          3.5051 Debye
        Dipole field          0.0026 Ry au,

        Potential amp.       -0.2412 Ry
        Total length         46.3494 bohr

     End of self-consistent calculation

          k = 0.0000 0.0000 0.0000 ( 18029 PWs)   bands (ev):

   -55.5100 -55.4850 -55.4737 -55.4509 -55.4239 -55.3790 -55.3372 -55.3286
   -55.3099 -55.3030 -55.2734 -55.2716 -55.0540 -54.9463 -54.4884 -54.4544
   -32.0769 -31.9726 -31.8706 -31.8483 -31.8381 -31.8055 -31.7976 -31.7754
   -31.7648 -31.7288 -31.7244 -31.7195 -31.6865 -31.6613 -31.6515 -31.6490
   -31.6378 -31.6130 -31.6025 -31.5943 -31.5806 -31.5677 -31.5423 -31.5382
   -31.5370 -31.5171 -31.5146 -31.5100 -31.5088 -31.4998 -31.4855 -31.4702
   -31.4588 -31.4588 -31.4359 -31.4247 -31.4092 -31.3570 -31.2902 -31.1914
   -31.1808 -31.0926 -30.8966 -30.8056 -30.7833 -30.7133 -30.6267 -30.5155
   -17.0179 -16.3092 -16.0253 -15.8605 -15.7180 -15.6872 -15.5764 -15.4015
   -15.3230 -15.2485 -15.2290 -15.1493 -15.1324 -15.1174 -15.0979 -15.0396
   -15.0317 -14.9865 -14.9814 -14.9462 -14.9275 -14.8957 -14.8783 -14.8708
   -14.8149 -14.7761 -14.7123 -14.6464 -14.5912 -14.1193 -12.9911 -12.8741
    -9.4565  -7.2005  -4.6087  -3.6666  -3.4970  -3.4162  -3.4072  -3.3852
    -3.1969  -3.1201  -2.8445  -2.7510  -2.7160  -2.7100  -2.6833  -2.6224
    -2.5512  -2.4519  -2.3796  -2.3509  -2.3308  -2.3237  -2.3123  -2.2970
    -2.2872  -2.2561  -2.1817  -2.1248  -2.0525  -1.9708  -1.8957  -1.8800
    -1.8198  -1.7920  -1.7770  -1.7707  -1.7636  -1.7375  -1.7329  -1.6416
    -1.5509  -1.5125  -1.4122  -1.3899  -1.2946  -1.1599  -1.1320  -1.0276
    -1.0206  -0.9649  -0.9389  -0.8968  -0.8470  -0.8385  -0.8201  -0.6775
    -0.6102  -0.5492  -0.4908  -0.4638  -0.4455  -0.3604  -0.2917  -0.2847
    -0.2674  -0.2448  -0.0698  -0.0386  -0.0180   0.0041   0.0188   0.1081
     0.1398   0.2150   0.2950   0.3090   0.3141   0.3920   0.4155   0.4580
     0.4606   0.4879   0.4933   0.6644   0.6749   0.7012   0.7325   0.8128
     0.8963   1.1014   1.1238   1.1660   1.4495   1.5162   1.5341   1.7217
     2.1074   2.1544   3.5801   3.6851   3.7174   3.7331   3.7613   3.8313
     3.8971   4.0759   4.0830   4.1139   4.1198

[...]

          k = 0.0380-0.0419 0.0000 ( 17876 PWs)   bands (ev):

[...]

          k =-0.0760-0.0000 0.0000 ( 17886 PWs)   bands (ev):

[...]

          k =-0.0760-0.0839 0.0000 ( 17948 PWs)   bands (ev):

   -55.4942 -55.4893 -55.4683 -55.4674 -55.4206 -55.3701 -55.3461 -55.3316
   -55.2911 -55.2897 -55.2892 -55.2877 -55.0512 -54.9491 -54.4714 -54.4713
   -31.8823 -31.8784 -31.8129 -31.7882 -31.7874 -31.7758 -31.7612 -31.7603
   -31.7205 -31.7153 -31.7134 -31.7063 -31.6769 -31.6401 -31.6312 -31.6271
   -31.6266 -31.6242 -31.6198 -31.6186 -31.6086 -31.5880 -31.5872 -31.5744
   -31.5711 -31.5604 -31.5481 -31.5315 -31.5243 -31.5219 -31.5058 -31.5051
   -31.5047 -31.5034 -31.4781 -31.4679 -31.4643 -31.3615 -31.2855 -31.2100
   -31.1838 -31.1766 -30.7960 -30.7959 -30.7093 -30.7091 -30.6700 -30.6700
   -17.0128 -15.7669 -15.7052 -15.5693 -15.4884 -15.4664 -15.4549 -15.4308
   -15.2919 -15.2766 -15.2579 -15.2086 -15.2050 -15.2025 -15.1622 -15.1063
   -15.0730 -15.0704 -15.0620 -15.0355 -15.0010 -14.9957 -14.9616 -14.9530
   -14.9394 -14.8498 -14.8446 -14.8422 -14.6696 -14.3434 -12.9758 -12.9757
    -9.4613  -7.2019  -4.5902  -3.0497  -2.9762  -2.8159  -2.7136  -2.6838
    -2.6521  -2.5087  -2.4736  -2.4635  -2.4497  -2.4128  -2.3983  -2.3838
    -2.3543  -2.3401  -2.3358  -2.3172  -2.3065  -2.2943  -2.2501  -2.2088
    -2.2051  -2.1972  -2.1666  -2.1466  -2.1340  -2.1052  -2.0858  -2.0701
    -2.0562  -2.0070  -1.8340  -1.8029  -1.7027  -1.6824  -1.6733  -1.6513
    -1.5851  -1.5580  -1.5258  -1.4860  -1.4339  -1.3123  -1.2458  -1.2248
    -1.1949  -1.1853  -1.1333  -1.0116  -0.9757  -0.9528  -0.9065  -0.8697
    -0.8256  -0.8150  -0.6952  -0.6900  -0.6444  -0.6016  -0.4883  -0.4716
    -0.4623  -0.4496  -0.4354  -0.3065  -0.2969  -0.2902  -0.2728  -0.2291
    -0.2118  -0.1061  -0.0075   0.0081   0.1110   0.1620   0.2878   0.3529
     0.4475   0.4933   0.5173   0.6073   0.6432   0.7253   0.7489   0.8017
     0.8134   0.9093   0.9640   0.9822   0.9902   1.0581   1.8941   1.8949
     1.9743   1.9744   3.7403   3.8364   3.8749   3.8968   3.9426   4.1012
     4.1169   4.1644   4.1679   4.1828   4.2638

     the Fermi energy is     3.6379 ev

!    total energy              =   -2919.04287514 Ry
     estimated scf accuracy    <       0.00000004 Ry
     smearing contrib. (-TS)   =      -0.03609957 Ry
     internal energy E=F+TS    =   -2919.00677557 Ry

     The total energy is F=E-TS. E is the sum of the following terms:
     one-electron contribution =  -24479.21660961 Ry
     hartree contribution      =   12327.76806317 Ry
     xc contribution           =    -479.99770732 Ry
     ewald contribution        =    9712.43588940 Ry
     electric field correction =       0.00358879 Ry

     convergence has been achieved in  52 iterations

     Forces acting on atoms (cartesian axes, Ry/au):

     atom    1 type  1   force =     0.00009476   -0.00021120    0.09496979
     atom    2 type  1   force =    -0.00022873   -0.00036620   -0.17674879
     atom    3 type  2   force =    -0.00004613   -0.00007057   -0.02291394
     atom    4 type  2   force =    -0.00004481   -0.00167912    0.05577793
     atom    5 type  2   force =    -0.01136127   -0.00122864    0.00625300
     atom    6 type  2   force =     0.01253521   -0.00034683    0.00441627
     atom    7 type  1   force =    -0.00113932    0.00153448   -0.01375950
     atom    8 type  1   force =     0.00062691    0.00696838    0.01264762
     atom    9 type  2   force =     0.00020553   -0.00004735    0.00013229
     atom   10 type  2   force =    -0.00164168    0.00009973   -0.00998945
     atom   11 type  2   force =    -0.00021838    0.00002431    0.00013554
     atom   12 type  2   force =     0.00024068    0.00010991   -0.00008632
     atom   13 type  1   force =     0.00005768    0.00000358    0.00031166
     atom   14 type  1   force =     0.00002260   -0.00015462    0.00021645
     atom   15 type  2   force =     0.00004396   -0.00003171   -0.00001971
     atom   16 type  2   force =     0.00025516    0.00028531   -0.00004610
     atom   17 type  2   force =    -0.00010703   -0.00021326    0.00020461
     atom   18 type  2   force =     0.00035116    0.00010519    0.00015169
     atom   19 type  1   force =     0.00039754   -0.00001010   -0.00013694
     atom   20 type  1   force =     0.00013589   -0.00001556    0.00028578
     atom   21 type  2   force =     0.00004108   -0.00004172    0.10360371
     atom   22 type  2   force =     0.00005118    0.00002454    0.00021209
     atom   23 type  2   force =    -0.07101712   -0.00017104   -0.02733830
     atom   24 type  2   force =     0.07086630    0.00030678   -0.02735420
     atom   25 type  1   force =    -0.00013003   -0.00020638    0.09470721
     atom   26 type  1   force =    -0.00018630   -0.00047178   -0.17688599
     atom   27 type  2   force =     0.00007155   -0.00035162   -0.02193704
     atom   28 type  2   force =     0.00003743   -0.00139245    0.05532761
     atom   29 type  2   force =    -0.01157942   -0.00008943    0.00586376
     atom   30 type  2   force =     0.01265113    0.00012746    0.00408020
     atom   31 type  1   force =    -0.00124891    0.00418560   -0.01462432
     atom   32 type  1   force =     0.00055914   -0.00781341    0.01250722
     atom   33 type  2   force =    -0.00001013    0.00009077    0.00004333
     atom   34 type  2   force =    -0.00127753    0.00083308   -0.00837552
     atom   35 type  2   force =     0.00010211    0.00020295   -0.00002847
     atom   36 type  2   force =     0.00012807    0.00004388    0.00016643
     atom   37 type  1   force =     0.00001459   -0.00000046    0.00001475
     atom   38 type  1   force =    -0.00003944   -0.00015791   -0.00014519
     atom   39 type  2   force =    -0.00017020   -0.00017943   -0.00006426
     atom   40 type  2   force =     0.00023075   -0.00002189   -0.00019598
     atom   41 type  2   force =     0.00024710   -0.00005791    0.00008004
     atom   42 type  2   force =    -0.00012467    0.00010151   -0.00037533
     atom   43 type  1   force =    -0.00019635    0.00001407    0.00023453
     atom   44 type  1   force =     0.00042065   -0.00003085    0.00005289
     atom   45 type  2   force =     0.00002945   -0.00005350    0.10356880
     atom   46 type  2   force =    -0.07101642   -0.00006292   -0.02732756
     atom   47 type  2   force =     0.07087067    0.00032839   -0.02735966
     atom   48 type  3   force =    -0.00075658    0.00270149    0.00208336
     atom   49 type  4   force =    -0.00018919   -0.00046994    0.00084808
     atom   50 type  5   force =     0.00047827    0.00012821   -0.00044936
     atom   51 type  5   force =     0.00071379   -0.00050701   -0.00061876
     atom   52 type  5   force =     0.00024932   -0.00176481   -0.00211594

     Total force =     0.366098     Total SCF correction =     0.000606
  @ DRIVER MODE: Message from server: STATUS
  @ DRIVER MODE: Message from server: GETFORCE
  @ DRIVER MODE: Returning v,forces,stress,ensemble

     Writing output data file ./calc.save/
  @ DRIVER MODE: Message from server: EXIT
  @ DRIVE MODE: Exiting

     General routines

     Parallel routines

   This run was terminated on:   3: 6:46  24Aug2021

   JOB DONE.