     Program PWSCF v.6.7GPU starts on 24Sep2021 at  8:23: 7

     R & G space division:  proc/nbgrp/npool/nimage =       8
     Reading input from /storage/home/hcoda1/3/ntian30/research/carbon/CxH_vib/H2O_calc/ads_slab/CH2NNHHHHO_a/out_0049/pw.inp
Warning: card &CELL ignored
Warning: card   CELL_DYNAMICS='IPI', ignored
Warning: card / ignored

     Current dimensions of program PWSCF are:
     Max number of different atomic species (ntypx) = 10
     Max number of k-points (npk) =  40000
     Max angular momentum in pseudopotentials (lmaxx) =  3
     Presently no symmetry can be used with electric field

     Message from routine cell_base_init:
     DEPRECATED: use true lattice parameter, not A to a.u. conversion factor

     IMPORTANT: XC functional enforced from input :
     Exchange-correlation= BEEF-VDW
                           (   1   4  43  14   2   0   0)
     Any further DFT definition will be discarded
     Please, verify this is what you really want

  @ DRIVER MODE: Connecting to
 qe_1139763_2947316.sched-torque.pace.gatech.eduuy6ywy7s_scratch
  using UNIX socket
  @ DRIVER MODE: Message from server: STATUS
  @ DRIVER MODE: Message from server: INIT
  @ DRIVER MODE: Receiving replica           0          -1
  @ DRIVER MODE: Receiving encoded integer          25
  @ DRIVER MODE:  SCF:  T  FORCE:  T  STRESS:  F  VC:  F  ENSEMBLE:  F
  @ DRIVER MODE:  SCF:  T  FORCE:  T  STRESS:  F  VC:  F  ENSEMBLE:  F

     Using Slab Decomposition

     bravais-lattice index     =            0
     lattice parameter (alat)  =       1.8897  a.u.
     unit-cell volume          =    6658.9804 (a.u.)^3
     number of atoms/cell      =           57
     number of atomic types    =            5
     number of electrons       =       404.00
     number of Kohn-Sham states=          212
     kinetic-energy cutoff     =      29.3995  Ry
     charge density cutoff     =     293.9946  Ry
     scf convergence threshold =      7.3E-08
     mixing beta               =       0.0500
     number of iterations used =            8  plain     mixing
     Exchange-correlation= BEEF-VDW
                           (   1   4  43  14   2   0   0)

     celldm(1)=   1.889726  celldm(2)=   0.000000  celldm(3)=   0.000000
     celldm(4)=   0.000000  celldm(5)=   0.000000  celldm(6)=   0.000000

     crystal axes: (cart. coord. in units of alat)
               a(1) = (   6.579727   0.000000   0.000000 )
               a(2) = (  -0.000775   5.961596   0.000000 )
               a(3) = (   0.000000   0.000000  25.155947 )

     reciprocal axes: (cart. coord. in units 2 pi/alat)
               b(1) = (  0.151982  0.000020  0.000000 )
               b(2) = (  0.000000  0.167740  0.000000 )
               b(3) = (  0.000000  0.000000  0.039752 )

     PseudoPot. # 1 for Ti read from file:
     /storage/coda1/p-amedford6/0/shared/rich_project_chbe-medford/medford-share/data/pseudos_module/espresso/nninc/pbe/van/Ti.UPF
     MD5 check sum: 8e4df49b7f0d34bbd5052bf3f5ea0213
     Pseudo is Ultrasoft, Zval = 12.0
     Generated by new atomic code, or converted to UPF format
     Using radial grid of  851 points,  6 beta functions with:
                l(1) =   0
                l(2) =   0
                l(3) =   1
                l(4) =   1
                l(5) =   2
                l(6) =   2
     Q(r) pseudized with  8 coefficients,  rinner =    1.000   1.000   1.000
                                                       1.000   1.000

     PseudoPot. # 2 for O  read from file:
     /storage/coda1/p-amedford6/0/shared/rich_project_chbe-medford/medford-share/data/pseudos_module/espresso/nninc/pbe/van/O.UPF
     MD5 check sum: 78c19812648e8988a0fe644b0f25305e
     Pseudo is Ultrasoft, Zval =  6.0
     Generated by new atomic code, or converted to UPF format
     Using radial grid of  737 points,  4 beta functions with:
                l(1) =   0
                l(2) =   0
                l(3) =   1
                l(4) =   1
     Q(r) pseudized with  8 coefficients,  rinner =    0.800   0.800   0.800

     PseudoPot. # 3 for N  read from file:
     /storage/coda1/p-amedford6/0/shared/rich_project_chbe-medford/medford-share/data/pseudos_module/espresso/nninc/pbe/van/N.UPF
     MD5 check sum: 90d10febe142ad51ac9d5be1deb811c4
     Pseudo is Ultrasoft, Zval =  5.0
     Generated by new atomic code, or converted to UPF format
     Using radial grid of  729 points,  4 beta functions with:
                l(1) =   0
                l(2) =   0
                l(3) =   1
                l(4) =   1
     Q(r) pseudized with  8 coefficients,  rinner =    0.800   0.800   0.800

     PseudoPot. # 4 for C  read from file:
     /storage/coda1/p-amedford6/0/shared/rich_project_chbe-medford/medford-share/data/pseudos_module/espresso/nninc/pbe/van/C.UPF
     MD5 check sum: 1a69bf6b8db32088f5b2163dbdb77a27
     Pseudo is Ultrasoft, Zval =  4.0
     Generated by new atomic code, or converted to UPF format
     Using radial grid of  721 points,  4 beta functions with:
                l(1) =   0
                l(2) =   0
                l(3) =   1
                l(4) =   1
     Q(r) pseudized with  8 coefficients,  rinner =    0.800   0.800   0.800

     PseudoPot. # 5 for H  read from file:
     /storage/coda1/p-amedford6/0/shared/rich_project_chbe-medford/medford-share/data/pseudos_module/espresso/nninc/pbe/van/H.UPF
     MD5 check sum: b5ee9d7bfd3a09ee7748110bda690ff7
     Pseudo is Ultrasoft, Zval =  1.0
     Generated by new atomic code, or converted to UPF format
     Using radial grid of  615 points,  1 beta functions with:
                l(1) =   0
     Q(r) pseudized with  8 coefficients,  rinner =    0.800

     atomic species   valence    mass     pseudopotential
        Ti1           12.00    47.86700     Ti( 1.00)
        O1             6.00    15.99900     O ( 1.00)
        N1             5.00    14.00700     N ( 1.00)
        C1             4.00    12.01100     C ( 1.00)
        H1             1.00     1.00800     H ( 1.00)

     No symmetry found

   Cartesian axes

     site n.     atom                  positions (alat units)
         1           Ti1 tau(   1) = (   0.0004258   2.9801865   6.0000000  )
         2           Ti1 tau(   2) = (   3.2906075   1.4906267   6.0002472  )
         3           O1  tau(   3) = (   0.0006271   0.0005054   7.9858123  )
         4           O1  tau(   4) = (   3.2906025   0.0005020   7.3038282  )
         5           O1  tau(   5) = (   4.5942328   1.4918067   9.2879030  )
         6           O1  tau(   6) = (   1.9868534   1.4903216   9.2879459  )
         7           Ti1 tau(   7) = (   3.2907910   2.8959150   9.1758416  )
         8           Ti1 tau(   8) = (   0.0015273   1.4827037   9.2680791  )
         9           O1  tau(   9) = (   3.3027076   5.9092304  11.3732431  )
        10           O1  tau(  10) = (   0.0116148   5.9584955  10.6183126  )
        11           O1  tau(  11) = (   1.2953868   1.4751764  12.6403503  )
        12           O1  tau(  12) = (   5.3168701   1.4807623  12.6366210  )
        13           Ti1 tau(  13) = (   0.0172323   2.9996225  12.5311828  )
        14           Ti1 tau(  14) = (   3.3257086   1.2755711  12.7138078  )
        15           O1  tau(  15) = (   6.5733368   0.1082846  14.6600873  )
        16           O1  tau(  16) = (   3.3238075   0.0838359  14.0473399  )
        17           O1  tau(  17) = (   4.5575128   1.5393005  16.2317518  )
        18           O1  tau(  18) = (   2.0302387   1.4963625  16.2670071  )
        19           Ti1 tau(  19) = (   3.2366114   2.9448900  15.6849520  )
        20           Ti1 tau(  20) = (   6.5300729   1.3987400  16.1165465  )
        21           O1  tau(  21) = (   3.2904802   0.0005063   4.7018136  )
        22           O1  tau(  22) = (   0.0022030   5.7760056  17.1861099  )
        23           O1  tau(  23) = (   1.3043587   1.4918075   6.0039043  )
        24           O1  tau(  24) = (   5.2767064   1.4903225   6.0039473  )
        25           Ti1 tau(  25) = (   0.0000382   5.9609847   6.0000000  )
        26           Ti1 tau(  26) = (   3.2902200   4.4714249   6.0002472  )
        27           O1  tau(  27) = (   0.0002396   2.9813036   7.9858123  )
        28           O1  tau(  28) = (   3.2902150   2.9813002   7.3038282  )
        29           O1  tau(  29) = (   4.5938453   4.4726049   9.2879030  )
        30           O1  tau(  30) = (   1.9864658   4.4711199   9.2879459  )
        31           Ti1 tau(  31) = (   3.2891106   5.8743827   9.1763621  )
        32           Ti1 tau(  32) = (   0.0006254   4.4649316   9.2693709  )
        33           O1  tau(  33) = (   3.3012885   2.9833904  11.3212188  )
        34           O1  tau(  34) = (   0.0092240   2.9805883  10.6323155  )
        35           O1  tau(  35) = (   1.2895456   4.4501540  12.7025460  )
        36           O1  tau(  36) = (   5.3143371   4.4382646  12.6927937  )
        37           Ti1 tau(  37) = (   0.0343555   0.0433052  12.5107970  )
        38           Ti1 tau(  38) = (   3.3217552   4.3482123  12.4486840  )
        39           O1  tau(  39) = (   0.0141661   2.9064423  14.8877341  )
        40           O1  tau(  40) = (   3.2920978   2.9424077  13.9176102  )
        41           O1  tau(  41) = (   4.5506947   4.3398720  16.1100615  )
        42           O1  tau(  42) = (   2.0210198   4.4131678  16.0160425  )
        43           Ti1 tau(  43) = (   3.3132698   5.9358869  16.2610495  )
        44           Ti1 tau(  44) = (   0.0826266   4.5979890  15.7080129  )
        45           O1  tau(  45) = (   3.2900926   2.9813045   4.7018136  )
        46           O1  tau(  46) = (   1.3039711   4.4726057   6.0039043  )
        47           O1  tau(  47) = (   5.2763189   4.4711207   6.0039473  )
        48           N1  tau(  48) = (   6.5643472   2.7424576  18.0625816  )
        49           C1  tau(  49) = (   0.8744728   2.5686873  19.0232366  )
        50           H1  tau(  50) = (   0.8543601   3.1364980  19.9465443  )
        51           H1  tau(  51) = (   1.6733950   1.8773151  18.8242213  )
        52           N1  tau(  52) = (   5.5366205   3.6779994  18.4753393  )
        53           H1  tau(  53) = (   5.9486539   4.6347284  18.5635686  )
        54           H1  tau(  54) = (   4.8775701   3.8234783  17.6645784  )
        55           H1  tau(  55) = (   5.0440791   3.3775604  19.3232938  )
        56           O1  tau(  56) = (   3.3991604   5.6710612  18.1544331  )
        57           H1  tau(  57) = (   3.1368125   0.4262250  18.7404830  )

     number of k points=    10  Fermi-Dirac smearing, width (Ry)=  0.0073
                       cart. coord. in units 2pi/alat
        k(    1) = (   0.0000000   0.0000000   0.0000000), wk =   0.1250000
        k(    2) = (   0.0000000   0.0419351   0.0000000), wk =   0.2500000
        k(    3) = (   0.0000000  -0.0838702   0.0000000), wk =   0.1250000
        k(    4) = (   0.0379955   0.0000049   0.0000000), wk =   0.2500000
        k(    5) = (   0.0379955   0.0419400   0.0000000), wk =   0.2500000
        k(    6) = (   0.0379955  -0.0838652   0.0000000), wk =   0.2500000
        k(    7) = (   0.0379955  -0.0419301   0.0000000), wk =   0.2500000
        k(    8) = (  -0.0759910  -0.0000099   0.0000000), wk =   0.1250000
        k(    9) = (  -0.0759910   0.0419252   0.0000000), wk =   0.2500000
        k(   10) = (  -0.0759910  -0.0838800   0.0000000), wk =   0.1250000

     Initial potential from superposition of free atoms

     starting charge  387.99913, renormalised to  404.00000

     negative rho (up, down):  1.546E-02 0.000E+00

     %%%%%%%%%%%%%%%%%%%%%%%%%%%%%%%%%%%%%%%%%%%%%%%%%%%%%%%%%%%%%%%%%%%%%%%%
     %                                                                      %
     % You are using vdW-DF, which was implemented by the Thonhauser group. %
     % Please cite the following two papers that made this development      %
     % possible and the two reviews that describe the various versions:     %
     %                                                                      %
     %   T. Thonhauser et al., PRL 115, 136402 (2015).                      %
     %   T. Thonhauser et al., PRB 76, 125112 (2007).                       %
     %   K. Berland et al., Rep. Prog. Phys. 78, 066501 (2015).             %
     %   D.C. Langreth et al., J. Phys.: Condens. Matter 21, 084203 (2009). %
     %                                                                      %
     %                                                                      %
     % If you are calculating the stress with vdW-DF, please also cite:     %
     %                                                                      %
     %   R. Sabatini et al., J. Phys.: Condens. Matter 24, 424209 (2012).   %
     %                                                                      %
     %%%%%%%%%%%%%%%%%%%%%%%%%%%%%%%%%%%%%%%%%%%%%%%%%%%%%%%%%%%%%%%%%%%%%%%%

     Adding external electric field

     Computed dipole along edir(3) :
        Dipole              -13.5862 Ry au,        -34.5326 Debye
        Dipole field         -0.0256 Ry au,

        Potential amp.        2.3767 Ry
        Total length         46.3494 bohr

     Starting wfcs are  306 atomic wfcs
  @ DRIVER MODE: Message from server: STATUS
  @ DRIVER MODE: Message from server: POSDATA
  @ DRIVER MODE: Reading and sharing cell
  @ DRIVER MODE: Reading and sharing positions
  @ DRIVER MODE: Received positions

     Self-consistent Calculation

     iteration #  1     ecut=    29.40 Ry     beta= 0.05
     Davidson diagonalization with overlap
     c_bands:  5 eigenvalues not converged
     c_bands:  1 eigenvalues not converged
     c_bands:  1 eigenvalues not converged
     c_bands:  1 eigenvalues not converged
     c_bands:  3 eigenvalues not converged
     c_bands:  4 eigenvalues not converged
     c_bands:  5 eigenvalues not converged
     c_bands:  2 eigenvalues not converged
     ethr =  1.00E-05,  avg # of iterations = 29.7

[...]

     total energy              =   -2247.86386507 Ry
     estimated scf accuracy    <    8242.31866104 Ry

     iteration #  2     ecut=    29.40 Ry     beta= 0.05
     Davidson diagonalization with overlap
     ethr =  1.00E-02,  avg # of iterations = 26.2

[...]

     iteration # 68     ecut=    29.40 Ry     beta= 0.05
     Davidson diagonalization with overlap
     c_bands:  1 eigenvalues not converged
     c_bands:  1 eigenvalues not converged
     ethr =  3.44E-11,  avg # of iterations = 16.2

[...]

     total energy              =   -2975.12439951 Ry
     estimated scf accuracy    <       0.00000037 Ry

     iteration # 69     ecut=    29.40 Ry     beta= 0.05
     Davidson diagonalization with overlap
     ethr =  3.44E-11,  avg # of iterations = 11.8

     negative rho (up, down):  1.380E-02 0.000E+00

     Adding external electric field

     Computed dipole along edir(3) :
        Dipole                1.3764 Ry au,          3.4984 Debye
        Dipole field          0.0026 Ry au,

        Potential amp.       -0.2408 Ry
        Total length         46.3494 bohr

     End of self-consistent calculation

          k = 0.0000 0.0000 0.0000 ( 18029 PWs)   bands (ev):

   -55.3852 -55.2457 -55.2117 -55.1203 -55.0851 -55.0791 -55.0751 -55.0410
   -55.0347 -54.9865 -54.9590 -54.9225 -54.8701 -54.7413 -54.2260 -54.1920
   -31.7312 -31.7146 -31.6124 -31.6045 -31.5839 -31.5769 -31.5366 -31.5281
   -31.5183 -31.4916 -31.4487 -31.4442 -31.3983 -31.3705 -31.3689 -31.3588
   -31.3531 -31.3119 -31.3031 -31.3012 -31.2839 -31.2735 -31.2691 -31.2639
   -31.2619 -31.2229 -31.2191 -31.2186 -31.2149 -31.2023 -31.1930 -31.1877
   -31.1806 -31.1478 -31.1407 -31.1098 -31.1019 -31.0864 -31.0801 -31.0760
   -31.0024 -30.9089 -30.6324 -30.5451 -30.5227 -30.4498 -30.3634 -30.2517
   -19.1890 -16.3297 -15.9249 -15.7688 -15.5877 -15.4486 -15.4082 -15.1848
   -15.1290 -15.0424 -15.0228 -14.9030 -14.7875 -14.7869 -14.7660 -14.7594
   -14.7440 -14.6986 -14.6932 -14.6904 -14.6717 -14.6501 -14.6294 -14.6195
   -14.5819 -14.5405 -14.3897 -14.3688 -14.3499 -14.3066 -14.1695 -14.0025
   -12.7250 -12.6085  -9.1901  -7.6902  -6.8969  -6.1349  -4.3115  -3.6153
    -3.2729  -3.1753  -3.1526  -3.1423  -3.0093  -2.8387  -2.6437  -2.5818
    -2.5193  -2.4045  -2.3761  -2.2801  -2.2578  -2.2172  -2.1612  -2.1387
    -2.1106  -2.0566  -2.0433  -2.0352  -1.9448  -1.9249  -1.8237  -1.8018
    -1.7688  -1.7101  -1.6836  -1.6163  -1.5848  -1.5626  -1.5605  -1.5524
    -1.5295  -1.5157  -1.4937  -1.4413  -1.4102  -1.3471  -1.2827  -1.2064
    -1.1327  -0.9093  -0.8627  -0.8434  -0.7896  -0.7508  -0.6883  -0.6637
    -0.6438  -0.6306  -0.5632  -0.4522  -0.4043  -0.3636  -0.3083  -0.2837
    -0.2524  -0.1466  -0.0698  -0.0509  -0.0052   0.0338   0.0603   0.1248
     0.1590   0.2012   0.2714   0.2834   0.3611   0.3990   0.4236   0.4690
     0.5105   0.5743   0.6192   0.6685   0.6758   0.7053   0.7229   0.7543
     0.8402   0.8574   0.8992   0.9330   0.9939   1.0479   1.0729   1.2469
     1.3713   1.4064   1.4760   1.7425   1.8002   1.8161   1.9908   2.3683
     2.4140   3.8406   3.9808   3.9912   3.9994   4.0684   4.1220   4.1446
     4.3267   4.3672   4.4848   4.5224

[...]

          k = 0.0380-0.0419 0.0000 ( 17876 PWs)   bands (ev):

[...]

          k =-0.0760-0.0000 0.0000 ( 17886 PWs)   bands (ev):

[...]

          k =-0.0760-0.0839 0.0000 ( 17948 PWs)   bands (ev):

   -55.3845 -55.2288 -55.2284 -55.1057 -55.0994 -55.0796 -55.0583 -55.0574
   -55.0279 -54.9934 -54.9578 -54.9167 -54.8758 -54.7424 -54.2093 -54.2086
   -31.6541 -31.5951 -31.5868 -31.5467 -31.5463 -31.5223 -31.5218 -31.5013
   -31.4398 -31.4146 -31.3935 -31.3813 -31.3779 -31.3745 -31.3668 -31.3488
   -31.3480 -31.3440 -31.3412 -31.3306 -31.3271 -31.3085 -31.3012 -31.2800
   -31.2673 -31.2599 -31.2536 -31.2440 -31.2351 -31.2332 -31.2300 -31.2228
   -31.2147 -31.2094 -31.1828 -31.1460 -31.1196 -31.1062 -31.0937 -31.0825
   -31.0041 -30.9811 -30.5357 -30.5352 -30.4458 -30.4447 -30.4069 -30.4063
   -19.1852 -16.3173 -15.4560 -15.4087 -15.2221 -15.2188 -15.1934 -15.1302
   -15.0915 -15.0409 -15.0239 -14.9875 -14.9487 -14.9329 -14.9074 -14.8366
   -14.7929 -14.7666 -14.7553 -14.7190 -14.7031 -14.7024 -14.6708 -14.6483
   -14.6381 -14.5721 -14.5596 -14.4934 -14.4364 -14.4117 -14.2825 -14.2403
   -12.7105 -12.7100  -9.1780  -7.7015  -6.8823  -6.1438  -4.3413  -3.6041
    -2.6460  -2.6418  -2.4434  -2.4105  -2.3449  -2.2743  -2.2406  -2.2205
    -2.1734  -2.1663  -2.1269  -2.1048  -2.0678  -2.0398  -2.0322  -2.0148
    -1.9982  -1.9753  -1.9536  -1.9364  -1.9306  -1.9011  -1.8800  -1.8696
    -1.8271  -1.8198  -1.7951  -1.7768  -1.7428  -1.6798  -1.6180  -1.4981
    -1.4597  -1.4319  -1.4112  -1.3966  -1.3684  -1.3324  -1.3168  -1.3026
    -1.2733  -1.2602  -1.1521  -1.0036  -0.9917  -0.8974  -0.8628  -0.8584
    -0.7525  -0.7201  -0.6865  -0.6612  -0.6101  -0.5672  -0.4669  -0.4558
    -0.4139  -0.3461  -0.2487  -0.2389  -0.2231  -0.1944  -0.1712  -0.1649
    -0.1065  -0.0684  -0.0321   0.0202   0.0397   0.0622   0.0946   0.1869
     0.2180   0.3315   0.4554   0.4926   0.5179   0.5485   0.6828   0.7381
     0.7816   0.8541   0.9183   0.9383   1.0412   1.0599   1.0911   1.1462
     1.2174   1.2670   1.2830   1.3112   1.3240   2.1611   2.1692   2.2342
     2.2345   3.7976   4.0033   4.2551   4.3283   4.3496   4.3790   4.4014
     4.4337   4.4601   4.5027   4.5177

     the Fermi energy is     3.8763 ev

!    total energy              =   -2975.12442644 Ry
     estimated scf accuracy    <       0.00000007 Ry
     smearing contrib. (-TS)   =      -0.03102841 Ry
     internal energy E=F+TS    =   -2975.09339802 Ry

     The total energy is F=E-TS. E is the sum of the following terms:
     one-electron contribution =  -23510.27122471 Ry
     hartree contribution      =   11853.44401436 Ry
     xc contribution           =    -494.86053592 Ry
     ewald contribution        =    9176.59077331 Ry
     electric field correction =       0.00357494 Ry

     convergence has been achieved in  69 iterations

     Forces acting on atoms (cartesian axes, Ry/au):

     atom    1 type  1   force =     0.00014034   -0.00021151    0.09451461
     atom    2 type  1   force =    -0.00007561    0.00040069   -0.17563273
     atom    3 type  2   force =     0.00003489   -0.00002924   -0.02144131
     atom    4 type  2   force =     0.00000464   -0.00223407    0.05508190
     atom    5 type  2   force =    -0.00784813   -0.00314051    0.00369407
     atom    6 type  2   force =     0.00957222   -0.00256726    0.00358563
     atom    7 type  1   force =     0.00003074   -0.00298239    0.00576393
     atom    8 type  1   force =    -0.00022517    0.00256524    0.00564108
     atom    9 type  2   force =    -0.00035020   -0.00027881    0.00002036
     atom   10 type  2   force =    -0.00116116   -0.00257083   -0.00855516
     atom   11 type  2   force =    -0.00071676   -0.00069891   -0.00014169
     atom   12 type  2   force =     0.00031175   -0.00070635   -0.00005244
     atom   13 type  1   force =     0.00009175    0.00005676    0.00042301
     atom   14 type  1   force =    -0.00015925   -0.00035355    0.00016771
     atom   15 type  2   force =     0.00011427   -0.00044025    0.00010059
     atom   16 type  2   force =     0.00003847   -0.00071040   -0.00029902
     atom   17 type  2   force =     0.00005573    0.00008088   -0.00000429
     atom   18 type  2   force =    -0.00053966    0.00058404   -0.00068985
     atom   19 type  1   force =     0.00008962    0.00029538   -0.00008838
     atom   20 type  1   force =     0.00044352   -0.00046839   -0.00012581
     atom   21 type  2   force =     0.00005561    0.00002566    0.10328024
     atom   22 type  2   force =    -0.00022229    0.00083829   -0.00069753
     atom   23 type  2   force =    -0.07174811   -0.00019671   -0.02725232
     atom   24 type  2   force =     0.07158418    0.00024520   -0.02731616
     atom   25 type  1   force =     0.00006528   -0.00034040    0.09391251
     atom   26 type  1   force =    -0.00016434   -0.00123598   -0.17591498
     atom   27 type  2   force =     0.00013826   -0.00024622   -0.02016609
     atom   28 type  2   force =     0.00003629   -0.00055984    0.05060503
     atom   29 type  2   force =    -0.00680112    0.00147619    0.00205761
     atom   30 type  2   force =     0.00849899    0.00183226    0.00197152
     atom   31 type  1   force =     0.00014665    0.00700901   -0.00369707
     atom   32 type  1   force =    -0.00027790   -0.00257452    0.00510776
     atom   33 type  2   force =    -0.00000516    0.00031056   -0.00013353
     atom   34 type  2   force =    -0.00012061    0.00279006   -0.00828340
     atom   35 type  2   force =     0.00025093    0.00066749   -0.00029263
     atom   36 type  2   force =    -0.00100987    0.00054703   -0.00043579
     atom   37 type  1   force =     0.00013690   -0.00044271    0.00011763
     atom   38 type  1   force =    -0.00015649   -0.00008669   -0.00008999
     atom   39 type  2   force =    -0.00013228   -0.00002901    0.00017742
     atom   40 type  2   force =    -0.00045579    0.00013370   -0.00003689
     atom   41 type  2   force =     0.00001020    0.00037457   -0.00008849
     atom   42 type  2   force =     0.00040404    0.00015048    0.00003311
     atom   43 type  1   force =    -0.00021434    0.00065315    0.00010373
     atom   44 type  1   force =     0.00003763   -0.00035263   -0.00002703
     atom   45 type  2   force =     0.00001624   -0.00011124    0.10304598
     atom   46 type  2   force =    -0.07181108   -0.00004744   -0.02730947
     atom   47 type  2   force =     0.07165125    0.00034763   -0.02734900
     atom   48 type  3   force =     0.00035087    0.00021724   -0.00085906
     atom   49 type  4   force =     0.00027297    0.00008059   -0.00016802
     atom   50 type  5   force =     0.00026436   -0.00036354   -0.00072175
     atom   51 type  5   force =    -0.00125091    0.00024881   -0.00036373
     atom   52 type  3   force =     0.00003678    0.00002341   -0.00076255
     atom   53 type  5   force =    -0.00059511    0.00049082   -0.00050377
     atom   54 type  5   force =     0.00030526    0.00021519    0.00078248
     atom   55 type  5   force =     0.00029461    0.00020103    0.00013106
     atom   56 type  2   force =     0.00271856   -0.00275998   -0.00306160
     atom   57 type  5   force =    -0.00216245    0.00387800    0.00224256

     Total force =     0.362728     Total SCF correction =     0.000860
  @ DRIVER MODE: Message from server: STATUS
  @ DRIVER MODE: Message from server: GETFORCE
  @ DRIVER MODE: Returning v,forces,stress,ensemble

     Writing output data file ./calc.save/
  @ DRIVER MODE: Message from server: EXIT
  @ DRIVE MODE: Exiting

     General routines

     Parallel routines

   This run was terminated on:   8:47:55  24Sep2021

   JOB DONE.