     Program PWSCF v.6.7GPU starts on 27Sep2021 at 13: 9:57

     R & G space division:  proc/nbgrp/npool/nimage =       8
     Reading input from /storage/home/hcoda1/3/ntian30/research/carbon/CxH_vib/CH_calc/ads_slab/CHONHNH_a/out_0038/pw.inp
Warning: card &CELL ignored
Warning: card   CELL_DYNAMICS='IPI', ignored
Warning: card / ignored

     Current dimensions of program PWSCF are:
     Max number of different atomic species (ntypx) = 10
     Max number of k-points (npk) =  40000
     Max angular momentum in pseudopotentials (lmaxx) =  3
     Presently no symmetry can be used with electric field

     Message from routine cell_base_init:
     DEPRECATED: use true lattice parameter, not A to a.u. conversion factor

     IMPORTANT: XC functional enforced from input :
     Exchange-correlation= BEEF-VDW
                           (   1   4  43  14   2   0   0)
     Any further DFT definition will be discarded
     Please, verify this is what you really want

  @ DRIVER MODE: Connecting to
 qe_1139763_2982671.sched-torque.pace.gatech.edugd61bj2x_scratch
  using UNIX socket
  @ DRIVER MODE: Message from server: STATUS
  @ DRIVER MODE: Message from server: INIT
  @ DRIVER MODE: Receiving replica           0          -1
  @ DRIVER MODE: Receiving encoded integer          25
  @ DRIVER MODE:  SCF:  T  FORCE:  T  STRESS:  F  VC:  F  ENSEMBLE:  F
  @ DRIVER MODE:  SCF:  T  FORCE:  T  STRESS:  F  VC:  F  ENSEMBLE:  F

     Using Slab Decomposition

     bravais-lattice index     =            0
     lattice parameter (alat)  =       1.8897  a.u.
     unit-cell volume          =    6658.9804 (a.u.)^3
     number of atoms/cell      =           54
     number of atomic types    =            5
     number of electrons       =       401.00
     number of Kohn-Sham states=          210
     kinetic-energy cutoff     =      29.3995  Ry
     charge density cutoff     =     293.9946  Ry
     scf convergence threshold =      7.3E-08
     mixing beta               =       0.0500
     number of iterations used =            8  plain     mixing
     Exchange-correlation= BEEF-VDW
                           (   1   4  43  14   2   0   0)

     celldm(1)=   1.889726  celldm(2)=   0.000000  celldm(3)=   0.000000
     celldm(4)=   0.000000  celldm(5)=   0.000000  celldm(6)=   0.000000

     crystal axes: (cart. coord. in units of alat)
               a(1) = (   6.579727   0.000000   0.000000 )
               a(2) = (  -0.000775   5.961596   0.000000 )
               a(3) = (   0.000000   0.000000  25.155947 )

     reciprocal axes: (cart. coord. in units 2 pi/alat)
               b(1) = (  0.151982  0.000020  0.000000 )
               b(2) = (  0.000000  0.167740  0.000000 )
               b(3) = (  0.000000  0.000000  0.039752 )

     PseudoPot. # 1 for O  read from file:
     /storage/coda1/p-amedford6/0/shared/rich_project_chbe-medford/medford-share/data/pseudos_module/espresso/nninc/pbe/van/O.UPF
     MD5 check sum: 78c19812648e8988a0fe644b0f25305e
     Pseudo is Ultrasoft, Zval =  6.0
     Generated by new atomic code, or converted to UPF format
     Using radial grid of  737 points,  4 beta functions with:
                l(1) =   0
                l(2) =   0
                l(3) =   1
                l(4) =   1
     Q(r) pseudized with  8 coefficients,  rinner =    0.800   0.800   0.800

     PseudoPot. # 2 for Ti read from file:
     /storage/coda1/p-amedford6/0/shared/rich_project_chbe-medford/medford-share/data/pseudos_module/espresso/nninc/pbe/van/Ti.UPF
     MD5 check sum: 8e4df49b7f0d34bbd5052bf3f5ea0213
     Pseudo is Ultrasoft, Zval = 12.0
     Generated by new atomic code, or converted to UPF format
     Using radial grid of  851 points,  6 beta functions with:
                l(1) =   0
                l(2) =   0
                l(3) =   1
                l(4) =   1
                l(5) =   2
                l(6) =   2
     Q(r) pseudized with  8 coefficients,  rinner =    1.000   1.000   1.000
                                                       1.000   1.000

     PseudoPot. # 3 for N  read from file:
     /storage/coda1/p-amedford6/0/shared/rich_project_chbe-medford/medford-share/data/pseudos_module/espresso/nninc/pbe/van/N.UPF
     MD5 check sum: 90d10febe142ad51ac9d5be1deb811c4
     Pseudo is Ultrasoft, Zval =  5.0
     Generated by new atomic code, or converted to UPF format
     Using radial grid of  729 points,  4 beta functions with:
                l(1) =   0
                l(2) =   0
                l(3) =   1
                l(4) =   1
     Q(r) pseudized with  8 coefficients,  rinner =    0.800   0.800   0.800

     PseudoPot. # 4 for C  read from file:
     /storage/coda1/p-amedford6/0/shared/rich_project_chbe-medford/medford-share/data/pseudos_module/espresso/nninc/pbe/van/C.UPF
     MD5 check sum: 1a69bf6b8db32088f5b2163dbdb77a27
     Pseudo is Ultrasoft, Zval =  4.0
     Generated by new atomic code, or converted to UPF format
     Using radial grid of  721 points,  4 beta functions with:
                l(1) =   0
                l(2) =   0
                l(3) =   1
                l(4) =   1
     Q(r) pseudized with  8 coefficients,  rinner =    0.800   0.800   0.800

     PseudoPot. # 5 for H  read from file:
     /storage/coda1/p-amedford6/0/shared/rich_project_chbe-medford/medford-share/data/pseudos_module/espresso/nninc/pbe/van/H.UPF
     MD5 check sum: b5ee9d7bfd3a09ee7748110bda690ff7
     Pseudo is Ultrasoft, Zval =  1.0
     Generated by new atomic code, or converted to UPF format
     Using radial grid of  615 points,  1 beta functions with:
                l(1) =   0
     Q(r) pseudized with  8 coefficients,  rinner =    0.800

     atomic species   valence    mass     pseudopotential
        O1             6.00    15.99900     O ( 1.00)
        Ti1           12.00    47.86700     Ti( 1.00)
        N1             5.00    14.00700     N ( 1.00)
        C1             4.00    12.01100     C ( 1.00)
        H1             1.00     1.00800     H ( 1.00)

     No symmetry found

   Cartesian axes

     site n.     atom                  positions (alat units)
         1           O1  tau(   1) = (   3.2904802   0.0005063   4.7018136  )
         2           O1  tau(   2) = (   3.2900926   2.9813045   4.7018136  )
         3           Ti1 tau(   3) = (   0.0004258   2.9801865   6.0000000  )
         4           Ti1 tau(   4) = (   0.0000382   5.9609847   6.0000000  )
         5           Ti1 tau(   5) = (   3.2906075   1.4906267   6.0002472  )
         6           Ti1 tau(   6) = (   3.2902200   4.4714249   6.0002472  )
         7           O1  tau(   7) = (   1.3043587   1.4918075   6.0039043  )
         8           O1  tau(   8) = (   1.3039711   4.4726057   6.0039043  )
         9           O1  tau(   9) = (   5.2767064   1.4903225   6.0039473  )
        10           O1  tau(  10) = (   5.2763189   4.4711207   6.0039473  )
        11           O1  tau(  11) = (   3.2906025   0.0005020   7.3038282  )
        12           O1  tau(  12) = (   3.2902150   2.9813002   7.3038282  )
        13           O1  tau(  13) = (   0.0006271   0.0005054   7.9858123  )
        14           O1  tau(  14) = (   0.0002396   2.9813036   7.9858123  )
        15           Ti1 tau(  15) = (   3.2907910   2.8959150   9.1758416  )
        16           Ti1 tau(  16) = (   3.2891106   5.8743827   9.1763621  )
        17           Ti1 tau(  17) = (   0.0015273   1.4827037   9.2680791  )
        18           Ti1 tau(  18) = (   0.0006254   4.4649316   9.2693709  )
        19           O1  tau(  19) = (   4.5942328   1.4918067   9.2879030  )
        20           O1  tau(  20) = (   4.5938453   4.4726049   9.2879030  )
        21           O1  tau(  21) = (   1.9868534   1.4903216   9.2879459  )
        22           O1  tau(  22) = (   1.9864658   4.4711199   9.2879459  )
        23           O1  tau(  23) = (   0.0116148   5.9584955  10.6183126  )
        24           O1  tau(  24) = (   0.0092240   2.9805883  10.6323155  )
        25           O1  tau(  25) = (   3.2531556   2.9620241  11.3322950  )
        26           O1  tau(  26) = (   3.2474763   5.9435521  11.3438280  )
        27           Ti1 tau(  27) = (   3.3237694   4.3814390  12.5572636  )
        28           Ti1 tau(  28) = (   0.0094504   0.0092305  12.5172013  )
        29           Ti1 tau(  29) = (   3.3224445   1.4452456  12.4745429  )
        30           Ti1 tau(  30) = (   0.0090234   2.9988230  12.5821063  )
        31           O1  tau(  31) = (   5.2496676   1.4726344  12.6006421  )
        32           O1  tau(  32) = (   5.2531746   4.4496067  12.6010712  )
        33           O1  tau(  33) = (   1.2410339   1.4659728  12.6671891  )
        34           O1  tau(  34) = (   1.2387123   4.4686174  12.6665250  )
        35           O1  tau(  35) = (   3.3067986   5.9564546  13.9007842  )
        36           O1  tau(  36) = (   3.2420318   3.0005841  13.9279729  )
        37           O1  tau(  37) = (   6.4209026   5.9439257  14.7021623  )
        38           O1  tau(  38) = (   6.4587925   2.9577525  14.6988961  )
        39           Ti1 tau(  39) = (   3.2423495   0.0283394  15.6829305  )
        40           Ti1 tau(  40) = (   6.4236859   1.5154006  15.7784978  )
        41           Ti1 tau(  41) = (   3.0799157   3.0146384  15.8599260  )
        42           O1  tau(  42) = (   1.9357555   1.4358950  15.9107064  )
        43           O1  tau(  43) = (   1.9271111   4.5447382  15.9660097  )
        44           Ti1 tau(  44) = (   6.4519450   4.6669281  16.1370820  )
        45           O1  tau(  45) = (   4.4443926   1.5071054  16.1134243  )
        46           O1  tau(  46) = (   4.4397279   4.4733020  16.1527106  )
        47           O1  tau(  47) = (   6.5167551   0.0277669  17.2715591  )
        48           N1  tau(  48) = (   0.3759035   2.6095042  18.6336219  )
        49           C1  tau(  49) = (   2.8136782   2.9081565  18.1516972  )
        50           H1  tau(  50) = (   0.1656462   1.5987175  18.7006542  )
        51           N1  tau(  51) = (   1.8163940   2.6652851  18.9293397  )
        52           H1  tau(  52) = (   3.7261332   2.9868749  18.7514029  )
        53           H1  tau(  53) = (   1.8928842   2.5952305  19.9427491  )
        54           O1  tau(  54) = (   0.1082553   2.9165792  17.3165359  )

     number of k points=    10  Fermi-Dirac smearing, width (Ry)=  0.0073
                       cart. coord. in units 2pi/alat
        k(    1) = (   0.0000000   0.0000000   0.0000000), wk =   0.1250000
        k(    2) = (   0.0000000   0.0419351   0.0000000), wk =   0.2500000
        k(    3) = (   0.0000000  -0.0838702   0.0000000), wk =   0.1250000
        k(    4) = (   0.0379955   0.0000049   0.0000000), wk =   0.2500000
        k(    5) = (   0.0379955   0.0419400   0.0000000), wk =   0.2500000
        k(    6) = (   0.0379955  -0.0838652   0.0000000), wk =   0.2500000
        k(    7) = (   0.0379955  -0.0419301   0.0000000), wk =   0.2500000
        k(    8) = (  -0.0759910  -0.0000099   0.0000000), wk =   0.1250000
        k(    9) = (  -0.0759910   0.0419252   0.0000000), wk =   0.2500000
        k(   10) = (  -0.0759910  -0.0838800   0.0000000), wk =   0.1250000

     Initial potential from superposition of free atoms

     starting charge  384.99916, renormalised to  401.00000

     negative rho (up, down):  1.631E-02 0.000E+00

     %%%%%%%%%%%%%%%%%%%%%%%%%%%%%%%%%%%%%%%%%%%%%%%%%%%%%%%%%%%%%%%%%%%%%%%%
     %                                                                      %
     % You are using vdW-DF, which was implemented by the Thonhauser group. %
     % Please cite the following two papers that made this development      %
     % possible and the two reviews that describe the various versions:     %
     %                                                                      %
     %   T. Thonhauser et al., PRL 115, 136402 (2015).                      %
     %   T. Thonhauser et al., PRB 76, 125112 (2007).                       %
     %   K. Berland et al., Rep. Prog. Phys. 78, 066501 (2015).             %
     %   D.C. Langreth et al., J. Phys.: Condens. Matter 21, 084203 (2009). %
     %                                                                      %
     %                                                                      %
     % If you are calculating the stress with vdW-DF, please also cite:     %
     %                                                                      %
     %   R. Sabatini et al., J. Phys.: Condens. Matter 24, 424209 (2012).   %
     %                                                                      %
     %%%%%%%%%%%%%%%%%%%%%%%%%%%%%%%%%%%%%%%%%%%%%%%%%%%%%%%%%%%%%%%%%%%%%%%%

     Adding external electric field

     Computed dipole along edir(3) :
        Dipole              -11.6315 Ry au,        -29.5642 Debye
        Dipole field         -0.0220 Ry au,

        Potential amp.        2.0347 Ry
        Total length         46.3494 bohr

     Starting wfcs are  303 atomic wfcs
  @ DRIVER MODE: Message from server: STATUS
  @ DRIVER MODE: Message from server: POSDATA
  @ DRIVER MODE: Reading and sharing cell
  @ DRIVER MODE: Reading and sharing positions
  @ DRIVER MODE: Received positions

     Self-consistent Calculation

     iteration #  1     ecut=    29.40 Ry     beta= 0.05
     Davidson diagonalization with overlap
     c_bands:  3 eigenvalues not converged
     c_bands:  3 eigenvalues not converged
     c_bands:  5 eigenvalues not converged
     c_bands:  4 eigenvalues not converged
     c_bands:  4 eigenvalues not converged
     c_bands:  3 eigenvalues not converged
     c_bands:  1 eigenvalues not converged
     c_bands:  3 eigenvalues not converged
     ethr =  1.00E-05,  avg # of iterations = 22.1

[...]

     total energy              =   -2394.28501362 Ry
     estimated scf accuracy    <    6495.30743583 Ry

     iteration #  2     ecut=    29.40 Ry     beta= 0.05
     Davidson diagonalization with overlap
     ethr =  1.00E-02,  avg # of iterations = 24.1

[...]

     iteration # 74     ecut=    29.40 Ry     beta= 0.05
     Davidson diagonalization with overlap
     c_bands:  3 eigenvalues not converged
     ethr =  1.16E-10,  avg # of iterations = 14.8

[...]

     total energy              =   -2971.36035207 Ry
     estimated scf accuracy    <       0.00000012 Ry

     iteration # 77     ecut=    29.40 Ry     beta= 0.05
     Davidson diagonalization with overlap
     ethr =  3.01E-11,  avg # of iterations = 11.3

     negative rho (up, down):  1.694E-02 0.000E+00

     Adding external electric field

     Computed dipole along edir(3) :
        Dipole                1.3738 Ry au,          3.4919 Debye
        Dipole field          0.0026 Ry au,

        Potential amp.       -0.2403 Ry
        Total length         46.3494 bohr

     End of self-consistent calculation

          k = 0.0000 0.0000 0.0000 ( 18029 PWs)   bands (ev):

   -55.3639 -55.3298 -55.2845 -55.2402 -55.2338 -55.2245 -55.1970 -55.1851
   -55.1512 -55.1430 -55.1298 -55.1077 -55.0355 -54.9958 -54.3433 -54.3092
   -31.8483 -31.8091 -31.7329 -31.6854 -31.6797 -31.6556 -31.6333 -31.6092
   -31.6006 -31.5693 -31.5413 -31.5162 -31.5026 -31.4960 -31.4702 -31.4671
   -31.4634 -31.4495 -31.4378 -31.4211 -31.4031 -31.3995 -31.3940 -31.3824
   -31.3786 -31.3779 -31.3741 -31.3647 -31.3418 -31.3414 -31.3343 -31.3248
   -31.3237 -31.3156 -31.2973 -31.2943 -31.2864 -31.2559 -31.2366 -31.2243
   -31.2105 -31.1803 -30.7500 -30.6622 -30.6398 -30.5672 -30.4807 -30.3693
   -20.2213 -17.3434 -16.0549 -15.8428 -15.6382 -15.5296 -15.4814 -15.2488
   -15.1315 -15.1020 -15.0154 -14.9441 -14.9276 -14.9036 -14.8923 -14.8738
   -14.8152 -14.8033 -14.7918 -14.7882 -14.7600 -14.7392 -14.7160 -14.7032
   -14.5825 -14.5690 -14.5400 -14.5078 -14.4857 -14.4247 -14.1678 -12.8442
   -12.7313 -12.7278  -9.0560  -7.2363  -5.7175  -4.9615  -3.4282  -3.3143
    -3.2898  -3.2704  -3.1933  -3.1456  -3.0227  -2.8061  -2.6584  -2.5583
    -2.5326  -2.4534  -2.3825  -2.3581  -2.3158  -2.2606  -2.2047  -2.1595
    -2.1346  -2.1113  -2.1025  -2.0966  -2.0024  -1.9845  -1.9437  -1.8909
    -1.8571  -1.7607  -1.7437  -1.6867  -1.6787  -1.6374  -1.6271  -1.6179
    -1.6093  -1.5905  -1.5074  -1.4927  -1.4440  -1.3672  -1.1769  -1.1239
    -1.0257  -0.9718  -0.8677  -0.8435  -0.8017  -0.7728  -0.7656  -0.7569
    -0.7107  -0.6172  -0.5742  -0.5221  -0.4608  -0.3829  -0.3141  -0.2741
    -0.1633  -0.1498  -0.1230  -0.1152  -0.0836   0.0582   0.1181   0.1673
     0.1919   0.2295   0.2959   0.3562   0.3707   0.4160   0.4400   0.5059
     0.5430   0.5621   0.5817   0.6097   0.6231   0.6520   0.6674   0.7164
     0.8420   0.8525   0.9006   0.9434   1.0042   1.1208   1.1286   1.2895
     1.3761   1.5637   1.6184   1.6806   1.7424   1.8722   2.2503   2.2959
     3.7417   3.8566   3.8888   3.9168   4.0005   4.0402   4.2101   4.2747
     4.2979   4.3366

[...]

          k = 0.0380-0.0419 0.0000 ( 17876 PWs)   bands (ev):

[...]

          k =-0.0760-0.0000 0.0000 ( 17886 PWs)   bands (ev):

[...]

          k =-0.0760-0.0839 0.0000 ( 17948 PWs)   bands (ev):

   -55.3471 -55.3465 -55.2785 -55.2316 -55.2311 -55.2300 -55.2056 -55.1682
   -55.1677 -55.1325 -55.1306 -55.1202 -55.0277 -55.0036 -54.3262 -54.3262
   -31.6638 -31.6634 -31.6505 -31.6413 -31.6408 -31.5914 -31.5686 -31.5494
   -31.5425 -31.5261 -31.5064 -31.4958 -31.4930 -31.4862 -31.4799 -31.4725
   -31.4665 -31.4663 -31.4637 -31.4602 -31.4563 -31.4399 -31.4379 -31.4313
   -31.4222 -31.4166 -31.4048 -31.3843 -31.3719 -31.3698 -31.3575 -31.3470
   -31.3467 -31.3439 -31.3414 -31.3410 -31.3379 -31.3321 -31.2641 -31.2505
   -31.2317 -31.2119 -30.6525 -30.6525 -30.5629 -30.5628 -30.5240 -30.5240
   -20.2163 -17.3408 -15.4866 -15.3743 -15.3708 -15.3037 -15.2501 -15.1781
   -15.1284 -15.0985 -15.0587 -15.0406 -15.0146 -14.9729 -14.9325 -14.9217
   -14.8969 -14.8881 -14.8664 -14.8226 -14.8137 -14.8060 -14.7997 -14.7728
   -14.7326 -14.7060 -14.6839 -14.6793 -14.6500 -14.5131 -14.3680 -12.8296
   -12.8295 -12.7359  -9.0488  -7.1793  -5.7281  -4.9830  -3.3348  -2.7517
    -2.6607  -2.5745  -2.5038  -2.4319  -2.3918  -2.3706  -2.3125  -2.3074
    -2.2772  -2.2185  -2.1992  -2.1832  -2.1675  -2.1370  -2.1293  -2.1069
    -2.0969  -2.0888  -2.0488  -2.0455  -2.0207  -2.0181  -1.9922  -1.9854
    -1.9558  -1.9272  -1.9064  -1.8681  -1.8242  -1.7231  -1.6378  -1.5665
    -1.5124  -1.5012  -1.4920  -1.4369  -1.4198  -1.3879  -1.3616  -1.3249
    -1.1909  -1.0526  -1.0428  -1.0074  -0.9422  -0.9104  -0.8714  -0.8508
    -0.7754  -0.7582  -0.7254  -0.6984  -0.6261  -0.5369  -0.4924  -0.4518
    -0.4209  -0.3659  -0.3381  -0.3184  -0.3018  -0.2872  -0.2525  -0.1841
    -0.1418  -0.1183  -0.0857  -0.0596  -0.0376  -0.0119   0.1593   0.1771
     0.2751   0.3435   0.4014   0.5374   0.6390   0.6777   0.7196   0.7789
     0.8466   0.8988   0.9322   0.9496   0.9678   1.0315   1.0892   1.1543
     1.1701   1.2026   1.2810   1.4499   2.0442   2.0466   2.1159   2.1162
     4.1125   4.1613   4.1853   4.1962   4.2636   4.2877   4.3049   4.3086
     4.4132   4.4335

     the Fermi energy is     3.7619 ev

!    total energy              =   -2971.36037193 Ry
     estimated scf accuracy    <       0.00000005 Ry
     smearing contrib. (-TS)   =      -0.02057293 Ry
     internal energy E=F+TS    =   -2971.33979900 Ry

     The total energy is F=E-TS. E is the sum of the following terms:
     one-electron contribution =  -24168.92716989 Ry
     hartree contribution      =   12180.10291395 Ry
     xc contribution           =    -492.43115382 Ry
     ewald contribution        =    9509.91204910 Ry
     electric field correction =       0.00356167 Ry

     convergence has been achieved in  77 iterations

     Forces acting on atoms (cartesian axes, Ry/au):

     atom    1 type  1   force =     0.00007256   -0.00012345    0.10313944
     atom    2 type  1   force =     0.00007632   -0.00010397    0.10318166
     atom    3 type  2   force =     0.00002562   -0.00019105    0.09532305
     atom    4 type  2   force =     0.00007991   -0.00048087    0.09490091
     atom    5 type  2   force =    -0.00021999   -0.00070847   -0.17562410
     atom    6 type  2   force =    -0.00005048   -0.00023917   -0.17574241
     atom    7 type  1   force =    -0.07168155   -0.00018102   -0.02755914
     atom    8 type  1   force =    -0.07166203   -0.00021657   -0.02749040
     atom    9 type  1   force =     0.07154890    0.00026338   -0.02756369
     atom   10 type  1   force =     0.07151377    0.00025605   -0.02753821
     atom   11 type  1   force =    -0.00007930   -0.00144065    0.05241309
     atom   12 type  1   force =    -0.00000457   -0.00150028    0.05287479
     atom   13 type  1   force =    -0.00013341   -0.00017591   -0.02268552
     atom   14 type  1   force =    -0.00005878   -0.00029129   -0.02181597
     atom   15 type  2   force =    -0.00221544    0.00205049   -0.00874340
     atom   16 type  2   force =    -0.00226329    0.00206303   -0.00153674
     atom   17 type  2   force =     0.00139848    0.00932897    0.01491726
     atom   18 type  2   force =     0.00154913   -0.01043364    0.01569098
     atom   19 type  1   force =    -0.01011473   -0.00094444    0.00483272
     atom   20 type  1   force =    -0.01049624   -0.00076129    0.00458195
     atom   21 type  1   force =     0.01028445   -0.00001024    0.00092949
     atom   22 type  1   force =     0.01056710   -0.00054078    0.00074887
     atom   23 type  1   force =    -0.00214287    0.00037035   -0.01185856
     atom   24 type  1   force =    -0.00061400   -0.00078330   -0.01484895
     atom   25 type  1   force =     0.00002255    0.00040916   -0.00001556
     atom   26 type  1   force =     0.00010355   -0.00027196   -0.00046816
     atom   27 type  2   force =     0.00052571   -0.00013600   -0.00069827
     atom   28 type  2   force =    -0.00020647   -0.00021504   -0.00008355
     atom   29 type  2   force =     0.00018884    0.00077321    0.00012764
     atom   30 type  2   force =    -0.00030329   -0.00027615   -0.00004255
     atom   31 type  1   force =     0.00025570    0.00057940    0.00025488
     atom   32 type  1   force =    -0.00063194    0.00046170    0.00003584
     atom   33 type  1   force =     0.00043291    0.00053084    0.00010574
     atom   34 type  1   force =     0.00071400    0.00022219   -0.00016551
     atom   35 type  1   force =    -0.00007939   -0.00035449   -0.00004805
     atom   36 type  1   force =     0.00082247    0.00058305   -0.00074301
     atom   37 type  1   force =     0.00042624    0.00027950    0.00033243
     atom   38 type  1   force =     0.00057135    0.00069469    0.00082714
     atom   39 type  2   force =     0.00014243   -0.00018309   -0.00028474
     atom   40 type  2   force =    -0.00001274   -0.00012805    0.00023947
     atom   41 type  2   force =     0.00033680    0.00015444    0.00020465
     atom   42 type  1   force =     0.00078610   -0.00017868   -0.00025070
     atom   43 type  1   force =     0.00065444    0.00037382   -0.00002707
     atom   44 type  2   force =    -0.00009945    0.00057836   -0.00029440
     atom   45 type  1   force =     0.00039739    0.00010620   -0.00032921
     atom   46 type  1   force =     0.00039570    0.00055379    0.00035137
     atom   47 type  1   force =    -0.00040847    0.00046248    0.00001487
     atom   48 type  3   force =     0.00096642   -0.00065738    0.00070614
     atom   49 type  4   force =    -0.00012741   -0.00049927   -0.00003547
     atom   50 type  5   force =     0.00045605    0.00066713   -0.00049772
     atom   51 type  3   force =     0.00015497   -0.00002236    0.00094820
     atom   52 type  5   force =     0.00130723   -0.00008198    0.00086936
     atom   53 type  5   force =    -0.00002723   -0.00008442    0.00116475
     atom   54 type  1   force =    -0.00314399    0.00045306   -0.00272566

     Total force =     0.364462     Total SCF correction =     0.000715
  @ DRIVER MODE: Message from server: STATUS
  @ DRIVER MODE: Message from server: GETFORCE
  @ DRIVER MODE: Returning v,forces,stress,ensemble

     Writing output data file ./calc.save/
  @ DRIVER MODE: Message from server: EXIT
  @ DRIVE MODE: Exiting

     General routines

     Parallel routines

   This run was terminated on:  13:43:30  27Sep2021

   JOB DONE.